Zn64 H376 C658 O204
1.0
  34.4166970379246777    0.0000000000000000    1.8428567496435726
   0.3165868240558981   34.4553798785998566    1.9505676620436261
   0.0000000000000000    0.0000000000000000   34.8140000000000001
Zn H C O
64 376 658 204
direct
   0.1033450000000000    0.0409400000000000    0.3297900000000000 Zn
   0.0398000000000000    0.0382050000000000    0.4016450000000000 Zn
   0.1031250000000000    0.1031950000000000    0.3967350000000000 Zn
   0.3965600000000000    0.4634200000000000    0.1679750000000000 Zn
   0.4599800000000000    0.3970150000000000    0.1700100000000000 Zn
   0.4619300000000000    0.4617000000000000    0.0985650000000000 Zn
   0.3969750000000000    0.3984250000000000    0.1034950000000000 Zn
   0.0378900000000000    0.1049900000000000    0.3330150000000000 Zn
   0.6033450000000000    0.0409400000000000    0.3297900000000000 Zn
   0.5398000000000001    0.0382050000000000    0.4016450000000000 Zn
   0.6031250000000000    0.1031950000000000    0.3967350000000000 Zn
   0.8965600000000000    0.4634200000000000    0.1679750000000000 Zn
   0.9599800000000001    0.3970150000000000    0.1700100000000000 Zn
   0.9619300000000000    0.4617000000000000    0.0985650000000000 Zn
   0.8969750000000001    0.3984250000000000    0.1034950000000000 Zn
   0.5378900000000000    0.1049900000000000    0.3330150000000000 Zn
   0.1033450000000000    0.5409400000000000    0.3297900000000000 Zn
   0.0398000000000000    0.5382050000000000    0.4016450000000000 Zn
   0.1031250000000000    0.6031950000000000    0.3967350000000000 Zn
   0.3965600000000000    0.9634199999999999    0.1679750000000000 Zn
   0.4599800000000000    0.8970150000000000    0.1700100000000000 Zn
   0.4619300000000000    0.9617000000000000    0.0985650000000000 Zn
   0.3969750000000000    0.8984250000000000    0.1034950000000000 Zn
   0.0378900000000000    0.6049900000000000    0.3330150000000000 Zn
   0.6033450000000000    0.5409400000000000    0.3297900000000000 Zn
   0.5398000000000001    0.5382050000000000    0.4016450000000000 Zn
   0.6031250000000000    0.6031950000000000    0.3967350000000000 Zn
   0.8965600000000000    0.9634199999999999    0.1679750000000000 Zn
   0.9599800000000001    0.8970150000000000    0.1700100000000000 Zn
   0.9619300000000000    0.9617000000000000    0.0985650000000000 Zn
   0.8969750000000001    0.8984250000000000    0.1034950000000000 Zn
   0.5378900000000000    0.6049900000000000    0.3330150000000000 Zn
   0.1033450000000000    0.0409400000000000    0.8297900000000000 Zn
   0.0398000000000000    0.0382050000000000    0.9016450000000000 Zn
   0.1031250000000000    0.1031950000000000    0.8967350000000001 Zn
   0.3965600000000000    0.4634200000000000    0.6679750000000000 Zn
   0.4599800000000000    0.3970150000000000    0.6700100000000000 Zn
   0.4619300000000000    0.4617000000000000    0.5985650000000000 Zn
   0.3969750000000000    0.3984250000000000    0.6034950000000000 Zn
   0.0378900000000000    0.1049900000000000    0.8330150000000001 Zn
   0.6033450000000000    0.0409400000000000    0.8297900000000000 Zn
   0.5398000000000001    0.0382050000000000    0.9016450000000000 Zn
   0.6031250000000000    0.1031950000000000    0.8967350000000001 Zn
   0.8965600000000000    0.4634200000000000    0.6679750000000000 Zn
   0.9599800000000001    0.3970150000000000    0.6700100000000000 Zn
   0.9619300000000000    0.4617000000000000    0.5985650000000000 Zn
   0.8969750000000001    0.3984250000000000    0.6034950000000000 Zn
   0.5378900000000000    0.1049900000000000    0.8330150000000001 Zn
   0.1033450000000000    0.5409400000000000    0.8297900000000000 Zn
   0.0398000000000000    0.5382050000000000    0.9016450000000000 Zn
   0.1031250000000000    0.6031950000000000    0.8967350000000001 Zn
   0.3965600000000000    0.9634199999999999    0.6679750000000000 Zn
   0.4599800000000000    0.8970150000000000    0.6700100000000000 Zn
   0.4619300000000000    0.9617000000000000    0.5985650000000000 Zn
   0.3969750000000000    0.8984250000000000    0.6034950000000000 Zn
   0.0378900000000000    0.6049900000000000    0.8330150000000001 Zn
   0.6033450000000000    0.5409400000000000    0.8297900000000000 Zn
   0.5398000000000001    0.5382050000000000    0.9016450000000000 Zn
   0.6031250000000000    0.6031950000000000    0.8967350000000001 Zn
   0.8965600000000000    0.9634199999999999    0.6679750000000000 Zn
   0.9599800000000001    0.8970150000000000    0.6700100000000000 Zn
   0.9619300000000000    0.9617000000000000    0.5985650000000000 Zn
   0.8969750000000001    0.8984250000000000    0.6034950000000000 Zn
   0.5378900000000000    0.6049900000000000    0.8330150000000001 Zn
   0.4214800000000000    0.0872100000000000    0.3095650000000000 H
   0.3495300000000000    0.0827400000000000    0.3085750000000000 H
   0.3457150000000000    0.0299850000000000    0.4239400000000000 H
   0.4177650000000000    0.0330550000000000    0.4238350000000000 H
   0.2967700000000000    0.0366550000000000    0.3091450000000000 H
   0.2246250000000000    0.0408600000000000    0.3088050000000000 H
   0.2198600000000000    0.0830800000000000    0.4226500000000000 H
   0.2918550000000000    0.0777350000000000    0.4239400000000000 H
   0.0894650000000000    0.0178200000000000    0.1422450000000000 H
   0.0943600000000000    0.0190300000000000    0.2131300000000000 H
   0.0850500000000000    0.4238650000000000    0.3041350000000000 H
   0.0814300000000000    0.3517850000000000    0.3026800000000000 H
   0.0493150000000000    0.3445100000000000    0.4241700000000000 H
   0.0508700000000000    0.4165800000000000    0.4247750000000000 H
   0.0326300000000000    0.2980050000000000    0.3126300000000000 H
   0.0341700000000000    0.2257100000000000    0.3130350000000000 H
   0.1027350000000000    0.2209200000000000    0.4126350000000000 H
   0.0996650000000000    0.2930700000000000    0.4138100000000000 H
   0.0313050000000000    0.1291550000000000    0.1413700000000000 H
   0.0354050000000000    0.1294500000000000    0.2125650000000000 H
   0.4153500000000000    0.0795250000000000    0.1913550000000000 H
   0.4190400000000000    0.1514750000000000    0.1917800000000000 H
   0.4683350000000000    0.1555550000000000    0.0751900000000000 H
   0.4659300000000000    0.0835300000000000    0.0757550000000000 H
   0.4646600000000000    0.2042250000000000    0.1898950000000000 H
   0.4604700000000000    0.2762600000000000    0.1901600000000000 H
   0.4150700000000000    0.2810850000000000    0.0774900000000000 H
   0.4204900000000000    0.2091800000000000    0.0762150000000000 H
   0.4840550000000000    0.4097750000000000    0.3582150000000000 H
   0.4827800000000000    0.4048850000000000    0.2872950000000000 H
   0.0769100000000000    0.4167200000000000    0.1959550000000000 H
   0.1490500000000000    0.4209650000000000    0.1975650000000000 H
   0.1559400000000000    0.4536650000000000    0.0761250000000000 H
   0.0838000000000000    0.4515200000000000    0.0753900000000000 H
   0.2027450000000000    0.4704550000000000    0.1875150000000000 H
   0.2751750000000000    0.4693000000000000    0.1870200000000000 H
   0.2798350000000000    0.4007150000000000    0.0877300000000000 H
   0.2075800000000000    0.4034150000000000    0.0866200000000000 H
   0.3726650000000000    0.4680200000000000    0.3586450000000000 H
   0.3723350000000000    0.4639750000000000    0.2874550000000000 H
   0.0828650000000000    0.1320800000000000    0.0136000000000000 H
   0.0791800000000000    0.1333050000000000    0.0852100000000000 H
   0.0406250000000000    0.0146150000000000    0.0934000000000000 H
   0.0422150000000000    0.0145250000000000    0.0221200000000000 H
   0.3692900000000000    0.4167150000000000    0.4862400000000000 H
   0.3685250000000000    0.4198000000000000    0.4145700000000000 H
   0.4870100000000000    0.4593200000000000    0.4070250000000000 H
   0.4865750000000000    0.4584550000000000    0.4783650000000000 H
   0.9214800000000001    0.0872100000000000    0.3095650000000000 H
   0.8495300000000000    0.0827400000000000    0.3085750000000000 H
   0.8457150000000000    0.0299850000000000    0.4239400000000000 H
   0.9177649999999999    0.0330550000000000    0.4238350000000000 H
   0.7967700000000000    0.0366550000000000    0.3091450000000000 H
   0.7246250000000000    0.0408600000000000    0.3088050000000000 H
   0.7198599999999999    0.0830800000000000    0.4226500000000000 H
   0.7918550000000000    0.0777350000000000    0.4239400000000000 H
   0.5894650000000000    0.0178200000000000    0.1422450000000000 H
   0.5943600000000000    0.0190300000000000    0.2131300000000000 H
   0.5850500000000000    0.4238650000000000    0.3041350000000000 H
   0.5814300000000000    0.3517850000000000    0.3026800000000000 H
   0.5493150000000000    0.3445100000000000    0.4241700000000000 H
   0.5508700000000000    0.4165800000000000    0.4247750000000000 H
   0.5326300000000000    0.2980050000000000    0.3126300000000000 H
   0.5341700000000000    0.2257100000000000    0.3130350000000000 H
   0.6027350000000000    0.2209200000000000    0.4126350000000000 H
   0.5996650000000000    0.2930700000000000    0.4138100000000000 H
   0.5313050000000000    0.1291550000000000    0.1413700000000000 H
   0.5354050000000000    0.1294500000000000    0.2125650000000000 H
   0.9153500000000000    0.0795250000000000    0.1913550000000000 H
   0.9190400000000001    0.1514750000000000    0.1917800000000000 H
   0.9683349999999999    0.1555550000000000    0.0751900000000000 H
   0.9659300000000000    0.0835300000000000    0.0757550000000000 H
   0.9646600000000001    0.2042250000000000    0.1898950000000000 H
   0.9604699999999999    0.2762600000000000    0.1901600000000000 H
   0.9150700000000001    0.2810850000000000    0.0774900000000000 H
   0.9204900000000000    0.2091800000000000    0.0762150000000000 H
   0.9840550000000000    0.4097750000000000    0.3582150000000000 H
   0.9827800000000000    0.4048850000000000    0.2872950000000000 H
   0.5769100000000000    0.4167200000000000    0.1959550000000000 H
   0.6490500000000000    0.4209650000000000    0.1975650000000000 H
   0.6559400000000000    0.4536650000000000    0.0761250000000000 H
   0.5838000000000000    0.4515200000000000    0.0753900000000000 H
   0.7027450000000000    0.4704550000000000    0.1875150000000000 H
   0.7751749999999999    0.4693000000000000    0.1870200000000000 H
   0.7798350000000001    0.4007150000000000    0.0877300000000000 H
   0.7075800000000000    0.4034150000000000    0.0866200000000000 H
   0.8726650000000000    0.4680200000000000    0.3586450000000000 H
   0.8723350000000001    0.4639750000000000    0.2874550000000000 H
   0.5828650000000000    0.1320800000000000    0.0136000000000000 H
   0.5791800000000000    0.1333050000000000    0.0852100000000000 H
   0.5406250000000000    0.0146150000000000    0.0934000000000000 H
   0.5422150000000000    0.0145250000000000    0.0221200000000000 H
   0.8692900000000000    0.4167150000000000    0.4862400000000000 H
   0.8685250000000000    0.4198000000000000    0.4145700000000000 H
   0.9870099999999999    0.4593200000000000    0.4070250000000000 H
   0.9865750000000000    0.4584550000000000    0.4783650000000000 H
   0.4214800000000000    0.5872100000000000    0.3095650000000000 H
   0.3495300000000000    0.5827400000000000    0.3085750000000000 H
   0.3457150000000000    0.5299850000000000    0.4239400000000000 H
   0.4177650000000000    0.5330550000000001    0.4238350000000000 H
   0.2967700000000000    0.5366550000000000    0.3091450000000000 H
   0.2246250000000000    0.5408600000000000    0.3088050000000000 H
   0.2198600000000000    0.5830800000000000    0.4226500000000000 H
   0.2918550000000000    0.5777350000000000    0.4239400000000000 H
   0.0894650000000000    0.5178199999999999    0.1422450000000000 H
   0.0943600000000000    0.5190300000000000    0.2131300000000000 H
   0.0850500000000000    0.9238649999999999    0.3041350000000000 H
   0.0814300000000000    0.8517850000000000    0.3026800000000000 H
   0.0493150000000000    0.8445100000000000    0.4241700000000000 H
   0.0508700000000000    0.9165800000000000    0.4247750000000000 H
   0.0326300000000000    0.7980050000000001    0.3126300000000000 H
   0.0341700000000000    0.7257100000000000    0.3130350000000000 H
   0.1027350000000000    0.7209200000000000    0.4126350000000000 H
   0.0996650000000000    0.7930699999999999    0.4138100000000000 H
   0.0313050000000000    0.6291550000000000    0.1413700000000000 H
   0.0354050000000000    0.6294500000000001    0.2125650000000000 H
   0.4153500000000000    0.5795250000000000    0.1913550000000000 H
   0.4190400000000000    0.6514750000000000    0.1917800000000000 H
   0.4683350000000000    0.6555550000000000    0.0751900000000000 H
   0.4659300000000000    0.5835300000000000    0.0757550000000000 H
   0.4646600000000000    0.7042250000000000    0.1898950000000000 H
   0.4604700000000000    0.7762600000000000    0.1901600000000000 H
   0.4150700000000000    0.7810850000000000    0.0774900000000000 H
   0.4204900000000000    0.7091800000000000    0.0762150000000000 H
   0.4840550000000000    0.9097750000000000    0.3582150000000000 H
   0.4827800000000000    0.9048849999999999    0.2872950000000000 H
   0.0769100000000000    0.9167200000000000    0.1959550000000000 H
   0.1490500000000000    0.9209650000000000    0.1975650000000000 H
   0.1559400000000000    0.9536650000000000    0.0761250000000000 H
   0.0838000000000000    0.9515199999999999    0.0753900000000000 H
   0.2027450000000000    0.9704550000000001    0.1875150000000000 H
   0.2751750000000000    0.9693000000000001    0.1870200000000000 H
   0.2798350000000000    0.9007149999999999    0.0877300000000000 H
   0.2075800000000000    0.9034150000000001    0.0866200000000000 H
   0.3726650000000000    0.9680200000000000    0.3586450000000000 H
   0.3723350000000000    0.9639750000000000    0.2874550000000000 H
   0.0828650000000000    0.6320800000000000    0.0136000000000000 H
   0.0791800000000000    0.6333050000000000    0.0852100000000000 H
   0.0406250000000000    0.5146150000000000    0.0934000000000000 H
   0.0422150000000000    0.5145250000000000    0.0221200000000000 H
   0.3692900000000000    0.9167149999999999    0.4862400000000000 H
   0.3685250000000000    0.9198000000000000    0.4145700000000000 H
   0.4870100000000000    0.9593200000000000    0.4070250000000000 H
   0.4865750000000000    0.9584550000000001    0.4783650000000000 H
   0.9214800000000001    0.5872100000000000    0.3095650000000000 H
   0.8495300000000000    0.5827400000000000    0.3085750000000000 H
   0.8457150000000000    0.5299850000000000    0.4239400000000000 H
   0.9177649999999999    0.5330550000000001    0.4238350000000000 H
   0.7967700000000000    0.5366550000000000    0.3091450000000000 H
   0.7246250000000000    0.5408600000000000    0.3088050000000000 H
   0.7198599999999999    0.5830800000000000    0.4226500000000000 H
   0.7918550000000000    0.5777350000000000    0.4239400000000000 H
   0.5894650000000000    0.5178199999999999    0.1422450000000000 H
   0.5943600000000000    0.5190300000000000    0.2131300000000000 H
   0.5850500000000000    0.9238649999999999    0.3041350000000000 H
   0.5814300000000000    0.8517850000000000    0.3026800000000000 H
   0.5493150000000000    0.8445100000000000    0.4241700000000000 H
   0.5508700000000000    0.9165800000000000    0.4247750000000000 H
   0.5326300000000000    0.7980050000000001    0.3126300000000000 H
   0.5341700000000000    0.7257100000000000    0.3130350000000000 H
   0.6027350000000000    0.7209200000000000    0.4126350000000000 H
   0.5996650000000000    0.7930699999999999    0.4138100000000000 H
   0.5313050000000000    0.6291550000000000    0.1413700000000000 H
   0.5354050000000000    0.6294500000000001    0.2125650000000000 H
   0.9153500000000000    0.5795250000000000    0.1913550000000000 H
   0.9190400000000001    0.6514750000000000    0.1917800000000000 H
   0.9683349999999999    0.6555550000000000    0.0751900000000000 H
   0.9659300000000000    0.5835300000000000    0.0757550000000000 H
   0.9646600000000001    0.7042250000000000    0.1898950000000000 H
   0.9604699999999999    0.7762600000000000    0.1901600000000000 H
   0.9150700000000001    0.7810850000000000    0.0774900000000000 H
   0.9204900000000000    0.7091800000000000    0.0762150000000000 H
   0.9840550000000000    0.9097750000000000    0.3582150000000000 H
   0.9827800000000000    0.9048849999999999    0.2872950000000000 H
   0.5769100000000000    0.9167200000000000    0.1959550000000000 H
   0.6490500000000000    0.9209650000000000    0.1975650000000000 H
   0.6559400000000000    0.9536650000000000    0.0761250000000000 H
   0.5838000000000000    0.9515199999999999    0.0753900000000000 H
   0.7027450000000000    0.9704550000000001    0.1875150000000000 H
   0.7751749999999999    0.9693000000000001    0.1870200000000000 H
   0.7798350000000001    0.9007149999999999    0.0877300000000000 H
   0.7075800000000000    0.9034150000000001    0.0866200000000000 H
   0.8726650000000000    0.9680200000000000    0.3586450000000000 H
   0.8723350000000001    0.9639750000000000    0.2874550000000000 H
   0.5828650000000000    0.6320800000000000    0.0136000000000000 H
   0.5791800000000000    0.6333050000000000    0.0852100000000000 H
   0.5406250000000000    0.5146150000000000    0.0934000000000000 H
   0.5422150000000000    0.5145250000000000    0.0221200000000000 H
   0.8692900000000000    0.9167149999999999    0.4862400000000000 H
   0.8685250000000000    0.9198000000000000    0.4145700000000000 H
   0.9870099999999999    0.9593200000000000    0.4070250000000000 H
   0.9865750000000000    0.9584550000000001    0.4783650000000000 H
   0.4214800000000000    0.0872100000000000    0.8095650000000000 H
   0.3495300000000000    0.0827400000000000    0.8085750000000000 H
   0.3457150000000000    0.0299850000000000    0.9239400000000000 H
   0.4177650000000000    0.0330550000000000    0.9238350000000000 H
   0.2967700000000000    0.0366550000000000    0.8091450000000000 H
   0.2246250000000000    0.0408600000000000    0.8088050000000000 H
   0.2198600000000000    0.0830800000000000    0.9226500000000000 H
   0.2918550000000000    0.0777350000000000    0.9239400000000000 H
   0.0894650000000000    0.0178200000000000    0.6422450000000000 H
   0.0943600000000000    0.0190300000000000    0.7131300000000000 H
   0.0850500000000000    0.4238650000000000    0.8041350000000000 H
   0.0814300000000000    0.3517850000000000    0.8026800000000001 H
   0.0493150000000000    0.3445100000000000    0.9241699999999999 H
   0.0508700000000000    0.4165800000000000    0.9247750000000000 H
   0.0326300000000000    0.2980050000000000    0.8126300000000000 H
   0.0341700000000000    0.2257100000000000    0.8130350000000000 H
   0.1027350000000000    0.2209200000000000    0.9126350000000000 H
   0.0996650000000000    0.2930700000000000    0.9138100000000000 H
   0.0313050000000000    0.1291550000000000    0.6413700000000000 H
   0.0354050000000000    0.1294500000000000    0.7125650000000000 H
   0.4153500000000000    0.0795250000000000    0.6913549999999999 H
   0.4190400000000000    0.1514750000000000    0.6917800000000001 H
   0.4683350000000000    0.1555550000000000    0.5751900000000000 H
   0.4659300000000000    0.0835300000000000    0.5757550000000000 H
   0.4646600000000000    0.2042250000000000    0.6898950000000000 H
   0.4604700000000000    0.2762600000000000    0.6901600000000000 H
   0.4150700000000000    0.2810850000000000    0.5774900000000001 H
   0.4204900000000000    0.2091800000000000    0.5762150000000000 H
   0.4840550000000000    0.4097750000000000    0.8582150000000000 H
   0.4827800000000000    0.4048850000000000    0.7872950000000001 H
   0.0769100000000000    0.4167200000000000    0.6959550000000000 H
   0.1490500000000000    0.4209650000000000    0.6975650000000000 H
   0.1559400000000000    0.4536650000000000    0.5761250000000000 H
   0.0838000000000000    0.4515200000000000    0.5753900000000000 H
   0.2027450000000000    0.4704550000000000    0.6875150000000000 H
   0.2751750000000000    0.4693000000000000    0.6870200000000000 H
   0.2798350000000000    0.4007150000000000    0.5877300000000000 H
   0.2075800000000000    0.4034150000000000    0.5866200000000000 H
   0.3726650000000000    0.4680200000000000    0.8586450000000000 H
   0.3723350000000000    0.4639750000000000    0.7874550000000000 H
   0.0828650000000000    0.1320800000000000    0.5135999999999999 H
   0.0791800000000000    0.1333050000000000    0.5852100000000000 H
   0.0406250000000000    0.0146150000000000    0.5934000000000000 H
   0.0422150000000000    0.0145250000000000    0.5221200000000000 H
   0.3692900000000000    0.4167150000000000    0.9862400000000000 H
   0.3685250000000000    0.4198000000000000    0.9145700000000000 H
   0.4870100000000000    0.4593200000000000    0.9070250000000000 H
   0.4865750000000000    0.4584550000000000    0.9783649999999999 H
   0.9214800000000001    0.0872100000000000    0.8095650000000000 H
   0.8495300000000000    0.0827400000000000    0.8085750000000000 H
   0.8457150000000000    0.0299850000000000    0.9239400000000000 H
   0.9177649999999999    0.0330550000000000    0.9238350000000000 H
   0.7967700000000000    0.0366550000000000    0.8091450000000000 H
   0.7246250000000000    0.0408600000000000    0.8088050000000000 H
   0.7198599999999999    0.0830800000000000    0.9226500000000000 H
   0.7918550000000000    0.0777350000000000    0.9239400000000000 H
   0.5894650000000000    0.0178200000000000    0.6422450000000000 H
   0.5943600000000000    0.0190300000000000    0.7131300000000000 H
   0.5850500000000000    0.4238650000000000    0.8041350000000000 H
   0.5814300000000000    0.3517850000000000    0.8026800000000001 H
   0.5493150000000000    0.3445100000000000    0.9241699999999999 H
   0.5508700000000000    0.4165800000000000    0.9247750000000000 H
   0.5326300000000000    0.2980050000000000    0.8126300000000000 H
   0.5341700000000000    0.2257100000000000    0.8130350000000000 H
   0.6027350000000000    0.2209200000000000    0.9126350000000000 H
   0.5996650000000000    0.2930700000000000    0.9138100000000000 H
   0.5313050000000000    0.1291550000000000    0.6413700000000000 H
   0.5354050000000000    0.1294500000000000    0.7125650000000000 H
   0.9153500000000000    0.0795250000000000    0.6913549999999999 H
   0.9190400000000001    0.1514750000000000    0.6917800000000001 H
   0.9683349999999999    0.1555550000000000    0.5751900000000000 H
   0.9659300000000000    0.0835300000000000    0.5757550000000000 H
   0.9646600000000001    0.2042250000000000    0.6898950000000000 H
   0.9604699999999999    0.2762600000000000    0.6901600000000000 H
   0.9150700000000001    0.2810850000000000    0.5774900000000001 H
   0.9204900000000000    0.2091800000000000    0.5762150000000000 H
   0.9840550000000000    0.4097750000000000    0.8582150000000000 H
   0.9827800000000000    0.4048850000000000    0.7872950000000001 H
   0.5769100000000000    0.4167200000000000    0.6959550000000000 H
   0.6490500000000000    0.4209650000000000    0.6975650000000000 H
   0.6559400000000000    0.4536650000000000    0.5761250000000000 H
   0.5838000000000000    0.4515200000000000    0.5753900000000000 H
   0.7027450000000000    0.4704550000000000    0.6875150000000000 H
   0.7751749999999999    0.4693000000000000    0.6870200000000000 H
   0.7798350000000001    0.4007150000000000    0.5877300000000000 H
   0.7075800000000000    0.4034150000000000    0.5866200000000000 H
   0.8726650000000000    0.4680200000000000    0.8586450000000000 H
   0.8723350000000001    0.4639750000000000    0.7874550000000000 H
   0.5828650000000000    0.1320800000000000    0.5135999999999999 H
   0.5791800000000000    0.1333050000000000    0.5852100000000000 H
   0.5406250000000000    0.0146150000000000    0.5934000000000000 H
   0.5422150000000000    0.0145250000000000    0.5221200000000000 H
   0.8692900000000000    0.4167150000000000    0.9862400000000000 H
   0.8685250000000000    0.4198000000000000    0.9145700000000000 H
   0.9870099999999999    0.4593200000000000    0.9070250000000000 H
   0.9865750000000000    0.4584550000000000    0.9783649999999999 H
   0.4214800000000000    0.5872100000000000    0.8095650000000000 H
   0.3495300000000000    0.5827400000000000    0.8085750000000000 H
   0.3457150000000000    0.5299850000000000    0.9239400000000000 H
   0.4177650000000000    0.5330550000000001    0.9238350000000000 H
   0.2967700000000000    0.5366550000000000    0.8091450000000000 H
   0.2246250000000000    0.5408600000000000    0.8088050000000000 H
   0.2198600000000000    0.5830800000000000    0.9226500000000000 H
   0.2918550000000000    0.5777350000000000    0.9239400000000000 H
   0.0894650000000000    0.5178199999999999    0.6422450000000000 H
   0.0943600000000000    0.5190300000000000    0.7131300000000000 H
   0.0850500000000000    0.9238649999999999    0.8041350000000000 H
   0.0814300000000000    0.8517850000000000    0.8026800000000001 H
   0.0493150000000000    0.8445100000000000    0.9241699999999999 H
   0.0508700000000000    0.9165800000000000    0.9247750000000000 H
   0.0326300000000000    0.7980050000000001    0.8126300000000000 H
   0.0341700000000000    0.7257100000000000    0.8130350000000000 H
   0.1027350000000000    0.7209200000000000    0.9126350000000000 H
   0.0996650000000000    0.7930699999999999    0.9138100000000000 H
   0.0313050000000000    0.6291550000000000    0.6413700000000000 H
   0.0354050000000000    0.6294500000000001    0.7125650000000000 H
   0.4153500000000000    0.5795250000000000    0.6913549999999999 H
   0.4190400000000000    0.6514750000000000    0.6917800000000001 H
   0.4683350000000000    0.6555550000000000    0.5751900000000000 H
   0.4659300000000000    0.5835300000000000    0.5757550000000000 H
   0.4646600000000000    0.7042250000000000    0.6898950000000000 H
   0.4604700000000000    0.7762600000000000    0.6901600000000000 H
   0.4150700000000000    0.7810850000000000    0.5774900000000001 H
   0.4204900000000000    0.7091800000000000    0.5762150000000000 H
   0.4840550000000000    0.9097750000000000    0.8582150000000000 H
   0.4827800000000000    0.9048849999999999    0.7872950000000001 H
   0.0769100000000000    0.9167200000000000    0.6959550000000000 H
   0.1490500000000000    0.9209650000000000    0.6975650000000000 H
   0.1559400000000000    0.9536650000000000    0.5761250000000000 H
   0.0838000000000000    0.9515199999999999    0.5753900000000000 H
   0.2027450000000000    0.9704550000000001    0.6875150000000000 H
   0.2751750000000000    0.9693000000000001    0.6870200000000000 H
   0.2798350000000000    0.9007149999999999    0.5877300000000000 H
   0.2075800000000000    0.9034150000000001    0.5866200000000000 H
   0.3726650000000000    0.9680200000000000    0.8586450000000000 H
   0.3723350000000000    0.9639750000000000    0.7874550000000000 H
   0.0828650000000000    0.6320800000000000    0.5135999999999999 H
   0.0791800000000000    0.6333050000000000    0.5852100000000000 H
   0.0406250000000000    0.5146150000000000    0.5934000000000000 H
   0.0422150000000000    0.5145250000000000    0.5221200000000000 H
   0.3692900000000000    0.9167149999999999    0.9862400000000000 H
   0.3685250000000000    0.9198000000000000    0.9145700000000000 H
   0.4870100000000000    0.9593200000000000    0.9070250000000000 H
   0.4865750000000000    0.9584550000000001    0.9783649999999999 H
   0.9214800000000001    0.5872100000000000    0.8095650000000000 H
   0.8495300000000000    0.5827400000000000    0.8085750000000000 H
   0.8457150000000000    0.5299850000000000    0.9239400000000000 H
   0.9177649999999999    0.5330550000000001    0.9238350000000000 H
   0.7967700000000000    0.5366550000000000    0.8091450000000000 H
   0.7246250000000000    0.5408600000000000    0.8088050000000000 H
   0.7198599999999999    0.5830800000000000    0.9226500000000000 H
   0.7918550000000000    0.5777350000000000    0.9239400000000000 H
   0.5894650000000000    0.5178199999999999    0.6422450000000000 H
   0.5943600000000000    0.5190300000000000    0.7131300000000000 H
   0.5850500000000000    0.9238649999999999    0.8041350000000000 H
   0.5814300000000000    0.8517850000000000    0.8026800000000001 H
   0.5493150000000000    0.8445100000000000    0.9241699999999999 H
   0.5508700000000000    0.9165800000000000    0.9247750000000000 H
   0.5326300000000000    0.7980050000000001    0.8126300000000000 H
   0.5341700000000000    0.7257100000000000    0.8130350000000000 H
   0.6027350000000000    0.7209200000000000    0.9126350000000000 H
   0.5996650000000000    0.7930699999999999    0.9138100000000000 H
   0.5313050000000000    0.6291550000000000    0.6413700000000000 H
   0.5354050000000000    0.6294500000000001    0.7125650000000000 H
   0.9840550000000000    0.9097750000000000    0.8582150000000000 H
   0.9827800000000000    0.9048849999999999    0.7872950000000001 H
   0.5769100000000000    0.9167200000000000    0.6959550000000000 H
   0.6490500000000000    0.9209650000000000    0.6975650000000000 H
   0.6559400000000000    0.9536650000000000    0.5761250000000000 H
   0.5838000000000000    0.9515199999999999    0.5753900000000000 H
   0.7027450000000000    0.9704550000000001    0.6875150000000000 H
   0.7751749999999999    0.9693000000000001    0.6870200000000000 H
   0.7798350000000001    0.9007149999999999    0.5877300000000000 H
   0.7075800000000000    0.9034150000000001    0.5866200000000000 H
   0.8726650000000000    0.9680200000000000    0.8586450000000000 H
   0.8723350000000001    0.9639750000000000    0.7874550000000000 H
   0.5828650000000000    0.6320800000000000    0.5135999999999999 H
   0.5791800000000000    0.6333050000000000    0.5852100000000000 H
   0.5406250000000000    0.5146150000000000    0.5934000000000000 H
   0.5422150000000000    0.5145250000000000    0.5221200000000000 H