H7 O5
1.0
  27.3755247010865794    0.0000000000000000   -3.4294544158216773
  -3.1544695858582923   10.9347489515776513   -5.6365403394162357
   0.0000000000000000    0.0000000000000000   26.9925999999999995
H O
7 5
direct
   0.8646119037828953    0.0489525878564694    0.5696568311274640 H
   0.9711025844690858    1.1146299217152793    0.6088266921144206 H
   0.9076997580276781    1.0543860398926617    0.6857612755690288 H
   0.8901375442351845    0.7497562327423994    0.9028999879490726 H
   1.0073745279820354    1.1055988272673882    0.9467453473120888 H
   0.8580863142640701    1.0458149422620158    0.8796227718895426 H
   0.9286535871343444    1.0780975747868480    0.9091142563692268 H
   0.8786533333333333    0.0646200000000000    0.5415900000000000 O
   0.9639500000000000    1.1171500000000001    0.5733250000000000 O
   0.8628000000000000    0.7667000000000000    0.8833500000000001 O
   0.9708999999999999    1.0739600000000000    0.9398150000000001 O
   0.8880533333333333    1.0428800000000000    0.9014000000000000 O
