Zn32 H538 C560 N158 O120
1.0
  29.0741450586320838    0.0000000000000000    1.5975021469842743
  -0.0269485630008146   15.9049764698023939    0.0047191084287635
   0.0000000000000000    0.0000000000000000   37.0120000000000005
Zn H C N O
32 538 560 158 120
direct
   0.0897700000000000    0.1528200000000000    0.0625500000000000 Zn
   0.1601600000000000    0.6528900000000000    0.3123900000000000 Zn
   0.1601600000000000    0.6528900000000000    0.0623850000000000 Zn
   0.4102150000000000    0.8471800000000000    0.4374400000000000 Zn
   0.4102150000000000    0.8471800000000000    0.1874400000000000 Zn
   0.3398250000000000    0.3471100000000000    0.4376100000000000 Zn
   0.3398250000000000    0.3471100000000000    0.1876050000000000 Zn
   0.0897700000000000    0.1528200000000000    0.3125550000000000 Zn
   0.5897700000000000    0.1528200000000000    0.0625500000000000 Zn
   0.6601600000000000    0.6528900000000000    0.3123900000000000 Zn
   0.6601600000000000    0.6528900000000000    0.0623850000000000 Zn
   0.9102150000000000    0.8471800000000000    0.4374400000000000 Zn
   0.9102150000000000    0.8471800000000000    0.1874400000000000 Zn
   0.8398250000000000    0.3471100000000000    0.4376100000000000 Zn
   0.8398250000000000    0.3471100000000000    0.1876050000000000 Zn
   0.5897700000000000    0.1528200000000000    0.3125550000000000 Zn
   0.0897700000000000    0.1528200000000000    0.5625500000000000 Zn
   0.1601600000000000    0.6528900000000000    0.8123899999999999 Zn
   0.1601600000000000    0.6528900000000000    0.5623850000000000 Zn
   0.4102150000000000    0.8471800000000000    0.9374400000000001 Zn
   0.4102150000000000    0.8471800000000000    0.6874400000000001 Zn
   0.3398250000000000    0.3471100000000000    0.9376100000000001 Zn
   0.3398250000000000    0.3471100000000000    0.6876050000000000 Zn
   0.0897700000000000    0.1528200000000000    0.8125550000000000 Zn
   0.5897700000000000    0.1528200000000000    0.5625500000000000 Zn
   0.6601600000000000    0.6528900000000000    0.8123899999999999 Zn
   0.6601600000000000    0.6528900000000000    0.5623850000000000 Zn
   0.9102150000000000    0.8471800000000000    0.9374400000000001 Zn
   0.9102150000000000    0.8471800000000000    0.6874400000000001 Zn
   0.8398250000000000    0.3471100000000000    0.9376100000000001 Zn
   0.8398250000000000    0.3471100000000000    0.6876050000000000 Zn
   0.5897700000000000    0.1528200000000000    0.8125550000000000 Zn
   0.4868050000000000    0.2181100000000000    0.2444150000000000 H
   0.4868100000000000    0.2181100000000000    0.0000000000000000 H
   0.0507100000000000    0.0215300000000000    0.4295900000000000 H
   0.0507050000000000    0.0215200000000000    0.1795900000000000 H
   0.4316250000000000    0.1506700000000000    0.3931800000000000 H
   0.4316200000000000    0.1506600000000000    0.1431800000000000 H
   0.0372600000000000    0.3491800000000000    0.4209900000000000 H
   0.0372550000000000    0.3491800000000000    0.1709900000000000 H
   0.0000000000000000    0.2639700000000000    0.3202700000000000 H
   0.0000000000000000    0.2639700000000000    0.0702650000000000 H
   0.0974050000000000    0.2267200000000000    0.3931150000000000 H
   0.0974000000000000    0.2267100000000000    0.1431150000000000 H
   0.4532500000000000    0.3890200000000000    0.4016550000000000 H
   0.4532450000000000    0.3890200000000000    0.1516450000000000 H
   0.4401650000000000    0.3683700000000000    0.3569400000000000 H
   0.4401600000000000    0.3683600000000000    0.1069300000000000 H
   0.4994850000000000    0.4768300000000000    0.3347550000000000 H
   0.4994800000000000    0.4768200000000000    0.0847450000000000 H
   0.4516700000000000    0.5155999999999999    0.3614450000000000 H
   0.4516700000000000    0.5155999999999999    0.1114350000000000 H
   0.1728100000000000    0.8633800000000000    0.3127850000000000 H
   0.1728100000000000    0.8633800000000000    0.0627750000000000 H
   0.1928900000000000    0.8568300000000000    0.3817050000000000 H
   0.1928900000000000    0.8568200000000000    0.1316950000000000 H
   0.1825850000000000    0.9487600000000000    0.4081350000000000 H
   0.1825850000000000    0.9487500000000000    0.1581250000000000 H
   0.1384900000000000    0.0702800000000000    0.3810300000000000 H
   0.1384950000000000    0.0702800000000000    0.1310250000000000 H
   0.1158900000000000    0.9743800000000000    0.2773100000000000 H
   0.1158900000000000    0.9743900000000000    0.0273000000000000 H
   0.2669150000000000    0.9178300000000000    0.3923400000000000 H
   0.2669150000000000    0.9178300000000000    0.1423350000000000 H
   0.2572550000000000    0.9301300000000000    0.3464000000000000 H
   0.2572550000000000    0.9301300000000000    0.0963950000000000 H
   0.2629650000000000    0.7179800000000000    0.3804550000000000 H
   0.2629650000000000    0.7179700000000000    0.1304450000000000 H
   0.1989500000000000    0.5213400000000000    0.4454900000000000 H
   0.1989550000000000    0.5213300000000000    0.1954800000000000 H
   0.3181650000000000    0.6510800000000000    0.4817150000000000 H
   0.3181700000000000    0.6510700000000000    0.2317050000000000 H
   0.2129900000000000    0.8485800000000000    0.4535800000000000 H
   0.2129900000000000    0.8485800000000000    0.2035750000000000 H
   0.2571500000000000    0.7647200000000000    0.3045550000000000 H
   0.2571550000000000    0.7647200000000000    0.0545500000000000 H
   0.1526800000000000    0.7262500000000000    0.4816950000000000 H
   0.1526800000000000    0.7262500000000000    0.2316900000000000 H
   0.2965350000000000    0.8897600000000000    0.4727700000000000 H
   0.2965350000000000    0.8897600000000000    0.2227700000000000 H
   0.3102200000000000    0.8686600000000000    0.2673100000000000 H
   0.3102200000000000    0.8686600000000000    0.0173050000000000 H
   0.2512400000000000    0.9765500000000000    0.2901850000000000 H
   0.2512400000000000    0.9765500000000000    0.0401800000000000 H
   0.2985600000000000    0.0160200000000000    0.2630600000000000 H
   0.2985600000000000    0.0160200000000000    0.0130550000000000 H
   0.0775900000000000    0.3623700000000000    0.3116550000000000 H
   0.0775850000000000    0.3623800000000000    0.0616500000000000 H
   0.0567800000000000    0.3568500000000000    0.4929850000000000 H
   0.0567800000000000    0.3568500000000000    0.2429800000000000 H
   0.0671500000000000    0.4489600000000000    0.4666200000000000 H
   0.0671500000000000    0.4489600000000000    0.2166200000000000 H
   0.1109500000000000    0.5710400000000000    0.4939900000000000 H
   0.1109450000000000    0.5710400000000000    0.2439900000000000 H
   0.1343000000000000    0.4736200000000000    0.3473250000000000 H
   0.1343000000000000    0.4736200000000000    0.0973200000000000 H
   0.4828500000000000    0.4181000000000000    0.4825050000000000 H
   0.4828500000000000    0.4181000000000000    0.2325050000000000 H
   0.4926500000000000    0.4297600000000000    0.2784550000000000 H
   0.4926500000000000    0.4297600000000000    0.0284500000000000 H
   0.0131750000000000    0.7818900000000000    0.0055800000000000 H
   0.0131750000000000    0.7818900000000000    0.2555750000000000 H
   0.4492800000000000    0.9784900000000000    0.3204000000000000 H
   0.4492800000000000    0.9784800000000000    0.0703950000000000 H
   0.0683650000000000    0.8493400000000000    0.3568100000000000 H
   0.0683600000000000    0.8493400000000000    0.1068050000000000 H
   0.4627350000000000    0.6508300000000000    0.3290000000000000 H
   0.4627300000000000    0.6508300000000000    0.0789950000000000 H
   0.0071350000000000    0.7360500000000000    0.4297300000000000 H
   0.0071350000000000    0.7360400000000000    0.1797250000000000 H
   0.4025850000000000    0.7732900000000000    0.3568750000000000 H
   0.4025850000000000    0.7733000000000000    0.1068700000000000 H
   0.0467450000000000    0.6110000000000000    0.3483450000000000 H
   0.0467400000000000    0.6109900000000000    0.0983400000000000 H
   0.0598250000000000    0.6316500000000000    0.3930600000000000 H
   0.0598200000000000    0.6316500000000000    0.1430550000000000 H
   0.0005050000000000    0.5231900000000000    0.4152450000000000 H
   0.0005050000000000    0.5231900000000000    0.1652400000000000 H
   0.0483200000000000    0.4844200000000000    0.3885550000000000 H
   0.0483150000000000    0.4844200000000000    0.1385500000000000 H
   0.3271850000000000    0.1366300000000000    0.4372150000000000 H
   0.3271800000000000    0.1366200000000000    0.1872050000000000 H
   0.3070900000000000    0.1431800000000000    0.3683000000000000 H
   0.3070900000000000    0.1431800000000000    0.1182900000000000 H
   0.3173900000000000    0.0512600000000000    0.3418650000000000 H
   0.3173950000000000    0.0512500000000000    0.0918600000000000 H
   0.3614800000000000    0.9297100000000000    0.3689700000000000 H
   0.3614850000000000    0.9297100000000000    0.1189600000000000 H
   0.3841000000000000    0.0256200000000000    0.4726900000000000 H
   0.3840950000000000    0.0256200000000000    0.2226850000000000 H
   0.2330600000000000    0.0821800000000000    0.3576600000000000 H
   0.2330650000000000    0.0821700000000000    0.1076500000000000 H
   0.2427250000000000    0.0698800000000000    0.4036000000000000 H
   0.2427250000000000    0.0698700000000000    0.1535950000000000 H
   0.2370200000000000    0.2820300000000000    0.3695450000000000 H
   0.2370200000000000    0.2820300000000000    0.1195400000000000 H
   0.3010300000000000    0.4786600000000000    0.3045100000000000 H
   0.3010300000000000    0.4786600000000000    0.0545050000000000 H
   0.1818150000000000    0.3489200000000000    0.2682850000000000 H
   0.1818150000000000    0.3489200000000000    0.0182800000000000 H
   0.2870000000000000    0.1514200000000000    0.2964200000000000 H
   0.2869950000000000    0.1514200000000000    0.0464150000000000 H
   0.2428300000000000    0.2352900000000000    0.4454450000000000 H
   0.2428300000000000    0.2352800000000000    0.1954400000000000 H
   0.3473050000000000    0.2737600000000000    0.2683050000000000 H
   0.3473050000000000    0.2737600000000000    0.0183000000000000 H
   0.2034550000000000    0.1102400000000000    0.2772300000000000 H
   0.2034550000000000    0.1102400000000000    0.0272250000000000 H
   0.1897700000000000    0.1313400000000000    0.4826900000000000 H
   0.1897700000000000    0.1313400000000000    0.2326850000000000 H
   0.2487500000000000    0.0234500000000000    0.4598150000000000 H
   0.2487500000000000    0.0234500000000000    0.2098100000000000 H
   0.2014300000000000    0.9839800000000000    0.4869400000000000 H
   0.2014300000000000    0.9839800000000000    0.2369350000000000 H
   0.4223950000000000    0.6376200000000000    0.4383400000000000 H
   0.4223950000000000    0.6376200000000000    0.1883350000000000 H
   0.4431950000000000    0.6431600000000000    0.2570100000000000 H
   0.4432000000000000    0.6431500000000000    0.0070050000000000 H
   0.4328300000000000    0.5510500000000000    0.2833750000000000 H
   0.4328300000000000    0.5510500000000000    0.0333700000000000 H
   0.3890300000000000    0.4289700000000000    0.2560050000000000 H
   0.3890300000000000    0.4289700000000000    0.0060050000000000 H
   0.3656850000000000    0.5263700000000000    0.4026700000000000 H
   0.3656850000000000    0.5263700000000000    0.1526650000000000 H
   0.0171300000000000    0.5819100000000000    0.2674900000000000 H
   0.0171300000000000    0.5819100000000000    0.0174900000000000 H
   0.0073300000000000    0.5702500000000000    0.4715450000000000 H
   0.0073300000000000    0.5702400000000000    0.2215400000000000 H
   0.9868049999999999    0.2181100000000000    0.2444150000000000 H
   0.9868100000000000    0.2181100000000000    0.0000000000000000 H
   0.5507100000000000    0.0215300000000000    0.4295900000000000 H
   0.5507050000000000    0.0215200000000000    0.1795900000000000 H
   0.9316249999999999    0.1506700000000000    0.3931800000000000 H
   0.9316200000000000    0.1506600000000000    0.1431800000000000 H
   0.5372600000000000    0.3491800000000000    0.4209900000000000 H
   0.5372550000000000    0.3491800000000000    0.1709900000000000 H
   0.5000000000000000    0.2639700000000000    0.3202700000000000 H
   0.5000000000000000    0.2639700000000000    0.0702650000000000 H
   0.5974050000000000    0.2267200000000000    0.3931150000000000 H
   0.5974000000000000    0.2267100000000000    0.1431150000000000 H
   0.9532499999999999    0.3890200000000000    0.4016550000000000 H
   0.9532450000000000    0.3890200000000000    0.1516450000000000 H
   0.9401649999999999    0.3683700000000000    0.3569400000000000 H
   0.9401600000000000    0.3683600000000000    0.1069300000000000 H
   0.9994850000000000    0.4768300000000000    0.3347550000000000 H
   0.9994799999999999    0.4768200000000000    0.0847450000000000 H
   0.9516700000000000    0.5155999999999999    0.3614450000000000 H
   0.9516700000000000    0.5155999999999999    0.1114350000000000 H
   0.6728100000000000    0.8633800000000000    0.3127850000000000 H
   0.6728100000000000    0.8633800000000000    0.0627750000000000 H
   0.6928900000000000    0.8568300000000000    0.3817050000000000 H
   0.6928900000000000    0.8568200000000000    0.1316950000000000 H
   0.6825850000000000    0.9487600000000000    0.4081350000000000 H
   0.6825850000000000    0.9487500000000000    0.1581250000000000 H
   0.6384900000000000    0.0702800000000000    0.3810300000000000 H
   0.6384950000000000    0.0702800000000000    0.1310250000000000 H
   0.6158900000000000    0.9743800000000000    0.2773100000000000 H
   0.6158900000000000    0.9743900000000000    0.0273000000000000 H
   0.7669150000000000    0.9178300000000000    0.3923400000000000 H
   0.7669150000000000    0.9178300000000000    0.1423350000000000 H
   0.7572550000000000    0.9301300000000000    0.3464000000000000 H
   0.7572550000000000    0.9301300000000000    0.0963950000000000 H
   0.7629650000000000    0.7179700000000000    0.1304450000000000 H
   0.6989550000000000    0.5213300000000000    0.1954800000000000 H
   0.8181700000000001    0.6510700000000000    0.2317050000000000 H
   0.7129900000000000    0.8485800000000000    0.4535800000000000 H
   0.7129900000000000    0.8485800000000000    0.2035750000000000 H
   0.7571500000000000    0.7647200000000000    0.3045550000000000 H
   0.7571550000000000    0.7647200000000000    0.0545500000000000 H
   0.6526800000000000    0.7262500000000000    0.4816950000000000 H
   0.6526800000000000    0.7262500000000000    0.2316900000000000 H
   0.7965350000000000    0.8897600000000000    0.4727700000000000 H
   0.7965350000000000    0.8897600000000000    0.2227700000000000 H
   0.8102199999999999    0.8686600000000000    0.2673100000000000 H
   0.8102199999999999    0.8686600000000000    0.0173050000000000 H
   0.7512400000000000    0.9765500000000000    0.2901850000000000 H
   0.7512400000000000    0.9765500000000000    0.0401800000000000 H
   0.7985599999999999    0.0160200000000000    0.2630600000000000 H
   0.7985599999999999    0.0160200000000000    0.0130550000000000 H
   0.5775900000000000    0.3623700000000000    0.3116550000000000 H
   0.5775850000000000    0.3623800000000000    0.0616500000000000 H
   0.5567800000000001    0.3568500000000000    0.4929850000000000 H
   0.5567800000000001    0.3568500000000000    0.2429800000000000 H
   0.5671500000000000    0.4489600000000000    0.4666200000000000 H
   0.5671500000000000    0.4489600000000000    0.2166200000000000 H
   0.6109500000000000    0.5710400000000000    0.4939900000000000 H
   0.6109450000000000    0.5710400000000000    0.2439900000000000 H
   0.6343000000000000    0.4736200000000000    0.3473250000000000 H
   0.6343000000000000    0.4736200000000000    0.0973200000000000 H
   0.9828500000000000    0.4181000000000000    0.4825050000000000 H
   0.9828500000000000    0.4181000000000000    0.2325050000000000 H
   0.9926500000000000    0.4297600000000000    0.2784550000000000 H
   0.9926500000000000    0.4297600000000000    0.0284500000000000 H
   0.5131750000000000    0.7818900000000000    0.0055800000000000 H
   0.5131750000000000    0.7818900000000000    0.2555750000000000 H
   0.9492800000000000    0.9784900000000000    0.3204000000000000 H
   0.9492800000000000    0.9784800000000000    0.0703950000000000 H
   0.5683650000000000    0.8493400000000000    0.3568100000000000 H
   0.5683600000000000    0.8493400000000000    0.1068050000000000 H
   0.9627350000000000    0.6508300000000000    0.3290000000000000 H
   0.9627300000000000    0.6508300000000000    0.0789950000000000 H
   0.5071350000000000    0.7360500000000000    0.4297300000000000 H
   0.5071350000000000    0.7360400000000000    0.1797250000000000 H
   0.9025850000000000    0.7732900000000000    0.3568750000000000 H
   0.9025850000000000    0.7733000000000000    0.1068700000000000 H
   0.5467450000000000    0.6110000000000000    0.3483450000000000 H
   0.5467400000000000    0.6109900000000000    0.0983400000000000 H
   0.5598250000000000    0.6316500000000000    0.3930600000000000 H
   0.5598200000000000    0.6316500000000000    0.1430550000000000 H
   0.5005050000000000    0.5231900000000000    0.4152450000000000 H
   0.5005050000000000    0.5231900000000000    0.1652400000000000 H
   0.5483200000000000    0.4844200000000000    0.3885550000000000 H
   0.5483150000000000    0.4844200000000000    0.1385500000000000 H
   0.8271850000000001    0.1366300000000000    0.4372150000000000 H
   0.8271800000000000    0.1366200000000000    0.1872050000000000 H
   0.8070900000000000    0.1431800000000000    0.3683000000000000 H
   0.8070900000000000    0.1431800000000000    0.1182900000000000 H
   0.8173900000000001    0.0512600000000000    0.3418650000000000 H
   0.8173950000000000    0.0512500000000000    0.0918600000000000 H
   0.8614800000000000    0.9297100000000000    0.3689700000000000 H
   0.8614850000000001    0.9297100000000000    0.1189600000000000 H
   0.8841000000000000    0.0256200000000000    0.4726900000000000 H
   0.8840950000000001    0.0256200000000000    0.2226850000000000 H
   0.7330600000000000    0.0821800000000000    0.3576600000000000 H
   0.7330650000000000    0.0821700000000000    0.1076500000000000 H
   0.7427250000000000    0.0698800000000000    0.4036000000000000 H
   0.7427250000000000    0.0698700000000000    0.1535950000000000 H
   0.7370200000000000    0.2820300000000000    0.3695450000000000 H
   0.7370200000000000    0.2820300000000000    0.1195400000000000 H
   0.8010300000000000    0.4786600000000000    0.3045100000000000 H
   0.8010300000000000    0.4786600000000000    0.0545050000000000 H
   0.6818150000000001    0.3489200000000000    0.2682850000000000 H
   0.6818150000000001    0.3489200000000000    0.0182800000000000 H
   0.7869999999999999    0.1514200000000000    0.2964200000000000 H
   0.7869950000000000    0.1514200000000000    0.0464150000000000 H
   0.7428300000000000    0.2352900000000000    0.4454450000000000 H
   0.7428300000000000    0.2352800000000000    0.1954400000000000 H
   0.8473050000000000    0.2737600000000000    0.2683050000000000 H
   0.8473050000000000    0.2737600000000000    0.0183000000000000 H
   0.7034549999999999    0.1102400000000000    0.2772300000000000 H
   0.7034549999999999    0.1102400000000000    0.0272250000000000 H
   0.6897700000000000    0.1313400000000000    0.4826900000000000 H
   0.6897700000000000    0.1313400000000000    0.2326850000000000 H
   0.7487500000000000    0.0234500000000000    0.4598150000000000 H
   0.7487500000000000    0.0234500000000000    0.2098100000000000 H
   0.7014300000000000    0.9839800000000000    0.4869400000000000 H
   0.7014300000000000    0.9839800000000000    0.2369350000000000 H
   0.9223950000000001    0.6376200000000000    0.4383400000000000 H
   0.9223950000000001    0.6376200000000000    0.1883350000000000 H
   0.9431950000000000    0.6431600000000000    0.2570100000000000 H
   0.9432000000000000    0.6431500000000000    0.0070050000000000 H
   0.9328300000000000    0.5510500000000000    0.2833750000000000 H
   0.9328300000000000    0.5510500000000000    0.0333700000000000 H
   0.8890300000000000    0.4289700000000000    0.2560050000000000 H
   0.8890300000000000    0.4289700000000000    0.0060050000000000 H
   0.8656850000000000    0.5263700000000000    0.4026700000000000 H
   0.8656850000000000    0.5263700000000000    0.1526650000000000 H
   0.5171300000000000    0.5819100000000000    0.2674900000000000 H
   0.5171300000000000    0.5819100000000000    0.0174900000000000 H
   0.5073299999999999    0.5702500000000000    0.4715450000000000 H
   0.5073299999999999    0.5702400000000000    0.2215400000000000 H
   0.4868050000000000    0.2181100000000000    0.7444150000000000 H
   0.4868100000000000    0.2181100000000000    0.5000000000000000 H
   0.0507100000000000    0.0215300000000000    0.9295900000000000 H
   0.0507050000000000    0.0215200000000000    0.6795900000000000 H
   0.4316250000000000    0.1506700000000000    0.8931800000000000 H
   0.4316200000000000    0.1506600000000000    0.6431800000000000 H
   0.0372600000000000    0.3491800000000000    0.9209900000000000 H
   0.0372550000000000    0.3491800000000000    0.6709900000000000 H
   0.0000000000000000    0.2639700000000000    0.8202700000000001 H
   0.0000000000000000    0.2639700000000000    0.5702650000000000 H
   0.0974050000000000    0.2267200000000000    0.8931150000000000 H
   0.0974000000000000    0.2267100000000000    0.6431150000000000 H
   0.4532500000000000    0.3890200000000000    0.9016550000000000 H
   0.4532450000000000    0.3890200000000000    0.6516450000000000 H
   0.4401650000000000    0.3683700000000000    0.8569400000000000 H
   0.4401600000000000    0.3683600000000000    0.6069300000000000 H
   0.4994850000000000    0.4768300000000000    0.8347550000000000 H
   0.4994800000000000    0.4768200000000000    0.5847450000000000 H
   0.4516700000000000    0.5155999999999999    0.8614450000000000 H
   0.4516700000000000    0.5155999999999999    0.6114350000000000 H
   0.1728100000000000    0.8633800000000000    0.8127850000000000 H
   0.1728100000000000    0.8633800000000000    0.5627750000000000 H
   0.1928900000000000    0.8568300000000000    0.8817050000000000 H
   0.1928900000000000    0.8568200000000000    0.6316950000000000 H
   0.1825850000000000    0.9487600000000000    0.9081350000000000 H
   0.1825850000000000    0.9487500000000000    0.6581250000000000 H
   0.1384900000000000    0.0702800000000000    0.8810300000000000 H
   0.1384950000000000    0.0702800000000000    0.6310249999999999 H
   0.1158900000000000    0.9743800000000000    0.7773099999999999 H
   0.1158900000000000    0.9743900000000000    0.5273000000000000 H
   0.2669150000000000    0.9178300000000000    0.8923400000000000 H
   0.2669150000000000    0.9178300000000000    0.6423350000000000 H
   0.2572550000000000    0.9301300000000000    0.8464000000000000 H
   0.2572550000000000    0.9301300000000000    0.5963950000000000 H
   0.2629650000000000    0.7179800000000000    0.8804550000000000 H
   0.2629650000000000    0.7179700000000000    0.6304450000000000 H
   0.1989500000000000    0.5213400000000000    0.9454899999999999 H
   0.1989550000000000    0.5213300000000000    0.6954800000000000 H
   0.3181650000000000    0.6510800000000000    0.9817150000000000 H
   0.3181700000000000    0.6510700000000000    0.7317050000000000 H
   0.2129900000000000    0.8485800000000000    0.9535800000000000 H
   0.2129900000000000    0.8485800000000000    0.7035750000000001 H
   0.2571500000000000    0.7647200000000000    0.8045550000000000 H
   0.2571550000000000    0.7647200000000000    0.5545500000000000 H
   0.1526800000000000    0.7262500000000000    0.9816950000000000 H
   0.1526800000000000    0.7262500000000000    0.7316900000000000 H
   0.2965350000000000    0.8897600000000000    0.9727700000000000 H
   0.2965350000000000    0.8897600000000000    0.7227700000000000 H
   0.3102200000000000    0.8686600000000000    0.7673099999999999 H
   0.3102200000000000    0.8686600000000000    0.5173050000000000 H
   0.2512400000000000    0.9765500000000000    0.7901850000000000 H
   0.2512400000000000    0.9765500000000000    0.5401800000000000 H
   0.2985600000000000    0.0160200000000000    0.7630600000000001 H
   0.2985600000000000    0.0160200000000000    0.5130550000000000 H
   0.0775900000000000    0.3623700000000000    0.8116550000000000 H
   0.0775850000000000    0.3623800000000000    0.5616500000000000 H
   0.0567800000000000    0.3568500000000000    0.9929850000000000 H
   0.0567800000000000    0.3568500000000000    0.7429800000000000 H
   0.0671500000000000    0.4489600000000000    0.9666200000000000 H
   0.0671500000000000    0.4489600000000000    0.7166200000000000 H
   0.1109500000000000    0.5710400000000000    0.9939899999999999 H
   0.1109450000000000    0.5710400000000000    0.7439900000000000 H
   0.1343000000000000    0.4736200000000000    0.8473250000000000 H
   0.1343000000000000    0.4736200000000000    0.5973200000000000 H
   0.4828500000000000    0.4181000000000000    0.9825050000000000 H
   0.4828500000000000    0.4181000000000000    0.7325050000000000 H
   0.4926500000000000    0.4297600000000000    0.7784550000000000 H
   0.4926500000000000    0.4297600000000000    0.5284500000000000 H
   0.0131750000000000    0.7818900000000000    0.5055800000000000 H
   0.0131750000000000    0.7818900000000000    0.7555750000000000 H
   0.4492800000000000    0.9784900000000000    0.8204000000000000 H
   0.4492800000000000    0.9784800000000000    0.5703950000000000 H
   0.0683650000000000    0.8493400000000000    0.8568100000000001 H
   0.0683600000000000    0.8493400000000000    0.6068050000000000 H
   0.4627350000000000    0.6508300000000000    0.8290000000000000 H
   0.4627300000000000    0.6508300000000000    0.5789950000000000 H
   0.0071350000000000    0.7360500000000000    0.9297299999999999 H
   0.0071350000000000    0.7360400000000000    0.6797250000000000 H
   0.4025850000000000    0.7732900000000000    0.8568750000000001 H
   0.4025850000000000    0.7733000000000000    0.6068700000000000 H
   0.0467450000000000    0.6110000000000000    0.8483450000000000 H
   0.0467400000000000    0.6109900000000000    0.5983400000000000 H
   0.0598250000000000    0.6316500000000000    0.8930600000000000 H
   0.0598200000000000    0.6316500000000000    0.6430549999999999 H
   0.0005050000000000    0.5231900000000000    0.9152450000000000 H
   0.0005050000000000    0.5231900000000000    0.6652400000000001 H
   0.0483200000000000    0.4844200000000000    0.8885550000000000 H
   0.0483150000000000    0.4844200000000000    0.6385500000000000 H
   0.3271850000000000    0.1366300000000000    0.9372150000000000 H
   0.3271800000000000    0.1366200000000000    0.6872050000000001 H
   0.3070900000000000    0.1431800000000000    0.8683000000000001 H
   0.3070900000000000    0.1431800000000000    0.6182900000000000 H
   0.3173900000000000    0.0512600000000000    0.8418650000000000 H
   0.3173950000000000    0.0512500000000000    0.5918600000000001 H
   0.3614800000000000    0.9297100000000000    0.8689700000000000 H
   0.3614850000000000    0.9297100000000000    0.6189600000000000 H
   0.3841000000000000    0.0256200000000000    0.9726900000000001 H
   0.3840950000000000    0.0256200000000000    0.7226850000000000 H
   0.2330600000000000    0.0821800000000000    0.8576600000000000 H
   0.2330650000000000    0.0821700000000000    0.6076500000000000 H
   0.2427250000000000    0.0698800000000000    0.9036000000000000 H
   0.2427250000000000    0.0698700000000000    0.6535950000000000 H
   0.2370200000000000    0.2820300000000000    0.8695450000000000 H
   0.2370200000000000    0.2820300000000000    0.6195400000000000 H
   0.3010300000000000    0.4786600000000000    0.8045100000000001 H
   0.3010300000000000    0.4786600000000000    0.5545050000000000 H
   0.1818150000000000    0.3489200000000000    0.7682850000000000 H
   0.1818150000000000    0.3489200000000000    0.5182800000000000 H
   0.2870000000000000    0.1514200000000000    0.7964200000000000 H
   0.2869950000000000    0.1514200000000000    0.5464150000000000 H
   0.2428300000000000    0.2352900000000000    0.9454450000000000 H
   0.2428300000000000    0.2352800000000000    0.6954400000000001 H
   0.3473050000000000    0.2737600000000000    0.7683050000000000 H
   0.3473050000000000    0.2737600000000000    0.5183000000000000 H
   0.2034550000000000    0.1102400000000000    0.7772300000000000 H
   0.2034550000000000    0.1102400000000000    0.5272250000000001 H
   0.1897700000000000    0.1313400000000000    0.9826900000000001 H
   0.1897700000000000    0.1313400000000000    0.7326850000000000 H
   0.2487500000000000    0.0234500000000000    0.9598150000000000 H
   0.2487500000000000    0.0234500000000000    0.7098100000000001 H
   0.2014300000000000    0.9839800000000000    0.9869399999999999 H
   0.2014300000000000    0.9839800000000000    0.7369350000000000 H
   0.4223950000000000    0.6376200000000000    0.9383400000000000 H
   0.4223950000000000    0.6376200000000000    0.6883350000000000 H
   0.4431950000000000    0.6431600000000000    0.7570100000000000 H
   0.4432000000000000    0.6431500000000000    0.5070050000000000 H
   0.4328300000000000    0.5510500000000000    0.7833749999999999 H
   0.4328300000000000    0.5510500000000000    0.5333700000000000 H
   0.3890300000000000    0.4289700000000000    0.7560050000000000 H
   0.3890300000000000    0.4289700000000000    0.5060050000000000 H
   0.3656850000000000    0.5263700000000000    0.9026700000000000 H
   0.3656850000000000    0.5263700000000000    0.6526650000000001 H
   0.0171300000000000    0.5819100000000000    0.7674900000000000 H
   0.0171300000000000    0.5819100000000000    0.5174900000000000 H
   0.0073300000000000    0.5702500000000000    0.9715450000000000 H