Zn48 H524 C926 N94 O194 F144
1.0
  39.5411953215283845    0.0000000000000000   -4.1845569113995600
   2.7339584710130409   26.1734048881901344   -1.7206776681415077
   0.0000000000000000    0.0000000000000000   26.3120000000000012
Zn H C N O F
48 524 926 94 194 144
direct
   0.7750433333333333    0.3624000000000000    0.0794950000000000 Zn
   0.7231333333333333    0.5799100000000000    0.8623600000000000 Zn
   0.8904133333333333    0.6375800000000000    0.9200050000000000 Zn
   0.9422233333333333    0.4202450000000000    0.1376100000000000 Zn
   0.1083766666666666    0.3624000000000000    0.0794950000000000 Zn
   0.0564666666666667    0.5799100000000000    0.8623600000000000 Zn
   0.2237466666666666    0.6375800000000000    0.9200050000000000 Zn
   0.2755566666666667    0.4202450000000000    0.1376100000000000 Zn
   0.4417099999999999    0.3624000000000000    0.0794950000000000 Zn
   0.3898000000000000    0.5799100000000000    0.8623600000000000 Zn
   0.5570800000000000    0.6375800000000000    0.9200050000000000 Zn
   0.6088899999999999    0.4202450000000000    0.1376100000000000 Zn
   0.7750433333333333    0.8624000000000001    0.0794950000000000 Zn
   0.7231333333333333    0.0799100000000000    0.8623600000000000 Zn
   0.8904133333333333    0.1375800000000000    0.9200050000000000 Zn
   0.9422233333333333    0.9202450000000000    0.1376100000000000 Zn
   0.4417099999999999    0.8624000000000001    0.0794950000000000 Zn
   0.3898000000000000    0.0799100000000000    0.8623600000000000 Zn
   0.5570800000000000    0.1375800000000000    0.9200050000000000 Zn
   0.6088899999999999    0.9202450000000000    0.1376100000000000 Zn
   0.1083766666666666    0.8624000000000001    0.0794950000000000 Zn
   0.0564666666666667    0.0799100000000000    0.8623600000000000 Zn
   0.2237466666666666    0.1375800000000000    0.9200050000000000 Zn
   0.2755566666666667    0.9202450000000000    0.1376100000000000 Zn
   0.7750433333333333    0.3624000000000000    0.5794950000000000 Zn
   0.7231333333333333    0.5799100000000000    0.3623600000000000 Zn
   0.8904133333333333    0.6375800000000000    0.4200050000000000 Zn
   0.9422233333333333    0.4202450000000000    0.6376100000000000 Zn
   0.1083766666666666    0.3624000000000000    0.5794950000000000 Zn
   0.0564666666666667    0.5799100000000000    0.3623600000000000 Zn
   0.2237466666666666    0.6375800000000000    0.4200050000000000 Zn
   0.2755566666666667    0.4202450000000000    0.6376100000000000 Zn
   0.4417099999999999    0.3624000000000000    0.5794950000000000 Zn
   0.3898000000000000    0.5799100000000000    0.3623600000000000 Zn
   0.5570800000000000    0.6375800000000000    0.4200050000000000 Zn
   0.6088899999999999    0.4202450000000000    0.6376100000000000 Zn
   0.7750433333333333    0.8624000000000001    0.5794950000000000 Zn
   0.7231333333333333    0.0799100000000000    0.3623600000000000 Zn
   0.8904133333333333    0.1375800000000000    0.4200050000000000 Zn
   0.9422233333333333    0.9202450000000000    0.6376100000000000 Zn
   0.4417099999999999    0.8624000000000001    0.5794950000000000 Zn
   0.3898000000000000    0.0799100000000000    0.3623600000000000 Zn
   0.5570800000000000    0.1375800000000000    0.4200050000000000 Zn
   0.6088899999999999    0.9202450000000000    0.6376100000000000 Zn
   0.1083766666666666    0.8624000000000001    0.5794950000000000 Zn
   0.0564666666666667    0.0799100000000000    0.3623600000000000 Zn
   0.2237466666666666    0.1375800000000000    0.4200050000000000 Zn
   0.2755566666666667    0.9202450000000000    0.6376100000000000 Zn
   0.6530591661585718    0.3564986293296814    0.6969780466712611 H
   0.6197958429477677    0.3246340419422336    0.6749366056281215 H
   0.6792324690043845    0.1434777679151104    0.8026327056176462 H
   0.7122818964646799    0.1755880721189533    0.8252324328726653 H
   0.8665066666666666    0.2431600000000000    0.6786500000000000 H
   0.7804200000000000    0.2995400000000000    0.7618250000000000 H
   0.7581366666666667    0.3500200000000000    0.6868400000000000 H
   0.8405466666666666    0.2955950000000000    0.6079750000000000 H
   0.7990233333333333    0.2558800000000000    0.8201550000000000 H
   0.8859399999999999    0.2012750000000000    0.7380949999999999 H
   0.9079933333333332    0.1503600000000000    0.8129450000000000 H
   0.8249766666666667    0.2035900000000000    0.8909500000000000 H
   0.8665066666666666    0.2431600000000000    0.1786500000000000 H
   0.7804200000000000    0.2995400000000000    0.2618250000000000 H
   0.7581366666666667    0.3500200000000000    0.1868400000000000 H
   0.8405466666666666    0.2955950000000000    0.1079750000000000 H
   0.7990233333333333    0.2558800000000000    0.3201550000000000 H
   0.8859399999999999    0.2012750000000000    0.2380950000000000 H
   0.9079933333333332    0.1503600000000000    0.3129450000000000 H
   0.8249766666666667    0.2035900000000000    0.3909500000000000 H
   0.5331733333333333    0.2431600000000000    0.6786500000000000 H
   0.4470866666666666    0.2995400000000000    0.7618250000000000 H
   0.4248033333333333    0.3500200000000000    0.6868400000000000 H
   0.5072133333333333    0.2955950000000000    0.6079750000000000 H
   0.4656899999999999    0.2558800000000000    0.8201550000000000 H
   0.5526066666666667    0.2012750000000000    0.7380949999999999 H
   0.5746599999999999    0.1503600000000000    0.8129450000000000 H
   0.4916433333333333    0.2035900000000000    0.8909500000000000 H
   0.1998400000000000    0.2431600000000000    0.6786500000000000 H
   0.1137533333333333    0.2995400000000000    0.7618250000000000 H
   0.0914700000000000    0.3500200000000000    0.6868400000000000 H
   0.1738800000000000    0.2955950000000000    0.6079750000000000 H
   0.1323566666666667    0.2558800000000000    0.8201550000000000 H
   0.2192733333333333    0.2012750000000000    0.7380949999999999 H
   0.2413266666666666    0.1503600000000000    0.8129450000000000 H
   0.1583100000000000    0.2035900000000000    0.8909500000000000 H
   0.5331733333333333    0.2431600000000000    0.1786500000000000 H
   0.4470866666666666    0.2995400000000000    0.2618250000000000 H
   0.4248033333333333    0.3500200000000000    0.1868400000000000 H
   0.5072133333333333    0.2955950000000000    0.1079750000000000 H
   0.4656899999999999    0.2558800000000000    0.3201550000000000 H
   0.5526066666666667    0.2012750000000000    0.2380950000000000 H
   0.5746599999999999    0.1503600000000000    0.3129450000000000 H
   0.4916433333333333    0.2035900000000000    0.3909500000000000 H
   0.1998400000000000    0.2431600000000000    0.1786500000000000 H
   0.1137533333333333    0.2995400000000000    0.2618250000000000 H
   0.0914700000000000    0.3500200000000000    0.1868400000000000 H
   0.1738800000000000    0.2955950000000000    0.1079750000000000 H
   0.1323566666666667    0.2558800000000000    0.3201550000000000 H
   0.2192733333333333    0.2012750000000000    0.2380950000000000 H
   0.2413266666666666    0.1503600000000000    0.3129450000000000 H
   0.1583100000000000    0.2035900000000000    0.3909500000000000 H
   0.8665066666666666    0.7431600000000000    0.1786500000000000 H
   0.7804200000000000    0.7995399999999999    0.2618250000000000 H
   0.7581366666666667    0.8500200000000000    0.1868400000000000 H
   0.8405466666666666    0.7955950000000001    0.1079750000000000 H
   0.7990233333333333    0.7558800000000000    0.3201550000000000 H
   0.8859399999999999    0.7012750000000000    0.2380950000000000 H
   0.9079933333333332    0.6503600000000000    0.3129450000000000 H
   0.8249766666666667    0.7035899999999999    0.3909500000000000 H
   0.5331733333333333    0.7431600000000000    0.1786500000000000 H
   0.4470866666666666    0.7995399999999999    0.2618250000000000 H
   0.4248033333333333    0.8500200000000000    0.1868400000000000 H
   0.5072133333333333    0.7955950000000001    0.1079750000000000 H
   0.4656899999999999    0.7558800000000000    0.3201550000000000 H
   0.5526066666666667    0.7012750000000000    0.2380950000000000 H
   0.5746599999999999    0.6503600000000000    0.3129450000000000 H
   0.4916433333333333    0.7035899999999999    0.3909500000000000 H
   0.8665066666666666    0.7431600000000000    0.6786500000000000 H
   0.7804200000000000    0.7995399999999999    0.7618250000000000 H
   0.7581366666666667    0.8500200000000000    0.6868400000000000 H
   0.8405466666666666    0.7955950000000001    0.6079750000000000 H
   0.7990233333333333    0.7558800000000000    0.8201550000000000 H
   0.8859399999999999    0.7012750000000000    0.7380949999999999 H
   0.9079933333333332    0.6503600000000000    0.8129450000000000 H
   0.8249766666666667    0.7035899999999999    0.8909500000000000 H
   0.5331733333333333    0.7431600000000000    0.6786500000000000 H
   0.4470866666666666    0.7995399999999999    0.7618250000000000 H
   0.4248033333333333    0.8500200000000000    0.6868400000000000 H
   0.5072133333333333    0.7955950000000001    0.6079750000000000 H
   0.4656899999999999    0.7558800000000000    0.8201550000000000 H
   0.5526066666666667    0.7012750000000000    0.7380949999999999 H
   0.5746599999999999    0.6503600000000000    0.8129450000000000 H
   0.4916433333333333    0.7035899999999999    0.8909500000000000 H
   0.1998400000000000    0.7431600000000000    0.1786500000000000 H
   0.1137533333333333    0.7995399999999999    0.2618250000000000 H
   0.0914700000000000    0.8500200000000000    0.1868400000000000 H
   0.1738800000000000    0.7955950000000001    0.1079750000000000 H
   0.1323566666666667    0.7558800000000000    0.3201550000000000 H
   0.2192733333333333    0.7012750000000000    0.2380950000000000 H
   0.2413266666666666    0.6503600000000000    0.3129450000000000 H
   0.1583100000000000    0.7035899999999999    0.3909500000000000 H
   0.1998400000000000    0.7431600000000000    0.6786500000000000 H
   0.1137533333333333    0.7995399999999999    0.7618250000000000 H
   0.0914700000000000    0.8500200000000000    0.6868400000000000 H
   0.1738800000000000    0.7955950000000001    0.6079750000000000 H
   0.1323566666666667    0.7558800000000000    0.8201550000000000 H
   0.2192733333333333    0.7012750000000000    0.7380949999999999 H
   0.2413266666666666    0.6503600000000000    0.8129450000000000 H
   0.1583100000000000    0.7035899999999999    0.8909500000000000 H
   0.6996733333333333    0.8206100000000001    0.7570250000000001 H
   0.6138966666666666    0.7381750000000000    0.6997750000000000 H
   0.5919233333333334    0.8131950000000000    0.6490950000000000 H
   0.6740133333333332    0.8913350000000000    0.7044600000000000 H
   0.6329633333333333    0.6790250000000000    0.7418400000000001 H
   0.7180466666666666    0.7622450000000001    0.8007750000000000 H
   0.7399933333333333    0.6871550000000000    0.8514699999999999 H
   0.6584099999999999    0.6084800000000000    0.7948000000000000 H
   0.0330066666666667    0.8206100000000001    0.7570250000000001 H
   0.9472300000000000    0.7381750000000000    0.6997750000000000 H
   0.9252566666666666    0.8131950000000000    0.6490950000000000 H
   0.0073466666666667    0.8913350000000000    0.7044600000000000 H
   0.9662966666666666    0.6790250000000000    0.7418400000000001 H
   0.0513800000000000    0.7622450000000001    0.8007750000000000 H
   0.0733266666666667    0.6871550000000000    0.8514699999999999 H
   0.9917433333333333    0.6084800000000000    0.7948000000000000 H
   0.0330066666666667    0.8206100000000001    0.2570250000000000 H
   0.9472300000000000    0.7381750000000000    0.1997750000000000 H
   0.9252566666666666    0.8131950000000000    0.1490950000000000 H
   0.0073466666666667    0.8913350000000000    0.2044600000000000 H
   0.9662966666666666    0.6790250000000000    0.2418400000000000 H
   0.0513800000000000    0.7622450000000001    0.3007750000000000 H
   0.0733266666666667    0.6871550000000000    0.3514700000000000 H
   0.9917433333333333    0.6084800000000000    0.2948000000000000 H
   0.0330066666666667    0.3206100000000000    0.7570250000000001 H
   0.9472300000000000    0.2381750000000000    0.6997750000000000 H
   0.9252566666666666    0.3131950000000000    0.6490950000000000 H
   0.0073466666666667    0.3913350000000000    0.7044600000000000 H
   0.9662966666666666    0.1790250000000000    0.7418400000000001 H
   0.0513800000000000    0.2622450000000000    0.8007750000000000 H
   0.0733266666666667    0.1871550000000000    0.8514699999999999 H
   0.9917433333333333    0.1084800000000000    0.7948000000000000 H
   0.6996733333333333    0.8206100000000001    0.2570250000000000 H
   0.6138966666666666    0.7381750000000000    0.1997750000000000 H
   0.5919233333333334    0.8131950000000000    0.1490950000000000 H
   0.6740133333333332    0.8913350000000000    0.2044600000000000 H
   0.6329633333333333    0.6790250000000000    0.2418400000000000 H
   0.7180466666666666    0.7622450000000001    0.3007750000000000 H
   0.7399933333333333    0.6871550000000000    0.3514700000000000 H
   0.6584099999999999    0.6084800000000000    0.2948000000000000 H
   0.3663400000000000    0.8206100000000001    0.2570250000000000 H
   0.2805633333333333    0.7381750000000000    0.1997750000000000 H
   0.2585900000000000    0.8131950000000000    0.1490950000000000 H
   0.3406800000000000    0.8913350000000000    0.2044600000000000 H
   0.2996300000000000    0.6790250000000000    0.2418400000000000 H
   0.3847133333333333    0.7622450000000001    0.3007750000000000 H
   0.4066600000000000    0.6871550000000000    0.3514700000000000 H
   0.3250766666666667    0.6084800000000000    0.2948000000000000 H
   0.0330066666666667    0.3206100000000000    0.2570250000000000 H
   0.9472300000000000    0.2381750000000000    0.1997750000000000 H
   0.9252566666666666    0.3131950000000000    0.1490950000000000 H
   0.0073466666666667    0.3913350000000000    0.2044600000000000 H
   0.9662966666666666    0.1790250000000000    0.2418400000000000 H
   0.0513800000000000    0.2622450000000000    0.3007750000000000 H
   0.0733266666666667    0.1871550000000000    0.3514700000000000 H
   0.9917433333333333    0.1084800000000000    0.2948000000000000 H
   0.6996733333333333    0.3206100000000000    0.2570250000000000 H
   0.6138966666666666    0.2381750000000000    0.1997750000000000 H
   0.5919233333333334    0.3131950000000000    0.1490950000000000 H
   0.6740133333333332    0.3913350000000000    0.2044600000000000 H
   0.6329633333333333    0.1790250000000000    0.2418400000000000 H
   0.7180466666666666    0.2622450000000000    0.3007750000000000 H
   0.7399933333333333    0.1871550000000000    0.3514700000000000 H
   0.6584099999999999    0.1084800000000000    0.2948000000000000 H
   0.3663400000000000    0.8206100000000001    0.7570250000000001 H
   0.2805633333333333    0.7381750000000000    0.6997750000000000 H
   0.2585900000000000    0.8131950000000000    0.6490950000000000 H
   0.3406800000000000    0.8913350000000000    0.7044600000000000 H
   0.2996300000000000    0.6790250000000000    0.7418400000000001 H
   0.3847133333333333    0.7622450000000001    0.8007750000000000 H
   0.4066600000000000    0.6871550000000000    0.8514699999999999 H
   0.3250766666666667    0.6084800000000000    0.7948000000000000 H
   0.3663400000000000    0.3206100000000000    0.7570250000000001 H
   0.2805633333333333    0.2381750000000000    0.6997750000000000 H
   0.2585900000000000    0.3131950000000000    0.6490950000000000 H
   0.3406800000000000    0.3913350000000000    0.7044600000000000 H
   0.2996300000000000    0.1790250000000000    0.7418400000000001 H
   0.3847133333333333    0.2622450000000000    0.8007750000000000 H
   0.4066600000000000    0.1871550000000000    0.8514699999999999 H
   0.3250766666666667    0.1084800000000000    0.7948000000000000 H
   0.3663400000000000    0.3206100000000000    0.2570250000000000 H
   0.2805633333333333    0.2381750000000000    0.1997750000000000 H
   0.2585900000000000    0.3131950000000000    0.1490950000000000 H
   0.3406800000000000    0.3913350000000000    0.2044600000000000 H
   0.2996300000000000    0.1790250000000000    0.2418400000000000 H
   0.3847133333333333    0.2622450000000000    0.3007750000000000 H
   0.4066600000000000    0.1871550000000000    0.3514700000000000 H
   0.3250766666666667    0.1084800000000000    0.2948000000000000 H
   0.8182600000000000    0.4414800000000000    0.1801700000000000 H
   0.8863166666666666    0.5318100000000000    0.2793500000000000 H
   0.9323133333333333    0.4936500000000000    0.2297300000000000 H
   0.8670466666666666    0.4081400000000000    0.1344500000000000 H
   0.8472833333333333    0.5586150000000000    0.3202100000000000 H
   0.7792533333333334    0.4683000000000000    0.2209050000000000 H
   0.7332400000000000    0.5065450000000000    0.2704000000000000 H
   0.7984399999999999    0.5921700000000000    0.3656400000000000 H
   0.8182600000000000    0.9414800000000000    0.1801700000000000 H
   0.8863166666666666    0.0318100000000000    0.2793500000000000 H
   0.9323133333333333    0.9936499999999999    0.2297300000000000 H
   0.8670466666666666    0.9081399999999999    0.1344500000000000 H
   0.8472833333333333    0.0586150000000000    0.3202100000000000 H
   0.7792533333333334    0.9682999999999999    0.2209050000000000 H
   0.7332400000000000    0.0065450000000000    0.2704000000000000 H
   0.7984399999999999    0.0921700000000000    0.3656400000000000 H
   0.1515933333333333    0.4414800000000000    0.1801700000000000 H
   0.2196500000000000    0.5318100000000000    0.2793500000000000 H
   0.2656466666666666    0.4936500000000000    0.2297300000000000 H
   0.2003800000000000    0.4081400000000000    0.1344500000000000 H
   0.1806166666666667    0.5586150000000000    0.3202100000000000 H
   0.1125866666666667    0.4683000000000000    0.2209050000000000 H
   0.0665733333333333    0.5065450000000000    0.2704000000000000 H
   0.1317733333333333    0.5921700000000000    0.3656400000000000 H
   0.1515933333333333    0.9414800000000000    0.1801700000000000 H
   0.2196500000000000    0.0318100000000000    0.2793500000000000 H
   0.2656466666666666    0.9936499999999999    0.2297300000000000 H
   0.2003800000000000    0.9081399999999999    0.1344500000000000 H
   0.1806166666666667    0.0586150000000000    0.3202100000000000 H
   0.1125866666666667    0.9682999999999999    0.2209050000000000 H
   0.0665733333333333    0.0065450000000000    0.2704000000000000 H
   0.1317733333333333    0.0921700000000000    0.3656400000000000 H
   0.4849266666666666    0.9414800000000000    0.1801700000000000 H
   0.5529833333333334    0.0318100000000000    0.2793500000000000 H
   0.5989800000000000    0.9936499999999999    0.2297300000000000 H
   0.5337133333333333    0.9081399999999999    0.1344500000000000 H
   0.5139500000000000    0.0586150000000000    0.3202100000000000 H
   0.4459200000000000    0.9682999999999999    0.2209050000000000 H
   0.3999066666666666    0.0065450000000000    0.2704000000000000 H
   0.4651066666666667    0.0921700000000000    0.3656400000000000 H
   0.4849266666666666    0.4414800000000000    0.1801700000000000 H
   0.5529833333333334    0.5318100000000000    0.2793500000000000 H
   0.5989800000000000    0.4936500000000000    0.2297300000000000 H
   0.5337133333333333    0.4081400000000000    0.1344500000000000 H
   0.5139500000000000    0.5586150000000000    0.3202100000000000 H
   0.4459200000000000    0.4683000000000000    0.2209050000000000 H
   0.3999066666666666    0.5065450000000000    0.2704000000000000 H
   0.4651066666666667    0.5921700000000000    0.3656400000000000 H
   0.0143300000000000    0.1792250000000000    0.9415000000000000 H
   0.9458066666666667    0.2791000000000000    0.0319000000000000 H
   0.9000166666666666    0.2294550000000000    0.9941300000000000 H
   0.9657433333333333    0.1335550000000000    0.9089900000000000 H
   0.9846166666666666    0.3202200000000000    0.0579100000000000 H
   0.0532266666666667    0.2201300000000000    0.9683300000000000 H
   0.0989833333333333    0.2699600000000000    0.0059200000000000 H
   0.0331666666666667    0.3660950000000000    0.0907150000000000 H
   0.6809966666666666    0.1792250000000000    0.9415000000000000 H
   0.6124733333333333    0.2791000000000000    0.0319000000000000 H
   0.5666833333333333    0.2294550000000000    0.9941300000000000 H
   0.6324099999999999    0.1335550000000000    0.9089900000000000 H
   0.6512833333333332    0.3202200000000000    0.0579100000000000 H
   0.7198933333333333    0.2201300000000000    0.9683300000000000 H
   0.7656499999999999    0.2699600000000000    0.0059200000000000 H
   0.6998333333333333    0.3660950000000000    0.0907150000000000 H
   0.3476633333333333    0.1792250000000000    0.9415000000000000 H
   0.2791400000000000    0.2791000000000000    0.0319000000000000 H
   0.2333500000000000    0.2294550000000000    0.9941300000000000 H
   0.2990766666666667    0.1335550000000000    0.9089900000000000 H
   0.3179500000000000    0.3202200000000000    0.0579100000000000 H
   0.3865600000000000    0.2201300000000000    0.9683300000000000 H
   0.4323166666666666    0.2699600000000000    0.0059200000000000 H
   0.3665000000000000    0.3660950000000000    0.0907150000000000 H
   0.7331533333333333    0.6144950000000000    0.0339100000000000 H
   0.8192499999999999    0.6479000000000000    0.1404600000000000 H
   0.8538800000000000    0.6473599999999999    0.0683700000000000 H
   0.6797566666666667    0.6407550000000000    0.1496800000000000 H
   0.6452700000000000    0.5688900000000000    0.1501500000000000 H
   0.7658733333333333    0.5339200000000000    0.1154000000000000 H
   0.8471833333333333    0.3508100000000000    0.8589249999999999 H
   0.8122566666666666    0.3516600000000000    0.9308350000000001 H
   0.9328399999999999    0.3850250000000000    0.9659700000000000 H
   0.9865200000000000    0.3593550000000000    0.8509000000000000 H
   0.0208433333333333    0.4313900000000000    0.8507800000000000 H
   0.8999933333333333    0.4657650000000000    0.8843600000000000 H
   0.0664866666666667    0.6144950000000000    0.0339100000000000 H
   0.1525833333333333    0.6479000000000000    0.1404600000000000 H
   0.1872133333333333    0.6473599999999999    0.0683700000000000 H
   0.0130900000000000    0.6407550000000000    0.1496800000000000 H
   0.9786033333333333    0.5688900000000000    0.1501500000000000 H
   0.0992066666666667    0.5339200000000000    0.1154000000000000 H
   0.1805166666666667    0.3508100000000000    0.8589249999999999 H
   0.1455900000000000    0.3516600000000000    0.9308350000000001 H
   0.2661733333333333    0.3850250000000000    0.9659700000000000 H
   0.3198533333333333    0.3593550000000000    0.8509000000000000 H
   0.3541766666666666    0.4313900000000000    0.8507800000000000 H
   0.2333266666666667    0.4657650000000000    0.8843600000000000 H
   0.3998200000000000    0.6144950000000000    0.0339100000000000 H
   0.4859166666666667    0.6479000000000000    0.1404600000000000 H
   0.5205466666666667    0.6473599999999999    0.0683700000000000 H
   0.3464233333333333    0.6407550000000000    0.1496800000000000 H
   0.3119366666666666    0.5688900000000000    0.1501500000000000 H
   0.4325400000000000    0.5339200000000000    0.1154000000000000 H
   0.5138499999999999    0.3508100000000000    0.8589249999999999 H
   0.4789233333333333    0.3516600000000000    0.9308350000000001 H
   0.5995066666666666    0.3850250000000000    0.9659700000000000 H
   0.6531866666666666    0.3593550000000000    0.8509000000000000 H
   0.6875100000000000    0.4313900000000000    0.8507800000000000 H
   0.5666599999999999    0.4657650000000000    0.8843600000000000 H
   0.3476633333333333    0.6792250000000000    0.9415000000000000 H
   0.2791400000000000    0.7791000000000000    0.0319000000000000 H
   0.2333500000000000    0.7294550000000000    0.9941300000000000 H
   0.2990766666666667    0.6335550000000000    0.9089900000000000 H
   0.3179500000000000    0.8202199999999999    0.0579100000000000 H
   0.3865600000000000    0.7201299999999999    0.9683300000000000 H
   0.4323166666666666    0.7699600000000000    0.0059200000000000 H
   0.3665000000000000    0.8660950000000001    0.0907150000000000 H
   0.0143300000000000    0.6792250000000000    0.9415000000000000 H
   0.9458066666666667    0.7791000000000000    0.0319000000000000 H
   0.9000166666666666    0.7294550000000000    0.9941300000000000 H
   0.9657433333333333    0.6335550000000000    0.9089900000000000 H
   0.9846166666666666    0.8202199999999999    0.0579100000000000 H
   0.0532266666666667    0.7201299999999999    0.9683300000000000 H
   0.0989833333333333    0.7699600000000000    0.0059200000000000 H
   0.0331666666666667    0.8660950000000001    0.0907150000000000 H
   0.6809966666666666    0.6792250000000000    0.9415000000000000 H
   0.6124733333333333    0.7791000000000000    0.0319000000000000 H
   0.5666833333333333    0.7294550000000000    0.9941300000000000 H
   0.6324099999999999    0.6335550000000000    0.9089900000000000 H
   0.6512833333333332    0.8202199999999999    0.0579100000000000 H
   0.7198933333333333    0.7201299999999999    0.9683300000000000 H
   0.7656499999999999    0.7699600000000000    0.0059200000000000 H
   0.6998333333333333    0.8660950000000001    0.0907150000000000 H
   0.7331533333333333    0.1144950000000000    0.0339100000000000 H
   0.8192499999999999    0.1479000000000000    0.1404600000000000 H
   0.8538800000000000    0.1473600000000000    0.0683700000000000 H
   0.6797566666666667    0.1407550000000000    0.1496800000000000 H
   0.6452700000000000    0.0688900000000000    0.1501500000000000 H
   0.7658733333333333    0.0339200000000000    0.1154000000000000 H
   0.8471833333333333    0.8508100000000001    0.8589249999999999 H
   0.8122566666666666    0.8516600000000000    0.9308350000000001 H
   0.9328399999999999    0.8850250000000000    0.9659700000000000 H
   0.9865200000000000    0.8593550000000000    0.8509000000000000 H
   0.0208433333333333    0.9313899999999999    0.8507800000000000 H
   0.8999933333333333    0.9657650000000000    0.8843600000000000 H
   0.3998200000000000    0.1144950000000000    0.0339100000000000 H
   0.4859166666666667    0.1479000000000000    0.1404600000000000 H
   0.5205466666666667    0.1473600000000000    0.0683700000000000 H
   0.3464233333333333    0.1407550000000000    0.1496800000000000 H
   0.3119366666666666    0.0688900000000000    0.1501500000000000 H
   0.4325400000000000    0.0339200000000000    0.1154000000000000 H
   0.5138499999999999    0.8508100000000001    0.8589249999999999 H
   0.4789233333333333    0.8516600000000000    0.9308350000000001 H
   0.5995066666666666    0.8850250000000000    0.9659700000000000 H
   0.6531866666666666    0.8593550000000000    0.8509000000000000 H
   0.6875100000000000    0.9313899999999999    0.8507800000000000 H
   0.5666599999999999    0.9657650000000000    0.8843600000000000 H
   0.0664866666666667    0.1144950000000000    0.0339100000000000 H
   0.1525833333333333    0.1479000000000000    0.1404600000000000 H
   0.1872133333333333    0.1473600000000000    0.0683700000000000 H
   0.0130900000000000    0.1407550000000000    0.1496800000000000 H
   0.9786033333333333    0.0688900000000000    0.1501500000000000 H
   0.0992066666666667    0.0339200000000000    0.1154000000000000 H
   0.1805166666666667    0.8508100000000001    0.8589249999999999 H
   0.1455900000000000    0.8516600000000000    0.9308350000000001 H
   0.2661733333333333    0.8850250000000000    0.9659700000000000 H
   0.3198533333333333    0.8593550000000000    0.8509000000000000 H
   0.3541766666666666    0.9313899999999999    0.8507800000000000 H
   0.2333266666666667    0.9657650000000000    0.8843600000000000 H
   0.8182600000000000    0.4414800000000000    0.6801699999999999 H
   0.8863166666666666    0.5318100000000000    0.7793500000000000 H
   0.9323133333333333    0.4936500000000000    0.7297300000000000 H
   0.8670466666666666    0.4081400000000000    0.6344500000000000 H
   0.8472833333333333    0.5586150000000000    0.8202100000000000 H
   0.7792533333333334    0.4683000000000000    0.7209050000000000 H
   0.7332400000000000    0.5065450000000000    0.7704000000000000 H
   0.7984399999999999    0.5921700000000000    0.8656400000000000 H
   0.4849266666666666    0.9414800000000000    0.6801699999999999 H
   0.5529833333333334    0.0318100000000000    0.7793500000000000 H
   0.5989800000000000    0.9936499999999999    0.7297300000000000 H
   0.5337133333333333    0.9081399999999999    0.6344500000000000 H
   0.5139500000000000    0.0586150000000000    0.8202100000000000 H
   0.4459200000000000    0.9682999999999999    0.7209050000000000 H
   0.3999066666666666    0.0065450000000000    0.7704000000000000 H
   0.4651066666666667    0.0921700000000000    0.8656400000000000 H
   0.8182600000000000    0.9414800000000000    0.6801699999999999 H
   0.8863166666666666    0.0318100000000000    0.7793500000000000 H
   0.9323133333333333    0.9936499999999999    0.7297300000000000 H
   0.8670466666666666    0.9081399999999999    0.6344500000000000 H
   0.8472833333333333    0.0586150000000000    0.8202100000000000 H
   0.7792533333333334    0.9682999999999999    0.7209050000000000 H
   0.7332400000000000    0.0065450000000000    0.7704000000000000 H
   0.7984399999999999    0.0921700000000000    0.8656400000000000 H
   0.1515933333333333    0.4414800000000000    0.6801699999999999 H
   0.2196500000000000    0.5318100000000000    0.7793500000000000 H
   0.2656466666666666    0.4936500000000000    0.7297300000000000 H
   0.2003800000000000    0.4081400000000000    0.6344500000000000 H
   0.1806166666666667    0.5586150000000000    0.8202100000000000 H
   0.1125866666666667    0.4683000000000000    0.7209050000000000 H
   0.0665733333333333    0.5065450000000000    0.7704000000000000 H
   0.1317733333333333    0.5921700000000000    0.8656400000000000 H