H6 C19 O8 F6
1.0
  39.5411953215283845    0.0000000000000000   -4.1845569113995600
   2.7339584710130409   26.1734048881901344   -1.7206776681415077
   0.0000000000000000    0.0000000000000000   26.3120000000000012
H C O F
6 19 8 6
direct
   0.0208433333333333    0.4313900000000000    0.3507800000000000 H
   0.9865200000000000    0.3593550000000000    0.3509000000000000 H
   0.8999933333333333    0.4657650000000000    0.3843600000000000 H
   0.8122566666666666    0.3516600000000000    0.4308350000000000 H
   0.8471833333333333    0.3508100000000000    0.3589250000000000 H
   0.9328399999999999    0.3850250000000000    0.4659700000000000 H
   0.9801133333333333    0.4889850000000000    0.3646400000000000 C
   0.9941033333333333    0.4383800000000000    0.3573400000000000 C
   0.9746199999999999    0.3978500000000000    0.3581200000000000 C
   0.9404500000000000    0.4069750000000000    0.3678450000000000 C
   0.9264333333333332    0.4576700000000000    0.3762950000000000 C
   0.9456066666666666    0.4987700000000000    0.3735950000000000 C
   0.9374300000000000    0.3097150000000000    0.3680350000000000 C
   0.8525333333333333    0.3658050000000000    0.4888200000000000 C
   0.8389633333333333    0.3581350000000000    0.4380400000000000 C
   0.8587833333333332    0.3583450000000000    0.3975300000000000 C
   0.8928900000000000    0.3680350000000000    0.4068200000000000 C
   0.9064666666666666    0.3769500000000000    0.4576750000000000 C
   0.8870166666666666    0.3746350000000000    0.4987300000000000 C
   0.8972833333333332    0.3662000000000000    0.3092500000000000 C
   0.9169333333333333    0.3637450000000000    0.3639600000000000 C
   0.0033600000000000    0.5302249999999999    0.3657450000000000 C
   0.9277733333333333    0.5524950000000000    0.3746500000000000 C
   0.8290799999999999    0.3673450000000000    0.5302400000000000 C
   0.9047833333333333    0.3756300000000000    0.5524750000000000 C
   0.0296533333333333    0.5201900000000000    0.3399950000000000 O
   0.9983066666666667    0.5712100000000000    0.3919850000000000 O
   0.9274100000000000    0.5776700000000000    0.3357700000000000 O
   0.9127399999999999    0.5671050000000000    0.4151000000000000 O
   0.8341999999999999    0.3934300000000000    0.5712250000000000 O
   0.8027466666666666    0.3418750000000000    0.5202000000000000 O
   0.9050166666666666    0.3369050000000000    0.5777650000000000 O
   0.9200900000000000    0.4156250000000000    0.5665000000000000 O
   0.9613366666666666    0.3089250000000000    0.4088500000000000 F
   0.9541166666666666    0.2936300000000000    0.3260750000000000 F
   0.9168733333333332    0.2731200000000000    0.3735550000000000 F
   0.8728833333333332    0.4065000000000000    0.3067500000000000 F
   0.8814433333333332    0.3235350000000000    0.2936500000000000 F
   0.9185433333333333    0.3712700000000000    0.2732150000000000 F
