H8 O6
1.0
  39.5411953215283845    0.0000000000000000   -4.1845569113995600
   2.7339584710130409   26.1734048881901344   -1.7206776681415077
   0.0000000000000000    0.0000000000000000   26.3120000000000012
H O
8 6
direct
   0.0068856803721314    0.5149252946732380    0.3249285239147839 H
   0.9241295691557792    0.5560361570710021    0.3844542302205364 H
   0.9754779443475806    0.5841110126276249    0.3995710948043755 H
   0.9564846431884052    0.5615392346313791    0.3643093095085675 H
   0.9084721587784428    0.3852685827750754    0.5558549505793332 H
   0.7999731089017906    0.3204272128233719    0.4889801366285158 H
   0.8536294462178340    0.4121619046701115    0.5820106293012097 H
   0.8310634446326575    0.3691751700345314    0.5359191443709551 H
   0.0296533333333333    0.5201900000000000    0.3399950000000000 O
   0.9127399999999999    0.5671050000000000    0.4151000000000000 O
   0.9983066666666667    0.5712100000000000    0.3919850000000000 O
   0.9200900000000000    0.4156250000000000    0.5665000000000000 O
   0.8027466666666666    0.3418750000000000    0.5202000000000000 O
   0.8341999999999999    0.3934300000000000    0.5712250000000000 O
