H6 O4
1.0
  34.5053255542003328    0.0000000000000000    2.2095891922820381
   1.9288071093416954   34.4066842256552050    2.5100772360631027
   0.0000000000000000    0.0000000000000000   34.6700000000000017
H O
6 4
direct
   0.6917323015129447    0.6242362182898348    0.1269561495770646 H
   0.6964612151567352    0.5476891270928492    0.0485366206510983 H
   0.7000072896837921    0.5853700711579233    0.0874148624258565 H
  -0.0140584801822477    0.6366828885390472    0.0620034542772334 H
  -0.0094485003777138    0.5396983494955891    0.1271862465541682 H
  -0.0178582823589344    0.5876863689782219    0.0949654286933758 H
   0.6775550000000000    0.6090750000000000    0.1107150000000000 O
   0.6805150000000000    0.5645249999999999    0.0650850000000000 O
   0.0023000000000000    0.6168550000000000    0.0752500000000000 O
   0.0047650000000000    0.5602650000000000    0.1132850000000000 O
