H12 O8
1.0
  12.1940000000000008    0.0000000000000000    0.0000000000000007
  -0.0002126160094673   12.1819999981445761    0.0000000000000007
   0.0000000000000000    0.0000000000000000   23.1690000000000005
H O
12 8
direct
   0.6621773945458056    0.1433570745194941    0.4251090847063838 H
   0.3377827167858912    1.1433560018785900    0.4251096450432745 H
   0.4999783143571513    1.1536243870204925    0.4197455432440927 H
   0.6621743866890779   -0.1433458546683921    0.4251058605490559 H
   0.3377865102404234    0.8566381950558407    0.4251065912199276 H
   0.4999783139178828   -0.1536244227264972    0.4197402702642378 H
  -0.1432759668239798    0.6623707469593121    0.0748765334406620 H
  -0.1432919221593640    0.3376401558222509    0.0748758039204774 H
  -0.1535267118467367    0.5000033164985483    0.0802287514260688 H
   0.1432540923621906    0.6623630189375561    0.0748833881168671 H
   0.1432522582044115    0.3376364654590761    0.0748824293453125 H
   0.1535034804338957    0.4999966309457905    0.0802410633656368 H
   0.5934700000000001    0.1148900000000000    0.4399800000000000 O
   0.4064900000000000    1.1148899999999999    0.4399800000000000 O
   0.5934700000000001   -0.1148800000000000    0.4399800000000000 O
   0.4064900000000000    0.8851100000000000    0.4399800000000000 O
  -0.1148500000000000    0.5935800000000000    0.0600200000000000 O
  -0.1148600000000000    0.4064300000000000    0.0600200000000000 O
   0.1148200000000000    0.5935800000000000    0.0600200000000000 O
   0.1148200000000000    0.4064200000000000    0.0600200000000000 O
