Cu4 H16 C29 O8
1.0
  12.1940000000000008    0.0000000000000000    0.0000000000000007
  -0.0002126160094673   12.1819999981445761    0.0000000000000007
   0.0000000000000000    0.0000000000000000   23.1690000000000005
Cu H C O
4 16 29 8
direct
   0.0000000000000000    0.3995900000000000    0.0000000000000000 Cu
   0.3996500000000000    0.9999900000000000    0.5000000000000000 Cu
   0.6003200000000000    0.0000000000000000    0.5000000000000000 Cu
   0.0000000000000000    0.6004300000000000    0.0000000000000000 Cu
   0.6075199999999999    0.6768000000000000    0.7987800000000000 H
   0.7532700000000000    0.6761900000000000    0.8731700000000000 H
   0.3924200000000000    0.3232000000000000    0.7987800000000000 H
   0.2466700000000000    0.3238100000000000    0.8731700000000000 H
   0.6766000000000000    0.6075600000000000    0.7013400000000000 H
   0.6759800000000000    0.7532900000000000    0.6268600000000000 H
   0.3233500000000000    0.3924400000000000    0.7013400000000000 H
   0.3239700000000000    0.2467100000000000    0.6268600000000000 H
   0.6766000000000000    0.3924500000000000    0.7013400000000000 H
   0.6759800000000000    0.2467200000000000    0.6268600000000000 H
   0.3233500000000000    0.6075500000000000    0.7013400000000000 H
   0.3239700000000000    0.7532900000000000    0.6268600000000000 H
   0.6075199999999999    0.3232100000000000    0.7987800000000000 H
   0.7532700000000000    0.3238200000000000    0.8731700000000000 H
   0.3924200000000000    0.6768000000000000    0.7987800000000000 H
   0.2466800000000000    0.6761800000000000    0.8731700000000000 H
   0.6396800000000000    0.5988200000000000    0.8143300000000000 C
   0.7214000000000000    0.5991600000000000    0.8562500000000000 C
   0.3602600000000000    0.4011800000000000    0.8143300000000000 C
   0.2785400000000000    0.4008500000000000    0.8562500000000000 C
   0.5987000000000000    0.6397400000000000    0.6857000000000000 C
   0.5990300000000000    0.7214300000000000    0.6438100000000000 C
   0.4012500000000000    0.3602600000000000    0.6857799999999999 C
   0.4009200000000000    0.2785700000000000    0.6438100000000000 C
   0.5987000000000000    0.3602700000000000    0.6857000000000000 C
   0.5990300000000000    0.2785800000000000    0.6438000000000000 C
   0.4012500000000000    0.6397400000000000    0.6857000000000000 C
   0.4009200000000000    0.7214300000000000    0.6438100000000000 C
   0.6396800000000000    0.4011900000000000    0.8143300000000000 C
   0.7214000000000000    0.4008500000000000    0.8562500000000000 C
   0.3602600000000000    0.5988100000000000    0.8143300000000000 C
   0.2785400000000000    0.5991500000000000    0.8562500000000000 C
   0.5983100000000000    0.5000000000000000    0.7920700000000001 C
   0.8509500000000000    0.5000000000000000    0.9224200000000000 C
   0.7634300000000001    0.5000000000000000    0.8774900000000000 C
   0.4016300000000000    0.5000000000000000    0.7920700000000001 C
   0.1489900000000000    0.5000000000000000    0.9224200000000000 C
   0.2365100000000000    0.5000000000000000    0.8774900000000000 C
   0.4999700000000000    0.5984000000000000    0.7080800000000000 C
   0.4999800000000000    0.8509300000000000    0.5775800000000000 C
   0.4999800000000000    0.7634400000000000    0.6225000000000001 C
   0.4999700000000000    0.4016000000000000    0.7080800000000000 C
   0.4999800000000000    0.1490700000000000    0.5775800000000000 C
   0.4999800000000000    0.2365600000000000    0.6225000000000001 C
   0.4999700000000000    0.5000000000000000    0.7500800000000000 C
   0.8851400000000000    0.5935800000000000    0.9399800000000000 O
   0.1148100000000000    0.4064200000000000    0.9399000000000000 O
   0.5934600000000000    0.8851100000000000    0.5600100000000000 O
   0.4064900000000000    0.1148900000000000    0.5600100000000000 O
   0.5934600000000000    0.1148900000000000    0.5600100000000000 O
   0.4064900000000000    0.8851100000000000    0.5600100000000000 O
   0.8851300000000000    0.4064300000000000    0.9399800000000000 O
   0.1148100000000000    0.5935700000000000    0.9399800000000000 O
