H2 O2
1.0
  12.7539986868394095    0.0000000000000000   -0.0057875814141504
   0.0222298461744049   12.7369805701054624   -0.0008892103465835
   0.0000000000000000    0.0000000000000000   25.6610000000000014
H O
2 2
direct
   0.4326205996789076    0.8906744238094385    0.6537965956516220 H
   0.4344158655403156    0.6116143458358920    0.8473203513695357 H
   0.4491800000000000    0.8626700000000000    0.6192500000000000 O
   0.4522600000000000    0.6396400000000000    0.8817000000000000 O
