H1 C1 O2
1.0
  20.2109999722951983    0.0000000000000000    0.0010582454848767
   0.0209199603599703   23.0180582952081316   -0.4765329722679704
   0.0000000000000000    0.0000000000000000   29.8859999999999992
H C O
1 1 2
direct
   0.2779300000000000    0.5134500000000000    0.6158500000000000 H
   0.2634300000000000    0.4906700000000000    0.6465450000000000 C
   0.2589300000000000    0.4350200000000000    0.6425600000000000 O
   0.2528200000000000    0.5203300000000000    0.6813300000000000 O
