H3 C9 N12
1.0
  27.6559999957877487    0.0000000000000000   -0.0004826882579102
   0.0234722009150086   31.2759896488102243   -0.0098256450217423
   0.0000000000000000    0.0000000000000000   31.2820000000000000
H C N
3 9 12
direct
   0.4220250000000000    0.3686450000000000    0.8685849999999999 H
   0.5000000000000000    0.4534500000000000    0.9534250000000000 H
   0.5780149999999999    0.3685750000000000    0.8686000000000000 H
   0.4564550000000000    0.3805800000000000    0.8805400000000000 C
   0.4563250000000000    0.4128900000000000    0.9128650000000000 C
   0.4103550000000000    0.4280850000000000    0.9280550000000001 C
   0.5000250000000001    0.3314600000000000    0.8314450000000000 C
   0.5000250000000001    0.3645100000000000    0.8644900000000000 C
   0.5000100000000000    0.4288450000000000    0.9288200000000000 C
   0.5435750000000000    0.3805450000000000    0.8805450000000000 C
   0.5436900000000000    0.4128750000000000    0.9128550000000000 C
   0.5896450000000000    0.4280550000000000    0.9280349999999999 C
   0.3570850000000000    0.4619250000000000    0.9619500000000001 N
   0.4044850000000000    0.4585450000000000    0.9585950000000000 N
   0.3666600000000000    0.4133000000000000    0.9132350000000000 N
   0.3334100000000000    0.4343500000000000    0.9343049999999999 N
   0.4756650000000000    0.2861050000000000    0.7861850000000000 N
   0.4594750000000000    0.3143550000000000    0.8144950000000000 N
   0.5243300000000000    0.2861850000000000    0.7860500000000000 N
   0.5405450000000001    0.3144750000000000    0.8143050000000001 N
   0.6428900000000000    0.4619300000000000    0.9618599999999999 N
   0.5954900000000000    0.4585900000000000    0.9584950000000000 N
   0.6333550000000000    0.4132250000000000    0.9132400000000001 N
   0.6665850000000000    0.4342800000000000    0.9342800000000000 N
