H5 O3
1.0
  27.6559999957877487    0.0000000000000000   -0.0004826882579102
   0.0234722009150086   31.2759896488102243   -0.0098256450217423
   0.0000000000000000    0.0000000000000000   31.2820000000000000
H O
5 3
direct
   0.5110479936041622    0.2861631658170828    0.7860868451836729 H
   0.4889470063958378    0.2861268341829172    0.7861481548163272 H
   0.5362725328004074    0.3070209082900724    0.8068601303901024 H
   0.6077329457091053    0.4594526885795023    0.9593641458293489 H
   0.6596223334324360    0.4424048250936123    0.9423842559161602 H
   0.5243300000000000    0.2861850000000000    0.7860500000000000 O
   0.4756650000000000    0.2861050000000000    0.7861850000000000 O
   0.6428900000000000    0.4619300000000000    0.9618599999999999 O
