H2 C2 O2
1.0
  18.0869999972451936    0.0000000000000000    0.0003156777017925
  -9.0383051909547270   15.6667995543174285    0.0000000000000011
   0.0000000000000000    0.0000000000000000   35.6499999999999986
H C O
2 2 2
direct
   0.5089200000000000    0.2971200000000000    0.0459850000000000 H
   0.4167800000000000    0.2392700000000000    0.0171750000000000 H
   0.4104200000000000    0.3307000000000000    0.0538450000000000 C
   0.4608100000000000    0.3026500000000000    0.0291200000000000 C
   0.4099200000000000    0.3979500000000000    0.0452000000000000 O
   0.3701000000000000    0.2818100000000000    0.0811500000000000 O
