La16 Y16 H196 C188 O234
1.0
  18.0869999972451936    0.0000000000000000    0.0003156777017925
  -9.0383051909547270   15.6667995543174285    0.0000000000000011
   0.0000000000000000    0.0000000000000000   35.6499999999999986
La Y H C O
16 16 196 188 234
direct
   0.8333100000000000    0.6666666666666666    0.6249950000000000 La
   0.1667100000000000    0.3332900000000000    0.8749899999999999 La
   0.8333100000000000    0.6666666666666666    0.1249950000000000 La
   0.1667100000000000    0.3332900000000000    0.3749900000000000 La
   0.8333100000000000    0.1667200000000000    0.6249950000000000 La
   0.1667200000000000    0.8333000000000000    0.8749899999999999 La
   0.6666666666666666    0.8333000000000000    0.8749899999999999 La
   0.3333333333333333    0.6666666666666666    0.6249950000000000 La
   0.6666666666666666    0.3333333333333333    0.3749900000000000 La
   0.6666666666666666    0.3333333333333333    0.8749899999999999 La
   0.8333100000000000    0.1667200000000000    0.1249950000000000 La
   0.3333333333333333    0.6666666666666666    0.1249950000000000 La
   0.6666666666666666    0.8333000000000000    0.3749900000000000 La
   0.3333333333333333    0.1667200000000000    0.1249950000000000 La
   0.3333333333333333    0.1667200000000000    0.6249950000000000 La
   0.1667200000000000    0.8333000000000000    0.3749900000000000 La
   0.0000200000000000    0.5000300000000000    0.7499950000000000 Y
   0.0000200000000000    0.5000200000000000    0.4999900000000000 Y
   0.0000200000000000    0.5000300000000000    0.2499950000000000 Y
   0.0000200000000000    0.5000200000000000    0.9999899999999999 Y
   0.0000200000000000    0.0000200000000000    0.7499950000000000 Y
   0.0000300000000000    0.0000200000000000    0.9999950000000000 Y
   0.0000200000000000    0.0000200000000000    0.2499950000000000 Y
   0.5000300000000000    0.0000200000000000    0.7499950000000000 Y
   0.5000300000000000    0.0000200000000000    0.4999950000000000 Y
   0.5000200000000000    0.5000200000000000    0.4999900000000000 Y
   0.5000300000000000    0.5000300000000000    0.2499950000000000 Y
   0.5000300000000000    0.5000300000000000    0.7499950000000000 Y
   0.5000300000000000    0.0000200000000000    0.9999950000000000 Y
   0.5000300000000000    0.0000200000000000    0.2499950000000000 Y
   0.5000200000000000    0.5000200000000000    0.9999899999999999 Y
   0.0000300000000000    0.0000200000000000    0.4999950000000000 Y
   0.9907800000000000    0.2881700000000000    0.7959499999999999 H
   0.0829500000000000    0.3221700000000000    0.7672350000000000 H
   0.0000000000000000    0.2971100000000000    0.7040050000000000 H
   0.9167800000000000    0.2392600000000000    0.7328150000000000 H
   0.2117300000000000    0.7025700000000000    0.7960100000000000 H
   0.1777000000000000    0.7607100000000000    0.7672399999999999 H
   0.2025700000000000    0.7117500000000000    0.7039750000000000 H
   0.2607000000000000    0.6776900000000000    0.7327450000000000 H
   0.7881700000000000    0.4908000000000000    0.7040000000000000 H
   0.8222100000000000    0.5829700000000000    0.7327500000000000 H
   0.7971400000000000    0.5089100000000000    0.7959849999999999 H
   0.7392600000000000    0.4167800000000000    0.7671749999999999 H
   0.2025700000000000    0.7117599999999999    0.5460150000000000 H
   0.2607000000000000    0.6777100000000000    0.5172450000000000 H
   0.2117300000000000    0.7025700000000000    0.4539700000000000 H
   0.1776900000000000    0.7607100000000000    0.4827450000000000 H
   0.9907800000000000    0.2881800000000000    0.4539900000000000 H
   0.0829500000000000    0.3221800000000000    0.4827500000000000 H
   0.7971400000000000    0.5089100000000000    0.4540000000000000 H
   0.7392600000000000    0.4167800000000000    0.4828100000000000 H
   0.7881700000000000    0.4908000000000000    0.5459950000000000 H
   0.8222100000000000    0.5829800000000001    0.5172350000000000 H
   0.0000000000000000    0.2971300000000000    0.5459849999999999 H
   0.9167900000000000    0.2392700000000000    0.5171500000000000 H
   0.9907800000000000    0.2881700000000000    0.2959500000000000 H
   0.0829500000000000    0.3221700000000000    0.2672350000000000 H
   0.0000000000000000    0.2971100000000000    0.2040050000000000 H
   0.9167800000000000    0.2392600000000000    0.2328150000000000 H
   0.2117300000000000    0.7025700000000000    0.2960100000000000 H
   0.1777000000000000    0.7607100000000000    0.2672400000000000 H
   0.2025700000000000    0.7117500000000000    0.2039750000000000 H
   0.2607000000000000    0.6776900000000000    0.2327450000000000 H
   0.7881700000000000    0.4908000000000000    0.2040000000000000 H
   0.8222100000000000    0.5829700000000000    0.2327500000000000 H
   0.7971400000000000    0.5089100000000000    0.2959850000000000 H
   0.7392600000000000    0.4167800000000000    0.2671750000000000 H
   0.2025700000000000    0.7117599999999999    0.0460150000000000 H
   0.2607000000000000    0.6777100000000000    0.0172450000000000 H
   0.2117300000000000    0.7025700000000000    0.9539700000000000 H
   0.1776900000000000    0.7607100000000000    0.9827450000000000 H
   0.9907800000000000    0.2881800000000000    0.9539900000000000 H
   0.0829500000000000    0.3221800000000000    0.9827500000000000 H
   0.7971400000000000    0.5089100000000000    0.9540000000000000 H
   0.7392600000000000    0.4167800000000000    0.9828100000000000 H
   0.7881700000000000    0.4908000000000000    0.0459950000000000 H
   0.8222100000000000    0.5829800000000001    0.0172350000000000 H
   0.0000000000000000    0.2971300000000000    0.0459850000000000 H
   0.9167900000000000    0.2392700000000000    0.0171500000000000 H
   0.2117300000000000    0.2025600000000000    0.7960100000000000 H
   0.1777000000000000    0.2607000000000000    0.7672399999999999 H
   0.2025700000000000    0.2117400000000000    0.7039750000000000 H
   0.2607000000000000    0.1776900000000000    0.7327500000000000 H
   0.9907899999999999    0.7881800000000000    0.7959900000000000 H
   0.0829600000000000    0.8221900000000000    0.7672300000000001 H
   0.0000000000000000    0.7971300000000000    0.7040050000000000 H
   0.9167800000000000    0.7392700000000000    0.7328150000000000 H
   0.7881700000000000    0.9907899999999999    0.7040000000000000 H
   0.8222100000000000    0.0829700000000000    0.7327600000000000 H
   0.7971400000000000    0.0000000000000000    0.7959849999999999 H
   0.7392600000000000    0.9167900000000000    0.7671749999999999 H
   0.9907899999999999    0.7881800000000000    0.9539900000000000 H
   0.0829600000000000    0.8221900000000000    0.9827500000000000 H
   0.7971400000000000    0.0000000000000000    0.9540000000000000 H
   0.7392600000000000    0.9167900000000000    0.9828049999999999 H
   0.7881700000000000    0.9908000000000000    0.0459500000000000 H
   0.8222200000000000    0.0829800000000000    0.0172300000000000 H
   0.0000000000000000    0.7971400000000000    0.0459500000000000 H
   0.9167900000000000    0.7392700000000000    0.0171800000000000 H
   0.2117300000000000    0.2025800000000000    0.9539750000000000 H
   0.1776700000000000    0.2607000000000000    0.9827500000000000 H
   0.2025500000000000    0.2117400000000000    0.0460150000000000 H
   0.2607000000000000    0.1777100000000000    0.0172500000000000 H
   0.2117300000000000    0.2025600000000000    0.2960100000000000 H
   0.1777000000000000    0.2607000000000000    0.2672400000000000 H
   0.2025700000000000    0.2117400000000000    0.2039750000000000 H
   0.2607000000000000    0.1776900000000000    0.2327500000000000 H
   0.9907899999999999    0.7881800000000000    0.2959900000000000 H
   0.0829600000000000    0.8221900000000000    0.2672300000000000 H
   0.0000000000000000    0.7971300000000000    0.2040050000000000 H
   0.9167800000000000    0.7392700000000000    0.2328150000000000 H
   0.7881700000000000    0.9907899999999999    0.2040000000000000 H
   0.8222100000000000    0.0829700000000000    0.2327600000000000 H
   0.7971400000000000    0.0000000000000000    0.2959850000000000 H
   0.7392600000000000    0.9167900000000000    0.2671750000000000 H
   0.7117400000000000    0.2025600000000000    0.7960100000000000 H
   0.6777100000000000    0.2607100000000000    0.7672399999999999 H
   0.7607100000000000    0.1776900000000000    0.7325000000000000 H
   0.7025800000000000    0.2117400000000000    0.7039750000000000 H
   0.4907900000000000    0.7881800000000000    0.7959900000000000 H
   0.5829600000000000    0.8221900000000000    0.7672000000000000 H
   0.5089100000000000    0.7971200000000001    0.7040050000000000 H
   0.4167700000000000    0.7392700000000000    0.7328150000000000 H
   0.2971300000000000    0.0000000000000000    0.7959849999999999 H
   0.2392600000000000    0.9167800000000000    0.7671749999999999 H
   0.2881600000000000    0.9907899999999999    0.7040000000000000 H
   0.3222000000000000    0.0829700000000000    0.7327550000000000 H
   0.7117400000000000    0.2025600000000000    0.4539700000000000 H
   0.6777000000000000    0.2607000000000000    0.4827450000000000 H
   0.7025800000000000    0.2117500000000000    0.5460150000000000 H
   0.7607100000000000    0.1777000000000000    0.5172450000000000 H
   0.2971300000000000    0.0000000000000000    0.4540000000000000 H
   0.2392500000000000    0.9167800000000000    0.4828100000000000 H
   0.2881700000000000    0.9908000000000000    0.5459950000000000 H
   0.3222100000000000    0.0829700000000000    0.5172350000000000 H
   0.5089200000000000    0.7971300000000000    0.5459849999999999 H
   0.4167800000000000    0.7392800000000000    0.5171500000000000 H
   0.4907900000000000    0.7881800000000000    0.4539900000000000 H
   0.5829600000000000    0.8221900000000000    0.4827500000000000 H
   0.4907900000000000    0.2881800000000000    0.4539900000000000 H
   0.5829600000000000    0.3221800000000000    0.4827500000000000 H
   0.7117300000000000    0.7025400000000001    0.4539650000000000 H
   0.6777200000000000    0.7607100000000000    0.4827350000000000 H
   0.7026100000000000    0.7117599999999999    0.5460050000000000 H
   0.7607100000000000    0.6776799999999999    0.5172350000000000 H
   0.2881600000000000    0.4908100000000000    0.5459500000000000 H
   0.3222100000000000    0.5829800000000001    0.5172000000000000 H
   0.2392500000000000    0.4167800000000000    0.4828050000000000 H
   0.2971300000000000    0.5089100000000000    0.4500000000000000 H
   0.5089200000000000    0.2971200000000000    0.5459849999999999 H
   0.4167800000000000    0.2392700000000000    0.5171750000000001 H
   0.7117400000000000    0.7025600000000000    0.2960100000000000 H
   0.6777100000000000    0.7607100000000000    0.2672400000000000 H
   0.7025900000000000    0.7117500000000000    0.2039800000000000 H
   0.7607000000000000    0.6776900000000000    0.2327500000000000 H
   0.5089000000000000    0.2971100000000000    0.2040050000000000 H
   0.4167700000000000    0.2392600000000000    0.2328150000000000 H
   0.4907800000000000    0.2881800000000000    0.2959950000000000 H
   0.5829600000000000    0.3221700000000000    0.2672350000000000 H
   0.2881600000000000    0.4908100000000000    0.2040000000000000 H
   0.3222100000000000    0.5829800000000001    0.2327600000000000 H
   0.2971400000000000    0.5089100000000000    0.2959850000000000 H
   0.2392500000000000    0.4167800000000000    0.2671750000000000 H
   0.7117400000000000    0.7025600000000000    0.7960100000000000 H
   0.6777100000000000    0.7607100000000000    0.7672399999999999 H
   0.7025900000000000    0.7117500000000000    0.7039800000000001 H
   0.7607000000000000    0.6776900000000000    0.7327500000000000 H
   0.5089000000000000    0.2971100000000000    0.7040050000000000 H
   0.4167700000000000    0.2392600000000000    0.7328150000000000 H
   0.4907800000000000    0.2881800000000000    0.7959950000000000 H
   0.5829600000000000    0.3221700000000000    0.7672350000000000 H
   0.2881600000000000    0.4908100000000000    0.7040000000000000 H
   0.3222100000000000    0.5829800000000001    0.7327600000000000 H
   0.2971400000000000    0.5089100000000000    0.7959849999999999 H
   0.2392500000000000    0.4167800000000000    0.7671749999999999 H
   0.5089200000000000    0.7971300000000000    0.0459850000000000 H
   0.4167800000000000    0.7392800000000000    0.0171500000000000 H
   0.4907900000000000    0.7881800000000000    0.9539900000000000 H
   0.5829600000000000    0.8221900000000000    0.9827500000000000 H
   0.4907900000000000    0.2881800000000000    0.9539900000000000 H
   0.5829600000000000    0.3221800000000000    0.9827500000000000 H
   0.5478103335484834    0.2336591858813711    0.9091191818663616 H
   0.2971300000000000    0.0000000000000000    0.9540000000000000 H
   0.2392500000000000    0.9167800000000000    0.9828100000000000 H
   0.2881700000000000    0.9908000000000000    0.0459950000000000 H
   0.3222100000000000    0.0829700000000000    0.0172350000000000 H
   0.4514323113324326    0.0716146200375474    0.9604682863610192 H
   0.4245959128106818    0.1355199478993013    0.9340687724510248 H
   0.6512343593880414    0.1780757298594515   -0.0200433895760902 H
   0.6780907494900573    0.1512441931224874    0.0200369496884206 H
   0.7117400000000000    0.2025600000000000    0.2960100000000000 H
   0.6777100000000000    0.2607100000000000    0.2672400000000000 H
   0.7607100000000000    0.1776900000000000    0.2325000000000000 H
   0.7025800000000000    0.2117400000000000    0.2039750000000000 H
   0.6647501619636368    0.0735411995592054    0.2386345644343600 H
   0.5930611278828911    0.0094517421380402    0.0720720859347469 H
   0.7268745834353301    0.0969445195686558    0.1080653062051244 H
   0.4907900000000000    0.7881800000000000    0.2959900000000000 H
   0.5829600000000000    0.8221900000000000    0.2672000000000000 H
   0.5089100000000000    0.7971200000000001    0.2040050000000000 H
   0.4167700000000000    0.7392700000000000    0.2328150000000000 H
   0.2971300000000000    0.0000000000000000    0.2959850000000000 H
   0.2392600000000000    0.9167800000000000    0.2671750000000000 H
   0.2881600000000000    0.9907899999999999    0.2040000000000000 H
   0.3222000000000000    0.0829700000000000    0.2327550000000000 H
   0.7117300000000000    0.7025400000000001    0.9539650000000000 H
   0.6777200000000000    0.7607100000000000    0.9827350000000000 H
   0.7026100000000000    0.7117599999999999    0.0460050000000000 H
   0.7607100000000000    0.6776799999999999    0.0172350000000000 H
   0.2881600000000000    0.4908100000000000    0.0459500000000000 H
   0.3222100000000000    0.5829800000000001    0.0172000000000000 H
   0.2392500000000000    0.4167800000000000    0.9828049999999999 H
   0.2971300000000000    0.5089100000000000    0.9500000000000000 H
   0.5089200000000000    0.2971200000000000    0.0459850000000000 H
   0.4167800000000000    0.2392700000000000    0.0171750000000000 H
   0.9907899999999999    0.7881800000000000    0.4539900000000000 H
   0.0829600000000000    0.8221900000000000    0.4827500000000000 H
   0.7971400000000000    0.0000000000000000    0.4540000000000000 H
   0.7392600000000000    0.9167900000000000    0.4828050000000000 H
   0.7881700000000000    0.9908000000000000    0.5459500000000000 H
   0.8222200000000000    0.0829800000000000    0.5172300000000000 H
   0.0000000000000000    0.7971400000000000    0.5459500000000000 H
   0.9167900000000000    0.7392700000000000    0.5171800000000000 H
   0.2117300000000000    0.2025800000000000    0.4539750000000000 H
   0.1776700000000000    0.2607000000000000    0.4827500000000000 H
   0.2025500000000000    0.2117400000000000    0.5460150000000000 H
   0.2607000000000000    0.1777100000000000    0.5172500000000000 H
   0.0894700000000000    0.4201100000000000    0.8038550000000000 C
   0.9104200000000000    0.3306900000000000    0.6961450000000000 C
   0.0390000000000000    0.3417000000000000    0.7791300000000000 C
   0.9608100000000001    0.3026400000000000    0.7208700000000000 C
   0.0797700000000000    0.6693200000000000    0.8038500000000000 C
   0.1693100000000000    0.5797800000000000    0.6961349999999999 C
   0.1582000000000000    0.6972500000000000    0.7791399999999999 C
   0.1972500000000000    0.6582100000000000    0.7208450000000000 C
   0.8307000000000000    0.4104000000000000    0.8038400000000000 C
   0.9201200000000000    0.5894700000000000    0.6961300000000000 C
   0.8417100000000000    0.5390100000000000    0.7208550000000000 C
   0.8026500000000000    0.4608000000000000    0.7791150000000000 C
   0.0797700000000000    0.6693200000000000    0.4461300000000000 C
   0.1693200000000000    0.5797900000000000    0.5538500000000000 C
   0.1972500000000000    0.6582200000000000    0.5291450000000000 C
   0.1582000000000000    0.6972500000000000    0.4708400000000000 C
   0.0390000000000000    0.3417100000000000    0.4708500000000000 C
   0.0894700000000000    0.4201100000000000    0.4461250000000000 C
   0.8307000000000000    0.4104000000000000    0.4461450000000000 C
   0.9201200000000000    0.5894800000000000    0.5538600000000000 C
   0.8026400000000000    0.4608000000000000    0.4708700000000000 C
   0.8417200000000000    0.5390100000000000    0.5291350000000000 C
   0.9608200000000000    0.3026500000000000    0.5291200000000000 C
   0.9104200000000000    0.3307000000000000    0.5538450000000000 C
   0.0894700000000000    0.4201100000000000    0.3038550000000000 C
   0.9104200000000000    0.3306900000000000    0.1961450000000000 C
   0.0390000000000000    0.3417000000000000    0.2791300000000000 C
   0.9608100000000001    0.3026400000000000    0.2208700000000000 C
   0.0797700000000000    0.6693200000000000    0.3038500000000000 C
   0.1693100000000000    0.5797800000000000    0.1961350000000000 C
   0.1582000000000000    0.6972500000000000    0.2791400000000000 C
   0.1972500000000000    0.6582100000000000    0.2208450000000000 C
   0.8307000000000000    0.4104000000000000    0.3038400000000000 C
   0.9201200000000000    0.5894700000000000    0.1961300000000000 C
   0.8417100000000000    0.5390100000000000    0.2208550000000000 C
   0.8026500000000000    0.4608000000000000    0.2791150000000000 C
   0.0797700000000000    0.6693200000000000    0.9461300000000000 C
   0.1693200000000000    0.5797900000000000    0.0538500000000000 C
   0.1972500000000000    0.6582200000000000    0.0291450000000000 C
   0.1582000000000000    0.6972500000000000    0.9708399999999999 C
   0.0390000000000000    0.3417100000000000    0.9708500000000000 C
   0.0894700000000000    0.4201100000000000    0.9461250000000000 C
   0.8307000000000000    0.4104000000000000    0.9461450000000000 C
   0.9201200000000000    0.5894800000000000    0.0538600000000000 C
   0.8026400000000000    0.4608000000000000    0.9708700000000000 C
   0.8417200000000000    0.5390100000000000    0.0291350000000000 C
   0.9608200000000000    0.3026500000000000    0.0291200000000000 C
   0.9104200000000000    0.3307000000000000    0.0538450000000000 C
   0.1693100000000000    0.0797700000000000    0.6961349999999999 C
   0.0797700000000000    0.1693100000000000    0.8038500000000000 C
   0.1582000000000000    0.1972500000000000    0.7791399999999999 C
   0.1972500000000000    0.1582000000000000    0.7208450000000000 C
   0.0894700000000000    0.9201200000000000    0.8038550000000000 C
   0.9104200000000000    0.8307000000000000    0.6961450000000000 C
   0.0390000000000000    0.8417100000000000    0.7791300000000000 C
   0.9608100000000001    0.8026500000000000    0.7208700000000000 C
   0.9201200000000000    0.0894700000000000    0.6961300000000000 C
   0.8307000000000000    0.9104100000000001    0.8038000000000001 C
   0.8417100000000000    0.0390000000000000    0.7208550000000000 C
   0.8026500000000000    0.9608100000000001    0.7791150000000000 C
   0.0390000000000000    0.8417100000000000    0.9708500000000000 C
   0.0894700000000000    0.9201200000000000    0.9460999999999999 C
   0.9201200000000000    0.0894700000000000    0.0538600000000000 C
   0.8307000000000000    0.9104100000000001    0.9461450000000000 C
   0.8026400000000000    0.9608100000000001    0.9708500000000000 C
   0.8417200000000000    0.0390100000000000    0.0291350000000000 C
   0.9608200000000000    0.8026600000000000    0.0291200000000000 C
   0.9104300000000000    0.8307099999999999    0.0538450000000000 C
   0.0797600000000000    0.1693100000000000    0.9461300000000000 C
   0.1693100000000000    0.0797800000000000    0.0538600000000000 C
   0.1581900000000000    0.1972500000000000    0.9708450000000000 C
   0.1972400000000000    0.1582100000000000    0.0291500000000000 C
   0.1693100000000000    0.0797700000000000    0.1961350000000000 C
   0.0797700000000000    0.1693100000000000    0.3038500000000000 C
   0.1582000000000000    0.1972500000000000    0.2791400000000000 C
   0.1972500000000000    0.1582000000000000    0.2208450000000000 C
   0.0894700000000000    0.9201200000000000    0.3038550000000000 C
   0.9104200000000000    0.8307000000000000    0.1961450000000000 C
   0.0390000000000000    0.8417100000000000    0.2791300000000000 C
   0.9608100000000001    0.8026500000000000    0.2208700000000000 C
   0.9201200000000000    0.0894700000000000    0.1961300000000000 C
   0.8307000000000000    0.9104100000000001    0.3038000000000000 C
   0.8417100000000000    0.0390000000000000    0.2208550000000000 C
   0.8026500000000000    0.9608100000000001    0.2791150000000000 C
   0.6693200000000000    0.0797700000000000    0.6961349999999999 C
   0.5797800000000000    0.1693100000000000    0.8038500000000000 C
   0.6582100000000000    0.1972500000000000    0.7791399999999999 C
   0.6972500000000000    0.1582100000000000    0.7208450000000000 C
   0.5894800000000000    0.9201200000000000    0.8038550000000000 C
   0.4104100000000000    0.8307000000000000    0.6961450000000000 C
   0.5390100000000000    0.8417100000000000    0.7791300000000000 C
   0.4608100000000000    0.8026500000000000    0.7208700000000000 C
   0.4201100000000000    0.0894700000000000    0.6961300000000000 C
   0.3306900000000000    0.9104100000000001    0.8038000000000001 C
   0.3026400000000000    0.9608100000000001    0.7791150000000000 C
   0.3417100000000000    0.0390000000000000    0.7208550000000000 C
   0.5797700000000000    0.1693100000000000    0.4461300000000000 C
   0.6693200000000000    0.0797800000000000    0.5538550000000000 C
   0.6582000000000000    0.1972500000000000    0.4708400000000000 C
   0.6972600000000000    0.1582100000000000    0.5291450000000000 C
   0.4201200000000000    0.0894700000000000    0.5538600000000000 C
   0.3306900000000000    0.9104100000000001    0.4461450000000000 C
   0.3026400000000000    0.9608100000000001    0.4708700000000000 C
   0.3417100000000000    0.0390000000000000    0.5291350000000000 C
   0.5894800000000000    0.9201200000000000    0.4461000000000000 C
   0.4104200000000000    0.8307099999999999    0.5538450000000000 C
   0.4608100000000000    0.8026600000000000    0.5291200000000000 C
   0.5390100000000000    0.8417100000000000    0.4708500000000000 C
   0.5390100000000000    0.3417100000000000    0.4708500000000000 C
   0.5894800000000000    0.4201200000000000    0.4461000000000000 C
   0.6693200000000000    0.5797900000000000    0.5538550000000000 C
   0.5797700000000000    0.6693200000000000    0.4461300000000000 C
   0.6582100000000000    0.6972500000000000    0.4708000000000000 C
   0.6972600000000000    0.6582200000000000    0.5291399999999999 C
   0.3306900000000000    0.4104000000000000    0.4461450000000000 C
   0.4201100000000000    0.5894800000000000    0.5538600000000000 C
   0.3417100000000000    0.5390100000000000    0.5291350000000000 C
   0.3026300000000000    0.4608000000000000    0.4708650000000000 C
   0.4608100000000000    0.3026500000000000    0.5291200000000000 C
   0.4104200000000000    0.3307000000000000    0.5538450000000000 C
   0.6693200000000000    0.5797800000000000    0.1961350000000000 C
   0.5797800000000000    0.6693200000000000    0.3038500000000000 C
   0.6582100000000000    0.6972500000000000    0.2791400000000000 C
   0.6972500000000000    0.6582100000000000    0.2208450000000000 C
   0.5894800000000000    0.4201100000000000    0.3038550000000000 C
   0.4104100000000000    0.3306900000000000    0.1961450000000000 C
   0.4608000000000000    0.3026400000000000    0.2208700000000000 C
   0.5390000000000000    0.3417000000000000    0.2791300000000000 C
   0.3306900000000000    0.4104000000000000    0.3038400000000000 C
   0.4201100000000000    0.5894800000000000    0.1961300000000000 C
   0.3417100000000000    0.5390100000000000    0.2208500000000000 C
   0.3026400000000000    0.4608000000000000    0.2791150000000000 C
   0.6693200000000000    0.5797800000000000    0.6961349999999999 C
   0.5797800000000000    0.6693200000000000    0.8038500000000000 C
   0.6582100000000000    0.6972500000000000    0.7791399999999999 C
   0.6972500000000000    0.6582100000000000    0.7208450000000000 C
   0.5894800000000000    0.4201100000000000    0.8038550000000000 C
   0.4104100000000000    0.3306900000000000    0.6961450000000000 C
   0.4608000000000000    0.3026400000000000    0.7208700000000000 C
   0.5390000000000000    0.3417000000000000    0.7791300000000000 C
   0.3306900000000000    0.4104000000000000    0.8038400000000000 C
   0.4201100000000000    0.5894800000000000    0.6961300000000000 C
   0.3417100000000000    0.5390100000000000    0.7208500000000000 C
   0.3026400000000000    0.4608000000000000    0.7791150000000000 C
   0.5894800000000000    0.9201200000000000    0.9460999999999999 C
   0.4104200000000000    0.8307099999999999    0.0538450000000000 C
   0.4608100000000000    0.8026600000000000    0.0291200000000000 C
   0.5390100000000000    0.8417100000000000    0.9708500000000000 C
   0.5390100000000000    0.3417100000000000    0.9708500000000000 C
   0.5894800000000000    0.4201200000000000    0.9460999999999999 C
   0.4201200000000000    0.0894700000000000    0.0538600000000000 C
   0.3306900000000000    0.9104100000000001    0.9461450000000000 C
   0.3026400000000000    0.9608100000000001    0.9708700000000000 C
   0.3417100000000000    0.0390000000000000    0.0291350000000000 C
   0.5797800000000000    0.1693100000000000    0.3038500000000000 C
   0.6693200000000000    0.0797700000000000    0.1961350000000000 C
   0.6582100000000000    0.1972500000000000    0.2791400000000000 C
   0.6972500000000000    0.1582100000000000    0.2208450000000000 C
   0.5894800000000000    0.9201200000000000    0.3038550000000000 C
   0.4104100000000000    0.8307000000000000    0.1961450000000000 C
   0.5390100000000000    0.8417100000000000    0.2791300000000000 C
   0.4608100000000000    0.8026500000000000    0.2208700000000000 C
   0.4201100000000000    0.0894700000000000    0.1961300000000000 C
   0.3306900000000000    0.9104100000000001    0.3038000000000000 C
   0.3026400000000000    0.9608100000000001    0.2791150000000000 C
   0.3417100000000000    0.0390000000000000    0.2208550000000000 C
   0.6693200000000000    0.5797900000000000    0.0538550000000000 C
   0.5797700000000000    0.6693200000000000    0.9461300000000000 C
   0.6582100000000000    0.6972500000000000    0.9708000000000000 C
   0.6972600000000000    0.6582200000000000    0.0291400000000000 C
   0.3306900000000000    0.4104000000000000    0.9461450000000000 C
   0.4201100000000000    0.5894800000000000    0.0538600000000000 C
   0.3417100000000000    0.5390100000000000    0.0291350000000000 C
   0.3026300000000000    0.4608000000000000    0.9708650000000000 C
   0.4608100000000000    0.3026500000000000    0.0291200000000000 C
   0.4104200000000000    0.3307000000000000    0.0538450000000000 C
   0.0390000000000000    0.8417100000000000    0.4708500000000000 C
   0.0894700000000000    0.9201200000000000    0.4461000000000000 C
   0.9201200000000000    0.0894700000000000    0.5538600000000000 C
   0.8307000000000000    0.9104100000000001    0.4461450000000000 C
   0.8026400000000000    0.9608100000000001    0.4708500000000000 C
   0.8417200000000000    0.0390100000000000    0.5291350000000000 C
   0.9608200000000000    0.8026600000000000    0.5291200000000000 C
   0.9104300000000000    0.8307099999999999    0.5538450000000000 C
   0.0797600000000000    0.1693100000000000    0.4461300000000000 C
   0.1693100000000000    0.0797800000000000    0.5538600000000000 C
   0.1581900000000000    0.1972500000000000    0.4708450000000000 C
   0.1972400000000000    0.1582100000000000    0.5291500000000000 C
   0.0901200000000000    0.4879200000000000    0.7951900000000001 O
   0.1296900000000000    0.4114400000000000    0.8312100000000000 O
   0.9099200000000000    0.3979400000000000    0.7047900000000000 O
   0.8701000000000000    0.2818100000000000    0.6688100000000000 O
   0.9999800000000000    0.3640400000000000    0.7499800000000000 O
   0.0119800000000000    0.6021700000000000    0.7951750000000000 O
   0.0883900000000000    0.7181700000000000    0.8312100000000000 O
   0.1021800000000000    0.5119899999999999    0.7048000000000000 O
   0.2181800000000000    0.5884000000000000    0.6687800000000000 O
   0.1359100000000000    0.6359200000000000    0.7499899999999999 O
   0.8979600000000000    0.4099200000000000    0.7952000000000000 O
   0.7818200000000000    0.3701000000000000    0.8311800000000000 O
   0.9879400000000000    0.5901400000000000    0.7048000000000000 O
   0.9114600000000000    0.6297100000000000    0.6687800000000000 O
   0.8640400000000000    0.4999700000000000    0.7500000000000000 O
   0.0119800000000000    0.6021700000000000    0.4548050000000000 O
   0.0883900000000000    0.7181800000000000    0.4187700000000000 O
   0.1021800000000000    0.5120000000000000    0.5451800000000000 O
   0.2181800000000000    0.5884100000000000    0.5812100000000000 O
   0.1359000000000000    0.6359200000000000    0.4999900000000000 O
   0.0901200000000000    0.4879300000000000    0.4547950000000000 O