Cd48 As96 H95 O287
1.0
  28.8901486900878979    0.0000000000000000   -1.7148730753652139
   0.0007631538219530   39.0239999687630998    0.0013621945743187
   0.0000000000000000    0.0000000000000000   23.0289999999999999
Cd As H O
48 96 95 287
direct
   0.0000266666666667    0.2500000000000000    0.4999900000000000 Cd
   0.1667000000000000    0.4999950000000000    0.4999900000000000 Cd
   0.1666966666666667    0.2500000000000000    0.4999900000000000 Cd
   0.0000133333333333    0.1250000000000000    0.0000000000000000 Cd
   0.0000133333333333    0.3750050000000000    0.9999900000000000 Cd
   0.1666833333333333    0.1250000000000000    0.0000000000000000 Cd
   0.1666866666666666    0.3750050000000000    0.9999900000000000 Cd
   0.0000300000000000    0.4999950000000000    0.4999900000000000 Cd
   0.3333600000000000    0.2500000000000000    0.4999900000000000 Cd
   0.5000333333333333    0.4999950000000000    0.4999900000000000 Cd
   0.5000300000000000    0.2500000000000000    0.4999900000000000 Cd
   0.3333466666666666    0.1250000000000000    0.0000000000000000 Cd
   0.3333466666666666    0.3750050000000000    0.9999900000000000 Cd
   0.5000166666666667    0.1250000000000000    0.0000000000000000 Cd
   0.5000199999999999    0.3750050000000000    0.9999900000000000 Cd
   0.3333633333333333    0.4999950000000000    0.4999900000000000 Cd
   0.6666933333333332    0.2500000000000000    0.4999900000000000 Cd
   0.8333666666666666    0.4999950000000000    0.4999900000000000 Cd
   0.8333633333333332    0.2500000000000000    0.4999900000000000 Cd
   0.6666799999999999    0.1250000000000000    0.0000000000000000 Cd
   0.6666799999999999    0.3750050000000000    0.9999900000000000 Cd
   0.8333499999999999    0.1250000000000000    0.0000000000000000 Cd
   0.8333533333333333    0.3750050000000000    0.9999900000000000 Cd
   0.6666966666666666    0.4999950000000000    0.4999900000000000 Cd
   0.0000266666666667    0.7500000000000000    0.4999900000000000 Cd
   0.1667000000000000    0.9999950000000000    0.4999900000000000 Cd
   0.1666966666666667    0.7500000000000000    0.4999900000000000 Cd
   0.0000133333333333    0.6250000000000000    0.0000000000000000 Cd
   0.0000133333333333    0.8750050000000000    0.9999900000000000 Cd
   0.1666833333333333    0.6250000000000000    0.0000000000000000 Cd
   0.1666866666666666    0.8750050000000000    0.9999900000000000 Cd
   0.0000300000000000    0.9999950000000000    0.4999900000000000 Cd
   0.3333600000000000    0.7500000000000000    0.4999900000000000 Cd
   0.5000333333333333    0.9999950000000000    0.4999900000000000 Cd
   0.5000300000000000    0.7500000000000000    0.4999900000000000 Cd
   0.3333466666666666    0.6250000000000000    0.0000000000000000 Cd
   0.3333466666666666    0.8750050000000000    0.9999900000000000 Cd
   0.5000166666666667    0.6250000000000000    0.0000000000000000 Cd
   0.5000199999999999    0.8750050000000000    0.9999900000000000 Cd
   0.3333633333333333    0.9999950000000000    0.4999900000000000 Cd
   0.6666933333333332    0.7500000000000000    0.4999900000000000 Cd
   0.8333666666666666    0.9999950000000000    0.4999900000000000 Cd
   0.8333633333333332    0.7500000000000000    0.4999900000000000 Cd
   0.6666799999999999    0.6250000000000000    0.0000000000000000 Cd
   0.6666799999999999    0.8750050000000000    0.9999900000000000 Cd
   0.8333499999999999    0.6250000000000000    0.0000000000000000 Cd
   0.8333533333333333    0.8750050000000000    0.9999900000000000 Cd
   0.6666966666666666    0.9999950000000000    0.4999900000000000 Cd
   0.0925333333333333    0.2173000000000000    0.5965000000000000 As
   0.0925400000000000    0.4673000000000000    0.5965100000000000 As
   0.2592033333333333    0.2173000000000000    0.5965000000000000 As
   0.2592133333333333    0.4673000000000000    0.5965100000000000 As
   0.0741666666666667    0.0922950000000000    0.9034600000000000 As
   0.0741700000000000    0.3423000000000000    0.9034600000000000 As
   0.2408366666666666    0.0922950000000000    0.9034600000000000 As
   0.2408400000000000    0.3423000000000000    0.9034600000000000 As
   0.0741800000000000    0.0327000000000000    0.4034700000000000 As
   0.0741800000000000    0.2827050000000000    0.4034700000000000 As
   0.2408500000000000    0.0327000000000000    0.4034700000000000 As
   0.2408500000000000    0.2827050000000000    0.4034700000000000 As
   0.0925200000000000    0.1577000000000000    0.0965000000000000 As
   0.0925200000000000    0.4077000000000000    0.0965000000000000 As
   0.2591900000000000    0.1577000000000000    0.0965000000000000 As
   0.2591933333333333    0.4077000000000000    0.0965000000000000 As
   0.4258666666666666    0.2173000000000000    0.5965000000000000 As
   0.4258733333333333    0.4673000000000000    0.5965100000000000 As
   0.5925366666666667    0.2173000000000000    0.5965000000000000 As
   0.5925466666666666    0.4673000000000000    0.5965100000000000 As
   0.4075000000000000    0.0922950000000000    0.9034600000000000 As
   0.4075033333333333    0.3423000000000000    0.9034600000000000 As
   0.5741700000000000    0.0922950000000000    0.9034600000000000 As
   0.5741733333333333    0.3423000000000000    0.9034600000000000 As
   0.4075133333333333    0.0327000000000000    0.4034700000000000 As
   0.4075133333333333    0.2827050000000000    0.4034700000000000 As
   0.5741833333333333    0.0327000000000000    0.4034700000000000 As
   0.5741833333333333    0.2827050000000000    0.4034700000000000 As
   0.4258533333333333    0.1577000000000000    0.0965000000000000 As
   0.4258533333333333    0.4077000000000000    0.0965000000000000 As
   0.5925233333333333    0.1577000000000000    0.0965000000000000 As
   0.5925266666666666    0.4077000000000000    0.0965000000000000 As
   0.7592000000000000    0.2173000000000000    0.5965000000000000 As
   0.7592066666666666    0.4673000000000000    0.5965100000000000 As
   0.9258700000000000    0.2173000000000000    0.5965000000000000 As
   0.9258799999999999    0.4673000000000000    0.5965100000000000 As
   0.7408333333333332    0.0922950000000000    0.9034600000000000 As
   0.7408366666666666    0.3423000000000000    0.9034600000000000 As
   0.9075033333333333    0.0922950000000000    0.9034600000000000 As
   0.9075066666666667    0.3423000000000000    0.9034600000000000 As
   0.7408466666666667    0.0327000000000000    0.4034700000000000 As
   0.7408466666666667    0.2827050000000000    0.4034700000000000 As
   0.9075166666666666    0.0327000000000000    0.4034700000000000 As
   0.9075166666666666    0.2827050000000000    0.4034700000000000 As
   0.7591866666666667    0.1577000000000000    0.0965000000000000 As
   0.7591866666666667    0.4077000000000000    0.0965000000000000 As
   0.9258566666666666    0.1577000000000000    0.0965000000000000 As
   0.9258599999999999    0.4077000000000000    0.0965000000000000 As
   0.0925333333333333    0.7173000000000000    0.5965000000000000 As
   0.0925400000000000    0.9673000000000000    0.5965100000000000 As
   0.2592033333333333    0.7173000000000000    0.5965000000000000 As
   0.2592133333333333    0.9673000000000000    0.5965100000000000 As
   0.0741666666666667    0.5922950000000000    0.9034600000000000 As
   0.0741700000000000    0.8423000000000000    0.9034600000000000 As
   0.2408366666666666    0.5922950000000000    0.9034600000000000 As
   0.2408400000000000    0.8423000000000000    0.9034600000000000 As
   0.0741800000000000    0.5327000000000000    0.4034700000000000 As
   0.0741800000000000    0.7827050000000000    0.4034700000000000 As
   0.2408500000000000    0.5327000000000000    0.4034700000000000 As
   0.2408500000000000    0.7827050000000000    0.4034700000000000 As
   0.0925200000000000    0.6577000000000000    0.0965000000000000 As
   0.0925200000000000    0.9077000000000000    0.0965000000000000 As
   0.2591900000000000    0.6577000000000000    0.0965000000000000 As
   0.2591933333333333    0.9077000000000000    0.0965000000000000 As
   0.4258666666666666    0.7173000000000000    0.5965000000000000 As
   0.4258733333333333    0.9673000000000000    0.5965100000000000 As
   0.5925366666666667    0.7173000000000000    0.5965000000000000 As
   0.5925466666666666    0.9673000000000000    0.5965100000000000 As
   0.4075000000000000    0.5922950000000000    0.9034600000000000 As
   0.4075033333333333    0.8423000000000000    0.9034600000000000 As
   0.5741700000000000    0.5922950000000000    0.9034600000000000 As
   0.5741733333333333    0.8423000000000000    0.9034600000000000 As
   0.4075133333333333    0.5327000000000000    0.4034700000000000 As
   0.4075133333333333    0.7827050000000000    0.4034700000000000 As
   0.5741833333333333    0.5327000000000000    0.4034700000000000 As
   0.5741833333333333    0.7827050000000000    0.4034700000000000 As
   0.4258533333333333    0.6577000000000000    0.0965000000000000 As
   0.4258533333333333    0.9077000000000000    0.0965000000000000 As
   0.5925233333333333    0.6577000000000000    0.0965000000000000 As
   0.5925266666666666    0.9077000000000000    0.0965000000000000 As
   0.7592000000000000    0.7173000000000000    0.5965000000000000 As
   0.7592066666666666    0.9673000000000000    0.5965100000000000 As
   0.9258700000000000    0.7173000000000000    0.5965000000000000 As
   0.9258799999999999    0.9673000000000000    0.5965100000000000 As
   0.7408333333333332    0.5922950000000000    0.9034600000000000 As
   0.7408366666666666    0.8423000000000000    0.9034600000000000 As
   0.9075033333333333    0.5922950000000000    0.9034600000000000 As
   0.9075066666666667    0.8423000000000000    0.9034600000000000 As
   0.7408466666666667    0.5327000000000000    0.4034700000000000 As
   0.7408466666666667    0.7827050000000000    0.4034700000000000 As
   0.9075166666666666    0.5327000000000000    0.4034700000000000 As
   0.9075166666666666    0.7827050000000000    0.4034700000000000 As
   0.7591866666666667    0.6577000000000000    0.0965000000000000 As
   0.7591866666666667    0.9077000000000000    0.0965000000000000 As
   0.9258566666666666    0.6577000000000000    0.0965000000000000 As
   0.9258599999999999    0.9077000000000000    0.0965000000000000 As
   0.0209600000000000    0.1912150000000000    0.5811100000000000 H
   0.0209666666666667    0.4412150000000000    0.5811100000000000 H
   0.1876300000000000    0.1912150000000000    0.5811100000000000 H
   0.1876366666666667    0.4412150000000000    0.5811100000000000 H
   0.1457433333333333    0.0662150000000000    0.9188000000000000 H
   0.1457466666666667    0.3162150000000000    0.9188499999999999 H
   0.3124133333333333    0.0662150000000000    0.9188000000000000 H
   0.3124166666666667    0.3162150000000000    0.9188499999999999 H
   0.1457533333333333    0.0587850000000000    0.4188600000000000 H
   0.1457533333333333    0.3087850000000000    0.4188600000000000 H
   0.3124233333333333    0.0587850000000000    0.4188600000000000 H
   0.3124233333333333    0.3087850000000000    0.4188600000000000 H
   0.0209433333333333    0.1837850000000000    0.0811200000000000 H
   0.0209433333333333    0.4337850000000000    0.0811200000000000 H
   0.1876133333333333    0.1837850000000000    0.0811200000000000 H
   0.1876166666666667    0.4337850000000000    0.0811200000000000 H
   0.3542933333333333    0.1912150000000000    0.5811100000000000 H
   0.3543000000000000    0.4412150000000000    0.5811100000000000 H
   0.5209633333333333    0.1912150000000000    0.5811100000000000 H
   0.5209699999999999    0.4412150000000000    0.5811100000000000 H
   0.4790766666666667    0.0662150000000000    0.9188000000000000 H
   0.4790800000000000    0.3162150000000000    0.9188499999999999 H
   0.6457466666666667    0.0662150000000000    0.9188000000000000 H
   0.6457500000000000    0.3162150000000000    0.9188499999999999 H
   0.4790866666666667    0.0587850000000000    0.4188600000000000 H
   0.4790866666666667    0.3087850000000000    0.4188600000000000 H
   0.6457566666666666    0.0587850000000000    0.4188600000000000 H
   0.6457566666666666    0.3087850000000000    0.4188600000000000 H
   0.3542766666666666    0.1837850000000000    0.0811200000000000 H
   0.3542766666666666    0.4337850000000000    0.0811200000000000 H
   0.5209466666666667    0.1837850000000000    0.0811200000000000 H
   0.5209500000000000    0.4337850000000000    0.0811200000000000 H
   0.6876266666666666    0.1912150000000000    0.5811100000000000 H
   0.6876333333333333    0.4412150000000000    0.5811100000000000 H
   0.8542966666666666    0.1912150000000000    0.5811100000000000 H
   0.8543033333333333    0.4412150000000000    0.5811100000000000 H
   0.8124100000000000    0.0662150000000000    0.9188000000000000 H
   0.8124133333333333    0.3162150000000000    0.9188499999999999 H
   0.9790800000000000    0.0662150000000000    0.9188000000000000 H
   0.9790833333333333    0.3162150000000000    0.9188499999999999 H
   0.8124199999999999    0.0587850000000000    0.4188600000000000 H
   0.8124199999999999    0.3087850000000000    0.4188600000000000 H
   0.9790900000000000    0.0587850000000000    0.4188600000000000 H
   0.9790900000000000    0.3087850000000000    0.4188600000000000 H
   0.6876099999999999    0.1837850000000000    0.0811200000000000 H
   0.6876099999999999    0.4337850000000000    0.0811200000000000 H
   0.8542799999999999    0.1837850000000000    0.0811200000000000 H
   0.8542833333333333    0.4337850000000000    0.0811200000000000 H
   0.0209600000000000    0.6912150000000000    0.5811100000000000 H
   0.1876300000000000    0.6912150000000000    0.5811100000000000 H
   0.1876366666666667    0.9412150000000000    0.5811100000000000 H
   0.1457433333333333    0.5662150000000000    0.9188000000000000 H
   0.1457466666666667    0.8162150000000000    0.9188499999999999 H
   0.3124133333333333    0.5662150000000000    0.9188000000000000 H
   0.3124166666666667    0.8162150000000000    0.9188499999999999 H
   0.1457533333333333    0.5587850000000000    0.4188600000000000 H
   0.1457533333333333    0.8087850000000000    0.4188600000000000 H
   0.3124233333333333    0.5587850000000000    0.4188600000000000 H
   0.3124233333333333    0.8087850000000000    0.4188600000000000 H
   0.0209433333333333    0.6837850000000000    0.0811200000000000 H
   0.0209433333333333    0.9337850000000000    0.0811200000000000 H
   0.1876133333333333    0.6837850000000000    0.0811200000000000 H
   0.1876166666666667    0.9337850000000000    0.0811200000000000 H
   0.3542933333333333    0.6912150000000000    0.5811100000000000 H
   0.3543000000000000    0.9412150000000000    0.5811100000000000 H
   0.5209633333333333    0.6912150000000000    0.5811100000000000 H
   0.5209699999999999    0.9412150000000000    0.5811100000000000 H
   0.4790766666666667    0.5662150000000000    0.9188000000000000 H
   0.4790800000000000    0.8162150000000000    0.9188499999999999 H
   0.6457466666666667    0.5662150000000000    0.9188000000000000 H
   0.6457500000000000    0.8162150000000000    0.9188499999999999 H
   0.4790866666666667    0.5587850000000000    0.4188600000000000 H
   0.4790866666666667    0.8087850000000000    0.4188600000000000 H
   0.6457566666666666    0.5587850000000000    0.4188600000000000 H
   0.6457566666666666    0.8087850000000000    0.4188600000000000 H
   0.3542766666666666    0.6837850000000000    0.0811200000000000 H
   0.3542766666666666    0.9337850000000000    0.0811200000000000 H
   0.5209466666666667    0.6837850000000000    0.0811200000000000 H
   0.5209500000000000    0.9337850000000000    0.0811200000000000 H
   0.6876266666666666    0.6912150000000000    0.5811100000000000 H
   0.6876333333333333    0.9412150000000000    0.5811100000000000 H
   0.8542966666666666    0.6912150000000000    0.5811100000000000 H
   0.8543033333333333    0.9412150000000000    0.5811100000000000 H
   0.8124100000000000    0.5662150000000000    0.9188000000000000 H
   0.8124133333333333    0.8162150000000000    0.9188499999999999 H
   0.9790800000000000    0.5662150000000000    0.9188000000000000 H
   0.9790833333333333    0.8162150000000000    0.9188499999999999 H
   0.8124199999999999    0.5587850000000000    0.4188600000000000 H
   0.8124199999999999    0.8087850000000000    0.4188600000000000 H
   0.9790900000000000    0.5587850000000000    0.4188600000000000 H
   0.9790900000000000    0.8087850000000000    0.4188600000000000 H
   0.6876099999999999    0.6837850000000000    0.0811200000000000 H
   0.6876099999999999    0.9337850000000000    0.0811200000000000 H
   0.8542799999999999    0.6837850000000000    0.0811200000000000 H
   0.8542833333333333    0.9337850000000000    0.0811200000000000 H
   0.1385266666666667    0.2057000000000000    0.5574000000000000 O
   0.1385333333333333    0.4557000000000000    0.5574000000000000 O
   0.3051966666666667    0.2057000000000000    0.5574000000000000 O
   0.3052033333333333    0.4557000000000000    0.5574100000000000 O
   0.0532500000000000    0.1817600000000000    0.5925900000000000 O
   0.0532566666666667    0.4317600000000000    0.5925000000000000 O
   0.2199200000000000    0.1817600000000000    0.5925000000000000 O
   0.2199266666666667    0.4317600000000000    0.5925900000000000 O
   0.0624233333333333    0.2516000000000000    0.5668800000000001 O
   0.0624300000000000    0.0000000000000000    0.5668800000000001 O
   0.2290933333333333    0.2516000000000000    0.5668800000000001 O
   0.2291000000000000    0.0000000000000000    0.5668800000000001 O
   0.0281766666666667    0.0807000000000000    0.9425500000000000 O
   0.0281800000000000    0.3307000000000000    0.9425500000000000 O
   0.1948466666666666    0.0807000000000000    0.9425500000000000 O
   0.1948500000000000    0.3307000000000000    0.9425500000000000 O
   0.1134533333333333    0.0567600000000000    0.9073800000000000 O
   0.1134566666666667    0.3067600000000000    0.9073800000000000 O
   0.2801233333333333    0.0567600000000000    0.9073800000000000 O
   0.2801266666666666    0.3067600000000000    0.9073800000000000 O
   0.1042800000000000    0.1265950000000000    0.9330900000000000 O
   0.1042833333333333    0.3765950000000000    0.9330900000000000 O
   0.2709500000000000    0.1265950000000000    0.9330900000000000 O
   0.2709533333333333    0.3765950000000000    0.9330900000000000 O
   0.0281866666666667    0.0442950000000000    0.4425600000000000 O
   0.0281866666666667    0.2943000000000000    0.4425600000000000 O
   0.1948600000000000    0.0442950000000000    0.4425600000000000 O
   0.1948566666666667    0.2943000000000000    0.4425600000000000 O
   0.1134633333333333    0.0682400000000000    0.4073800000000000 O
   0.1134633333333333    0.3182400000000000    0.4073800000000000 O
   0.2801333333333333    0.0682400000000000    0.4073000000000000 O
   0.2801333333333333    0.3182450000000000    0.4073000000000000 O
   0.1042966666666667    0.4984050000000000    0.4331000000000000 O
   0.1042933333333333    0.2484050000000000    0.4331000000000000 O
   0.2709666666666666    0.4984050000000000    0.4331000000000000 O
   0.2709633333333333    0.2484050000000000    0.4331000000000000 O
   0.1385100000000000    0.1693000000000000    0.0574200000000000 O
   0.1385133333333333    0.4193000000000000    0.0574200000000000 O
   0.3051800000000000    0.1693000000000000    0.0574200000000000 O
   0.3051833333333333    0.4193000000000000    0.0574200000000000 O
   0.0532333333333333    0.1932400000000000    0.0920000000000000 O
   0.0532333333333333    0.4432400000000000    0.0925900000000000 O
   0.2199033333333333    0.1932400000000000    0.0920000000000000 O
   0.2199066666666666    0.4432400000000000    0.0920000000000000 O
   0.0624100000000000    0.1234000000000000    0.0668900000000000 O
   0.0624100000000000    0.3734050000000000    0.0668900000000000 O
   0.2290800000000000    0.1234000000000000    0.0668900000000000 O
   0.2290833333333333    0.3734050000000000    0.0668900000000000 O
   0.4718599999999999    0.2057000000000000    0.5574000000000000 O
   0.4718666666666667    0.4557000000000000    0.5574000000000000 O
   0.6385300000000000    0.2057000000000000    0.5574000000000000 O
   0.6385366666666666    0.4557000000000000    0.5574100000000000 O
   0.3865833333333333    0.1817600000000000    0.5925900000000000 O
   0.3865900000000000    0.4317600000000000    0.5925000000000000 O
   0.5532533333333334    0.1817600000000000    0.5925000000000000 O
   0.5532600000000000    0.4317600000000000    0.5925900000000000 O
   0.3957566666666666    0.2516000000000000    0.5668800000000001 O
   0.3957633333333333    0.0000000000000000    0.5668800000000001 O
   0.5624266666666666    0.2516000000000000    0.5668800000000001 O
   0.5624333333333333    0.0000000000000000    0.5668800000000001 O
   0.3615100000000000    0.0807000000000000    0.9425500000000000 O
   0.3615133333333333    0.3307000000000000    0.9425500000000000 O
   0.5281800000000000    0.0807000000000000    0.9425500000000000 O
   0.5281833333333333    0.3307000000000000    0.9425500000000000 O
   0.4467866666666667    0.0567600000000000    0.9073800000000000 O
   0.4467900000000000    0.3067600000000000    0.9073800000000000 O
   0.6134566666666665    0.0567600000000000    0.9073800000000000 O
   0.6134599999999999    0.3067600000000000    0.9073800000000000 O
   0.4376133333333333    0.1265950000000000    0.9330900000000000 O
   0.4376166666666667    0.3765950000000000    0.9330900000000000 O
   0.6042833333333333    0.1265950000000000    0.9330900000000000 O
   0.6042866666666666    0.3765950000000000    0.9330900000000000 O
   0.3615200000000000    0.0442950000000000    0.4425600000000000 O
   0.3615200000000000    0.2943000000000000    0.4425600000000000 O
   0.5281933333333333    0.0442950000000000    0.4425600000000000 O
   0.5281899999999999    0.2943000000000000    0.4425600000000000 O
   0.4467966666666666    0.0682400000000000    0.4073800000000000 O
   0.4467966666666666    0.3182400000000000    0.4073800000000000 O
   0.6134666666666666    0.0682400000000000    0.4073000000000000 O
   0.6134666666666666    0.3182450000000000    0.4073000000000000 O
   0.4376300000000000    0.4984050000000000    0.4331000000000000 O
   0.4376266666666666    0.2484050000000000    0.4331000000000000 O
   0.6042999999999999    0.4984050000000000    0.4331000000000000 O
   0.6042966666666667    0.2484050000000000    0.4331000000000000 O
   0.4718433333333333    0.1693000000000000    0.0574200000000000 O
   0.4718466666666666    0.4193000000000000    0.0574200000000000 O
   0.6385133333333333    0.1693000000000000    0.0574200000000000 O
   0.6385166666666666    0.4193000000000000    0.0574200000000000 O
   0.3865666666666667    0.1932400000000000    0.0920000000000000 O
   0.3865666666666667    0.4432400000000000    0.0925900000000000 O
   0.5532366666666666    0.1932400000000000    0.0920000000000000 O
   0.5532400000000000    0.4432400000000000    0.0920000000000000 O
   0.3957433333333333    0.1234000000000000    0.0668900000000000 O
   0.3957433333333333    0.3734050000000000    0.0668900000000000 O
   0.5624133333333333    0.1234000000000000    0.0668900000000000 O
   0.5624166666666667    0.3734050000000000    0.0668900000000000 O
   0.8051933333333333    0.2057000000000000    0.5574000000000000 O
   0.8051999999999999    0.4557000000000000    0.5574000000000000 O
   0.9718633333333333    0.2057000000000000    0.5574000000000000 O
   0.9718700000000000    0.4557000000000000    0.5574100000000000 O
   0.7199166666666666    0.1817600000000000    0.5925900000000000 O
   0.7199233333333332    0.4317600000000000    0.5925000000000000 O
   0.8865866666666666    0.1817600000000000    0.5925000000000000 O
   0.8865933333333333    0.4317600000000000    0.5925900000000000 O
   0.7290900000000000    0.2516000000000000    0.5668800000000001 O
   0.7290966666666666    0.0000000000000000    0.5668800000000001 O
   0.8957599999999999    0.2516000000000000    0.5668800000000001 O
   0.8957666666666666    0.0000000000000000    0.5668800000000001 O
   0.6948433333333333    0.0807000000000000    0.9425500000000000 O
   0.6948466666666666    0.3307000000000000    0.9425500000000000 O
   0.8615133333333332    0.0807000000000000    0.9425500000000000 O
   0.8615166666666666    0.3307000000000000    0.9425500000000000 O
   0.7801199999999999    0.0567600000000000    0.9073800000000000 O
   0.7801233333333333    0.3067600000000000    0.9073800000000000 O
   0.9467899999999999    0.0567600000000000    0.9073800000000000 O
   0.9467933333333333    0.3067600000000000    0.9073800000000000 O
   0.7709466666666667    0.1265950000000000    0.9330900000000000 O
   0.7709500000000000    0.3765950000000000    0.9330900000000000 O
   0.9376166666666665    0.1265950000000000    0.9330900000000000 O
   0.9376199999999999    0.3765950000000000    0.9330900000000000 O
   0.6948533333333333    0.0442950000000000    0.4425600000000000 O
   0.6948533333333333    0.2943000000000000    0.4425600000000000 O
   0.8615266666666666    0.0442950000000000    0.4425600000000000 O
   0.8615233333333333    0.2943000000000000    0.4425600000000000 O
   0.7801300000000000    0.0682400000000000    0.4073800000000000 O
   0.7801300000000000    0.3182400000000000    0.4073800000000000 O
   0.9468000000000000    0.0682400000000000    0.4073000000000000 O
   0.9468000000000000    0.3182450000000000    0.4073000000000000 O
   0.7709633333333333    0.4984050000000000    0.4331000000000000 O
   0.7709600000000000    0.2484050000000000    0.4331000000000000 O
   0.9376333333333333    0.4984050000000000    0.4331000000000000 O
   0.9376300000000000    0.2484050000000000    0.4331000000000000 O
   0.8051766666666667    0.1693000000000000    0.0574200000000000 O
   0.8051800000000000    0.4193000000000000    0.0574200000000000 O
   0.9718466666666666    0.1693000000000000    0.0574200000000000 O
   0.9718499999999999    0.4193000000000000    0.0574200000000000 O
   0.7199000000000000    0.1932400000000000    0.0920000000000000 O
   0.7199000000000000    0.4432400000000000    0.0925900000000000 O
   0.8865700000000000    0.1932400000000000    0.0920000000000000 O
   0.8865733333333332    0.4432400000000000    0.0920000000000000 O
   0.7290766666666666    0.1234000000000000    0.0668900000000000 O
   0.7290766666666666    0.3734050000000000    0.0668900000000000 O
   0.8957466666666666    0.1234000000000000    0.0668900000000000 O
   0.8957499999999999    0.3734050000000000    0.0668900000000000 O
   0.1385266666666667    0.7057000000000000    0.5574000000000000 O
   0.1385333333333333    0.9557000000000000    0.5574000000000000 O
   0.3051966666666667    0.7057000000000000    0.5574000000000000 O
   0.3052033333333333    0.9557000000000000    0.5574100000000000 O
   0.0532500000000000    0.6817600000000000    0.5925900000000000 O
   0.2199200000000000    0.6817600000000000    0.5925000000000000 O
   0.2199266666666667    0.9317599999999999    0.5925900000000000 O
   0.0624233333333333    0.7516000000000000    0.5668800000000001 O
   0.0624300000000000    0.5000000000000000    0.5668800000000001 O
   0.2290933333333333    0.7516000000000000    0.5668800000000001 O
   0.2291000000000000    0.5000000000000000    0.5668800000000001 O
   0.0281766666666667    0.5807000000000000    0.9425500000000000 O
   0.0281800000000000    0.8307000000000000    0.9425500000000000 O
   0.1948466666666666    0.5807000000000000    0.9425500000000000 O
   0.1948500000000000    0.8307000000000000    0.9425500000000000 O
   0.1134533333333333    0.5567600000000000    0.9073800000000000 O
   0.1134566666666667    0.8067599999999999    0.9073800000000000 O
   0.2801233333333333    0.5567600000000000    0.9073800000000000 O
   0.2801266666666666    0.8067599999999999    0.9073800000000000 O
   0.1042800000000000    0.6265950000000000    0.9330900000000000 O
   0.1042833333333333    0.8765950000000000    0.9330900000000000 O
   0.2709500000000000    0.6265950000000000    0.9330900000000000 O
   0.2709533333333333    0.8765950000000000    0.9330900000000000 O
   0.0281866666666667    0.5442950000000000    0.4425600000000000 O
   0.0281866666666667    0.7943000000000000    0.4425600000000000 O
   0.1948600000000000    0.5442950000000000    0.4425600000000000 O
   0.1948566666666667    0.7943000000000000    0.4425600000000000 O
   0.1134633333333333    0.5682400000000000    0.4073800000000000 O
   0.1134633333333333    0.8182400000000001    0.4073800000000000 O
   0.2801333333333333    0.5682400000000000    0.4073000000000000 O
   0.2801333333333333    0.8182450000000000    0.4073000000000000 O
   0.1042966666666667    0.9984050000000000    0.4331000000000000 O
   0.1042933333333333    0.7484050000000000    0.4331000000000000 O
   0.2709666666666666    0.9984050000000000    0.4331000000000000 O
   0.2709633333333333    0.7484050000000000    0.4331000000000000 O
   0.1385100000000000    0.6693000000000000    0.0574200000000000 O
   0.1385133333333333    0.9193000000000000    0.0574200000000000 O
   0.3051800000000000    0.6693000000000000    0.0574200000000000 O
   0.3051833333333333    0.9193000000000000    0.0574200000000000 O
   0.0532333333333333    0.6932400000000000    0.0920000000000000 O
   0.0532333333333333    0.9432400000000001    0.0925900000000000 O
   0.2199033333333333    0.6932400000000000    0.0920000000000000 O
   0.2199066666666666    0.9432400000000001    0.0920000000000000 O
   0.0624100000000000    0.6234000000000000    0.0668900000000000 O
   0.0624100000000000    0.8734050000000000    0.0668900000000000 O
   0.2290800000000000    0.6234000000000000    0.0668900000000000 O
   0.2290833333333333    0.8734050000000000    0.0668900000000000 O
   0.4718599999999999    0.7057000000000000    0.5574000000000000 O
   0.4718666666666667    0.9557000000000000    0.5574000000000000 O
   0.6385300000000000    0.7057000000000000    0.5574000000000000 O
   0.6385366666666666    0.9557000000000000    0.5574100000000000 O
   0.3865833333333333    0.6817600000000000    0.5925900000000000 O