H5 O3
1.0
  30.2659999999999982    0.0000000000000000    0.0000000000000019
   0.0000000000000028   17.6780000000000008    0.0000000000000011
   0.0000000000000000    0.0000000000000000   35.3560000000000016
H O
5 3
direct
   0.0819938135495019    0.1262041114919188    0.5578880276048340 H
   0.0394352049960905    0.9964996082705375    0.5657653354356299 H
   0.0271108790137593    0.9520996273009456    0.5668586571330527 H
   0.0864268266909270    0.9898726282885222    0.5727323211327338 H
   0.1664835527068899    0.0449860766121599    0.5624922734642508 H
   0.0501350000000000    0.1203000000000000    0.5583350000000000 O
   0.0094800000000000    1.0158900000000000    0.5646949999999999 O
   0.0788050000000000    0.9361699999999999    0.5711600000000000 O
