Zn24 H345 C253 Br24 N46 O46
1.0
  20.9939999200607730    0.0000000000000000   -0.0018320721134917
   0.0048792489348734   15.6180587859648021   -9.0247249238454614
   0.0000000000000000    0.0000000000000000   36.0820000000000007
Zn H C Br N O
24 345 253 24 46 46
direct
   0.8667800000000000    0.4736700000000000    0.2749600000000000 Zn
   0.2001000000000000    0.0763200000000000    0.2631500000000000 Zn
   0.7001100000000000    0.0763200000000000    0.2631950000000000 Zn
   0.0334500000000000    0.4500600000000000    0.4618750000000000 Zn
   0.5334600000000000    0.4500600000000000    0.4618750000000000 Zn
   0.1167800000000000    0.5263900000000000    0.2250500000000000 Zn
   0.6167899999999999    0.5263900000000000    0.2250550000000000 Zn
   0.4501200000000000    0.9236900000000000    0.2368250000000000 Zn
   0.9501300000000000    0.9236900000000000    0.2368000000000000 Zn
   0.2834400000000000    0.5499200000000000    0.0381150000000000 Zn
   0.7834500000000000    0.5499200000000000    0.0381150000000000 Zn
   0.3667800000000000    0.4736700000000000    0.2749600000000000 Zn
   0.8667800000000000    0.4736700000000000    0.7749600000000000 Zn
   0.2001000000000000    0.0763200000000000    0.7631500000000000 Zn
   0.7001100000000000    0.0763200000000000    0.7631950000000001 Zn
   0.0334500000000000    0.4500600000000000    0.9618750000000000 Zn
   0.5334600000000000    0.4500600000000000    0.9618750000000000 Zn
   0.1167800000000000    0.5263900000000000    0.7250500000000000 Zn
   0.6167899999999999    0.5263900000000000    0.7250550000000000 Zn
   0.4501200000000000    0.9236900000000000    0.7368250000000001 Zn
   0.9501300000000000    0.9236900000000000    0.7368000000000000 Zn
   0.2834400000000000    0.5499200000000000    0.5381150000000000 Zn
   0.7834500000000000    0.5499200000000000    0.5381150000000000 Zn
   0.3667800000000000    0.4736700000000000    0.7749600000000000 Zn
   0.4178900000000000    0.5515900000000000    0.2400600000000000 H
   0.9179000000000000    0.5515900000000000    0.2400650000000000 H
   0.3032100000000000    0.6254800000000000    0.2376500000000000 H
   0.8032200000000000    0.6254800000000000    0.2376500000000000 H
   0.2973900000000000    0.5221500000000000    0.1632000000000000 H
   0.7974000000000000    0.5221500000000000    0.1632350000000000 H
   0.3730400000000000    0.4029000000000000    0.1256900000000000 H
   0.8730500000000000    0.4029100000000000    0.1256500000000000 H
   0.3266400000000000    0.3885400000000000    0.1626650000000000 H
   0.8266500000000000    0.3885400000000000    0.1626650000000000 H
   0.4064000000000000    0.4221400000000000    0.1752400000000000 H
   0.9064100000000000    0.4221400000000000    0.1752400000000000 H
   0.4363100000000000    0.5797600000000001    0.1876650000000000 H
   0.9363200000000000    0.5797600000000001    0.1876500000000000 H
   0.3726700000000000    0.6445800000000000    0.1876000000000000 H
   0.8726800000000000    0.6445900000000000    0.1876100000000000 H
   0.3965200000000000    0.5533200000000000    0.1390750000000000 H
   0.8965300000000000    0.5533200000000000    0.1390750000000000 H
   0.3371300000000000    0.8868200000000001    0.2759650000000000 H
   0.8371400000000000    0.8868200000000001    0.2759650000000000 H
   0.0206400000000000    0.7904200000000000    0.2476000000000000 H
   0.5206400000000000    0.7904200000000000    0.2476000000000000 H
   0.3054900000000000    0.7824500000000000    0.2990050000000000 H
   0.8055000000000000    0.7824400000000000    0.2990050000000000 H
   0.4975800000000000    0.6820200000000000    0.2690050000000000 H
   0.9975900000000000    0.6820200000000000    0.2690050000000000 H
   0.3363400000000000    0.6671899999999999    0.3128500000000000 H
   0.8363500000000000    0.6671899999999999    0.3128700000000000 H
   0.4188400000000000    0.6458100000000000    0.3145450000000000 H
   0.9188499999999999    0.6458100000000000    0.3145450000000000 H
   0.2512600000000000    0.9285200000000000    0.2242700000000000 H
   0.7512700000000000    0.9285200000000000    0.2242700000000000 H
   0.1366500000000000    0.8497200000000000    0.1873650000000000 H
   0.6366600000000000    0.8497200000000000    0.1873650000000000 H
   0.1307800000000000    0.8044100000000000    0.2390850000000000 H
   0.6307900000000000    0.8044100000000000    0.2390850000000000 H
   0.2063800000000000    0.8488800000000000    0.2987550000000000 H
   0.7063900000000000    0.8488800000000000    0.2987550000000000 H
   0.1599100000000000    0.9371000000000000    0.3058250000000000 H
   0.6599200000000000    0.9371000000000000    0.3058250000000000 H
   0.2396800000000000    0.9286400000000000    0.2890500000000000 H
   0.7397000000000000    0.9286400000000000    0.2890500000000000 H
   0.2697300000000000    0.7956000000000000    0.2103100000000000 H
   0.7697400000000000    0.7956000000000000    0.2103100000000000 H
   0.2061200000000000    0.7306000000000000    0.1779000000000000 H
   0.7061300000000000    0.7306000000000000    0.1779000000000000 H
   0.2299200000000000    0.7249100000000001    0.2235450000000000 H
   0.7299300000000000    0.7249100000000001    0.2235450000000000 H
   0.1703800000000000    0.6651000000000000    0.0567250000000000 H
   0.6703900000000000    0.6651100000000000    0.0567250000000000 H
   0.3538900000000000    0.7046400000000000    0.1048700000000000 H
   0.8539000000000000    0.7046400000000000    0.1048700000000000 H
   0.1387200000000000    0.8156300000000000    0.1089650000000000 H
   0.6387400000000000    0.8156300000000000    0.1089650000000000 H
   0.3308100000000000    0.8559200000000000    0.1591150000000000 H
   0.8308200000000000    0.8559200000000000    0.1591150000000000 H
   0.1695700000000000    0.9586100000000000    0.1665800000000000 H
   0.6695800000000000    0.9586100000000000    0.1665800000000000 H
   0.2520700000000000    0.9833300000000000    0.1771950000000000 H
   0.7520900000000000    0.9833300000000000    0.1771950000000000 H
   0.0845400000000000    0.5199900000000000    0.0357750000000000 H
   0.5845500000000000    0.5200000000000000    0.0357750000000000 H
   0.4699000000000000    0.5249800000000000    0.0751450000000000 H
   0.9699100000000000    0.5249800000000000    0.0751450000000000 H
   0.4640700000000000    0.6738200000000000    0.0978450000000000 H
   0.9640800000000000    0.6738200000000000    0.0978450000000000 H
   0.0397600000000000    0.7486200000000000    0.0756350000000000 H
   0.5397700000000000    0.7486200000000000    0.0756350000000000 H
   0.4933000000000000    0.6745900000000000    0.0315250000000000 H
   0.9933100000000000    0.6745900000000000    0.0315250000000000 H
   0.0730400000000000    0.6493600000000000    0.0355000000000000 H
   0.5730400000000000    0.6493600000000000    0.0357450000000000 H
   0.1029900000000000    0.6249100000000000    0.1022450000000000 H
   0.6030000000000000    0.6249200000000000    0.1022450000000000 H
   0.0393600000000000    0.6252900000000000    0.1347700000000000 H
   0.5393700000000000    0.6252900000000000    0.1347700000000000 H
   0.0632100000000000    0.7222100000000000    0.1375650000000000 H
   0.5632300000000000    0.7222100000000000    0.1375600000000000 H
   0.0037400000000000    0.4485200000000000    0.1675150000000000 H
   0.5037600000000000    0.4485200000000000    0.1675150000000000 H
   0.1872500000000000    0.5051200000000000    0.1476900000000000 H
   0.6872600000000000    0.5051200000000000    0.1476950000000000 H
   0.4720900000000000    0.4024000000000000    0.0922750000000000 H
   0.9721000000000000    0.4024000000000000    0.0922750000000000 H
   0.1641700000000000    0.4622600000000000    0.0720700000000000 H
   0.6641800000000000    0.4622600000000000    0.0720700000000000 H
   0.0029300000000000    0.3745100000000000    0.0207750000000000 H
   0.5029400000000001    0.3745100000000000    0.0207750000000000 H
   0.0854300000000000    0.3709800000000000    0.0083950000000000 H
   0.5854400000000000    0.3709800000000000    0.0080000000000000 H
   0.1679100000000000    0.4484200000000000    0.2599400000000000 H
   0.6679200000000000    0.4484200000000000    0.2599400000000000 H
   0.0532700000000000    0.3745900000000000    0.2623750000000000 H
   0.5532800000000000    0.3745900000000000    0.2623750000000000 H
   0.0474300000000000    0.4779300000000000    0.3367800000000000 H
   0.5474400000000000    0.4779300000000000    0.3367800000000000 H
   0.1230000000000000    0.5972200000000000    0.3743100000000000 H
   0.6230100000000000    0.5972200000000000    0.3743100000000000 H
   0.0765600000000000    0.6115400000000000    0.3373350000000000 H
   0.5765700000000000    0.6115400000000000    0.3373350000000000 H
   0.1563300000000000    0.5779800000000000    0.3247600000000000 H
   0.6563500000000000    0.5779800000000000    0.3247600000000000 H
   0.1863800000000000    0.4203600000000000    0.3123400000000000 H
   0.6863899999999999    0.4203600000000000    0.3123400000000000 H
   0.1227800000000000    0.3555300000000000    0.3124100000000000 H
   0.6227900000000000    0.3555300000000000    0.3124100000000000 H
   0.1466000000000000    0.4468000000000000    0.3609000000000000 H
   0.6466100000000000    0.4468000000000000    0.3609400000000000 H
   0.0871000000000000    0.1133500000000000    0.2241000000000000 H
   0.5871100000000000    0.1133500000000000    0.2241000000000000 H
   0.2706400000000000    0.2094800000000000    0.2523950000000000 H
   0.7706499999999999    0.2094800000000000    0.2523950000000000 H
   0.0554900000000000    0.2177200000000000    0.2010400000000000 H
   0.5555000000000000    0.2177200000000000    0.2010400000000000 H
   0.2476200000000000    0.3178800000000000    0.2309650000000000 H
   0.7476300000000000    0.3178800000000000    0.2309500000000000 H
   0.0863700000000000    0.3328900000000000    0.1871350000000000 H
   0.5863900000000000    0.3328900000000000    0.1871350000000000 H
   0.1688800000000000    0.3542100000000000    0.1854600000000000 H
   0.6688900000000000    0.3542100000000000    0.1854650000000000 H
   0.5012300000000000    0.0714700000000000    0.2757350000000000 H
   0.0000000000000000    0.0714700000000000    0.2757350000000000 H
   0.3865900000000000    0.1502900000000000    0.3126500000000000 H
   0.8866000000000001    0.1502900000000000    0.3126500000000000 H
   0.3807100000000000    0.1956000000000000    0.2609200000000000 H
   0.8807199999999999    0.1956000000000000    0.2609200000000000 H
   0.4563700000000000    0.1511300000000000    0.2012800000000000 H
   0.9563800000000000    0.1511300000000000    0.2012500000000000 H
   0.4099300000000000    0.0629100000000000    0.1941850000000000 H
   0.9099400000000000    0.0629100000000000    0.1941850000000000 H
   0.4896800000000000    0.0713700000000000    0.2109950000000000 H
   0.9896900000000000    0.0713700000000000    0.2109950000000000 H
   0.0196300000000000    0.2044200000000000    0.2897350000000000 H
   0.5196400000000000    0.2044200000000000    0.2897350000000000 H
   0.4559900000000000    0.2694300000000000    0.3221000000000000 H
   0.9560000000000000    0.2694300000000000    0.3221000000000000 H
   0.4798100000000000    0.2751100000000000    0.2764800000000000 H
   0.9798300000000000    0.2751100000000000    0.2764800000000000 H
   0.4204600000000000    0.3349800000000000    0.4433100000000000 H
   0.9204599999999999    0.3349800000000000    0.4433100000000000 H
   0.1039200000000000    0.2952500000000000    0.3950900000000000 H
   0.6039300000000000    0.2952500000000000    0.3950900000000000 H
   0.3887700000000000    0.1844900000000000    0.3910800000000000 H
   0.8887800000000000    0.1844900000000000    0.3910800000000000 H
   0.0808100000000000    0.1440100000000000    0.3408450000000000 H
   0.5808200000000000    0.1440100000000000    0.3408450000000000 H
   0.4195800000000000    0.0414800000000000    0.3334600000000000 H
   0.9195900000000000    0.0414800000000000    0.3334600000000000 H
   0.0020800000000000    0.0166800000000000    0.3228200000000000 H
   0.5020900000000000    0.0166800000000000    0.3228200000000000 H
   0.8345600000000000    0.4799800000000000    0.4642100000000000 H
   0.7199000000000000    0.4750400000000000    0.4248500000000000 H
   0.7141200000000000    0.3261900000000000    0.4021300000000000 H
   0.7898200000000000    0.2513300000000000    0.4243000000000000 H
   0.7433700000000000    0.3253800000000000    0.4684400000000000 H
   0.8231100000000000    0.3505600000000000    0.4642000000000000 H
   0.8530300000000000    0.3750200000000000    0.3977100000000000 H
   0.7893900000000000    0.3747200000000000    0.3652050000000000 H
   0.8132500000000000    0.2777600000000000    0.3623950000000000 H
   0.7537100000000000    0.5516300000000000    0.3325150000000000 H
   0.9372100000000000    0.4948500000000000    0.3523000000000000 H
   0.7220500000000000    0.5977200000000000    0.4077550000000000 H
   0.9141400000000000    0.5376800000000000    0.4279200000000000 H
   0.7528800000000000    0.6254900000000000    0.4792350000000000 H
   0.8353900000000000    0.6290000000000000    0.4916000000000000 H
   0.4178900000000000    0.5515900000000000    0.7400599999999999 H
   0.9179000000000000    0.5515900000000000    0.7400650000000000 H
   0.3032100000000000    0.6254800000000000    0.7376500000000000 H
   0.8032200000000000    0.6254800000000000    0.7376500000000000 H
   0.2973900000000000    0.5221500000000000    0.6632000000000000 H
   0.7974000000000000    0.5221500000000000    0.6632350000000000 H
   0.3730400000000000    0.4029000000000000    0.6256900000000000 H
   0.8730500000000000    0.4029100000000000    0.6256500000000000 H
   0.3266400000000000    0.3885400000000000    0.6626650000000001 H
   0.8266500000000000    0.3885400000000000    0.6626650000000001 H
   0.4064000000000000    0.4221400000000000    0.6752400000000001 H
   0.9064100000000000    0.4221400000000000    0.6752400000000001 H
   0.4363100000000000    0.5797600000000001    0.6876650000000000 H
   0.9363200000000000    0.5797600000000001    0.6876500000000000 H
   0.3726700000000000    0.6445800000000000    0.6876000000000000 H
   0.8726800000000000    0.6445900000000000    0.6876100000000001 H
   0.3965200000000000    0.5533200000000000    0.6390750000000001 H
   0.8965300000000000    0.5533200000000000    0.6390750000000001 H
   0.3371300000000000    0.8868200000000001    0.7759650000000000 H
   0.8371400000000000    0.8868200000000001    0.7759650000000000 H
   0.0206400000000000    0.7904200000000000    0.7476000000000000 H
   0.5206400000000000    0.7904200000000000    0.7476000000000000 H
   0.3054900000000000    0.7824500000000000    0.7990050000000000 H
   0.8055000000000000    0.7824400000000000    0.7990050000000000 H
   0.4975800000000000    0.6820200000000000    0.7690049999999999 H
   0.9975900000000000    0.6820200000000000    0.7690049999999999 H
   0.3363400000000000    0.6671899999999999    0.8128500000000001 H
   0.8363500000000000    0.6671899999999999    0.8128700000000000 H
   0.4188400000000000    0.6458100000000000    0.8145450000000001 H
   0.9188499999999999    0.6458100000000000    0.8145450000000001 H
   0.2512600000000000    0.9285200000000000    0.7242700000000000 H
   0.7512700000000000    0.9285200000000000    0.7242700000000000 H
   0.1366500000000000    0.8497200000000000    0.6873650000000000 H
   0.6366600000000000    0.8497200000000000    0.6873650000000000 H
   0.1307800000000000    0.8044100000000000    0.7390850000000000 H
   0.6307900000000000    0.8044100000000000    0.7390850000000000 H
   0.2063800000000000    0.8488800000000000    0.7987550000000000 H
   0.7063900000000000    0.8488800000000000    0.7987550000000000 H
   0.1599100000000000    0.9371000000000000    0.8058250000000000 H
   0.6599200000000000    0.9371000000000000    0.8058250000000000 H
   0.2396800000000000    0.9286400000000000    0.7890500000000000 H
   0.7397000000000000    0.9286400000000000    0.7890500000000000 H
   0.2697300000000000    0.7956000000000000    0.7103100000000000 H
   0.7697400000000000    0.7956000000000000    0.7103100000000000 H
   0.2061200000000000    0.7306000000000000    0.6778999999999999 H
   0.7061300000000000    0.7306000000000000    0.6778999999999999 H
   0.2299200000000000    0.7249100000000001    0.7235450000000000 H
   0.7299300000000000    0.7249100000000001    0.7235450000000000 H
   0.1703800000000000    0.6651000000000000    0.5567250000000000 H
   0.6703900000000000    0.6651100000000000    0.5567250000000000 H
   0.3538900000000000    0.7046400000000000    0.6048700000000000 H
   0.8539000000000000    0.7046400000000000    0.6048700000000000 H
   0.1387200000000000    0.8156300000000000    0.6089650000000000 H
   0.6387400000000000    0.8156300000000000    0.6089650000000000 H
   0.3308100000000000    0.8559200000000000    0.6591150000000000 H
   0.8308200000000000    0.8559200000000000    0.6591150000000000 H
   0.1695700000000000    0.9586100000000000    0.6665800000000000 H
   0.6695800000000000    0.9586100000000000    0.6665800000000000 H
   0.2520700000000000    0.9833300000000000    0.6771950000000000 H
   0.7520900000000000    0.9833300000000000    0.6771950000000000 H
   0.0845400000000000    0.5199900000000000    0.5357750000000000 H
   0.5845500000000000    0.5200000000000000    0.5357750000000000 H
   0.4699000000000000    0.5249800000000000    0.5751450000000000 H
   0.9699100000000000    0.5249800000000000    0.5751450000000000 H
   0.4640700000000000    0.6738200000000000    0.5978450000000000 H
   0.9640800000000000    0.6738200000000000    0.5978450000000000 H
   0.0397600000000000    0.7486200000000000    0.5756350000000000 H
   0.5397700000000000    0.7486200000000000    0.5756350000000000 H
   0.4933000000000000    0.6745900000000000    0.5315250000000000 H
   0.9933100000000000    0.6745900000000000    0.5315250000000000 H
   0.0730400000000000    0.6493600000000000    0.5355000000000000 H
   0.5730400000000000    0.6493600000000000    0.5357450000000000 H
   0.1029900000000000    0.6249100000000000    0.6022450000000000 H
   0.6030000000000000    0.6249200000000000    0.6022450000000000 H
   0.0393600000000000    0.6252900000000000    0.6347700000000001 H
   0.5393700000000000    0.6252900000000000    0.6347700000000001 H
   0.0632100000000000    0.7222100000000000    0.6375649999999999 H
   0.5632300000000000    0.7222100000000000    0.6375600000000000 H
   0.0037400000000000    0.4485200000000000    0.6675150000000000 H
   0.5037600000000000    0.4485200000000000    0.6675150000000000 H
   0.1872500000000000    0.5051200000000000    0.6476900000000000 H
   0.6872600000000000    0.5051200000000000    0.6476950000000000 H
   0.4720900000000000    0.4024000000000000    0.5922750000000000 H
   0.9721000000000000    0.4024000000000000    0.5922750000000000 H
   0.1641700000000000    0.4622600000000000    0.5720700000000000 H
   0.6641800000000000    0.4622600000000000    0.5720700000000000 H
   0.0029300000000000    0.3745100000000000    0.5207750000000000 H
   0.5029400000000001    0.3745100000000000    0.5207750000000000 H
   0.0854300000000000    0.3709800000000000    0.5083950000000000 H
   0.5854400000000000    0.3709800000000000    0.5080000000000000 H
   0.1679100000000000    0.4484200000000000    0.7599400000000001 H
   0.6679200000000000    0.4484200000000000    0.7599400000000001 H
   0.0532700000000000    0.3745900000000000    0.7623750000000000 H
   0.5532800000000000    0.3745900000000000    0.7623750000000000 H
   0.0474300000000000    0.4779300000000000    0.8367800000000001 H
   0.5474400000000000    0.4779300000000000    0.8367800000000001 H
   0.1230000000000000    0.5972200000000000    0.8743099999999999 H
   0.6230100000000000    0.5972200000000000    0.8743099999999999 H
   0.0765600000000000    0.6115400000000000    0.8373349999999999 H
   0.5765700000000000    0.6115400000000000    0.8373349999999999 H
   0.1563300000000000    0.5779800000000000    0.8247599999999999 H
   0.6563500000000000    0.5779800000000000    0.8247599999999999 H
   0.1863800000000000    0.4203600000000000    0.8123400000000001 H
   0.6863899999999999    0.4203600000000000    0.8123400000000001 H
   0.1227800000000000    0.3555300000000000    0.8124100000000001 H
   0.6227900000000000    0.3555300000000000    0.8124100000000001 H
   0.1466000000000000    0.4468000000000000    0.8609000000000000 H
   0.6466100000000000    0.4468000000000000    0.8609400000000000 H
   0.0871000000000000    0.1133500000000000    0.7241000000000000 H
   0.5871100000000000    0.1133500000000000    0.7241000000000000 H
   0.2706400000000000    0.2094800000000000    0.7523949999999999 H
   0.7706499999999999    0.2094800000000000    0.7523949999999999 H
   0.0554900000000000    0.2177200000000000    0.7010400000000000 H
   0.5555000000000000    0.2177200000000000    0.7010400000000000 H
   0.2476200000000000    0.3178800000000000    0.7309650000000000 H
   0.7476300000000000    0.3178800000000000    0.7309500000000000 H
   0.0863700000000000    0.3328900000000000    0.6871350000000001 H
   0.5863900000000000    0.3328900000000000    0.6871350000000001 H
   0.1688800000000000    0.3542100000000000    0.6854600000000000 H
   0.6688900000000000    0.3542100000000000    0.6854650000000000 H
   0.5012300000000000    0.0714700000000000    0.7757350000000001 H
   0.0000000000000000    0.0714700000000000    0.7757350000000001 H
   0.3865900000000000    0.1502900000000000    0.8126500000000000 H
   0.8866000000000001    0.1502900000000000    0.8126500000000000 H
   0.3807100000000000    0.1956000000000000    0.7609200000000000 H
   0.8807199999999999    0.1956000000000000    0.7609200000000000 H
   0.4563700000000000    0.1511300000000000    0.7012800000000000 H
   0.9563800000000000    0.1511300000000000    0.7012500000000000 H
   0.4099300000000000    0.0629100000000000    0.6941850000000001 H
   0.9099400000000000    0.0629100000000000    0.6941850000000001 H
   0.4896800000000000    0.0713700000000000    0.7109950000000000 H
   0.9896900000000000    0.0713700000000000    0.7109950000000000 H
   0.0196300000000000    0.2044200000000000    0.7897350000000001 H
   0.5196400000000000    0.2044200000000000    0.7897350000000001 H
   0.4559900000000000    0.2694300000000000    0.8221000000000001 H
   0.9560000000000000    0.2694300000000000    0.8221000000000001 H
   0.4798100000000000    0.2751100000000000    0.7764800000000001 H
   0.9798300000000000    0.2751100000000000    0.7764800000000001 H
   0.4204600000000000    0.3349800000000000    0.9433100000000000 H
   0.9204599999999999    0.3349800000000000    0.9433100000000000 H
   0.1039200000000000    0.2952500000000000    0.8950899999999999 H
   0.6039300000000000    0.2952500000000000    0.8950899999999999 H
   0.3887700000000000    0.1844900000000000    0.8910800000000000 H
   0.8887800000000000    0.1844900000000000    0.8910800000000000 H
   0.0808100000000000    0.1440100000000000    0.8408450000000001 H
   0.5808200000000000    0.1440100000000000    0.8408450000000001 H
   0.4195800000000000    0.0414800000000000    0.8334600000000000 H
   0.9195900000000000    0.0414800000000000    0.8334600000000000 H
   0.0020800000000000    0.0166800000000000    0.8228200000000000 H
   0.5020900000000000    0.0166800000000000    0.8228200000000000 H
   0.3345500000000000    0.4799800000000000    0.9642100000000000 H
   0.8345600000000000    0.4799800000000000    0.9642100000000000 H
   0.2198900000000000    0.4750400000000000    0.9248499999999999 H
   0.7199000000000000    0.4750400000000000    0.9248499999999999 H
   0.2141000000000000    0.3261900000000000    0.9021300000000000 H
   0.7141200000000000    0.3261900000000000    0.9021300000000000 H
   0.2898100000000000    0.2513300000000000    0.9243000000000000 H
   0.7898200000000000    0.2513300000000000    0.9243000000000000 H
   0.2433600000000000    0.3253800000000000    0.9684400000000000 H
   0.7433700000000000    0.3253800000000000    0.9684400000000000 H
   0.3231000000000000    0.3505500000000000    0.9641999999999999 H
   0.8231100000000000    0.3505600000000000    0.9641999999999999 H
   0.3530200000000000    0.3750200000000000    0.8977100000000000 H
   0.8530300000000000    0.3750200000000000    0.8977100000000000 H
   0.2893700000000000    0.3747200000000000    0.8652050000000000 H
   0.7893900000000000    0.3747200000000000    0.8652050000000000 H
   0.3132400000000000    0.2777600000000000    0.8623950000000000 H
   0.8132500000000000    0.2777600000000000    0.8623950000000000 H
   0.2537000000000000    0.5516300000000000    0.8325150000000000 H
   0.7537100000000000    0.5516300000000000    0.8325150000000000 H
   0.4372000000000000    0.4948400000000000    0.8523000000000001 H
   0.9372100000000000    0.4948500000000000    0.8523000000000001 H
   0.2220400000000000    0.5977200000000000    0.9077550000000000 H
   0.7220500000000000    0.5977200000000000    0.9077550000000000 H
   0.4141200000000000    0.5376800000000000    0.9279200000000001 H
   0.9141400000000000    0.5376800000000000    0.9279200000000001 H
   0.2528700000000000    0.6254900000000000    0.9792350000000001 H
   0.7528800000000000    0.6254900000000000    0.9792350000000001 H
   0.3353800000000000    0.6289900000000000    0.9916050000000001 H
   0.8353900000000000    0.6290000000000000    0.9916000000000000 H
   0.8632800000000000    0.4289700000000000    0.1599000000000000 C
   0.3896000000000000    0.5782100000000000    0.1734850000000000 C
   0.8896100000000000    0.5782100000000000    0.1734850000000000 C
   0.3707600000000000    0.8400000000000000    0.2749950000000000 C
   0.0479900000000000    0.4101100000000000    0.0310900000000000 C
   0.5480000000000000    0.4101200000000000    0.0310900000000000 C
   0.0140500000000000    0.4873300000000000    0.2680950000000000 C
   0.5140600000000000    0.4873300000000000    0.2680950000000000 C
   0.0714600000000000    0.4395000000000000    0.2728850000000000 C
   0.2640600000000000    0.5127100000000000    0.2319050000000000 C
   0.7640700000000000    0.5127100000000000    0.2319050000000000 C
   0.3214300000000000    0.5605599999999999    0.2271250000000000 C
   0.8214399999999999    0.5605599999999999    0.2271250000000000 C
   0.3412700000000000    0.5220500000000000    0.1798400000000000 C
   0.8412800000000000    0.5220500000000000    0.1798400000000000 C
   0.3632700000000000    0.4289700000000000    0.1599050000000000 C
   0.8707700000000000    0.8400100000000000    0.2749950000000000 C
   0.4735200000000000    0.7855500000000000    0.2587450000000000 C
   0.9735300000000000    0.7855500000000000    0.2587450000000000 C
   0.3537900000000000    0.7814900000000000    0.2876750000000000 C
   0.8538000000000000    0.7814900000000000    0.2876750000000000 C
   0.3985500000000000    0.7216200000000000    0.2851150000000000 C
   0.8985700000000000    0.7216200000000000    0.2851150000000000 C
   0.4598800000000000    0.7254900000000000    0.2709000000000000 C
   0.9598900000000000    0.7255000000000000    0.2709350000000000 C
   0.3813800000000000    0.6521600000000000    0.2950300000000000 C
   0.8813900000000000    0.6521600000000000    0.2950300000000000 C
   0.0973800000000000    0.9511300000000000    0.2436750000000000 C
   0.5973900000000000    0.9511300000000000    0.2436750000000000 C
   0.1548000000000000    0.8937000000000000    0.2198200000000000 C
   0.6548100000000000    0.8937000000000000    0.2198200000000000 C
   0.1746400000000000    0.8377300000000000    0.2391250000000000 C
   0.6746500000000000    0.8377300000000000    0.2391250000000000 C
   0.1965900000000000    0.8911300000000000    0.2856500000000000 C
   0.6966000000000000    0.8911300000000000    0.2856500000000000 C
   0.2230100000000000    0.7688100000000000    0.2110850000000000 C
   0.7230300000000000    0.7688100000000000    0.2110850000000000 C
   0.2040000000000000    0.7099700000000000    0.0801250000000000 C
   0.7040100000000000    0.7099700000000000    0.0801250000000000 C
   0.3067600000000000    0.7318500000000000    0.1073250000000000 C
   0.8067700000000000    0.7318500000000000    0.1073250000000000 C
   0.1870300000000000    0.7938800000000000    0.1094050000000000 C
   0.6870400000000000    0.7938800000000000    0.1094050000000000 C
   0.2318100000000000    0.8486100000000000    0.1393150000000000 C
   0.7318200000000000    0.8486100000000000    0.1393150000000000 C
   0.2931200000000000    0.8163100000000000    0.1373700000000000 C
   0.7931400000000000    0.8163100000000000    0.1373700000000000 C
   0.2146400000000000    0.9379400000000000    0.1740450000000000 C
   0.7146600000000000    0.9379400000000000    0.1740450000000000 C
   0.4307000000000000    0.5362800000000000    0.0244650000000000 C
   0.9307100000000000    0.5362800000000000    0.0244650000000000 C
   0.4881000000000000    0.5459300000000000    0.0531800000000000 C
   0.9881000000000000    0.5459300000000000    0.0531800000000000 C
   0.0079300000000000    0.6405200000000000    0.0811900000000000 C
   0.5079399999999999    0.6405300000000000    0.0811900000000000 C
   0.0299300000000000    0.6801700000000001    0.0545050000000000 C
   0.5299400000000000    0.6801700000000001    0.0545050000000000 C
   0.0562800000000000    0.6533600000000001    0.1156400000000000 C
   0.5562900000000000    0.6533600000000001    0.1156400000000000 C
   0.0373600000000000    0.4504100000000000    0.1450750000000000 C
   0.5373800000000000    0.4504100000000000    0.1450750000000000 C
   0.1401200000000000    0.4828300000000000    0.1341000000000000 C
   0.6401300000000000    0.4828400000000000    0.1341050000000000 C
   0.0203900000000000    0.4250300000000000    0.1031300000000000 C
   0.5204000000000000    0.4250300000000000    0.1031300000000000 C
   0.0651600000000000    0.4300500000000000    0.0757500000000000 C
   0.5651700000000000    0.4300500000000000    0.0757500000000000 C