H5 O3
1.0
  24.2479999852272741    0.0000000000000000    0.0008464148738746
   0.0037293453878232   15.2639961873485248    0.0101234674247618
   0.0000000000000000    0.0000000000000000   31.8320000000000007
H O
5 3
direct
   0.5017925993949057    0.3860076113640291    0.4549934101175445 H
   0.4690045245315643    0.4056029025409983    0.4303854664699707 H
   0.5137095545001313    0.2947300824007180    0.4318894046680967 H
   0.3758887819146904    0.2950910076665517    0.3075747062577714 H
   0.4114905172413216    0.2004351554608630    0.3088363990596940 H
   0.4936350000000000    0.4061500000000000    0.4547350000000000 O
   0.5236250000000000    0.3321000000000000    0.4556850000000000 O
   0.3828900000000000    0.2368200000000000    0.2959350000000000 O
