C1 N1
1.0
  29.8999999999999986    0.0000000000000000    0.0000000000000018
   0.0000000000000024   14.8919999999999995    0.0000000000000009
   0.0000000000000000    0.0000000000000000   26.1619999999999990
C N
1 1
direct
   0.5007100000000000    0.6625200000000000    0.2006000000000000 C
   0.5004100000000000    0.6060300000000000    0.1695600000000000 N
