H8 C17 O4 F6
1.0
  15.4049990614737382    0.0000000000000000   -0.0053773593161908
   0.0060082656573982   18.6059989449057355  -10.6712870902675387
   0.0000000000000000    0.0000000000000000   21.4400000000000013
H C O F
8 17 4 6
direct
   0.0169500000000000    0.4073900000000000    0.2524300000000000 H
   0.0836300000000000    0.2947200000000000    0.2313100000000000 H
   0.2456900000000000    0.5242800000000000    0.3643800000000000 H
   0.3132700000000000    0.4115500000000000    0.3448700000000000 H
   0.4834100000000000    0.2532500000000000    0.4071800000000000 H
   0.4174800000000000    0.2327100000000000    0.2944200000000000 H
   0.2542000000000000    0.3647500000000000    0.5236000000000000 H
   0.1873100000000000    0.3457300000000000    0.4108200000000000 H
   0.0834300000000000    0.5412400000000001    0.3230500000000000 C
   0.1260300000000000    0.4734500000000000    0.3107000000000000 C
   0.0817600000000000    0.4080200000000000    0.2729500000000000 C
   0.1200400000000000    0.3442800000000000    0.2612300000000000 C
   0.2100300000000000    0.4739300000000000    0.3361000000000000 C
   0.2481400000000000    0.4101700000000000    0.3244800000000000 C
   0.2035400000000000    0.3445000000000000    0.2872800000000000 C
   0.1861800000000000    0.2113800000000000    0.2540100000000000 C
   0.4161000000000000    0.3230400000000000    0.5408500000000001 C
   0.3740100000000000    0.3112200000000000    0.4730200000000000 C
   0.4186600000000000    0.2738100000000000    0.4077000000000000 C
   0.3808000000000000    0.2624100000000000    0.3438000000000000 C
   0.2901300000000000    0.3367800000000000    0.4733500000000000 C
   0.2524100000000000    0.3253600000000000    0.4095300000000000 C
   0.2972700000000000    0.2883500000000000    0.3439300000000000 C
   0.3139900000000000    0.2536100000000000    0.2101800000000000 C
   0.2503300000000000    0.2755100000000000    0.2748100000000000 C
   0.1250100000000000    0.5999700000000000    0.3614400000000000 O
   1.0094900000000000    0.5353000000000000    0.2942600000000000 O
   0.3747300000000000    0.3618600000000000    0.5996300000000000 O
   0.4894200000000000    0.2933500000000000    0.5348900000000000 O
   0.2260400000000000    0.1560200000000000    0.2559300000000000 F
   0.1185800000000000    0.2320100000000000    0.3013200000000000 F
   0.1517700000000000    0.1844700000000000    0.1871100000000000 F
   0.2737000000000000    0.2537000000000000    0.1540000000000000 F
   0.3813400000000000    0.3010500000000000    0.2294900000000000 F
   0.3484800000000000    0.1869700000000000    0.1845000000000000 F
