Zn12 H88 C187 O44 F66
1.0
  15.4049990614737382    0.0000000000000000   -0.0053773593161908
   0.0060082656573982   18.6059989449057355  -10.6712870902675387
   0.0000000000000000    0.0000000000000000   21.4400000000000013
Zn H C O F
12 88 187 44 66
direct
   0.9152900000000000    0.6016800000000000    0.3015200000000000 Zn
   0.0844300000000000    0.6988799999999999    0.3987000000000000 Zn
   0.5842700000000000    0.6989300000000001    0.3987800000000000 Zn
   0.2507000000000000    0.6994300000000000    0.3008200000000000 Zn
   0.7490000000000000    0.6993500000000000    0.3007800000000000 Zn
   0.4151200000000000    0.3985300000000000    0.6986100000000000 Zn
   0.9151600000000000    0.3984800000000000    0.6985600000000000 Zn
   0.0837800000000000    0.3013800000000000    0.6014100000000000 Zn
   0.5839200000000000    0.3013400000000000    0.6013600000000000 Zn
   0.2485700000000000    0.3011300000000000    0.6995000000000000 Zn
   0.7486000000000000    0.3010800000000000    0.6994700000000000 Zn
   0.4154100000000000    0.6015600000000000    0.3014000000000000 Zn
   0.3508300000000000    0.7482300000000000    0.1551900000000000 H
   0.8503300000000000    0.7482000000000000    0.1551300000000000 H
   0.4172600000000000    0.7686100000000000    0.0630000000000000 H
   0.9170000000000000    0.7686100000000000    0.0630900000000000 H
   0.0780000000000000    0.6347900000000000    0.1600500000000000 H
   0.5784899999999999    0.6345300000000000    0.1596500000000000 H
   0.1455000000000000    0.6534100000000000    0.0661800000000000 H
   0.6457900000000000    0.6531900000000000    0.0657200000000000 H
   0.5170600000000000    0.4075100000000000    0.2525000000000000 H
   0.5836700000000000    0.2948000000000000    0.2313000000000000 H
   0.7458500000000000    0.5242900000000000    0.3640000000000000 H
   0.8133600000000000    0.4115100000000000    0.3440000000000000 H
   0.1835700000000000    0.8454400000000000    0.5932200000000000 H
   0.6835599999999999    0.8453800000000000    0.5930900000000000 H
   0.2499800000000000    0.9374400000000001    0.7054200000000000 H
   0.7499900000000000    0.9373300000000000    0.7052900000000000 H
   0.4118000000000000    0.8404000000000000    0.4754800000000000 H
   0.9117400000000000    0.8403400000000000    0.4753100000000000 H
   0.4791500000000000    0.9340700000000000    0.5877700000000000 H
   0.9791400000000000    0.9339600000000000    0.5876100000000000 H
   0.3501300000000000    0.2522200000000000    0.8451700000000000 H
   0.8501800000000000    0.2522200000000000    0.8451900000000000 H
   0.4169200000000000    0.2317300000000000    0.9371600000000000 H
   0.9169600000000000    0.2317800000000000    0.9372000000000000 H
   0.0778500000000000    0.3653500000000000    0.8400500000000000 H
   0.5778500000000000    0.3653000000000000    0.8400200000000000 H
   0.1454800000000000    0.3467000000000000    0.9339000000000000 H
   0.6455000000000000    0.3466000000000000    0.9338400000000000 H
   0.0156500000000000    0.5937200000000000    0.7471800000000000 H
   0.5156600000000000    0.5937100000000000    0.7471400000000000 H
   0.0826800000000000    0.7061300000000000    0.7680000000000000 H
   0.5826800000000000    0.7061100000000000    0.7681500000000000 H
   0.2443100000000000    0.4762300000000000    0.6356500000000000 H
   0.7443200000000000    0.4762300000000000    0.6356300000000000 H
   0.3123700000000000    0.5887300000000000    0.6552400000000000 H
   0.8123899999999999    0.5887300000000000    0.6552300000000000 H
   0.1833300000000000    0.1546500000000000    0.4074800000000000 H
   0.6834700000000000    0.1545300000000000    0.4073900000000000 H
   0.2495700000000000    0.0627300000000000    0.2953200000000000 H
   0.7497200000000001    0.0626000000000000    0.2952800000000000 H
   0.4120700000000000    0.1600400000000000    0.5249800000000000 H
   0.9121100000000000    0.1599000000000000    0.5249700000000000 H
   0.4793600000000000    0.0665000000000000    0.4126500000000000 H
   0.9794100000000000    0.0662800000000000    0.4126900000000000 H
   0.3157500000000000    0.5926600000000000    0.8452300000000000 H
   0.8158900000000000    0.5925700000000000    0.8451000000000000 H
   0.2498300000000000    0.7050300000000000    0.9373000000000000 H
   0.7499900000000000    0.7050000000000000    0.9372400000000000 H
   0.0869800000000000    0.4757100000000000    0.8405300000000000 H
   0.5870200000000000    0.4757100000000000    0.8403000000000000 H
   0.0202200000000000    0.5881300000000000    0.9345000000000000 H
   0.5202700000000000    0.5881800000000000    0.9342000000000000 H
   0.1490300000000000    0.1549600000000000    0.7480000000000000 H
   0.6490700000000000    0.1550000000000000    0.7480100000000000 H
   0.0826500000000000    0.0628000000000000    0.7683100000000000 H
   0.5826900000000000    0.0628600000000000    0.7683800000000000 H
   0.4212400000000000    0.1596800000000000    0.6345700000000000 H
   0.9212500000000000    0.1596500000000000    0.6345100000000000 H
   0.3540100000000000    0.0657200000000000    0.6531800000000000 H
   0.8540300000000000    0.0656400000000000    0.6530600000000000 H
   0.9834200000000000    0.2532100000000000    0.4071500000000000 H
   0.9174900000000000    0.2326600000000000    0.2940000000000000 H
   0.7542100000000000    0.3647300000000000    0.5235900000000000 H
   0.6873200000000000    0.3457100000000000    0.4108000000000000 H
   0.3164400000000000    0.4073100000000000    0.1543500000000000 H
   0.8163400000000000    0.4073500000000000    0.1543400000000000 H
   0.2501400000000000    0.2952200000000000    0.0625200000000000 H
   0.7501500000000000    0.2951900000000000    0.0624600000000000 H
   0.0878400000000000    0.5248600000000000    0.1596600000000000 H
   0.5875700000000000    0.5247000000000001    0.1596100000000000 H
   0.0204600000000000    0.4125800000000000    0.0661300000000000 H
   0.5203400000000000    0.4123800000000000    0.0660000000000000 H
   0.1494900000000000    0.8451400000000000    0.2521200000000000 H
   0.6490200000000000    0.8450900000000000    0.2521200000000000 H
   0.0829600000000000    0.9373400000000000    0.2318800000000000 H
   0.5827000000000000    0.9373700000000000    0.2318800000000000 H
   0.4212400000000000    0.8405800000000000    0.3655900000000000 H
   0.9217000000000000    0.8401900000000000    0.3653100000000000 H
   0.3540100000000000    0.9346000000000000    0.3469900000000000 H
   0.8542800000000000    0.9341400000000000    0.3467500000000000 H
   0.4833400000000000    0.7469000000000000    0.5930000000000000 H
   0.9834500000000000    0.7469300000000000    0.5930900000000000 H
   0.4170400000000000    0.7678199999999999    0.7057000000000000 H
   0.9170800000000000    0.7678300000000000    0.7057700000000000 H
   0.2541800000000000    0.6356200000000000    0.4763200000000000 H
   0.7543100000000000    0.6357100000000000    0.4763000000000000 H
   0.1869200000000000    0.6550100000000000    0.5890800000000000 H
   0.6869800000000000    0.6550500000000000    0.5890600000000000 H
   0.9143200000000000    0.0852300000000000    0.4110300000000000 C
   0.3696800000000000    0.0567600000000000    0.3452400000000000 C
   0.8697800000000000    0.0565500000000000    0.3452300000000000 C
   0.3526700000000000    0.9582300000000000    0.2119300000000000 C
   0.4165800000000000    0.6775099999999999    0.2187000000000000 C
   0.9159700000000000    0.6774500000000000    0.2188000000000000 C
   0.4593300000000000    0.6890500000000001    0.1627300000000000 C
   0.9588000000000000    0.6891400000000000    0.1629000000000000 C
   0.4153300000000000    0.7271200000000000    0.1350300000000000 C
   0.9148900000000000    0.7271600000000000    0.1351000000000000 C
   0.4534400000000000    0.7383600000000000    0.0826100000000000 C
   0.9531400000000000    0.7384100000000000    0.0827200000000000 C
   0.0424800000000000    0.6630500000000000    0.1377200000000000 C
   0.5429300000000000    0.6628400000000000    0.1374000000000000 C
   0.0805700000000000    0.6742500000000000    0.0852500000000000 C
   0.5809000000000000    0.6740699999999999    0.0849100000000000 C
   0.0363300000000000    0.7117100000000000    0.0566600000000000 C
   0.5365799999999999    0.7116000000000000    0.0564000000000000 C
   0.0193700000000000    0.7457200000000000    0.9571499999999999 C
   0.5194100000000000    0.7457200000000000    0.9570200000000000 C
   0.5836100000000000    0.5413300000000000    0.3231800000000000 C
   0.6261700000000000    0.4735200000000000    0.3108000000000000 C
   0.2517200000000000    0.4082300000000000    0.1344600000000000 C
   0.7516200000000000    0.4082100000000000    0.1344200000000000 C
   0.2136000000000000    0.3447500000000000    0.0822100000000000 C
   0.7135700000000000    0.3447000000000000    0.0821500000000000 C
   0.1236000000000000    0.4745000000000000    0.1373300000000000 C
   0.5818700000000000    0.4081000000000000    0.2730100000000000 C
   0.6201000000000000    0.3443300000000000    0.2612600000000000 C
   0.7101700000000000    0.4739500000000000    0.3362700000000000 C
   0.7482300000000000    0.4101600000000000    0.3245200000000000 C
   0.7036000000000000    0.3445200000000000    0.2873000000000000 C
   0.6861900000000000    0.2113800000000000    0.2540000000000000 C
   0.2497100000000000    0.7817700000000000    0.4593600000000000 C
   0.7495500000000000    0.7817499999999999    0.4592000000000000 C
   0.2923800000000000    0.8376100000000000    0.5267400000000000 C
   0.7923300000000000    0.8375300000000000    0.5265000000000000 C
   0.2482000000000000    0.8654200000000000    0.5923000000000000 C
   0.7481900000000000    0.8653500000000000    0.5921500000000000 C
   0.2863200000000000    0.9177300000000000    0.6557800000000000 C
   0.7863300000000000    0.9176299999999999    0.6556400000000000 C
   0.3761500000000000    0.8627100000000000    0.5258900000000000 C
   0.8761000000000000    0.8626300000000000    0.5257300000000000 C
   0.4141400000000000    0.9150400000000000    0.5894300000000000 C
   0.9141300000000000    0.9149400000000000    0.5892800000000000 C
   0.3696600000000000    0.9436200000000000    0.6552200000000000 C
   0.8696700000000001    0.9435200000000000    0.6550000000000000 C
   0.3526800000000000    0.0426900000000000    0.7884400000000000 C
   0.8526700000000000    0.0426200000000000    0.7883300000000000 C
   0.4156300000000000    0.3229700000000000    0.7815100000000000 C
   0.9156600000000000    0.3229600000000000    0.7815000000000000 C
   0.4586200000000000    0.3111200000000000    0.8372700000000000 C
   0.9586400000000000    0.3111400000000000    0.8372900000000000 C
   0.4147300000000000    0.2731600000000000    0.8651300000000000 C
   0.9147700000000000    0.2732000000000000    0.8651600000000000 C
   0.4530800000000000    0.2618400000000000    0.9174600000000001 C
   0.9531100000000000    0.2619000000000000    0.9175000000000000 C
   0.0423700000000000    0.3371300000000000    0.8624000000000001 C
   0.5423700000000000    0.3370700000000000    0.8623000000000000 C
   0.0805400000000000    0.3258900000000000    0.9148500000000001 C
   0.5805500000000000    0.3258000000000000    0.9147900000000000 C
   0.0363400000000000    0.2885100000000000    0.9435200000000000 C
   0.5363300000000000    0.2884200000000000    0.9434500000000000 C
   0.0193200000000000    0.2546300000000000    0.0431200000000000 C
   0.5193200000000000    0.2545600000000000    0.0430800000000000 C
   0.0816600000000000    0.4596400000000000    0.6768800000000000 C
   0.5816800000000000    0.4596200000000000    0.6768500000000000 C
   0.1246100000000000    0.5273099999999999    0.6890800000000000 C
   0.6246200000000000    0.5272900000000000    0.6890400000000000 C
   0.0805400000000000    0.5928800000000000    0.7267300000000000 C
   0.5805500000000000    0.5928600000000001    0.7266899999999999 C
   0.1190500000000000    0.6565200000000000    0.7384100000000000 C
   0.6190600000000001    0.6565100000000000    0.7383700000000000 C
   0.2087300000000000    0.5266600000000000    0.6637800000000000 C
   0.7087500000000000    0.5266500000000000    0.6637500000000000 C
   0.2471200000000000    0.5903300000000000    0.6755200000000000 C
   0.7471400000000000    0.5903200000000000    0.6750000000000000 C
   0.2027300000000000    0.6561600000000000    0.7125899999999999 C
   0.7027400000000000    0.6561500000000000    0.7125700000000000 C
   0.1861100000000000    0.7896800000000000    0.7466300000000000 C
   0.6861200000000000    0.7896800000000000    0.7466300000000000 C
   0.2496400000000000    0.2186400000000000    0.5412000000000000 C
   0.7497000000000000    0.2185500000000000    0.5412100000000000 C
   0.2923800000000000    0.1627700000000000    0.4739000000000000 C
   0.7924600000000001    0.1626400000000000    0.4738600000000000 C
   0.2480600000000000    0.1347800000000000    0.4083800000000000 C
   0.7481800000000000    0.1346500000000000    0.4083200000000000 C
   0.2861600000000000    0.0825100000000000    0.3448500000000000 C
   0.7862900000000000    0.0823500000000000    0.3448200000000000 C
   0.3762500000000000    0.1376900000000000    0.4746300000000000 C
   0.8763100000000000    0.1375400000000000    0.4746100000000000 C
   0.4142600000000000    0.0854300000000000    0.4110300000000000 C
   0.8527200000000000    0.9581499999999999    0.2119000000000000 C
   0.2488100000000000    0.4590100000000000    0.7815400000000000 C
   0.7488600000000000    0.4589600000000000    0.7814400000000000 C
   0.2066100000000000    0.5265600000000000    0.8375200000000000 C
   0.7066900000000000    0.5265300000000001    0.8373900000000000 C
   0.2511100000000000    0.5919400000000000    0.8653300000000000 C
   0.7512400000000000    0.5918900000000000    0.8651900000000000 C
   0.2132900000000000    0.6555200000000000    0.9177600000000000 C
   0.7134200000000001    0.6554900000000000    0.9175900000000000 C
   0.1228600000000000    0.5259900000000000    0.8628100000000000 C
   0.6229100000000000    0.5259800000000000    0.8626500000000000 C
   0.0852100000000000    0.5895899999999999    0.9153200000000000 C
   0.5852800000000000    0.5896100000000000    0.9151200000000000 C
   0.1299600000000000    0.6552200000000000    0.9438000000000000 C
   0.6300700000000000    0.6552100000000000    0.9436099999999999 C
   0.1472600000000000    0.7884500000000000    0.0420000000000000 C
   0.6473200000000000    0.7884400000000000    0.0426900000000000 C
   0.0832800000000000    0.2184900000000000    0.6773200000000000 C
   0.5833000000000000    0.2185000000000000    0.6773200000000000 C
   0.0404700000000000    0.1625900000000000    0.6889100000000000 C
   0.5404900000000000    0.1626200000000000    0.6889400000000000 C
   0.0845200000000000    0.1348300000000000    0.7269000000000000 C
   0.5845500000000000    0.1348700000000000    0.7269000000000000 C
   0.0464400000000000    0.0824000000000000    0.7381100000000000 C
   0.5464700000000000    0.0824600000000000    0.7381799999999999 C
   0.4568500000000000    0.1373700000000000    0.6628100000000000 C
   0.9568600000000000    0.1373200000000000    0.6627500000000000 C
   0.4189200000000000    0.0848700000000000    0.6740200000000000 C
   0.9189300000000000    0.0848000000000000    0.6739200000000000 C
   0.4633100000000000    0.0563200000000000    0.7114500000000000 C
   0.9633100000000000    0.0562400000000000    0.7113500000000000 C
   0.4805600000000000    0.9570300000000000    0.7456600000000000 C
   0.9805500000000000    0.9569800000000001    0.7456000000000000 C
   0.9161000000000000    0.3229900000000000    0.5408200000000000 C
   0.8740100000000000    0.3111800000000000    0.4729900000000000 C
   0.9186600000000000    0.2737700000000000    0.4076700000000000 C
   0.8808000000000000    0.2623700000000000    0.3438600000000000 C
   0.7901400000000000    0.3367500000000000    0.4733000000000000 C
   0.7524200000000000    0.3253300000000000    0.4095200000000000 C
   0.7972900000000001    0.2883200000000000    0.3439100000000000 C
   0.8139999999999999    0.2536000000000000    0.2101000000000000 C
   0.2503000000000000    0.5410700000000001    0.2182000000000000 C
   0.7499000000000000    0.5410600000000000    0.2182000000000000 C
   0.2074700000000000    0.4737500000000000    0.1623800000000000 C
   0.7072700000000000    0.4736700000000000    0.1623300000000000 C
   0.6233900000000000    0.4743700000000000    0.1372700000000000 C
   0.0855700000000000    0.4109300000000000    0.0850600000000000 C
   0.5854500000000000    0.4107900000000000    0.0849000000000000 C
   0.1301100000000000    0.3451600000000000    0.0564100000000000 C
   0.6300600000000000    0.3450600000000000    0.0563400000000000 C
   0.1472500000000000    0.2118800000000000    0.9580500000000000 C
   0.6472500000000000    0.2118100000000000    0.9580100000000000 C
   0.0837900000000000    0.7814800000000000    0.3227900000000000 C
   0.5832200000000000    0.7816000000000000    0.3227700000000000 C
   0.0409600000000000    0.8373600000000000    0.3110800000000000 C
   0.5404600000000001    0.8375400000000000    0.3111900000000000 C
   0.0849300000000000    0.8651799999999999    0.2731300000000000 C
   0.5845100000000000    0.8652600000000000    0.2730000000000000 C
   0.0467400000000000    0.9176400000000000    0.2619600000000000 C
   0.5464500000000000    0.9177400000000000    0.2620100000000000 C
   0.4568300000000000    0.8628600000000000    0.3373300000000000 C
   0.9572600000000000    0.8625400000000000    0.3371100000000000 C
   0.4189100000000000    0.9153900000000000    0.3261400000000000 C
   0.9192200000000000    0.9150500000000000    0.3259400000000000 C
   0.4633000000000000    0.9439300000000000    0.2887000000000000 C
   0.9635300000000000    0.9437100000000000    0.2886000000000000 C
   0.4805900000000000    0.0433300000000000    0.2546400000000000 C
   0.9806300000000000    0.0432200000000000    0.2546400000000000 C
   0.4163400000000000    0.6769100000000000    0.4591500000000000 C
   0.9164900000000000    0.6769500000000001    0.4592000000000000 C
   0.3740200000000000    0.6889800000000000    0.5270000000000000 C
   0.8741400000000000    0.6890400000000000    0.5270500000000000 C
   0.4185100000000000    0.7264699999999999    0.5924000000000000 C
   0.9186100000000000    0.7265000000000000    0.5924700000000001 C
   0.3804300000000000    0.7380900000000000    0.6562000000000000 C
   0.8804900000000000    0.7381100000000000    0.6562500000000000 C
   0.2900200000000000    0.6636300000000001    0.5266000000000000 C
   0.7901300000000000    0.6637000000000000    0.5266500000000000 C
   0.2520900000000000    0.6752700000000000    0.5904000000000000 C
   0.7521600000000001    0.6753200000000000    0.5904400000000000 C
   0.2968300000000000    0.7122900000000000    0.6561100000000000 C
   0.7968800000000000    0.7123200000000000    0.6561300000000000 C
   0.3138200000000000    0.7465500000000000    0.7897300000000000 C
   0.8138300000000001    0.7465500000000000    0.7897300000000000 C
   0.0832800000000000    0.7242400000000000    0.0001000000000000 C
   0.5834200000000000    0.7242100000000000    0.9999300000000000 C
   0.7503400000000000    0.2755000000000000    0.2748000000000000 C
   0.4165200000000000    0.9998800000000000    0.7241300000000001 C
   0.9165100000000000    0.9997900000000000    0.7240200000000000 C
   0.0832400000000000    0.2761300000000000    0.0001800000000000 C
   0.5832000000000001    0.2760300000000000    0.0000000000000000 C
   0.2499000000000000    0.7250900000000000    0.7252100000000000 C
   0.7499200000000000    0.7250900000000000    0.7252100000000000 C
   0.4165700000000000    0.0005000000000000    0.2762200000000000 C
   0.9166900000000000    0.0003200000000000    0.2761800000000000 C
   0.4561000000000000    0.6373799999999999    0.2381400000000000 O
   0.9559600000000000    0.6376700000000000    0.2384500000000000 O
   0.3441300000000000    0.7087400000000000    0.2428000000000000 O
   0.8431700000000000    0.7081000000000000    0.2426100000000000 O
   0.6250300000000000    0.6000900000000000    0.3618200000000000 O
   0.5098200000000001    0.5353800000000000    0.2941600000000000 O
   0.2894100000000000    0.7627200000000000    0.4000600000000000 O
   0.7890400000000000    0.7626200000000000    0.3998100000000000 O
   0.1773100000000000    0.7574100000000000    0.4663000000000000 O
   0.6771200000000001    0.7575100000000000    0.4662900000000000 O
   0.4560600000000000    0.3619700000000000    0.7611599999999999 O
   0.9560900000000000    0.3619600000000000    0.7611500000000000 O
   0.3422000000000000    0.2932100000000000    0.7585200000000000 O
   0.8422500000000001    0.2931800000000000    0.7584900000000000 O
   0.1224800000000000    0.4006700000000000    0.6378100000000000 O
   0.6225000000000001    0.4006600000000000    0.6377699999999999 O
   0.0081500000000000    0.4659700000000000    0.7064400000000000 O
   0.5081800000000000    0.4659600000000000    0.7064300000000000 O
   0.2891600000000000    0.2377000000000000    0.6006700000000000 O
   0.7891899999999999    0.2376400000000000    0.6006300000000000 O
   0.1772900000000000    0.2431100000000000    0.5342700000000000 O
   0.6773600000000000    0.2430100000000000    0.5341700000000000 O
   0.2079400000000000    0.4000300000000000    0.7616700000000000 O
   0.7079900000000000    0.3999900000000000    0.7616000000000001 O
   0.3219800000000000    0.4654400000000000    0.7578700000000000 O
   0.8220200000000000    0.4653700000000000    0.7577600000000000 O
   0.0438500000000000    0.2378000000000000    0.6370500000000000 O
   0.5439000000000001    0.2377900000000000    0.6370300000000000 O
   0.1556600000000000    0.2426800000000000    0.7086500000000000 O
   0.6556900000000000    0.2426700000000000    0.7086500000000000 O
   0.8747400000000000    0.3618100000000000    0.5996000000000000 O
   0.9894300000000000    0.2933100000000000    0.5348500000000000 O
   0.2107900000000000    0.6004600000000000    0.2373600000000000 O
   0.7099500000000000    0.6002900000000000    0.2374200000000000 O
   0.3227500000000000    0.5339900000000000    0.2424800000000000 O
   0.8224800000000000    0.5342300000000000    0.2424400000000000 O
   0.0439900000000000    0.7621000000000000    0.3628400000000000 O
   0.5437000000000000    0.7621700000000000    0.3628900000000000 O
   0.1564300000000000    0.7574400000000000    0.2919000000000000 O
   0.6556900000000000    0.7574700000000000    0.2915800000000000 O
   0.3748200000000000    0.6383900000000000    0.4003800000000000 O
   0.8748300000000000    0.6385800000000000    0.4004700000000000 O
   0.4900000000000000    0.7060700000000000    0.4650800000000000 O
   0.9902700000000000    0.7059200000000000    0.4651000000000000 O
   0.6073200000000000    0.8437400000000000    0.0996200000000000 F
   0.2149700000000000    0.7679600000000000    0.0695200000000000 F
   0.7150000000000000    0.7679600000000000    0.0694600000000000 F
   0.1814900000000000    0.8152100000000000    0.0025100000000000 F
   0.6815300000000000    0.8153000000000000    0.0024900000000000 F
   0.4407300000000000    0.8999500000000000    0.7441700000000000 F
   0.9407400000000000    0.8999100000000000    0.7441400000000000 F
   0.0482500000000000    0.9304800000000000    0.6985100000000000 F
   0.0593000000000000    0.7441600000000000    0.9000600000000000 F
   0.5592500000000000    0.7441800000000000    0.8999000000000000 F
   0.4517400000000000    0.6986000000000000    0.9305200000000000 F
   0.9517200000000000    0.6986000000000000    0.9305500000000000 F
   0.4851900000000000    0.8126200000000000    0.9971700000000000 F
   0.9851700000000000    0.8126300000000000    0.9972299999999999 F
   0.7260500000000000    0.1560200000000000    0.2559300000000000 F
   0.6185800000000000    0.2320100000000000    0.3013200000000000 F
   0.6517800000000000    0.1844700000000000    0.1871100000000000 F
   0.3927100000000000    0.0996000000000000    0.8437200000000000 F
   0.8927400000000000    0.0995000000000000    0.8436000000000000 F
   0.2850000000000000    0.0694600000000000    0.7679600000000000 F
   0.7849900000000000    0.0694400000000000    0.7679200000000000 F
   0.3184900000000000    0.0025500000000000    0.8153800000000000 F
   0.8184900000000001    0.0024900000000000    0.8152800000000000 F
   0.0592100000000000    0.2560400000000000    0.1002000000000000 F
   0.5592200000000001    0.2560200000000000    0.1001000000000000 F
   0.4516200000000000    0.3016100000000000    0.0695900000000000 F
   0.9516300000000000    0.3016600000000000    0.0696300000000000 F
   0.4851600000000000    0.1876700000000000    0.0029100000000000 F
   0.9851600000000000    0.1877400000000000    0.0029100000000000 F
   0.2263500000000000    0.8456200000000000    0.7463000000000000 F
   0.7263600000000000    0.8456300000000000    0.7463000000000000 F
   0.1187900000000000    0.7702400000000000    0.6990900000000000 F
   0.6188000000000000    0.7702400000000000    0.6990900000000000 F
   0.1514900000000000    0.8155900000000000    0.8132700000000000 F
   0.6515000000000000    0.8155800000000000    0.8132600000000000 F
   0.3925200000000000    0.9020000000000000    0.1556500000000000 F
   0.8925200000000000    0.9019100000000000    0.1555700000000000 F
   0.2852700000000000    0.9306500000000000    0.2318500000000000 F
   0.7852900000000000    0.9306100000000000    0.2318400000000000 F
   0.3182600000000000    0.9997300000000000    0.1866400000000000 F
   0.8183000000000000    0.9996900000000000    0.1866600000000000 F
   0.1073300000000000    0.8438300000000000    0.0997200000000000 F
   0.5482500000000000    0.9305200000000000    0.6985400000000000 F
   0.0147700000000000    0.9971700000000000    0.8125200000000000 F
   0.5147900000000000    0.9971800000000000    0.8125000000000000 F
   0.7737100000000000    0.2537000000000000    0.1540800000000000 F
   0.8813500000000000    0.3010400000000000    0.2294800000000000 F
   0.8484900000000000    0.1869600000000000    0.1845700000000000 F
   0.1075100000000000    0.1555300000000000    0.9018000000000000 F
   0.6075300000000000    0.1554500000000000    0.9017600000000000 F
   0.2147000000000000    0.2318200000000000    0.9305500000000000 F
   0.7147000000000000    0.2318000000000000    0.9305300000000000 F
   0.1816700000000000    0.1866800000000000    0.9996500000000000 F
   0.6816800000000000    0.1866600000000000    0.9996000000000000 F
   0.4408400000000000    0.1004400000000000    0.2560400000000000 F
   0.9408100000000000    0.1003000000000000    0.2560500000000000 F
   0.0483500000000000    0.0696600000000000    0.3016700000000000 F
   0.5483400000000000    0.0696900000000000    0.3016700000000000 F
   0.0148200000000000    0.0029700000000000    0.1877300000000000 F
   0.5148000000000000    0.0030400000000000    0.1877400000000000 F
   0.2736600000000000    0.7463000000000000    0.8457000000000000 F
   0.7736700000000000    0.7463000000000000    0.8457700000000000 F
   0.3811600000000000    0.6990200000000000    0.7702599999999999 F
   0.8811700000000000    0.6990200000000000    0.7702700000000000 F
   0.3484800000000000    0.8131400000000000    0.8155200000000000 F
   0.8484900000000000    0.8131400000000000    0.8155300000000000 F
