H4 O2
1.0
  27.9129769179480292    0.0000000000000000    2.3051645446910229
   2.3057527177939101   30.6521565509530163    0.9681524571337665
   0.0000000000000000    0.0000000000000000   30.6960000000000015
H O
4 2
direct
   0.0396880452867309    0.8932111698027511    0.3000830802167239 H
   0.0326833268843204    0.9475587650616952    0.3062908278950691 H
   0.2502538531315733    0.9520347290428004    0.3007529208400224 H
   0.2545509323383635    0.8992140632945144    0.3169556207456065 H
   0.0184900000000000    0.9200100000000000    0.3022900000000000 O
   0.2702100000000000    0.9260250000000000    0.3089900000000000 O
