H3 O2
1.0
  20.3649994758013975    0.0000000000000000   -0.0046206718885470
   0.0143632477861857   35.7879947138949177   -0.0131169867931005
   0.0000000000000000    0.0000000000000000   39.6899999999999977
H O
3 2
direct
   0.2817773525247770    0.8787291004258390    0.3232161175104069 H
   0.4600862687700121    0.8440491121977380    0.3092867780714451 H
   0.3799166993749225    0.8588106286706825    0.3112396857174817 H
   0.3229700000000000    0.8735250000000000    0.3345600000000000 O
   0.4250000000000000    0.8531150000000001    0.3236550000000000 O
