La32 H574 C761 N64 O192
1.0
  20.3649994758013975    0.0000000000000000   -0.0046206718885470
   0.0143632477861857   35.7879947138949177   -0.0131169867931005
   0.0000000000000000    0.0000000000000000   39.6899999999999977
La H C N O
32 574 761 64 192
direct
   0.5170300000000000    0.6251900000000000    0.1250050000000000 La
   0.4832400000000000    0.3750050000000000    0.3749850000000000 La
   0.5170300000000000    0.1251900000000000    0.6250050000000000 La
   0.4832400000000000    0.8750050000000000    0.8749850000000000 La
   0.5170300000000000    0.6251900000000000    0.6250050000000000 La
   0.4832400000000000    0.3750050000000000    0.8749850000000000 La
   0.5170300000000000    0.1251900000000000    0.1250050000000000 La
   0.4832400000000000    0.8750050000000000    0.3749850000000000 La
   0.9830300000000000    0.8748100000000000    0.3750550000000000 La
   0.0169000000000000    0.6249550000000000    0.6250300000000000 La
   0.9830300000000000    0.3748100000000000    0.8750550000000000 La
   0.0169000000000000    0.1249550000000000    0.1250300000000000 La
   0.2664900000000000    0.1253500000000000    0.6249850000000000 La
   0.2341400000000000    0.3748900000000000    0.8753750000000000 La
   0.2341400000000000    0.8748899999999999    0.3753750000000000 La
   0.2664900000000000    0.6253500000000000    0.1249850000000000 La
   0.7670000000000000    0.1250000000000000    0.6249750000000001 La
   0.7331400000000000    0.8749899999999999    0.3749950000000000 La
   0.7670000000000000    0.6250000000000000    0.1249750000000000 La
   0.7331400000000000    0.3749900000000000    0.8749950000000000 La
   0.2664900000000000    0.1253500000000000    0.1249850000000000 La
   0.2341400000000000    0.3748900000000000    0.3753750000000000 La
   0.2664900000000000    0.6253500000000000    0.6249850000000000 La
   0.2341400000000000    0.8748899999999999    0.8753750000000000 La
   0.9830300000000000    0.8748100000000000    0.8750550000000000 La
   0.0169000000000000    0.6249550000000000    0.1250300000000000 La
   0.9830300000000000    0.3748100000000000    0.3750550000000000 La
   0.0169000000000000    0.1249550000000000    0.6250300000000000 La
   0.7670000000000000    0.6250000000000000    0.6249750000000001 La
   0.7331400000000000    0.3749900000000000    0.3749950000000000 La
   0.7670000000000000    0.1250000000000000    0.1249750000000000 La
   0.7331400000000000    0.8749899999999999    0.8749950000000000 La
   0.6050600000000000    0.5300549999999999    0.2445000000000000 H
   0.6199300000000000    0.5605400000000000    0.1894000000000000 H
   0.4359500000000000    0.5264150000000000    0.1562800000000000 H
   0.4124100000000000    0.4938750000000000    0.2098300000000000 H
   0.5636000000000000    0.4739050000000000    0.3439500000000000 H
   0.5872500000000000    0.5064000000000000    0.2903900000000000 H
   0.3799600000000000    0.4394250000000000    0.3106300000000000 H
   0.3949800000000000    0.4698300000000000    0.2552100000000000 H
   0.3799600000000000    0.8106200000000000    0.9392600000000000 H
   0.3950600000000000    0.7802549999999999    0.9947050000000000 H
   0.5634800000000000    0.7759600000000000    0.9058999999999999 H
   0.5872100000000000    0.7435000000000000    0.9594800000000000 H
   0.6200300000000000    0.6893500000000000    0.0604400000000000 H
   0.6049500000000000    0.7196899999999999    0.0000000000000000 H
   0.4367000000000000    0.7242550000000000    0.0938500000000000 H
   0.4129900000000000    0.7566950000000000    0.0402750000000000 H
   0.6050600000000000    0.0300550000000000    0.7444999999999999 H
   0.6199300000000000    0.0605400000000000    0.6894000000000000 H
   0.4359500000000000    0.0264150000000000    0.6562800000000000 H
   0.4124100000000000    0.9938750000000001    0.7098300000000000 H
   0.5636000000000000    0.9739050000000000    0.8439500000000000 H
   0.5872500000000000    0.0064000000000000    0.7903899999999999 H
   0.3799600000000000    0.9394250000000000    0.8106300000000000 H
   0.3949800000000000    0.9698300000000000    0.7552099999999999 H
   0.3799600000000000    0.3106200000000000    0.4392600000000000 H
   0.3950600000000000    0.2802550000000000    0.4947050000000000 H
   0.5634800000000000    0.2759600000000000    0.4059000000000000 H
   0.5872100000000000    0.2435000000000000    0.4594800000000000 H
   0.6200300000000000    0.1893500000000000    0.5604400000000000 H
   0.6049500000000000    0.2196900000000000    0.5000000000000000 H
   0.4367000000000000    0.2242550000000000    0.5938500000000000 H
   0.4129900000000000    0.2566950000000000    0.5402749999999999 H
   0.6050600000000000    0.5300549999999999    0.7444999999999999 H
   0.6199300000000000    0.5605400000000000    0.6894000000000000 H
   0.4359500000000000    0.5264150000000000    0.6562800000000000 H
   0.4124100000000000    0.4938750000000000    0.7098300000000000 H
   0.5636000000000000    0.4739050000000000    0.8439500000000000 H
   0.5872500000000000    0.5064000000000000    0.7903899999999999 H
   0.3799600000000000    0.4394250000000000    0.8106300000000000 H
   0.3949800000000000    0.4698300000000000    0.7552099999999999 H
   0.3799600000000000    0.8106200000000000    0.4392600000000000 H
   0.3950600000000000    0.7802549999999999    0.4947050000000000 H
   0.5634800000000000    0.7759600000000000    0.4059000000000000 H
   0.5872100000000000    0.7435000000000000    0.4594800000000000 H
   0.6200300000000000    0.6893500000000000    0.5604400000000000 H
   0.6049500000000000    0.7196899999999999    0.5000000000000000 H
   0.4367000000000000    0.7242550000000000    0.5938500000000000 H
   0.4129900000000000    0.7566950000000000    0.5402749999999999 H
   0.6050600000000000    0.0300550000000000    0.2445000000000000 H
   0.6199300000000000    0.0605400000000000    0.1894000000000000 H
   0.4359500000000000    0.0264150000000000    0.1562800000000000 H
   0.4124100000000000    0.9938750000000001    0.2098300000000000 H
   0.5636000000000000    0.9739050000000000    0.3439500000000000 H
   0.5872500000000000    0.0064000000000000    0.2903900000000000 H
   0.3799600000000000    0.9394250000000000    0.3106300000000000 H
   0.3949800000000000    0.9698300000000000    0.2552100000000000 H
   0.3799600000000000    0.3106200000000000    0.9392600000000000 H
   0.3950600000000000    0.2802550000000000    0.9947050000000000 H
   0.5634800000000000    0.2759600000000000    0.9058999999999999 H
   0.5872100000000000    0.2435000000000000    0.9594800000000000 H
   0.6200300000000000    0.1893500000000000    0.0604400000000000 H
   0.6049500000000000    0.2196900000000000    0.0000000000000000 H
   0.4367000000000000    0.2242550000000000    0.0938500000000000 H
   0.4129900000000000    0.2566950000000000    0.0402750000000000 H
   0.8144800000000000    0.0698900000000000    0.7308200000000000 H
   0.8468400000000000    0.0535050000000000    0.7897000000000001 H
   0.9544400000000000    0.0747950000000000    0.8122700000000000 H
   0.9975700000000000    0.1274400000000000    0.7170799999999999 H
   0.0297000000000000    0.1123200000000000    0.7760000000000000 H
   0.0638500000000000    0.1797050000000000    0.7310449999999999 H
   0.0962100000000000    0.1961700000000000    0.7899400000000000 H
   0.2042400000000000    0.1753500000000000    0.8123250000000000 H
   0.2476800000000000    0.1229000000000000    0.7170449999999999 H
   0.2798800000000000    0.1381450000000000    0.7759350000000000 H
   0.3146900000000000    0.0708750000000000    0.7306500000000000 H
   0.3473200000000000    0.0539150000000000    0.7894150000000000 H
   0.4552300000000000    0.0747450000000000    0.8119050000000000 H
   0.4980800000000000    0.1281500000000000    0.7170250000000000 H
   0.5305299999999999    0.1124300000000000    0.7757750000000000 H
   0.5649200000000000    0.1801750000000000    0.7309200000000000 H
   0.5975000000000000    0.1964950000000000    0.7898000000000001 H
   0.7051200000000000    0.1750650000000000    0.8122500000000000 H
   0.7478000000000000    0.1223500000000000    0.7170000000000000 H
   0.7801800000000000    0.1374300000000000    0.7758950000000000 H
   0.8144800000000000    0.5698900000000000    0.2308200000000000 H
   0.8468400000000000    0.5535050000000000    0.2897000000000000 H
   0.9544400000000000    0.5747949999999999    0.3122700000000000 H
   0.9975700000000000    0.6274400000000000    0.2170800000000000 H
   0.0297000000000000    0.6123200000000000    0.2760000000000000 H
   0.0638500000000000    0.6797050000000000    0.2310450000000000 H
   0.0962100000000000    0.6961700000000000    0.2899400000000000 H
   0.2042400000000000    0.6753500000000000    0.3123250000000000 H
   0.2476800000000000    0.6229000000000000    0.2170450000000000 H
   0.2798800000000000    0.6381450000000000    0.2759350000000000 H
   0.3146900000000000    0.5708750000000000    0.2306500000000000 H
   0.3473200000000000    0.5539150000000000    0.2894150000000000 H
   0.4552300000000000    0.5747450000000001    0.3119050000000000 H
   0.4980800000000000    0.6281500000000000    0.2170250000000000 H
   0.5305299999999999    0.6124300000000000    0.2757750000000000 H
   0.5649200000000000    0.6801750000000000    0.2309200000000000 H
   0.5975000000000000    0.6964950000000000    0.2898000000000000 H
   0.7051200000000000    0.6750650000000000    0.3122500000000000 H
   0.7478000000000000    0.6223500000000000    0.2170000000000000 H
   0.7801800000000000    0.6374299999999999    0.2758950000000000 H
   0.1201900000000000    0.6895700000000000    0.5608400000000000 H
   0.1050800000000000    0.7200050000000000    0.5000000000000000 H
   0.9364500000000000    0.7239050000000000    0.5941300000000000 H
   0.9126800000000000    0.7564000000000000    0.5405700000000000 H
   0.0872400000000000    0.7436450000000000    0.4599250000000000 H
   0.0635200000000000    0.7760500000000000    0.4063000000000000 H
   0.8797400000000000    0.8104250000000000    0.4395300000000000 H
   0.8948000000000000    0.7800700000000000    0.4949800000000000 H
   0.1200000000000000    0.5605700000000000    0.6894300000000000 H
   0.1049600000000000    0.5301250000000000    0.7448250000000000 H
   0.9365300000000000    0.5259600000000000    0.6560100000000000 H
   0.9128600000000000    0.4934200000000000    0.7095500000000000 H
   0.8801600000000001    0.4391900000000000    0.8105000000000000 H
   0.8951300000000000    0.4696050000000000    0.7550800000000000 H
   0.0636600000000000    0.4738350000000000    0.8435000000000000 H
   0.0872600000000000    0.5063400000000000    0.7902950000000000 H
   0.1201900000000000    0.1895700000000000    0.0608400000000000 H
   0.1050800000000000    0.2200050000000000    0.0000000000000000 H
   0.9364500000000000    0.2239050000000000    0.0941300000000000 H
   0.9126800000000000    0.2564000000000000    0.0405700000000000 H
   0.0872400000000000    0.2436450000000000    0.9599249999999999 H
   0.0635200000000000    0.2760500000000000    0.9063000000000000 H
   0.8797400000000000    0.3104250000000000    0.9395300000000000 H
   0.8948000000000000    0.2800700000000000    0.9949800000000000 H
   0.1200000000000000    0.0605700000000000    0.1894300000000000 H
   0.1049600000000000    0.0301250000000000    0.2448250000000000 H
   0.9365300000000000    0.0259600000000000    0.1560100000000000 H
   0.9128600000000000    0.9934200000000000    0.2095500000000000 H
   0.8801600000000001    0.9391900000000000    0.3105000000000000 H
   0.8951300000000000    0.9696050000000001    0.2550800000000000 H
   0.0636600000000000    0.9738350000000000    0.3435000000000000 H
   0.0872600000000000    0.0063400000000000    0.2902950000000000 H
   0.1861000000000000    0.3203750000000000    0.9809350000000000 H
   0.1539800000000000    0.3039250000000000    0.0398600000000000 H
   0.0460900000000000    0.3248200000000000    0.0623600000000000 H
   0.0023300000000000    0.3773150000000000    0.9671500000000000 H
   0.9703800000000000    0.3620850000000000    0.0260700000000000 H
   0.9357200000000000    0.4298100000000000    0.9810000000000000 H
   0.9033600000000001    0.4461300000000000    0.0399300000000000 H
   0.7956100000000000    0.4249800000000000    0.0623550000000000 H
   0.7523900000000000    0.3725400000000000    0.9670350000000000 H
   0.7202200000000000    0.3876150000000000    0.0259650000000000 H
   0.6858600000000000    0.3198950000000000    0.9807900000000001 H
   0.6536500000000000    0.3034650000000000    0.0397000000000000 H
   0.5026700000000000    0.3774650000000000    0.9671500000000000 H
   0.4706600000000000    0.3623050000000000    0.0260800000000000 H
   0.5460600000000000    0.3247350000000000    0.0622950000000000 H
   0.4365200000000000    0.4299700000000000    0.9810500000000000 H
   0.4042400000000000    0.4465350000000000    0.0399600000000000 H
   0.2965300000000000    0.4254700000000000    0.0624900000000000 H
   0.2532400000000000    0.3725550000000000    0.9673950000000000 H
   0.2211200000000000    0.3879200000000000    0.0262700000000000 H
   0.1861000000000000    0.8203750000000001    0.4809350000000000 H
   0.1539800000000000    0.8039250000000000    0.5398600000000000 H
   0.0460900000000000    0.8248200000000000    0.5623600000000000 H
   0.0023300000000000    0.8773150000000001    0.4671500000000000 H
   0.9703800000000000    0.8620850000000000    0.5260700000000000 H
   0.9357200000000000    0.9298100000000000    0.4810000000000000 H
   0.9033600000000001    0.9461300000000000    0.5399300000000000 H
   0.7956100000000000    0.9249800000000000    0.5623550000000000 H
   0.7523900000000000    0.8725400000000000    0.4670350000000000 H
   0.7202200000000000    0.8876150000000000    0.5259650000000000 H
   0.6858600000000000    0.8198950000000000    0.4807900000000000 H
   0.6536500000000000    0.8034650000000000    0.5397000000000000 H
   0.5026700000000000    0.8774649999999999    0.4671500000000000 H
   0.4706600000000000    0.8623050000000000    0.5260800000000000 H
   0.5460600000000000    0.8247350000000000    0.5622950000000000 H
   0.4365200000000000    0.9299700000000000    0.4810500000000000 H
   0.4042400000000000    0.9465350000000000    0.5399600000000000 H
   0.2965300000000000    0.9254700000000000    0.5624900000000000 H
   0.2532400000000000    0.8725550000000000    0.4673950000000000 H
   0.2211200000000000    0.8879200000000000    0.5262700000000000 H
   0.3142700000000000    0.6800100000000000    0.0192100000000000 H
   0.3464700000000000    0.6964049999999999    0.9602800000000000 H
   0.4540800000000000    0.6751500000000000    0.9377100000000000 H
   0.4975200000000000    0.6225000000000001    0.0328850000000000 H
   0.5295100000000000    0.6376250000000000    0.9739500000000000 H
   0.5643000000000000    0.5701300000000000    0.0190600000000000 H
   0.5966300000000000    0.5537650000000000    0.9601299999999999 H
   0.7043700000000001    0.5749100000000000    0.9376800000000001 H
   0.7476300000000000    0.6274299999999999    0.0329550000000000 H
   0.7797700000000000    0.6123050000000000    0.9740000000000000 H
   0.0643000000000000    0.5700850000000000    0.0189500000000000 H
   0.0969200000000000    0.5536400000000000    0.9600850000000001 H
   0.2047700000000000    0.5747450000000001    0.9377500000000000 H
   0.2475400000000000    0.6274200000000000    0.0330100000000000 H
   0.2799800000000000    0.6122100000000000    0.9741550000000000 H
   0.8143600000000000    0.6799150000000000    0.0190650000000000 H
   0.8467900000000000    0.6963000000000000    0.9601700000000000 H
   0.9545800000000000    0.6751450000000000    0.9377450000000001 H
   0.9977100000000000    0.6225750000000000    0.0329500000000000 H
   0.0299200000000000    0.6377200000000001    0.9740949999999999 H
   0.3142700000000000    0.1800100000000000    0.5192099999999999 H
   0.3464700000000000    0.1964050000000000    0.4602800000000000 H
   0.4540800000000000    0.1751500000000000    0.4377100000000000 H
   0.4975200000000000    0.1225000000000000    0.5328850000000001 H
   0.5295100000000000    0.1376250000000000    0.4739500000000000 H
   0.5643000000000000    0.0701300000000000    0.5190600000000000 H
   0.5966300000000000    0.0537650000000000    0.4601300000000000 H
   0.7043700000000001    0.0749100000000000    0.4376800000000000 H
   0.7476300000000000    0.1274300000000000    0.5329550000000000 H
   0.7797700000000000    0.1123050000000000    0.4740000000000000 H
   0.0643000000000000    0.0700850000000000    0.5189500000000000 H
   0.0969200000000000    0.0536400000000000    0.4600850000000000 H
   0.2047700000000000    0.0747450000000000    0.4377500000000000 H
   0.2475400000000000    0.1274200000000000    0.5330100000000000 H
   0.2799800000000000    0.1122100000000000    0.4741550000000000 H
   0.8143600000000000    0.1799150000000000    0.5190650000000000 H
   0.8467900000000000    0.1963000000000000    0.4601700000000000 H
   0.9545800000000000    0.1751450000000000    0.4377450000000000 H
   0.9977100000000000    0.1225750000000000    0.5329500000000000 H
   0.0299200000000000    0.1377200000000000    0.4740950000000000 H
   0.3707800000000000    0.5608300000000001    0.0612400000000000 H
   0.3563600000000000    0.5305150000000000    0.0000000000000000 H
   0.1868400000000000    0.5262300000000000    0.0939600000000000 H
   0.1637800000000000    0.4938150000000000    0.0402650000000000 H
   0.1319700000000000    0.4397950000000000    0.9392300000000000 H
   0.1463800000000000    0.4702950000000000    0.9946699999999999 H
   0.3160800000000000    0.4740700000000000    0.9064900000000000 H
   0.3391600000000000    0.5066650000000000    0.9601100000000000 H
   0.3689900000000000    0.1901350000000000    0.6886000000000000 H
   0.3553000000000000    0.2202850000000000    0.7442500000000000 H
   0.1841000000000000    0.2242750000000000    0.6568000000000001 H
   0.1617400000000000    0.2565300000000000    0.7106600000000000 H
   0.1311700000000000    0.3099850000000000    0.8120750000000000 H
   0.1449000000000000    0.2798050000000000    0.7564350000000000 H
   0.3160900000000000    0.2759300000000000    0.8435000000000000 H
   0.3385200000000000    0.2436650000000000    0.7900450000000000 H
   0.3707800000000000    0.0608300000000000    0.5612400000000000 H
   0.3563600000000000    0.0305150000000000    0.5000000000000000 H
   0.1868400000000000    0.0262300000000000    0.5939600000000000 H
   0.1637800000000000    0.9938150000000000    0.5402650000000000 H
   0.1319700000000000    0.9397949999999999    0.4392300000000000 H
   0.1463800000000000    0.9702950000000000    0.4946700000000000 H
   0.3160800000000000    0.9740700000000000    0.4064900000000000 H
   0.3391600000000000    0.0066650000000000    0.4601100000000000 H
   0.9356200000000000    0.8201000000000001    0.2690200000000000 H
   0.9032800000000000    0.8038400000000000    0.2100700000000000 H
   0.7955700000000000    0.8250999999999999    0.1876150000000000 H
   0.7523600000000000    0.8775250000000000    0.2829350000000000 H
   0.7202000000000000    0.8625100000000000    0.2239900000000000 H
   0.1860400000000000    0.9297650000000000    0.2701400000000000 H
   0.1544600000000000    0.9465300000000000    0.2112000000000000 H
   0.0471500000000000    0.9254100000000001    0.1881850000000000 H
   0.0029300000000000    0.8719600000000001    0.2828500000000000 H
   0.9714699999999999    0.8875700000000000    0.2239650000000000 H
   0.6857300000000000    0.9299999999999999    0.2691600000000000 H
   0.6534500000000000    0.9463900000000001    0.2102350000000000 H
   0.5458200000000000    0.9251600000000000    0.1876500000000000 H
   0.5025200000000000    0.8725550000000000    0.2828750000000000 H
   0.4704400000000000    0.8876850000000001    0.2239400000000000 H
   0.2817773525247770    0.8787291004258390    0.3232161175104069 H
   0.4600862687700121    0.8440491121977380    0.3092867780714451 H
   0.3799166993749225    0.8588106286706825    0.3112396857174817 H
   0.3689900000000000    0.6901349999999999    0.1886000000000000 H
   0.3553000000000000    0.7202850000000001    0.2442500000000000 H
   0.1841000000000000    0.7242750000000000    0.1568000000000000 H
   0.1617400000000000    0.7565299999999999    0.2106600000000000 H
   0.1311700000000000    0.8099850000000000    0.3120750000000000 H
   0.1449000000000000    0.7798050000000001    0.2564350000000000 H
   0.3160900000000000    0.7759300000000000    0.3435000000000000 H
   0.3385200000000000    0.7436650000000000    0.2900450000000000 H
   0.1860400000000000    0.4297650000000000    0.7701400000000000 H
   0.1544600000000000    0.4465300000000000    0.7112000000000001 H
   0.0471500000000000    0.4254100000000000    0.6881850000000000 H
   0.0029300000000000    0.3719600000000000    0.7828500000000000 H
   0.9714699999999999    0.3875700000000000    0.7239650000000000 H
   0.4359400000000000    0.3203400000000000    0.7688900000000001 H
   0.4032400000000000    0.3039000000000000    0.7100299999999999 H
   0.2950800000000000    0.3247350000000000    0.6878250000000000 H
   0.2522400000000000    0.3771750000000000    0.7831800000000000 H
   0.2196600000000000    0.3619500000000000    0.7243350000000000 H
   0.6857300000000000    0.4300000000000000    0.7691600000000001 H
   0.6534500000000000    0.4463900000000000    0.7102349999999999 H
   0.5458200000000000    0.4251600000000000    0.6876500000000000 H
   0.5025200000000000    0.3725550000000000    0.7828750000000000 H
   0.4704400000000000    0.3876850000000000    0.7239400000000000 H
   0.9356200000000000    0.3201000000000000    0.7690200000000000 H
   0.9032800000000000    0.3038400000000000    0.7100700000000000 H
   0.7955700000000000    0.3251000000000000    0.6876150000000000 H
   0.7523600000000000    0.3775250000000000    0.7829349999999999 H
   0.7202000000000000    0.3625100000000000    0.7239900000000000 H
   0.6865800000000000    0.2240850000000000    0.6559850000000000 H
   0.6629000000000000    0.2565900000000000    0.7095650000000000 H
   0.8701000000000000    0.1894150000000000    0.6893600000000000 H
   0.8550500000000000    0.2198300000000000    0.7448000000000000 H
   0.8135400000000000    0.2760100000000000    0.8439400000000000 H
   0.8372800000000000    0.2435950000000000    0.7903249999999999 H
   0.6299500000000000    0.3106050000000000    0.8106000000000000 H
   0.6450600000000000    0.2802750000000000    0.7551300000000001 H
   0.8701300000000000    0.0604650000000000    0.5606449999999999 H
   0.8550600000000000    0.0300600000000000    0.5000000000000000 H
   0.6864800000000000    0.0260500000000000    0.5939300000000000 H
   0.6627500000000000    0.9935800000000000    0.5403400000000000 H
   0.8135000000000000    0.9739400000000000    0.4060450000000000 H
   0.8372200000000000    0.0063800000000000    0.4596550000000000 H
   0.6299000000000000    0.9394450000000000    0.4393400000000000 H
   0.6449800000000000    0.9698100000000001    0.4948000000000000 H
   0.6865800000000000    0.7240850000000000    0.1559850000000000 H
   0.6629000000000000    0.7565900000000000    0.2095650000000000 H
   0.8701000000000000    0.6894150000000000    0.1893600000000000 H
   0.8550500000000000    0.7198300000000000    0.2448000000000000 H
   0.8135400000000000    0.7760100000000000    0.3439400000000000 H
   0.8372800000000000    0.7435950000000000    0.2903250000000000 H
   0.6299500000000000    0.8106050000000000    0.3106000000000000 H
   0.6450600000000000    0.7802750000000001    0.2551300000000000 H
   0.8701300000000000    0.5604650000000000    0.0606450000000000 H
   0.8550600000000000    0.5300600000000000    0.0000000000000000 H
   0.6864800000000000    0.5260500000000000    0.0939300000000000 H
   0.6627500000000000    0.4935800000000000    0.0403400000000000 H
   0.8135000000000000    0.4739400000000000    0.9060450000000000 H
   0.8372200000000000    0.5063800000000001    0.9596549999999999 H
   0.6299000000000000    0.4394450000000000    0.9393400000000001 H
   0.6449800000000000    0.4698100000000000    0.9948000000000000 H
   0.8144800000000000    0.5698900000000000    0.7308200000000000 H
   0.8468400000000000    0.5535050000000000    0.7897000000000001 H
   0.9544400000000000    0.5747949999999999    0.8122700000000000 H
   0.9975700000000000    0.6274400000000000    0.7170799999999999 H
   0.0297000000000000    0.6123200000000000    0.7760000000000000 H
   0.0638500000000000    0.6797050000000000    0.7310449999999999 H
   0.0962100000000000    0.6961700000000000    0.7899400000000000 H
   0.2042400000000000    0.6753500000000000    0.8123250000000000 H
   0.2476800000000000    0.6229000000000000    0.7170449999999999 H
   0.2798800000000000    0.6381450000000000    0.7759350000000000 H
   0.3146900000000000    0.5708750000000000    0.7306500000000000 H
   0.3473200000000000    0.5539150000000000    0.7894150000000000 H
   0.4552300000000000    0.5747450000000001    0.8119050000000000 H
   0.4980800000000000    0.6281500000000000    0.7170250000000000 H
   0.5305299999999999    0.6124300000000000    0.7757750000000000 H
   0.5649200000000000    0.6801750000000000    0.7309200000000000 H
   0.5975000000000000    0.6964950000000000    0.7898000000000001 H
   0.7051200000000000    0.6750650000000000    0.8122500000000000 H
   0.7478000000000000    0.6223500000000000    0.7170000000000000 H
   0.7801800000000000    0.6374299999999999    0.7758950000000000 H
   0.8144800000000000    0.0698900000000000    0.2308200000000000 H
   0.8468400000000000    0.0535050000000000    0.2897000000000000 H
   0.9544400000000000    0.0747950000000000    0.3122700000000000 H
   0.9975700000000000    0.1274400000000000    0.2170800000000000 H
   0.0297000000000000    0.1123200000000000    0.2760000000000000 H
   0.0638500000000000    0.1797050000000000    0.2310450000000000 H
   0.0962100000000000    0.1961700000000000    0.2899400000000000 H
   0.2042400000000000    0.1753500000000000    0.3123250000000000 H
   0.2476800000000000    0.1229000000000000    0.2170450000000000 H
   0.2798800000000000    0.1381450000000000    0.2759350000000000 H
   0.3146900000000000    0.0708750000000000    0.2306500000000000 H
   0.3473200000000000    0.0539150000000000    0.2894150000000000 H
   0.4552300000000000    0.0747450000000000    0.3119050000000000 H
   0.4980800000000000    0.1281500000000000    0.2170250000000000 H
   0.5305299999999999    0.1124300000000000    0.2757750000000000 H
   0.5649200000000000    0.1801750000000000    0.2309200000000000 H
   0.5975000000000000    0.1964950000000000    0.2898000000000000 H
   0.7051200000000000    0.1750650000000000    0.3122500000000000 H
   0.7478000000000000    0.1223500000000000    0.2170000000000000 H
   0.7801800000000000    0.1374300000000000    0.2758950000000000 H
   0.1861000000000000    0.3203750000000000    0.4809350000000000 H
   0.1539800000000000    0.3039250000000000    0.5398600000000000 H
   0.0460900000000000    0.3248200000000000    0.5623600000000000 H
   0.0023300000000000    0.3773150000000000    0.4671500000000000 H
   0.9703800000000000    0.3620850000000000    0.5260700000000000 H
   0.9357200000000000    0.4298100000000000    0.4810000000000000 H
   0.9033600000000001    0.4461300000000000    0.5399300000000000 H
   0.7956100000000000    0.4249800000000000    0.5623550000000000 H
   0.7523900000000000    0.3725400000000000    0.4670350000000000 H
   0.7202200000000000    0.3876150000000000    0.5259650000000000 H
   0.6858600000000000    0.3198950000000000    0.4807900000000000 H
   0.6536500000000000    0.3034650000000000    0.5397000000000000 H
   0.5026700000000000    0.3774650000000000    0.4671500000000000 H
   0.4706600000000000    0.3623050000000000    0.5260800000000000 H
   0.5460600000000000    0.3247350000000000    0.5622950000000000 H
   0.4365200000000000    0.4299700000000000    0.4810500000000000 H
   0.4042400000000000    0.4465350000000000    0.5399600000000000 H
   0.2965300000000000    0.4254700000000000    0.5624900000000000 H
   0.2532400000000000    0.3725550000000000    0.4673950000000000 H
   0.2211200000000000    0.3879200000000000    0.5262700000000000 H
   0.1861000000000000    0.8203750000000001    0.9809350000000000 H
   0.1539800000000000    0.8039250000000000    0.0398600000000000 H
   0.0460900000000000    0.8248200000000000    0.0623600000000000 H
   0.0023300000000000    0.8773150000000001    0.9671500000000000 H
   0.9703800000000000    0.8620850000000000    0.0260700000000000 H
   0.9357200000000000    0.9298100000000000    0.9810000000000000 H
   0.9033600000000001    0.9461300000000000    0.0399300000000000 H
   0.7956100000000000    0.9249800000000000    0.0623550000000000 H
   0.7523900000000000    0.8725400000000000    0.9670350000000000 H
   0.7202200000000000    0.8876150000000000    0.0259650000000000 H
   0.6858600000000000    0.8198950000000000    0.9807900000000001 H
   0.6536500000000000    0.8034650000000000    0.0397000000000000 H
   0.5026700000000000    0.8774649999999999    0.9671500000000000 H
   0.4706600000000000    0.8623050000000000    0.0260800000000000 H
   0.5460600000000000    0.8247350000000000    0.0622950000000000 H
   0.4365200000000000    0.9299700000000000    0.9810500000000000 H
   0.4042400000000000    0.9465350000000000    0.0399600000000000 H
   0.2965300000000000    0.9254700000000000    0.0624900000000000 H
   0.2532400000000000    0.8725550000000000    0.9673950000000000 H
   0.2211200000000000    0.8879200000000000    0.0262700000000000 H
   0.3142700000000000    0.6800100000000000    0.5192099999999999 H
   0.3464700000000000    0.6964049999999999    0.4602800000000000 H
   0.4540800000000000    0.6751500000000000    0.4377100000000000 H
   0.4975200000000000    0.6225000000000001    0.5328850000000001 H
   0.5295100000000000    0.6376250000000000    0.4739500000000000 H
   0.5643000000000000    0.5701300000000000    0.5190600000000000 H