H5 C7 O2
1.0
  20.3649994758013975    0.0000000000000000   -0.0046206718885470
   0.0143632477861857   35.7879947138949177   -0.0131169867931005
   0.0000000000000000    0.0000000000000000   39.6899999999999977
H C O
5 7 2
direct
   0.4359400000000000    0.8203400000000001    0.2688900000000000 H
   0.2522400000000000    0.8771750000000000    0.2831800000000000 H
   0.4032400000000000    0.8039000000000001    0.2100300000000000 H
   0.2950800000000000    0.8247350000000000    0.1878250000000000 H
   0.2196600000000000    0.8619500000000000    0.2243350000000000 H
   0.3464500000000000    0.8501600000000000    0.2793900000000000 C
   0.3889600000000000    0.8294600000000000    0.2586500000000000 C
   0.2854200000000000    0.8616850000000000    0.2668000000000000 C
   0.3705600000000000    0.8204650000000000    0.2258750000000000 C
   0.3097100000000000    0.8322100000000000    0.2133850000000000 C
   0.2673200000000000    0.8528899999999999    0.2338350000000000 C
   0.3659200000000000    0.8593500000000001    0.3147200000000000 C
   0.3229700000000000    0.8735250000000000    0.3345600000000000 O
   0.4250000000000000    0.8531150000000001    0.3236550000000000 O
