H2 O2
1.0
  20.3649994758013975    0.0000000000000000   -0.0046206718885470
   0.0143632477861857   35.7879947138949177   -0.0131169867931005
   0.0000000000000000    0.0000000000000000   39.6899999999999977
H O
2 2
direct
   0.5313655836144594    0.7006618602118122    0.0866298190478088 H
   0.4687003283473830    0.7994301425215755    0.9131105193619973 H
   0.5385600000000000    0.6876800000000001    0.1080100000000000 O
   0.4614700000000000    0.8124150000000000    0.8917349999999999 O
