H8 C10 N2 O2
1.0
  20.3649994758013975    0.0000000000000000   -0.0046206718885470
   0.0143632477861857   35.7879947138949177   -0.0131169867931005
   0.0000000000000000    0.0000000000000000   39.6899999999999977
H C N O
8 10 2 2
direct
   0.4367000000000000    0.7242550000000000    0.0938500000000000 H
   0.6049500000000000    0.7196899999999999    0.0000000000000000 H
   0.4129900000000000    0.7566950000000000    0.0402750000000000 H
   0.6200300000000000    0.6893500000000000    0.0604400000000000 H
   0.5634800000000000    0.7759600000000000    0.9058999999999999 H
   0.3950600000000000    0.7802549999999999    0.9947050000000000 H
   0.5872100000000000    0.7435000000000000    0.9594800000000000 H
   0.3799600000000000    0.8106200000000000    0.9392600000000000 H
   0.4713000000000000    0.7248350000000000    0.0730300000000000 C
   0.5061200000000000    0.7414300000000000    0.0158250000000000 C
   0.5656099999999999    0.7218500000000000    0.0234300000000000 C
   0.4597700000000000    0.7423100000000000    0.0429050000000000 C
   0.5758500000000000    0.7047250000000000    0.0538400000000000 C
   0.5288400000000000    0.7753099999999999    0.9267200000000000 C
   0.4939800000000000    0.7586349999999999    0.9839000000000000 C
   0.4344400000000000    0.7781650000000000    0.9762850000000001 C
   0.5403800000000000    0.7578250000000000    0.9568350000000000 C
   0.4241900000000000    0.7952950000000000    0.9458800000000001 C
   0.5286400000000000    0.7055800000000000    0.0785300000000000 N
   0.4714400000000000    0.7945100000000000    0.9212100000000000 N
   0.5385600000000000    0.6876800000000001    0.1080100000000000 O
   0.4614700000000000    0.8124150000000000    0.8917349999999999 O
