Ag16 H76 C60 N30 O1
1.0
  10.9614963120041864    0.0000000000000000   -0.0089917694915692
  -0.0280626871572231   12.7579667560400036   -0.0077934182242351
   0.0000000000000000    0.0000000000000000   20.0659999999999989
Ag H C N O
16 76 60 30 1
direct
   0.6457900000000000    0.8286100000000000    0.4651100000000000 Ag
   0.3545400000000000    0.8289800000000001    0.0349800000000000 Ag
   0.4994000000000000    0.6881000000000000    0.7499800000000000 Ag
   0.8543300000000000    0.6713500000000000    0.4648900000000000 Ag
   0.1458700000000000    0.6712200000000000    0.0349200000000000 Ag
   0.9996100000000000    0.8121000000000000    0.7501400000000000 Ag
   0.2502700000000000    0.2501900000000000    0.1748500000000000 Ag
   0.7501800000000000    0.2497500000000000    0.3248800000000000 Ag
   0.1454500000000000    0.3286100000000000    0.5350700000000000 Ag
   0.8540100000000000    0.3288500000000000    0.9650000000000000 Ag
   0.0003800000000000    0.1879300000000000    0.2497900000000000 Ag
   0.6452800000000000    0.1711200000000000    0.9650400000000000 Ag
   0.3539800000000000    0.1713300000000000    0.5349000000000000 Ag
   0.5004000000000000    0.3119400000000000    0.2500500000000000 Ag
   0.7494700000000000    0.7498899999999999    0.8251200000000000 Ag
   0.2495300000000000    0.7501900000000000    0.6751200000000001 Ag
   0.5654000000000000    0.8835600000000000    0.6825700000000000 H
   0.5560500000000000    0.9305800000000000    0.5996100000000000 H
   0.6994100000000000    0.8901300000000000    0.6321900000000000 H
   0.5684900000000001    0.5804300000000000    0.4979200000000000 H
   0.5105200000000000    0.5193800000000000    0.6269300000000000 H
   0.6787400000000000    0.0430600000000000    0.5014000000000000 H
   0.6401000000000000    0.1623100000000000    0.4605300000000000 H
   0.7959400000000000    0.1283500000000000    0.4726400000000000 H
   0.7362800000000000    0.0229000000000000    0.2367400000000000 H
   0.6896099999999999    0.8355800000000000    0.3018100000000000 H
   0.4326800000000000    0.8832800000000000    0.8171500000000000 H
   0.4436900000000000    0.9308200000000000    0.8999800000000000 H
   0.2996300000000000    0.8899200000000000    0.8682500000000000 H
   0.4317200000000000    0.5810600000000000    0.0021800000000000 H
   0.4887700000000000    0.5197600000000000    0.8731100000000001 H
   0.3192500000000000    0.0425200000000000    0.0000000000000000 H
   0.3601000000000000    0.1618400000000000    0.0387800000000000 H
   0.2036200000000000    0.1285400000000000    0.0276800000000000 H
   0.2649600000000000    0.0239500000000000    0.2632700000000000 H
   0.3122300000000000    0.8365800000000000    0.1984800000000000 H
   0.9323399999999999    0.6168200000000000    0.6827900000000000 H
   0.9439100000000000    0.5694200000000000    0.5999800000000000 H
   0.7996200000000000    0.6097100000000000    0.6313100000000000 H
   0.9318300000000000    0.9194400000000000    0.4979900000000000 H
   0.9892500000000000    0.9806400000000000    0.6271500000000000 H
   0.8203000000000000    0.4574700000000000    0.5013200000000000 H
   0.8599700000000000    0.3381400000000000    0.4607900000000000 H
   0.7038300000000000    0.3716000000000000    0.4722100000000000 H
   0.7646700000000000    0.4761400000000000    0.2364600000000000 H
   0.8114900000000000    0.6637400000000000    0.3013500000000000 H
   0.0656800000000000    0.6168300000000000    0.8172500000000000 H
   0.0557700000000000    0.5693800000000000    0.9000899999999999 H
   0.1993900000000000    0.6103100000000000    0.8679600000000000 H
   0.0108500000000000    0.9804100000000000    0.8734300000000000 H
   0.0684800000000000    0.9191700000000000    0.0024100000000000 H
   0.1793800000000000    0.4571500000000000    0.0000000000000000 H
   0.1399600000000000    0.3378100000000000    0.0390800000000000 H
   0.2960200000000000    0.3717700000000000    0.0273200000000000 H
   0.2367400000000000    0.4767700000000000    0.2631600000000000 H
   0.1899400000000000    0.6640900000000000    0.1982500000000000 H
   0.2106740251896875    0.5531041036414285    0.6206569694028794 H
   0.0677100000000000    0.3830800000000000    0.3171300000000000 H
   0.0561500000000000    0.4305200000000000    0.3999400000000000 H
   0.2004200000000000    0.3901600000000000    0.3686200000000000 H
   0.0108000000000000    0.0194800000000000    0.3727700000000000 H
   0.0680200000000000    0.0805200000000000    0.5019600000000000 H
   0.9343600000000000    0.3833100000000000    0.1826600000000000 H
   0.9444100000000000    0.4307300000000000    0.0998100000000000 H
   0.8007200000000000    0.3899200000000000    0.1319100000000000 H
   0.9312100000000000    0.0808800000000000    0.9975500000000000 H
   0.9892900000000000    0.0195500000000000    0.1264800000000000 H
   0.8202500000000000    0.5428400000000000    0.0015400000000000 H
   0.8599300000000000    0.6621600000000000    0.9609200000000000 H
   0.7038000000000000    0.6283600000000000    0.9725700000000000 H
   0.7630600000000000    0.5233300000000000    0.7367700000000000 H
   0.8100600000000000    0.3360200000000000    0.8016600000000000 H
   0.5673899999999999    0.1168700000000000    0.1829000000000000 H
   0.5562000000000000    0.0692700000000000    0.1000900000000000 H
   0.7003200000000001    0.1102400000000000    0.1317100000000000 H
   0.5680100000000000    0.4190500000000000    0.9978399999999999 H
   0.5109100000000000    0.4803100000000000    0.1269000000000000 H
   0.6802500000000000    0.9574800000000000    0.0016200000000000 H
   0.6396200000000000    0.8381400000000000    0.9611700000000000 H
   0.7960400000000000    0.8715600000000000    0.9723700000000000 H
   0.7348700000000000    0.9761500000000000    0.7367500000000000 H
   0.6876800000000000    0.1635200000000000    0.8015600000000001 H
   0.4346000000000000    0.1163900000000000    0.3174700000000000 H
   0.4437200000000000    0.0693900000000000    0.4004500000000000 H
   0.3004600000000000    0.1098500000000000    0.3677500000000000 H
   0.4313000000000000    0.4195000000000000    0.5021200000000000 H
   0.4893300000000000    0.4805800000000000    0.3731300000000000 H
   0.3205400000000000    0.9569900000000000    0.4985700000000000 H
   0.3595700000000000    0.8377800000000000    0.5393700000000000 H
   0.2036200000000000    0.8715300000000000    0.5274500000000000 H
   0.2636200000000000    0.9770000000000000    0.7632800000000000 H
   0.3103100000000000    0.1643300000000000    0.6982300000000000 H
   0.6009400000000000    0.8728399999999999    0.6319500000000000 C
   0.5776900000000000    0.7640700000000000    0.6084600000000000 C
   0.5644900000000000    0.6258300000000000    0.5435400000000000 C
   0.5374300000000000    0.5953000000000001    0.6075700000000001 C
   0.7048800000000000    0.0966400000000000    0.4610300000000000 C
   0.7058200000000000    0.0400200000000000    0.3961300000000000 C
   0.7224200000000000    0.0072200000000000    0.2892300000000000 C
   0.7000400000000000    0.9141899999999999    0.3215400000000000 C
   0.3980500000000000    0.8728000000000000    0.8679900000000000 C
   0.4215600000000000    0.7642300000000000    0.8915300000000000 C
   0.4353400000000000    0.6262900000000000    0.9565300000000000 C
   0.4619500000000000    0.5956399999999999    0.8924800000000001 C
   0.2945300000000000    0.0964900000000000    0.0387900000000000 C
   0.2942400000000000    0.0402700000000000    0.1038000000000000 C
   0.2786000000000000    0.0080300000000000    0.2107900000000000 C
   0.3012300000000000    0.9149700000000000    0.1786100000000000 C
   0.8980399999999999    0.6272200000000000    0.6318700000000000 C
   0.9216299999999999    0.7359300000000000    0.6084600000000000 C
   0.9355100000000000    0.8740900000000000    0.5436100000000000 C
   0.9622400000000000    0.9046500000000000    0.6077100000000000 C
   0.7948499999999999    0.4035700000000000    0.4609200000000000 C
   0.7943400000000000    0.4598300000000000    0.3959300000000000 C
   0.7783400000000000    0.4920900000000000    0.2889600000000000 C
   0.8007500000000000    0.5852700000000000    0.3211900000000000 C
   0.1009600000000000    0.6273800000000000    0.8679900000000000 C
   0.0777500000000000    0.7359800000000000    0.8916300000000000 C
   0.0375400000000000    0.9045900000000000    0.8927300000000000 C
   0.0645200000000000    0.8739300000000000    0.9567400000000000 C
   0.2051000000000000    0.4034700000000000    0.0387800000000000 C
   0.2060800000000000    0.4599300000000000    0.1037400000000000 C
   0.2227800000000000    0.4925400000000000    0.2106800000000000 C
   0.2003900000000000    0.5855700000000000    0.1784400000000000 C
   0.1019900000000000    0.3726900000000000    0.3680600000000000 C
   0.0783700000000000    0.2639900000000000    0.3914800000000000 C
   0.0376900000000000    0.0952800000000000    0.3922300000000000 C
   0.0643900000000000    0.1258500000000000    0.4563400000000000 C
   0.8991300000000000    0.3727700000000000    0.1319100000000000 C
   0.9222000000000000    0.2641400000000000    0.1083000000000000 C
   0.9352600000000000    0.1261400000000000    0.0432100000000000 C
   0.9623100000000000    0.0955100000000000    0.1072200000000000 C
   0.7946900000000000    0.5965700000000000    0.9611600000000000 C
   0.7937400000000000    0.5401400000000000    0.8961900000000000 C
   0.7770700000000000    0.5075499999999999    0.7892500000000000 C
   0.7995700000000000    0.4145300000000000    0.8214700000000000 C
   0.6018900000000000    0.1273300000000000    0.1320400000000000 C
   0.5783000000000000    0.2358900000000000    0.1084900000000000 C
   0.5644300000000000    0.3738200000000000    0.0434800000000000 C
   0.5377999999999999    0.4044500000000000    0.1075400000000000 C
   0.7051100000000000    0.9035500000000000    0.9612100000000000 C
   0.7054700000000000    0.9597900000000000    0.8962100000000000 C
   0.7211900000000000    0.9920500000000000    0.7892200000000000 C
   0.6986100000000000    0.0851200000000000    0.8214200000000000 C
   0.3989300000000000    0.1271200000000000    0.3680600000000000 C
   0.4221300000000000    0.2358900000000000    0.3915600000000000 C
   0.4353300000000000    0.3741100000000000    0.4565000000000000 C
   0.4624200000000000    0.4046600000000000    0.3924800000000000 C
   0.2946500000000000    0.9033600000000001    0.5389600000000000 C
   0.2938600000000000    0.9599400000000000    0.6038800000000000 C
   0.2774300000000000    0.9927000000000000    0.7107900000000000 C
   0.2997900000000000    0.0857300000000000    0.6784800000000000 C
   0.5890800000000000    0.7325000000000000    0.5442900000000001 N
   0.5458499999999999    0.6828000000000000    0.6484000000000000 N
   0.7254600000000000    0.0864700000000000    0.3363800000000000 N
   0.6895700000000000    0.9350600000000000    0.3891300000000000 N
   0.4106400000000000    0.7328500000000000    0.9557400000000000 N
   0.4531200000000000    0.6829300000000000    0.8515700000000000 N
   0.2747800000000000    0.0869400000000000    0.1635000000000000 N
   0.3111100000000000    0.9354800000000000    0.1109600000000000 N
   0.9106300000000001    0.7674600000000000    0.5442800000000000 N
   0.9533500000000000    0.8172199999999999    0.6485100000000000 N
   0.7748600000000000    0.4131000000000000    0.3362000000000000 N
   0.8108200000000000    0.5647500000000000    0.3888300000000000 N
   0.0891000000000000    0.7673500000000000    0.9558500000000000 N
   0.0459600000000000    0.8172800000000000    0.8517600000000000 N
   0.2258300000000000    0.4134200000000000    0.1634600000000000 N
   0.1898400000000000    0.5648200000000000    0.1108300000000000 N
   0.0892900000000000    0.2324800000000000    0.4556600000000000 N
   0.0466100000000000    0.1827000000000000    0.3514300000000000 N
   0.9107499999999999    0.2327300000000000    0.0440800000000000 N
   0.9540200000000000    0.1828500000000000    0.1481600000000000 N
   0.7739300000000000    0.5866500000000000    0.8364800000000000 N
   0.8101200000000000    0.4352700000000000    0.8890800000000000 N
   0.5891900000000000    0.2672600000000000    0.0442800000000000 N
   0.5466700000000000    0.3171700000000000    0.1484400000000000 N
   0.7249500000000000    0.9131300000000000    0.8365000000000000 N
   0.6886900000000000    0.0645900000000000    0.8890600000000000 N
   0.4107300000000000    0.2674400000000000    0.4557300000000000 N
   0.4540200000000000    0.3171700000000000    0.3516300000000000 N
   0.2742900000000000    0.9134700000000000    0.6636300000000001 N
   0.3101700000000000    0.0649000000000000    0.6108900000000000 N
   0.2247300000000000    0.5868500000000000    0.6637999999999999 O
