Zn64 H194 C376 O208
1.0
  31.9972803322303498    0.0000000000000000   18.5310179790713221
   5.3178670128141423   15.0710329908752971    9.2687582783224869
   0.0000000000000000    0.0000000000000000   36.9020000000000010
Zn H C O
64 194 376 208
direct
   0.6073700000000000    0.3884100000000000    0.6942800000000000 Zn
   0.6941800000000000    0.2146400000000000    0.6943300000000000 Zn
   0.6941400000000000    0.3885600000000000    0.6943950000000000 Zn
   0.6942699999999999    0.3886500000000000    0.6071500000000000 Zn
   0.9876600000000000    0.8014300000000000    0.4006150000000000 Zn
   0.9007250000000000    0.9755900000000000    0.4006200000000000 Zn
   0.9007450000000000    0.8014400000000000    0.4006750000000000 Zn
   0.9006449999999999    0.8012500000000000    0.4879900000000000 Zn
   0.6073700000000000    0.3884100000000000    0.1942800000000000 Zn
   0.6941800000000000    0.2146400000000000    0.1943300000000000 Zn
   0.6941400000000000    0.3885600000000000    0.1943950000000000 Zn
   0.6942699999999999    0.3886500000000000    0.1071500000000000 Zn
   0.9876600000000000    0.8014300000000000    0.9006149999999999 Zn
   0.9007250000000000    0.9755900000000000    0.9006200000000000 Zn
   0.9007450000000000    0.8014400000000000    0.9006750000000000 Zn
   0.9006449999999999    0.8012500000000000    0.9879899999999999 Zn
   0.1073700000000000    0.3884100000000000    0.6942800000000000 Zn
   0.1941800000000000    0.2146400000000000    0.6943300000000000 Zn
   0.1941400000000000    0.3885600000000000    0.6943950000000000 Zn
   0.1942700000000000    0.3886500000000000    0.6071500000000000 Zn
   0.4876600000000000    0.8014300000000000    0.4006150000000000 Zn
   0.4007250000000000    0.9755900000000000    0.4006200000000000 Zn
   0.4007450000000000    0.8014400000000000    0.4006750000000000 Zn
   0.4006450000000000    0.8012500000000000    0.4879900000000000 Zn
   0.1073700000000000    0.3884100000000000    0.1942800000000000 Zn
   0.1941800000000000    0.2146400000000000    0.1943300000000000 Zn
   0.1941400000000000    0.3885600000000000    0.1943950000000000 Zn
   0.1942700000000000    0.3886500000000000    0.1071500000000000 Zn
   0.4876600000000000    0.8014300000000000    0.9006149999999999 Zn
   0.4007250000000000    0.9755900000000000    0.9006200000000000 Zn
   0.4007450000000000    0.8014400000000000    0.9006750000000000 Zn
   0.4006450000000000    0.8012500000000000    0.9879899999999999 Zn
   0.3926400000000000    0.6115500000000000    0.8057050000000000 Zn
   0.3058300000000000    0.7853300000000000    0.8056550000000000 Zn
   0.3057400000000000    0.6113100000000000    0.8928199999999999 Zn
   0.3058700000000000    0.6114000000000001    0.8055500000000000 Zn
   0.0992850000000000    0.0243700000000000    0.0993650000000000 Zn
   0.0123500000000000    0.1985300000000000    0.0993650000000000 Zn
   0.0992650000000000    0.1985200000000000    0.0993000000000000 Zn
   0.0993650000000000    0.1987100000000000    0.0119950000000000 Zn
   0.3926400000000000    0.6115500000000000    0.3057050000000000 Zn
   0.3058300000000000    0.7853300000000000    0.3056550000000000 Zn
   0.3057400000000000    0.6113100000000000    0.3928200000000000 Zn
   0.3058700000000000    0.6114000000000001    0.3055500000000000 Zn
   0.0123500000000000    0.1985300000000000    0.5993650000000000 Zn
   0.0992650000000000    0.1985200000000000    0.5992999999999999 Zn
   0.0992850000000000    0.0243700000000000    0.5993650000000000 Zn
   0.0993650000000000    0.1987100000000000    0.5119950000000000 Zn
   0.8926400000000000    0.6115500000000000    0.8057050000000000 Zn
   0.8058300000000000    0.7853300000000000    0.8056550000000000 Zn
   0.8057400000000000    0.6113100000000000    0.8928199999999999 Zn
   0.8058700000000000    0.6114000000000001    0.8055500000000000 Zn
   0.5123500000000000    0.1985300000000000    0.0993650000000000 Zn
   0.5992650000000000    0.1985200000000000    0.0993000000000000 Zn
   0.5992850000000000    0.0243700000000000    0.0993650000000000 Zn
   0.5993650000000000    0.1987100000000000    0.0119950000000000 Zn
   0.8926400000000000    0.6115500000000000    0.3057050000000000 Zn
   0.8058300000000000    0.7853300000000000    0.3056550000000000 Zn
   0.8057400000000000    0.6113100000000000    0.3928200000000000 Zn
   0.8058700000000000    0.6114000000000001    0.3055500000000000 Zn
   0.5123500000000000    0.1985300000000000    0.5993650000000000 Zn
   0.5992650000000000    0.1985200000000000    0.5992999999999999 Zn
   0.5992850000000000    0.0243700000000000    0.5993650000000000 Zn
   0.5993650000000000    0.1987100000000000    0.5119950000000000 Zn
   0.7725450000000000    0.2593200000000000    0.5129100000000000 H
   0.8202550000000000    0.1633000000000000    0.4651000000000000 H
   0.7723900000000000    0.0265300000000000    0.6298000000000000 H
   0.8200950000000000    0.9306200000000000    0.5819500000000000 H
   0.2725450000000000    0.2593200000000000    0.5129100000000000 H
   0.3202550000000000    0.1633000000000000    0.4651000000000000 H
   0.2723900000000000    0.0265300000000000    0.6298000000000000 H
   0.3200950000000000    0.9306200000000000    0.5819500000000000 H
   0.2725450000000000    0.2593200000000000    0.0129100000000000 H
   0.3202550000000000    0.1633000000000000    0.9651000000000001 H
   0.2723900000000000    0.0265300000000000    0.1298000000000000 H
   0.3200950000000000    0.9306200000000000    0.0819500000000000 H
   0.7725450000000000    0.2593200000000000    0.0129100000000000 H
   0.8202550000000000    0.1633000000000000    0.9651000000000001 H
   0.7723900000000000    0.0265300000000000    0.1298000000000000 H
   0.8200950000000000    0.9306200000000000    0.0819500000000000 H
   0.1295400000000000    0.0262500000000000    0.7720000000000000 H
   0.0815950000000000    0.9305300000000000    0.8200450000000000 H
   0.0132650000000000    0.2592400000000000    0.7725649999999999 H
   0.9653849999999999    0.1634200000000000    0.8201700000000001 H
   0.1295400000000000    0.0262500000000000    0.2720000000000000 H
   0.0815950000000000    0.9305300000000000    0.3200450000000000 H
   0.0132650000000000    0.2592400000000000    0.2725650000000000 H
   0.9653849999999999    0.1634200000000000    0.3201700000000000 H
   0.7731450000000000    0.2591500000000000    0.7735150000000000 H
   0.8213450000000000    0.1632900000000000    0.8214399999999999 H
   0.8217150000000000    0.9304600000000000    0.8212850000000000 H
   0.7738200000000000    0.0256900000000000    0.7735950000000000 H
   0.5814000000000000    0.6430000000000000    0.8214000000000000 H
   0.6293650000000000    0.5467000000000000    0.7734500000000000 H
   0.4652250000000000    0.6430100000000000    0.8213600000000000 H
   0.5128650000000000    0.5473100000000000    0.7736350000000001 H
   0.7730800000000000    0.5466200000000000    0.6297850000000000 H
   0.8211950000000000    0.6426400000000000    0.5819500000000000 H
   0.8217449999999999    0.6429800000000000    0.4651350000000000 H
   0.7739199999999999    0.5474700000000000    0.5126450000000000 H
   0.1295600000000000    0.5449400000000000    0.5128450000000000 H
   0.0815200000000000    0.6403600000000000    0.4650500000000000 H
   0.0133900000000000    0.5448900000000000    0.6297500000000000 H
   0.9654150000000000    0.6403200000000000    0.5819350000000000 H
   0.7731450000000000    0.2591500000000000    0.2735150000000000 H
   0.8213450000000000    0.1632900000000000    0.3214400000000000 H
   0.8217150000000000    0.9304600000000000    0.3212850000000000 H
   0.7738200000000000    0.0256900000000000    0.2735950000000000 H
   0.5814000000000000    0.6430000000000000    0.3214000000000000 H
   0.6293650000000000    0.5467000000000000    0.2734500000000000 H
   0.4652250000000000    0.6430100000000000    0.3213600000000000 H
   0.5128650000000000    0.5473100000000000    0.2736350000000000 H
   0.7730800000000000    0.5466200000000000    0.1297850000000000 H
   0.8211950000000000    0.6426400000000000    0.0819500000000000 H
   0.8217449999999999    0.6429800000000000    0.9651350000000001 H
   0.7739199999999999    0.5474700000000000    0.0126450000000000 H
   0.1295600000000000    0.5449400000000000    0.0128450000000000 H
   0.0815200000000000    0.6403600000000000    0.9650500000000000 H
   0.0133900000000000    0.5448900000000000    0.1297500000000000 H
   0.9654150000000000    0.6403200000000000    0.0819350000000000 H
   0.6295400000000000    0.0262500000000000    0.2720000000000000 H
   0.5815950000000000    0.9305300000000000    0.3200450000000000 H
   0.5132650000000000    0.2592400000000000    0.2725650000000000 H
   0.4653850000000000    0.1634200000000000    0.3201700000000000 H
   0.6295400000000000    0.0262500000000000    0.7720000000000000 H
   0.5815950000000000    0.9305300000000000    0.8200450000000000 H
   0.5132650000000000    0.2592400000000000    0.7725649999999999 H
   0.4653850000000000    0.1634200000000000    0.8201700000000001 H
   0.2731450000000000    0.2591500000000000    0.7735150000000000 H
   0.3213450000000000    0.1632900000000000    0.8214399999999999 H
   0.3217150000000000    0.9304600000000000    0.8212850000000000 H
   0.2738200000000000    0.0256900000000000    0.7735950000000000 H
   0.0814000000000000    0.6430000000000000    0.8214000000000000 H
   0.1293650000000000    0.5467000000000000    0.7734500000000000 H
   0.9652250000000000    0.6430100000000000    0.8213600000000000 H
   0.0128650000000000    0.5473100000000000    0.7736350000000001 H
   0.2730800000000000    0.5466200000000000    0.6297850000000000 H
   0.3211950000000000    0.6426400000000000    0.5819500000000000 H
   0.3217450000000000    0.6429800000000000    0.4651350000000000 H
   0.2739200000000000    0.5474700000000000    0.5126450000000000 H
   0.6295600000000000    0.5449400000000000    0.5128450000000000 H
   0.5815200000000000    0.6403600000000000    0.4650500000000000 H
   0.5133900000000000    0.5448900000000000    0.6297500000000000 H
   0.4654150000000000    0.6403200000000000    0.5819350000000000 H
   0.2731450000000000    0.2591500000000000    0.2735150000000000 H
   0.3213450000000000    0.1632900000000000    0.3214400000000000 H
   0.3217150000000000    0.9304600000000000    0.3212850000000000 H
   0.2738200000000000    0.0256900000000000    0.2735950000000000 H
   0.0814000000000000    0.6430000000000000    0.3214000000000000 H
   0.1293650000000000    0.5467000000000000    0.2734500000000000 H
   0.9652250000000000    0.6430100000000000    0.3213600000000000 H
   0.0128650000000000    0.5473100000000000    0.2736350000000000 H
   0.2730800000000000    0.5466200000000000    0.1297850000000000 H
   0.3211950000000000    0.6426400000000000    0.0819500000000000 H
   0.3217450000000000    0.6429800000000000    0.9651350000000001 H
   0.2739200000000000    0.5474700000000000    0.0126450000000000 H
   0.6295600000000000    0.5449400000000000    0.0128450000000000 H
   0.5815200000000000    0.6403600000000000    0.9650500000000000 H
   0.5133900000000000    0.5448900000000000    0.1297500000000000 H
   0.4654150000000000    0.6403200000000000    0.0819350000000000 H
   0.8429002506767387    0.8978638624294988    0.2596649475563976 H
   0.9488681376311816    0.6856958257526247    0.2596240914539323 H
   0.8997503477594880    0.7995050854350763    0.2558318166128546 H
   0.8704700000000001    0.9737100000000000    0.7275400000000000 H
   0.9184150000000000    0.0694300000000000    0.6799400000000000 H
   0.9867450000000000    0.7407200000000000    0.7274200000000000 H
   0.0346300000000000    0.8365400000000000    0.6798150000000001 H
   0.2276200000000000    0.9734300000000000    0.8701850000000000 H
   0.1799200000000000    0.0693400000000000    0.9180150000000000 H
   0.2274700000000000    0.7406500000000000    0.9870700000000000 H
   0.1797600000000000    0.8366600000000000    0.0348550000000000 H
   0.8704499999999999    0.4550200000000000    0.9871400000000000 H
   0.9184900000000000    0.3596000000000000    0.0349050000000000 H
   0.9866200000000001    0.4550600000000000    0.8702350000000000 H
   0.0345950000000000    0.3596300000000000    0.9180500000000000 H
   0.2268600000000000    0.7408200000000000    0.7264750000000000 H
   0.1786600000000000    0.8366700000000000    0.6785500000000000 H
   0.1782950000000000    0.0695000000000000    0.6787000000000000 H
   0.2261950000000000    0.9742800000000000    0.7263900000000000 H
   0.3706450000000000    0.4532500000000000    0.7265200000000001 H
   0.4186100000000000    0.3569500000000000    0.6785550000000000 H
   0.5347850000000000    0.3569400000000000    0.6786250000000000 H
   0.4871500000000000    0.4526500000000000    0.7263500000000001 H
   0.1788200000000000    0.3573100000000000    0.9180300000000000 H
   0.2269350000000000    0.4533300000000000    0.8700000000000000 H
   0.1782700000000000    0.3569800000000000    0.0348500000000000 H
   0.2260950000000000    0.4524900000000000    0.9873350000000001 H
   0.0771805225921983   -0.0245608181880582    0.1348377991235126 H
   1.0131099204908289    0.1082621459001365    0.1347837070598926 H
   0.2276200000000000    0.9734300000000000    0.3701850000000000 H
   0.1799200000000000    0.0693400000000000    0.4180150000000000 H
   0.2274700000000000    0.7406500000000000    0.4870700000000000 H
   0.1797600000000000    0.8366600000000000    0.5348550000000000 H
   0.8704499999999999    0.4550200000000000    0.4871400000000000 H
   0.9184900000000000    0.3596000000000000    0.5349050000000000 H
   0.9866200000000001    0.4550600000000000    0.3702350000000000 H
   0.0345950000000000    0.3596300000000000    0.4180500000000000 H
   0.2268600000000000    0.7408200000000000    0.2264750000000000 H
   0.1786600000000000    0.8366700000000000    0.1785500000000000 H
   0.1782950000000000    0.0695000000000000    0.1787000000000000 H
   0.2261950000000000    0.9742800000000000    0.2263900000000000 H
   0.3706450000000000    0.4532500000000000    0.2265200000000000 H
   0.4186100000000000    0.3569500000000000    0.1785550000000000 H
   0.5347850000000000    0.3569400000000000    0.1786250000000000 H
   0.4871500000000000    0.4526500000000000    0.2263500000000000 H
   0.1788200000000000    0.3573100000000000    0.4180300000000000 H
   0.2269350000000000    0.4533300000000000    0.3700000000000000 H
   0.1782700000000000    0.3569800000000000    0.5348500000000000 H
   0.2260950000000000    0.4524900000000000    0.4873350000000000 H
   0.3704700000000000    0.9737100000000000    0.2275400000000000 H
   0.4184150000000000    0.0694300000000000    0.1799400000000000 H
   0.4867450000000000    0.7407200000000000    0.2274200000000000 H
   0.5346300000000000    0.8365400000000000    0.1798150000000000 H
   0.3704700000000000    0.9737100000000000    0.7275400000000000 H
   0.4184150000000000    0.0694300000000000    0.6799400000000000 H
   0.4867450000000000    0.7407200000000000    0.7274200000000000 H
   0.5346300000000000    0.8365400000000000    0.6798150000000001 H
   0.7276199999999999    0.9734300000000000    0.8701850000000000 H
   0.6799200000000000    0.0693400000000000    0.9180150000000000 H
   0.7274700000000001    0.7406500000000000    0.9870700000000000 H
   0.6797600000000000    0.8366600000000000    0.0348550000000000 H
   0.3704500000000000    0.4550200000000000    0.9871400000000000 H
   0.4184900000000000    0.3596000000000000    0.0349050000000000 H
   0.4866200000000000    0.4550600000000000    0.8702350000000000 H
   0.5345950000000000    0.3596300000000000    0.9180500000000000 H
   0.7268600000000001    0.7408200000000000    0.7264750000000000 H
   0.6786600000000000    0.8366700000000000    0.6785500000000000 H
   0.6782950000000000    0.0695000000000000    0.6787000000000000 H
   0.7261950000000000    0.9742800000000000    0.7263900000000000 H
   0.8706450000000000    0.4532500000000000    0.7265200000000001 H
   0.9186099999999999    0.3569500000000000    0.6785550000000000 H
   0.0347850000000000    0.3569400000000000    0.6786250000000000 H
   0.9871500000000000    0.4526500000000000    0.7263500000000001 H
   0.6788200000000000    0.3573100000000000    0.9180300000000000 H
   0.7269350000000000    0.4533300000000000    0.8700000000000000 H
   0.6782700000000000    0.3569800000000000    0.0348500000000000 H
   0.7260949999999999    0.4524900000000000    0.9873350000000001 H
   0.7276199999999999    0.9734300000000000    0.3701850000000000 H
   0.6799200000000000    0.0693400000000000    0.4180150000000000 H
   0.7274700000000001    0.7406500000000000    0.4870700000000000 H
   0.6797600000000000    0.8366600000000000    0.5348550000000000 H
   0.3704500000000000    0.4550200000000000    0.4871400000000000 H
   0.4184900000000000    0.3596000000000000    0.5349050000000000 H
   0.4866200000000000    0.4550600000000000    0.3702350000000000 H
   0.5345950000000000    0.3596300000000000    0.4180500000000000 H
   0.7268600000000001    0.7408200000000000    0.2264750000000000 H
   0.6786600000000000    0.8366700000000000    0.1785500000000000 H
   0.6782950000000000    0.0695000000000000    0.1787000000000000 H
   0.7261950000000000    0.9742800000000000    0.2263900000000000 H
   0.8706450000000000    0.4532500000000000    0.2265200000000000 H
   0.9186099999999999    0.3569500000000000    0.1785550000000000 H
   0.0347850000000000    0.3569400000000000    0.1786250000000000 H
   0.9871500000000000    0.4526500000000000    0.2263500000000000 H
   0.6788200000000000    0.3573100000000000    0.4180300000000000 H
   0.7269350000000000    0.4533300000000000    0.3700000000000000 H
   0.6782700000000000    0.3569800000000000    0.5348500000000000 H
   0.7260949999999999    0.4524900000000000    0.4873350000000000 H
   0.3760292622316302    0.0872902467728642    0.1116374698633856 H
   0.8521799999999999    0.9838800000000000    0.4920800000000000 C
   0.7413800000000000    0.2060300000000000    0.6028550000000000 C
   0.7830900000000001    0.1874000000000000    0.5277800000000000 C
   0.8095850000000000    0.1340300000000000    0.5012100000000000 C
   0.7829950000000000    0.0559900000000000    0.5937500000000000 C
   0.8094900000000000    0.0026400000000000    0.5671900000000000 C
   0.8230900000000000    0.0412800000000000    0.5207200000000000 C
   0.7696300000000000    0.1487600000000000    0.5742550000000000 C
   0.3521800000000000    0.9838800000000000    0.4920800000000000 C
   0.2413800000000000    0.2060300000000000    0.6028550000000000 C
   0.2830900000000000    0.1874000000000000    0.5277800000000000 C
   0.3095850000000000    0.1340300000000000    0.5012100000000000 C
   0.2829950000000000    0.0559900000000000    0.5937500000000000 C
   0.3094900000000000    0.0026400000000000    0.5671900000000000 C
   0.3230900000000000    0.0412800000000000    0.5207200000000000 C
   0.2696300000000000    0.1487600000000000    0.5742550000000000 C
   0.3521800000000000    0.9838800000000000    0.9920800000000001 C
   0.2413800000000000    0.2060300000000000    0.1028550000000000 C
   0.2830900000000000    0.1874000000000000    0.0277800000000000 C
   0.3095850000000000    0.1340300000000000    0.0012100000000000 C
   0.2829950000000000    0.0559900000000000    0.0937500000000000 C
   0.3094900000000000    0.0026400000000000    0.0671900000000000 C
   0.3230900000000000    0.0412800000000000    0.0207200000000000 C
   0.2696300000000000    0.1487600000000000    0.0742550000000000 C
   0.8521799999999999    0.9838800000000000    0.9920800000000001 C
   0.7413800000000000    0.2060300000000000    0.1028550000000000 C
   0.7830900000000001    0.1874000000000000    0.0277800000000000 C
   0.8095850000000000    0.1340300000000000    0.0012100000000000 C
   0.7829950000000000    0.0559900000000000    0.0937500000000000 C
   0.8094900000000000    0.0026400000000000    0.0671900000000000 C
   0.8230900000000000    0.0412800000000000    0.0207200000000000 C
   0.7696300000000000    0.1487600000000000    0.0742550000000000 C
   0.9919850000000000    0.9839800000000000    0.8520750000000000 C
   0.1029300000000000    0.2057900000000000    0.7414750000000000 C
   0.0936200000000000    0.0557900000000000    0.7830200000000000 C
   0.0669800000000000    0.0025500000000000    0.8094600000000001 C
   0.0279800000000000    0.1873200000000000    0.7830850000000000 C
   0.0013450000000000    0.1340700000000000    0.8095300000000001 C
   0.0206550000000000    0.0413200000000000    0.8230150000000001 C
   0.0743100000000000    0.1485600000000000    0.7696750000000000 C
   0.9919850000000000    0.9839800000000000    0.3520750000000000 C
   0.1029300000000000    0.2057900000000000    0.2414750000000000 C
   0.0936200000000000    0.0557900000000000    0.2830200000000000 C
   0.0669800000000000    0.0025500000000000    0.3094600000000000 C
   0.0279800000000000    0.1873200000000000    0.2830850000000000 C
   0.0013450000000000    0.1340700000000000    0.3095300000000000 C
   0.0206550000000000    0.0413200000000000    0.3230150000000000 C
   0.0743100000000000    0.1485600000000000    0.2696750000000000 C
   0.8530650000000000    0.9838600000000000    0.8528350000000000 C
   0.7418899999999999    0.2054600000000000    0.7421450000000001 C
   0.7840150000000000    0.1871100000000000    0.7841950000000000 C
   0.8107100000000000    0.1340000000000000    0.8107550000000000 C
   0.8110100000000000    0.0023500000000000    0.8107550000000000 C
   0.7843150000000000    0.0554400000000000    0.7841700000000000 C
   0.8243650000000000    0.0412400000000000    0.8242000000000000 C
   0.7706150000000000    0.1481900000000000    0.7707150000000000 C
   0.4918150000000000    0.7060500000000000    0.8528549999999999 C
   0.6026500000000000    0.4839500000000000    0.7421100000000000 C
   0.5668150000000000    0.6216000000000000    0.8107550000000000 C
   0.5933900000000000    0.5682500000000000    0.7841800000000000 C
   0.5011100000000001    0.6217900000000000    0.8108000000000000 C
   0.5276750000000000    0.5684399999999999    0.7842050000000000 C
   0.5204850000000000    0.6486800000000000    0.8242300000000000 C
   0.5740000000000000    0.5413000000000000    0.7707100000000000 C
   0.8529900000000000    0.7058000000000000    0.4920500000000000 C
   0.7419500000000000    0.4841400000000000    0.6027050000000000 C
   0.7839650000000000    0.5681700000000000    0.5936950000000000 C
   0.8106200000000000    0.6213700000000000    0.5672000000000000 C
   0.8110200000000001    0.6217400000000000    0.5011450000000000 C
   0.7843599999999999    0.5685100000000000    0.5276300000000000 C
   0.8243050000000001    0.6485000000000000    0.5207250000000000 C
   0.7706350000000000    0.5413500000000000    0.5741000000000001 C
   0.9919150000000000    0.7043600000000000    0.4920500000000000 C
   0.1030350000000000    0.4827500000000000    0.6027950000000000 C
   0.0936450000000000    0.5660700000000000    0.5277200000000000 C
   0.0669450000000000    0.6190800000000000    0.5011600000000000 C
   0.0280650000000000    0.5660400000000000    0.5937200000000000 C
   0.0013700000000000    0.6190600000000001    0.5671500000000000 C
   0.0206250000000000    0.6461600000000000    0.5206850000000000 C
   0.0743950000000000    0.5392400000000001    0.5742000000000000 C
   0.8530650000000000    0.9838600000000000    0.3528350000000000 C
   0.7418899999999999    0.2054600000000000    0.2421450000000000 C
   0.7840150000000000    0.1871100000000000    0.2841950000000000 C
   0.8107100000000000    0.1340000000000000    0.3107550000000000 C
   0.8110100000000000    0.0023500000000000    0.3107550000000000 C
   0.7843150000000000    0.0554400000000000    0.2841700000000000 C
   0.8243650000000000    0.0412400000000000    0.3242000000000000 C
   0.7706150000000000    0.1481900000000000    0.2707150000000000 C
   0.4918150000000000    0.7060500000000000    0.3528550000000000 C
   0.6026500000000000    0.4839500000000000    0.2421100000000000 C
   0.5668150000000000    0.6216000000000000    0.3107550000000000 C
   0.5933900000000000    0.5682500000000000    0.2841800000000000 C
   0.5011100000000001    0.6217900000000000    0.3108000000000000 C
   0.5276750000000000    0.5684399999999999    0.2842050000000000 C
   0.5204850000000000    0.6486800000000000    0.3242300000000000 C
   0.5740000000000000    0.5413000000000000    0.2707100000000000 C
   0.8529900000000000    0.7058000000000000    0.9920500000000000 C
   0.7419500000000000    0.4841400000000000    0.1027050000000000 C
   0.7839650000000000    0.5681700000000000    0.0936950000000000 C
   0.8106200000000000    0.6213700000000000    0.0672000000000000 C
   0.8110200000000001    0.6217400000000000    0.0011450000000000 C
   0.7843599999999999    0.5685100000000000    0.0276300000000000 C
   0.8243050000000001    0.6485000000000000    0.0207250000000000 C
   0.7706350000000000    0.5413500000000000    0.0741000000000000 C
   0.9919150000000000    0.7043600000000000    0.9920500000000000 C
   0.1030350000000000    0.4827500000000000    0.1027950000000000 C
   0.0936450000000000    0.5660700000000000    0.0277200000000000 C
   0.0669450000000000    0.6190800000000000    0.0011600000000000 C
   0.0280650000000000    0.5660400000000000    0.0937200000000000 C
   0.0013700000000000    0.6190600000000001    0.0671500000000000 C
   0.0206250000000000    0.6461600000000000    0.0206850000000000 C
   0.0743950000000000    0.5392400000000001    0.0742000000000000 C
   0.4919850000000000    0.9839800000000000    0.3520750000000000 C
   0.6029300000000000    0.2057900000000000    0.2414750000000000 C
   0.5936200000000000    0.0557900000000000    0.2830200000000000 C
   0.5669800000000000    0.0025500000000000    0.3094600000000000 C
   0.5279800000000000    0.1873200000000000    0.2830850000000000 C
   0.5013450000000000    0.1340700000000000    0.3095300000000000 C
   0.5206550000000000    0.0413200000000000    0.3230150000000000 C
   0.5743100000000000    0.1485600000000000    0.2696750000000000 C
   0.4919850000000000    0.9839800000000000    0.8520750000000000 C
   0.6029300000000000    0.2057900000000000    0.7414750000000000 C
   0.5936200000000000    0.0557900000000000    0.7830200000000000 C
   0.5669800000000000    0.0025500000000000    0.8094600000000001 C
   0.5279800000000000    0.1873200000000000    0.7830850000000000 C
   0.5013450000000000    0.1340700000000000    0.8095300000000001 C
   0.5206550000000000    0.0413200000000000    0.8230150000000001 C
   0.5743100000000000    0.1485600000000000    0.7696750000000000 C
   0.3530650000000000    0.9838600000000000    0.8528350000000000 C
   0.2418900000000000    0.2054600000000000    0.7421450000000001 C
   0.2840150000000000    0.1871100000000000    0.7841950000000000 C
   0.3107100000000000    0.1340000000000000    0.8107550000000000 C
   0.3110100000000000    0.0023500000000000    0.8107550000000000 C
   0.2843150000000000    0.0554400000000000    0.7841700000000000 C
   0.3243650000000000    0.0412400000000000    0.8242000000000000 C
   0.2706150000000000    0.1481900000000000    0.7707150000000000 C
   0.9918150000000000    0.7060500000000000    0.8528549999999999 C
   0.1026500000000000    0.4839500000000000    0.7421100000000000 C
   0.0668150000000000    0.6216000000000000    0.8107550000000000 C
   0.0933900000000000    0.5682500000000000    0.7841800000000000 C
   0.0011100000000000    0.6217900000000000    0.8108000000000000 C
   0.0276750000000000    0.5684399999999999    0.7842050000000000 C
   0.0204850000000000    0.6486800000000000    0.8242300000000000 C
   0.0740000000000000    0.5413000000000000    0.7707100000000000 C
   0.3529900000000000    0.7058000000000000    0.4920500000000000 C
   0.2419500000000000    0.4841400000000000    0.6027050000000000 C
   0.2839650000000000    0.5681700000000000    0.5936950000000000 C
   0.3106200000000000    0.6213700000000000    0.5672000000000000 C
   0.3110200000000000    0.6217400000000000    0.5011450000000000 C
   0.2843600000000000    0.5685100000000000    0.5276300000000000 C
   0.3243050000000000    0.6485000000000000    0.5207250000000000 C
   0.2706350000000000    0.5413500000000000    0.5741000000000001 C
   0.4919150000000000    0.7043600000000000    0.4920500000000000 C
   0.6030350000000000    0.4827500000000000    0.6027950000000000 C
   0.5936450000000000    0.5660700000000000    0.5277200000000000 C
   0.5669450000000000    0.6190800000000000    0.5011600000000000 C
   0.5280650000000000    0.5660400000000000    0.5937200000000000 C
   0.5013700000000000    0.6190600000000001    0.5671500000000000 C
   0.5206250000000000    0.6461600000000000    0.5206850000000000 C
   0.5743950000000000    0.5392400000000001    0.5742000000000000 C
   0.3530650000000000    0.9838600000000000    0.3528350000000000 C
   0.2418900000000000    0.2054600000000000    0.2421450000000000 C
   0.2840150000000000    0.1871100000000000    0.2841950000000000 C
   0.3107100000000000    0.1340000000000000    0.3107550000000000 C
   0.3110100000000000    0.0023500000000000    0.3107550000000000 C
   0.2843150000000000    0.0554400000000000    0.2841700000000000 C
   0.3243650000000000    0.0412400000000000    0.3242000000000000 C
   0.2706150000000000    0.1481900000000000    0.2707150000000000 C
   0.9918150000000000    0.7060500000000000    0.3528550000000000 C
   0.1026500000000000    0.4839500000000000    0.2421100000000000 C
   0.0668150000000000    0.6216000000000000    0.3107550000000000 C
   0.0933900000000000    0.5682500000000000    0.2841800000000000 C
   0.0011100000000000    0.6217900000000000    0.3108000000000000 C
   0.0276750000000000    0.5684399999999999    0.2842050000000000 C
   0.0204850000000000    0.6486800000000000    0.3242300000000000 C
   0.0740000000000000    0.5413000000000000    0.2707100000000000 C
   0.3529900000000000    0.7058000000000000    0.9920500000000000 C
   0.2419500000000000    0.4841400000000000    0.1027050000000000 C