Cu12 H176 C176 S22 I12
1.0
   7.3994999988729910    0.0000000000000000   -0.0001291456379956
  -0.0377925158533205   38.6669815310911673    0.0000000000000024
   0.0000000000000000    0.0000000000000000   20.8500000000000014
Cu H C S I
12 176 176 22 12
direct
   0.2417000000000000    0.2206766666666667    0.7500100000000000 Cu
   0.7416400000000000    0.2798066666666666    0.7500100000000000 Cu
   0.7583200000000000    0.1126600000000000    0.2500200000000000 Cu
   0.2582400000000000    0.0535600000000000    0.2500200000000000 Cu
   0.2417000000000000    0.5540100000000000    0.7500100000000000 Cu
   0.7416400000000000    0.6131400000000000    0.7500100000000000 Cu
   0.7583200000000000    0.4459933333333333    0.2500200000000000 Cu
   0.2582400000000000    0.3868933333333333    0.2500200000000000 Cu
   0.2417000000000000    0.8873433333333333    0.7500100000000000 Cu
   0.7416400000000000    0.9464733333333333    0.7500100000000000 Cu
   0.7583200000000000    0.7793266666666666    0.2500200000000000 Cu
   0.2582400000000000    0.7202266666666666    0.2500200000000000 Cu
   0.1482800000000000    0.0243666666666667    0.9883000000000000 H
   0.1027500000000000    0.0286133333333333    0.0996400000000000 H
   0.3824800000000000    0.0771966666666667    0.0957900000000000 H
   0.5754300000000000    0.0715866666666667    0.1448300000000000 H
   0.1179100000000000    0.1125300000000000    0.8913400000000000 H
   0.9790300000000000    0.0852833333333333    0.9866300000000000 H
   0.2185800000000000    0.1630033333333333    0.1073700000000000 H
   0.3516200000000000    0.1910833333333333    0.0117000000000000 H
   0.3970800000000000    0.1954133333333333    0.9003400000000000 H
   0.3771600000000000    0.1581266666666667    0.8520300000000000 H
   0.1175100000000000    0.2440000000000000    0.9042900000000000 H
   0.9245000000000000    0.2383533333333333    0.8553700000000000 H
   0.6184500000000001    0.0542200000000000    0.6085600000000000 H
   0.4792800000000000    0.0813500000000000    0.5132000000000000 H
   0.7184100000000000    0.0036066666666667    0.3926400000000000 H
   0.8516700000000000    0.3089700000000000    0.4883600000000000 H
   0.8968699999999999    0.3046900000000000    0.5997400000000001 H
   0.8776800000000000    0.0087133333333333    0.6479000000000000 H
   0.6175700000000000    0.2562033333333333    0.5959100000000001 H
   0.4244300000000000    0.2617866666666666    0.6448700000000001 H
   0.8819600000000000    0.2208233333333333    0.3913300000000000 H
   0.0210700000000000    0.2480400000000000    0.4866400000000000 H
   0.7814500000000000    0.1703233333333333    0.6073300000000000 H
   0.6482800000000000    0.1422600000000000    0.5116500000000000 H
   0.6025500000000000    0.1379633333333333    0.4003800000000000 H
   0.6227000000000000    0.1752233333333333    0.3520200000000000 H
   0.8825200000000000    0.0893300000000000    0.4044100000000000 H
   0.0754700000000000    0.0949900000000000    0.3554000000000000 H
   0.6184800000000000    0.0542266666666667    0.8914800000000001 H
   0.4792300000000000    0.0813500000000000    0.9868200000000000 H
   0.7184600000000000    0.0036366666666667    0.1074300000000000 H
   0.8776900000000000    0.0087166666666667    0.8521500000000000 H
   0.8819100000000000    0.2208233333333333    0.1087200000000000 H
   0.0210800000000000    0.2480500000000000    0.0133800000000000 H
   0.7813700000000000    0.1703466666666667    0.8926900000000000 H
   0.6482599999999999    0.1422700000000000    0.9883600000000000 H
   0.6027900000000000    0.1379400000000000    0.0997100000000000 H
   0.6228100000000000    0.1752133333333333    0.1480500000000000 H
   0.8823100000000000    0.0893633333333333    0.0956500000000000 H
   0.0755600000000000    0.0949800000000000    0.1446900000000000 H
   0.3815700000000000    0.2791100000000000    0.3915000000000000 H
   0.5207600000000000    0.2519966666666666    0.4868700000000000 H
   0.2813600000000000    0.3297066666666666    0.6074200000000000 H
   0.1482800000000000    0.0243666666666667    0.5116900000000000 H
   0.1027300000000000    0.0286100000000000    0.4004300000000000 H
   0.1222400000000000    0.3246333333333333    0.3521600000000000 H
   0.3825600000000000    0.0772000000000000    0.4042800000000000 H
   0.5754700000000000    0.0715800000000000    0.3552300000000000 H
   0.1179200000000000    0.1125233333333333    0.6087200000000000 H
   0.9788100000000000    0.0853200000000000    0.5133700000000000 H
   0.2184700000000000    0.1630266666666667    0.3927200000000000 H
   0.3516300000000000    0.1910866666666667    0.4883900000000000 H
   0.3973200000000000    0.1953966666666667    0.5996300000000000 H
   0.3772900000000000    0.1581433333333333    0.6480300000000000 H
   0.1174800000000000    0.2440233333333333    0.5956200000000000 H
   0.9245300000000000    0.2383633333333333    0.6446200000000000 H
   0.3815100000000000    0.6124499999999999    0.1085300000000000 H
   0.5207400000000000    0.5853299999999999    0.0131700000000000 H
   0.2814000000000000    0.6630366666666667    0.8925800000000000 H
   0.1223000000000000    0.6579566666666666    0.1478700000000000 H
   0.1179100000000000    0.4458633333333333    0.8913400000000000 H
   0.9790300000000000    0.4186166666666666    0.9866300000000000 H
   0.2185800000000000    0.4963366666666666    0.1073700000000000 H
   0.3516200000000000    0.5244166666666666    0.0117000000000000 H
   0.3970800000000000    0.5287466666666667    0.9003400000000000 H
   0.3771600000000000    0.4914600000000000    0.8520300000000000 H
   0.1175100000000000    0.5773333333333333    0.9042900000000000 H
   0.9245000000000000    0.5716866666666667    0.8553700000000000 H
   0.6184500000000001    0.3875533333333333    0.6085600000000000 H
   0.4792800000000000    0.4146833333333333    0.5132000000000000 H
   0.7184100000000000    0.3369400000000000    0.3926400000000000 H
   0.8516700000000000    0.6423033333333332    0.4883600000000000 H
   0.8968699999999999    0.6380233333333334    0.5997400000000001 H
   0.8776800000000000    0.3420466666666667    0.6479000000000000 H
   0.6175700000000000    0.5895366666666666    0.5959100000000001 H
   0.4244300000000000    0.5951199999999999    0.6448700000000001 H
   0.8819600000000000    0.5541566666666666    0.3913300000000000 H
   0.0210700000000000    0.5813733333333333    0.4866400000000000 H
   0.7814500000000000    0.5036566666666666    0.6073300000000000 H
   0.6482800000000000    0.4755933333333333    0.5116500000000000 H
   0.6025500000000000    0.4712966666666666    0.4003800000000000 H
   0.6227000000000000    0.5085566666666667    0.3520200000000000 H
   0.8825200000000000    0.4226633333333333    0.4044100000000000 H
   0.0754700000000000    0.4283233333333333    0.3554000000000000 H
   0.8516800000000000    0.6423166666666666    0.0117200000000000 H
   0.8971600000000000    0.6380566666666667    0.9003700000000000 H
   0.6173600000000000    0.5894766666666666    0.9041800000000000 H
   0.4244100000000000    0.5951166666666666    0.8551600000000000 H
   0.8819100000000000    0.5541566666666666    0.1087200000000000 H
   0.0210800000000000    0.5813833333333334    0.0133800000000000 H
   0.7813700000000000    0.5036800000000000    0.8926900000000000 H
   0.6482599999999999    0.4756033333333333    0.9883600000000000 H
   0.6027900000000000    0.4712733333333333    0.0997100000000000 H
   0.6228100000000000    0.5085466666666667    0.1480500000000000 H
   0.8823100000000000    0.4226966666666666    0.0956500000000000 H
   0.0755600000000000    0.4283133333333333    0.1446900000000000 H
   0.3815700000000000    0.6124433333333332    0.3915000000000000 H
   0.5207600000000000    0.5853299999999999    0.4868700000000000 H
   0.2813600000000000    0.6630400000000000    0.6074200000000000 H
   0.1482800000000000    0.3577000000000000    0.5116900000000000 H
   0.1027300000000000    0.3619433333333333    0.4004300000000000 H
   0.1222400000000000    0.6579666666666666    0.3521600000000000 H
   0.3825600000000000    0.4105333333333333    0.4042800000000000 H
   0.5754700000000000    0.4049133333333333    0.3552300000000000 H
   0.1179200000000000    0.4458566666666666    0.6087200000000000 H
   0.9788100000000000    0.4186533333333333    0.5133700000000000 H
   0.2184700000000000    0.4963600000000000    0.3927200000000000 H
   0.3516300000000000    0.5244200000000000    0.4883900000000000 H
   0.3973200000000000    0.5287299999999999    0.5996300000000000 H
   0.3772900000000000    0.4914766666666667    0.6480300000000000 H
   0.1174800000000000    0.5773566666666666    0.5956200000000000 H
   0.9245300000000000    0.5716966666666666    0.6446200000000000 H
   0.3815100000000000    0.9457833333333333    0.1085300000000000 H
   0.5207400000000000    0.9186633333333333    0.0131700000000000 H
   0.2814000000000000    0.9963700000000000    0.8925800000000000 H
   0.1482800000000000    0.6910333333333333    0.9883000000000000 H
   0.1027500000000000    0.6952800000000000    0.0996400000000000 H
   0.1223000000000000    0.9912900000000000    0.1478700000000000 H
   0.3824800000000000    0.7438633333333333    0.0957900000000000 H
   0.5754300000000000    0.7382533333333333    0.1448300000000000 H
   0.1179100000000000    0.7791966666666666    0.8913400000000000 H
   0.9790300000000000    0.7519500000000000    0.9866300000000000 H
   0.2185800000000000    0.8296699999999999    0.1073700000000000 H
   0.3516200000000000    0.8577500000000000    0.0117000000000000 H
   0.3970800000000000    0.8620800000000000    0.9003400000000000 H
   0.3771600000000000    0.8247933333333333    0.8520300000000000 H
   0.1175100000000000    0.9106666666666666    0.9042900000000000 H
   0.9245000000000000    0.9050199999999999    0.8553700000000000 H
   0.6184500000000001    0.7208866666666667    0.6085600000000000 H
   0.4792800000000000    0.7480166666666667    0.5132000000000000 H
   0.7184100000000000    0.6702733333333333    0.3926400000000000 H
   0.8516700000000000    0.9756366666666666    0.4883600000000000 H
   0.8968699999999999    0.9713566666666666    0.5997400000000001 H
   0.8776800000000000    0.6753800000000000    0.6479000000000000 H
   0.6175700000000000    0.9228700000000000    0.5959100000000001 H
   0.4244300000000000    0.9284533333333332    0.6448700000000001 H
   0.8819600000000000    0.8874899999999999    0.3913300000000000 H
   0.0210700000000000    0.9147066666666666    0.4866400000000000 H
   0.7814500000000000    0.8369899999999999    0.6073300000000000 H
   0.6482800000000000    0.8089266666666666    0.5116500000000000 H
   0.6025500000000000    0.8046300000000000    0.4003800000000000 H
   0.6227000000000000    0.8418899999999999    0.3520200000000000 H
   0.8825200000000000    0.7559966666666667    0.4044100000000000 H
   0.0754700000000000    0.7616566666666666    0.3554000000000000 H
   0.6184800000000000    0.7208933333333333    0.8914800000000001 H
   0.4792300000000000    0.7480166666666667    0.9868200000000000 H
   0.7184600000000000    0.6703033333333333    0.1074300000000000 H
   0.8516800000000000    0.9756499999999999    0.0117200000000000 H
   0.8971600000000000    0.9713900000000000    0.9003700000000000 H
   0.8776900000000000    0.6753833333333333    0.8521500000000000 H
   0.6173600000000000    0.9228099999999999    0.9041800000000000 H
   0.4244100000000000    0.9284500000000000    0.8551600000000000 H
   0.8819100000000000    0.8874899999999999    0.1087200000000000 H
   0.0210800000000000    0.9147166666666666    0.0133800000000000 H
   0.7813700000000000    0.8370133333333333    0.8926900000000000 H
   0.6482599999999999    0.8089366666666666    0.9883600000000000 H
   0.6027900000000000    0.8046066666666667    0.0997100000000000 H
   0.6228100000000000    0.8418800000000000    0.1480500000000000 H
   0.8823100000000000    0.7560300000000000    0.0956500000000000 H
   0.0755600000000000    0.7616466666666666    0.1446900000000000 H
   0.3815700000000000    0.9457766666666666    0.3915000000000000 H
   0.5207600000000000    0.9186633333333333    0.4868700000000000 H
   0.2813600000000000    0.9963733333333333    0.6074200000000000 H
   0.1482800000000000    0.6910333333333333    0.5116900000000000 H
   0.1027300000000000    0.6952766666666667    0.4004300000000000 H
   0.1222400000000000    0.9913000000000000    0.3521600000000000 H
   0.3825600000000000    0.7438666666666667    0.4042800000000000 H
   0.5754700000000000    0.7382466666666666    0.3552300000000000 H
   0.1179200000000000    0.7791899999999999    0.6087200000000000 H
   0.9788100000000000    0.7519866666666666    0.5133700000000000 H
   0.2184700000000000    0.8296933333333333    0.3927200000000000 H
   0.3516300000000000    0.8577533333333333    0.4883900000000000 H
   0.3973200000000000    0.8620633333333333    0.5996300000000000 H
   0.3772900000000000    0.8248099999999999    0.6480300000000000 H
   0.1174800000000000    0.9106900000000000    0.5956200000000000 H
   0.9245300000000000    0.9050300000000000    0.6446200000000000 H
   0.2271300000000000    0.0007466666666667    0.9938000000000000 C
   0.1948800000000000    0.0075966666666667    0.1131100000000000 C
   0.4850900000000000    0.0583133333333333    0.1106600000000000 C
   0.1431300000000000    0.1234733333333333    0.9387799999999999 C
   0.0650000000000000    0.1080333333333333    0.9925900000000000 C
   0.0863700000000000    0.1226266666666667    0.0537800000000000 C
   0.1983500000000000    0.1516600000000000    0.0600400000000000 C
   0.2727300000000000    0.1674433333333333    0.0061600000000000 C
   0.2418600000000000    0.1543133333333333    0.9444500000000000 C
   0.3047600000000000    0.1744033333333333    0.8868400000000000 C
   0.0148500000000000    0.2250900000000000    0.8894500000000000 C
   0.6435000000000000    0.0432566666666667    0.5611300000000000 C
   0.5652199999999999    0.0586233333333333    0.5073100000000000 C
   0.5864400000000000    0.0439833333333333    0.4461800000000000 C
   0.6983500000000000    0.0149800000000000    0.4399600000000000 C
   0.7728400000000000    0.3325900000000000    0.4938600000000000 C
   0.7422200000000000    0.0124533333333333    0.5555099999999999 C
   0.8049400000000000    0.3257433333333333    0.6131700000000000 C
   0.5148100000000000    0.2750666666666667    0.6107200000000000 C
   0.8568100000000000    0.2098700000000000    0.4387700000000000 C
   0.9350200000000000    0.2252966666666666    0.4925800000000000 C
   0.9136700000000000    0.2106966666666667    0.5537500000000000 C
   0.8016700000000000    0.1816700000000000    0.5600000000000001 C
   0.7272300000000000    0.1658933333333333    0.5061300000000000 C
   0.7580000000000000    0.1790433333333333    0.4444500000000000 C
   0.6950100000000000    0.1589466666666667    0.3868500000000000 C
   0.9850600000000000    0.1082566666666667    0.3895100000000000 C
   0.6435100000000000    0.0432600000000000    0.9389000000000000 C
   0.5652100000000000    0.0586300000000000    0.9927200000000000 C
   0.5864100000000000    0.0439966666666667    0.0538800000000000 C
   0.6983600000000000    0.0150000000000000    0.0601100000000000 C
   0.7422600000000000    0.0124600000000000    0.9445500000000000 C
   0.8567700000000000    0.2098766666666667    0.0612800000000000 C
   0.9349700000000000    0.2253100000000000    0.0074700000000000 C
   0.9136300000000001    0.2107133333333333    0.9462800000000000 C
   0.8016100000000000    0.1816833333333333    0.9400300000000000 C
   0.7272100000000000    0.1659033333333333    0.9939000000000000 C
   0.7580100000000000    0.1790433333333333    0.0556100000000000 C
   0.6951600000000000    0.1589433333333333    0.1132200000000000 C
   0.9850300000000000    0.1082600000000000    0.1105400000000000 C
   0.3565200000000000    0.2900800000000000    0.4389300000000000 C
   0.4347900000000000    0.2747200000000000    0.4927600000000000 C
   0.4135100000000000    0.2893500000000000    0.5538999999999999 C
   0.3015400000000000    0.3183433333333333    0.5601000000000000 C
   0.2271100000000000    0.0007433333333333    0.5062100000000000 C
   0.2577500000000000    0.3208800000000000    0.4445600000000000 C
   0.1948500000000000    0.0075966666666667    0.3869400000000000 C
   0.4851200000000000    0.0583100000000000    0.3894000000000000 C
   0.1431100000000000    0.1234700000000000    0.5612800000000000 C
   0.0649500000000000    0.1080433333333333    0.5074500000000000 C
   0.0862800000000000    0.1226466666666667    0.4462900000000000 C
   0.1982600000000000    0.1516800000000000    0.4400500000000000 C
   0.2727300000000000    0.1674466666666667    0.4939200000000000 C
   0.2418900000000000    0.1543033333333333    0.5556000000000000 C
   0.3049300000000000    0.1744033333333333    0.6131799999999999 C
   0.0149100000000000    0.2251000000000000    0.6105100000000000 C
   0.3564700000000000    0.6234200000000000    0.0611100000000000 C
   0.4347600000000000    0.6080533333333333    0.0072800000000000 C
   0.4135000000000000    0.6226799999999999    0.9461300000000000 C
   0.3015300000000000    0.6516733333333333    0.9399000000000000 C
   0.2577200000000000    0.6542200000000000    0.0554700000000000 C
   0.1431300000000000    0.4568066666666666    0.9387799999999999 C
   0.0650000000000000    0.4413666666666666    0.9925900000000000 C
   0.0863700000000000    0.4559600000000000    0.0537800000000000 C
   0.1983500000000000    0.4849933333333333    0.0600400000000000 C
   0.2727300000000000    0.5007766666666666    0.0061600000000000 C
   0.2418600000000000    0.4876466666666667    0.9444500000000000 C
   0.3047600000000000    0.5077366666666666    0.8868400000000000 C
   0.0148500000000000    0.5584233333333333    0.8894500000000000 C
   0.6435000000000000    0.3765900000000000    0.5611300000000000 C
   0.5652199999999999    0.3919566666666666    0.5073100000000000 C
   0.5864400000000000    0.3773166666666666    0.4461800000000000 C
   0.6983500000000000    0.3483133333333333    0.4399600000000000 C
   0.7728400000000000    0.6659233333333333    0.4938600000000000 C
   0.7422200000000000    0.3457866666666666    0.5555099999999999 C
   0.8049400000000000    0.6590766666666666    0.6131700000000000 C
   0.5148100000000000    0.6084000000000001    0.6107200000000000 C
   0.8568100000000000    0.5432033333333333    0.4387700000000000 C
   0.9350200000000000    0.5586300000000000    0.4925800000000000 C
   0.9136700000000000    0.5440300000000000    0.5537500000000000 C
   0.8016700000000000    0.5150033333333333    0.5600000000000001 C
   0.7272300000000000    0.4992266666666667    0.5061300000000000 C
   0.7580000000000000    0.5123766666666667    0.4444500000000000 C
   0.6950100000000000    0.4922799999999999    0.3868500000000000 C
   0.9850600000000000    0.4415900000000000    0.3895100000000000 C
   0.7728400000000000    0.6659366666666666    0.0062200000000000 C
   0.8050700000000000    0.6590766666666666    0.8869100000000000 C
   0.5148000000000000    0.6083733333333332    0.8893400000000000 C
   0.8567700000000000    0.5432100000000000    0.0612800000000000 C
   0.9349700000000000    0.5586433333333334    0.0074700000000000 C
   0.9136300000000001    0.5440466666666667    0.9462800000000000 C
   0.8016100000000000    0.5150166666666667    0.9400300000000000 C
   0.7272100000000000    0.4992366666666667    0.9939000000000000 C
   0.7580100000000000    0.5123766666666667    0.0556100000000000 C
   0.6951600000000000    0.4922766666666666    0.1132200000000000 C
   0.9850300000000000    0.4415933333333333    0.1105400000000000 C
   0.3565200000000000    0.6234133333333334    0.4389300000000000 C
   0.4347900000000000    0.6080533333333333    0.4927600000000000 C
   0.4135100000000000    0.6226833333333333    0.5538999999999999 C
   0.3015400000000000    0.6516766666666667    0.5601000000000000 C
   0.2271100000000000    0.3340766666666666    0.5062100000000000 C
   0.2577500000000000    0.6542133333333333    0.4445600000000000 C
   0.1948500000000000    0.3409300000000000    0.3869400000000000 C
   0.4851200000000000    0.3916433333333333    0.3894000000000000 C
   0.1431100000000000    0.4568033333333333    0.5612800000000000 C
   0.0649500000000000    0.4413766666666666    0.5074500000000000 C
   0.0862800000000000    0.4559799999999999    0.4462900000000000 C
   0.1982600000000000    0.4850133333333333    0.4400500000000000 C
   0.2727300000000000    0.5007800000000000    0.4939200000000000 C
   0.2418900000000000    0.4876366666666666    0.5556000000000000 C
   0.3049300000000000    0.5077366666666666    0.6131799999999999 C
   0.0149100000000000    0.5584333333333333    0.6105100000000000 C
   0.3564700000000000    0.9567533333333333    0.0611100000000000 C
   0.4347600000000000    0.9413866666666666    0.0072800000000000 C
   0.4135000000000000    0.9560133333333333    0.9461300000000000 C
   0.3015300000000000    0.9850066666666666    0.9399000000000000 C
   0.2271300000000000    0.6674133333333333    0.9938000000000000 C
   0.2577200000000000    0.9875533333333333    0.0554700000000000 C
   0.1948800000000000    0.6742633333333333    0.1131100000000000 C
   0.4850900000000000    0.7249800000000000    0.1106600000000000 C
   0.1431300000000000    0.7901400000000000    0.9387799999999999 C
   0.0650000000000000    0.7746999999999999    0.9925900000000000 C
   0.0863700000000000    0.7892933333333333    0.0537800000000000 C
   0.1983500000000000    0.8183266666666666    0.0600400000000000 C
   0.2727300000000000    0.8341099999999999    0.0061600000000000 C
   0.2418600000000000    0.8209799999999999    0.9444500000000000 C
   0.3047600000000000    0.8410700000000000    0.8868400000000000 C
   0.0148500000000000    0.8917566666666666    0.8894500000000000 C
   0.6435000000000000    0.7099233333333332    0.5611300000000000 C
   0.5652199999999999    0.7252900000000000    0.5073100000000000 C
   0.5864400000000000    0.7106500000000000    0.4461800000000000 C
   0.6983500000000000    0.6816466666666666    0.4399600000000000 C
   0.7728400000000000    0.9992566666666667    0.4938600000000000 C
   0.7422200000000000    0.6791199999999999    0.5555099999999999 C
   0.8049400000000000    0.9924100000000000    0.6131700000000000 C
   0.5148100000000000    0.9417333333333333    0.6107200000000000 C
   0.8568100000000000    0.8765366666666666    0.4387700000000000 C
   0.9350200000000000    0.8919633333333332    0.4925800000000000 C
   0.9136700000000000    0.8773633333333333    0.5537500000000000 C
   0.8016700000000000    0.8483366666666666    0.5600000000000001 C
   0.7272300000000000    0.8325600000000000    0.5061300000000000 C
   0.7580000000000000    0.8457100000000000    0.4444500000000000 C
   0.6950100000000000    0.8256133333333333    0.3868500000000000 C
   0.9850600000000000    0.7749233333333333    0.3895100000000000 C
   0.6435100000000000    0.7099266666666666    0.9389000000000000 C
   0.5652100000000000    0.7252966666666666    0.9927200000000000 C
   0.5864100000000000    0.7106633333333333    0.0538800000000000 C
   0.6983600000000000    0.6816666666666666    0.0601100000000000 C
   0.7728400000000000    0.9992699999999999    0.0062200000000000 C
   0.7422600000000000    0.6791266666666667    0.9445500000000000 C
   0.8050700000000000    0.9924100000000000    0.8869100000000000 C
   0.5148000000000000    0.9417066666666666    0.8893400000000000 C
   0.8567700000000000    0.8765433333333332    0.0612800000000000 C
   0.9349700000000000    0.8919766666666666    0.0074700000000000 C
   0.9136300000000001    0.8773799999999999    0.9462800000000000 C
   0.8016100000000000    0.8483499999999999    0.9400300000000000 C
   0.7272100000000000    0.8325699999999999    0.9939000000000000 C
   0.7580100000000000    0.8457100000000000    0.0556100000000000 C
   0.6951600000000000    0.8256100000000000    0.1132200000000000 C
   0.9850300000000000    0.7749266666666667    0.1105400000000000 C
   0.3565200000000000    0.9567466666666666    0.4389300000000000 C
   0.4347900000000000    0.9413866666666666    0.4927600000000000 C
   0.4135100000000000    0.9560166666666666    0.5538999999999999 C
   0.3015400000000000    0.9850099999999999    0.5601000000000000 C
   0.2271100000000000    0.6674099999999999    0.5062100000000000 C
   0.2577500000000000    0.9875466666666666    0.4445600000000000 C
   0.1948500000000000    0.6742633333333333    0.3869400000000000 C
   0.4851200000000000    0.7249766666666666    0.3894000000000000 C
   0.1431100000000000    0.7901366666666666    0.5612800000000000 C
   0.0649500000000000    0.7747100000000000    0.5074500000000000 C
   0.0862800000000000    0.7893133333333333    0.4462900000000000 C
   0.1982600000000000    0.8183466666666666    0.4400500000000000 C
   0.2727300000000000    0.8341133333333333    0.4939200000000000 C
   0.2418900000000000    0.8209700000000000    0.5556000000000000 C
   0.3049300000000000    0.8410700000000000    0.6131799999999999 C
   0.0149100000000000    0.8917666666666666    0.6105100000000000 C
   0.3796500000000000    0.0255533333333333    0.1624300000000000 S
   0.1201700000000000    0.1924033333333333    0.8375500000000000 S
   0.6200400000000000    0.3078533333333333    0.6625000000000000 S
   0.8795800000000000    0.1409133333333333    0.3375900000000000 S
   0.8797800000000000    0.1409300000000000    0.1624700000000000 S
   0.3796100000000000    0.0255633333333333    0.3376200000000000 S
   0.1203900000000000    0.1924433333333333    0.6624400000000000 S
   0.1201700000000000    0.5257366666666666    0.8375500000000000 S
   0.6200400000000000    0.6411866666666666    0.6625000000000000 S
   0.8795800000000000    0.4742466666666666    0.3375900000000000 S
   0.6202500000000000    0.6411466666666666    0.8375800000000000 S
   0.8797800000000000    0.4742633333333333    0.1624700000000000 S
   0.3796100000000000    0.3588966666666666    0.3376200000000000 S
   0.1203900000000000    0.5257766666666667    0.6624400000000000 S
   0.3796500000000000    0.6922199999999999    0.1624300000000000 S
   0.1201700000000000    0.8590700000000000    0.8375500000000000 S
   0.6200400000000000    0.9745199999999999    0.6625000000000000 S
   0.8795800000000000    0.8075800000000000    0.3375900000000000 S
   0.6202500000000000    0.9744800000000000    0.8375800000000000 S
   0.8797800000000000    0.8075966666666666    0.1624700000000000 S
   0.3796100000000000    0.6922300000000000    0.3376200000000000 S
   0.1203900000000000    0.8591099999999999    0.6624400000000000 S
   0.8945100000000000    0.0482500000000000    0.2499900000000000 I
   0.6055900000000000    0.2152366666666667    0.7500400000000000 I
   0.1055500000000000    0.2850966666666667    0.7500599999999999 I
   0.3945000000000000    0.1181166666666667    0.2500500000000000 I
   0.8945100000000000    0.3815833333333333    0.2499900000000000 I
   0.6055900000000000    0.5485700000000000    0.7500400000000000 I
   0.1055500000000000    0.6184300000000000    0.7500599999999999 I
   0.3945000000000000    0.4514500000000000    0.2500500000000000 I
   0.8945100000000000    0.7149166666666666    0.2499900000000000 I
   0.6055900000000000    0.8819033333333333    0.7500400000000000 I
   0.1055500000000000    0.9517633333333333    0.7500599999999999 I
   0.3945000000000000    0.7847833333333333    0.2500500000000000 I
