H5 O4
1.0
  29.0199999955800010    0.0000000000000000   -0.0005064945489064
  -0.0013549340048302   38.8159999763519394    0.0000000000000024
   0.0000000000000000    0.0000000000000000   26.3430000000000000
H O
5 4
direct
   0.1277164015097345    0.7437192648031266    0.4949173138576379 H
   0.1486808608293394    0.0781974133688619    0.4630252738302322 H
   0.0465074592016104    0.9363529772676000    1.0717430095020406 H
   0.0752410115102447    0.8754267624238298    1.0572596780899681 H
   0.1969523718910418    0.8867917154847471    1.0241825212902673 H
   0.1425850000000000    0.7234500000000000    0.4801000000000000 O
   0.1216500000000000    0.0875400000000000    0.4804500000000000 O
   0.0141200000000000    0.9356650000000000    1.0807899999999999 O
   0.0448150000000000    0.8835600000000000    1.0666799999999999 O
