H4 C8 O4
1.0
  15.9810949917488507    0.0000000000000000    9.1335782618150159
   5.3045721465810676   15.0963279590164969    9.1165482774750419
   0.0000000000000000    0.0000000000000000   18.4110000000000014
H C O
4 8 4
direct
   0.4517700000000000    0.1641300000000000    0.9320000000000001 H
   0.4516500000000000    0.9321600000000000    0.1642200000000000 H
   0.5482399999999999    0.8358700000000000    0.0679900000000000 H
   0.5483700000000000    0.0678400000000000    0.8357700000000000 H
   0.4732900000000000    0.0922300000000000    0.9610000000000000 C
   0.4732300000000000    0.9610800000000000    0.0922800000000000 C
   0.5267200000000000    0.9077600000000000    0.0389900000000000 C
   0.5267900000000000    0.0389200000000000    0.9077100000000000 C
   0.3886300000000000    0.1109700000000000    0.1109200000000000 C
   0.4461500000000000    0.0536400000000000    0.0536000000000000 C
   0.6113800000000000    0.8890200000000000    0.8890700000000000 C
   0.5538700000000000    0.9463500000000000    0.9463000000000000 C
   0.3663500000000000    0.1946300000000000    0.0714100000000000 O
   0.3664700000000000    0.0715100000000000    0.1946300000000000 O
   0.6336600000000000    0.8053600000000000    0.9285800000000000 O
   0.6335499999999999    0.9284900000000000    0.8053600000000000 O
