H6 O4
1.0
  15.9810949917488507    0.0000000000000000    9.1335782618150159
   5.3045721465810676   15.0963279590164969    9.1165482774750419
   0.0000000000000000    0.0000000000000000   18.4110000000000014
H O
6 4
direct
   0.3861728446211271    0.2189596756015959    0.0072039433969383 H
   0.3863788960190752    0.0073432496922305    0.2189926540196310 H
   0.3940481824533415    0.1053582314519234    0.1053044578060395 H
   0.6138322761143545    0.7810267898158731    0.9927858547514272 H
   0.6136444370897489    0.9926568405939090    0.7809986589940298 H
   0.6059649479763080    0.8946367512507314    0.8946855248942598 H
   0.3663500000000000    0.1946300000000000    0.0714100000000000 O
   0.3664700000000000    0.0715100000000000    0.1946300000000000 O
   0.6336600000000000    0.8053600000000000    0.9285800000000000 O
   0.6335499999999999    0.9284900000000000    0.8053600000000000 O
