Zn8 H16 C40 O26
1.0
  16.3423192276004166    0.0000000000000000    9.2833521565866359
   5.3662014942962868   15.3422865696917192    9.2995268877545296
   0.0000000000000000    0.0000000000000000   18.7240000000000002
Zn H C O
8 16 40 26
direct
   0.5424900000000000    0.5428100000000000    0.3711100000000000 Zn
   0.1273100000000000    0.9576700000000000    0.9576000000000000 Zn
   0.9576200000000000    0.1284700000000000    0.9572100000000000 Zn
   0.9576100000000000    0.9572400000000000    0.1283800000000000 Zn
   0.3721000000000000    0.5424700000000000    0.5424900000000000 Zn
   0.9572800000000000    0.9565600000000000    0.9566600000000000 Zn
   0.5424300000000000    0.3710800000000000    0.5428100000000000 Zn
   0.5427600000000000    0.5434700000000000    0.5433600000000000 Zn
   0.8662435108943489    0.8656706101636458    0.2382630521558665 H
   0.8658625419874871    0.8644822378620008    1.0294670939570179 H
   0.8584346915090209    0.8574218829363841    1.1414202358856531 H
   0.6338605722773870    0.6343127347186990    0.2614251218446357 H
   0.6340314393827664    0.6355997483419987    0.4703872167711607 H
   0.6416007349420538    0.6426527111766981    0.3582936866114489 H
   0.0903500000000000    0.3204600000000000    0.7949300000000000 H
   0.3186500000000000    0.0892500000000000    0.7960199999999999 H
   0.0903400000000000    0.7947900000000000    0.3202600000000000 H
   0.3186200000000000    0.7961800000000000    0.0892800000000000 H
   0.0904400000000000    0.7937600000000000    0.7938300000000000 H
   0.3181600000000000    0.7967700000000000    0.7966000000000000 H
   0.7956500000000000    0.3201400000000000    0.0893700000000000 H
   0.7954599999999999    0.0893000000000000    0.3199000000000000 H
   0.7949900000000000    0.0893900000000000    0.7942200000000000 H
   0.7958600000000000    0.3194200000000000    0.7961000000000000 H
   0.1359700000000000    0.1367300000000000    0.8640400000000000 C
   0.3644700000000000    0.3636800000000000    0.6354100000000000 C
   0.1595800000000000    0.2848400000000000    0.7779600000000000 C
   0.2838600000000000    0.1590000000000000    0.7785400000000000 C
   0.3245500000000000    0.2201700000000000    0.7274100000000000 C
   0.3083600000000000    0.3077700000000000    0.6916200000000000 C
   0.2210900000000000    0.3249200000000000    0.7269300000000000 C
   0.1922900000000000    0.1927500000000000    0.8077000000000000 C
   0.1360000000000000    0.8640500000000000    0.1366600000000000 C
   0.3644400000000000    0.6354400000000000    0.3637200000000000 C
   0.1596000000000000    0.7778400000000000    0.2847800000000000 C
   0.2839000000000000    0.7786000000000000    0.1590100000000000 C
   0.2210300000000000    0.7267700000000000    0.3250200000000000 C
   0.3083300000000000    0.6916099999999999    0.3077700000000000 C
   0.3247000000000000    0.7274200000000000    0.2201300000000000 C
   0.1923300000000000    0.8076600000000000    0.1927300000000000 C
   0.1355200000000000    0.8635800000000000    0.8635000000000000 C
   0.3649400000000000    0.6358800000000000    0.6358800000000000 C
   0.1596300000000000    0.7773200000000000    0.7773300000000000 C
   0.2835900000000000    0.7789400000000000    0.7788200000000000 C
   0.3245900000000000    0.7279400000000000    0.7278600000000000 C
   0.3087000000000000    0.6918900000000000    0.6918800000000001 C
   0.2213700000000000    0.7265900000000000    0.7266300000000000 C
   0.1920200000000000    0.8074100000000000    0.8070000000000001 C
   0.8644500000000001    0.1364500000000000    0.1362800000000000 C
   0.6349700000000000    0.3639700000000000    0.3641000000000000 C
   0.7783400000000000    0.2846600000000000    0.1590500000000000 C
   0.7782300000000000    0.1590200000000000    0.2845400000000000 C
   0.7270300000000000    0.3249500000000000    0.2204500000000000 C
   0.6913000000000000    0.3079900000000000    0.3080800000000000 C
   0.7269200000000000    0.2203400000000000    0.3249300000000000 C
   0.8078600000000000    0.1925800000000000    0.1924800000000000 C
   0.8639700000000000    0.1358900000000000    0.8632000000000000 C
   0.6354200000000000    0.3645400000000000    0.6361800000000000 C
   0.7779300000000000    0.1590600000000000    0.7775100000000000 C
   0.7783900000000000    0.2843300000000000    0.7785300000000001 C
   0.7268900000000000    0.2205900000000000    0.7268600000000000 C
   0.6916400000000000    0.3083500000000000    0.6920700000000000 C
   0.7272800000000000    0.3251300000000000    0.7277100000000000 C
   0.8075800000000000    0.1922500000000000    0.8072000000000000 C
   0.8856100000000000    0.8849600000000000    0.1751400000000000 O
   0.8853600000000000    0.8842400000000000    1.0536600000000000 O
   0.6144500000000001    0.6150300000000000    0.3245500000000000 O
   0.6145699999999999    0.6158000000000000    0.4462000000000000 O
   0.1748100000000000    0.0545500000000000    0.8856500000000000 O
   0.0542700000000000    0.1760800000000000    0.8853799999999999 O
   0.3249100000000000    0.4454000000000000    0.6143999999999999 O
   0.4457100000000000    0.3237000000000000    0.6145800000000000 O
   0.1748200000000000    0.8857900000000000    0.0545100000000000 O
   0.0543100000000000    0.8854000000000000    0.1759700000000000 O
   0.3248900000000000    0.6143600000000000    0.4454000000000000 O
   0.4456800000000000    0.6148000000000000    0.3238000000000000 O
   0.9996699999999999    0.0000200000000000    0.9999600000000000 O
   0.0538100000000000    0.8844900000000000    0.8845300000000000 O
   0.1743500000000000    0.8854800000000000    0.8854600000000000 O
   0.3253700000000000    0.6145800000000000    0.6146000000000000 O
   0.4462000000000000    0.6154900000000000    0.6154200000000000 O
   0.8860900000000000    0.0542600000000000    0.1756000000000000 O
   0.8860500000000000    0.1758300000000000    0.0541100000000000 O
   0.6139400000000000    0.3239400000000000    0.4458100000000000 O
   0.6141799999999999    0.4457100000000000    0.3240000000000000 O
   0.8852200000000000    0.0537000000000000    0.8844000000000000 O
   0.8857100000000000    0.1752300000000000    0.8848000000000000 O
   0.6143700000000000    0.3245300000000000    0.6150800000000000 O
   0.6146700000000000    0.4462700000000000    0.6156400000000000 O
   0.5001700000000000    0.4999500000000000    0.4999000000000000 O
