Ca16 H128 C210 S15 O95
1.0
  11.2719999158756359    0.0000000000000000   -0.0013771345895684
   0.0000068605024529   23.9766519470107795   -3.4034174607087317
   0.0000000000000000    0.0000000000000000   23.2139999999999986
Ca H C S O
16 128 210 15 95
direct
   0.8959800000000000    0.3029900000000000    0.0454000000000000 Ca
   0.1040100000000000    0.1970100000000000    0.9545800000000000 Ca
   0.3959800000000000    0.3029900000000000    0.0454000000000000 Ca
   0.6040100000000000    0.1970100000000000    0.9545800000000000 Ca
   0.3540200000000000    0.0530100000000000    0.5453800000000000 Ca
   0.1459700000000000    0.9469900000000000    0.4545900000000000 Ca
   0.6459700000000000    0.9469900000000000    0.4545900000000000 Ca
   0.8540200000000000    0.0530100000000000    0.5453800000000000 Ca
   0.6459700000000000    0.4470000000000000    0.4545900000000000 Ca
   0.8540300000000000    0.5530000000000000    0.5453800000000000 Ca
   0.1459700000000000    0.4470000000000000    0.4545900000000000 Ca
   0.3540200000000000    0.5530000000000000    0.5453800000000000 Ca
   0.8959800000000000    0.8029900000000000    0.0454000000000000 Ca
   0.3959800000000000    0.8029900000000000    0.0454000000000000 Ca
   0.6040200000000000    0.6970100000000000    0.9545800000000000 Ca
   0.1040200000000000    0.6970100000000000    0.9545800000000000 Ca
   0.7146292388569662    0.8169328616166240    0.4052311438566530 H
   0.6228175264527657    0.7956403238489950    0.4296403406375824 H
   0.6031729650192326    0.5442863611584295    0.4668389001168202 H
   0.5785177956621883    0.5753052641416363    0.4665157417143619 H
   0.1340800000000000    0.3017500000000000    0.6149400000000000 H
   0.1871100000000000    0.3925500000000000    0.5827900000000000 H
   0.5275700000000000    0.3266200000000000    0.5259200000000001 H
   0.4758600000000000    0.2351300000000000    0.5579400000000000 H
   0.1237900000000000    0.2364100000000000    0.7071000000000000 H
   0.1619800000000000    0.2351900000000000    0.8127600000000000 H
   0.5040300000000000    0.1617700000000000    0.7726000000000000 H
   0.4650700000000000    0.1599900000000000    0.6660300000000000 H
   0.8659200000000000    0.1982500000000000    0.3850300000000000 H
   0.8128800000000000    0.1074500000000000    0.4171800000000000 H
   0.4724200000000000    0.1733800000000000    0.4740500000000000 H
   0.5241300000000000    0.2648800000000000    0.4420000000000000 H
   0.8762100000000000    0.2635900000000000    0.2928000000000000 H
   0.8380200000000000    0.2648200000000000    0.1872100000000000 H
   0.4959700000000000    0.3382400000000000    0.2273700000000000 H
   0.5349300000000000    0.3400200000000000    0.3339400000000000 H
   0.3659200000000000    0.1982500000000000    0.3850300000000000 H
   0.3128900000000000    0.1074500000000000    0.4171800000000000 H
   0.9724200000000000    0.1733800000000000    0.4740000000000000 H
   0.0241300000000000    0.2648800000000000    0.4420000000000000 H
   0.3762000000000000    0.2635900000000000    0.2928000000000000 H
   0.3380200000000000    0.2648200000000000    0.1872100000000000 H
   0.9959700000000000    0.3382400000000000    0.2273700000000000 H
   0.0349300000000000    0.3400200000000000    0.3339400000000000 H
   0.6340800000000000    0.3017500000000000    0.6149400000000000 H
   0.6871100000000000    0.3925500000000000    0.5827900000000000 H
   0.9758599999999999    0.2351300000000000    0.5579400000000000 H
   0.0275700000000000    0.3266200000000000    0.5259200000000001 H
   0.6238000000000000    0.2364100000000000    0.7071000000000000 H
   0.6619800000000000    0.2351900000000000    0.8127600000000000 H
   0.0040300000000000    0.1617700000000000    0.7726000000000000 H
   0.9650700000000000    0.1599900000000000    0.6660000000000000 H
   0.3840300000000000    0.9483000000000000    0.8850700000000000 H
   0.4370200000000000    0.8575000000000000    0.9172300000000000 H
   0.7776000000000000    0.9233700000000000    0.9740200000000000 H
   0.7259400000000000    0.0148700000000000    0.9419800000000000 H
   0.3738700000000000    0.0135600000000000    0.7928100000000000 H
   0.4120900000000000    0.0147900000000000    0.6871600000000000 H
   0.7540700000000000    0.0882700000000000    0.7273800000000000 H
   0.7150800000000000    0.0900500000000000    0.8339400000000000 H
   0.7224100000000000    0.0766300000000000    0.0259400000000000 H
   0.7740700000000000    0.9851300000000000    0.0579900000000000 H
   0.1159700000000000    0.0517000000000000    0.1149000000000000 H
   0.0629900000000000    0.1425000000000000    0.0827300000000000 H
   0.1261300000000000    0.9864500000000000    0.2071600000000000 H
   0.0879100000000000    0.9852100000000000    0.3128100000000000 H
   0.7459300000000000    0.9117300000000000    0.2725000000000000 H
   0.7849300000000000    0.9099500000000000    0.1660300000000000 H
   0.9370200000000000    0.8575000000000000    0.9172300000000000 H
   0.8840300000000000    0.9483000000000000    0.8850700000000000 H
   0.2776000000000000    0.9233700000000000    0.9740200000000000 H
   0.2259400000000000    0.0148700000000000    0.9419800000000000 H
   0.8738700000000000    0.0135600000000000    0.7928100000000000 H
   0.9120900000000000    0.0147900000000000    0.6871600000000000 H
   0.2540700000000000    0.0882700000000000    0.7273800000000000 H
   0.2150700000000000    0.0900500000000000    0.8339400000000000 H
   0.2224000000000000    0.0766300000000000    0.0259400000000000 H
   0.2740700000000000    0.9851300000000000    0.0579900000000000 H
   0.6159700000000000    0.0517000000000000    0.1149000000000000 H
   0.5629900000000000    0.1425000000000000    0.0827300000000000 H
   0.6261300000000000    0.9864500000000000    0.2071600000000000 H
   0.5879100000000000    0.9852100000000000    0.3128100000000000 H
   0.2459300000000000    0.9117300000000000    0.2725000000000000 H
   0.2849300000000000    0.9099500000000000    0.1660300000000000 H
   0.9370100000000000    0.3575000000000000    0.9172000000000000 H
   0.8840300000000000    0.4483100000000000    0.8850700000000000 H
   0.2259400000000000    0.5148600000000000    0.9419800000000000 H
   0.2776000000000000    0.4233700000000000    0.9740200000000000 H
   0.8738800000000000    0.5135500000000000    0.7928100000000000 H
   0.9121000000000000    0.5147800000000000    0.6871600000000000 H
   0.2540700000000000    0.5882600000000000    0.7273800000000000 H
   0.2150800000000000    0.5900400000000000    0.8339400000000000 H
   0.6159800000000000    0.5516900000000000    0.1140000000000000 H
   0.5629900000000000    0.6425000000000000    0.0827300000000000 H
   0.2740700000000000    0.4851400000000000    0.0579900000000000 H
   0.2224100000000000    0.5766300000000000    0.0259400000000000 H
   0.6261200000000000    0.4864500000000000    0.2071600000000000 H
   0.5879000000000000    0.4852200000000000    0.3128100000000000 H
   0.2459300000000000    0.4117400000000000    0.2725900000000000 H
   0.2849200000000000    0.4099600000000000    0.1660300000000000 H
   0.3840300000000000    0.4483100000000000    0.8850700000000000 H
   0.4370100000000000    0.3575000000000000    0.9172300000000000 H
   0.7259400000000000    0.5148600000000000    0.9419800000000000 H
   0.7776000000000000    0.4233700000000000    0.9740200000000000 H
   0.3738800000000000    0.5135500000000000    0.7928100000000000 H
   0.4121000000000000    0.5147800000000000    0.6871600000000000 H
   0.7540700000000000    0.5882600000000000    0.7273800000000000 H
   0.7150800000000000    0.5900400000000000    0.8339400000000000 H
   0.1159700000000000    0.5516900000000000    0.1140000000000000 H
   0.0629900000000000    0.6425000000000000    0.0827300000000000 H
   0.7740700000000000    0.4851400000000000    0.0579900000000000 H
   0.7224100000000000    0.5766300000000000    0.0259400000000000 H
   0.1261200000000000    0.4864500000000000    0.2071600000000000 H
   0.0879000000000000    0.4852200000000000    0.3128100000000000 H
   0.7459300000000000    0.4117400000000000    0.2725900000000000 H
   0.7849200000000000    0.4099600000000000    0.1660300000000000 H
   0.6340900000000000    0.8017400000000000    0.6149400000000000 H
   0.6871100000000000    0.8925500000000000    0.5827900000000000 H
   0.0275800000000000    0.8266200000000000    0.5259200000000001 H
   0.9758700000000000    0.7351200000000000    0.5579400000000000 H
   0.6238000000000000    0.7364100000000000    0.7070000000000000 H
   0.6619900000000000    0.7351799999999999    0.8127600000000000 H
   0.0040300000000000    0.6617600000000000    0.7726000000000000 H
   0.9650700000000000    0.6599800000000000    0.6660000000000000 H
   0.7990800898843647    0.7992508503407227    0.1320004374323744 H
   0.4763074555684697    0.8067000254852535    0.1502374911277764 H
   0.6277652030826515    0.8031677466241934    0.1587261691107711 H
   1.0836373279037141    0.5625624297638988    0.4339983430158493 H
   0.3659200000000000    0.6982500000000000    0.3850300000000000 H
   0.3128900000000000    0.6074500000000000    0.4171800000000000 H
   0.9724300000000000    0.6733800000000000    0.4740000000000000 H
   0.0241400000000000    0.7648700000000000    0.4420200000000000 H
   0.3762100000000000    0.7635900000000000    0.2928700000000000 H
   0.3380200000000000    0.7648200000000001    0.1872100000000000 H
   0.9959700000000000    0.8382400000000000    0.2273700000000000 H
   0.0349400000000000    0.8400100000000000    0.3339400000000000 H
   0.1340800000000000    0.8017400000000000    0.6149400000000000 H
   0.1871100000000000    0.8925500000000000    0.5827900000000000 H
   0.5275800000000000    0.8266200000000000    0.5259200000000001 H
   0.4758700000000000    0.7351200000000000    0.5579400000000000 H
   0.1238000000000000    0.7364100000000000    0.7070900000000000 H
   0.1619800000000000    0.7351799999999999    0.8127600000000000 H
   0.5040300000000000    0.6617600000000000    0.7726000000000000 H
   0.4650700000000000    0.6599800000000000    0.6660000000000000 H
   0.3963000000000000    0.4192300000000000    0.5320600000000000 C
   0.2205200000000000    0.3073700000000000    0.5957000000000000 C
   0.2504200000000000    0.3582000000000000    0.5778200000000000 C
   0.4419900000000000    0.3205900000000000    0.5457100000000000 C
   0.4130500000000000    0.2695400000000000    0.5630700000000000 C
   0.3014500000000000    0.2631400000000000    0.5874900000000000 C
   0.3613000000000000    0.3649900000000000    0.5523100000000000 C
   0.3572200000000000    0.1977400000000000    0.8634300000000000 C
   0.2075600000000000    0.2207900000000000    0.7216100000000000 C
   0.2291500000000000    0.2203300000000000    0.7805400000000000 C
   0.4215300000000000    0.1783700000000000    0.7577500000000000 C
   0.4004100000000000    0.1775300000000000    0.6983700000000000 C
   0.2930300000000000    0.1988900000000000    0.6808900000000000 C
   0.3363300000000000    0.1993000000000000    0.7991400000000000 C
   0.6036899999999999    0.0807700000000000    0.4679100000000000 C
   0.7794700000000000    0.1926300000000000    0.4041900000000000 C
   0.7495800000000000    0.1418100000000000    0.4221500000000000 C
   0.5580000000000001    0.1794100000000000    0.4542600000000000 C
   0.5869400000000000    0.2304700000000000    0.4369000000000000 C
   0.6985400000000000    0.2368700000000000    0.4124800000000000 C
   0.6387000000000000    0.1350200000000000    0.4476600000000000 C
   0.6427700000000000    0.3022700000000000    0.1365500000000000 C
   0.7924400000000000    0.2792200000000000    0.2783000000000000 C
   0.7708400000000000    0.2796800000000000    0.2194300000000000 C
   0.5784600000000000    0.3216400000000000    0.2422000000000000 C
   0.5996000000000000    0.3224800000000000    0.3016000000000000 C
   0.7069700000000000    0.3011100000000000    0.3190800000000000 C
   0.6636600000000000    0.3007100000000000    0.2008300000000000 C
   0.1036900000000000    0.0807700000000000    0.4679100000000000 C
   0.2794700000000000    0.1926300000000000    0.4041900000000000 C
   0.2495800000000000    0.1418100000000000    0.4221500000000000 C
   0.0580000000000000    0.1794100000000000    0.4542600000000000 C
   0.0869400000000000    0.2304700000000000    0.4369000000000000 C
   0.1985400000000000    0.2368700000000000    0.4124800000000000 C
   0.1387000000000000    0.1350100000000000    0.4476600000000000 C
   0.1427700000000000    0.3022700000000000    0.1365000000000000 C
   0.2924400000000000    0.2792200000000000    0.2783000000000000 C
   0.2708400000000000    0.2796800000000000    0.2194300000000000 C
   0.0784600000000000    0.3216400000000000    0.2422000000000000 C
   0.0995900000000000    0.3224800000000000    0.3016000000000000 C
   0.2069700000000000    0.3011100000000000    0.3190800000000000 C
   0.1636600000000000    0.3007100000000000    0.2008300000000000 C
   0.8963000000000000    0.4192300000000000    0.5320600000000000 C
   0.7205300000000000    0.3073700000000000    0.5957800000000000 C
   0.7504200000000000    0.3581900000000000    0.5778200000000000 C
   0.9130600000000000    0.2695400000000000    0.5630700000000000 C
   0.9419900000000000    0.3205900000000000    0.5457100000000000 C
   0.8014600000000000    0.2631400000000000    0.5874900000000000 C
   0.8613000000000000    0.3649900000000000    0.5523100000000000 C
   0.8572300000000000    0.1977400000000000    0.8634300000000000 C
   0.7075600000000000    0.2207900000000000    0.7216100000000000 C
   0.7291600000000000    0.2203300000000000    0.7805400000000000 C
   0.9215400000000000    0.1783700000000000    0.7577500000000000 C
   0.9004000000000000    0.1775300000000000    0.6983700000000000 C
   0.7930300000000000    0.1989000000000000    0.6808900000000000 C
   0.8363400000000000    0.1993000000000000    0.7991400000000000 C
   0.6462800000000000    0.8307800000000000    0.9679000000000000 C
   0.4705000000000000    0.9426600000000001    0.9042100000000000 C
   0.5003600000000000    0.8918400000000000    0.9221800000000000 C
   0.6919999999999999    0.9294100000000000    0.9542500000000000 C
   0.6631000000000000    0.9804600000000000    0.9368700000000000 C
   0.5514700000000000    0.9868800000000000    0.9124700000000000 C
   0.6112600000000000    0.8850300000000000    0.9476800000000000 C
   0.6072700000000000    0.0522700000000000    0.6365300000000000 C
   0.4576300000000000    0.0292000000000000    0.7783200000000000 C
   0.4792400000000000    0.0296600000000000    0.7193900000000000 C
   0.6715800000000000    0.0716600000000000    0.7422200000000000 C
   0.6504300000000000    0.0725000000000000    0.8015900000000000 C
   0.5430700000000001    0.0511200000000000    0.8190000000000000 C
   0.5864000000000000    0.0507200000000000    0.7008200000000000 C
   0.8537200000000000    0.1692200000000000    0.0320700000000000 C
   0.8080000000000001    0.0705900000000000    0.0457200000000000 C
   0.8369100000000000    0.0195400000000000    0.0631000000000000 C
   0.9485300000000000    0.0131200000000000    0.0870000000000000 C
   0.0295000000000000    0.0573400000000000    0.0957600000000000 C
   0.9996400000000000    0.1081600000000000    0.0777900000000000 C
   0.8887400000000000    0.1149700000000000    0.0522900000000000 C
   0.8927300000000000    0.9477300000000000    0.3634400000000000 C
   0.0423700000000000    0.9708000000000000    0.2216500000000000 C
   0.0207600000000000    0.9703400000000000    0.2805800000000000 C
   0.8284200000000000    0.9283400000000001    0.2577500000000000 C
   0.8495700000000000    0.9275000000000000    0.1983800000000000 C
   0.9569299999999999    0.9488900000000000    0.1809200000000000 C
   0.9136000000000000    0.9492800000000000    0.2991000000000000 C
   0.1462700000000000    0.8307800000000000    0.9679000000000000 C
   0.0000000000000000    0.8918400000000000    0.9221800000000000 C
   0.9705000000000000    0.9426600000000001    0.9042100000000000 C
   0.1920000000000000    0.9294100000000000    0.9542500000000000 C
   0.1631000000000000    0.9804600000000000    0.9368700000000000 C
   0.0514700000000000    0.9868800000000000    0.9124700000000000 C
   0.1112700000000000    0.8850300000000000    0.9476000000000000 C
   0.1072700000000000    0.0522700000000000    0.6365300000000000 C
   0.9576300000000000    0.0292000000000000    0.7783200000000000 C
   0.9792400000000000    0.0296600000000000    0.7193900000000000 C
   0.1715800000000000    0.0716600000000000    0.7422200000000000 C
   0.1504300000000000    0.0725000000000000    0.8015900000000000 C
   0.0430600000000000    0.0511200000000000    0.8190000000000000 C
   0.0864000000000000    0.0507200000000000    0.7008200000000000 C
   0.3537200000000000    0.1692200000000000    0.0320700000000000 C
   0.3080000000000000    0.0705900000000000    0.0457200000000000 C
   0.3369100000000000    0.0195400000000000    0.0631000000000000 C
   0.4485300000000000    0.0131200000000000    0.0870000000000000 C
   0.5295000000000000    0.0573400000000000    0.0957600000000000 C
   0.4996400000000000    0.1081600000000000    0.0777900000000000 C
   0.3887400000000000    0.1149700000000000    0.0522900000000000 C
   0.3927300000000000    0.9477300000000000    0.3634400000000000 C
   0.5423700000000000    0.9708000000000000    0.2216500000000000 C
   0.5207600000000000    0.9703400000000000    0.2805800000000000 C
   0.3284200000000000    0.9283400000000001    0.2577500000000000 C
   0.3495700000000000    0.9275000000000000    0.1983800000000000 C
   0.4569300000000000    0.9488900000000000    0.1809200000000000 C
   0.4136000000000000    0.9492800000000000    0.2991000000000000 C
   0.1462700000000000    0.3307800000000000    0.9679100000000000 C
   0.0000000000000000    0.3918400000000000    0.9221800000000000 C
   0.9705000000000000    0.4426600000000000    0.9042100000000000 C
   0.1631000000000000    0.4804700000000000    0.9368700000000000 C
   0.1920000000000000    0.4294100000000000    0.9542500000000000 C
   0.0514700000000000    0.4868800000000000    0.9124700000000000 C
   0.1112600000000000    0.3850300000000000    0.9476700000000000 C
   0.1072700000000000    0.5522700000000000    0.6365300000000000 C
   0.9576300000000000    0.5292000000000000    0.7783200000000000 C
   0.9792400000000000    0.5296600000000000    0.7193900000000000 C
   0.1715800000000000    0.5716500000000000    0.7422200000000000 C
   0.1504300000000000    0.5724900000000001    0.8015900000000000 C
   0.0430700000000000    0.5511100000000000    0.8190000000000000 C
   0.0864000000000000    0.5507100000000000    0.7008200000000000 C
   0.3537200000000000    0.6692200000000000    0.0320700000000000 C
   0.5295100000000000    0.5573399999999999    0.0957000000000000 C
   0.4996400000000000    0.6081600000000000    0.0777900000000000 C
   0.3369100000000000    0.5195300000000000    0.0630000000000000 C
   0.3080000000000000    0.5705900000000000    0.0457200000000000 C
   0.4485300000000000    0.5131200000000000    0.0874900000000000 C
   0.3887400000000000    0.6149700000000000    0.0522900000000000 C
   0.3927200000000000    0.4477300000000000    0.3634400000000000 C
   0.5423700000000000    0.4708000000000000    0.2216500000000000 C
   0.5207600000000000    0.4703500000000000    0.2805800000000000 C
   0.3284200000000000    0.4283500000000000    0.2577500000000000 C
   0.3495700000000000    0.4275100000000000    0.1983800000000000 C
   0.4569300000000000    0.4488900000000000    0.1809200000000000 C
   0.4135900000000000    0.4492900000000000    0.2991000000000000 C
   0.6462800000000000    0.3307800000000000    0.9679100000000000 C
   0.4705000000000000    0.4426600000000000    0.9042100000000000 C
   0.5003600000000000    0.3918400000000000    0.9221800000000000 C
   0.6631000000000000    0.4804700000000000    0.9368700000000000 C
   0.6919999999999999    0.4294100000000000    0.9542500000000000 C
   0.5514700000000000    0.4868800000000000    0.9124700000000000 C
   0.6112600000000000    0.3850300000000000    0.9476700000000000 C
   0.6072700000000000    0.5522700000000000    0.6365300000000000 C
   0.4576300000000000    0.5292000000000000    0.7783200000000000 C
   0.4792400000000000    0.5296600000000000    0.7193900000000000 C
   0.6715800000000000    0.5716500000000000    0.7422200000000000 C
   0.6504300000000000    0.5724900000000001    0.8015900000000000 C
   0.5430700000000001    0.5511100000000000    0.8190000000000000 C
   0.5864000000000000    0.5507100000000000    0.7008200000000000 C
   0.8537200000000000    0.6692200000000000    0.0320700000000000 C
   0.0295100000000000    0.5573399999999999    0.0957600000000000 C
   0.9996400000000000    0.6081600000000000    0.0777900000000000 C
   0.8369100000000000    0.5195300000000000    0.0631000000000000 C
   0.8080000000000001    0.5705900000000000    0.0457200000000000 C
   0.9485300000000000    0.5131200000000000    0.0874900000000000 C
   0.8887400000000000    0.6149700000000000    0.0522900000000000 C
   0.8927300000000000    0.4477300000000000    0.3634400000000000 C
   0.0423700000000000    0.4708100000000000    0.2216500000000000 C
   0.0207600000000000    0.4703500000000000    0.2805800000000000 C
   0.8284200000000000    0.4283500000000000    0.2577500000000000 C
   0.8495700000000000    0.4275100000000000    0.1983800000000000 C
   0.9569299999999999    0.4488900000000000    0.1809200000000000 C
   0.9136000000000000    0.4492900000000000    0.2991000000000000 C
   0.8963000000000000    0.9192300000000000    0.5320700000000000 C
   0.7205300000000000    0.8073700000000000    0.5957800000000000 C
   0.7504200000000000    0.8581900000000000    0.5778200000000000 C
   0.9419999999999999    0.8205900000000000    0.5457000000000000 C
   0.9130700000000000    0.7695300000000000    0.5630700000000000 C
   0.8014600000000000    0.7631300000000000    0.5874000000000000 C
   0.8613000000000000    0.8649800000000000    0.5523100000000000 C
   0.8572300000000000    0.6977300000000000    0.8634300000000000 C
   0.7075700000000000    0.7207800000000000    0.7216000000000000 C
   0.7291600000000000    0.7203200000000000    0.7805400000000000 C
   0.9215400000000000    0.6783700000000000    0.7577500000000000 C
   0.9004100000000000    0.6775200000000000    0.6983700000000000 C
   0.7930400000000000    0.6988900000000000    0.6808900000000000 C
   0.8363400000000000    0.6992900000000000    0.7991400000000000 C
   0.1036900000000000    0.5807700000000000    0.4679000000000000 C
   0.2794800000000000    0.6926200000000000    0.4041900000000000 C
   0.2495800000000000    0.6418000000000000    0.4221500000000000 C
   0.0580100000000000    0.6794100000000000    0.4542600000000000 C
   0.0869500000000000    0.7304600000000000    0.4369000000000000 C
   0.1985500000000000    0.7368600000000000    0.4124800000000000 C
   0.1387000000000000    0.6350100000000000    0.4476500000000000 C
   0.1427700000000000    0.8022600000000000    0.1365000000000000 C
   0.2924400000000000    0.7792100000000000    0.2783600000000000 C
   0.2708500000000000    0.7796700000000000    0.2194300000000000 C
   0.0784700000000000    0.8216300000000000    0.2422000000000000 C
   0.0996000000000000    0.8224700000000000    0.3016000000000000 C
   0.2069700000000000    0.8011100000000000    0.3190800000000000 C
   0.1636700000000000    0.8007100000000000    0.2008300000000000 C
   0.3963000000000000    0.9192300000000000    0.5320600000000000 C
   0.2205300000000000    0.8073700000000000    0.5957800000000000 C
   0.2504200000000000    0.8581900000000000    0.5778200000000000 C
   0.4420000000000000    0.8205900000000000    0.5457100000000000 C
   0.4130600000000000    0.7695300000000000    0.5630700000000000 C
   0.3014600000000000    0.7631300000000000    0.5874900000000000 C
   0.3613000000000000    0.8649800000000000    0.5523100000000000 C
   0.3572300000000000    0.6977300000000000    0.8634300000000000 C
   0.2075600000000000    0.7207800000000000    0.7216000000000000 C
   0.2291600000000000    0.7203300000000000    0.7805400000000000 C
   0.4215400000000000    0.6783700000000000    0.7577500000000000 C
   0.4004100000000000    0.6775200000000000    0.6983700000000000 C
   0.2930400000000000    0.6988900000000000    0.6808900000000000 C
   0.3363400000000000    0.6992900000000000    0.7991400000000000 C
   0.2591100000000000    0.1969200000000000    0.6059000000000000 S
   0.7408900000000000    0.3030800000000000    0.3940400000000000 S
   0.2408800000000000    0.3030800000000000    0.3940400000000000 S
   0.7591100000000000    0.1969200000000000    0.6059000000000000 S
   0.5091400000000000    0.0531000000000000    0.8940100000000000 S
   0.9908600000000000    0.9469100000000000    0.1059600000000000 S
   0.0091400000000000    0.0531000000000000    0.8940100000000000 S
   0.4908600000000000    0.9469100000000000    0.1059600000000000 S
   0.0091400000000000    0.5530900000000000    0.8940100000000000 S
   0.4908600000000000    0.4469100000000000    0.1059600000000000 S
   0.5091400000000000    0.5530900000000000    0.8940100000000000 S
   0.9908600000000000    0.4469100000000000    0.1059600000000000 S
   0.7591200000000000    0.6969200000000000    0.6059300000000000 S
   0.2408900000000000    0.8030800000000000    0.3940000000000000 S
   0.2591200000000000    0.6969200000000000    0.6059000000000000 S
   0.6625600000000000    0.8444000000000000    0.4275000000000000 O
   0.4949100000000000    0.5718500000000000    0.4752300000000000 O
   0.6874700000000000    0.5461900000000000    0.4752900000000000 O
   0.5050900000000000    0.4281500000000000    0.5247400000000000 O
   0.3125200000000000    0.4538100000000000    0.5246800000000000 O
   0.1307300000000000    0.1920100000000000    0.5997400000000001 O
   0.3374400000000000    0.1556000000000000    0.5724000000000000 O
   0.2655700000000000    0.1991900000000000    0.8952700000000000 O
   0.4639800000000000    0.1946200000000000    0.8799800000000000 O
   0.4949100000000000    0.0718500000000000    0.4752300000000000 O
   0.6874700000000000    0.0461900000000000    0.4750000000000000 O
   0.8692600000000000    0.3079900000000000    0.4002300000000000 O
   0.6625600000000000    0.3444000000000000    0.4275800000000000 O
   0.7344200000000000    0.3008100000000000    0.1047000000000000 O
   0.5360200000000001    0.3053800000000000    0.1199900000000000 O
   0.9949000000000000    0.0718500000000000    0.4752300000000000 O
   0.1874700000000000    0.0461900000000000    0.4752900000000000 O
   0.3692600000000000    0.3079900000000000    0.4002300000000000 O
   0.1625600000000000    0.3444000000000000    0.4275800000000000 O
   0.2344200000000000    0.3008100000000000    0.1047000000000000 O
   0.0360100000000000    0.3053800000000000    0.1199900000000000 O
   0.0000000000000000    0.4281500000000000    0.5247400000000000 O
   0.8125200000000000    0.4538100000000000    0.5246800000000000 O
   0.6307400000000000    0.1920100000000000    0.5997400000000001 O
   0.8374400000000000    0.1556000000000000    0.5724000000000000 O
   0.7655800000000000    0.1992000000000000    0.8952700000000000 O
   0.9639799999999999    0.1946200000000000    0.8799800000000000 O
   0.7550600000000000    0.8218600000000000    0.9752400000000000 O
   0.5625000000000000    0.7961900000000000    0.9752900000000000 O
   0.3807600000000000    0.0580100000000000    0.9002000000000000 O
   0.5874700000000000    0.0944200000000000    0.9275500000000000 O
   0.7140100000000000    0.0553900000000000    0.6199800000000000 O
   0.5155999999999999    0.0508200000000000    0.6046000000000000 O
   0.7449300000000000    0.1781500000000000    0.0247400000000000 O
   0.9374900000000000    0.2038100000000000    0.0246800000000000 O
   0.1192400000000000    0.9419900000000000    0.0997700000000000 O
   0.9125300000000000    0.9055800000000001    0.0724200000000000 O
   0.9843900000000000    0.9491800000000000    0.3952900000000000 O
   0.7859800000000000    0.9446099999999999    0.3799900000000000 O
   0.2550600000000000    0.8218600000000000    0.9752000000000000 O
   0.0625000000000000    0.7961900000000000    0.9752900000000000 O
   0.8807600000000000    0.0580100000000000    0.9002000000000000 O
   0.0874700000000000    0.0944200000000000    0.9275500000000000 O
   0.0156000000000000    0.0508200000000000    0.6046899999999999 O
   0.2140100000000000    0.0553900000000000    0.6199800000000000 O
   0.2449300000000000    0.1781400000000000    0.0247400000000000 O
   0.4374900000000000    0.2038100000000000    0.0246800000000000 O
   0.6192400000000000    0.9419900000000000    0.0997700000000000 O
   0.4125300000000000    0.9055800000000001    0.0724200000000000 O
   0.4843900000000000    0.9491800000000000    0.3952900000000000 O
   0.2859800000000000    0.9446099999999999    0.3799900000000000 O
   0.2550600000000000    0.3218600000000000    0.9752300000000000 O
   0.0625000000000000    0.2962000000000000    0.9752900000000000 O
   0.8807700000000001    0.5580000000000001    0.9002000000000000 O
   0.0874700000000000    0.5944199999999999    0.9275500000000000 O
   0.0156100000000000    0.5508200000000000    0.6046899999999999 O
   0.2140200000000000    0.5553900000000001    0.6199800000000000 O
   0.2449300000000000    0.6781400000000000    0.0247400000000000 O
   0.4374900000000000    0.7038000000000000    0.0246800000000000 O
   0.6192400000000000    0.4420000000000000    0.0997000000000000 O
   0.4125300000000000    0.4055800000000000    0.0724200000000000 O
   0.4843900000000000    0.4491800000000000    0.3952900000000000 O
   0.2859800000000000    0.4446100000000000    0.3799900000000000 O
   0.7550600000000000    0.3218600000000000    0.9752300000000000 O
   0.5625000000000000    0.2962000000000000    0.9752900000000000 O
   0.3807600000000000    0.5580000000000001    0.9002000000000000 O
   0.5874700000000000    0.5944199999999999    0.9275500000000000 O
   0.5155999999999999    0.5508200000000000    0.6046899999999999 O