H8 C14 S1 O6
1.0
  11.2719999158756359    0.0000000000000000   -0.0013771345895684
   0.0000068605024529   23.9766519470107795   -3.4034174607087317
   0.0000000000000000    0.0000000000000000   23.2139999999999986
H C S O
8 14 1 6
direct
   0.4724300000000000    0.6733800000000000    0.4740000000000000 H
   0.8128900000000000    0.6074500000000000    0.4171800000000000 H
   0.5241400000000001    0.7648700000000000    0.4420200000000000 H
   0.8659200000000000    0.6982500000000000    0.3850300000000000 H
   0.5349400000000000    0.8400100000000000    0.3339400000000000 H
   0.8762100000000000    0.7635900000000000    0.2928700000000000 H
   0.4959700000000000    0.8382300000000000    0.2273700000000000 H
   0.8380200000000000    0.7648200000000001    0.1872100000000000 H
   0.6036899999999999    0.5807700000000000    0.4679100000000000 C
   0.6387000000000000    0.6350100000000000    0.4476500000000000 C
   0.5580100000000000    0.6794100000000000    0.4542600000000000 C
   0.7495800000000000    0.6418000000000000    0.4221500000000000 C
   0.5869500000000000    0.7304600000000000    0.4369000000000000 C
   0.7794800000000000    0.6926200000000000    0.4041900000000000 C
   0.6985500000000000    0.7368600000000000    0.4124800000000000 C
   0.7069800000000001    0.8011100000000000    0.3190800000000000 C
   0.5996000000000000    0.8224700000000000    0.3016000000000000 C
   0.7924400000000000    0.7792100000000000    0.2783600000000000 C
   0.5784700000000000    0.8216300000000000    0.2422000000000000 C
   0.7708500000000000    0.7796700000000000    0.2194300000000000 C
   0.6636700000000000    0.8007100000000000    0.2008300000000000 C
   0.6427700000000000    0.8022600000000000    0.1365000000000000 C
   0.7408900000000000    0.8030800000000000    0.3940000000000000 S
   0.4949100000000000    0.5718500000000000    0.4752300000000000 O
   0.6625600000000000    0.8444000000000000    0.4275000000000000 O
   0.8692700000000000    0.8079900000000000    0.4002300000000000 O
   0.7344200000000000    0.8008100000000000    0.1047000000000000 O
   0.5360200000000001    0.8053800000000000    0.1199900000000000 O
   0.6874700000000000    0.5461900000000000    0.4752900000000000 O
