H4 C8 O4
1.0
  12.9403129572490148    0.0000000000000000    7.6373409357218867
   4.8706975555868217   11.4083099144385969    6.4926705767444108
   0.0000000000000000    0.0000000000000000   29.4819999999999993
H C O
4 8 4
direct
   0.2054300000000000    0.2230000000000000    0.6136850000000000 H
   0.3104400000000000    0.3521800000000000    0.5675200000000000 H
   0.6143300000000000    0.0696100000000000    0.5000000000000000 H
   0.5081599999999999    0.9394200000000000    0.5559450000000000 H
   0.5296800000000000    0.2982800000000000    0.5030950000000000 C
   0.4691700000000000    0.2189500000000000    0.5340000000000000 C
   0.2951600000000000    0.1902100000000000    0.5907400000000000 C
   0.3539600000000000    0.2621100000000000    0.5647500000000000 C
   0.2846300000000000    0.9987800000000000    0.6136900000000000 C
   0.3505100000000000    0.0741000000000000    0.5872250000000000 C
   0.5251300000000000    0.1022300000000000    0.5310500000000000 C
   0.4662100000000000    0.0300000000000000    0.5579499999999999 C
   0.6265600000000000    0.2699000000000000    0.4659500000000000 O
   0.4839400000000000    0.3992900000000000    0.5119000000000000 O
   0.1793500000000000    1.0481000000000000    0.6379450000000000 O
   0.3395700000000000    0.8941300000000000    0.6092750000000000 O
