Cu12 H42 C80 N10 O48
1.0
  14.9750289559796386    0.0000000000000000    4.2042150001601231
   2.5644571471230404   14.0620148921184338    2.5178349259649457
   0.0000000000000000    0.0000000000000000   30.0500000000000007
Cu H C N O
12 42 80 10 48
direct
   0.9275400000000000    0.4832900000000000    0.2472550000000000 Cu
   0.0715000000000000    0.5141300000000000    0.2547150000000000 Cu
   0.9275400000000000    0.4832900000000000    0.7472550000000000 Cu
   0.0715000000000000    0.5141300000000000    0.7547150000000000 Cu
   0.4942000000000000    0.9191200000000000    0.2432600000000000 Cu
   0.5053000000000000    0.0782000000000000    0.7571200000000000 Cu
   0.4942000000000000    0.9191200000000000    0.7432600000000000 Cu
   0.5053000000000000    0.0782000000000000    0.2571200000000000 Cu
   0.4972900000000000    0.4799200000000000    0.9626399999999999 Cu
   0.4972900000000000    0.4799200000000000    0.4626400000000000 Cu
   0.5014400000000000    0.5173300000000000    0.5385650000000000 Cu
   0.5014400000000000    0.5173300000000000    0.0385650000000000 Cu
   0.9448806119081501    0.3023257137144258    0.2500691815311271 H
   0.1760151087927609    0.3518335187226949    0.2635784315428100 H
   1.0649241414672415    0.3146007615064536    0.2572511646710208 H
   0.8231892970890796    0.6453256180740609    0.2386104463660823 H
   0.0545488346479382    0.6954766151576721    0.2514832629704592 H
  -0.0654815920556845    0.6829057637476431    0.2446182771140012 H
   0.6723663482575145    0.0716821740141953    0.2553192709840612 H
   0.6534114875867342    0.8147670100701854    0.2356191978998425 H
   0.6744751968110753   -0.0611195044991161    0.2451026666932850 H
   0.9787000000000000    0.1774500000000000    0.7529150000000000 H
   0.2090500000000000    0.9501800000000000    0.7511800000000000 H
   0.2355000000000000    0.2363900000000000    0.7585100000000000 H
   0.0204600000000000    0.8205700000000000    0.7483900000000000 H
   0.7902200000000000    0.0476000000000000    0.7489200000000000 H
   0.7640900000000000    0.7607400000000000    0.7426600000000000 H
   0.3271826472962371    0.9257779646113901    0.2445562616434144 H
   0.3461027227570077    0.1821345729231567    0.2650387111699467 H
   0.3250418356248909    1.0582159592593487    0.2551513272485364 H
   0.7891000000000000    0.4989800000000000    0.5236250000000000 H
   0.7736400000000000    0.4833800000000000    0.3842700000000000 H
   0.0293500000000000    0.4977800000000000    0.4108900000000000 H
   0.2096500000000000    0.4990500000000000    0.4782800000000000 H
   0.2251600000000000    0.5145000000000000    0.6176500000000000 H
   0.9693800000000000    0.5003700000000000    0.5910050000000000 H
   0.7891000000000000    0.4989800000000000    0.0236250000000000 H
   0.7736400000000000    0.4833800000000000    0.8842700000000000 H
   0.0293500000000000    0.4977800000000000    0.9108900000000000 H
   0.2096500000000000    0.4990500000000000    0.9782800000000000 H
   0.2251600000000000    0.5145000000000000    0.1176500000000000 H
   0.9693800000000000    0.5003700000000000    0.0910050000000000 H
   0.4671600000000000    0.7542700000000000    0.8823400000000000 H
   0.4690500000000000    0.0426700000000000    0.8991050000000000 H
   0.4866600000000000    0.8210400000000000    0.0133400000000000 H
   0.5321700000000000    0.2430200000000000    0.1179000000000000 H
   0.5306900000000000    0.9543400000000000    0.1014700000000000 H
   0.5130400000000001    0.1754300000000000    0.9870050000000000 H
   0.4671600000000000    0.7542700000000000    0.3823400000000000 H
   0.4690500000000000    0.0426700000000000    0.3991050000000000 H
   0.4866600000000000    0.8210400000000000    0.5133400000000000 H
   0.5321700000000000    0.2430200000000000    0.6179000000000000 H
   0.5306900000000000    0.9543400000000000    0.6014699999999999 H
   0.5130400000000001    0.1754300000000000    0.4870050000000000 H
   0.0633000000000000    0.3212100000000000    0.7559500000000000 C
   0.9360600000000000    0.6762899999999999    0.7458100000000000 C
   0.6685900000000000    0.9410200000000000    0.7459400000000000 C
   0.3309300000000000    0.0561600000000000    0.7544100000000000 C
   0.0495700000000000    0.1531400000000000    0.7538000000000000 C
   0.1028500000000000    0.2175200000000000    0.7559100000000001 C
   0.1796300000000000    0.0251200000000000    0.7528000000000000 C
   0.1943200000000000    0.1858900000000000    0.7565000000000000 C
   0.2327900000000000    0.0897500000000000    0.7550300000000000 C
   0.0881100000000000    0.0563900000000000    0.7524400000000000 C
   0.9496700000000000    0.8447000000000000    0.7472950000000000 C
   0.8965400000000000    0.7800400000000000    0.7453650000000001 C
   0.9111000000000000    0.9415300000000000    0.7482200000000000 C
   0.8196800000000000    0.9726000000000000    0.7476050000000000 C
   0.8051600000000000    0.8114600000000000    0.7441250000000000 C
   0.7666700000000000    0.9076700000000000    0.7455250000000000 C
   0.0523800000000000    0.5066100000000000    0.6614750000000000 C
   0.9463100000000000    0.4911400000000000    0.3404500000000000 C
   0.6707100000000000    0.4911700000000000    0.4726450000000000 C
   0.3280500000000000    0.5066500000000000    0.5292000000000000 C
   0.9146300000000001    0.4968800000000000    0.4711100000000000 C
   0.8213800000000000    0.4958600000000000    0.4868250000000000 C
   0.8129400000000000    0.4873100000000000    0.4085800000000000 C
   0.7704700000000000    0.4907900000000000    0.4557300000000000 C
   0.9572100000000000    0.4951800000000000    0.4232900000000000 C
   0.9059199999999999    0.4906300000000000    0.3921150000000000 C
   0.1773500000000000    0.5022000000000000    0.5150749999999999 C
   0.1858300000000000    0.5106700000000000    0.5933300000000000 C
   0.2282700000000000    0.5072100000000000    0.5461500000000000 C
   0.0840900000000000    0.5012700000000000    0.5307500000000001 C
   0.0415300000000000    0.5029400000000001    0.5786050000000000 C
   0.0928400000000000    0.5073100000000000    0.6098000000000000 C
   0.0523800000000000    0.5066100000000000    0.1614750000000000 C
   0.9463100000000000    0.4911400000000000    0.8404499999999999 C
   0.6707100000000000    0.4911700000000000    0.9726450000000000 C
   0.3280500000000000    0.5066500000000000    0.0292000000000000 C
   0.9146300000000001    0.4968800000000000    0.9711099999999999 C
   0.8213800000000000    0.4958600000000000    0.9868250000000001 C
   0.8129400000000000    0.4873100000000000    0.9085799999999999 C
   0.7704700000000000    0.4907900000000000    0.9557300000000000 C
   0.9572100000000000    0.4951800000000000    0.9232899999999999 C
   0.9059199999999999    0.4906300000000000    0.8921150000000000 C
   0.1773500000000000    0.5022000000000000    0.0150750000000000 C
   0.1858300000000000    0.5106700000000000    0.0933300000000000 C
   0.2282700000000000    0.5072100000000000    0.0461500000000000 C
   0.0840900000000000    0.5012700000000000    0.0307500000000000 C
   0.0415300000000000    0.5029400000000001    0.0786050000000000 C
   0.0928400000000000    0.5073100000000000    0.1098000000000000 C
   0.4799100000000000    0.6748300000000000    0.9694450000000000 C
   0.5193500000000000    0.3219900000000000    0.0308250000000000 C
   0.4702900000000000    0.9344200000000000    0.8355399999999999 C
   0.5291700000000000    0.0630800000000000    0.1648800000000000 C
   0.4690700000000000    0.8063600000000000    0.9039100000000000 C
   0.4701400000000000    0.9683100000000000    0.9132700000000000 C
   0.4783000000000000    0.9392600000000000    0.9588200000000000 C
   0.4674600000000000    0.9017800000000000    0.8855100000000000 C
   0.4802900000000000    0.8435400000000000    0.9777450000000000 C
   0.4750000000000000    0.7775800000000000    0.9502500000000000 C
   0.5304000000000000    0.1907600000000000    0.0963900000000000 C
   0.5295600000000000    0.0286500000000000    0.0872100000000000 C
   0.5214400000000000    0.0574400000000000    0.0416400000000000 C
   0.5321100000000000    0.0954100000000000    0.1148850000000000 C
   0.5194000000000000    0.1531100000000000    0.0226100000000000 C
   0.5245300000000001    0.2192600000000000    0.0500350000000000 C
   0.4799100000000000    0.6748300000000000    0.4694450000000000 C
   0.5193500000000000    0.3219900000000000    0.5308250000000000 C
   0.4702900000000000    0.9344200000000000    0.3355400000000000 C
   0.5291700000000000    0.0630800000000000    0.6648800000000000 C
   0.4690700000000000    0.8063600000000000    0.4039100000000000 C
   0.4701400000000000    0.9683100000000000    0.4132700000000000 C
   0.4783000000000000    0.9392600000000000    0.4588200000000000 C
   0.4674600000000000    0.9017800000000000    0.3855100000000000 C
   0.4802900000000000    0.8435400000000000    0.4777450000000000 C
   0.4750000000000000    0.7775800000000000    0.4502500000000000 C
   0.5304000000000000    0.1907600000000000    0.5963900000000000 C
   0.5295600000000000    0.0286500000000000    0.5872100000000000 C
   0.5214400000000000    0.0574400000000000    0.5416400000000000 C
   0.5321100000000000    0.0954100000000000    0.6148850000000000 C
   0.5194000000000000    0.1531100000000000    0.5226100000000000 C
   0.5245300000000001    0.2192600000000000    0.5500350000000001 C
   0.9578500000000000    0.0000000000000000    0.7503000000000000 N
   0.0412800000000000    0.9843100000000000    0.7502599999999999 N
   0.9565800000000000    0.5008400000000000    0.5000000000000000 N
   0.0421400000000000    0.4973400000000000    0.4946150000000000 N
   0.9565800000000000    0.5008400000000000    0.0000000000000000 N
   0.0421400000000000    0.4973400000000000    0.9946150000000000 N
   0.4854200000000000    0.0000000000000000    0.9819650000000000 N
   0.5143600000000000    0.9835600000000000    0.0185500000000000 N
   0.4854200000000000    0.0000000000000000    0.4819650000000000 N
   0.5143600000000000    0.9835600000000000    0.5185500000000000 N
   0.9816100000000000    0.3471600000000000    0.2517600000000000 O
   0.1149700000000000    0.3756900000000000    0.2595550000000000 O
   0.8843200000000000    0.6215700000000000    0.2425250000000000 O
   0.0177800000000000    0.6505500000000000    0.2499500000000000 O
   0.6359399999999999    0.0279600000000000    0.2520600000000000 O
   0.6252700000000000    0.8798200000000000    0.2407000000000000 O
   0.9816100000000000    0.3471600000000000    0.7517600000000000 O
   0.1149700000000000    0.3756900000000000    0.7595550000000000 O
   0.0177800000000000    0.6505500000000000    0.7499500000000000 O
   0.8843200000000000    0.6215700000000000    0.7425250000000000 O
   0.6252700000000000    0.8798200000000000    0.7407000000000000 O
   0.6359399999999999    0.0279600000000000    0.7520600000000000 O
   0.3742800000000000    0.1171600000000000    0.7598100000000000 O
   0.3635800000000000    0.9693500000000000    0.7480000000000000 O
   0.3635800000000000    0.9693500000000000    0.2480000000000000 O
   0.3742800000000000    0.1171600000000000    0.2598100000000000 O
   0.9710400000000000    0.4919700000000000    0.6777500000000000 O
   0.1045200000000000    0.5195100000000000    0.6854700000000000 O
   0.0274500000000000    0.5063600000000000    0.3241250000000000 O
   0.8944000000000000    0.4773200000000000    0.3165500000000000 O
   0.6340200000000000    0.5079000000000000    0.5145000000000000 O
   0.6300900000000000    0.4756600000000000    0.4436800000000000 O
   0.3647600000000000    0.4887800000000000    0.4873650000000000 O
   0.3686500000000000    0.5231600000000000    0.5579450000000000 O
   0.9710400000000000    0.4919700000000000    0.1777500000000000 O
   0.1045200000000000    0.5195100000000000    0.1854700000000000 O
   0.0274500000000000    0.5063600000000000    0.8241250000000000 O
   0.8944000000000000    0.4773200000000000    0.8165500000000000 O
   0.6340200000000000    0.5079000000000000    0.0145000000000000 O
   0.6300900000000000    0.4756600000000000    0.9436800000000001 O
   0.3647600000000000    0.4887800000000000    0.9873650000000000 O
   0.3686500000000000    0.5231600000000000    0.0579450000000000 O
   0.4849300000000000    0.6524799999999999    0.0118250000000000 O
   0.4800600000000000    0.6175100000000000    0.9415500000000000 O
   0.5149000000000000    0.3443000000000000    0.9883500000000001 O
   0.5183800000000000    0.3793500000000000    0.0588650000000000 O
   0.4683200000000000    0.8735200000000000    0.8100600000000000 O
   0.4778500000000000    0.0216000000000000    0.8221350000000001 O
   0.5303900000000000    0.1243000000000000    0.1903700000000000 O
   0.5222599999999999    0.9757400000000001    0.1782700000000000 O
   0.4849300000000000    0.6524799999999999    0.5118250000000000 O
   0.4800600000000000    0.6175100000000000    0.4415500000000000 O
   0.5149000000000000    0.3443000000000000    0.4883500000000000 O
   0.5183800000000000    0.3793500000000000    0.5588649999999999 O
   0.4683200000000000    0.8735200000000000    0.3100600000000000 O
   0.4778500000000000    0.0216000000000000    0.3221350000000000 O
   0.5303900000000000    0.1243000000000000    0.6903700000000000 O
   0.5222599999999999    0.9757400000000001    0.6782700000000000 O
