H12 O8
1.0
  14.9750289559796386    0.0000000000000000    4.2042150001601231
   2.5644571471230404   14.0620148921184338    2.5178349259649457
   0.0000000000000000    0.0000000000000000   30.0500000000000007
H O
12 8
direct
   0.8231892970890796    0.6453256180740609    0.2386104463660823 H
   0.0545488346479382    0.6954766151576721    0.2514832629704592 H
  -0.0654815920556845    0.6829057637476431    0.2446182771140012 H
   0.6723663482575145    0.0716821740141953    0.2553192709840612 H
   0.6534114875867342    0.8147670100701854    0.2356191978998425 H
   0.6744751968110753   -0.0611195044991161    0.2451026666932850 H
   0.9448806119081501    0.3023257137144258    0.2500691815311271 H
   0.1760151087927609    0.3518335187226949    0.2635784315428100 H
   1.0649241414672415    0.3146007615064536    0.2572511646710208 H
   0.3271826472962371    0.9257779646113901    0.2445562616434144 H
   0.3461027227570077    0.1821345729231567    0.2650387111699467 H
   0.3250418356248909    1.0582159592593487    0.2551513272485364 H
   0.8843200000000000    0.6215700000000000    0.2425250000000000 O
   0.0177800000000000    0.6505500000000000    0.2499500000000000 O
   0.6359399999999999    0.0279600000000000    0.2520600000000000 O
   0.6252700000000000    0.8798200000000000    0.2407000000000000 O
   0.9816100000000000    0.3471600000000000    0.2517600000000000 O
   0.1149700000000000    0.3756900000000000    0.2595550000000000 O
   0.3635800000000000    0.9693500000000000    0.2480000000000000 O
   0.3742800000000000    0.1171600000000000    0.2598100000000000 O
