Zn16 H188 C372 N94 O2
1.0
  29.6519999593536809    0.0000000000000000    0.0015525750886924
   0.0003449065428875   20.7379479518030791   -6.5872297386189604
   0.0000000000000000    0.0000000000000000   25.4959999999999987
Zn H C N O
16 188 372 94 2
direct
   0.2500000000000000    0.5008000000000000    0.9999750000000001 Zn
   0.7500000000000000    0.5008000000000000    0.9999750000000001 Zn
   0.5000000000000000    0.4991700000000000    0.0000000000000000 Zn
   0.2500000000000000    0.9999900000000000    0.0001050000000000 Zn
   0.0000000000000000    0.4991700000000000    0.0000000000000000 Zn
   0.7500000000000000    0.9999900000000000    0.0001050000000000 Zn
   0.0000000000000000    0.0000000000000000    0.9998500000000000 Zn
   0.5000000000000000    0.0000000000000000    0.9998500000000000 Zn
   0.2500000000000000    0.5008000000000000    0.4999750000000000 Zn
   0.7500000000000000    0.5008000000000000    0.4999750000000000 Zn
   0.0000000000000000    0.4991700000000000    0.5000000000000000 Zn
   0.7500000000000000    0.9999900000000000    0.5001050000000000 Zn
   0.5000000000000000    0.4991700000000000    0.5000000000000000 Zn
   0.2500000000000000    0.9999900000000000    0.5001050000000000 Zn
   0.5000000000000000    0.0000000000000000    0.4998500000000000 Zn
   0.0000000000000000    0.0000000000000000    0.4998500000000000 Zn
   0.7499950000000000    0.1002100000000000    0.7140649999999999 H
   0.7500000000000000    0.2418000000000000    0.6258350000000000 H
   0.7500000000000000    0.0144800000000000    0.6221800000000000 H
   0.7500000000000000    0.1500100000000000    0.5386400000000000 H
   0.7500000000000000    0.4001200000000000    0.7859750000000000 H
   0.7500000000000000    0.2587300000000000    0.8744000000000001 H
   0.7499950000000000    0.4859600000000000    0.8774999999999999 H
   0.7499950000000000    0.3506300000000000    0.9615300000000000 H
   0.2499950000000000    0.1002100000000000    0.7140649999999999 H
   0.2500000000000000    0.2418000000000000    0.6258350000000000 H
   0.2500000000000000    0.0144800000000000    0.6221800000000000 H
   0.2500000000000000    0.1500100000000000    0.5386400000000000 H
   0.2500000000000000    0.4001200000000000    0.7859750000000000 H
   0.2500000000000000    0.2587300000000000    0.8744000000000001 H
   0.2499950000000000    0.4859600000000000    0.8774999999999999 H
   0.2499950000000000    0.3506300000000000    0.9615300000000000 H
   0.7499950000000000    0.1002100000000000    0.2140650000000000 H
   0.7500000000000000    0.2418000000000000    0.1258350000000000 H
   0.7500000000000000    0.0144800000000000    0.1221800000000000 H
   0.7500000000000000    0.1500100000000000    0.0386400000000000 H
   0.7500000000000000    0.4001200000000000    0.2859750000000000 H
   0.7500000000000000    0.2587300000000000    0.3744000000000000 H
   0.7499950000000000    0.4859600000000000    0.3775000000000000 H
   0.7499950000000000    0.3506300000000000    0.4615300000000000 H
   0.2499950000000000    0.1002100000000000    0.2140650000000000 H
   0.2500000000000000    0.2418000000000000    0.1258350000000000 H
   0.2500000000000000    0.0144800000000000    0.1221800000000000 H
   0.2500000000000000    0.1500100000000000    0.0386400000000000 H
   0.2500000000000000    0.4001200000000000    0.2859750000000000 H
   0.2500000000000000    0.2587300000000000    0.3744000000000000 H
   0.2499950000000000    0.4859600000000000    0.3775000000000000 H
   0.2499950000000000    0.3506300000000000    0.4615300000000000 H
   0.5000050000000000    0.8997600000000000    0.2859000000000000 H
   0.5000050000000000    0.7581700000000000    0.3741450000000000 H
   0.5000000000000000    0.9854900000000000    0.3778000000000000 H
   0.5000000000000000    0.8499600000000000    0.4613400000000000 H
   0.5000000000000000    0.7412400000000000    0.1255800000000000 H
   0.5000000000000000    0.5998500000000000    0.2140150000000000 H
   0.5000050000000000    0.5140100000000000    0.1221500000000000 H
   0.5000050000000000    0.6493300000000000    0.0384550000000000 H
   0.0000050000000000    0.8997600000000000    0.2859000000000000 H
   0.0000050000000000    0.7581700000000000    0.3741450000000000 H
   0.0000000000000000    0.9854900000000000    0.3778000000000000 H
   0.0000000000000000    0.8499600000000000    0.4613400000000000 H
   0.0000000000000000    0.7412400000000000    0.1255800000000000 H
   0.0000000000000000    0.5998500000000000    0.2140150000000000 H
   0.0000050000000000    0.5140100000000000    0.1221500000000000 H
   0.0000050000000000    0.6493300000000000    0.0384550000000000 H
   0.5000050000000000    0.8997600000000000    0.7859000000000000 H
   0.5000050000000000    0.7581700000000000    0.8741449999999999 H
   0.5000000000000000    0.9854900000000000    0.8778000000000000 H
   0.5000000000000000    0.8499600000000000    0.9613400000000000 H
   0.5000000000000000    0.7412400000000000    0.6255800000000000 H
   0.5000000000000000    0.5998500000000000    0.7140150000000001 H
   0.5000050000000000    0.5140100000000000    0.6221500000000000 H
   0.5000050000000000    0.6493300000000000    0.5384550000000000 H
   0.0000050000000000    0.8997600000000000    0.7859000000000000 H
   0.0000050000000000    0.7581700000000000    0.8741449999999999 H
   0.0000000000000000    0.9854900000000000    0.8778000000000000 H
   0.0000000000000000    0.8499600000000000    0.9613400000000000 H
   0.0000000000000000    0.7412400000000000    0.6255800000000000 H
   0.0000000000000000    0.5998500000000000    0.7140150000000001 H
   0.0000050000000000    0.5140100000000000    0.6221500000000000 H
   0.0000050000000000    0.6493300000000000    0.5384550000000000 H
   0.2499963613739223    0.8756009370897224    0.4221148979848981 H
   0.2500000000000000    0.9307483729812404    0.3880274171342482 H
   0.7500000000000000    0.6000300000000000    0.2138150000000000 H
   0.7500000000000000    0.7421100000000000    0.1260850000000000 H
   0.7500000000000000    0.5145500000000000    0.1217650000000000 H
   0.7500000000000000    0.6505600000000000    0.0387000000000000 H
   0.7500000000000000    0.8998699999999999    0.2862500000000000 H
   0.7499950000000000    0.7582300000000000    0.3744250000000000 H
   0.7500000000000000    0.9855900000000000    0.3781500000000000 H
   0.7500000000000000    0.8500200000000000    0.4616550000000000 H
   0.2500022761799846    0.6247960489439064    0.0781377509278630 H
   0.2500022665226485    0.5694739983129502    0.1120529078489190 H
   0.5000000000000000    0.1001000000000000    0.7137000000000000 H
   0.5000000000000000    0.2417400000000000    0.6255600000000000 H
   0.5000000000000000    0.0143800000000000    0.6218200000000000 H
   0.5000000000000000    0.1499600000000000    0.5383300000000000 H
   0.5000050000000000    0.3999400000000000    0.7861750000000001 H
   0.5000000000000000    0.2578500000000000    0.8739000000000000 H
   0.5000000000000000    0.4854100000000000    0.8782250000000000 H
   0.5000000000000000    0.3494000000000000    0.9612849999999999 H
   0.0000000000000000    0.1001000000000000    0.7137000000000000 H
   0.0000000000000000    0.2417400000000000    0.6255600000000000 H
   0.0000000000000000    0.0143800000000000    0.6218200000000000 H
   0.0000000000000000    0.1499600000000000    0.5383300000000000 H
   0.0000050000000000    0.3999400000000000    0.7861750000000001 H
   0.0000000000000000    0.2578500000000000    0.8739000000000000 H
   0.0000000000000000    0.4854100000000000    0.8782250000000000 H
   0.0000000000000000    0.3494000000000000    0.9612849999999999 H
   0.3025050000000000    0.8088300000000000    0.0106500000000000 H
   0.3025900000000000    0.6909800000000000    0.9892449999999999 H
   0.4478050000000000    0.6911900000000000    0.9894950000000000 H
   0.4477150000000000    0.8090600000000000    0.0109000000000000 H
   0.0521950000000000    0.6911900000000000    0.9894900000000000 H
   0.0522800000000000    0.8090600000000000    0.0108900000000000 H
   0.1974100000000000    0.6909800000000000    0.9892550000000000 H
   0.1974950000000000    0.8088400000000000    0.0106600000000000 H
   0.8025050000000000    0.8088300000000000    0.0106500000000000 H
   0.8025900000000000    0.6909800000000000    0.9892449999999999 H
   0.9478050000000000    0.6911900000000000    0.9894950000000000 H
   0.9477150000000000    0.8090600000000000    0.0109000000000000 H
   0.5521950000000000    0.6911900000000000    0.9894900000000000 H
   0.5522800000000000    0.8090600000000000    0.0108900000000000 H
   0.6974100000000000    0.6909800000000000    0.9892550000000000 H
   0.6974950000000000    0.8088400000000000    0.0106600000000000 H
   0.5525900000000000    0.3089800000000000    0.0107300000000000 H
   0.5525050000000000    0.1911200000000000    0.9893200000000000 H
   0.6977200000000000    0.1909000000000000    0.9890900000000000 H
   0.6978050000000000    0.3087700000000000    0.0100000000000000 H
   0.3022800000000000    0.1909000000000000    0.9890800000000000 H
   0.3021900000000000    0.3087700000000000    0.0104500000000000 H
   0.4474050000000000    0.3089800000000000    0.0107400000000000 H
   0.4474950000000000    0.1911300000000000    0.9893300000000000 H
   0.0525900000000000    0.3089800000000000    0.0107300000000000 H
   0.0525050000000000    0.1911200000000000    0.9893200000000000 H
   0.1977200000000000    0.1909000000000000    0.9890900000000000 H
   0.1978050000000000    0.3087700000000000    0.0100000000000000 H
   0.8022800000000000    0.1909000000000000    0.9890800000000000 H
   0.8021900000000000    0.3087700000000000    0.0104500000000000 H
   0.9474050000000001    0.3089800000000000    0.0107400000000000 H
   0.9474950000000000    0.1911300000000000    0.9893300000000000 H
   0.7500000000000000    0.6000300000000000    0.7138150000000000 H
   0.7500000000000000    0.7421100000000000    0.6260850000000000 H
   0.7500000000000000    0.5145500000000000    0.6217650000000000 H
   0.7500000000000000    0.6505600000000000    0.5387000000000000 H
   0.7500000000000000    0.8998699999999999    0.7862500000000000 H
   0.7499950000000000    0.7582300000000000    0.8744250000000000 H
   0.7500000000000000    0.9855900000000000    0.8781500000000000 H
   0.7500000000000000    0.8500200000000000    0.9616549999999999 H
   0.2500000000000000    0.6000300000000000    0.7138150000000000 H
   0.2500000000000000    0.7421100000000000    0.6260850000000000 H
   0.2500000000000000    0.5145500000000000    0.6217650000000000 H
   0.2500000000000000    0.6505600000000000    0.5387000000000000 H
   0.2500000000000000    0.8998699999999999    0.7862500000000000 H
   0.2499950000000000    0.7582300000000000    0.8744250000000000 H
   0.2500000000000000    0.9855900000000000    0.8781500000000000 H
   0.2500000000000000    0.8500200000000000    0.9616549999999999 H
   0.5000000000000000    0.1001000000000000    0.2137000000000000 H
   0.5000000000000000    0.2417400000000000    0.1255600000000000 H
   0.5000000000000000    0.0143800000000000    0.1218200000000000 H
   0.5000000000000000    0.1499600000000000    0.0383300000000000 H
   0.5000050000000000    0.3999400000000000    0.2861750000000000 H
   0.5000000000000000    0.2578500000000000    0.3739000000000000 H
   0.5000000000000000    0.4854100000000000    0.3782250000000000 H
   0.5000000000000000    0.3494000000000000    0.4612850000000000 H
   0.0000000000000000    0.1001000000000000    0.2137000000000000 H
   0.0000000000000000    0.2417400000000000    0.1255600000000000 H
   0.0000000000000000    0.0143800000000000    0.1218200000000000 H
   0.0000000000000000    0.1499600000000000    0.0383300000000000 H
   0.0000050000000000    0.3999400000000000    0.2861750000000000 H
   0.0000000000000000    0.2578500000000000    0.3739000000000000 H
   0.0000000000000000    0.4854100000000000    0.3782250000000000 H
   0.0000000000000000    0.3494000000000000    0.4612850000000000 H
   0.3025050000000000    0.8088300000000000    0.5106500000000000 H
   0.3025900000000000    0.6909800000000000    0.4892450000000000 H
   0.4478050000000000    0.6911900000000000    0.4894950000000000 H
   0.4477150000000000    0.8090600000000000    0.5109000000000000 H
   0.0521950000000000    0.6911900000000000    0.4894900000000000 H
   0.0522800000000000    0.8090600000000000    0.5108900000000000 H
   0.1974100000000000    0.6909800000000000    0.4892550000000000 H
   0.1974950000000000    0.8088400000000000    0.5106600000000000 H
   0.8025050000000000    0.8088300000000000    0.5106500000000000 H
   0.8025900000000000    0.6909800000000000    0.4892450000000000 H
   0.9478050000000000    0.6911900000000000    0.4894950000000000 H
   0.9477150000000000    0.8090600000000000    0.5109000000000000 H
   0.5521950000000000    0.6911900000000000    0.4894900000000000 H
   0.5522800000000000    0.8090600000000000    0.5108900000000000 H
   0.6974100000000000    0.6909800000000000    0.4892550000000000 H
   0.6974950000000000    0.8088400000000000    0.5106600000000000 H
   0.0525900000000000    0.3089800000000000    0.5107300000000000 H
   0.0525050000000000    0.1911200000000000    0.4893200000000000 H
   0.1977200000000000    0.1909000000000000    0.4890900000000000 H
   0.1978050000000000    0.3087700000000000    0.5100000000000000 H
   0.8022800000000000    0.1909000000000000    0.4890800000000000 H
   0.8021900000000000    0.3087700000000000    0.5104500000000000 H
   0.9474050000000001    0.3089800000000000    0.5107400000000000 H
   0.9474950000000000    0.1911300000000000    0.4893300000000000 H
   0.5525900000000000    0.3089800000000000    0.5107300000000000 H
   0.5525050000000000    0.1911200000000000    0.4893200000000000 H
   0.6977200000000000    0.1909000000000000    0.4890900000000000 H
   0.6978050000000000    0.3087700000000000    0.5100000000000000 H
   0.3022800000000000    0.1909000000000000    0.4890800000000000 H
   0.3021900000000000    0.3087700000000000    0.5104500000000000 H
   0.4474050000000000    0.3089800000000000    0.5107400000000000 H
   0.4474950000000000    0.1911300000000000    0.4893300000000000 H
   0.7500000000000000    0.1131700000000000    0.6760300000000000 C
   0.7500000000000000    0.1922000000000000    0.6269950000000000 C
   0.7499950000000000    0.0656000000000000    0.6254450000000000 C
   0.7499950000000000    0.1413600000000000    0.5785150000000000 C
   0.7499950000000000    0.1785100000000000    0.6776100000000000 C
   0.7499950000000000    0.2717700000000000    0.7719100000000000 C
   0.7500000000000000    0.2286100000000000    0.7282600000000000 C
   0.7499899999999999    0.3872300000000000    0.8240400000000000 C
   0.7499899999999999    0.3083000000000000    0.8731850000000000 C
   0.7500100000000001    0.4348600000000000    0.8745950000000000 C
   0.7500100000000001    0.3592000000000000    0.9216250000000000 C
   0.7500100000000001    0.3219100000000000    0.8225350000000000 C
   0.2500000000000000    0.1131700000000000    0.6760300000000000 C
   0.2500000000000000    0.1922000000000000    0.6269950000000000 C
   0.2499950000000000    0.0656000000000000    0.6254450000000000 C
   0.2499950000000000    0.1413600000000000    0.5785150000000000 C
   0.2499950000000000    0.1785100000000000    0.6776100000000000 C
   0.2499950000000000    0.2717700000000000    0.7719100000000000 C
   0.2500000000000000    0.2286100000000000    0.7282600000000000 C
   0.2499900000000000    0.3872300000000000    0.8240400000000000 C
   0.2499900000000000    0.3083000000000000    0.8731850000000000 C
   0.2500100000000000    0.4348600000000000    0.8745950000000000 C
   0.2500100000000000    0.3592000000000000    0.9216250000000000 C
   0.2500100000000000    0.3219100000000000    0.8225350000000000 C
   0.7500000000000000    0.1131700000000000    0.1760300000000000 C
   0.7500000000000000    0.1922000000000000    0.1269950000000000 C
   0.7499950000000000    0.0656000000000000    0.1254450000000000 C
   0.7499950000000000    0.1413600000000000    0.0785150000000000 C
   0.7499950000000000    0.1785100000000000    0.1776100000000000 C
   0.7499950000000000    0.2717700000000000    0.2719100000000000 C
   0.7500000000000000    0.2286100000000000    0.2282600000000000 C
   0.7499899999999999    0.3872300000000000    0.3240400000000000 C
   0.7499899999999999    0.3083000000000000    0.3731850000000000 C
   0.7500100000000001    0.4348600000000000    0.3745950000000000 C
   0.7500100000000001    0.3592000000000000    0.4216250000000000 C
   0.7500100000000001    0.3219100000000000    0.3225350000000000 C
   0.2500000000000000    0.1131700000000000    0.1760300000000000 C
   0.2500000000000000    0.1922000000000000    0.1269950000000000 C
   0.2499950000000000    0.0656000000000000    0.1254450000000000 C
   0.2499950000000000    0.1413600000000000    0.0785150000000000 C
   0.2499950000000000    0.1785100000000000    0.1776100000000000 C
   0.2499950000000000    0.2717700000000000    0.2719100000000000 C
   0.2500000000000000    0.2286100000000000    0.2282600000000000 C
   0.2499900000000000    0.3872300000000000    0.3240400000000000 C
   0.2499900000000000    0.3083000000000000    0.3731850000000000 C
   0.2500100000000000    0.4348600000000000    0.3745950000000000 C
   0.2500100000000000    0.3592000000000000    0.4216250000000000 C
   0.2500100000000000    0.3219100000000000    0.3225350000000000 C
   0.4999850000000000    0.8868000000000000    0.3239500000000000 C
   0.4999850000000000    0.8077700000000000    0.3729850000000000 C
   0.5000200000000000    0.9343700000000000    0.3745350000000000 C
   0.5000000000000000    0.8586100000000000    0.4214650000000000 C
   0.5000200000000000    0.8214600000000000    0.3223700000000000 C
   0.4999950000000000    0.7713600000000000    0.2717200000000000 C
   0.5000100000000000    0.7282000000000000    0.2280750000000000 C
   0.5000200000000000    0.6916600000000001    0.1268000000000000 C
   0.5000200000000000    0.6127400000000000    0.1755000000000000 C
   0.4999800000000000    0.5651100000000000    0.1253950000000000 C
   0.4999800000000000    0.6407600000000000    0.0783600000000000 C
   0.4999800000000000    0.6780600000000000    0.1774500000000000 C
   0.9999850000000000    0.8868000000000000    0.3239500000000000 C
   0.9999850000000000    0.8077700000000000    0.3729850000000000 C
   0.0000200000000000    0.9343700000000000    0.3745350000000000 C
   0.0000000000000000    0.8586100000000000    0.4214650000000000 C
   0.0000200000000000    0.8214600000000000    0.3223700000000000 C
   0.0000100000000000    0.7282000000000000    0.2280750000000000 C
   0.9999950000000000    0.7713600000000000    0.2717200000000000 C
   0.0000200000000000    0.6916600000000001    0.1268000000000000 C
   0.0000200000000000    0.6127400000000000    0.1755000000000000 C
   0.9999800000000000    0.5651100000000000    0.1253950000000000 C
   0.9999800000000000    0.6407600000000000    0.0783600000000000 C
   0.9999800000000000    0.6780600000000000    0.1774500000000000 C
   0.4999850000000000    0.8868000000000000    0.8239500000000000 C
   0.4999850000000000    0.8077700000000000    0.8729850000000000 C
   0.5000200000000000    0.9343700000000000    0.8745350000000001 C
   0.5000000000000000    0.8586100000000000    0.9214650000000000 C
   0.5000200000000000    0.8214600000000000    0.8223700000000000 C
   0.4999950000000000    0.7713600000000000    0.7717200000000000 C
   0.5000100000000000    0.7282000000000000    0.7280750000000000 C
   0.5000200000000000    0.6916600000000001    0.6268000000000000 C
   0.5000200000000000    0.6127400000000000    0.6755000000000000 C
   0.4999800000000000    0.5651100000000000    0.6253950000000000 C
   0.4999800000000000    0.6407600000000000    0.5783600000000000 C
   0.4999800000000000    0.6780600000000000    0.6774500000000000 C
   0.9999850000000000    0.8868000000000000    0.8239500000000000 C
   0.9999850000000000    0.8077700000000000    0.8729850000000000 C
   0.0000200000000000    0.9343700000000000    0.8745350000000001 C
   0.0000000000000000    0.8586100000000000    0.9214650000000000 C
   0.0000200000000000    0.8214600000000000    0.8223700000000000 C
   0.0000100000000000    0.7282000000000000    0.7280750000000000 C
   0.9999950000000000    0.7713600000000000    0.7717200000000000 C
   0.0000200000000000    0.6916600000000001    0.6268000000000000 C
   0.0000200000000000    0.6127400000000000    0.6755000000000000 C
   0.9999800000000000    0.5651100000000000    0.6253950000000000 C
   0.9999800000000000    0.6407600000000000    0.5783600000000000 C
   0.9999800000000000    0.6780600000000000    0.6774500000000000 C
   0.7499950000000000    0.6131300000000000    0.1758500000000000 C
   0.7499950000000000    0.6924500000000000    0.1270900000000000 C
   0.7500050000000000    0.5657100000000000    0.1251900000000000 C
   0.7500050000000000    0.6417600000000000    0.0785150000000000 C
   0.7500050000000000    0.6785300000000000    0.1776000000000000 C
   0.7500000000000000    0.7715200000000000    0.2720350000000000 C
   0.7499950000000000    0.7284700000000000    0.2283300000000000 C
   0.7500000000000000    0.8869100000000000    0.3242800000000000 C
   0.7500000000000000    0.8078400000000000    0.3732900000000000 C
   0.7500000000000000    0.9344600000000000    0.3748700000000000 C
   0.7499950000000000    0.8586600000000000    0.4217800000000000 C
   0.7499950000000000    0.8215700000000000    0.3225000000000000 C
   0.5000050000000000    0.1130600000000000    0.6757000000000000 C
   0.5000050000000000    0.1921400000000000    0.6266950000000000 C
   0.4999950000000000    0.0655100000000000    0.6251100000000001 C
   0.4999950000000000    0.1413100000000000    0.5782050000000000 C
   0.4999950000000000    0.1784000000000000    0.6772850000000000 C
   0.5000000000000000    0.2715000000000000    0.7716550000000000 C
   0.5000000000000000    0.2284500000000000    0.7279500000000000 C
   0.5000000000000000    0.3868300000000000    0.8241000000000001 C
   0.5000000000000000    0.3075100000000000    0.8728950000000000 C
   0.5000000000000000    0.4342500000000000    0.8748000000000000 C
   0.5000000000000000    0.3582000000000000    0.9214700000000000 C
   0.5000050000000000    0.3214400000000000    0.8223849999999999 C
   0.0000050000000000    0.1130600000000000    0.6757000000000000 C
   0.0000050000000000    0.1921400000000000    0.6266950000000000 C
   0.9999950000000000    0.0655100000000000    0.6251100000000001 C
   0.9999950000000000    0.1413100000000000    0.5782050000000000 C
   0.9999950000000000    0.1784000000000000    0.6772850000000000 C
   0.0000000000000000    0.2715000000000000    0.7716550000000000 C
   0.0000000000000000    0.2284500000000000    0.7279500000000000 C
   0.0000000000000000    0.3868300000000000    0.8241000000000001 C
   0.0000000000000000    0.3075100000000000    0.8728950000000000 C
   0.0000000000000000    0.4342500000000000    0.8748000000000000 C
   0.0000000000000000    0.3582000000000000    0.9214700000000000 C
   0.0000050000000000    0.3214400000000000    0.8223849999999999 C
   0.4149550000000000    0.5759600000000000    0.9714149999999999 C
   0.3353100000000000    0.5762500000000000    0.9712799999999999 C
   0.3751950000000000    0.6108900000000000    0.9764999999999999 C
   0.3352000000000000    0.9238800000000000    0.0287450000000000 C
   0.4148450000000000    0.9239400000000000    0.0286500000000000 C
   0.3750450000000000    0.8891300000000000    0.0235550000000000 C
   0.3346300000000000    0.7833000000000000    0.0058550000000000 C
   0.3346800000000000    0.7166200000000000    0.9941500000000000 C
   0.4156800000000000    0.7167300000000000    0.9942900000000000 C
   0.4156250000000000    0.7834200000000000    0.0059850000000000 C
   0.3752050000000000    0.6814100000000000    0.9882000000000000 C
   0.3751050000000000    0.8186200000000000    0.0119050000000000 C
   0.0850450000000000    0.5759600000000000    0.9714000000000000 C
   0.1646900000000000    0.5762500000000000    0.9712850000000000 C
   0.1248100000000000    0.6108900000000000    0.9765300000000000 C
   0.1647950000000000    0.9238800000000000    0.0287450000000000 C
   0.0851500000000000    0.9239400000000000    0.0286500000000000 C
   0.1249500000000000    0.8891300000000000    0.0235550000000000 C
   0.0843200000000000    0.7167300000000000    0.9942850000000000 C
   0.0843700000000000    0.7834200000000000    0.0059850000000000 C
   0.1653200000000000    0.7166200000000000    0.9941599999999999 C
   0.1653650000000000    0.7833000000000000    0.0058650000000000 C
   0.1248950000000000    0.8186200000000000    0.0119000000000000 C
   0.1248000000000000    0.6814100000000000    0.9882000000000000 C
   0.9149550000000000    0.5759600000000000    0.9714149999999999 C
   0.8353100000000000    0.5762500000000000    0.9712799999999999 C
   0.8751949999999999    0.6108900000000000    0.9764999999999999 C
   0.8351999999999999    0.9238800000000000    0.0287450000000000 C
   0.9148450000000000    0.9239400000000000    0.0286500000000000 C
   0.8750450000000001    0.8891300000000000    0.0235550000000000 C
   0.8346300000000000    0.7833000000000000    0.0058550000000000 C
   0.8346800000000000    0.7166200000000000    0.9941500000000000 C
   0.9156800000000000    0.7167300000000000    0.9942900000000000 C
   0.9156250000000000    0.7834200000000000    0.0059850000000000 C
   0.8752050000000000    0.6814100000000000    0.9882000000000000 C
   0.8751050000000000    0.8186200000000000    0.0119050000000000 C
   0.5850450000000000    0.5759600000000000    0.9714000000000000 C
   0.6646900000000000    0.5762500000000000    0.9712850000000000 C
   0.6248100000000000    0.6108900000000000    0.9765300000000000 C
   0.6647950000000000    0.9238800000000000    0.0287450000000000 C
   0.5851500000000001    0.9239400000000000    0.0286500000000000 C
   0.6249500000000000    0.8891300000000000    0.0235550000000000 C
   0.5843200000000000    0.7167300000000000    0.9942850000000000 C
   0.5843700000000001    0.7834200000000000    0.0059850000000000 C
   0.6653200000000000    0.7166200000000000    0.9941599999999999 C
   0.6653650000000000    0.7833000000000000    0.0058650000000000 C
   0.6248950000000000    0.8186200000000000    0.0119000000000000 C
   0.6248000000000000    0.6814100000000000    0.9882000000000000 C
   0.5852050000000000    0.0760900000000000    0.9712300000000000 C
   0.6648550000000000    0.0760300000000000    0.9713250000000000 C
   0.6250500000000000    0.1108300000000000    0.9764200000000001 C
   0.6649550000000000    0.4240100000000000    0.0285750000000000 C
   0.5853100000000000    0.4237100000000000    0.0287050000000000 C
   0.6251900000000000    0.3890700000000000    0.0234550000000000 C
   0.5846800000000000    0.2833500000000000    0.0058200000000000 C
   0.5846350000000000    0.2166600000000000    0.9941249999999999 C
   0.6656299999999999    0.2165400000000000    0.9940000000000000 C
   0.6656800000000000    0.2832400000000000    0.0056950000000000 C
   0.6251100000000001    0.1813400000000000    0.9880750000000000 C
   0.6252000000000000    0.3185600000000000    0.0117500000000000 C
   0.3350400000000000    0.4240100000000000    0.0285750000000000 C
   0.4146850000000000    0.4237200000000000    0.0287000000000000 C
   0.3748000000000000    0.3890700000000000    0.0234600000000000 C
   0.3351500000000000    0.0760200000000000    0.9713250000000000 C
   0.4147950000000000    0.0760900000000000    0.9712300000000000 C
   0.3749550000000000    0.1108300000000000    0.9764200000000001 C
   0.3343650000000000    0.2165400000000000    0.9939899999999999 C
   0.3343150000000000    0.2832400000000000    0.0056950000000000 C
   0.3747900000000000    0.3185500000000000    0.0117600000000000 C
   0.4153150000000000    0.2833500000000000    0.0058300000000000 C
   0.4153650000000000    0.2166600000000000    0.9941249999999999 C
   0.3748900000000000    0.1813400000000000    0.9880750000000000 C
   0.0852050000000000    0.0760900000000000    0.9712300000000000 C
   0.1648550000000000    0.0760300000000000    0.9713250000000000 C
   0.1250500000000000    0.1108300000000000    0.9764200000000001 C
   0.1649550000000000    0.4240100000000000    0.0285750000000000 C
   0.0853100000000000    0.4237100000000000    0.0287050000000000 C
   0.1251900000000000    0.3890700000000000    0.0234550000000000 C
   0.0846800000000000    0.2833500000000000    0.0058200000000000 C
   0.0846350000000000    0.2166600000000000    0.9941249999999999 C
   0.1656300000000000    0.2165400000000000    0.9940000000000000 C
   0.1656800000000000    0.2832400000000000    0.0056950000000000 C
   0.1251100000000000    0.1813400000000000    0.9880750000000000 C
   0.1252000000000000    0.3185600000000000    0.0117500000000000 C
   0.8350400000000000    0.4240100000000000    0.0285750000000000 C
   0.9146850000000000    0.4237200000000000    0.0287000000000000 C
   0.8748000000000000    0.3890700000000000    0.0234600000000000 C
   0.8351500000000001    0.0760200000000000    0.9713250000000000 C
   0.9147950000000000    0.0760900000000000    0.9712300000000000 C
   0.8749549999999999    0.1108300000000000    0.9764200000000001 C
   0.8343650000000000    0.2165400000000000    0.9939899999999999 C
   0.8343149999999999    0.2832400000000000    0.0056950000000000 C
   0.8747900000000000    0.3185500000000000    0.0117600000000000 C
   0.9153150000000000    0.2833500000000000    0.0058300000000000 C
   0.9153650000000000    0.2166600000000000    0.9941249999999999 C
   0.8748899999999999    0.1813400000000000    0.9880750000000000 C
   0.7499950000000000    0.6131300000000000    0.6758500000000001 C
   0.7499950000000000    0.6924500000000000    0.6270900000000000 C
   0.7500050000000000    0.5657100000000000    0.6251900000000000 C
   0.7500050000000000    0.6417600000000000    0.5785150000000000 C
   0.7500050000000000    0.6785300000000000    0.6776000000000000 C