H8 O5
1.0
   6.2484931097032836    0.0000000000000000    1.2787563716324513
   0.0045567480280179   12.2899986820215616    0.0034105653008396
   0.0000000000000000    0.0000000000000000   31.0252000000000017
H O
8 5
direct
   0.7170785534873150    0.3769923551268635    0.7285034025646840 H
   0.4891510965358825    0.3826669019130523    0.6793068805784030 H
   0.3064741325310720    0.3921030322320750    0.6427176534223282 H
   0.9515370895501268    0.1942318537000779    0.5852929652009701 H
   0.6957869998660610    0.2172957026249219    0.6096056340489253 H
   0.7730345500199476    0.2377860136903445    0.5631463750095708 H
   1.2235628994473304    0.1112763989689087    0.5263518736371442 H
   0.2546568720128381    0.1885547533833660    0.5688662081178735 H
   0.6003200000000000    0.3996100000000000    0.7147550000000000 O
   0.3814500000000000    0.4035300000000000    0.6666250000000000 O
   0.7995800000000000    0.1776900000000000    0.5876700000000000 O
   1.0887600000000002    0.0777300000000000    0.5239400000000000 O
   0.3602000000000000    0.1350500000000000    0.5557600000000000 O
