H3 C7 N1 O4
1.0
   6.2484931097032836    0.0000000000000000    1.2787563716324513
   0.0045567480280179   12.2899986820215616    0.0034105653008396
   0.0000000000000000    0.0000000000000000   31.0252000000000017
H C N O
3 7 1 4
direct
   0.2504500000000000    0.2980500000000000    0.6063200000000000 H
   0.4900300000000000    0.2107600000000000    0.6194650000000000 H
   0.9853700000000000    0.3945400000000000    0.6630300000000000 H
   0.7154000000000000    0.3106600000000000    0.6459000000000000 C
   0.0102200000000000    0.2006200000000000    0.5843750000000000 C
   0.0813700000000000    0.2793800000000000    0.6104400000000000 C
   0.6569900000000000    0.2321000000000000    0.6178050000000000 C
   0.9328400000000000    0.3341400000000000    0.6418600000000000 C
   0.5527300000000001    0.3736700000000000    0.6779900000000000 C
   0.1673400000000000    0.1334900000000000    0.5520800000000000 C
   0.7995800000000000    0.1776900000000000    0.5876700000000000 N
   1.0887600000000002    0.0777300000000000    0.5239400000000000 O
   0.3602000000000000    0.1350500000000000    0.5557600000000000 O
   0.3814500000000000    0.4035300000000000    0.6666250000000000 O
   0.6003200000000000    0.3996100000000000    0.7147550000000000 O
