H8 C13 N2 O5
1.0
  14.6479999799208382    0.0000000000000000    0.0007669674861448
  -6.9494501328747100   13.9408777182440922    0.0005437398750554
   0.0000000000000000    0.0000000000000000   34.0420000000000016
H C N O
8 13 2 5
direct
   0.5682900000000000    0.9784900000000000    0.4072400000000000 H
   0.6494100000000000    0.8647300000000000    0.3953400000000000 H
   0.5813800000000000    0.8658300000000000    0.4399200000000000 H
   0.5059700000000000    0.5610600000000000    0.4345250000000000 H
   0.7102500000000000    0.5291200000000000    0.3501600000000000 H
   0.7509000000000000    0.8025700000000000    0.3784350000000000 H
   0.3228200000000000    0.7264200000000000    0.3558950000000000 H
   0.3079600000000000    0.9868200000000000    0.3528750000000000 H
   0.4855600000000000    0.0990700000000000    0.3928250000000000 C
   0.4434900000000000    0.9942200000000000    0.3815300000000000 C
   0.4956600000000000    0.9413200000000000    0.3921000000000000 C
   0.4518200000000000    0.8433200000000000    0.3834900000000000 C
   0.5860600000000000    0.8222400000000000    0.4153850000000000 C
   0.6235800000000000    0.6883700000000000    0.4089500000000000 C
   0.5696500000000000    0.5892800000000000    0.4139450000000000 C
   0.6006000000000000    0.5297900000000000    0.3929150000000000 C
   0.6833100000000000    0.5723200000000001    0.3672100000000000 C
   0.7055000000000000    0.7256400000000000    0.3828100000000000 C
   0.5490000000000000    0.4218100000000000    0.3980650000000000 C
   0.3584500000000000    0.8025400000000000    0.3632600000000000 C
   0.3507600000000000    0.9482800000000000    0.3617150000000000 C
   0.7336600000000000    0.6678600000000000    0.3619500000000000 N
   0.3098200000000000    0.8542300000000000    0.3524600000000000 N
   0.5766700000000000    0.1381800000000000    0.4058600000000000 O
   0.4921900000000000    0.7823900000000000    0.3931800000000000 O
   0.5964600000000000    0.7455000000000001    0.4326550000000000 O
   0.4262100000000000    0.1376700000000000    0.3886800000000000 O
   0.4568800000000000    0.3845200000000000    0.4099900000000000 O
