H6 O4
1.0
  29.9422081633795720    0.0000000000000000   -6.6786117046019120
  -4.0711752886072476   14.3945932201136593   -3.2348481876112154
   0.0000000000000000    0.0000000000000000   30.6679999999999993
H O
6 4
direct
   0.2330532475054587    0.1957388628268003    0.5228881460858894 H
   0.3433446609750201    1.1312630255898055    0.4930665961369235 H
   0.2913744400463302    0.1749065558823028    0.5084266175185344 H
   0.4126829526242003    0.3650347122840917    0.5065415526370207 H
   0.3984378262077874    0.5260277780571178    0.4835570908957139 H
   0.3315387388600309    0.4728406602105567    0.4971866052665569 H
   0.2491000000000000    0.1491000000000000    0.5148750000000000 O
   0.3128050000000000    1.1126199999999999    0.4977250000000000 O
   0.4436750000000000    0.3747800000000000    0.5024650000000001 O
   0.4254800000000000    0.5023800000000000    0.4848300000000000 O
