H22 C18 N4
1.0
  32.8328208535220654    0.0000000000000000    8.7158920828866666
   2.8404229665900669   18.8045292291105142    7.9974895337472027
   0.0000000000000000    0.0000000000000000   28.3520000000000003
H C N
22 18 4
direct
   0.8073250000000001    0.5974900000000000    0.0497150000000000 H
   0.8798800000000000    0.6658900000000000    0.1174600000000000 H
   0.7987500000000001    0.7358300000000000    0.1305050000000000 H
   0.9145099999999999    0.6002999999999999    0.0454350000000000 H
   0.8986350000000001    0.5289700000000001    0.1011200000000000 H
   0.8579950000000001    0.4591100000000000    0.1349950000000000 H
   0.8460600000000000    0.3861600000000000    0.1266600000000000 H
   0.8978550000000001    0.3919400000000000    0.1222650000000000 H
   0.8588549999999999    0.3293200000000000    0.0184700000000000 H
   0.8275950000000001    0.3495700000000000    0.0726350000000000 H
   0.8809750000000001    0.3197400000000000    0.0710600000000000 H
   0.8911500000000000    0.6706400000000000    0.9818249999999999 H
   0.9224000000000000    0.6504100000000000    0.9276450000000001 H
   0.8690150000000000    0.6802300000000000    0.9292450000000000 H
   0.9426800000000000    0.4024700000000000    0.9505650000000000 H
   0.8701250000000000    0.3341300000000000    0.8827849999999999 H
   0.9512550000000000    0.2641700000000000    0.8697400000000000 H
   0.8355000000000000    0.3996500000000000    0.9548550000000000 H
   0.8513550000000000    0.4710100000000000    0.8991750000000001 H
   0.8920200000000000    0.5408600000000000    0.8650000000000000 H
   0.9038950000000000    0.6138500000000000    0.8736349999999999 H
   0.8521200000000000    0.6079700000000000    0.8780000000000000 H
   0.8148949999999999    0.6258400000000000    0.0704350000000000 C
   0.8524100000000000    0.6619100000000000    0.1064400000000000 C
   0.8128150000000001    0.6969600000000000    0.1118250000000000 C
   0.8893800000000001    0.5686300000000000    0.0652850000000000 C
   0.8813500000000001    0.5332700000000000    0.0316150000000000 C
   0.8719300000000000    0.4633200000000000    0.0544600000000000 C
   0.8682550000000000    0.4236300000000000    0.1123250000000000 C
   0.8662200000000000    0.4293500000000000    0.0225850000000000 C
   0.8580400000000000    0.3534200000000000    0.0470150000000000 C
   0.8975949999999999    0.3380900000000000    0.8938100000000000 C
   0.8837800000000000    0.5706200000000000    0.9777050000000000 C
   0.8919550000000001    0.6465500000000000    0.9532800000000000 C
   0.9351050000000001    0.3741400000000000    0.9298299999999999 C
   0.9371849999999999    0.3030400000000000    0.8884250000000000 C
   0.8606199999999999    0.4313400000000000    0.9350050000000000 C
   0.8686499999999999    0.4666900000000000    0.9686800000000000 C
   0.8780650000000000    0.5366500000000000    0.9458350000000000 C
   0.8817300000000000    0.5763400000000000    0.8879699999999999 C
   0.7896650000000001    0.6743300000000000    0.0889850000000000 N
   0.8530500000000000    0.6169000000000000    0.0803550000000000 N
   0.9603349999999999    0.3256500000000000    0.9112500000000000 N
   0.8969549999999999    0.3830900000000000    0.9199050000000000 N
