Zn32 H460 C526 N60 O130
1.0
  32.8328208535220654    0.0000000000000000    8.7158920828866666
   2.8404229665900669   18.8045292291105142    7.9974895337472027
   0.0000000000000000    0.0000000000000000   28.3520000000000003
Zn H C N O
32 460 526 60 130
direct
   0.9820650000000000    0.7171600000000000    0.5767700000000000 Zn
   0.7679400000000001    0.7828400000000000    0.9234599999999999 Zn
   0.2320700000000000    0.2171700000000000    0.0767650000000000 Zn
   0.0179350000000000    0.2828400000000000    0.4234550000000000 Zn
   0.4820650000000000    0.7171600000000000    0.5767700000000000 Zn
   0.2679400000000000    0.7828400000000000    0.9234599999999999 Zn
   0.7320700000000000    0.2171700000000000    0.0767650000000000 Zn
   0.5179350000000000    0.2828400000000000    0.4234550000000000 Zn
   0.0179300000000000    0.7828400000000000    0.9234500000000000 Zn
   0.2320700000000000    0.7171600000000000    0.5767750000000000 Zn
   0.7679400000000001    0.2828500000000000    0.4234500000000000 Zn
   0.9820750000000000    0.2171600000000000    0.0767650000000000 Zn
   0.5179300000000000    0.7828400000000000    0.9234500000000000 Zn
   0.7320700000000000    0.7171600000000000    0.5767750000000000 Zn
   0.2679400000000000    0.2828500000000000    0.4234500000000000 Zn
   0.4820750000000000    0.2171600000000000    0.0767650000000000 Zn
   0.4820650000000000    0.7171600000000000    0.0767700000000000 Zn
   0.2679400000000000    0.7828400000000000    0.4234600000000000 Zn
   0.7320700000000000    0.2171700000000000    0.5767650000000000 Zn
   0.5179350000000000    0.2828400000000000    0.9234550000000000 Zn
   0.9820650000000000    0.7171600000000000    0.0767700000000000 Zn
   0.7679400000000001    0.7828400000000000    0.4234600000000000 Zn
   0.2320700000000000    0.2171700000000000    0.5767650000000000 Zn
   0.0179350000000000    0.2828400000000000    0.9234550000000000 Zn
   0.5179300000000000    0.7828400000000000    0.4234500000000000 Zn
   0.7320700000000000    0.7171600000000000    0.0767750000000000 Zn
   0.2679400000000000    0.2828500000000000    0.9234500000000000 Zn
   0.4820750000000000    0.2171600000000000    0.5767650000000000 Zn
   0.0179300000000000    0.7828400000000000    0.4234500000000000 Zn
   0.2320700000000000    0.7171600000000000    0.0767750000000000 Zn
   0.7679400000000001    0.2828500000000000    0.9234500000000000 Zn
   0.9820750000000000    0.2171600000000000    0.5767650000000000 Zn
   0.6645050000000000    0.6003300000000000    0.5454150000000000 H
   0.6486400000000000    0.5290000000000000    0.6011050000000000 H
   0.5573250000000000    0.5975200000000001    0.5496900000000000 H
   0.5487350000000000    0.7358300000000000    0.6305050000000000 H
   0.6298650000000000    0.6659000000000000    0.6174650000000000 H
   0.5854950000000000    0.3996500000000000    0.4548700000000000 H
   0.6013450000000000    0.4710000000000000    0.3991850000000000 H
   0.6926750000000000    0.4024700000000000    0.4505650000000000 H
   0.7012500000000000    0.2641800000000000    0.3697400000000000 H
   0.6201200000000000    0.3341200000000000    0.3827900000000000 H
   0.6538850000000000    0.6138500000000000    0.3736250000000000 H
   0.6420150000000000    0.5408500000000001    0.3652950000000000 H
   0.6021100000000000    0.6079599999999999    0.3780350000000000 H
   0.5960650000000000    0.3861900000000000    0.6266650000000000 H
   0.6080000000000000    0.4591400000000000    0.6349899999999999 H
   0.6478550000000000    0.3919600000000000    0.6222600000000000 H
   0.6088550000000000    0.3293200000000000    0.5184850000000000 H
   0.6309750000000001    0.3197500000000000    0.5710700000000000 H
   0.5775950000000000    0.3495800000000000    0.5726450000000000 H
   0.6411450000000000    0.6706600000000000    0.4818050000000000 H
   0.6190100000000001    0.6802400000000000    0.4292300000000000 H
   0.6723950000000000    0.6504200000000000    0.4276300000000000 H
   0.1645050000000000    0.6003300000000000    0.5454150000000000 H
   0.1486400000000000    0.5290000000000000    0.6011050000000000 H
   0.0573250000000000    0.5975200000000001    0.5496900000000000 H
   0.0487350000000000    0.7358300000000000    0.6305050000000000 H
   0.1298650000000000    0.6659000000000000    0.6174650000000000 H
   0.0854950000000000    0.3996500000000000    0.4548700000000000 H
   0.1013450000000000    0.4710000000000000    0.3991850000000000 H
   0.1926750000000000    0.4024700000000000    0.4505650000000000 H
   0.2012500000000000    0.2641800000000000    0.3697400000000000 H
   0.1201200000000000    0.3341200000000000    0.3827900000000000 H
   0.1538850000000000    0.6138500000000000    0.3736250000000000 H
   0.1420150000000000    0.5408500000000001    0.3652950000000000 H
   0.1021100000000000    0.6079599999999999    0.3780350000000000 H
   0.0960650000000000    0.3861900000000000    0.6266650000000000 H
   0.1080000000000000    0.4591400000000000    0.6349899999999999 H
   0.1478550000000000    0.3919600000000000    0.6222600000000000 H
   0.1088550000000000    0.3293200000000000    0.5184850000000000 H
   0.1309750000000000    0.3197500000000000    0.5710700000000000 H
   0.0775950000000000    0.3495800000000000    0.5726450000000000 H
   0.1411450000000000    0.6706600000000000    0.4818050000000000 H
   0.1190100000000000    0.6802400000000000    0.4292300000000000 H
   0.1723950000000000    0.6504200000000000    0.4276300000000000 H
   0.8621449999999999    0.7011300000000000    0.6889300000000000 H
   0.8072900000000001    0.7118900000000000    0.7648100000000000 H
   0.8878450000000000    0.7988700000000000    0.8112950000000000 H
   0.9427000000000000    0.7881000000000000    0.7354000000000001 H
   0.9808600000000001    0.0196000000000000    0.5847900000000000 H
   0.9831550000000000    0.8984200000000000    0.5820900000000000 H
   0.0191450000000000    0.9804100000000000    0.4154500000000000 H
   0.0168500000000000    0.1016000000000000    0.4181500000000000 H
   0.2691500000000000    0.4804300000000000    0.9154450000000001 H
   0.2668500000000000    0.6016100000000000    0.9181500000000000 H
   0.2308500000000000    0.5196000000000000    0.0847900000000000 H
   0.2331550000000000    0.3984200000000000    0.0820850000000000 H
   0.1121500000000000    0.2011100000000000    0.1889350000000000 H
   0.0572950000000000    0.2118700000000000    0.2648150000000000 H
   0.1378350000000000    0.2989200000000000    0.3112750000000000 H
   0.1926900000000000    0.2881500000000000    0.2353950000000000 H
   0.3621450000000000    0.7011300000000000    0.6889300000000000 H
   0.3072900000000000    0.7118900000000000    0.7648100000000000 H
   0.3878450000000000    0.7988700000000000    0.8112950000000000 H
   0.4427000000000000    0.7881000000000000    0.7354000000000001 H
   0.4808600000000000    0.0196000000000000    0.5847900000000000 H
   0.4831550000000000    0.8984200000000000    0.5820900000000000 H
   0.5191450000000000    0.9804100000000000    0.4154500000000000 H
   0.5168500000000000    0.1016000000000000    0.4181500000000000 H
   0.7691500000000000    0.4804300000000000    0.9154450000000001 H
   0.7668500000000000    0.6016100000000000    0.9181500000000000 H
   0.7308500000000000    0.5196000000000000    0.0847900000000000 H
   0.7331550000000000    0.3984200000000000    0.0820850000000000 H
   0.6121500000000000    0.2011100000000000    0.1889350000000000 H
   0.5572950000000000    0.2118700000000000    0.2648150000000000 H
   0.6378350000000000    0.2989200000000000    0.3112750000000000 H
   0.6926900000000000    0.2881500000000000    0.2353950000000000 H
   0.4145100000000000    0.6002999999999999    0.5454350000000000 H
   0.3986350000000000    0.5289700000000001    0.6011200000000000 H
   0.3073250000000000    0.5974900000000000    0.5497150000000000 H
   0.2987500000000000    0.7358300000000000    0.6305050000000000 H
   0.3798800000000000    0.6658900000000000    0.6174600000000000 H
   0.3355000000000000    0.3996500000000000    0.4548550000000000 H
   0.3513550000000000    0.4710100000000000    0.3991750000000000 H
   0.4426800000000000    0.4024700000000000    0.4505650000000000 H
   0.4512550000000000    0.2641700000000000    0.3697400000000000 H
   0.3701250000000000    0.3341300000000000    0.3827850000000000 H
   0.4038950000000000    0.6138500000000000    0.3736350000000000 H
   0.3521200000000000    0.6079700000000000    0.3780000000000000 H
   0.3920200000000000    0.5408600000000000    0.3650000000000000 H
   0.3460600000000000    0.3861600000000000    0.6266600000000000 H
   0.3579950000000000    0.4591100000000000    0.6349950000000000 H
   0.3978550000000000    0.3919400000000000    0.6222650000000000 H
   0.3588550000000000    0.3293200000000000    0.5184700000000000 H
   0.3809750000000000    0.3197400000000000    0.5710600000000000 H
   0.3275950000000000    0.3495700000000000    0.5726350000000000 H
   0.3911500000000000    0.6706400000000000    0.4818250000000000 H
   0.3690150000000000    0.6802300000000000    0.4292450000000000 H
   0.4224000000000000    0.6504100000000000    0.4276450000000000 H
   0.9145099999999999    0.6002999999999999    0.5454350000000000 H
   0.8986350000000001    0.5289700000000001    0.6011200000000000 H
   0.8073250000000001    0.5974900000000000    0.5497150000000000 H
   0.7987500000000001    0.7358300000000000    0.6305050000000000 H
   0.8798800000000000    0.6658900000000000    0.6174600000000000 H
   0.8355000000000000    0.3996500000000000    0.4548550000000000 H
   0.8513550000000000    0.4710100000000000    0.3991750000000000 H
   0.9426800000000000    0.4024700000000000    0.4505650000000000 H
   0.9512550000000000    0.2641700000000000    0.3697400000000000 H
   0.8701250000000000    0.3341300000000000    0.3827850000000000 H
   0.9038950000000000    0.6138500000000000    0.3736350000000000 H
   0.8521200000000000    0.6079700000000000    0.3780000000000000 H
   0.8920200000000000    0.5408600000000000    0.3650000000000000 H
   0.8460600000000000    0.3861600000000000    0.6266600000000000 H
   0.8579950000000001    0.4591100000000000    0.6349950000000000 H
   0.8978550000000001    0.3919400000000000    0.6222650000000000 H
   0.8588549999999999    0.3293200000000000    0.5184700000000000 H
   0.8809750000000001    0.3197400000000000    0.5710600000000000 H
   0.8275950000000001    0.3495700000000000    0.5726350000000000 H
   0.8911500000000000    0.6706400000000000    0.4818250000000000 H
   0.8690150000000000    0.6802300000000000    0.4292450000000000 H
   0.9224000000000000    0.6504100000000000    0.4276450000000000 H
   0.8355000000000000    0.8996499999999999    0.9548500000000000 H
   0.8513450000000000    0.9710000000000000    0.8991899999999999 H
   0.9426800000000000    0.9024799999999999    0.9505600000000001 H
   0.9512450000000000    0.7641600000000000    0.8697550000000001 H
   0.8701200000000000    0.8341100000000000    0.8828000000000000 H
   0.9145099999999999    0.1003300000000000    0.0454200000000000 H
   0.8986450000000000    0.0290000000000000    0.1011100000000000 H
   0.8073300000000000    0.0975100000000000    0.0497000000000000 H
   0.7987450000000000    0.2358400000000000    0.1305050000000000 H
   0.8798800000000000    0.1659000000000000    0.1174600000000000 H
   0.8920000000000000    0.0408700000000000    0.8653000000000000 H
   0.9038950000000000    0.1138500000000000    0.8736300000000000 H
   0.8521099999999999    0.1079900000000000    0.8780450000000000 H
   0.8460700000000000    0.8861900000000000    0.1266650000000000 H
   0.8580250000000000    0.9591200000000000    0.1349950000000000 H
   0.8978650000000000    0.8919400000000000    0.1222550000000000 H
   0.8588650000000000    0.8293199999999999    0.0184850000000000 H
   0.8809899999999999    0.8197400000000000    0.0710650000000000 H
   0.8276049999999999    0.8495700000000000    0.0726500000000000 H
   0.8911450000000001    0.1706600000000000    0.9818150000000000 H
   0.8690050000000000    0.1802400000000000    0.9292400000000001 H
   0.9223900000000000    0.1504300000000000    0.9276350000000000 H
   0.3355000000000000    0.8996499999999999    0.9548500000000000 H
   0.3513450000000000    0.9710000000000000    0.8991899999999999 H
   0.4426800000000000    0.9024799999999999    0.9505600000000001 H
   0.4512450000000000    0.7641600000000000    0.8697550000000001 H
   0.3701200000000000    0.8341100000000000    0.8828000000000000 H
   0.4145100000000000    0.1003300000000000    0.0454200000000000 H
   0.3986450000000000    0.0290000000000000    0.1011100000000000 H
   0.3073300000000000    0.0975100000000000    0.0497000000000000 H
   0.2987450000000000    0.2358400000000000    0.1305050000000000 H
   0.3798800000000000    0.1659000000000000    0.1174600000000000 H
   0.3920000000000000    0.0408700000000000    0.8653000000000000 H
   0.4038950000000000    0.1138500000000000    0.8736300000000000 H
   0.3521100000000000    0.1079900000000000    0.8780450000000000 H
   0.3460700000000000    0.8861900000000000    0.1266650000000000 H
   0.3580250000000000    0.9591200000000000    0.1349950000000000 H
   0.3978650000000000    0.8919400000000000    0.1222550000000000 H
   0.3588650000000000    0.8293199999999999    0.0184850000000000 H
   0.3809900000000000    0.8197400000000000    0.0710650000000000 H
   0.3276050000000000    0.8495700000000000    0.0726500000000000 H
   0.3911450000000000    0.1706600000000000    0.9818150000000000 H
   0.3690050000000000    0.1802400000000000    0.9292400000000001 H
   0.4223900000000000    0.1504300000000000    0.9276350000000000 H
   0.1645100000000000    0.1003500000000000    0.0454150000000000 H
   0.1486500000000000    0.0290100000000000    0.1011100000000000 H
   0.0573300000000000    0.0975100000000000    0.0497000000000000 H
   0.0487400000000000    0.2358500000000000    0.1305000000000000 H
   0.1298750000000000    0.1659100000000000    0.1174500000000000 H
   0.0855000000000000    0.8996200000000000    0.9549000000000001 H
   0.1013350000000000    0.9709800000000000    0.8992100000000001 H
   0.1926750000000000    0.9024600000000000    0.9505800000000000 H
   0.2012500000000000    0.7641700000000000    0.8697500000000000 H
   0.1201200000000000    0.8341200000000000    0.8828050000000001 H
   0.1538950000000000    0.1138300000000000    0.8736300000000000 H
   0.1420000000000000    0.0408400000000000    0.8653100000000000 H
   0.1021150000000000    0.1079700000000000    0.8780500000000000 H
   0.0960700000000000    0.8862000000000000    0.1266500000000000 H
   0.1080300000000000    0.9591400000000000    0.1350000000000000 H
   0.1478700000000000    0.8919500000000000    0.1222650000000000 H
   0.1411500000000000    0.1706600000000000    0.9818050000000000 H
   0.1190050000000000    0.1802300000000000    0.9292350000000000 H
   0.1723900000000000    0.1504200000000000    0.9276300000000000 H
   0.1088700000000000    0.8293100000000000    0.0185100000000000 H
   0.1309900000000000    0.8197400000000000    0.0710900000000000 H
   0.0776100000000000    0.8495700000000000    0.0726700000000000 H
   0.6645099999999999    0.1003500000000000    0.0454150000000000 H
   0.6486499999999999    0.0290100000000000    0.1011100000000000 H
   0.5573300000000000    0.0975100000000000    0.0497000000000000 H
   0.5487400000000000    0.2358500000000000    0.1305000000000000 H
   0.6298750000000000    0.1659100000000000    0.1174500000000000 H
   0.5855000000000000    0.8996200000000000    0.9549000000000001 H
   0.6013350000000000    0.9709800000000000    0.8992100000000001 H
   0.6926750000000000    0.9024600000000000    0.9505800000000000 H
   0.7012500000000000    0.7641700000000000    0.8697500000000000 H
   0.6201200000000000    0.8341200000000000    0.8828050000000001 H
   0.6538950000000000    0.1138300000000000    0.8736300000000000 H
   0.6420000000000000    0.0408400000000000    0.8653100000000000 H
   0.6021150000000000    0.1079700000000000    0.8780500000000000 H
   0.5960700000000000    0.8862000000000000    0.1266500000000000 H
   0.6080300000000000    0.9591400000000000    0.1350000000000000 H
   0.6478699999999999    0.8919500000000000    0.1222650000000000 H
   0.6411500000000000    0.1706600000000000    0.9818050000000000 H
   0.6190050000000000    0.1802300000000000    0.9292350000000000 H
   0.6723900000000000    0.1504200000000000    0.9276300000000000 H
   0.6088700000000000    0.8293100000000000    0.0185100000000000 H
   0.6309899999999999    0.8197400000000000    0.0710900000000000 H
   0.5776100000000000    0.8495700000000000    0.0726700000000000 H
   0.2308650000000000    0.0196100000000000    0.5847850000000000 H
   0.2331600000000000    0.8984200000000000    0.5820900000000000 H
   0.2691500000000000    0.9804100000000000    0.4154450000000000 H
   0.2668500000000000    0.1016000000000000    0.4181450000000000 H
   0.1378450000000000    0.7988600000000000    0.8113049999999999 H
   0.1927000000000000    0.7880900000000000    0.7354250000000000 H
   0.1121400000000000    0.7011400000000000    0.6889250000000000 H
   0.0572850000000000    0.7119100000000000    0.7648050000000000 H
   0.9808500000000000    0.5196000000000000    0.0847900000000000 H
   0.9831550000000000    0.3984100000000000    0.0820850000000000 H
   0.0191450000000000    0.4804200000000000    0.9154450000000001 H
   0.0168400000000000    0.6016100000000000    0.9181550000000001 H
   0.8621500000000000    0.2011100000000000    0.1889000000000000 H
   0.8072950000000000    0.2118800000000000    0.2648100000000000 H
   0.8878349999999999    0.2989300000000000    0.3112700000000000 H
   0.9426900000000000    0.2881600000000000    0.2353900000000000 H
   0.7308650000000000    0.0196100000000000    0.5847850000000000 H
   0.7331600000000000    0.8984200000000000    0.5820900000000000 H
   0.7691500000000000    0.9804100000000000    0.4154450000000000 H
   0.7668500000000000    0.1016000000000000    0.4181450000000000 H
   0.6378450000000000    0.7988600000000000    0.8113049999999999 H
   0.6927000000000000    0.7880900000000000    0.7354250000000000 H
   0.6121400000000000    0.7011400000000000    0.6889250000000000 H
   0.5572850000000000    0.7119100000000000    0.7648050000000000 H
   0.4808500000000000    0.5196000000000000    0.0847900000000000 H
   0.4831550000000000    0.3984100000000000    0.0820850000000000 H
   0.5191450000000000    0.4804200000000000    0.9154450000000001 H
   0.5168400000000000    0.6016100000000000    0.9181550000000001 H
   0.3621500000000000    0.2011100000000000    0.1889000000000000 H
   0.3072950000000000    0.2118800000000000    0.2648100000000000 H
   0.3878350000000000    0.2989300000000000    0.3112700000000000 H
   0.4426900000000000    0.2881600000000000    0.2353900000000000 H
   0.9418866546969463    0.3611062133866459    0.9248358206789828 H
   0.6645050000000000    0.6003300000000000    0.0454150000000000 H
   0.6486400000000000    0.5290000000000000    0.1011050000000000 H
   0.5573250000000000    0.5975200000000001    0.0496900000000000 H
   0.5487350000000000    0.7358300000000000    0.1305050000000000 H
   0.6298650000000000    0.6659000000000000    0.1174650000000000 H
   0.5854950000000000    0.3996500000000000    0.9548700000000000 H
   0.6013450000000000    0.4710000000000000    0.8991850000000000 H
   0.6926750000000000    0.4024700000000000    0.9505650000000000 H
   0.7012500000000000    0.2641800000000000    0.8697400000000000 H
   0.6201200000000000    0.3341200000000000    0.8827900000000000 H
   0.6538850000000000    0.6138500000000000    0.8736250000000000 H
   0.6420150000000000    0.5408500000000001    0.8652949999999999 H
   0.6021100000000000    0.6079599999999999    0.8780350000000000 H
   0.5960650000000000    0.3861900000000000    0.1266650000000000 H
   0.6080000000000000    0.4591400000000000    0.1349900000000000 H
   0.6478550000000000    0.3919600000000000    0.1222600000000000 H
   0.6088550000000000    0.3293200000000000    0.0184850000000000 H
   0.6309750000000001    0.3197500000000000    0.0710700000000000 H
   0.5775950000000000    0.3495800000000000    0.0726450000000000 H
   0.6411450000000000    0.6706600000000000    0.9818050000000000 H
   0.6190100000000001    0.6802400000000000    0.9292300000000000 H
   0.6723950000000000    0.6504200000000000    0.9276300000000000 H
   0.1645050000000000    0.6003300000000000    0.0454150000000000 H
   0.1486400000000000    0.5290000000000000    0.1011050000000000 H
   0.0573250000000000    0.5975200000000001    0.0496900000000000 H
   0.0487350000000000    0.7358300000000000    0.1305050000000000 H
   0.1298650000000000    0.6659000000000000    0.1174650000000000 H
   0.0854950000000000    0.3996500000000000    0.9548700000000000 H
   0.1013450000000000    0.4710000000000000    0.8991850000000000 H
   0.1926750000000000    0.4024700000000000    0.9505650000000000 H
   0.2012500000000000    0.2641800000000000    0.8697400000000000 H
   0.1201200000000000    0.3341200000000000    0.8827900000000000 H
   0.1538850000000000    0.6138500000000000    0.8736250000000000 H
   0.1420150000000000    0.5408500000000001    0.8652949999999999 H
   0.1021100000000000    0.6079599999999999    0.8780350000000000 H
   0.0960650000000000    0.3861900000000000    0.1266650000000000 H
   0.1080000000000000    0.4591400000000000    0.1349900000000000 H
   0.1478550000000000    0.3919600000000000    0.1222600000000000 H
   0.1088550000000000    0.3293200000000000    0.0184850000000000 H
   0.1309750000000000    0.3197500000000000    0.0710700000000000 H
   0.0775950000000000    0.3495800000000000    0.0726450000000000 H
   0.1411450000000000    0.6706600000000000    0.9818050000000000 H
   0.1190100000000000    0.6802400000000000    0.9292300000000000 H
   0.1723950000000000    0.6504200000000000    0.9276300000000000 H
   0.3621450000000000    0.7011300000000000    0.1889300000000000 H
   0.3072900000000000    0.7118900000000000    0.2648100000000000 H
   0.3878450000000000    0.7988700000000000    0.3112950000000000 H
   0.4427000000000000    0.7881000000000000    0.2354000000000000 H
   0.4808600000000000    0.0196000000000000    0.0847900000000000 H
   0.4831550000000000    0.8984200000000000    0.0820900000000000 H
   0.5191450000000000    0.9804100000000000    0.9154500000000000 H
   0.5168500000000000    0.1016000000000000    0.9181500000000000 H
   0.7691500000000000    0.4804300000000000    0.4154450000000000 H
   0.7668500000000000    0.6016100000000000    0.4181500000000000 H
   0.7308500000000000    0.5196000000000000    0.5847900000000000 H
   0.7331550000000000    0.3984200000000000    0.5820850000000000 H
   0.6121500000000000    0.2011100000000000    0.6889350000000000 H
   0.5572950000000000    0.2118700000000000    0.7648150000000000 H
   0.6378350000000000    0.2989200000000000    0.8112750000000000 H
   0.6926900000000000    0.2881500000000000    0.7353950000000000 H
   0.8621449999999999    0.7011300000000000    0.1889300000000000 H
   0.8072900000000001    0.7118900000000000    0.2648100000000000 H
   0.8878450000000000    0.7988700000000000    0.3112950000000000 H
   0.9427000000000000    0.7881000000000000    0.2354000000000000 H
   0.9808600000000001    0.0196000000000000    0.0847900000000000 H
   0.9831550000000000    0.8984200000000000    0.0820900000000000 H
   0.0191450000000000    0.9804100000000000    0.9154500000000000 H
   0.0168500000000000    0.1016000000000000    0.9181500000000000 H
   0.2691500000000000    0.4804300000000000    0.4154450000000000 H
   0.2668500000000000    0.6016100000000000    0.4181500000000000 H
   0.2308500000000000    0.5196000000000000    0.5847900000000000 H
   0.2331550000000000    0.3984200000000000    0.5820850000000000 H
   0.1121500000000000    0.2011100000000000    0.6889350000000000 H
   0.0572950000000000    0.2118700000000000    0.7648150000000000 H
   0.1378350000000000    0.2989200000000000    0.8112750000000000 H
   0.1926900000000000    0.2881500000000000    0.7353950000000000 H
   0.8081194308451908    0.6388620906982441    0.0754166412137024 H
   0.4145100000000000    0.6002999999999999    0.0454350000000000 H
   0.3986350000000000    0.5289700000000001    0.1011200000000000 H
   0.3073250000000000    0.5974900000000000    0.0497150000000000 H
   0.2987500000000000    0.7358300000000000    0.1305050000000000 H
   0.3798800000000000    0.6658900000000000    0.1174600000000000 H
   0.3355000000000000    0.3996500000000000    0.9548550000000000 H
   0.3513550000000000    0.4710100000000000    0.8991750000000001 H
   0.4426800000000000    0.4024700000000000    0.9505650000000000 H
   0.4512550000000000    0.2641700000000000    0.8697400000000000 H
   0.3701250000000000    0.3341300000000000    0.8827849999999999 H
   0.4038950000000000    0.6138500000000000    0.8736349999999999 H
   0.3521200000000000    0.6079700000000000    0.8780000000000000 H
   0.3920200000000000    0.5408600000000000    0.8650000000000000 H
   0.3460600000000000    0.3861600000000000    0.1266600000000000 H
   0.3579950000000000    0.4591100000000000    0.1349950000000000 H
   0.3978550000000000    0.3919400000000000    0.1222650000000000 H
   0.3588550000000000    0.3293200000000000    0.0184700000000000 H
   0.3809750000000000    0.3197400000000000    0.0710600000000000 H
   0.3275950000000000    0.3495700000000000    0.0726350000000000 H
   0.3911500000000000    0.6706400000000000    0.9818249999999999 H
   0.3690150000000000    0.6802300000000000    0.9292450000000000 H
   0.4224000000000000    0.6504100000000000    0.9276450000000001 H
   0.8355000000000000    0.8996499999999999    0.4548500000000000 H
   0.8513450000000000    0.9710000000000000    0.3991900000000000 H
   0.9426800000000000    0.9024799999999999    0.4505600000000000 H
   0.9512450000000000    0.7641600000000000    0.3697550000000000 H
   0.8701200000000000    0.8341100000000000    0.3828000000000000 H
   0.9145099999999999    0.1003300000000000    0.5454200000000000 H
   0.8986450000000000    0.0290000000000000    0.6011100000000000 H
   0.8073300000000000    0.0975100000000000    0.5497000000000000 H
   0.7987450000000000    0.2358400000000000    0.6305050000000000 H
   0.8798800000000000    0.1659000000000000    0.6174600000000000 H
   0.8920000000000000    0.0408700000000000    0.3653000000000000 H
   0.9038950000000000    0.1138500000000000    0.3736300000000000 H
   0.8521099999999999    0.1079900000000000    0.3780450000000000 H
   0.8460700000000000    0.8861900000000000    0.6266650000000000 H
   0.8580250000000000    0.9591200000000000    0.6349950000000000 H
   0.8978650000000000    0.8919400000000000    0.6222550000000000 H
   0.8588650000000000    0.8293199999999999    0.5184850000000000 H
   0.8809899999999999    0.8197400000000000    0.5710650000000000 H
   0.8276049999999999    0.8495700000000000    0.5726500000000000 H
   0.8911450000000001    0.1706600000000000    0.4818150000000000 H
   0.8690050000000000    0.1802400000000000    0.4292400000000000 H
   0.9223900000000000    0.1504300000000000    0.4276350000000000 H
   0.3355000000000000    0.8996499999999999    0.4548500000000000 H
   0.3513450000000000    0.9710000000000000    0.3991900000000000 H
   0.4426800000000000    0.9024799999999999    0.4505600000000000 H
   0.4512450000000000    0.7641600000000000    0.3697550000000000 H
   0.3701200000000000    0.8341100000000000    0.3828000000000000 H
   0.4145100000000000    0.1003300000000000    0.5454200000000000 H
   0.3986450000000000    0.0290000000000000    0.6011100000000000 H
   0.3073300000000000    0.0975100000000000    0.5497000000000000 H
   0.2987450000000000    0.2358400000000000    0.6305050000000000 H
   0.3798800000000000    0.1659000000000000    0.6174600000000000 H
   0.3920000000000000    0.0408700000000000    0.3653000000000000 H
   0.4038950000000000    0.1138500000000000    0.3736300000000000 H
   0.3521100000000000    0.1079900000000000    0.3780450000000000 H
   0.3460700000000000    0.8861900000000000    0.6266650000000000 H
   0.3580250000000000    0.9591200000000000    0.6349950000000000 H
   0.3978650000000000    0.8919400000000000    0.6222550000000000 H
   0.3588650000000000    0.8293199999999999    0.5184850000000000 H
   0.3809900000000000    0.8197400000000000    0.5710650000000000 H
   0.3276050000000000    0.8495700000000000    0.5726500000000000 H
   0.3911450000000000    0.1706600000000000    0.4818150000000000 H
   0.3690050000000000    0.1802400000000000    0.4292400000000000 H
   0.4223900000000000    0.1504300000000000    0.4276350000000000 H
   0.1645100000000000    0.1003500000000000    0.5454150000000000 H
   0.1486500000000000    0.0290100000000000    0.6011100000000000 H
   0.0573300000000000    0.0975100000000000    0.5497000000000000 H
   0.0487400000000000    0.2358500000000000    0.6305000000000001 H
   0.1298750000000000    0.1659100000000000    0.6174500000000001 H
   0.0855000000000000    0.8996200000000000    0.4549000000000000 H
   0.1013350000000000    0.9709800000000000    0.3992100000000000 H
   0.1926750000000000    0.9024600000000000    0.4505800000000000 H
   0.2012500000000000    0.7641700000000000    0.3697500000000000 H
   0.1201200000000000    0.8341200000000000    0.3828050000000000 H
   0.1538950000000000    0.1138300000000000    0.3736300000000000 H
   0.1420000000000000    0.0408400000000000    0.3653100000000000 H
   0.1021150000000000    0.1079700000000000    0.3780500000000000 H
   0.0960700000000000    0.8862000000000000    0.6266500000000000 H
   0.1080300000000000    0.9591400000000000    0.6350000000000000 H
   0.1478700000000000    0.8919500000000000    0.6222650000000000 H
   0.1411500000000000    0.1706600000000000    0.4818050000000000 H
   0.1190050000000000    0.1802300000000000    0.4292350000000000 H
   0.1723900000000000    0.1504200000000000    0.4276300000000000 H
   0.1088700000000000    0.8293100000000000    0.5185100000000000 H