H2 O2
1.0
  32.8328208535220654    0.0000000000000000    8.7158920828866666
   2.8404229665900669   18.8045292291105142    7.9974895337472027
   0.0000000000000000    0.0000000000000000   28.3520000000000003
H O
2 2
direct
   0.8081194308451908    0.6388620906982441    0.0754166412137024 H
   0.9418866546969463    0.3611062133866459    0.9248358206789828 H
   0.7896650000000001    0.6743300000000000    0.0889850000000000 O
   0.9603349999999999    0.3256500000000000    0.9112500000000000 O
