H4 O2
1.0
  23.6737386560723486    0.0000000000000000   -1.4151869289906218
   0.6051736916883190   14.3852627578073644    0.0196008093904284
   0.0000000000000000    0.0000000000000000   34.9239999999999995
H O
4 2
direct
   0.8846980555297740    0.4057699325108618    0.5290746450255766 H
   0.8822946585057979    0.3386249976042761    0.4896666556467370 H
   0.6251559186907881    0.3681346599281970    0.4855734245771501 H
   0.6283238493421743    0.3700764247160325    0.5337852918431694 H
   0.9045000000000000    0.3730600000000000    0.5089600000000000 O
   0.6056100000000000    0.3688400000000000    0.5094750000000000 O
