H6 O4
1.0
  16.1580000000000013    0.0000000000000000    0.0000000000000010
  -0.8259862459067813   18.0851475725682924    0.0000000000000011
   0.0000000000000000    0.0000000000000000   37.6139999999999972
H O
6 4
direct
   0.8726471143231295    0.2645994040889126    0.2876446503680916 H
   0.6275755798165783    0.2544121106717288    0.3011496137257296 H
   0.7495930271496605    0.2534033380850991    0.2969076597654094 H
   0.6770949748642530    0.9438669329682640    0.4406539895156927 H
   0.8251568012675056    0.9451954202070300    0.4318446774675913 H
   0.7526490749473800    0.8868586250413998    0.0700195869206772 H
   0.8176500000000000    0.2815100000000000    0.2828400000000000 O
   0.6782500000000000    0.2753400000000000    0.2906750000000000 O
   0.6815900000000000    0.9479900000000000    0.4663000000000000 O
   0.8205600000000000    0.9491500000000000    0.4574800000000000 O
