Zn16 H170 C276 N16 O60
1.0
  16.1580000000000013    0.0000000000000000    0.0000000000000010
  -0.8259862459067813   18.0851475725682924    0.0000000000000011
   0.0000000000000000    0.0000000000000000   37.6139999999999972
Zn H C N O
16 170 276 16 60
direct
   0.8297500000000000    0.3772100000000000    0.2518950000000000 Zn
   0.6651700000000000    0.8631400000000000    0.0001650000000000 Zn
   0.8406900000000000    0.8885500000000000    0.0000000000000000 Zn
   0.3639500000000000    0.1595300000000000    0.0000000000000000 Zn
   0.1884300000000000    0.1341200000000000    0.0000000000000000 Zn
   0.3742800000000000    0.6707900000000000    0.2520000000000000 Zn
   0.1993700000000000    0.6454600000000000    0.2518900000000000 Zn
   0.6548400000000000    0.3518800000000000    0.2517500000000000 Zn
   0.8297500000000000    0.3772100000000000    0.7518950000000000 Zn
   0.6651700000000000    0.8631400000000000    0.5001650000000000 Zn
   0.8406900000000000    0.8885500000000000    0.5000000000000000 Zn
   0.3639500000000000    0.1595300000000000    0.5000000000000000 Zn
   0.1884300000000000    0.1341200000000000    0.5000000000000000 Zn
   0.3742800000000000    0.6707900000000000    0.7520000000000000 Zn
   0.1993700000000000    0.6454600000000000    0.7518899999999999 Zn
   0.6548400000000000    0.3518800000000000    0.7517499999999999 Zn
   0.5948800000000000    0.5130100000000000    0.3293000000000000 H
   0.5776200000000000    0.6096700000000000    0.3755900000000000 H
   0.6413400000000000    0.6978900000000000    0.4200250000000000 H
   0.9022400000000000    0.6978200000000000    0.4409250000000000 H
   0.9187300000000000    0.5985400000000000    0.3959350000000000 H
   0.8563800000000000    0.5153900000000000    0.3491350000000000 H
   0.5923300000000000    0.5108100000000000    0.1725550000000000 H
   0.5756000000000000    0.6058100000000000    0.1255500000000000 H
   0.6397200000000000    0.7003300000000000    0.0841500000000000 H
   0.9005200000000000    0.7544700000000000    0.0895400000000000 H
   0.9165900000000000    0.6623300000000000    0.1381250000000000 H
   0.8532900000000000    0.5643300000000000    0.1779500000000000 H
   0.9629700000000000    0.3099100000000000    0.2926300000000000 H
   0.1098300000000000    0.3100700000000000    0.2935250000000000 H
   0.2403500000000000    0.4335500000000000    0.2290000000000000 H
   0.2388500000000000    0.3052600000000000    0.2830150000000000 H
   0.3677100000000000    0.2446200000000000    0.2882400000000000 H
   0.5219100000000000    0.2476600000000000    0.2810250000000000 H
   0.5233300000000000    0.4509800000000000    0.2308000000000000 H
   0.3715000000000000    0.4591700000000000    0.2369550000000000 H
   0.1108800000000000    0.4727800000000000    0.2092900000000000 H
   0.9624600000000000    0.4641100000000000    0.2115800000000000 H
   0.6056200000000000    0.0000000000000000    0.4264000000000000 H
   0.5669600000000000    0.0982200000000000    0.3801200000000000 H
   0.6305600000000000    0.1864600000000000    0.3356600000000000 H
   0.8914500000000000    0.1865400000000000    0.3147050000000000 H
   0.9080700000000000    0.0873000000000000    0.3597050000000000 H
   0.8671000000000000    0.0000000000000000    0.4065000000000000 H
   0.6028000000000000    0.0000000000000000    0.0794000000000000 H
   0.5649400000000000    0.0945900000000000    0.1263500000000000 H
   0.6291800000000000    0.1891000000000000    0.1677500000000000 H
   0.8900000000000000    0.2431100000000000    0.1623150000000000 H
   0.9059500000000000    0.1509400000000000    0.1137000000000000 H
   0.8425300000000000    0.0529600000000000    0.0739200000000000 H
   0.9739500000000000    0.8212500000000000    0.4630050000000000 H
   0.1208100000000000    0.8214000000000000    0.4621000000000000 H
   0.2506600000000000    0.9447700000000000    0.0228800000000000 H
   0.2498300000000000    0.8165700000000000    0.4726500000000000 H
   0.3786900000000000    0.7558800000000000    0.4675200000000000 H
   0.5328800000000000    0.7589200000000000    0.4747650000000000 H
   0.5336400000000000    0.9622400000000000    0.0210800000000000 H
   0.3818200000000000    0.9704400000000000    0.0149200000000000 H
   0.1211600000000000    0.9839900000000000    0.0426050000000000 H
   0.9727600000000000    0.9753400000000000    0.0402750000000000 H
   0.4235000000000000    0.9984499999999999    0.0773850000000000 H
   0.4621600000000000    0.9244599999999999    0.1236650000000000 H
   0.3985600000000000    0.8362100000000000    0.1681200000000000 H
   0.1376700000000000    0.8361300000000000    0.1890750000000000 H
   0.1210500000000000    0.9353600000000000    0.1440750000000000 H
   0.1620100000000000    0.9959100000000000    0.0972350000000000 H
   0.0551600000000000    0.2014200000000000    0.0407800000000000 H
   0.9083100000000000    0.2012700000000000    0.0416450000000000 H
   0.7784600000000000    0.0779000000000000    0.4809000000000000 H
   0.7792800000000000    0.2061100000000000    0.0311100000000000 H
   0.6504300000000000    0.2667900000000000    0.0362600000000000 H
   0.4962300000000000    0.2637500000000000    0.0290150000000000 H
   0.4954700000000000    0.0604300000000000    0.4827000000000000 H
   0.6473000000000000    0.0522300000000000    0.4888600000000000 H
   0.9079500000000000    0.0386900000000000    0.4611500000000000 H
   0.0563600000000000    0.0473300000000000    0.4635050000000000 H
   0.4342400000000000    0.5096700000000000    0.1744400000000000 H
   0.4514900000000000    0.4130100000000000    0.1281900000000000 H
   0.3877800000000000    0.3247800000000000    0.0837550000000000 H
   0.1268700000000000    0.3248500000000000    0.0628600000000000 H
   0.1103800000000000    0.4241300000000000    0.1078500000000000 H
   0.1727400000000000    0.5072900000000000    0.1545000000000000 H
   0.4367900000000000    0.5118600000000000    0.3312000000000000 H
   0.4535200000000000    0.4168700000000000    0.3782000000000000 H
   0.3894000000000000    0.3223400000000000    0.4196200000000000 H
   0.1285900000000000    0.2682000000000000    0.4142400000000000 H
   0.1125200000000000    0.3603400000000000    0.3656550000000000 H
   0.1758200000000000    0.4583400000000000    0.3258150000000000 H
   0.0661500000000000    0.7127599999999999    0.2111500000000000 H
   0.9192900000000001    0.7126000000000000    0.2102550000000000 H
   0.7887700000000000    0.5891200000000000    0.2747600000000000 H
   0.7902600000000000    0.7174100000000000    0.2207650000000000 H
   0.6614100000000001    0.7780500000000000    0.2155400000000000 H
   0.5072100000000000    0.7750100000000000    0.2227550000000000 H
   0.5057900000000000    0.5716900000000000    0.2729450000000000 H
   0.6576200000000000    0.5635000000000000    0.2668250000000000 H
   0.9182399999999999    0.5498900000000000    0.2944950000000000 H
   0.0666500000000000    0.5585599999999999    0.2922000000000000 H
   0.5948800000000000    0.5130100000000000    0.8292999999999999 H
   0.5776200000000000    0.6096700000000000    0.8755900000000000 H
   0.6413400000000000    0.6978900000000000    0.9200250000000000 H
   0.9022400000000000    0.6978200000000000    0.9409250000000000 H
   0.9187300000000000    0.5985400000000000    0.8959349999999999 H
   0.8563800000000000    0.5153900000000000    0.8491350000000000 H
   0.5923300000000000    0.5108100000000000    0.6725550000000000 H
   0.5756000000000000    0.6058100000000000    0.6255500000000001 H
   0.6397200000000000    0.7003300000000000    0.5841499999999999 H
   0.9005200000000000    0.7544700000000000    0.5895400000000000 H
   0.9165900000000000    0.6623300000000000    0.6381250000000001 H
   0.8532900000000000    0.5643300000000000    0.6779500000000001 H
   0.9629700000000000    0.3099100000000000    0.7926299999999999 H
   0.1098300000000000    0.3100700000000000    0.7935250000000000 H
   0.2403500000000000    0.4335500000000000    0.7290000000000000 H
   0.2388500000000000    0.3052600000000000    0.7830150000000000 H
   0.3677100000000000    0.2446200000000000    0.7882400000000001 H
   0.5219100000000000    0.2476600000000000    0.7810250000000001 H
   0.5233300000000000    0.4509800000000000    0.7308000000000000 H
   0.3715000000000000    0.4591700000000000    0.7369550000000000 H
   0.1108800000000000    0.4727800000000000    0.7092900000000000 H
   0.9624600000000000    0.4641100000000000    0.7115800000000000 H
   0.6056200000000000    0.0000000000000000    0.9264000000000000 H
   0.5669600000000000    0.0982200000000000    0.8801200000000000 H
   0.6305600000000000    0.1864600000000000    0.8356600000000001 H
   0.8914500000000000    0.1865400000000000    0.8147050000000000 H
   0.9080700000000000    0.0873000000000000    0.8597049999999999 H
   0.8671000000000000    0.0000000000000000    0.9065000000000000 H
   0.6028000000000000    0.0000000000000000    0.5794000000000000 H
   0.5649400000000000    0.0945900000000000    0.6263500000000000 H
   0.6291800000000000    0.1891000000000000    0.6677500000000001 H
   0.8900000000000000    0.2431100000000000    0.6623150000000000 H
   0.9059500000000000    0.1509400000000000    0.6137000000000000 H
   0.8425300000000000    0.0529600000000000    0.5739200000000000 H
   0.9739500000000000    0.8212500000000000    0.9630050000000000 H
   0.1208100000000000    0.8214000000000000    0.9621000000000000 H
   0.2506600000000000    0.9447700000000000    0.5228800000000000 H
   0.2498300000000000    0.8165700000000000    0.9726500000000000 H
   0.3786900000000000    0.7558800000000000    0.9675199999999999 H
   0.5328800000000000    0.7589200000000000    0.9747650000000000 H
   0.5336400000000000    0.9622400000000000    0.5210800000000000 H
   0.3818200000000000    0.9704400000000000    0.5149200000000000 H
   0.1211600000000000    0.9839900000000000    0.5426050000000000 H
   0.9727600000000000    0.9753400000000000    0.5402749999999999 H
   0.4235000000000000    0.9984499999999999    0.5773850000000000 H
   0.4621600000000000    0.9244599999999999    0.6236650000000000 H
   0.3985600000000000    0.8362100000000000    0.6681200000000000 H
   0.1376700000000000    0.8361300000000000    0.6890750000000000 H
   0.1210500000000000    0.9353600000000000    0.6440750000000000 H
   0.1620100000000000    0.9959100000000000    0.5972350000000000 H
   0.4263200000000000    0.0005200000000000    0.9243800000000000 H
   0.4641700000000000    0.9280900000000000    0.8774050000000000 H
   0.3999300000000000    0.8335800000000000    0.8360150000000000 H
   0.1391100000000000    0.7795500000000000    0.8414699999999999 H
   0.1231700000000000    0.8717300000000000    0.8900450000000000 H
   0.1865900000000000    0.9697100000000000    0.9298649999999999 H
   0.0551600000000000    0.2014200000000000    0.5407800000000000 H
   0.9083100000000000    0.2012700000000000    0.5416450000000000 H
   0.7784600000000000    0.0779000000000000    0.9809000000000000 H
   0.7792800000000000    0.2061100000000000    0.5311100000000000 H
   0.6504300000000000    0.2667900000000000    0.5362600000000000 H
   0.4962300000000000    0.2637500000000000    0.5290150000000000 H
   0.4954700000000000    0.0604300000000000    0.9827000000000000 H
   0.6473000000000000    0.0522300000000000    0.9888600000000001 H
   0.9079500000000000    0.0386900000000000    0.9611499999999999 H
   0.0563600000000000    0.0473300000000000    0.9635050000000001 H
   0.4342400000000000    0.5096700000000000    0.6744400000000000 H
   0.4514900000000000    0.4130100000000000    0.6281900000000000 H
   0.3877800000000000    0.3247800000000000    0.5837550000000000 H
   0.1268700000000000    0.3248500000000000    0.5628600000000000 H
   0.1103800000000000    0.4241300000000000    0.6078500000000000 H
   0.1727400000000000    0.5072900000000000    0.6545000000000000 H
   0.4367900000000000    0.5118600000000000    0.8311999999999999 H
   0.4535200000000000    0.4168700000000000    0.8782000000000000 H
   0.3894000000000000    0.3223400000000000    0.9196200000000000 H
   0.1285900000000000    0.2682000000000000    0.9142399999999999 H
   0.1125200000000000    0.3603400000000000    0.8656550000000001 H
   0.1758200000000000    0.4583400000000000    0.8258150000000000 H
   0.0661500000000000    0.7127599999999999    0.7111499999999999 H
   0.9192900000000001    0.7126000000000000    0.7102550000000000 H
   0.7887700000000000    0.5891200000000000    0.7747600000000000 H
   0.7902600000000000    0.7174100000000000    0.7207650000000000 H
   0.6614100000000001    0.7780500000000000    0.7155400000000001 H
   0.5072100000000000    0.7750100000000000    0.7227550000000000 H
   0.5057900000000000    0.5716900000000000    0.7729450000000000 H
   0.6576200000000000    0.5635000000000000    0.7668250000000000 H
   0.9182399999999999    0.5498900000000000    0.7944950000000000 H
   0.0666500000000000    0.5585599999999999    0.7922000000000000 H
   0.7368200000000000    0.4567600000000000    0.3059400000000000 C
   0.7274400000000000    0.5101800000000000    0.3360250000000000 C
   0.6478600000000000    0.5360800000000000    0.3441350000000000 C
   0.6386800000000000    0.5892300000000000    0.3697700000000000 C
   0.5330200000000000    0.2190400000000000    0.0192350000000000 C
   0.5329900000000000    0.1048600000000000    0.4950800000000000 C
   0.6180600000000001    0.1015800000000000    0.4982050000000000 C
   0.9402199999999999    0.0767800000000000    0.4794500000000000 C
   0.7083700000000001    0.6190400000000000    0.3885000000000000 C
   0.7015200000000000    0.6755100000000001    0.4145700000000000 C
   0.7703900000000000    0.7039400000000000    0.4327000000000000 C
   0.8492499999999999    0.6752800000000000    0.4259550000000000 C
   0.8580300000000000    0.6203300000000000    0.4011550000000000 C
   0.7885700000000000    0.5911999999999999    0.3816850000000000 C
   0.7958900000000000    0.5367400000000000    0.3550000000000000 C
   0.7619700000000000    0.7657000000000000    0.4589050000000000 C
   0.7324000000000001    0.4741500000000000    0.2060400000000000 C
   0.7243500000000000    0.5321100000000000    0.1778500000000000 C
   0.6453400000000000    0.5443100000000000    0.1629700000000000 C
   0.6364500000000000    0.5967600000000000    0.1369600000000000 C
   0.7061700000000000    0.6395600000000000    0.1241500000000000 C
   0.6996700000000000    0.6918800000000001    0.0964000000000000 C
   0.7687000000000000    0.7321100000000000    0.0840550000000000 C
   0.8473900000000000    0.7218300000000000    0.0997000000000000 C
   0.8558100000000000    0.6710600000000000    0.1265700000000000 C
   0.7862000000000000    0.6280400000000000    0.1393800000000000 C
   0.7930300000000000    0.5738400000000000    0.1662200000000000 C
   0.7607800000000000    0.7853000000000000    0.0536800000000000 C
   0.0000000000000000    0.3445600000000000    0.2745400000000000 C
   0.0788600000000000    0.3449300000000000    0.2745500000000000 C
   0.1243200000000000    0.3900400000000000    0.2502700000000000 C
   0.2141900000000000    0.3924800000000000    0.2475500000000000 C
   0.2649800000000000    0.3480300000000000    0.2652700000000000 C
   0.3548500000000000    0.3505100000000000    0.2620000000000000 C
   0.3997200000000000    0.2914800000000000    0.2751750000000000 C
   0.4851400000000000    0.2923600000000000    0.2712200000000000 C
   0.4858100000000000    0.4065700000000000    0.2432300000000000 C
   0.4007300000000000    0.4098400000000000    0.2463350000000000 C
   0.0785900000000000    0.4346700000000000    0.2275650000000000 C
   0.9999400000000001    0.4308700000000000    0.2289400000000000 C
   0.7476200000000000    0.9681000000000000    0.4497700000000000 C
   0.7381799999999999    0.0000000000000000    0.4196750000000000 C
   0.6373100000000000    0.0247300000000000    0.4115800000000000 C
   0.6280500000000000    0.0778400000000000    0.3859300000000000 C
   0.6976900000000000    0.1076700000000000    0.3667850000000000 C
   0.6907600000000000    0.1641100000000000    0.3411050000000000 C
   0.7595900000000000    0.1925900000000000    0.3229650000000000 C
   0.8384800000000000    0.1639700000000000    0.3296850000000000 C
   0.8473400000000000    0.1090500000000000    0.3544950000000000 C
   0.7779300000000000    0.0799000000000000    0.3739900000000000 C
   0.7853300000000000    0.0254800000000000    0.4006500000000000 C
   0.7511100000000001    0.2543500000000000    0.2967650000000000 C
   0.7428100000000000    0.9854300000000000    0.0458650000000000 C
   0.7135700000000000    0.0208100000000000    0.0740400000000000 C
   0.6345900000000000    0.0330500000000000    0.0889700000000000 C
   0.6257700000000000    0.0855100000000000    0.1149800000000000 C
   0.6955300000000000    0.1282800000000000    0.1277700000000000 C
   0.6891100000000000    0.1806200000000000    0.1554700000000000 C
   0.7581800000000000    0.2208200000000000    0.1678400000000000 C
   0.8368300000000000    0.2105000000000000    0.1521750000000000 C
   0.8451800000000000    0.1597000000000000    0.1253100000000000 C
   0.7755300000000001    0.1167200000000000    0.1125200000000000 C
   0.7822900000000000    0.0625000000000000    0.0856800000000000 C
   0.7503200000000000    0.2740200000000000    0.1982100000000000 C
   0.0000000000000000    0.8558900000000000    0.4811000000000000 C
   0.0898300000000000    0.8562500000000000    0.4810950000000000 C
   0.1346400000000000    0.9012700000000000    0.0016100000000000 C
   0.2245200000000000    0.9037100000000000    0.0043500000000000 C
   0.2759400000000000    0.8593400000000000    0.4904250000000000 C
   0.3658100000000000    0.8618100000000000    0.4936150000000000 C
   0.4106900000000000    0.8027600000000000    0.4805700000000000 C
   0.4961000000000000    0.8036400000000000    0.4845450000000000 C
   0.4961300000000000    0.9178100000000000    0.0087000000000000 C
   0.4110600000000000    0.9210900000000000    0.0055750000000000 C
   0.0889000000000000    0.9458900000000000    0.0243150000000000 C
   0.0000000000000000    0.9421100000000000    0.0229200000000000 C
   0.2814900000000000    0.0545700000000000    0.0540150000000000 C
   0.2909400000000000    0.0011800000000000    0.0841050000000000 C
   0.3918100000000000    0.9979500000000000    0.0922000000000000 C
   0.4010700000000000    0.9448400000000000    0.1178500000000000 C
   0.3314300000000000    0.9150000000000000    0.1350000000000000 C
   0.3383600000000000    0.8585600000000000    0.1626750000000000 C
   0.2695300000000000    0.8300800000000000    0.1808000000000000 C
   0.1906300000000000    0.8587000000000000    0.1740950000000000 C
   0.1817800000000000    0.9136200000000000    0.1492850000000000 C
   0.2511900000000000    0.9427700000000000    0.1297900000000000 C
   0.2437800000000000    0.9971900000000000    0.1031350000000000 C
   0.2780000000000000    0.7683300000000000    0.2070150000000000 C
   0.0177500000000000    0.1667800000000000    0.0226800000000000 C
   0.9392900000000000    0.1664200000000000    0.0226850000000000 C
   0.8944700000000000    0.1214000000000000    0.0000000000000000 C
   0.8046000000000000    0.1189700000000000    0.4994350000000000 C
   0.7531800000000000    0.1633300000000000    0.0133550000000000 C
   0.6633100000000000    0.1608600000000000    0.0101500000000000 C
   0.6184200000000000    0.2199200000000000    0.0232100000000000 C
   0.0188700000000000    0.0805700000000000    0.4808600000000000 C
   0.2923000000000000    0.5659100000000000    0.1978450000000000 C
   0.3016800000000000    0.5124900000000000    0.1677550000000000 C
   0.3812500000000000    0.4866000000000000    0.1596450000000000 C
   0.3904400000000000    0.4334400000000000    0.1340100000000000 C
   0.3207500000000000    0.4036300000000000    0.1148850000000000 C
   0.3276000000000000    0.3471700000000000    0.0892000000000000 C
   0.2587300000000000    0.3187300000000000    0.0710850000000000 C
   0.1798700000000000    0.3473900000000000    0.0778250000000000 C
   0.1710900000000000    0.4023400000000000    0.1026000000000000 C
   0.2405500000000000    0.4314800000000000    0.1220000000000000 C
   0.2332300000000000    0.4859300000000000    0.1487450000000000 C
   0.2671400000000000    0.2569800000000000    0.0448800000000000 C
   0.2967200000000000    0.5485300000000000    0.2977000000000000 C
   0.3047600000000000    0.4905600000000000    0.3259100000000000 C
   0.3837800000000000    0.4783600000000000    0.3408150000000000 C
   0.3926700000000000    0.4259100000000000    0.3668200000000000 C
   0.3229500000000000    0.3831100000000000    0.3796350000000000 C
   0.3294500000000000    0.3307900000000000    0.4073400000000000 C
   0.2604200000000000    0.2905600000000000    0.4197250000000000 C
   0.1817300000000000    0.3008300000000000    0.4040500000000000 C
   0.1733100000000000    0.3516100000000000    0.3772100000000000 C
   0.2429200000000000    0.3946300000000000    0.3644000000000000 C
   0.2360900000000000    0.4488300000000000    0.3375600000000000 C
   0.2683400000000000    0.2373700000000000    0.4501000000000000 C
   0.0287100000000000    0.6781100000000000    0.2292400000000000 C
   0.9502500000000000    0.6777400000000000    0.2292200000000000 C
   0.9048000000000000    0.6326300000000000    0.2535100000000000 C
   0.8149200000000000    0.6301900000000000    0.2562000000000000 C
   0.7641400000000000    0.6746400000000000    0.2385150000000000 C
   0.6742700000000000    0.6721600000000000    0.2416850000000000 C
   0.6293900000000000    0.7311900000000000    0.2286050000000000 C
   0.5439800000000000    0.7303100000000000    0.2325500000000000 C
   0.5433100000000000    0.6161000000000000    0.2605500000000000 C
   0.6283900000000000    0.6128300000000000    0.2574450000000000 C
   0.9505200000000000    0.5880000000000000    0.2762150000000000 C
   0.0291800000000000    0.5918000000000000    0.2748400000000000 C
   0.7368200000000000    0.4567600000000000    0.8059400000000000 C
   0.7274400000000000    0.5101800000000000    0.8360250000000000 C
   0.6478600000000000    0.5360800000000000    0.8441350000000001 C
   0.6386800000000000    0.5892300000000000    0.8697699999999999 C
   0.5330200000000000    0.2190400000000000    0.5192350000000000 C
   0.5329900000000000    0.1048600000000000    0.9950800000000000 C
   0.6180600000000001    0.1015800000000000    0.9982050000000000 C
   0.9402199999999999    0.0767800000000000    0.9794499999999999 C
   0.7083700000000001    0.6190400000000000    0.8885000000000001 C
   0.7015200000000000    0.6755100000000001    0.9145700000000000 C
   0.7703900000000000    0.7039400000000000    0.9327000000000000 C
   0.8492499999999999    0.6752800000000000    0.9259550000000000 C
   0.8580300000000000    0.6203300000000000    0.9011549999999999 C
   0.7885700000000000    0.5911999999999999    0.8816850000000001 C
   0.7958900000000000    0.5367400000000000    0.8550000000000000 C
   0.7619700000000000    0.7657000000000000    0.9589050000000000 C
   0.7324000000000001    0.4741500000000000    0.7060400000000000 C
   0.7243500000000000    0.5321100000000000    0.6778500000000001 C
   0.6453400000000000    0.5443100000000000    0.6629700000000001 C
   0.6364500000000000    0.5967600000000000    0.6369600000000000 C
   0.7061700000000000    0.6395600000000000    0.6241500000000000 C
   0.6996700000000000    0.6918800000000001    0.5964000000000000 C
   0.7687000000000000    0.7321100000000000    0.5840550000000000 C
   0.8473900000000000    0.7218300000000000    0.5997000000000000 C
   0.8558100000000000    0.6710600000000000    0.6265700000000000 C
   0.7862000000000000    0.6280400000000000    0.6393800000000001 C
   0.7930300000000000    0.5738400000000000    0.6662200000000000 C
   0.7607800000000000    0.7853000000000000    0.5536799999999999 C
   0.0000000000000000    0.3445600000000000    0.7745400000000000 C
   0.0788600000000000    0.3449300000000000    0.7745500000000001 C
   0.1243200000000000    0.3900400000000000    0.7502700000000000 C
   0.2141900000000000    0.3924800000000000    0.7475499999999999 C
   0.2649800000000000    0.3480300000000000    0.7652700000000000 C
   0.3548500000000000    0.3505100000000000    0.7620000000000000 C
   0.3997200000000000    0.2914800000000000    0.7751749999999999 C
   0.4851400000000000    0.2923600000000000    0.7712200000000000 C
   0.4858100000000000    0.4065700000000000    0.7432300000000001 C
   0.4007300000000000    0.4098400000000000    0.7463350000000000 C
   0.0785900000000000    0.4346700000000000    0.7275650000000000 C
   0.9999400000000001    0.4308700000000000    0.7289400000000000 C
   0.7476200000000000    0.9681000000000000    0.9497700000000000 C
   0.7381799999999999    0.0000000000000000    0.9196750000000000 C
   0.6373100000000000    0.0247300000000000    0.9115800000000001 C
   0.6280500000000000    0.0778400000000000    0.8859300000000000 C
   0.6976900000000000    0.1076700000000000    0.8667850000000000 C
   0.6907600000000000    0.1641100000000000    0.8411050000000000 C
   0.7595900000000000    0.1925900000000000    0.8229649999999999 C
   0.8384800000000000    0.1639700000000000    0.8296850000000000 C
   0.8473400000000000    0.1090500000000000    0.8544950000000000 C
   0.7779300000000000    0.0799000000000000    0.8739900000000000 C
   0.7853300000000000    0.0254800000000000    0.9006500000000000 C
   0.7511100000000001    0.2543500000000000    0.7967649999999999 C
   0.7428100000000000    0.9854300000000000    0.5458650000000000 C
   0.7135700000000000    0.0208100000000000    0.5740400000000000 C
   0.6345900000000000    0.0330500000000000    0.5889700000000000 C
   0.6257700000000000    0.0855100000000000    0.6149800000000000 C
   0.6955300000000000    0.1282800000000000    0.6277699999999999 C
   0.6891100000000000    0.1806200000000000    0.6554700000000000 C
   0.7581800000000000    0.2208200000000000    0.6678400000000000 C
   0.8368300000000000    0.2105000000000000    0.6521749999999999 C
   0.8451800000000000    0.1597000000000000    0.6253100000000000 C
   0.7755300000000001    0.1167200000000000    0.6125200000000000 C
   0.7822900000000000    0.0625000000000000    0.5856800000000000 C
   0.7503200000000000    0.2740200000000000    0.6982100000000000 C
   0.0000000000000000    0.8558900000000000    0.9811000000000001 C
   0.0898300000000000    0.8562500000000000    0.9810950000000001 C
   0.1346400000000000    0.9012700000000000    0.5016100000000000 C
   0.2245200000000000    0.9037100000000000    0.5043500000000000 C
   0.2759400000000000    0.8593400000000000    0.9904250000000000 C
   0.3658100000000000    0.8618100000000000    0.9936150000000000 C
   0.4106900000000000    0.8027600000000000    0.9805699999999999 C
   0.4961000000000000    0.8036400000000000    0.9845450000000000 C
   0.4961300000000000    0.9178100000000000    0.5087000000000000 C
   0.4110600000000000    0.9210900000000000    0.5055750000000000 C
   0.0889000000000000    0.9458900000000000    0.5243150000000000 C
   0.0000000000000000    0.9421100000000000    0.5229200000000001 C
   0.2814900000000000    0.0545700000000000    0.5540150000000000 C
   0.2909400000000000    0.0011800000000000    0.5841050000000000 C
   0.3918100000000000    0.9979500000000000    0.5922000000000001 C
   0.4010700000000000    0.9448400000000000    0.6178500000000000 C
   0.3314300000000000    0.9150000000000000    0.6350000000000000 C
   0.3383600000000000    0.8585600000000000    0.6626750000000000 C
   0.2695300000000000    0.8300800000000000    0.6808000000000000 C
   0.1906300000000000    0.8587000000000000    0.6740950000000000 C
   0.1817800000000000    0.9136200000000000    0.6492850000000000 C
   0.2511900000000000    0.9427700000000000    0.6297900000000000 C
   0.2437800000000000    0.9971900000000000    0.6031350000000000 C
   0.2780000000000000    0.7683300000000000    0.7070149999999999 C
   0.2863000000000000    0.0372400000000000    0.9579150000000001 C
   0.3155400000000000    0.0000000000000000    0.9297400000000000 C
   0.3945300000000000    0.9896300000000000    0.9148100000000000 C
   0.4033500000000000    0.9371699999999999    0.8888000000000000 C
   0.3335800000000000    0.8943900000000000    0.8760100000000000 C
   0.3400100000000000    0.8420600000000000    0.8483100000000000 C
   0.2709400000000000    0.8018500000000000    0.8359449999999999 C
   0.1922900000000000    0.8121699999999999    0.8516100000000000 C
   0.1839300000000000    0.8629700000000000    0.8784750000000000 C
   0.2535800000000000    0.9059600000000000    0.8912599999999999 C
   0.2468300000000000    0.9601700000000000    0.9181049999999999 C
   0.2788000000000000    0.7486500000000000    0.8055700000000000 C
   0.0177500000000000    0.1667800000000000    0.5226800000000000 C
   0.9392900000000000    0.1664200000000000    0.5226850000000000 C
   0.8944700000000000    0.1214000000000000    0.5000000000000000 C
   0.8046000000000000    0.1189700000000000    0.9994350000000001 C
   0.7531800000000000    0.1633300000000000    0.5133550000000000 C
   0.6633100000000000    0.1608600000000000    0.5101500000000000 C
   0.6184200000000000    0.2199200000000000    0.5232100000000000 C
   0.0188700000000000    0.0805700000000000    0.9808600000000001 C
   0.2923000000000000    0.5659100000000000    0.6978450000000000 C
   0.3016800000000000    0.5124900000000000    0.6677550000000000 C
   0.3812500000000000    0.4866000000000000    0.6596450000000000 C
   0.3904400000000000    0.4334400000000000    0.6340100000000000 C
   0.3207500000000000    0.4036300000000000    0.6148850000000000 C
   0.3276000000000000    0.3471700000000000    0.5891999999999999 C
   0.2587300000000000    0.3187300000000000    0.5710850000000000 C
   0.1798700000000000    0.3473900000000000    0.5778250000000000 C
   0.1710900000000000    0.4023400000000000    0.6026000000000000 C
   0.2405500000000000    0.4314800000000000    0.6220000000000000 C
   0.2332300000000000    0.4859300000000000    0.6487450000000000 C