H24 C33 O12
1.0
  16.0958741106343481    0.0000000000000000    1.5569449619722904
   2.8507371046334509   32.0969429518582459    3.0993443024974505
   0.0000000000000000    0.0000000000000000   26.8230000000000004
H C O
24 33 12
direct
   0.4380900000000000    0.1646900000000000    0.1125700000000000 H
   0.3035900000000000    0.1639050000000000    0.1652700000000000 H
   0.3200600000000000    0.0298900000000000    0.1673000000000000 H
   0.4564000000000000    0.0316800000000000    0.1151000000000000 H
   0.1612600000000000    0.1501100000000000    0.2004200000000000 H
   0.2443300000000000    0.1422600000000000    0.2410000000000000 H
   0.0743700000000000    0.1747750000000000    0.2786700000000000 H
   0.0616400000000000    0.1391800000000000    0.3336500000000000 H
   0.3107400000000000    0.1886700000000000    0.3409400000000000 H
   0.3193200000000000    0.2470950000000000    0.3946300000000000 H
   0.0527900000000000    0.2661100000000000    0.4108000000000000 H
   0.0420100000000000    0.2087400000000000    0.3573900000000000 H
   0.0841300000000000    0.0706400000000000    0.2246200000000000 H
   0.0194400000000000    0.0802850000000000    0.2811900000000000 H
   0.9146200000000000    0.1823000000000000    0.1792600000000000 H
   0.8065700000000000    0.1694900000000000    0.1230600000000000 H
   0.8651000000000000    0.0378600000000000    0.1502800000000000 H
   0.9721400000000000    0.0496250000000000    0.2061900000000000 H
   0.1975300000000000    0.0497600000000000    0.2796600000000000 H
   0.2343400000000000    0.0871250000000000    0.3153800000000000 H
   0.2703200000000000    0.0154500000000000    0.3424900000000000 H
   0.0161800000000000    0.0305750000000000    0.4086100000000000 H
   0.2926700000000000    0.9487250000000000    0.3956400000000000 H
   0.0400200000000000    0.9629449999999999    0.4607000000000000 H
   0.8762300000000000    0.0695000000000000    0.1566900000000000 C
   0.9367100000000000    0.0762150000000000    0.1881100000000000 C
   0.7696100000000000    0.0956400000000000    0.0955000000000000 C
   0.1784400000000000    0.0762800000000000    0.3021700000000000 C
   0.1412100000000000    0.0271100000000000    0.3721000000000000 C
   0.5370000000000000    0.0983350000000000    0.0776000000000000 C
   0.4560700000000000    0.0982650000000000    0.1100600000000000 C
   0.4120200000000000    0.1351950000000000    0.1246000000000000 C
   0.3364200000000000    0.1347000000000000    0.1545000000000000 C
   0.3037000000000000    0.0965050000000000    0.1700900000000000 C
   0.3465700000000000    0.0592800000000000    0.1551800000000000 C
   0.4219900000000000    0.0603950000000000    0.1260200000000000 C
   0.1948900000000000    0.1272650000000000    0.2261400000000000 C
   0.1336300000000000    0.1119050000000000    0.2699500000000000 C
   0.1053000000000000    0.1488400000000000    0.3015000000000000 C
   0.1766200000000000    0.1949550000000000    0.3461100000000000 C
   0.2546300000000000    0.2062150000000000    0.3562900000000000 C
   0.2591700000000000    0.2385400000000000    0.3859500000000000 C
   0.1862400000000000    0.2602200000000000    0.4063300000000000 C
   0.1090700000000000    0.2493350000000000    0.3940000000000000 C
   0.1031100000000000    0.2171000000000000    0.3646000000000000 C
   0.1912000000000000    0.2919550000000000    0.4426500000000000 C
   0.0593400000000000    0.0945800000000000    0.2500000000000000 C
   0.9514800000000000    0.1171150000000000    0.1953100000000000 C
   0.9034700000000000    0.1507700000000000    0.1723000000000000 C
   0.8437400000000000    0.1435200000000000    0.1411900000000000 C
   0.8297800000000000    0.1027650000000000    0.1322800000000000 C
   0.2195900000000000    0.0044000000000000    0.3684400000000000 C
   0.0767100000000000    0.0125200000000000    0.4060800000000000 C
   0.2322800000000000    0.9668800000000000    0.3982300000000000 C
   0.1679300000000000    0.9515000000000000    0.4313300000000000 C
   0.0901100000000000    0.9749850000000000    0.4350000000000000 C
   0.1801000000000000    0.9104250000000000    0.4617900000000000 C
   0.5592600000000000    0.1330500000000000    0.0569500000000000 O
   0.5766100000000000    0.0626050000000000    0.0724000000000000 O
   0.2308900000000000    0.0921800000000000    0.2000700000000000 O
   0.1801100000000000    0.1612950000000000    0.3180000000000000 O
   0.2643100000000000    0.3004650000000000    0.4504300000000000 O
   0.1233500000000000    0.3072650000000000    0.4644300000000000 O
   0.0115800000000000    0.1276950000000000    0.2233800000000000 O
   0.7539600000000000    0.0584850000000000    0.0909000000000000 O
   0.7392400000000000    0.1282950000000000    0.0704700000000000 O
   0.1213400000000000    0.0639750000000000    0.3441500000000000 O
   0.2535300000000000    0.8922500000000000    0.4622500000000000 O
   0.1144100000000000    0.8967350000000001    0.4851300000000000 O
