H2 O2
1.0
  16.0958741106343481    0.0000000000000000    1.5569449619722904
   2.8507371046334509   32.0969429518582459    3.0993443024974505
   0.0000000000000000    0.0000000000000000   26.8230000000000004
H O
2 2
direct
   0.5575485536232088    0.1866753367607979    0.5148787573889271 H
   0.0585003690744677    0.1324163289598644    0.4540667208364927 H
   0.5939500000000000    0.1644550000000000    0.4997000000000000 O
   0.0227200000000000    0.1549650000000000    0.4690000000000000 O
