H12 O8
1.0
  16.0958741106343481    0.0000000000000000    1.5569449619722904
   2.8507371046334509   32.0969429518582459    3.0993443024974505
   0.0000000000000000    0.0000000000000000   26.8230000000000004
H O
12 8
direct
   0.0679646990126461    0.3022177645506181    0.4567936617415366 H
   0.3169021905138894    0.2907476085274259    0.4329863491177458 H
   0.1945560247959034    0.2941083542815663    0.4408125574649748 H
   0.0588166653227866    0.9108632562584511    0.4840855296679782 H
   0.3035461917086719    0.9024236986305331    0.4442908490945027 H
   0.1818797486626355    0.9104588935257131    0.4609038572971329 H
   0.5603896013591944    0.0359295832369072    0.0878643315335690 H
   0.5304058910747795    0.1604800444605443    0.0602560057319245 H
   0.5384711713389889    0.0988615265333912    0.0767698173625449 H
   0.7483523657877617    0.1565864348562163    0.0761503220182423 H
   0.7726413156325403    0.0332221247958185    0.1106574500586385 H
   0.7651566851200073    0.0932476834848634    0.0978796119361146 H
   0.1233500000000000    0.3072650000000000    0.4644300000000000 O
   0.2643100000000000    0.3004650000000000    0.4504300000000000 O
   0.1144100000000000    0.8967350000000001    0.4851300000000000 O
   0.2535300000000000    0.8922500000000000    0.4622500000000000 O
   0.5766100000000000    0.0626050000000000    0.0724000000000000 O
   0.5592600000000000    0.1330500000000000    0.0569500000000000 O
   0.7392400000000000    0.1282950000000000    0.0704700000000000 O
   0.7539600000000000    0.0584850000000000    0.0909000000000000 O
