H4 C6 N1 O2
1.0
  35.4119824763378901    0.0000000000000000   -0.0352291858877590
   4.6177994534741789   34.0018561635155265    0.0173678753647858
   0.0000000000000000    0.0000000000000000   27.3270000000000017
H C N O
4 6 1 2
direct
   0.5415900000000000    0.0183433333333333    0.4481400000000000 H
   0.6542600000000000    0.0170533333333333    0.5538000000000000 H
   0.6433300000000000    0.0607133333333333    0.4800300000000000 H
   0.5487800000000000    0.9731566666666667    0.5212900000000000 H
   0.6227933333333333    0.0415100000000000    0.4912400000000000 C
   0.6287733333333333    0.0169300000000000    0.5315500000000000 C
   0.5659433333333332    0.0171400000000000    0.4727700000000000 C
   0.6023933333333333    0.9914733333333332    0.5429900000000000 C
   0.5702000000000000    0.9921800000000000    0.5129600000000000 C
   0.6096266666666665    0.9626600000000000    0.5850900000000000 C
   0.5918533333333333    0.0415133333333333    0.4621000000000000 N
   0.6428966666666667    0.9451900000000000    0.5896100000000000 O
   0.5800400000000000    0.9592333333333333    0.6106100000000000 O
