H3 O2
1.0
  35.4119824763378901    0.0000000000000000   -0.0352291858877590
   4.6177994534741789   34.0018561635155265    0.0173678753647858
   0.0000000000000000    0.0000000000000000   27.3270000000000017
H O
3 2
direct
   0.5731269546883948    0.0238975761415425    0.4698117120857389 H
   0.6142174884110704    0.0415109239220989    0.4831630730111589 H
   0.6027003749587619    0.9618578111902066    0.5910642777507569 H
   0.5918533333333333    0.0415133333333333    0.4621000000000000 O
   0.5800400000000000    0.9592333333333333    0.6106100000000000 O
