Zn36 H572 Pd36 C858 N143 O286
1.0
  35.4119824763378901    0.0000000000000000   -0.0352291858877590
   4.6177994534741789   34.0018561635155265    0.0173678753647858
   0.0000000000000000    0.0000000000000000   27.3270000000000017
Zn H Pd C N O
36 572 36 858 143 286
direct
   0.2498533333333333    0.2499133333333333    0.6621700000000000 Zn
   0.0834633333333333    0.0834266666666667    0.3378300000000000 Zn
   0.0832600000000000    0.0833133333333333    0.8431900000000000 Zn
   0.2500533333333333    0.2500266666666666    0.1568100000000000 Zn
   0.5831866666666666    0.2499133333333333    0.6621700000000000 Zn
   0.4167966666666666    0.0834266666666667    0.3378300000000000 Zn
   0.4165933333333333    0.0833133333333333    0.8431900000000000 Zn
   0.5833866666666667    0.2500266666666666    0.1568100000000000 Zn
   0.9165200000000000    0.2499133333333333    0.6621700000000000 Zn
   0.7501300000000000    0.0834266666666667    0.3378300000000000 Zn
   0.7499266666666666    0.0833133333333333    0.8431900000000000 Zn
   0.9167200000000000    0.2500266666666666    0.1568100000000000 Zn
   0.2498533333333333    0.5832466666666667    0.6621700000000000 Zn
   0.0834633333333333    0.4167600000000000    0.3378300000000000 Zn
   0.0832600000000000    0.4166466666666666    0.8431900000000000 Zn
   0.2500533333333333    0.5833599999999999    0.1568100000000000 Zn
   0.5831866666666666    0.5832466666666667    0.6621700000000000 Zn
   0.4167966666666666    0.4167600000000000    0.3378300000000000 Zn
   0.4165933333333333    0.4166466666666666    0.8431900000000000 Zn
   0.5833866666666667    0.5833599999999999    0.1568100000000000 Zn
   0.9165200000000000    0.5832466666666667    0.6621700000000000 Zn
   0.7501300000000000    0.4167600000000000    0.3378300000000000 Zn
   0.7499266666666666    0.4166466666666666    0.8431900000000000 Zn
   0.9167200000000000    0.5833599999999999    0.1568100000000000 Zn
   0.2498533333333333    0.9165800000000000    0.6621700000000000 Zn
   0.0834633333333333    0.7500933333333333    0.3378300000000000 Zn
   0.0832600000000000    0.7499800000000000    0.8431900000000000 Zn
   0.2500533333333333    0.9166933333333332    0.1568100000000000 Zn
   0.5831866666666666    0.9165800000000000    0.6621700000000000 Zn
   0.4167966666666666    0.7500933333333333    0.3378300000000000 Zn
   0.4165933333333333    0.7499800000000000    0.8431900000000000 Zn
   0.5833866666666667    0.9166933333333332    0.1568100000000000 Zn
   0.9165200000000000    0.9165800000000000    0.6621700000000000 Zn
   0.7501300000000000    0.7500933333333333    0.3378300000000000 Zn
   0.7499266666666666    0.7499800000000000    0.8431900000000000 Zn
   0.9167200000000000    0.9166933333333332    0.1568100000000000 Zn
   0.0465066666666667    0.1949766666666666    0.8420200000000000 H
   0.3320233333333333    0.2016966666666667    0.7737800000000000 H
   0.3218233333333334    0.3274400000000000    0.7909200000000000 H
   0.0352533333333333    0.3170033333333333    0.8601300000000000 H
   0.1460933333333333    0.2947466666666667    0.9455500000000000 H
   0.1915466666666667    0.2883566666666667    0.0170500000000000 H
   0.1501466666666667    0.1797733333333333    0.0539200000000000 H
   0.1061033333333333    0.1900400000000000    0.9816500000000000 H
   0.1199866666666667    0.3049566666666667    0.8418400000000000 H
   0.1676566666666667    0.2982600000000000    0.7735900000000000 H
   0.1779433333333333    0.1725200000000000    0.7909100000000000 H
   0.1312833333333333    0.1829233333333333    0.8600800000000000 H
   0.0207000000000000    0.2051800000000000    0.9458700000000000 H
   0.3087033333333333    0.2115933333333333    0.0173600000000000 H
   0.0166966666666667    0.3202900000000000    0.0538000000000000 H
   0.0605966666666667    0.3100033333333333    0.9816100000000000 H
   0.1983733333333333    0.0436166666666667    0.3426900000000000 H
   0.2056500000000000    0.3295166666666667    0.2724800000000000 H
   0.3274333333333333    0.3228500000000000    0.2880800000000000 H
   0.3165633333333333    0.0361733333333333    0.3585800000000000 H
   0.2917633333333333    0.1481900000000000    0.4484700000000000 H
   0.2844566666666666    0.1931333333333333    0.5218200000000000 H
   0.1789933333333333    0.1490333333333333    0.5535700000000000 H
   0.1900166666666666    0.1056466666666667    0.4796300000000000 H
   0.3019400000000000    0.1229433333333333    0.3428300000000000 H
   0.2946600000000000    0.1703500000000000    0.2725000000000000 H
   0.1728766666666667    0.1772700000000000    0.2880000000000000 H
   0.1837433333333333    0.1306133333333333    0.3586600000000000 H
   0.2082566666666667    0.0183433333333333    0.4481400000000000 H
   0.2154466666666667    0.3064900000000000    0.5212900000000000 H
   0.3209266666666666    0.0170533333333333    0.5538000000000000 H
   0.3099966666666666    0.0607133333333333    0.4800300000000000 H
   0.1349533333333333    0.2897233333333333    0.6573200000000000 H
   0.1276700000000000    0.0038266666666667    0.7275000000000000 H
   0.0058866666666667    0.0104833333333333    0.7119200000000000 H
   0.0167666666666667    0.2971566666666666    0.6414200000000000 H
   0.0415666666666667    0.1851466666666667    0.5515000000000000 H
   0.0488666666666667    0.1402066666666666    0.4781800000000000 H
   0.1543333333333333    0.1843000000000000    0.4464300000000000 H
   0.1433133333333333    0.2276833333333333    0.5203700000000000 H
   0.0313866666666667    0.2103966666666667    0.6571700000000000 H
   0.0386600000000000    0.1629933333333333    0.7275000000000000 H
   0.1604433333333333    0.1560666666666667    0.7119600000000000 H
   0.1495833333333333    0.2027200000000000    0.6413500000000000 H
   0.1250733333333333    0.3149966666666666    0.5518600000000000 H
   0.1178800000000000    0.0268533333333333    0.4787200000000000 H
   0.0124033333333333    0.3162800000000000    0.4460000000000000 H
   0.0233366666666667    0.2726166666666666    0.5199700000000000 H
   0.2868100000000000    0.1383600000000000    0.1579800000000000 H
   0.0012933333333333    0.1316400000000000    0.2262200000000000 H
   0.0114966666666667    0.0059000000000000    0.2090800000000000 H
   0.2980666666666666    0.0163333333333333    0.1398700000000000 H
   0.1872233333333333    0.0385866666666667    0.0544500000000000 H
   0.1417733333333333    0.0449800000000000    0.9829500000000000 H
   0.1831733333333333    0.1535633333333333    0.9460800000000000 H
   0.2272166666666667    0.1432933333333333    0.0183500000000000 H
   0.2133300000000000    0.0283833333333333    0.1581000000000000 H
   0.1656600000000000    0.0350766666666667    0.2264100000000000 H
   0.1553800000000000    0.1608200000000000    0.2090900000000000 H
   0.2020400000000000    0.1504133333333333    0.1399000000000000 H
   0.3126200000000000    0.1281566666666666    0.0541000000000000 H
   0.0246133333333333    0.1217400000000000    0.9826400000000000 H
   0.3166200000000000    0.0130433333333333    0.9461000000000001 H
   0.2727200000000000    0.0233333333333333    0.0183900000000000 H
   0.3798400000000000    0.1949766666666666    0.8420200000000000 H
   0.6653566666666666    0.2016966666666667    0.7737800000000000 H
   0.6551566666666666    0.3274400000000000    0.7909200000000000 H
   0.3685866666666666    0.3170033333333333    0.8601300000000000 H
   0.4794266666666667    0.2947466666666667    0.9455500000000000 H
   0.5248800000000000    0.2883566666666667    0.0170500000000000 H
   0.4834800000000000    0.1797733333333333    0.0539200000000000 H
   0.4394366666666666    0.1900400000000000    0.9816500000000000 H
   0.4533199999999999    0.3049566666666667    0.8418400000000000 H
   0.5009900000000000    0.2982600000000000    0.7735900000000000 H
   0.5112766666666666    0.1725200000000000    0.7909100000000000 H
   0.4646166666666666    0.1829233333333333    0.8600800000000000 H
   0.3540333333333333    0.2051800000000000    0.9458700000000000 H
   0.6420366666666666    0.2115933333333333    0.0173600000000000 H
   0.3500300000000000    0.3202900000000000    0.0538000000000000 H
   0.3939300000000000    0.3100033333333333    0.9816100000000000 H
   0.5317066666666667    0.0436166666666667    0.3426900000000000 H
   0.5389833333333334    0.3295166666666667    0.2724800000000000 H
   0.6607666666666666    0.3228500000000000    0.2880800000000000 H
   0.6498966666666666    0.0361733333333333    0.3585800000000000 H
   0.6250966666666666    0.1481900000000000    0.4484700000000000 H
   0.6177900000000000    0.1931333333333333    0.5218200000000000 H
   0.5123266666666666    0.1490333333333333    0.5535700000000000 H
   0.5233500000000000    0.1056466666666667    0.4796300000000000 H
   0.6352733333333334    0.1229433333333333    0.3428300000000000 H
   0.6279933333333333    0.1703500000000000    0.2725000000000000 H
   0.5062100000000000    0.1772700000000000    0.2880000000000000 H
   0.5170766666666666    0.1306133333333333    0.3586600000000000 H
   0.5487800000000000    0.3064900000000000    0.5212900000000000 H
   0.4682866666666666    0.2897233333333333    0.6573200000000000 H
   0.4610033333333333    0.0038266666666667    0.7275000000000000 H
   0.3392200000000000    0.0104833333333333    0.7119200000000000 H
   0.3501000000000000    0.2971566666666666    0.6414200000000000 H
   0.3749000000000000    0.1851466666666667    0.5515000000000000 H
   0.3822000000000000    0.1402066666666666    0.4781800000000000 H
   0.4876666666666666    0.1843000000000000    0.4464300000000000 H
   0.4766466666666667    0.2276833333333333    0.5203700000000000 H
   0.3647200000000000    0.2103966666666667    0.6571700000000000 H
   0.3719933333333333    0.1629933333333333    0.7275000000000000 H
   0.4937766666666666    0.1560666666666667    0.7119600000000000 H
   0.4829166666666667    0.2027200000000000    0.6413500000000000 H
   0.4584066666666666    0.3149966666666666    0.5518600000000000 H
   0.4512133333333333    0.0268533333333333    0.4787200000000000 H
   0.3457366666666666    0.3162800000000000    0.4460000000000000 H
   0.3566700000000000    0.2726166666666666    0.5199700000000000 H
   0.6201433333333333    0.1383600000000000    0.1579800000000000 H
   0.3346266666666666    0.1316400000000000    0.2262200000000000 H
   0.3448300000000000    0.0059000000000000    0.2090800000000000 H
   0.6314000000000000    0.0163333333333333    0.1398700000000000 H
   0.5205566666666667    0.0385866666666667    0.0544500000000000 H
   0.4751066666666666    0.0449800000000000    0.9829500000000000 H
   0.5165066666666667    0.1535633333333333    0.9460800000000000 H
   0.5605500000000000    0.1432933333333333    0.0183500000000000 H
   0.5466633333333333    0.0283833333333333    0.1581000000000000 H
   0.4989933333333333    0.0350766666666667    0.2264100000000000 H
   0.4887133333333333    0.1608200000000000    0.2090900000000000 H
   0.5353733333333333    0.1504133333333333    0.1399000000000000 H
   0.6459533333333334    0.1281566666666666    0.0541000000000000 H
   0.3579466666666666    0.1217400000000000    0.9826400000000000 H
   0.6499533333333334    0.0130433333333333    0.9461000000000001 H
   0.6060533333333333    0.0233333333333333    0.0183900000000000 H
   0.7131733333333333    0.1949766666666666    0.8420200000000000 H
   0.9986900000000000    0.2016966666666667    0.7737800000000000 H
   0.9884900000000000    0.3274400000000000    0.7909200000000000 H
   0.7019200000000000    0.3170033333333333    0.8601300000000000 H
   0.8127599999999999    0.2947466666666667    0.9455500000000000 H
   0.8582133333333333    0.2883566666666667    0.0170500000000000 H
   0.8168133333333333    0.1797733333333333    0.0539200000000000 H
   0.7727700000000000    0.1900400000000000    0.9816500000000000 H
   0.7866533333333333    0.3049566666666667    0.8418400000000000 H
   0.8343233333333333    0.2982600000000000    0.7735900000000000 H
   0.8446100000000000    0.1725200000000000    0.7909100000000000 H
   0.7979499999999999    0.1829233333333333    0.8600800000000000 H
   0.6873666666666667    0.2051800000000000    0.9458700000000000 H
   0.9753700000000000    0.2115933333333333    0.0173600000000000 H
   0.6833633333333333    0.3202900000000000    0.0538000000000000 H
   0.7272633333333333    0.3100033333333333    0.9816100000000000 H
   0.8650399999999999    0.0436166666666667    0.3426900000000000 H
   0.8723166666666666    0.3295166666666667    0.2724800000000000 H
   0.9941000000000000    0.3228500000000000    0.2880800000000000 H
   0.9832299999999999    0.0361733333333333    0.3585800000000000 H
   0.9584299999999999    0.1481900000000000    0.4484700000000000 H
   0.9511233333333333    0.1931333333333333    0.5218200000000000 H
   0.8456600000000000    0.1490333333333333    0.5535700000000000 H
   0.8566833333333332    0.1056466666666667    0.4796300000000000 H
   0.9686066666666666    0.1229433333333333    0.3428300000000000 H
   0.9613266666666667    0.1703500000000000    0.2725000000000000 H
   0.8395433333333333    0.1772700000000000    0.2880000000000000 H
   0.8504099999999999    0.1306133333333333    0.3586600000000000 H
   0.8749233333333333    0.0183433333333333    0.4481400000000000 H
   0.8821133333333333    0.3064900000000000    0.5212900000000000 H
   0.9875933333333333    0.0170533333333333    0.5538000000000000 H
   0.9766633333333332    0.0607133333333333    0.4800300000000000 H
   0.8016200000000000    0.2897233333333333    0.6573200000000000 H
   0.7943366666666667    0.0038266666666667    0.7275000000000000 H
   0.6725533333333333    0.0104833333333333    0.7119200000000000 H
   0.6834333333333333    0.2971566666666666    0.6414200000000000 H
   0.7082333333333333    0.1851466666666667    0.5515000000000000 H
   0.7155333333333334    0.1402066666666666    0.4781800000000000 H
   0.8210000000000000    0.1843000000000000    0.4464300000000000 H
   0.8099799999999999    0.2276833333333333    0.5203700000000000 H
   0.6980533333333333    0.2103966666666667    0.6571700000000000 H
   0.7053266666666667    0.1629933333333333    0.7275000000000000 H
   0.8271100000000000    0.1560666666666667    0.7119600000000000 H
   0.8162499999999999    0.2027200000000000    0.6413500000000000 H
   0.7917399999999999    0.3149966666666666    0.5518600000000000 H
   0.7845466666666666    0.0268533333333333    0.4787200000000000 H
   0.6790700000000000    0.3162800000000000    0.4460000000000000 H
   0.6900033333333333    0.2726166666666666    0.5199700000000000 H
   0.9534766666666666    0.1383600000000000    0.1579800000000000 H
   0.6679600000000000    0.1316400000000000    0.2262200000000000 H
   0.6781633333333333    0.0059000000000000    0.2090800000000000 H
   0.9647333333333332    0.0163333333333333    0.1398700000000000 H
   0.8538899999999999    0.0385866666666667    0.0544500000000000 H
   0.8084399999999999    0.0449800000000000    0.9829500000000000 H
   0.8498399999999999    0.1535633333333333    0.9460800000000000 H
   0.8938833333333333    0.1432933333333333    0.0183500000000000 H
   0.8799966666666665    0.0283833333333333    0.1581000000000000 H
   0.8323266666666667    0.0350766666666667    0.2264100000000000 H
   0.8220466666666666    0.1608200000000000    0.2090900000000000 H
   0.8687066666666666    0.1504133333333333    0.1399000000000000 H
   0.9792866666666666    0.1281566666666666    0.0541000000000000 H
   0.6912800000000000    0.1217400000000000    0.9826400000000000 H
   0.9832866666666666    0.0130433333333333    0.9461000000000001 H
   0.9393866666666666    0.0233333333333333    0.0183900000000000 H
   0.0465066666666667    0.5283099999999999    0.8420200000000000 H
   0.3320233333333333    0.5350300000000000    0.7737800000000000 H
   0.3218233333333334    0.6607733333333332    0.7909200000000000 H
   0.0352533333333333    0.6503366666666666    0.8601300000000000 H
   0.1460933333333333    0.6280800000000000    0.9455500000000000 H
   0.1915466666666667    0.6216900000000000    0.0170500000000000 H
   0.1501466666666667    0.5131066666666666    0.0539200000000000 H
   0.1061033333333333    0.5233733333333332    0.9816500000000000 H
   0.1199866666666667    0.6382900000000000    0.8418400000000000 H
   0.1676566666666667    0.6315933333333332    0.7735900000000000 H
   0.1779433333333333    0.5058533333333333    0.7909100000000000 H
   0.1312833333333333    0.5162566666666666    0.8600800000000000 H
   0.0207000000000000    0.5385133333333333    0.9458700000000000 H
   0.3087033333333333    0.5449266666666667    0.0173600000000000 H
   0.0166966666666667    0.6536233333333332    0.0538000000000000 H
   0.0605966666666667    0.6433366666666667    0.9816100000000000 H
   0.1983733333333333    0.3769500000000000    0.3426900000000000 H
   0.2056500000000000    0.6628499999999999    0.2724800000000000 H
   0.3274333333333333    0.6561833333333333    0.2880800000000000 H
   0.3165633333333333    0.3695066666666666    0.3585800000000000 H
   0.2917633333333333    0.4815233333333333    0.4484700000000000 H
   0.2844566666666666    0.5264666666666666    0.5218200000000000 H
   0.1789933333333333    0.4823666666666666    0.5535700000000000 H
   0.1900166666666666    0.4389800000000000    0.4796300000000000 H
   0.3019400000000000    0.4562766666666667    0.3428300000000000 H
   0.2946600000000000    0.5036833333333333    0.2725000000000000 H
   0.1728766666666667    0.5106033333333333    0.2880000000000000 H
   0.1837433333333333    0.4639466666666666    0.3586600000000000 H
   0.2082566666666667    0.3516766666666666    0.4481400000000000 H
   0.2154466666666667    0.6398233333333333    0.5212900000000000 H
   0.3209266666666666    0.3503866666666666    0.5538000000000000 H
   0.3099966666666666    0.3940466666666667    0.4800300000000000 H
   0.1349533333333333    0.6230566666666666    0.6573200000000000 H
   0.1276700000000000    0.3371600000000000    0.7275000000000000 H
   0.0058866666666667    0.3438166666666667    0.7119200000000000 H
   0.0167666666666667    0.6304900000000000    0.6414200000000000 H
   0.0415666666666667    0.5184800000000001    0.5515000000000000 H
   0.0488666666666667    0.4735400000000000    0.4781800000000000 H
   0.1543333333333333    0.5176333333333333    0.4464300000000000 H
   0.1433133333333333    0.5610166666666667    0.5203700000000000 H
   0.0313866666666667    0.5437300000000000    0.6571700000000000 H
   0.0386600000000000    0.4963266666666666    0.7275000000000000 H
   0.1604433333333333    0.4893999999999999    0.7119600000000000 H
   0.1495833333333333    0.5360533333333333    0.6413500000000000 H
   0.1250733333333333    0.6483300000000000    0.5518600000000000 H
   0.1178800000000000    0.3601866666666667    0.4787200000000000 H
   0.0124033333333333    0.6496133333333334    0.4460000000000000 H
   0.0233366666666667    0.6059500000000000    0.5199700000000000 H
   0.2868100000000000    0.4716933333333333    0.1579800000000000 H
   0.0012933333333333    0.4649733333333333    0.2262200000000000 H
   0.0114966666666667    0.3392333333333333    0.2090800000000000 H
   0.2980666666666666    0.3496666666666666    0.1398700000000000 H
   0.1872233333333333    0.3719200000000000    0.0544500000000000 H
   0.1417733333333333    0.3783133333333333    0.9829500000000000 H
   0.1831733333333333    0.4868966666666666    0.9460800000000000 H
   0.2272166666666667    0.4766266666666666    0.0183500000000000 H
   0.2133300000000000    0.3617166666666666    0.1581000000000000 H
   0.1656600000000000    0.3684100000000000    0.2264100000000000 H
   0.1553800000000000    0.4941533333333333    0.2090900000000000 H
   0.2020400000000000    0.4837466666666667    0.1399000000000000 H
   0.3126200000000000    0.4614900000000000    0.0541000000000000 H
   0.0246133333333333    0.4550733333333333    0.9826400000000000 H
   0.3166200000000000    0.3463766666666667    0.9461000000000001 H
   0.2727200000000000    0.3566666666666666    0.0183900000000000 H
   0.3798400000000000    0.5283099999999999    0.8420200000000000 H
   0.6653566666666666    0.5350300000000000    0.7737800000000000 H
   0.6551566666666666    0.6607733333333332    0.7909200000000000 H
   0.3685866666666666    0.6503366666666666    0.8601300000000000 H
   0.4794266666666667    0.6280800000000000    0.9455500000000000 H
   0.5248800000000000    0.6216900000000000    0.0170500000000000 H
   0.4834800000000000    0.5131066666666666    0.0539200000000000 H
   0.4394366666666666    0.5233733333333332    0.9816500000000000 H
   0.4533199999999999    0.6382900000000000    0.8418400000000000 H
   0.5009900000000000    0.6315933333333332    0.7735900000000000 H
   0.5112766666666666    0.5058533333333333    0.7909100000000000 H
   0.4646166666666666    0.5162566666666666    0.8600800000000000 H
   0.3540333333333333    0.5385133333333333    0.9458700000000000 H
   0.6420366666666666    0.5449266666666667    0.0173600000000000 H
   0.3500300000000000    0.6536233333333332    0.0538000000000000 H
   0.3939300000000000    0.6433366666666667    0.9816100000000000 H
   0.5317066666666667    0.3769500000000000    0.3426900000000000 H
   0.5389833333333334    0.6628499999999999    0.2724800000000000 H
   0.6607666666666666    0.6561833333333333    0.2880800000000000 H
   0.6498966666666666    0.3695066666666666    0.3585800000000000 H
   0.6250966666666666    0.4815233333333333    0.4484700000000000 H
   0.6177900000000000    0.5264666666666666    0.5218200000000000 H
   0.5123266666666666    0.4823666666666666    0.5535700000000000 H
   0.5233500000000000    0.4389800000000000    0.4796300000000000 H
   0.6352733333333334    0.4562766666666667    0.3428300000000000 H
   0.6279933333333333    0.5036833333333333    0.2725000000000000 H
   0.5062100000000000    0.5106033333333333    0.2880000000000000 H
   0.5170766666666666    0.4639466666666666    0.3586600000000000 H
   0.5415900000000000    0.3516766666666666    0.4481400000000000 H
   0.5487800000000000    0.6398233333333333    0.5212900000000000 H
   0.6542600000000000    0.3503866666666666    0.5538000000000000 H
   0.6433300000000000    0.3940466666666667    0.4800300000000000 H
   0.4682866666666666    0.6230566666666666    0.6573200000000000 H
   0.4610033333333333    0.3371600000000000    0.7275000000000000 H
   0.3392200000000000    0.3438166666666667    0.7119200000000000 H
   0.3501000000000000    0.6304900000000000    0.6414200000000000 H
   0.3749000000000000    0.5184800000000001    0.5515000000000000 H
   0.3822000000000000    0.4735400000000000    0.4781800000000000 H
   0.4876666666666666    0.5176333333333333    0.4464300000000000 H
   0.4766466666666667    0.5610166666666667    0.5203700000000000 H
   0.3647200000000000    0.5437300000000000    0.6571700000000000 H
   0.3719933333333333    0.4963266666666666    0.7275000000000000 H
   0.4937766666666666    0.4893999999999999    0.7119600000000000 H
   0.4829166666666667    0.5360533333333333    0.6413500000000000 H
   0.4584066666666666    0.6483300000000000    0.5518600000000000 H
   0.4512133333333333    0.3601866666666667    0.4787200000000000 H
   0.3457366666666666    0.6496133333333334    0.4460000000000000 H
   0.3566700000000000    0.6059500000000000    0.5199700000000000 H
   0.6201433333333333    0.4716933333333333    0.1579800000000000 H
   0.3346266666666666    0.4649733333333333    0.2262200000000000 H
   0.3448300000000000    0.3392333333333333    0.2090800000000000 H
   0.6314000000000000    0.3496666666666666    0.1398700000000000 H
   0.5205566666666667    0.3719200000000000    0.0544500000000000 H
   0.4751066666666666    0.3783133333333333    0.9829500000000000 H
   0.5165066666666667    0.4868966666666666    0.9460800000000000 H
   0.5605500000000000    0.4766266666666666    0.0183500000000000 H
   0.5466633333333333    0.3617166666666666    0.1581000000000000 H
   0.4989933333333333    0.3684100000000000    0.2264100000000000 H
   0.4887133333333333    0.4941533333333333    0.2090900000000000 H
   0.5353733333333333    0.4837466666666667    0.1399000000000000 H
   0.6459533333333334    0.4614900000000000    0.0541000000000000 H
   0.3579466666666666    0.4550733333333333    0.9826400000000000 H
   0.6499533333333334    0.3463766666666667    0.9461000000000001 H
   0.6060533333333333    0.3566666666666666    0.0183900000000000 H
   0.7131733333333333    0.5283099999999999    0.8420200000000000 H
   0.9986900000000000    0.5350300000000000    0.7737800000000000 H
   0.9884900000000000    0.6607733333333332    0.7909200000000000 H
   0.7019200000000000    0.6503366666666666    0.8601300000000000 H
   0.8127599999999999    0.6280800000000000    0.9455500000000000 H
   0.8582133333333333    0.6216900000000000    0.0170500000000000 H
   0.8168133333333333    0.5131066666666666    0.0539200000000000 H
   0.7727700000000000    0.5233733333333332    0.9816500000000000 H
   0.7866533333333333    0.6382900000000000    0.8418400000000000 H
   0.8343233333333333    0.6315933333333332    0.7735900000000000 H
   0.8446100000000000    0.5058533333333333    0.7909100000000000 H
   0.7979499999999999    0.5162566666666666    0.8600800000000000 H
   0.6873666666666667    0.5385133333333333    0.9458700000000000 H
   0.9753700000000000    0.5449266666666667    0.0173600000000000 H
   0.6833633333333333    0.6536233333333332    0.0538000000000000 H
   0.7272633333333333    0.6433366666666667    0.9816100000000000 H
   0.8650399999999999    0.3769500000000000    0.3426900000000000 H
   0.8723166666666666    0.6628499999999999    0.2724800000000000 H
   0.9941000000000000    0.6561833333333333    0.2880800000000000 H
   0.9832299999999999    0.3695066666666666    0.3585800000000000 H
   0.9584299999999999    0.4815233333333333    0.4484700000000000 H
   0.9511233333333333    0.5264666666666666    0.5218200000000000 H
   0.8456600000000000    0.4823666666666666    0.5535700000000000 H
   0.8566833333333332    0.4389800000000000    0.4796300000000000 H
   0.9686066666666666    0.4562766666666667    0.3428300000000000 H
   0.9613266666666667    0.5036833333333333    0.2725000000000000 H
   0.8395433333333333    0.5106033333333333    0.2880000000000000 H
   0.8504099999999999    0.4639466666666666    0.3586600000000000 H
   0.8749233333333333    0.3516766666666666    0.4481400000000000 H
   0.8821133333333333    0.6398233333333333    0.5212900000000000 H
   0.9875933333333333    0.3503866666666666    0.5538000000000000 H
   0.9766633333333332    0.3940466666666667    0.4800300000000000 H
   0.8016200000000000    0.6230566666666666    0.6573200000000000 H
   0.7943366666666667    0.3371600000000000    0.7275000000000000 H
   0.6725533333333333    0.3438166666666667    0.7119200000000000 H
   0.6834333333333333    0.6304900000000000    0.6414200000000000 H
   0.7082333333333333    0.5184800000000001    0.5515000000000000 H
   0.7155333333333334    0.4735400000000000    0.4781800000000000 H
   0.8210000000000000    0.5176333333333333    0.4464300000000000 H
   0.8099799999999999    0.5610166666666667    0.5203700000000000 H
   0.6980533333333333    0.5437300000000000    0.6571700000000000 H
   0.7053266666666667    0.4963266666666666    0.7275000000000000 H
   0.8271100000000000    0.4893999999999999    0.7119600000000000 H
   0.8162499999999999    0.5360533333333333    0.6413500000000000 H
   0.7917399999999999    0.6483300000000000    0.5518600000000000 H
   0.7845466666666666    0.3601866666666667    0.4787200000000000 H
   0.6790700000000000    0.6496133333333334    0.4460000000000000 H
   0.6900033333333333    0.6059500000000000    0.5199700000000000 H
   0.9534766666666666    0.4716933333333333    0.1579800000000000 H
   0.6679600000000000    0.4649733333333333    0.2262200000000000 H
   0.6781633333333333    0.3392333333333333    0.2090800000000000 H
   0.9647333333333332    0.3496666666666666    0.1398700000000000 H
   0.8538899999999999    0.3719200000000000    0.0544500000000000 H
   0.8084399999999999    0.3783133333333333    0.9829500000000000 H
   0.8498399999999999    0.4868966666666666    0.9460800000000000 H
   0.8938833333333333    0.4766266666666666    0.0183500000000000 H
   0.8799966666666665    0.3617166666666666    0.1581000000000000 H
   0.8323266666666667    0.3684100000000000    0.2264100000000000 H
   0.8220466666666666    0.4941533333333333    0.2090900000000000 H
   0.8687066666666666    0.4837466666666667    0.1399000000000000 H
   0.9792866666666666    0.4614900000000000    0.0541000000000000 H
   0.6912800000000000    0.4550733333333333    0.9826400000000000 H
   0.9832866666666666    0.3463766666666667    0.9461000000000001 H
   0.9393866666666666    0.3566666666666666    0.0183900000000000 H
   0.0465066666666667    0.8616433333333333    0.8420200000000000 H
   0.3320233333333333    0.8683633333333333    0.7737800000000000 H
   0.3218233333333334    0.9941066666666666    0.7909200000000000 H
   0.0352533333333333    0.9836699999999999    0.8601300000000000 H
   0.1460933333333333    0.9614133333333332    0.9455500000000000 H
   0.1915466666666667    0.9550233333333333    0.0170500000000000 H
   0.1501466666666667    0.8464400000000000    0.0539200000000000 H
   0.1061033333333333    0.8567066666666666    0.9816500000000000 H
   0.1199866666666667    0.9716233333333333    0.8418400000000000 H
   0.1676566666666667    0.9649266666666666    0.7735900000000000 H
   0.1779433333333333    0.8391866666666666    0.7909100000000000 H
   0.1312833333333333    0.8495900000000000    0.8600800000000000 H
   0.0207000000000000    0.8718466666666667    0.9458700000000000 H
   0.3087033333333333    0.8782599999999999    0.0173600000000000 H
   0.0166966666666667    0.9869566666666666    0.0538000000000000 H
   0.0605966666666667    0.9766699999999999    0.9816100000000000 H
   0.1983733333333333    0.7102833333333333    0.3426900000000000 H
   0.2056500000000000    0.9961833333333333    0.2724800000000000 H
   0.3274333333333333    0.9895166666666666    0.2880800000000000 H