H6 C16 N2 O8
1.0
  19.8752471172397414    0.0000000000000000   -3.8410416593228121
   0.0012418795921011   22.8959998791387065   -0.0019980529251456
   0.0000000000000000    0.0000000000000000   13.9900000000000002
H C N O
6 16 2 8
direct
   0.4559800000000000    0.9999900000000000    0.5900000000000000 H
   0.5790300000000000    0.9999800000000000    0.8770300000000000 H
   0.3627000000000000    0.9999800000000000    0.8433000000000000 H
   0.5440400000000000    0.9999900000000000    0.4099100000000000 H
   0.4209800000000000    0.9999900000000000    0.1229000000000000 H
   0.6373100000000000    0.9999900000000000    0.1566700000000000 H
   0.4712100000000000    0.9999800000000000    0.8717000000000000 C
   0.3332200000000000    0.0000000000000000    0.6448600000000000 C
   0.4016400000000000    0.9999900000000000    0.7096000000000000 C
   0.4598000000000000    0.9999900000000000    0.6689000000000001 C
   0.5236700000000000    0.9999900000000000    0.7295199999999999 C
   0.5861000000000000    0.9999900000000000    0.6859800000000000 C
   0.5294100000000000    0.9999900000000000    0.8305200000000000 C
   0.4076100000000000    0.9999800000000000    0.8110100000000000 C
   0.6667999999999999    0.9999900000000000    0.3551100000000000 C
   0.5983700000000000    0.0000000000000000    0.2903700000000000 C
   0.5402100000000000    0.9999900000000000    0.3310800000000000 C
   0.4763500000000000    0.9999900000000000    0.2704500000000000 C
   0.4139100000000000    0.9999900000000000    0.3139900000000000 C
   0.4706000000000000    0.0000000000000000    0.1694600000000000 C
   0.5288000000000000    0.9999900000000000    0.1282700000000000 C
   0.5924000000000000    0.9999900000000000    0.1889700000000000 C
   0.4707900000000000    0.9999800000000000    0.9729600000000000 N
   0.5292200000000000    0.9999900000000000    0.0270100000000000 N
   0.2822800000000000   -0.0000100000000000    0.6867700000000000 O
   0.3301000000000000    0.0000000000000000    0.5530000000000000 O
   0.5794000000000000    0.0000000000000000    0.5929600000000000 O
   0.6435500000000000    0.0000000000000000    0.7413999999999999 O
   0.7177300000000000   -0.0000100000000000    0.3132000000000000 O
   0.6699100000000000   -0.0000100000000000    0.4461800000000000 O
   0.4206100000000000    0.0000000000000000    0.4070200000000000 O
   0.3564600000000000    0.0000000000000000    0.2585400000000000 O
