H12 O8
1.0
  19.8752471172397414    0.0000000000000000   -3.8410416593228121
   0.0012418795921011   22.8959998791387065   -0.0019980529251456
   0.0000000000000000    0.0000000000000000   13.9900000000000002
H O
12 8
direct
   0.6247177960307875   -0.0000140464850256    0.4599502950495815 H
   0.7175563399811606   -0.0000125263960126    0.2438175198079615 H
   0.6696138555127346   -0.0000143082930474    0.3278612346388178 H
   0.3752707658758397    0.0000026447097637    0.5391492452661472 H
   0.2825662880027501   -0.0000141846368175    0.7561826477458768 H
   0.3305906282968696   -0.0000071714539732    0.6719564662773811 H
   0.5339144465511204    0.0000000000000000    0.5553399046015562 H
   0.6465855673944180    0.0000000000000000    0.8114344259501459 H
   0.5836879916401003    0.0000000000000000    0.6918894566629190 H
   0.4660911417096506    0.0000000000000000    0.4446549939202236 H
   0.3534216601894745    0.0000000000000000    0.1885050584353749 H
   0.4163172776002342    0.0000000000000000    0.3080710406442138 H
   0.6699100000000000   -0.0000100000000000    0.4461800000000000 O
   0.7177300000000000   -0.0000100000000000    0.3132000000000000 O
   0.3301000000000000    0.0000000000000000    0.5530000000000000 O
   0.2822800000000000   -0.0000100000000000    0.6867700000000000 O
   0.5794000000000000    0.0000000000000000    0.5929600000000000 O
   0.6435500000000000    0.0000000000000000    0.7413999999999999 O
   0.4206100000000000    0.0000000000000000    0.4070200000000000 O
   0.3564600000000000    0.0000000000000000    0.2585400000000000 O
