H9 C15 N6
1.0
  37.1540000000000035    0.0000000000000000    0.0000000000000023
   0.0000000000000060   37.1659999943392876   -0.0006486690697676
   0.0000000000000000    0.0000000000000000   37.1659999999999968
H C N
9 15 6
direct
   0.5655900000000000    0.3596700000000000    0.2224850000000000 H
   0.7224699999999999    0.4344250000000000    0.1402950000000000 H
   0.6403700000000000    0.2774750000000000    0.0656550000000000 H
   0.6403799999999999    0.4343500000000000    0.2225300000000000 H
   0.5656250000000000    0.2774850000000000    0.1403700000000000 H
   0.7224850000000000    0.3596850000000000    0.0655850000000000 H
   0.6140900000000000    0.3859000000000000    0.1958600000000000 H
   0.6958700000000000    0.3859100000000000    0.1140900000000000 H
   0.6140850000000000    0.3041450000000000    0.1141000000000000 H
   0.5610500000000000    0.3365350000000000    0.2054400000000000 C
   0.7054300000000000    0.4389550000000000    0.1634450000000000 C
   0.6634900000000000    0.2945450000000000    0.0610850000000000 C
   0.6634949999999999    0.4389250000000000    0.2054500000000000 C
   0.5610650000000000    0.2945500000000000    0.1634900000000000 C
   0.7054350000000000    0.3365450000000000    0.0610000000000000 C
   0.6099800000000000    0.3434100000000000    0.1565900000000000 C
   0.5788650000000000    0.3262550000000000    0.1737500000000000 C
   0.6565900000000000    0.3900150000000000    0.1565850000000000 C
   0.6737450000000000    0.4211300000000000    0.1737000000000000 C
   0.6565900000000000    0.3434150000000000    0.1099900000000000 C
   0.6737500000000000    0.3262550000000000    0.0788750000000000 C
   0.6256900000000000    0.3743050000000000    0.1715750000000000 C
   0.6715800000000001    0.3743100000000000    0.1256900000000000 C
   0.6256900000000000    0.3284250000000000    0.1256950000000000 C
   0.5349900000000000    0.3125450000000000    0.2134150000000000 N
   0.7134050000000001    0.4650150000000000    0.1874200000000000 N
   0.6874550000000000    0.2866000000000000    0.0349950000000000 N
   0.6874700000000000    0.4650050000000000    0.2134000000000000 N
   0.5350000000000000    0.2865850000000000    0.1874750000000000 N
   0.7134100000000000    0.3125600000000000    0.0349900000000000 N
