Ag180 H895 C1611 S179 N358 O358
1.0
  37.8999916645101536    0.0000000000000000   -0.0251362300444530
  -0.0562026931796177   31.5674490260269920   -0.0077133952859706
   0.0000000000000000    0.0000000000000000   39.7800000000000011
Ag H C S N O
180 895 1611 179 358 358
direct
   0.0577600000000000    0.2930600000000000    0.2686633333333333 Ag
   0.1574380000000000    0.2071366666666667    0.0650600000000000 Ag
   0.1423180000000000    0.1264500000000000    0.2316266666666667 Ag
   0.0426560000000000    0.0405733333333333    0.1022500000000000 Ag
   0.2577600000000000    0.2930600000000000    0.2686633333333333 Ag
   0.3574380000000000    0.2071366666666667    0.0650600000000000 Ag
   0.3423180000000000    0.1264500000000000    0.2316266666666667 Ag
   0.2426560000000000    0.0405733333333333    0.1022500000000000 Ag
   0.4577600000000001    0.2930600000000000    0.2686633333333333 Ag
   0.5574380000000000    0.2071366666666667    0.0650600000000000 Ag
   0.5423180000000001    0.1264500000000000    0.2316266666666667 Ag
   0.4426560000000000    0.0405733333333333    0.1022500000000000 Ag
   0.6577600000000001    0.2930600000000000    0.2686633333333333 Ag
   0.7574380000000001    0.2071366666666667    0.0650600000000000 Ag
   0.7423180000000000    0.1264500000000000    0.2316266666666667 Ag
   0.6426560000000001    0.0405733333333333    0.1022500000000000 Ag
   0.8577600000000001    0.2930600000000000    0.2686633333333333 Ag
   0.9574380000000000    0.2071366666666667    0.0650600000000000 Ag
   0.9423180000000000    0.1264500000000000    0.2316266666666667 Ag
   0.8426560000000001    0.0405733333333333    0.1022500000000000 Ag
   0.0577600000000000    0.6263933333333334    0.2686633333333333 Ag
   0.1574380000000000    0.5404700000000000    0.0650600000000000 Ag
   0.1423180000000000    0.4597833333333333    0.2316266666666667 Ag
   0.0426560000000000    0.3739066666666667    0.1022500000000000 Ag
   0.2577600000000000    0.6263933333333334    0.2686633333333333 Ag
   0.3574380000000000    0.5404700000000000    0.0650600000000000 Ag
   0.3423180000000000    0.4597833333333333    0.2316266666666667 Ag
   0.2426560000000000    0.3739066666666667    0.1022500000000000 Ag
   0.4577600000000001    0.6263933333333334    0.2686633333333333 Ag
   0.5574380000000000    0.5404700000000000    0.0650600000000000 Ag
   0.5423180000000001    0.4597833333333333    0.2316266666666667 Ag
   0.4426560000000000    0.3739066666666667    0.1022500000000000 Ag
   0.6577600000000001    0.6263933333333334    0.2686633333333333 Ag
   0.7574380000000001    0.5404700000000000    0.0650600000000000 Ag
   0.7423180000000000    0.4597833333333333    0.2316266666666667 Ag
   0.6426560000000001    0.3739066666666667    0.1022500000000000 Ag
   0.8577600000000001    0.6263933333333334    0.2686633333333333 Ag
   0.9574380000000000    0.5404700000000000    0.0650600000000000 Ag
   0.9423180000000000    0.4597833333333333    0.2316266666666667 Ag
   0.8426560000000001    0.3739066666666667    0.1022500000000000 Ag
   0.0577600000000000    0.9597266666666666    0.2686633333333333 Ag
   0.1574380000000000    0.8738033333333333    0.0650600000000000 Ag
   0.1423180000000000    0.7931166666666667    0.2316266666666667 Ag
   0.0426560000000000    0.7072400000000000    0.1022500000000000 Ag
   0.2577600000000000    0.9597266666666666    0.2686633333333333 Ag
   0.3574380000000000    0.8738033333333333    0.0650600000000000 Ag
   0.3423180000000000    0.7931166666666667    0.2316266666666667 Ag
   0.2426560000000000    0.7072400000000000    0.1022500000000000 Ag
   0.4577600000000001    0.9597266666666666    0.2686633333333333 Ag
   0.5574380000000000    0.8738033333333333    0.0650600000000000 Ag
   0.5423180000000001    0.7931166666666667    0.2316266666666667 Ag
   0.4426560000000000    0.7072400000000000    0.1022500000000000 Ag
   0.6577600000000001    0.9597266666666666    0.2686633333333333 Ag
   0.7574380000000001    0.8738033333333333    0.0650600000000000 Ag
   0.7423180000000000    0.7931166666666667    0.2316266666666667 Ag
   0.6426560000000001    0.7072400000000000    0.1022500000000000 Ag
   0.8577600000000001    0.9597266666666666    0.2686633333333333 Ag
   0.9574380000000000    0.8738033333333333    0.0650600000000000 Ag
   0.9423180000000000    0.7931166666666667    0.2316266666666667 Ag
   0.8426560000000001    0.7072400000000000    0.1022500000000000 Ag
   0.0577600000000000    0.2930600000000000    0.6019966666666666 Ag
   0.1574380000000000    0.2071366666666667    0.3983933333333333 Ag
   0.1423180000000000    0.1264500000000000    0.5649600000000000 Ag
   0.0426560000000000    0.0405733333333333    0.4355833333333333 Ag
   0.2577600000000000    0.2930600000000000    0.6019966666666666 Ag
   0.3574380000000000    0.2071366666666667    0.3983933333333333 Ag
   0.3423180000000000    0.1264500000000000    0.5649600000000000 Ag
   0.2426560000000000    0.0405733333333333    0.4355833333333333 Ag
   0.4577600000000001    0.2930600000000000    0.6019966666666666 Ag
   0.5574380000000000    0.2071366666666667    0.3983933333333333 Ag
   0.5423180000000001    0.1264500000000000    0.5649600000000000 Ag
   0.4426560000000000    0.0405733333333333    0.4355833333333333 Ag
   0.6577600000000001    0.2930600000000000    0.6019966666666666 Ag
   0.7574380000000001    0.2071366666666667    0.3983933333333333 Ag
   0.7423180000000000    0.1264500000000000    0.5649600000000000 Ag
   0.6426560000000001    0.0405733333333333    0.4355833333333333 Ag
   0.8577600000000001    0.2930600000000000    0.6019966666666666 Ag
   0.9574380000000000    0.2071366666666667    0.3983933333333333 Ag
   0.9423180000000000    0.1264500000000000    0.5649600000000000 Ag
   0.8426560000000001    0.0405733333333333    0.4355833333333333 Ag
   0.0577600000000000    0.6263933333333334    0.6019966666666666 Ag
   0.1574380000000000    0.5404700000000000    0.3983933333333333 Ag
   0.1423180000000000    0.4597833333333333    0.5649600000000000 Ag
   0.0426560000000000    0.3739066666666667    0.4355833333333333 Ag
   0.2577600000000000    0.6263933333333334    0.6019966666666666 Ag
   0.3574380000000000    0.5404700000000000    0.3983933333333333 Ag
   0.3423180000000000    0.4597833333333333    0.5649600000000000 Ag
   0.2426560000000000    0.3739066666666667    0.4355833333333333 Ag
   0.4577600000000001    0.6263933333333334    0.6019966666666666 Ag
   0.5574380000000000    0.5404700000000000    0.3983933333333333 Ag
   0.5423180000000001    0.4597833333333333    0.5649600000000000 Ag
   0.4426560000000000    0.3739066666666667    0.4355833333333333 Ag
   0.6577600000000001    0.6263933333333334    0.6019966666666666 Ag
   0.7574380000000001    0.5404700000000000    0.3983933333333333 Ag
   0.7423180000000000    0.4597833333333333    0.5649600000000000 Ag
   0.6426560000000001    0.3739066666666667    0.4355833333333333 Ag
   0.8577600000000001    0.6263933333333334    0.6019966666666666 Ag
   0.9574380000000000    0.5404700000000000    0.3983933333333333 Ag
   0.9423180000000000    0.4597833333333333    0.5649600000000000 Ag
   0.8426560000000001    0.3739066666666667    0.4355833333333333 Ag
   0.0577600000000000    0.9597266666666666    0.6019966666666666 Ag
   0.1574380000000000    0.8738033333333333    0.3983933333333333 Ag
   0.1423180000000000    0.7931166666666667    0.5649600000000000 Ag
   0.0426560000000000    0.7072400000000000    0.4355833333333333 Ag
   0.2577600000000000    0.9597266666666666    0.6019966666666666 Ag
   0.3574380000000000    0.8738033333333333    0.3983933333333333 Ag
   0.3423180000000000    0.7931166666666667    0.5649600000000000 Ag
   0.2426560000000000    0.7072400000000000    0.4355833333333333 Ag
   0.4577600000000001    0.9597266666666666    0.6019966666666666 Ag
   0.5574380000000000    0.8738033333333333    0.3983933333333333 Ag
   0.5423180000000001    0.7931166666666667    0.5649600000000000 Ag
   0.4426560000000000    0.7072400000000000    0.4355833333333333 Ag
   0.6577600000000001    0.9597266666666666    0.6019966666666666 Ag
   0.7574380000000001    0.8738033333333333    0.3983933333333333 Ag
   0.7423180000000000    0.7931166666666667    0.5649600000000000 Ag
   0.6426560000000001    0.7072400000000000    0.4355833333333333 Ag
   0.8577600000000001    0.9597266666666666    0.6019966666666666 Ag
   0.9574380000000000    0.8738033333333333    0.3983933333333333 Ag
   0.9423180000000000    0.7931166666666667    0.5649600000000000 Ag
   0.8426560000000001    0.7072400000000000    0.4355833333333333 Ag
   0.0577600000000000    0.2930600000000000    0.9353300000000000 Ag
   0.1574380000000000    0.2071366666666667    0.7317266666666666 Ag
   0.1423180000000000    0.1264500000000000    0.8982933333333333 Ag
   0.0426560000000000    0.0405733333333333    0.7689166666666667 Ag
   0.2577600000000000    0.2930600000000000    0.9353300000000000 Ag
   0.3574380000000000    0.2071366666666667    0.7317266666666666 Ag
   0.3423180000000000    0.1264500000000000    0.8982933333333333 Ag
   0.2426560000000000    0.0405733333333333    0.7689166666666667 Ag
   0.4577600000000001    0.2930600000000000    0.9353300000000000 Ag
   0.5574380000000000    0.2071366666666667    0.7317266666666666 Ag
   0.5423180000000001    0.1264500000000000    0.8982933333333333 Ag
   0.4426560000000000    0.0405733333333333    0.7689166666666667 Ag
   0.6577600000000001    0.2930600000000000    0.9353300000000000 Ag
   0.7574380000000001    0.2071366666666667    0.7317266666666666 Ag
   0.7423180000000000    0.1264500000000000    0.8982933333333333 Ag
   0.6426560000000001    0.0405733333333333    0.7689166666666667 Ag
   0.8577600000000001    0.2930600000000000    0.9353300000000000 Ag
   0.9574380000000000    0.2071366666666667    0.7317266666666666 Ag
   0.9423180000000000    0.1264500000000000    0.8982933333333333 Ag
   0.8426560000000001    0.0405733333333333    0.7689166666666667 Ag
   0.0577600000000000    0.6263933333333334    0.9353300000000000 Ag
   0.1574380000000000    0.5404700000000000    0.7317266666666666 Ag
   0.1423180000000000    0.4597833333333333    0.8982933333333333 Ag
   0.0426560000000000    0.3739066666666667    0.7689166666666667 Ag
   0.2577600000000000    0.6263933333333334    0.9353300000000000 Ag
   0.3574380000000000    0.5404700000000000    0.7317266666666666 Ag
   0.3423180000000000    0.4597833333333333    0.8982933333333333 Ag
   0.2426560000000000    0.3739066666666667    0.7689166666666667 Ag
   0.4577600000000001    0.6263933333333334    0.9353300000000000 Ag
   0.5574380000000000    0.5404700000000000    0.7317266666666666 Ag
   0.5423180000000001    0.4597833333333333    0.8982933333333333 Ag
   0.4426560000000000    0.3739066666666667    0.7689166666666667 Ag
   0.6577600000000001    0.6263933333333334    0.9353300000000000 Ag
   0.7574380000000001    0.5404700000000000    0.7317266666666666 Ag
   0.7423180000000000    0.4597833333333333    0.8982933333333333 Ag
   0.6426560000000001    0.3739066666666667    0.7689166666666667 Ag
   0.8577600000000001    0.6263933333333334    0.9353300000000000 Ag
   0.9574380000000000    0.5404700000000000    0.7317266666666666 Ag
   0.9423180000000000    0.4597833333333333    0.8982933333333333 Ag
   0.8426560000000001    0.3739066666666667    0.7689166666666667 Ag
   0.0577600000000000    0.9597266666666666    0.9353300000000000 Ag
   0.1574380000000000    0.8738033333333333    0.7317266666666666 Ag
   0.1423180000000000    0.7931166666666667    0.8982933333333333 Ag
   0.0426560000000000    0.7072400000000000    0.7689166666666667 Ag
   0.2577600000000000    0.9597266666666666    0.9353300000000000 Ag
   0.3574380000000000    0.8738033333333333    0.7317266666666666 Ag
   0.3423180000000000    0.7931166666666667    0.8982933333333333 Ag
   0.2426560000000000    0.7072400000000000    0.7689166666666667 Ag
   0.4577600000000001    0.9597266666666666    0.9353300000000000 Ag
   0.5574380000000000    0.8738033333333333    0.7317266666666666 Ag
   0.5423180000000001    0.7931166666666667    0.8982933333333333 Ag
   0.4426560000000000    0.7072400000000000    0.7689166666666667 Ag
   0.6577600000000001    0.9597266666666666    0.9353300000000000 Ag
   0.7574380000000001    0.8738033333333333    0.7317266666666666 Ag
   0.7423180000000000    0.7931166666666667    0.8982933333333333 Ag
   0.6426560000000001    0.7072400000000000    0.7689166666666667 Ag
   0.8577600000000001    0.9597266666666666    0.9353300000000000 Ag
   0.9574380000000000    0.8738033333333333    0.7317266666666666 Ag
   0.9423180000000000    0.7931166666666667    0.8982933333333333 Ag
   0.8426560000000001    0.7072400000000000    0.7689166666666667 Ag
   0.0071540000000000    0.2008000000000000    0.1226566666666667 H
   0.0445900000000000    0.1147300000000000    0.2294933333333333 H
   0.0470740000000000    0.0581600000000000    0.2726800000000000 H
   0.0119120000000000    0.3004700000000000    0.2049100000000000 H
   0.0049140000000000    0.0199666666666667    0.1596066666666667 H
   0.0923560000000000    0.1327166666666666    0.2893933333333333 H
   0.0554200000000000    0.2189966666666666    0.0628333333333333 H
   0.0533000000000000    0.2755833333333333    0.1060733333333333 H
   0.0885900000000000    0.0330100000000000    0.0385900000000000 H
   0.0953620000000000    0.3135000000000000    0.3263033333333333 H
   0.1929940000000000    0.0342500000000000    0.0447733333333333 H
   0.1555460000000000    0.2814566666666666    0.2712100000000000 H
   0.1530600000000000    0.2249066666666666    0.2279766666666667 H
   0.1881000000000000    0.1339666666666667    0.2955266666666667 H
   0.1951540000000000    0.1867833333333333    0.0076966666666667 H
   0.1076440000000000    0.2990733333333333    0.2109333333333333 H
   0.1446820000000000    0.0521800000000000    0.1041533333333333 H
   0.1468380000000000    0.1088566666666667    0.0609733333333333 H
   0.1114860000000000    0.1994200000000000    0.1286933333333333 H
   0.1047280000000000    0.1464266666666666    0.1741133333333333 H
   0.2071540000000000    0.2008000000000000    0.1226566666666667 H
   0.2445900000000000    0.1147300000000000    0.2294933333333333 H
   0.2470740000000000    0.0581600000000000    0.2726800000000000 H
   0.2119120000000000    0.3004700000000000    0.2049100000000000 H
   0.2049140000000000    0.0199666666666667    0.1596066666666667 H
   0.2923560000000000    0.1327166666666666    0.2893933333333333 H
   0.2554200000000000    0.2189966666666666    0.0628333333333333 H
   0.2533000000000000    0.2755833333333333    0.1060733333333333 H
   0.2885900000000000    0.0330100000000000    0.0385900000000000 H
   0.2953620000000000    0.3135000000000000    0.3263033333333333 H
   0.3929940000000000    0.0342500000000000    0.0447733333333333 H
   0.3555460000000000    0.2814566666666666    0.2712100000000000 H
   0.3530600000000000    0.2249066666666666    0.2279766666666667 H
   0.3881000000000000    0.1339666666666667    0.2955266666666667 H
   0.3951540000000000    0.1867833333333333    0.0076966666666667 H
   0.3076440000000000    0.2990733333333333    0.2109333333333333 H
   0.3446820000000000    0.0521800000000000    0.1041533333333333 H
   0.3468380000000000    0.1088566666666667    0.0609733333333333 H
   0.3114860000000000    0.1994200000000000    0.1286933333333333 H
   0.3047280000000000    0.1464266666666666    0.1741133333333333 H
   0.4071540000000000    0.2008000000000000    0.1226566666666667 H
   0.4445900000000000    0.1147300000000000    0.2294933333333333 H
   0.4470740000000000    0.0581600000000000    0.2726800000000000 H
   0.4119120000000000    0.3004700000000000    0.2049100000000000 H
   0.4049140000000000    0.0199666666666667    0.1596066666666667 H
   0.4923560000000000    0.1327166666666666    0.2893933333333333 H
   0.4554200000000000    0.2189966666666666    0.0628333333333333 H
   0.4533000000000000    0.2755833333333333    0.1060733333333333 H
   0.4885900000000000    0.0330100000000000    0.0385900000000000 H
   0.4953620000000000    0.3135000000000000    0.3263033333333333 H
   0.5929940000000000    0.0342500000000000    0.0447733333333333 H
   0.5555460000000001    0.2814566666666666    0.2712100000000000 H
   0.5530600000000000    0.2249066666666666    0.2279766666666667 H
   0.5881000000000001    0.1339666666666667    0.2955266666666667 H
   0.5951540000000001    0.1867833333333333    0.0076966666666667 H
   0.5076440000000000    0.2990733333333333    0.2109333333333333 H
   0.5446820000000000    0.0521800000000000    0.1041533333333333 H
   0.5468380000000000    0.1088566666666667    0.0609733333333333 H
   0.5114860000000000    0.1994200000000000    0.1286933333333333 H
   0.5047280000000001    0.1464266666666666    0.1741133333333333 H
   0.6071540000000001    0.2008000000000000    0.1226566666666667 H
   0.6445900000000001    0.1147300000000000    0.2294933333333333 H
   0.6470740000000001    0.0581600000000000    0.2726800000000000 H
   0.6119120000000001    0.3004700000000000    0.2049100000000000 H
   0.6049140000000001    0.0199666666666667    0.1596066666666667 H
   0.6923560000000001    0.1327166666666666    0.2893933333333333 H
   0.6554200000000001    0.2189966666666666    0.0628333333333333 H
   0.6533000000000001    0.2755833333333333    0.1060733333333333 H
   0.6885900000000000    0.0330100000000000    0.0385900000000000 H
   0.6953620000000000    0.3135000000000000    0.3263033333333333 H
   0.7929940000000001    0.0342500000000000    0.0447733333333333 H
   0.7555460000000001    0.2814566666666666    0.2712100000000000 H
   0.7530600000000001    0.2249066666666666    0.2279766666666667 H
   0.7881000000000001    0.1339666666666667    0.2955266666666667 H
   0.7951540000000001    0.1867833333333333    0.0076966666666667 H
   0.7076440000000002    0.2990733333333333    0.2109333333333333 H
   0.7446820000000001    0.0521800000000000    0.1041533333333333 H
   0.7468380000000001    0.1088566666666667    0.0609733333333333 H
   0.7114860000000001    0.1994200000000000    0.1286933333333333 H
   0.7047280000000001    0.1464266666666666    0.1741133333333333 H
   0.8071540000000000    0.2008000000000000    0.1226566666666667 H
   0.8445900000000001    0.1147300000000000    0.2294933333333333 H
   0.8470740000000001    0.0581600000000000    0.2726800000000000 H
   0.8119120000000001    0.3004700000000000    0.2049100000000000 H
   0.8049140000000000    0.0199666666666667    0.1596066666666667 H
   0.8923560000000000    0.1327166666666666    0.2893933333333333 H
   0.8554200000000001    0.2189966666666666    0.0628333333333333 H
   0.8533000000000001    0.2755833333333333    0.1060733333333333 H
   0.8885900000000000    0.0330100000000000    0.0385900000000000 H
   0.8953620000000000    0.3135000000000000    0.3263033333333333 H
   0.9929940000000000    0.0342500000000000    0.0447733333333333 H
   0.9555460000000000    0.2814566666666666    0.2712100000000000 H
   0.9530600000000000    0.2249066666666666    0.2279766666666667 H
   0.9881000000000001    0.1339666666666667    0.2955266666666667 H
   0.9951540000000001    0.1867833333333333    0.0076966666666667 H
   0.9076440000000001    0.2990733333333333    0.2109333333333333 H
   0.9446820000000000    0.0521800000000000    0.1041533333333333 H
   0.9468380000000001    0.1088566666666667    0.0609733333333333 H
   0.9114860000000000    0.1994200000000000    0.1286933333333333 H
   0.9047280000000001    0.1464266666666666    0.1741133333333333 H
   0.0071540000000000    0.5341333333333333    0.1226566666666667 H
   0.0445900000000000    0.4480633333333333    0.2294933333333333 H
   0.0470740000000000    0.3914933333333333    0.2726800000000000 H
   0.0119120000000000    0.6338033333333333    0.2049100000000000 H
   0.0049140000000000    0.3533000000000000    0.1596066666666667 H
   0.0923560000000000    0.4660500000000000    0.2893933333333333 H
   0.0554200000000000    0.5523300000000000    0.0628333333333333 H
   0.0533000000000000    0.6089166666666666    0.1060733333333333 H
   0.0885900000000000    0.3663433333333333    0.0385900000000000 H
   0.0953620000000000    0.6468333333333334    0.3263033333333333 H
   0.1929940000000000    0.3675833333333333    0.0447733333333333 H
   0.1555460000000000    0.6147899999999999    0.2712100000000000 H
   0.1530600000000000    0.5582400000000000    0.2279766666666667 H
   0.1881000000000000    0.4672999999999999    0.2955266666666667 H
   0.1951540000000000    0.5201166666666667    0.0076966666666667 H
   0.1076440000000000    0.6324066666666666    0.2109333333333333 H
   0.1446820000000000    0.3855133333333333    0.1041533333333333 H
   0.1468380000000000    0.4421900000000000    0.0609733333333333 H
   0.1114860000000000    0.5327533333333333    0.1286933333333333 H
   0.1047280000000000    0.4797600000000000    0.1741133333333333 H
   0.2071540000000000    0.5341333333333333    0.1226566666666667 H
   0.2445900000000000    0.4480633333333333    0.2294933333333333 H
   0.2470740000000000    0.3914933333333333    0.2726800000000000 H
   0.2119120000000000    0.6338033333333333    0.2049100000000000 H
   0.2049140000000000    0.3533000000000000    0.1596066666666667 H
   0.2923560000000000    0.4660500000000000    0.2893933333333333 H
   0.2554200000000000    0.5523300000000000    0.0628333333333333 H
   0.2533000000000000    0.6089166666666666    0.1060733333333333 H
   0.2885900000000000    0.3663433333333333    0.0385900000000000 H
   0.2953620000000000    0.6468333333333334    0.3263033333333333 H
   0.3929940000000000    0.3675833333333333    0.0447733333333333 H
   0.3555460000000000    0.6147899999999999    0.2712100000000000 H
   0.3530600000000000    0.5582400000000000    0.2279766666666667 H
   0.3881000000000000    0.4672999999999999    0.2955266666666667 H
   0.3951540000000000    0.5201166666666667    0.0076966666666667 H
   0.3076440000000000    0.6324066666666666    0.2109333333333333 H
   0.3446820000000000    0.3855133333333333    0.1041533333333333 H
   0.3468380000000000    0.4421900000000000    0.0609733333333333 H
   0.3114860000000000    0.5327533333333333    0.1286933333333333 H
   0.3047280000000000    0.4797600000000000    0.1741133333333333 H
   0.4071540000000000    0.5341333333333333    0.1226566666666667 H
   0.4445900000000000    0.4480633333333333    0.2294933333333333 H
   0.4470740000000000    0.3914933333333333    0.2726800000000000 H
   0.4119120000000000    0.6338033333333333    0.2049100000000000 H
   0.4049140000000000    0.3533000000000000    0.1596066666666667 H
   0.4923560000000000    0.4660500000000000    0.2893933333333333 H
   0.4554200000000000    0.5523300000000000    0.0628333333333333 H
   0.4533000000000000    0.6089166666666666    0.1060733333333333 H
   0.4885900000000000    0.3663433333333333    0.0385900000000000 H
   0.4953620000000000    0.6468333333333334    0.3263033333333333 H
   0.5929940000000000    0.3675833333333333    0.0447733333333333 H
   0.5555460000000001    0.6147899999999999    0.2712100000000000 H
   0.5530600000000000    0.5582400000000000    0.2279766666666667 H
   0.5881000000000001    0.4672999999999999    0.2955266666666667 H
   0.5951540000000001    0.5201166666666667    0.0076966666666667 H
   0.5076440000000000    0.6324066666666666    0.2109333333333333 H
   0.5446820000000000    0.3855133333333333    0.1041533333333333 H
   0.5468380000000000    0.4421900000000000    0.0609733333333333 H
   0.5114860000000000    0.5327533333333333    0.1286933333333333 H
   0.5047280000000001    0.4797600000000000    0.1741133333333333 H
   0.6071540000000001    0.5341333333333333    0.1226566666666667 H
   0.6445900000000001    0.4480633333333333    0.2294933333333333 H
   0.6470740000000001    0.3914933333333333    0.2726800000000000 H
   0.6119120000000001    0.6338033333333333    0.2049100000000000 H
   0.6049140000000001    0.3533000000000000    0.1596066666666667 H
   0.6923560000000001    0.4660500000000000    0.2893933333333333 H
   0.6554200000000001    0.5523300000000000    0.0628333333333333 H
   0.6533000000000001    0.6089166666666666    0.1060733333333333 H
   0.6885900000000000    0.3663433333333333    0.0385900000000000 H
   0.6953620000000000    0.6468333333333334    0.3263033333333333 H
   0.7929940000000001    0.3675833333333333    0.0447733333333333 H
   0.7555460000000001    0.6147899999999999    0.2712100000000000 H
   0.7530600000000001    0.5582400000000000    0.2279766666666667 H
   0.7881000000000001    0.4672999999999999    0.2955266666666667 H
   0.7951540000000001    0.5201166666666667    0.0076966666666667 H
   0.7076440000000002    0.6324066666666666    0.2109333333333333 H
   0.7446820000000001    0.3855133333333333    0.1041533333333333 H
   0.7468380000000001    0.4421900000000000    0.0609733333333333 H
   0.7114860000000001    0.5327533333333333    0.1286933333333333 H
   0.7047280000000001    0.4797600000000000    0.1741133333333333 H
   0.8071540000000000    0.5341333333333333    0.1226566666666667 H
   0.8445900000000001    0.4480633333333333    0.2294933333333333 H
   0.8470740000000001    0.3914933333333333    0.2726800000000000 H
   0.8119120000000001    0.6338033333333333    0.2049100000000000 H
   0.8049140000000000    0.3533000000000000    0.1596066666666667 H
   0.8923560000000000    0.4660500000000000    0.2893933333333333 H
   0.8554200000000001    0.5523300000000000    0.0628333333333333 H
   0.8533000000000001    0.6089166666666666    0.1060733333333333 H
   0.8885900000000000    0.3663433333333333    0.0385900000000000 H
   0.8953620000000000    0.6468333333333334    0.3263033333333333 H
   0.9929940000000000    0.3675833333333333    0.0447733333333333 H
   0.9555460000000000    0.6147899999999999    0.2712100000000000 H
   0.9530600000000000    0.5582400000000000    0.2279766666666667 H
   0.9881000000000001    0.4672999999999999    0.2955266666666667 H
   0.9951540000000001    0.5201166666666667    0.0076966666666667 H
   0.9076440000000001    0.6324066666666666    0.2109333333333333 H
   0.9446820000000000    0.3855133333333333    0.1041533333333333 H
   0.9468380000000001    0.4421900000000000    0.0609733333333333 H
   0.9114860000000000    0.5327533333333333    0.1286933333333333 H
   0.9047280000000001    0.4797600000000000    0.1741133333333333 H
   0.0071540000000000    0.8674666666666666    0.1226566666666667 H
   0.0445900000000000    0.7813966666666666    0.2294933333333333 H
   0.0470740000000000    0.7248266666666666    0.2726800000000000 H
   0.0119120000000000    0.9671366666666666    0.2049100000000000 H
   0.0049140000000000    0.6866333333333333    0.1596066666666667 H
   0.0923560000000000    0.7993833333333333    0.2893933333333333 H
   0.0554200000000000    0.8856633333333332    0.0628333333333333 H
   0.0533000000000000    0.9422499999999999    0.1060733333333333 H
   0.0885900000000000    0.6996766666666666    0.0385900000000000 H
   0.0953620000000000    0.9801666666666666    0.3263033333333333 H
   0.1929940000000000    0.7009166666666666    0.0447733333333333 H
   0.1555460000000000    0.9481233333333332    0.2712100000000000 H
   0.1530600000000000    0.8915733333333333    0.2279766666666667 H
   0.1881000000000000    0.8006333333333333    0.2955266666666667 H
   0.1951540000000000    0.8534499999999999    0.0076966666666667 H
   0.1076440000000000    0.9657399999999999    0.2109333333333333 H
   0.1446820000000000    0.7188466666666666    0.1041533333333333 H
   0.1468380000000000    0.7755233333333333    0.0609733333333333 H
   0.1114860000000000    0.8660866666666667    0.1286933333333333 H
   0.1047280000000000    0.8130933333333332    0.1741133333333333 H
   0.2071540000000000    0.8674666666666666    0.1226566666666667 H
   0.2445900000000000    0.7813966666666666    0.2294933333333333 H
   0.2470740000000000    0.7248266666666666    0.2726800000000000 H
   0.2119120000000000    0.9671366666666666    0.2049100000000000 H
   0.2049140000000000    0.6866333333333333    0.1596066666666667 H
   0.2923560000000000    0.7993833333333333    0.2893933333333333 H
   0.2554200000000000    0.8856633333333332    0.0628333333333333 H
   0.2533000000000000    0.9422499999999999    0.1060733333333333 H
   0.2885900000000000    0.6996766666666666    0.0385900000000000 H
   0.2953620000000000    0.9801666666666666    0.3263033333333333 H
   0.3929940000000000    0.7009166666666666    0.0447733333333333 H
   0.3555460000000000    0.9481233333333332    0.2712100000000000 H
   0.3530600000000000    0.8915733333333333    0.2279766666666667 H
   0.3881000000000000    0.8006333333333333    0.2955266666666667 H
   0.3951540000000000    0.8534499999999999    0.0076966666666667 H
   0.3076440000000000    0.9657399999999999    0.2109333333333333 H
   0.3446820000000000    0.7188466666666666    0.1041533333333333 H
   0.3468380000000000    0.7755233333333333    0.0609733333333333 H
   0.3114860000000000    0.8660866666666667    0.1286933333333333 H
   0.3047280000000000    0.8130933333333332    0.1741133333333333 H
   0.4071540000000000    0.8674666666666666    0.1226566666666667 H
   0.4445900000000000    0.7813966666666666    0.2294933333333333 H
   0.4470740000000000    0.7248266666666666    0.2726800000000000 H
   0.4119120000000000    0.9671366666666666    0.2049100000000000 H
   0.4049140000000000    0.6866333333333333    0.1596066666666667 H
   0.4923560000000000    0.7993833333333333    0.2893933333333333 H
   0.4554200000000000    0.8856633333333332    0.0628333333333333 H
   0.4533000000000000    0.9422499999999999    0.1060733333333333 H
   0.4885900000000000    0.6996766666666666    0.0385900000000000 H
   0.4953620000000000    0.9801666666666666    0.3263033333333333 H
   0.5929940000000000    0.7009166666666666    0.0447733333333333 H
   0.5555460000000001    0.9481233333333332    0.2712100000000000 H
   0.5530600000000000    0.8915733333333333    0.2279766666666667 H
   0.5881000000000001    0.8006333333333333    0.2955266666666667 H