H6 C12 O4
1.0
  17.2240000000000002    0.0000000000000000    0.0000000000000011
   0.0000000000000028   17.2332117415511057   -0.1648304306403815
   0.0000000000000000    0.0000000000000000   34.5840000000000032
H C O
6 12 4
direct
   0.4058400000000000    0.0000000000000000    0.6382900000000000 H
   0.5640200000000000    0.9550500000000000    0.7537300000000000 H
   0.6591500000000000    0.0093300000000000    0.7865150000000001 H
   0.7084800000000000    0.1321500000000000    0.7721950000000000 H
   0.6756100000000000    0.2140300000000000    0.7211200000000000 H
   0.5832500000000000    0.1952600000000000    0.6721500000000000 H
   0.4692000000000000    0.1319600000000000    0.6235950000000000 C
   0.4847800000000000    0.0785100000000000    0.6552500000000000 C
   0.4486700000000000    0.0056400000000000    0.6581600000000000 C
   0.4781000000000000    0.9829900000000000    0.6903200000000000 C
   0.5341100000000000    0.0134800000000000    0.7090000000000000 C
   0.5393500000000000    0.0856800000000000    0.6863700000000000 C
   0.5777400000000000    0.0000000000000000    0.7418700000000000 C
   0.6338900000000000    0.0371600000000000    0.7612000000000000 C
   0.6635500000000000    0.1104500000000000    0.7525900000000000 C
   0.6435900000000000    0.1595800000000000    0.7223050000000000 C
   0.5886700000000000    0.1486300000000000    0.6930499999999999 C
   0.4519800000000000    0.9048500000000000    0.7005200000000000 C
   0.5077199999999999    0.1959400000000000    0.6218250000000000 O
   0.4169200000000000    0.1119100000000000    0.5988550000000000 O
   0.4749500000000000    0.8753800000000000    0.7324800000000000 O
   0.4069500000000000    0.8710500000000000    0.6758950000000000 O
