H6 O4
1.0
  17.2240000000000002    0.0000000000000000    0.0000000000000011
   0.0000000000000028   17.2332117415511057   -0.1648304306403815
   0.0000000000000000    0.0000000000000000   34.5840000000000032
H O
6 4
direct
   0.5101487261627349    0.9042646102155066    0.7491161551372373 H
   0.3931640310153223    0.8964450005978768    0.6519453393048241 H
   0.4556193481121922    0.9109888075342283    0.6988978445313410 H
   0.3793594583863465    0.0723908626824963    0.6056631065481333 H
   0.5352363812996049    0.2169526605627615    0.6440438072298752 H
   0.4567974434892878    0.1423620850698901    0.6310550636661277 H
   0.4749500000000000    0.8753800000000000    0.7324800000000000 O
   0.4069500000000000    0.8710500000000000    0.6758950000000000 O
   0.4169200000000000    0.1119100000000000    0.5988550000000000 O
   0.5077199999999999    0.1959400000000000    0.6218250000000000 O
