Zn32 H138 C276 O100
1.0
  17.2240000000000002    0.0000000000000000    0.0000000000000011
   0.0000000000000028   17.2332117415511057   -0.1648304306403815
   0.0000000000000000    0.0000000000000000   34.5840000000000032
Zn H C O
32 138 276 100
direct
   0.5856900000000000    0.1724000000000000    0.0000000000000000 Zn
   0.4261000000000000    0.2648100000000000    0.0000000000000000 Zn
   0.5190100000000000    0.2585900000000000    0.0745300000000000 Zn
   0.4378100000000000    0.6169700000000000    0.2131000000000000 Zn
   0.3567500000000000    0.7691500000000000    0.1777650000000000 Zn
   0.7934000000000000    0.3292500000000000    0.2537250000000000 Zn
   0.4475000000000000    0.7773300000000000    0.2586100000000000 Zn
   0.9421800000000000    0.9095500000000000    0.4654850000000000 Zn
   0.0786600000000000    0.8450299999999999    0.0017000000000000 Zn
   0.9359700000000000    0.7526600000000000    0.0051250000000000 Zn
   0.0133900000000000    0.7569800000000000    0.4331650000000000 Zn
   0.9459100000000000    0.4003200000000000    0.2947450000000000 Zn
   0.8642600000000000    0.2481600000000000    0.3299400000000000 Zn
   0.2854200000000000    0.6882900000000000    0.2540500000000000 Zn
   0.9554600000000000    0.2401100000000000    0.2491950000000000 Zn
   0.4333600000000000    0.1073200000000000    0.0421350000000000 Zn
   0.5856900000000000    0.1724000000000000    0.5000000000000000 Zn
   0.4261000000000000    0.2648100000000000    0.5000000000000000 Zn
   0.5190100000000000    0.2585900000000000    0.5745300000000000 Zn
   0.4378100000000000    0.6169700000000000    0.7131000000000001 Zn
   0.3567500000000000    0.7691500000000000    0.6777650000000000 Zn
   0.7934000000000000    0.3292500000000000    0.7537250000000000 Zn
   0.4475000000000000    0.7773300000000000    0.7586100000000000 Zn
   0.9421800000000000    0.9095500000000000    0.9654849999999999 Zn
   0.0786600000000000    0.8450299999999999    0.5017000000000000 Zn
   0.9359700000000000    0.7526600000000000    0.5051250000000000 Zn
   0.0133900000000000    0.7569800000000000    0.9331650000000000 Zn
   0.9459100000000000    0.4003200000000000    0.7947450000000000 Zn
   0.8642600000000000    0.2481600000000000    0.8299400000000000 Zn
   0.2854200000000000    0.6882900000000000    0.7540500000000000 Zn
   0.9554600000000000    0.2401100000000000    0.7491950000000001 Zn
   0.4333600000000000    0.1073200000000000    0.5421350000000000 Zn
   0.7091600000000000    0.9944000000000000    0.4906050000000000 H
   0.7512000000000000    0.7545500000000001    0.0553300000000000 H
   0.6788300000000000    0.6876800000000000    0.1019750000000000 H
   0.5590400000000000    0.7205700000000000    0.1294300000000000 H
   0.4804300000000000    0.8284700000000000    0.1169900000000000 H
   0.5002500000000000    0.9289200000000000    0.0728000000000000 H
   0.6718700000000000    0.2272200000000000    0.3935750000000000 H
   0.5742800000000000    0.3374600000000000    0.2728900000000000 H
   0.4532300000000000    0.3870600000000000    0.2531500000000000 H
   0.3374100000000000    0.3948800000000000    0.2880800000000000 H
   0.3128300000000000    0.3593400000000000    0.3519900000000000 H
   0.3988000000000000    0.3074700000000000    0.3978400000000000 H
   0.7142400000000000    0.2799900000000000    0.1377500000000000 H
   0.9493600000000000    0.1250900000000000    0.1585800000000000 H
   0.0000000000000000    0.0322200000000000    0.1212500000000000 H
   0.9877100000000000    0.0000000000000000    0.0595900000000000 H
   0.8805300000000000    0.0133200000000000    0.0200950000000000 H
   0.7802400000000000    0.1027500000000000    0.0310650000000000 H
   0.4058400000000000    0.0000000000000000    0.1382900000000000 H
   0.5640200000000000    0.9550500000000000    0.2537300000000000 H
   0.6591500000000000    0.0093300000000000    0.2865150000000000 H
   0.7084800000000000    0.1321500000000000    0.2721950000000000 H
   0.6756100000000000    0.2140300000000000    0.2211200000000000 H
   0.5832500000000000    0.1952600000000000    0.1721500000000000 H
   0.4613900000000000    0.4862200000000000    0.1180950000000000 H
   0.3772300000000000    0.4715400000000000    0.4902850000000000 H
   0.3243500000000000    0.5618800000000000    0.4471550000000000 H
   0.2885700000000000    0.6906700000000000    0.4586500000000000 H
   0.2959700000000000    0.7630700000000000    0.0000000000000000 H
   0.3463300000000000    0.7256500000000000    0.0687950000000000 H
   0.6647600000000000    0.5274799999999999    0.2411150000000000 H
   0.8806100000000000    0.5960800000000001    0.3272600000000000 H
   0.9045900000000000    0.6992699999999999    0.3704000000000000 H
   0.8280300000000000    0.8087600000000000    0.3833900000000000 H
   0.7063400000000000    0.8407200000000000    0.3580600000000000 H
   0.6305100000000000    0.7722100000000000    0.3127450000000000 H
   0.2002700000000000    0.0229300000000000    0.0170850000000000 H
   0.2415400000000000    0.2625200000000000    0.4521900000000000 H
   0.1693200000000000    0.3292300000000000    0.4054250000000000 H
   0.0496700000000000    0.2962300000000000    0.3778650000000000 H
   0.9877500000000000    0.1882900000000000    0.3903100000000000 H
   0.0000000000000000    0.0881400000000000    0.4346000000000000 H
   0.1643400000000000    0.7903900000000000    0.1141000000000000 H
   0.0665000000000000    0.6803500000000000    0.2348100000000000 H
   0.9621200000000000    0.6307900000000000    0.2544550000000000 H
   0.8463800000000000    0.6228900000000001    0.2195100000000000 H
   0.8219300000000000    0.6583599999999999    0.1555700000000000 H
   0.9080100000000000    0.7102200000000000    0.1097600000000000 H
   0.2069200000000000    0.7368800000000000    0.3704850000000000 H
   0.4406700000000000    0.8932800000000000    0.3487400000000000 H
   0.5078300000000000    0.9865600000000000    0.3857250000000000 H
   0.4782900000000000    0.0170100000000000    0.4476400000000000 H
   0.3737400000000000    0.0000000000000000    0.4875700000000000 H
   0.2735700000000000    0.9146800000000000    0.4769400000000000 H
   0.9134500000000000    0.0159000000000000    0.3695700000000000 H
   0.0548000000000000    0.0622100000000000    0.2540000000000000 H
   0.1516000000000000    0.0000000000000000    0.2212550000000000 H
   0.2010900000000000    0.8851800000000000    0.2356100000000000 H
   0.1683900000000000    0.8033400000000001    0.2867300000000000 H
   0.0760200000000000    0.8220400000000000    0.3357000000000000 H
   0.9713600000000000    0.5295500000000000    0.3897550000000000 H
   0.8875200000000000    0.5462399999999999    0.0173500000000000 H
   0.8324200000000000    0.4571400000000000    0.0604550000000000 H
   0.7948200000000000    0.3287600000000000    0.0490250000000000 H
   0.8020200000000000    0.2558200000000000    0.4918750000000000 H
   0.8520700000000000    0.2921900000000000    0.4391100000000000 H
   0.1561300000000000    0.4901700000000000    0.2666550000000000 H
   0.3719400000000000    0.4211400000000000    0.1805450000000000 H
   0.3957300000000000    0.3178100000000000    0.1374650000000000 H
   0.3190000000000000    0.2084500000000000    0.1245050000000000 H
   0.1972500000000000    0.1767000000000000    0.1498400000000000 H
   0.1215800000000000    0.2454100000000000    0.1951500000000000 H
   0.7091600000000000    0.9944000000000000    0.9906050000000000 H
   0.7512000000000000    0.7545500000000001    0.5553300000000000 H
   0.6788300000000000    0.6876800000000000    0.6019750000000000 H
   0.5590400000000000    0.7205700000000000    0.6294299999999999 H
   0.4804300000000000    0.8284700000000000    0.6169900000000000 H
   0.5002500000000000    0.9289200000000000    0.5728000000000000 H
   0.6718700000000000    0.2272200000000000    0.8935750000000000 H
   0.5742800000000000    0.3374600000000000    0.7728900000000001 H
   0.4532300000000000    0.3870600000000000    0.7531500000000000 H
   0.3374100000000000    0.3948800000000000    0.7880800000000000 H
   0.3128300000000000    0.3593400000000000    0.8519900000000000 H
   0.3988000000000000    0.3074700000000000    0.8978400000000000 H
   0.7142400000000000    0.2799900000000000    0.6377500000000000 H
   0.9493600000000000    0.1250900000000000    0.6585799999999999 H
   0.0000000000000000    0.0322200000000000    0.6212500000000000 H
   0.9877100000000000    0.0000000000000000    0.5595900000000000 H
   0.8805300000000000    0.0133200000000000    0.5200950000000000 H
   0.7802400000000000    0.1027500000000000    0.5310650000000000 H
   0.4613900000000000    0.4862200000000000    0.6180950000000001 H
   0.3772300000000000    0.4715400000000000    0.9902850000000001 H
   0.3243500000000000    0.5618800000000000    0.9471550000000000 H
   0.2885700000000000    0.6906700000000000    0.9586500000000000 H
   0.2959700000000000    0.7630700000000000    0.5000000000000000 H
   0.3463300000000000    0.7256500000000000    0.5687949999999999 H
   0.6647600000000000    0.5274799999999999    0.7411150000000000 H
   0.8806100000000000    0.5960800000000001    0.8272600000000000 H
   0.9045900000000000    0.6992699999999999    0.8704000000000001 H
   0.8280300000000000    0.8087600000000000    0.8833900000000000 H
   0.7063400000000000    0.8407200000000000    0.8580600000000000 H
   0.6305100000000000    0.7722100000000000    0.8127450000000001 H
   0.2002700000000000    0.0229300000000000    0.5170850000000000 H
   0.2415400000000000    0.2625200000000000    0.9521900000000000 H
   0.1693200000000000    0.3292300000000000    0.9054249999999999 H
   0.0496700000000000    0.2962300000000000    0.8778650000000000 H
   0.9877500000000000    0.1882900000000000    0.8903099999999999 H
   0.0000000000000000    0.0881400000000000    0.9346000000000000 H
   0.1643400000000000    0.7903900000000000    0.6141000000000000 H
   0.0665000000000000    0.6803500000000000    0.7348100000000000 H
   0.9621200000000000    0.6307900000000000    0.7544550000000000 H
   0.8463800000000000    0.6228900000000001    0.7195100000000000 H
   0.8219300000000000    0.6583599999999999    0.6555700000000000 H
   0.9080100000000000    0.7102200000000000    0.6097600000000000 H
   0.2069200000000000    0.7368800000000000    0.8704850000000000 H
   0.4406700000000000    0.8932800000000000    0.8487400000000000 H
   0.5078300000000000    0.9865600000000000    0.8857250000000000 H
   0.4782900000000000    0.0170100000000000    0.9476400000000000 H
   0.3737400000000000    0.0000000000000000    0.9875700000000001 H
   0.2735700000000000    0.9146800000000000    0.9769399999999999 H
   0.9134500000000000    0.0159000000000000    0.8695700000000000 H
   0.0548000000000000    0.0622100000000000    0.7540000000000000 H
   0.1516000000000000    0.0000000000000000    0.7212550000000000 H
   0.2010900000000000    0.8851800000000000    0.7356100000000000 H
   0.1683900000000000    0.8033400000000001    0.7867299999999999 H
   0.0760200000000000    0.8220400000000000    0.8357000000000000 H
   0.9713600000000000    0.5295500000000000    0.8897550000000001 H
   0.8875200000000000    0.5462399999999999    0.5173500000000000 H
   0.8324200000000000    0.4571400000000000    0.5604550000000000 H
   0.7948200000000000    0.3287600000000000    0.5490250000000000 H
   0.8020200000000000    0.2558200000000000    0.9918750000000001 H
   0.8520700000000000    0.2921900000000000    0.9391100000000000 H
   0.1561300000000000    0.4901700000000000    0.7666550000000000 H
   0.3719400000000000    0.4211400000000000    0.6805450000000000 H
   0.3957300000000000    0.3178100000000000    0.6374649999999999 H
   0.3190000000000000    0.2084500000000000    0.6245050000000000 H
   0.1972500000000000    0.1767000000000000    0.6498400000000000 H
   0.1215800000000000    0.2454100000000000    0.6951499999999999 H
   0.5614100000000000    0.0086700000000000    0.0163650000000000 C
   0.6153300000000000    0.9611200000000000    0.0228100000000000 C
   0.6874900000000000    0.9539400000000000    0.0040450000000000 C
   0.7266100000000000    0.8870500000000000    0.0165050000000000 C
   0.6783100000000000    0.8492600000000000    0.0443500000000000 C
   0.6076000000000000    0.8972700000000000    0.0487950000000000 C
   0.6958900000000000    0.7805900000000000    0.0636250000000000 C
   0.6527100000000000    0.7412400000000000    0.0914000000000000 C
   0.5810400000000000    0.7607400000000000    0.1077750000000000 C
   0.5338400000000000    0.8246900000000000    0.1001400000000000 C
   0.5454900000000000    0.8847300000000000    0.0739300000000000 C
   0.8043200000000000    0.8648300000000000    0.0029250000000000 C
   0.9857500000000000    0.0342900000000000    0.3175700000000000 C
   0.0268000000000000    0.0000000000000000    0.2988650000000000 C
   0.0320800000000000    0.9315900000000000    0.3214500000000000 C
   0.0685900000000000    0.0054600000000000    0.2659700000000000 C
   0.5320100000000000    0.2506600000000000    0.4352700000000000 C
   0.5496100000000000    0.2663100000000000    0.3945800000000000 C
   0.6229300000000000    0.2519500000000000    0.3782500000000000 C
   0.6246699999999999    0.2758300000000000    0.3395300000000000 C
   0.5497300000000001    0.3061200000000000    0.3300500000000000 C
   0.5012200000000000    0.2990700000000000    0.3652550000000000 C
   0.5279199999999999    0.3364500000000000    0.2943750000000000 C
   0.4559900000000000    0.3656400000000000    0.2827750000000000 C
   0.3868500000000000    0.3709400000000000    0.3037500000000000 C
   0.3722700000000000    0.3498300000000000    0.3419750000000000 C
   0.4229500000000000    0.3186900000000000    0.3692750000000000 C
   0.6954100000000000    0.2709100000000000    0.3161000000000000 C
   0.6830700000000000    0.2170400000000000    0.0635050000000000 C
   0.7475300000000000    0.2008700000000000    0.0899000000000000 C
   0.7542400000000000    0.2368000000000000    0.1264150000000000 C
   0.8198400000000000    0.2089700000000000    0.1460300000000000 C
   0.8573800000000000    0.1529400000000000    0.1214650000000000 C
   0.8107100000000000    0.1473100000000000    0.0856350000000000 C
   0.9247500000000000    0.1115100000000000    0.1302650000000000 C
   0.9642700000000000    0.0562200000000000    0.1080000000000000 C
   0.9463600000000000    0.0268300000000000    0.0712650000000000 C
   0.8836000000000001    0.0451700000000000    0.0474500000000000 C
   0.8237000000000000    0.0983700000000000    0.0538750000000000 C
   0.8411600000000000    0.2352300000000000    0.1850700000000000 C
   0.4692000000000000    0.1319600000000000    0.1235950000000000 C
   0.4847800000000000    0.0785100000000000    0.1552500000000000 C
   0.4486700000000000    0.0056400000000000    0.1581600000000000 C
   0.4781000000000000    0.9829900000000000    0.1903200000000000 C
   0.5341100000000000    0.0134800000000000    0.2090000000000000 C
   0.5393500000000000    0.0856800000000000    0.1863700000000000 C
   0.5777400000000000    0.0000000000000000    0.2418700000000000 C
   0.6338900000000000    0.0371600000000000    0.2612000000000000 C
   0.6635500000000000    0.1104500000000000    0.2525900000000000 C
   0.6435900000000000    0.1595800000000000    0.2223050000000000 C
   0.5886700000000000    0.1486300000000000    0.1930500000000000 C
   0.4519800000000000    0.9048500000000000    0.2005200000000000 C
   0.4373700000000000    0.3994300000000000    0.0487400000000000 C
   0.4203200000000000    0.4811100000000000    0.0574500000000000 C
   0.4350400000000000    0.5155300000000000    0.0937650000000000 C
   0.4097300000000000    0.5930600000000000    0.0943800000000000 C
   0.4146400000000000    0.6420000000000000    0.1291850000000000 C
   0.3862700000000000    0.5389400000000000    0.0332450000000000 C
   0.3656700000000000    0.5292900000000000    0.0000000000000000 C
   0.3339800000000000    0.5831400000000000    0.4766250000000000 C
   0.3126100000000000    0.6602200000000000    0.4835050000000000 C
   0.3177300000000000    0.7036900000000000    0.0000000000000000 C
   0.3475900000000000    0.6816600000000000    0.0459100000000000 C
   0.3785600000000000    0.6103800000000000    0.0570650000000000 C
   0.5741000000000001    0.6599500000000000    0.2604400000000000 C
   0.6518300000000000    0.6376800000000000    0.2737850000000000 C
   0.6890600000000000    0.5693000000000000    0.2614200000000000 C
   0.7620500000000000    0.5622500000000000    0.2792650000000000 C
   0.7724200000000000    0.6278300000000000    0.3045400000000000 C
   0.7020400000000000    0.6764900000000000    0.3007900000000000 C
   0.8361499999999999    0.6410900000000000    0.3286950000000000 C
   0.8502300000000000    0.7026400000000000    0.3543100000000000 C
   0.8041600000000000    0.7675400000000000    0.3623300000000000 C
   0.7315900000000000    0.7867000000000000    0.3470700000000000 C
   0.6863200000000000    0.7463300000000000    0.3200750000000000 C
   0.8129500000000000    0.4952000000000000    0.2725000000000000 C
   0.0532100000000000    0.0000000000000000    0.4912700000000000 C
   0.1054600000000000    0.0561300000000000    0.4845000000000000 C
   0.1775900000000000    0.0633300000000000    0.0000000000000000 C
   0.2167900000000000    0.1301200000000000    0.4910900000000000 C
   0.1686000000000000    0.1678400000000000    0.4631800000000000 C
   0.0978600000000000    0.1198700000000000    0.4587400000000000 C
   0.1862500000000000    0.2364500000000000    0.4438650000000000 C
   0.1431700000000000    0.2757100000000000    0.4159950000000000 C
   0.0715800000000000    0.2561300000000000    0.3995800000000000 C
   0.0243500000000000    0.1922100000000000    0.4072300000000000 C
   0.0358600000000000    0.1323000000000000    0.4335250000000000 C
   0.2945000000000000    0.1523700000000000    0.0000000000000000 C
   0.0000000000000000    0.7669300000000000    0.0723900000000000 C
   0.0420600000000000    0.7513400000000000    0.1130900000000000 C
   0.1153800000000000    0.7657000000000000    0.1294300000000000 C
   0.1170600000000000    0.7418700000000000    0.1681600000000000 C
   0.0420800000000000    0.7116300000000000    0.1776150000000000 C
   0.0000000000000000    0.7186399999999999    0.1424050000000000 C
   0.0201900000000000    0.6813300000000000    0.2133000000000000 C
   0.9649500000000000    0.6521600000000000    0.2248650000000000 C
   0.8958500000000000    0.6468300000000000    0.2038600000000000 C
   0.8813500000000000    0.6678900000000000    0.1656200000000000 C
   0.9320800000000000    0.6990100000000000    0.1383450000000000 C
   0.1877700000000000    0.7467200000000001    0.1916000000000000 C
   0.1764700000000000    0.7998200000000000    0.4448950000000000 C
   0.2403500000000000    0.8163600000000000    0.4182150000000000 C
   0.2468000000000000    0.7803600000000001    0.3816900000000000 C
   0.3119800000000000    0.8085100000000000    0.3618350000000000 C
   0.3495100000000000    0.8648400000000001    0.3862450000000000 C
   0.3033000000000000    0.8703100000000000    0.4222200000000000 C
   0.4164600000000000    0.9067000000000000    0.3771500000000000 C
   0.4560500000000000    0.9622200000000000    0.3992550000000000 C
   0.4386900000000000    0.9913800000000000    0.4361000000000000 C
   0.3764500000000000    0.9726399999999999    0.4601600000000000 C
   0.3166300000000000    0.9192399999999999    0.4539500000000000 C
   0.3331100000000000    0.7822400000000000    0.3227550000000000 C
   0.9785199999999999    0.8850300000000000    0.3842300000000000 C
   0.9942299999999999    0.9386300000000000    0.3525500000000000 C
   0.9580700000000000    0.0000000000000000    0.3497000000000000 C
   0.1264400000000000    0.9801100000000000    0.2466000000000000 C
   0.1561800000000000    0.9068700000000000    0.2552250000000000 C
   0.1363200000000000    0.8577500000000000    0.2855400000000000 C
   0.0814200000000000    0.8686700000000001    0.3147750000000000 C
   0.9596500000000000    0.1124800000000000    0.3073550000000000 C
   0.9482200000000000    0.6169500000000000    0.4589400000000000 C
   0.9300000000000000    0.5354900000000000    0.4502900000000000 C
   0.9443100000000000    0.5007300000000000    0.4140450000000000 C
   0.9175400000000000    0.4237100000000000    0.4134250000000000 C
   0.9215800000000000    0.3745000000000000    0.3786750000000000 C
   0.8947200000000000    0.4784000000000000    0.4745100000000000 C
   0.8750300000000000    0.4886200000000000    0.0056150000000000 C
   0.8420900000000000    0.4355000000000000    0.0310550000000000 C
   0.8196200000000000    0.3587000000000000    0.0242400000000000 C
   0.8245300000000000    0.3149100000000000    0.4901250000000000 C
   0.8538400000000000    0.3362900000000000    0.4619350000000000 C
   0.8858800000000000    0.4070500000000000    0.4507250000000000 C
   0.0653800000000000    0.3576300000000000    0.2473750000000000 C
   0.1431100000000000    0.3799100000000000    0.2340000000000000 C
   0.1803900000000000    0.4483100000000000    0.2463650000000000 C
   0.2534000000000000    0.4552800000000000    0.2285150000000000 C
   0.2637000000000000    0.3896200000000000    0.2032500000000000 C
   0.1932800000000000    0.3410200000000000    0.2070500000000000 C
   0.3274100000000000    0.3762000000000000    0.1791400000000000 C
   0.3413900000000000    0.3145500000000000    0.1535700000000000 C
   0.2952100000000000    0.2497200000000000    0.1455600000000000 C
   0.2226000000000000    0.2306900000000000    0.1608150000000000 C
   0.1774300000000000    0.2711700000000000    0.1877950000000000 C
   0.3044200000000000    0.5222900000000000    0.2350200000000000 C
   0.5614100000000000    0.0086700000000000    0.5163650000000000 C
   0.6153300000000000    0.9611200000000000    0.5228100000000000 C
   0.6874900000000000    0.9539400000000000    0.5040450000000000 C
   0.7266100000000000    0.8870500000000000    0.5165050000000000 C
   0.6783100000000000    0.8492600000000000    0.5443500000000000 C
   0.6076000000000000    0.8972700000000000    0.5487950000000000 C
   0.6958900000000000    0.7805900000000000    0.5636250000000000 C
   0.6527100000000000    0.7412400000000000    0.5914000000000000 C
   0.5810400000000000    0.7607400000000000    0.6077750000000000 C
   0.5338400000000000    0.8246900000000000    0.6001400000000000 C
   0.5454900000000000    0.8847300000000000    0.5739300000000001 C
   0.8043200000000000    0.8648300000000000    0.5029250000000000 C
   0.9857500000000000    0.0342900000000000    0.8175700000000000 C
   0.0268000000000000    0.0000000000000000    0.7988649999999999 C
   0.0320800000000000    0.9315900000000000    0.8214500000000000 C
   0.0685900000000000    0.0054600000000000    0.7659700000000000 C
   0.5320100000000000    0.2506600000000000    0.9352700000000000 C
   0.5496100000000000    0.2663100000000000    0.8945799999999999 C
   0.6229300000000000    0.2519500000000000    0.8782500000000000 C
   0.6246699999999999    0.2758300000000000    0.8395300000000000 C
   0.5497300000000001    0.3061200000000000    0.8300500000000000 C
   0.5012200000000000    0.2990700000000000    0.8652550000000000 C
   0.5279199999999999    0.3364500000000000    0.7943750000000001 C
   0.4559900000000000    0.3656400000000000    0.7827750000000000 C
   0.3868500000000000    0.3709400000000000    0.8037500000000000 C
   0.3722700000000000    0.3498300000000000    0.8419749999999999 C
   0.4229500000000000    0.3186900000000000    0.8692750000000000 C
   0.6954100000000000    0.2709100000000000    0.8161000000000000 C
   0.6830700000000000    0.2170400000000000    0.5635050000000000 C
   0.7475300000000000    0.2008700000000000    0.5899000000000000 C
   0.7542400000000000    0.2368000000000000    0.6264149999999999 C
   0.8198400000000000    0.2089700000000000    0.6460300000000000 C
   0.8573800000000000    0.1529400000000000    0.6214650000000000 C
   0.8107100000000000    0.1473100000000000    0.5856350000000000 C
   0.9247500000000000    0.1115100000000000    0.6302650000000000 C
   0.9642700000000000    0.0562200000000000    0.6080000000000000 C
   0.9463600000000000    0.0268300000000000    0.5712650000000000 C
   0.8836000000000001    0.0451700000000000    0.5474500000000000 C
   0.8237000000000000    0.0983700000000000    0.5538750000000000 C
   0.8411600000000000    0.2352300000000000    0.6850700000000001 C
   0.4373700000000000    0.3994300000000000    0.5487400000000000 C
   0.4203200000000000    0.4811100000000000    0.5574500000000000 C
   0.4350400000000000    0.5155300000000000    0.5937650000000000 C
   0.4097300000000000    0.5930600000000000    0.5943800000000000 C
   0.4146400000000000    0.6420000000000000    0.6291850000000000 C
   0.3862700000000000    0.5389400000000000    0.5332450000000000 C
   0.3656700000000000    0.5292900000000000    0.5000000000000000 C
   0.3339800000000000    0.5831400000000000    0.9766250000000001 C
   0.3126100000000000    0.6602200000000000    0.9835050000000001 C
   0.3177300000000000    0.7036900000000000    0.5000000000000000 C
   0.3475900000000000    0.6816600000000000    0.5459100000000000 C
   0.3785600000000000    0.6103800000000000    0.5570650000000000 C
   0.5741000000000001    0.6599500000000000    0.7604400000000000 C
   0.6518300000000000    0.6376800000000000    0.7737849999999999 C
   0.6890600000000000    0.5693000000000000    0.7614200000000000 C
   0.7620500000000000    0.5622500000000000    0.7792650000000000 C
   0.7724200000000000    0.6278300000000000    0.8045400000000000 C
   0.7020400000000000    0.6764900000000000    0.8007900000000000 C
   0.8361499999999999    0.6410900000000000    0.8286950000000000 C
   0.8502300000000000    0.7026400000000000    0.8543100000000000 C
   0.8041600000000000    0.7675400000000000    0.8623300000000000 C
   0.7315900000000000    0.7867000000000000    0.8470700000000000 C
   0.6863200000000000    0.7463300000000000    0.8200750000000000 C
   0.8129500000000000    0.4952000000000000    0.7725000000000000 C
   0.0532100000000000    0.0000000000000000    0.9912700000000000 C
   0.1054600000000000    0.0561300000000000    0.9844999999999999 C
   0.1775900000000000    0.0633300000000000    0.5000000000000000 C
   0.2167900000000000    0.1301200000000000    0.9910900000000000 C
   0.1686000000000000    0.1678400000000000    0.9631799999999999 C
   0.0978600000000000    0.1198700000000000    0.9587399999999999 C
   0.1862500000000000    0.2364500000000000    0.9438650000000000 C
   0.1431700000000000    0.2757100000000000    0.9159950000000000 C
   0.0715800000000000    0.2561300000000000    0.8995800000000000 C
   0.0243500000000000    0.1922100000000000    0.9072300000000000 C
   0.0358600000000000    0.1323000000000000    0.9335249999999999 C
   0.2945000000000000    0.1523700000000000    0.5000000000000000 C
   0.0000000000000000    0.7669300000000000    0.5723900000000000 C
   0.0420600000000000    0.7513400000000000    0.6130900000000000 C
   0.1153800000000000    0.7657000000000000    0.6294299999999999 C
   0.1170600000000000    0.7418700000000000    0.6681600000000000 C
   0.0420800000000000    0.7116300000000000    0.6776150000000000 C
   0.0000000000000000    0.7186399999999999    0.6424050000000000 C
   0.0201900000000000    0.6813300000000000    0.7133000000000000 C
   0.9649500000000000    0.6521600000000000    0.7248650000000000 C
   0.8958500000000000    0.6468300000000000    0.7038600000000000 C
   0.8813500000000000    0.6678900000000000    0.6656200000000000 C
   0.9320800000000000    0.6990100000000000    0.6383449999999999 C
   0.1877700000000000    0.7467200000000001    0.6916000000000000 C
   0.1764700000000000    0.7998200000000000    0.9448950000000000 C
   0.2403500000000000    0.8163600000000000    0.9182150000000000 C
   0.2468000000000000    0.7803600000000001    0.8816900000000000 C
   0.3119800000000000    0.8085100000000000    0.8618350000000000 C
   0.3495100000000000    0.8648400000000001    0.8862449999999999 C
   0.3033000000000000    0.8703100000000000    0.9222200000000000 C
   0.4164600000000000    0.9067000000000000    0.8771500000000000 C
   0.4560500000000000    0.9622200000000000    0.8992550000000000 C
   0.4386900000000000    0.9913800000000000    0.9360999999999999 C
   0.3764500000000000    0.9726399999999999    0.9601600000000000 C
   0.3166300000000000    0.9192399999999999    0.9539500000000001 C
   0.3331100000000000    0.7822400000000000    0.8227550000000000 C
   0.9785199999999999    0.8850300000000000    0.8842300000000001 C
   0.9942299999999999    0.9386300000000000    0.8525499999999999 C
   0.9580700000000000    0.0000000000000000    0.8497000000000000 C
   0.1264400000000000    0.9801100000000000    0.7466000000000000 C
   0.1561800000000000    0.9068700000000000    0.7552250000000000 C
   0.1363200000000000    0.8577500000000000    0.7855400000000000 C
   0.0814200000000000    0.8686700000000001    0.8147750000000000 C
   0.9596500000000000    0.1124800000000000    0.8073550000000000 C
   0.9482200000000000    0.6169500000000000    0.9589400000000000 C
   0.9300000000000000    0.5354900000000000    0.9502900000000001 C
   0.9443100000000000    0.5007300000000000    0.9140450000000000 C
   0.9175400000000000    0.4237100000000000    0.9134249999999999 C
   0.9215800000000000    0.3745000000000000    0.8786750000000000 C
   0.8947200000000000    0.4784000000000000    0.9745100000000000 C
   0.8750300000000000    0.4886200000000000    0.5056150000000000 C
   0.8420900000000000    0.4355000000000000    0.5310550000000001 C
   0.8196200000000000    0.3587000000000000    0.5242400000000000 C
   0.8245300000000000    0.3149100000000000    0.9901249999999999 C
   0.8538400000000000    0.3362900000000000    0.9619350000000000 C
   0.8858800000000000    0.4070500000000000    0.9507250000000000 C
   0.0653800000000000    0.3576300000000000    0.7473750000000000 C
   0.1431100000000000    0.3799100000000000    0.7340000000000000 C