H4 O2
1.0
  13.1803984405094621    0.0000000000000000   -1.3948523037998533
   1.3669792355065205   13.0867024440950672   -0.8603388340707538
   0.0000000000000000    0.0000000000000000   39.4680000000000035
H O
4 2
direct
   0.2805088485982467    0.0537727922117415    0.8604102971444533 H
   0.3589307278309207    0.1237614504309373    0.8859235338192701 H
   0.7161119384645215    0.9466618334482899    0.8063503599063724 H
   0.6376128213583195    0.8767260518968188    0.7808400542418814 H
   0.2901300000000000    0.1041300000000000    0.8794933333333332 O
   0.7064100000000000    0.8964000000000000    0.7872433333333333 O
