H6 C19 O8 F6
1.0
  13.1803984405094621    0.0000000000000000   -1.3948523037998533
   1.3669792355065205   13.0867024440950672   -0.8603388340707538
   0.0000000000000000    0.0000000000000000   39.4680000000000035
H C O F
6 19 8 6
direct
   0.0625300000000000    0.8627800000000000    0.5671866666666666 H
   0.9595600000000000    0.7187100000000000    0.5672666666666666 H
   0.6999800000000000    0.9315300000000000    0.5895733333333333 H
   0.4367700000000000    0.7033199999999999    0.6205566666666666 H
   0.5415500000000000    0.7016200000000000    0.5726166666666667 H
   0.7985200000000000    0.7700500000000000    0.6439800000000000 H
   0.0100800000000000    0.0604500000000000    0.5771633333333333 C
   0.9403400000000000    0.9779700000000000    0.5764266666666666 C
   0.9823100000000000    0.8767600000000000    0.5715600000000000 C
   0.9238600000000000    0.7957000000000000    0.5720799999999999 C
   0.8213500000000000    0.8139500000000000    0.5785633333333333 C
   0.7793000000000000    0.9153400000000000    0.5841966666666667 C
   0.8368200000000000    0.9975400000000000    0.5823966666666667 C
   0.7833200000000000    0.1049900000000000    0.5831000000000000 C
   0.8122900000000000    0.6194300000000000    0.5786899999999999 C
   0.5576000000000000    0.7316100000000000    0.6592133333333332 C
   0.5168900000000000    0.7162700000000000    0.6253599999999999 C
   0.5763500000000000    0.7166900000000000    0.5983533333333333 C
   0.6786700000000000    0.7360700000000000    0.6045466666666666 C
   0.7194000000000000    0.7539000000000000    0.6384500000000000 C
   0.6610500000000000    0.7492700000000000    0.6658200000000000 C
   0.6918500000000000    0.7324000000000001    0.5395000000000000 C
   0.7508000000000000    0.7274900000000000    0.5759733333333333 C
   0.4872400000000000    0.7346900000000000    0.6868266666666666 C
   0.7143500000000000    0.7512600000000000    0.7016500000000000 C
  -0.0050800000000000    0.1424200000000000    0.5946566666666666 O
   0.0889600000000000    0.0403800000000000    0.5599966666666667 O
   0.7822300000000000    0.1553400000000000    0.5571800000000000 O
   0.7382200000000000    0.1342100000000000    0.6100666666666666 O
   0.5026000000000000    0.7868600000000000    0.7141500000000000 O
   0.4082400000000000    0.6837500000000000    0.6801333333333333 O
   0.7150500000000000    0.6738100000000000    0.7185100000000000 O
   0.7602700000000000    0.8312500000000000    0.7110000000000000 O
   0.8840100000000000    0.6178500000000000    0.6058999999999999 F
   0.8623499999999999    0.5872600000000000    0.5507166666666666 F
   0.7506200000000000    0.5462399999999999    0.5823700000000001 F
   0.6186500000000000    0.8129999999999999    0.5378333333333334 F
   0.6443300000000000    0.6470700000000000    0.5291000000000000 F
   0.7556300000000000    0.7425400000000000    0.5154766666666666 F
