H8 O6
1.0
  13.1803984405094621    0.0000000000000000   -1.3948523037998533
   1.3669792355065205   13.0867024440950672   -0.8603388340707538
   0.0000000000000000    0.0000000000000000   39.4680000000000035
H O
8 6
direct
   0.7723887074673378    0.1120723141420042    0.5896361534803575 H
   0.0954864971345879   -0.0221105459342329    0.5456482872238760 H
  -0.0641930711427984    0.1628046923330592    0.6070122680678522 H
   0.0024617769245485    0.0702082533906921    0.5780762139743914 H
   0.7254164763353285    0.7705371655501508    0.7039033003862222 H
   0.3999193267053720    0.6408544256467440    0.6593200910856771 H
   0.5608883386535023    0.8243238093402230    0.7213404195341397 H
   0.4931903338979725    0.7383503400690629    0.6906127629139700 H
   0.7382200000000000    0.1342100000000000    0.6100666666666666 O
   0.0889600000000000    0.0403800000000000    0.5599966666666667 O
  -0.0050800000000000    0.1424200000000000    0.5946566666666666 O
   0.7602700000000000    0.8312500000000000    0.7110000000000000 O
   0.4082400000000000    0.6837500000000000    0.6801333333333333 O
   0.5026000000000000    0.7868600000000000    0.7141500000000000 O
