H6 C16 N2 O8
1.0
  22.4599448250744871    0.0000000000000000    0.0497840798833987
   0.2844996832216740   37.9209060852315005    0.0450067250422980
   0.0000000000000000    0.0000000000000000   23.8880000000000017
H C N O
6 16 2 8
direct
   0.2474625000000000    0.2745050000000000    0.4834900000000000 H
   0.2335450000000000    0.3044450000000000    0.3091200000000000 H
   0.2624150000000000    0.1958200000000000    0.3545100000000000 H
   0.2500000000000000    0.1949150000000000    0.1938900000000000 H
   0.2500000000000000    0.2241250000000000    0.0192600000000000 H
   0.2635200000000000    0.3030050000000000    0.1475500000000000 H
   0.2244550000000000    0.3299100000000000    0.4151100000000000 C
   0.2412425000000000    0.2935350000000000    0.3978900000000000 C
   0.2494600000000000    0.2676550000000000    0.4392700000000000 C
   0.2418450000000000    0.2846200000000000    0.3412300000000000 C
   0.2496850000000000    0.2310650000000000    0.0634200000000000 C
   0.2553825000000000    0.2323050000000000    0.4235900000000000 C
   0.2527675000000000    0.2040500000000000    0.4670400000000000 C
   0.2577700000000000    0.2233500000000000    0.3668500000000000 C
   0.2524350000000000    0.2494500000000000    0.3255600000000000 C
   0.2527125000000000    0.2496000000000000    0.1769700000000000 C
   0.2500000000000000    0.2145250000000000    0.1616000000000000 C
   0.2500000000000000    0.2054150000000000    0.1050200000000000 C
   0.2500000000000000    0.1691600000000000    0.0882200000000000 C
   0.2560600000000000    0.2663800000000000    0.0788100000000000 C
   0.2538750000000000    0.2945000000000000    0.0351200000000000 C
   0.2585075000000000    0.2754950000000000    0.1354700000000000 C
   0.2541075000000000    0.2373200000000000    0.2695800000000000 N
   0.2542975000000000    0.2618150000000000    0.2329300000000000 N
   0.1821175000000000    0.3457250000000000    0.3908100000000000 O
   0.2475525000000000    0.2855050000000000    0.9837100000000000 O
   0.2531700000000000    0.3442500000000000    0.4570200000000000 O
   0.2500000000000000    0.2129400000000000    0.5186400000000000 O
   0.2526025000000000    0.1717850000000000    0.4517000000000000 O
   0.2500000000000000    0.1540150000000000    0.1128000000000000 O
   0.2530775000000000    0.1543250000000000    0.0464500000000000 O
   0.2551025000000000    0.3268250000000000    1.0500900000000000 O
