H12 O8
1.0
  22.4599448250744871    0.0000000000000000    0.0497840798833987
   0.2844996832216740   37.9209060852315005    0.0450067250422980
   0.0000000000000000    0.0000000000000000   23.8880000000000017
H O
12 8
direct
   0.5077359064335794    0.5829432342149169   -0.0873398079150955 H
   0.4987291728264984    0.5108884787701795    0.0293176916868866 H
   0.5034280364091354    0.5435640531301400   -0.0334967781019594 H
   0.5282583641583369    0.4110151126671955    0.9870447794441152 H
   0.4530153794878053    0.4097443666753795    0.9162105427674679 H
   0.3989335353825015    0.4076193001745736    0.8639654236237803 H
   0.5071574793763752    0.4756373028988385    0.4498766855687375 H
   0.5159957591678010    0.4010601097629635    0.5714527919196145 H
   0.5143008163867449    0.4370916445460275    0.5096756845948996 H
   0.4795558543854716    0.5818946468677288    0.5948550326511204 H
   0.4825064364196805    0.5870582065748887    0.6457391084105962 H
   0.4798985610772957    0.5775888898389497    0.5256429217067570 H
   0.5051450000000000    0.5768900000000000   -0.0479500000000000 O
   0.5000000000000000    0.5355550000000000    0.0186200000000000 O
   0.5027850000000000    0.4043050000000000    0.9561600000000000 O
   0.4314550000000000    0.4040650000000000    0.8900700000000000 O
   0.4974300000000000    0.4629050000000000    0.4838900000000000 O
   0.5025225000000000    0.4216750000000000    0.5508600000000000 O
   0.5000000000000000    0.5957200000000000    0.6112500000000000 O
   0.5046100000000000    0.5943000000000001    0.5454599999999999 O
