H5 C16 N2 O8
1.0
  22.4599448250744871    0.0000000000000000    0.0497840798833987
   0.2844996832216740   37.9209060852315005    0.0450067250422980
   0.0000000000000000    0.0000000000000000   23.8880000000000017
H C N O
5 16 2 8
direct
   0.4827825000000000    0.4449800000000000    0.8088600000000000 H
   0.5120175000000000    0.4456850000000000    0.6481200000000000 H
   0.5133000000000000    0.5530750000000000    0.8546000000000000 H
   0.5000000000000000    0.5544000000000000    0.6931000000000000 H
   0.5000000000000000    0.5244000000000000    0.5188400000000000 H
   0.4739275000000000    0.4192100000000000    0.9145000000000000 C
   0.4909025000000000    0.4554850000000000    0.8976200000000000 C
   0.4914350000000000    0.4645900000000000    0.8410200000000000 C
   0.5023350000000000    0.4993450000000000    0.6768600000000000 C
   0.5054100000000000    0.4821750000000000    0.5788900000000000 C
   0.5027325000000000    0.4539600000000000    0.5354900000000000 C
   0.5075825000000000    0.4732200000000000    0.6356700000000000 C
   0.4994700000000000    0.5000000000000000    0.9390900000000000 C
   0.4998100000000000    0.5175500000000000    0.5630800000000000 C
   0.5058775000000000    0.5164500000000000    0.9235200000000000 C
   0.5038450000000000    0.5445650000000000    0.9671300000000000 C
   0.5082600000000000    0.5255649999999999    0.8668000000000000 C
   0.5023900000000000    0.5000000000000000    0.8254400000000000 C
   0.5000000000000000    0.5345450000000000    0.6610600000000000 C
   0.5000000000000000    0.5434550000000000    0.6043700000000000 C
   0.5000000000000000    0.5798900000000000    0.5871300000000000 C
   0.5038275000000000    0.4872650000000000    0.7329200000000000 N
   0.5040475000000000    0.5118200000000001    0.7694000000000000 N
   0.4314550000000000    0.4040650000000000    0.8900700000000000 O
   0.4974300000000000    0.4629050000000000    0.4838900000000000 O
   0.5027850000000000    0.4043050000000000    0.9561600000000000 O
   0.5025225000000000    0.4216750000000000    0.5508600000000000 O
   0.5000000000000000    0.5355550000000000    0.0186200000000000 O
   0.5051450000000000    0.5768900000000000   -0.0479500000000000 O
   0.5000000000000000    0.5957200000000000    0.6112500000000000 O
   0.5046100000000000    0.5943000000000001    0.5454599999999999 O
