H5 O4
1.0
  38.7767469802169416    0.0000000000000000   -5.6693575149426412
  -6.5197625184273669   11.1317845134105422   -1.8743975699682338
   0.0000000000000000    0.0000000000000000   35.6719999999999970
H O
5 4
direct
   0.6220024628032385    0.4907993926911247    0.6685599819316032 H
   0.6121513320156244    0.7574452513839149    0.7465878988300904 H
   0.7290476618286984   -0.0394061879755452    0.7265228511389427 H
   0.7574661926935147    0.7554048785238631    0.8016523077867266 H
   0.7182683529789199    0.7569405260260516    0.8047473534510391 H
   0.6197400000000000    0.4396200000000000    0.6443000000000000 O
   0.5893299999999999    0.7271000000000000    0.7584500000000001 O
   0.7346433333333333    0.0213000000000000    0.7114050000000001 O
   0.7430500000000000    0.7683000000000000    0.8203199999999999 O
