H4 O4
1.0
  36.6859999999999999    0.0000000000000000    0.0000000000000022
   0.0003448247003013   19.7569999969908388    0.0000000000000012
   0.0000000000000000    0.0000000000000000   39.5140000000000029
H O
4 4
direct
   0.9071625993826301    0.5230372477902689    0.3973049851676382 H
   0.8612990998777303    0.7151644493987289    0.3347921181012822 H
   0.7307475748316241    0.6578011315642491    0.3511829911469002 H
   0.7725793386624884    0.4475940846055407    0.4008880317262414 H
   0.9250400000000000    0.4888700000000000    0.4040850000000000 O
   0.8732550000000000    0.7551300000000000    0.3252650000000000 O
   0.7136650000000000    0.6865200000000000    0.3387100000000000 O
   0.7610700000000000    0.4055500000000000    0.4084500000000000 O
