H12 O8
1.0
   5.9327452360418018    0.0000000000000000    0.3815219052994345
   0.1683586198423458   22.4212129770420106    0.0833547434032237
   0.0000000000000000    0.0000000000000000   15.5861000000000001
H O
12 8
direct
   0.6616955183933511    0.9178799835215968    0.8705230400428785 H
   0.5253167214081814    0.8484799438646446    0.7805441724759948 H
   0.4602631237894024    0.8220507646355053    0.7385070060926769 H
   0.8982294869497967    0.7355685770552081    0.8844176251923290 H
   0.2674200594374742    0.7555724072192184    0.8138608330914835 H
   0.5585565068327473    0.7493627421794190    0.8512533199185316 H
   0.3602831014684693    0.7114756430966727    0.1173241763459917 H
   0.3675099109136402    0.7619822331193027    0.0924176346023586 H
   0.1286722979981536    0.9109550954582450    0.1564432765285623 H
   0.6803604006023831    0.9023898430210480    0.2091486609027329 H
   0.4837881707744583    0.8323191933466265    0.1891111506220699 H
   0.4365202132885855    0.8822487738050019    0.1962799640552020 H
   0.5881400000000000    0.9434466666666665    0.8303300000000000 O
   0.4866400000000000    0.8619233333333333    0.7594100000000000 O
   0.7729100000000000    0.7266466666666667    0.8498000000000000 O
   0.4194600000000000    0.7394600000000000    0.8128300000000001 O
   0.4118100000000000    0.7284266666666667    0.1697000000000000 O
   0.2270300000000000    0.9452266666666667    0.1502400000000000 O
   0.5804900000000000    0.9324133333333333    0.1872000000000000 O
   0.5133200000000000    0.8099499999999999    0.2406300000000000 O
