H10 C14 O6
1.0
  18.3529284976848359    0.0000000000000000   -4.9509692544862185
  -3.3693085421426936   11.6717853880320455   -4.7829197989895134
   0.0000000000000000    0.0000000000000000   25.7639999999999993
H C O
10 14 6
direct
   0.0251900000000000    0.0558100000000000    0.3103000000000000 H
   0.1163800000000000    0.1478100000000000    0.3600000000000000 H
   0.2084400000000000    0.2473500000000000    0.3450200000000000 H
   0.1035500000000000    0.8511900000000000    0.2027500000000000 H
   0.3440200000000000    0.2936400000000000    0.3545550000000000 H
   0.4748100000000000    0.9441600000000000    0.1896900000000000 H
   0.3836200000000000    0.8521600000000000    0.1400100000000000 H
   0.2915600000000000    0.7526200000000000    0.1549850000000000 H
   0.3964600000000000    0.1487900000000000    0.2972600000000000 H
   0.1559800000000000    0.7063300000000000    0.1454500000000000 H
   0.0558100000000000    0.2085400000000000    0.2990950000000000 C
   0.0773500000000000    0.1114700000000000    0.3137100000000000 C
   0.1826200000000000    0.0724400000000000    0.2814400000000000 C
   0.2301000000000000    0.1812100000000000    0.3194300000000000 C
   0.2106000000000000    0.9855900000000000    0.2467700000000000 C
   0.1630200000000000    0.8736600000000000    0.2072250000000000 C
   0.3073100000000000    0.2073300000000000    0.3247900000000000 C
   0.4441900000000000    0.7914300000000000    0.2009100000000000 C
   0.4226500000000000    0.8885000000000000    0.1862950000000000 C
   0.3173800000000000    0.9275300000000000    0.2185650000000000 C
   0.2699000000000000    0.8187600000000000    0.1805750000000000 C
   0.2894100000000000    0.0143800000000000    0.2532400000000000 C
   0.3369800000000000    0.1263200000000000    0.2927800000000000 C
   0.1926900000000000    0.7926400000000000    0.1752150000000000 C
   0.0688300000000000    0.2244500000000000    0.2565250000000000 O
   0.0243800000000000    0.2681600000000000    0.3325650000000000 O
   0.1073400000000000    0.0377200000000000    0.2740900000000000 O
   0.4311700000000000    0.7755200000000000    0.2434800000000000 O
   0.4756200000000000    0.7318100000000000    0.1674400000000000 O
   0.3926600000000000    0.9622500000000000    0.2259150000000000 O
