H10 C12 N4
1.0
  18.3529284976848359    0.0000000000000000   -4.9509692544862185
  -3.3693085421426936   11.6717853880320455   -4.7829197989895134
   0.0000000000000000    0.0000000000000000   25.7639999999999993
H C N
10 12 4
direct
   0.8397100000000000    0.8305399999999999    0.4677450000000000 H
   0.5876100000000000    0.6495100000000000    0.4152000000000000 H
   0.8117700000000000    0.6311200000000000    0.4238350000000000 H
   0.7066800000000000    0.4406100000000000    0.3273500000000000 H
   0.8168100000000000    0.3508700000000000    0.7266300000000000 H
   0.7168800000000000    0.1503900000000000    0.6322950000000001 H
   0.9424200000000000    0.1233200000000000    0.6649250000000000 H
   0.6939600000000000    0.9443600000000000    0.6038200000000000 H
   0.6444100000000000    0.7563200000000000    0.5175050000000000 H
   0.8886300000000000    0.0193100000000000    0.5535300000000000 H
   0.7383400000000000    0.7813500000000000    0.4863150000000000 C
   0.8077400000000000    0.8549099999999999    0.4974950000000000 C
   0.6336900000000000    0.6181500000000000    0.4040150000000000 C
   0.7503500000000000    0.6071400000000000    0.4073300000000000 C
   0.6977900000000000    0.5134900000000000    0.3599100000000000 C
   0.8277400000000000    0.2735200000000000    0.6996350000000000 C
   0.7779100000000000    0.1759200000000000    0.6532000000000000 C
   0.8957400000000000    0.1603600000000000    0.6686950000000000 C
   0.7940600000000000    0.9945800000000000    0.5839500000000000 C
   0.7251600000000000    0.9205800000000000    0.5733750000000000 C
   0.6973000000000000    0.8142500000000000    0.5246100000000000 C
   0.8355200000000000    0.9615000000000000    0.5461450000000000 C
   0.7090300000000000    0.6736600000000000    0.4355200000000000 N
   0.6255200000000000    0.5216200000000000    0.3582400000000000 N
   0.9008000000000000    0.2628100000000000    0.7089750000000000 N
   0.8216400000000000    0.1043400000000000    0.6332750000000000 N
