H8 C10 N2
1.0
  28.0094708480600687    0.0000000000000000    1.1724755057881373
   3.1082424691253401   30.1242377478758137    2.6282185720711255
   0.0000000000000000    0.0000000000000000   30.4980000000000011
H C N
8 10 2
direct
   0.3961550000000000    0.4343250000000000    0.5094850000000000 H
   0.3849250000000000    0.4533300000000000    0.6487300000000000 H
   0.3227150000000000    0.4642550000000000    0.5091650000000000 H
   0.4831800000000000    0.4419500000000000    0.5123050000000000 H
   0.4734050000000000    0.4564650000000000    0.6461800000000000 H
   0.2345300000000000    0.4586850000000000    0.5109600000000000 H
   0.3209700000000000    0.4182450000000000    0.6476400000000000 H
   0.2322850000000000    0.4184050000000000    0.6439699999999999 H
   0.3300450000000000    0.4411300000000000    0.5784750000000000 C
   0.3824500000000000    0.4431250000000000    0.5790800000000000 C
   0.4112300000000000    0.4399000000000000    0.5405450000000001 C
   0.4052600000000000    0.4491700000000000    0.6179250000000001 C
   0.3047000000000000    0.4525900000000000    0.5396400000000000 C
   0.4600350000000000    0.4435450000000000    0.5417850000000000 C
   0.4543650000000000    0.4519050000000000    0.6167549999999999 C
   0.2554500000000000    0.4505600000000000    0.5404150000000000 C
   0.3035150000000000    0.4282100000000000    0.6166000000000000 C
   0.2541850000000000    0.4276300000000000    0.6149400000000000 C
   0.2302800000000000    0.4386050000000000    0.5774400000000000 N
   0.4815050000000000    0.4494300000000000    0.5792900000000000 N
