H6 O4
1.0
  28.0094708480600687    0.0000000000000000    1.1724755057881373
   3.1082424691253401   30.1242377478758137    2.6282185720711255
   0.0000000000000000    0.0000000000000000   30.4980000000000011
H O
6 4
direct
   0.1781668606359916    0.8588471027684109    0.5656164418057995 H
   0.1047925449928690    0.8587113469225726    0.5781724716151878 H
   0.1090496496739815    0.8580763873135111    0.5822157486646350 H
   0.0391531430200099    0.8676527659950034    0.5984876122022320 H
   0.1459801307191295    0.5388221080217327    0.5821855845505283 H
   0.0584840308457319    0.5510178015414579    0.5701429707753527 H
   0.1479450000000000    0.8761099999999999    0.5720000000000000 O
   0.0684800000000000    0.8812500000000000    0.5907850000000000 O
   0.1420350000000000    0.5075750000000000    0.5814750000000000 O
   0.0618900000000000    0.5189049999999999    0.5704450000000000 O
