Zn30 H64 C92 O108
1.0
  26.6948786918860606    0.0000000000000000    0.5946039652468593
   0.5976162034968390    9.8567065055917062    1.2767304868076752
   0.0000000000000000    0.0000000000000000   20.3460000000000001
Zn H C O
30 64 92 108
direct
   0.2519200000000000    0.8381300000000000    0.3356400000000000 Zn
   0.0814166666666667    0.1618800000000000    0.6643500000000000 Zn
   0.5852533333333333    0.8381300000000000    0.8356399999999999 Zn
   0.4147500000000000    0.1618800000000000    0.1643500000000000 Zn
   0.2519200000000000    0.8381300000000000    0.8356399999999999 Zn
   0.0814166666666667    0.1618800000000000    0.1643500000000000 Zn
   0.9185866666666667    0.8381300000000000    0.8356399999999999 Zn
   0.7480833333333333    0.1618800000000000    0.1643500000000000 Zn
   0.4316033333333333    0.1117800000000000    0.8245300000000000 Zn
   0.2350666666666667    0.8882300000000000    0.1754600000000000 Zn
   0.7649366666666666    0.1117800000000000    0.8245300000000000 Zn
   0.5684000000000000    0.8882300000000000    0.1754600000000000 Zn
   0.0982700000000000    0.1117800000000000    0.3245300000000000 Zn
   0.9017333333333333    0.8882300000000000    0.6754599999999999 Zn
   0.4316033333333333    0.1117800000000000    0.3245300000000000 Zn
   0.2350666666666667    0.8882300000000000    0.6754599999999999 Zn
   0.0982700000000000    0.1117800000000000    0.8245300000000000 Zn
   0.9017333333333333    0.8882300000000000    0.1754600000000000 Zn
   0.7480833333333333    0.1618800000000000    0.6643500000000000 Zn
   0.5684000000000000    0.8882300000000000    0.6754599999999999 Zn
   0.5852533333333333    0.8381300000000000    0.3356400000000000 Zn
   0.7649366666666666    0.1117800000000000    0.3245300000000000 Zn
   0.9185866666666667    0.8381300000000000    0.3356400000000000 Zn
   0.4147500000000000    0.1618800000000000    0.6643500000000000 Zn
   0.6666666666666666    0.0000000000000000    0.2499950000000000 Zn
   0.3333333333333333    0.0000000000000000    0.2499950000000000 Zn
   0.3333333333333333    0.0000000000000000    0.7499950000000000 Zn
   0.6666666666666666    0.0000000000000000    0.7499950000000000 Zn
   0.0000000000000000    0.0000000000000000    0.2499950000000000 Zn
   0.0000000000000000    0.0000000000000000    0.7499950000000000 Zn
   0.6459771517192161    0.9431570392711451    0.4027739232512355 H
   0.9022533333333334    0.0589200000000000    0.7585050000000000 H
   0.2355866666666667    0.0589200000000000    0.7585050000000000 H
   0.5689200000000000    0.0589200000000000    0.7585050000000000 H
   0.4310866666666666    0.9410800000000000    0.2414900000000000 H
   0.0977533333333333    0.9410800000000000    0.2414900000000000 H
   0.9022533333333334    0.0589200000000000    0.2585050000000000 H
   0.2355866666666667    0.0589200000000000    0.2585050000000000 H
   0.7644200000000000    0.9410800000000000    0.2414900000000000 H
   0.5689200000000000    0.0589200000000000    0.2585050000000000 H
   0.4310866666666666    0.9410800000000000    0.7414900000000000 H
   0.7644200000000000    0.9410800000000000    0.7414900000000000 H
   0.0977533333333333    0.9410800000000000    0.7414900000000000 H
   0.0432300000000000    0.5639300000000000    0.7078000000000000 H
   0.9567733333333333    0.4360800000000000    0.7921899999999999 H
   0.2095866666666666    0.9133500000000000    0.5371800000000000 H
   0.1237466666666667    0.0866300000000000    0.4628100000000000 H
   0.3765633333333333    0.5639300000000000    0.2078000000000000 H
   0.2901066666666666    0.4360800000000000    0.2921900000000000 H
   0.5429200000000000    0.9133500000000000    0.0371800000000000 H
   0.4570800000000000    0.0866300000000000    0.9628099999999999 H
   0.0432300000000000    0.5639300000000000    0.2078000000000000 H
   0.9567733333333333    0.4360800000000000    0.2921900000000000 H
   0.2095866666666666    0.9133500000000000    0.0371800000000000 H
   0.1237466666666667    0.0866300000000000    0.9628099999999999 H
   0.7098966666666666    0.5639300000000000    0.2078000000000000 H
   0.6234400000000000    0.4360800000000000    0.2921900000000000 H
   0.8762533333333333    0.9133500000000000    0.0371800000000000 H
   0.7904133333333333    0.0866300000000000    0.9628099999999999 H
   0.7098966666666666    0.5639300000000000    0.7078000000000000 H
   0.6234400000000000    0.4360800000000000    0.7921899999999999 H
   0.3765633333333333    0.5639300000000000    0.7078000000000000 H
   0.2901066666666666    0.4360800000000000    0.7921899999999999 H
   0.4779633333333333    0.5285600000000000    0.8179799999999999 H
   0.5220466666666667    0.4714400000000000    0.6820100000000000 H
   0.3745200000000000    0.0852200000000000    0.0229750000000000 H
   0.2921500000000000    0.9147900000000000    0.9770150000000000 H
   0.8112966666666666    0.5285600000000000    0.8179799999999999 H
   0.8553799999999999    0.4714400000000000    0.6820100000000000 H
   0.7078533333333333    0.0852200000000000    0.0229750000000000 H
   0.6254833333333333    0.9147900000000000    0.9770150000000000 H
   0.1446300000000000    0.5285600000000000    0.3179800000000000 H
   0.1887133333333333    0.4714400000000000    0.1820100000000000 H
   0.9588166666666667    0.9147900000000000    0.4770150000000000 H
   0.0411866666666667    0.0852200000000000    0.5229750000000000 H
   0.4779633333333333    0.5285600000000000    0.3179800000000000 H
   0.5220466666666667    0.4714400000000000    0.1820100000000000 H
   0.3745200000000000    0.0852200000000000    0.5229750000000000 H
   0.2921500000000000    0.9147900000000000    0.4770150000000000 H
   0.1446300000000000    0.5285600000000000    0.8179799999999999 H
   0.1887133333333333    0.4714400000000000    0.6820100000000000 H
   0.9588166666666667    0.9147900000000000    0.9770150000000000 H
   0.0411866666666667    0.0852200000000000    0.0229750000000000 H
   0.8112966666666666    0.5285600000000000    0.3179800000000000 H
   0.8553799999999999    0.4714400000000000    0.1820100000000000 H
   0.5429200000000000    0.9133500000000000    0.5371800000000000 H
   0.4570800000000000    0.0866300000000000    0.4628100000000000 H
   0.7013199856481283    0.1001029426424956    0.6339436973348733 H
   0.6007261343428604    0.8834681838552572    0.5636741597885362 H
   0.6528860476570570   -0.0059133103787514    0.5905022418050874 H
   0.7060394985925919    0.0696843911140820    0.4364839537875559 H
   0.7361992039707862    0.1255506990303886    0.4303012646176393 H
   0.8762533333333333    0.9133500000000000    0.5371800000000000 H
   0.7904133333333333    0.0866300000000000    0.4628100000000000 H
   0.9948866666666666    0.6868700000000000    0.7689400000000000 C
   0.0051200000000000    0.3131400000000000    0.7310500000000000 C
   0.0116533333333333    0.5579900000000000    0.7427350000000000 C
   0.9883533333333333    0.4420100000000000    0.7572550000000000 C
   0.1509300000000000    0.0241800000000000    0.5905250000000000 C
   0.1824100000000000    0.9758200000000000    0.4094700000000000 C
   0.1757433333333333    0.9802400000000000    0.5303949999999999 C
   0.1575933333333333    0.0197500000000000    0.4696000000000000 C
   0.3282200000000000    0.6868700000000000    0.2689400000000000 C
   0.3384533333333333    0.3131400000000000    0.2310500000000000 C
   0.3449866666666667    0.5579900000000000    0.2427350000000000 C
   0.3216866666666667    0.4420100000000000    0.2572550000000000 C
   0.4842633333333333    0.0241800000000000    0.0905250000000000 C
   0.5157433333333333    0.9758200000000000    0.9094700000000000 C
   0.5090766666666666    0.9802400000000000    0.0303950000000000 C
   0.4909266666666666    0.0197500000000000    0.9696000000000000 C
   0.9948866666666666    0.6868700000000000    0.2689400000000000 C
   0.0051200000000000    0.3131400000000000    0.2310500000000000 C
   0.0116533333333333    0.5579900000000000    0.2427350000000000 C
   0.9883533333333333    0.4420100000000000    0.2572550000000000 C
   0.1509300000000000    0.0241800000000000    0.0905250000000000 C
   0.1824100000000000    0.9758200000000000    0.9094700000000000 C
   0.1757433333333333    0.9802400000000000    0.0303950000000000 C
   0.1575933333333333    0.0197500000000000    0.9696000000000000 C
   0.6615533333333332    0.6868700000000000    0.2689400000000000 C
   0.6717866666666666    0.3131400000000000    0.2310500000000000 C
   0.6783199999999999    0.5579900000000000    0.2427350000000000 C
   0.6550199999999999    0.4420100000000000    0.2572550000000000 C
   0.8175966666666666    0.0241800000000000    0.0905250000000000 C
   0.8490766666666666    0.9758200000000000    0.9094700000000000 C
   0.8424099999999999    0.9802400000000000    0.0303950000000000 C
   0.8242600000000000    0.0197500000000000    0.9696000000000000 C
   0.6615533333333332    0.6868700000000000    0.7689400000000000 C
   0.6717866666666666    0.3131400000000000    0.7310500000000000 C
   0.6783199999999999    0.5579900000000000    0.7427350000000000 C
   0.6550199999999999    0.4420100000000000    0.7572550000000000 C
   0.3282200000000000    0.6868700000000000    0.7689400000000000 C
   0.3384533333333333    0.3131400000000000    0.7310500000000000 C
   0.3449866666666667    0.5579900000000000    0.7427350000000000 C
   0.3216866666666667    0.4420100000000000    0.7572550000000000 C
   0.5253900000000000    0.6735700000000000    0.7600700000000000 C
   0.4746166666666666    0.3264300000000000    0.7399200000000000 C
   0.4989100000000000    0.5459800000000000    0.7713850000000000 C
   0.5010966666666666    0.4540200000000000    0.7286100000000000 C
   0.3199033333333333    0.9932299999999999    0.0945500000000000 C
   0.3467666666666667    0.0067800000000000    0.9054400000000000 C
   0.3422233333333333    0.0230400000000000    0.0268250000000000 C
   0.3244466666666667    0.9769700000000000    0.9731650000000001 C
   0.8587233333333333    0.6735700000000000    0.7600700000000000 C
   0.8079499999999999    0.3264300000000000    0.7399200000000000 C
   0.8322433333333332    0.5459800000000000    0.7713850000000000 C
   0.8344300000000000    0.4540200000000000    0.7286100000000000 C
   0.6532366666666667    0.9932299999999999    0.0945500000000000 C
   0.6800999999999999    0.0067800000000000    0.9054400000000000 C
   0.6755566666666666    0.0230400000000000    0.0268250000000000 C
   0.6577800000000000    0.9769700000000000    0.9731650000000001 C
   0.1920566666666667    0.6735700000000000    0.2600700000000000 C
   0.1412833333333333    0.3264300000000000    0.2399200000000000 C
   0.1655766666666666    0.5459800000000000    0.2713850000000000 C
   0.1677633333333333    0.4540200000000000    0.2286100000000000 C
   0.9865699999999999    0.9932299999999999    0.5945500000000000 C
   0.0134333333333333    0.0067800000000000    0.4054400000000000 C
   0.9911133333333333    0.9769700000000000    0.4731650000000000 C
   0.0088900000000000    0.0230400000000000    0.5268250000000000 C
   0.5253900000000000    0.6735700000000000    0.2600700000000000 C
   0.4746166666666666    0.3264300000000000    0.2399200000000000 C
   0.4989100000000000    0.5459800000000000    0.2713850000000000 C
   0.5010966666666666    0.4540200000000000    0.2286100000000000 C
   0.3199033333333333    0.9932299999999999    0.5945500000000000 C
   0.3467666666666667    0.0067800000000000    0.4054400000000000 C
   0.3422233333333333    0.0230400000000000    0.5268250000000000 C
   0.3244466666666667    0.9769700000000000    0.4731650000000000 C
   0.1920566666666667    0.6735700000000000    0.7600700000000000 C
   0.1412833333333333    0.3264300000000000    0.7399200000000000 C
   0.1655766666666666    0.5459800000000000    0.7713850000000000 C
   0.1677633333333333    0.4540200000000000    0.7286100000000000 C
   0.0134333333333333    0.0067800000000000    0.9054400000000000 C
   0.9865699999999999    0.9932299999999999    0.0945500000000000 C
   0.9911133333333333    0.9769700000000000    0.9731650000000001 C
   0.0088900000000000    0.0230400000000000    0.0268250000000000 C
   0.8587233333333333    0.6735700000000000    0.2600700000000000 C
   0.8079499999999999    0.3264300000000000    0.2399200000000000 C
   0.8322433333333332    0.5459800000000000    0.2713850000000000 C
   0.8344300000000000    0.4540200000000000    0.2286100000000000 C
   0.4842633333333333    0.0241800000000000    0.5905250000000000 C
   0.5157433333333333    0.9758200000000000    0.4094700000000000 C
   0.5090766666666666    0.9802400000000000    0.5303949999999999 C
   0.4909266666666666    0.0197500000000000    0.4696000000000000 C
   0.8175966666666666    0.0241800000000000    0.5905250000000000 C
   0.8490766666666666    0.9758200000000000    0.4094700000000000 C
   0.8424099999999999    0.9802400000000000    0.5303949999999999 C
   0.8242600000000000    0.0197500000000000    0.4696000000000000 C
   0.6604466666666666    0.9562300000000000    0.3584300000000000 O
   0.9228066666666666    0.9765700000000000    0.7525800000000000 O
   0.2561400000000000    0.9765700000000000    0.7525800000000000 O
   0.5894733333333333    0.9765700000000000    0.7525800000000000 O
   0.4105300000000000    0.0234400000000000    0.2474100000000000 O
   0.0771966666666667    0.0234400000000000    0.2474100000000000 O
   0.9228066666666666    0.9765700000000000    0.2525800000000000 O
   0.2561400000000000    0.9765700000000000    0.2525800000000000 O
   0.7438633333333333    0.0234400000000000    0.2474100000000000 O
   0.5894733333333333    0.9765700000000000    0.2525800000000000 O
   0.4105300000000000    0.0234400000000000    0.7474100000000000 O
   0.7438633333333333    0.0234400000000000    0.7474100000000000 O
   0.0771966666666667    0.0234400000000000    0.7474100000000000 O
   0.0123966666666667    0.7942800000000000    0.7386350000000000 O
   0.9636433333333333    0.6813900000000001    0.8178950000000000 O
   0.9876066666666666    0.2057300000000000    0.7613550000000000 O
   0.0363633333333333    0.3186200000000000    0.6820950000000000 O
   0.1681466666666667    0.9786800000000000    0.6476900000000000 O
   0.1117600000000000    0.1051500000000000    0.5829400000000000 O
   0.1651900000000000    0.0213200000000000    0.3523050000000000 O
   0.2215766666666667    0.8948500000000000    0.4170500000000000 O
   0.3457300000000000    0.7942800000000000    0.2386350000000000 O
   0.2969766666666667    0.6813900000000001    0.3178950000000000 O
   0.3209400000000000    0.2057300000000000    0.2613550000000000 O
   0.3696966666666667    0.3186200000000000    0.1820950000000000 O
   0.5014799999999999    0.9786800000000000    0.1476900000000000 O
   0.4450933333333333    0.1051500000000000    0.0829400000000000 O
   0.4985233333333333    0.0213200000000000    0.8523050000000000 O
   0.5549100000000000    0.8948500000000000    0.9170499999999999 O
   0.0123966666666667    0.7942800000000000    0.2386350000000000 O
   0.9636433333333333    0.6813900000000001    0.3178950000000000 O
   0.9876066666666666    0.2057300000000000    0.2613550000000000 O
   0.0363633333333333    0.3186200000000000    0.1820950000000000 O
   0.1681466666666667    0.9786800000000000    0.1476900000000000 O
   0.1117600000000000    0.1051500000000000    0.0829400000000000 O
   0.1651900000000000    0.0213200000000000    0.8523050000000000 O
   0.2215766666666667    0.8948500000000000    0.9170499999999999 O
   0.6790633333333334    0.7942800000000000    0.2386350000000000 O
   0.6303099999999999    0.6813900000000001    0.3178950000000000 O
   0.6542733333333333    0.2057300000000000    0.2613550000000000 O
   0.7030299999999999    0.3186200000000000    0.1820950000000000 O
   0.8348133333333333    0.9786800000000000    0.1476900000000000 O
   0.7784266666666666    0.1051500000000000    0.0829400000000000 O
   0.8318566666666667    0.0213200000000000    0.8523050000000000 O
   0.8882433333333333    0.8948500000000000    0.9170499999999999 O
   0.6790633333333334    0.7942800000000000    0.7386350000000000 O
   0.6303099999999999    0.6813900000000001    0.8178950000000000 O
   0.6542733333333333    0.2057300000000000    0.7613550000000000 O
   0.7030299999999999    0.3186200000000000    0.6820950000000000 O
   0.3457300000000000    0.7942800000000000    0.7386350000000000 O
   0.2969766666666667    0.6813900000000001    0.8178950000000000 O
   0.3209400000000000    0.2057300000000000    0.7613550000000000 O
   0.3696966666666667    0.3186200000000000    0.6820950000000000 O
   0.5232333333333333    0.7452100000000000    0.8075300000000001 O
   0.5485200000000000    0.7024000000000000    0.7043100000000000 O
   0.4767733333333333    0.2548000000000000    0.6924550000000000 O
   0.4514899999999999    0.2976000000000000    0.7956799999999999 O
   0.3395566666666667    0.0437700000000000    0.1415600000000000 O
   0.2818600000000000    0.9194000000000000    0.1006000000000000 O
   0.3271133333333333    0.9562300000000000    0.8584300000000000 O
   0.3848100000000000    0.0806200000000000    0.8993900000000000 O
   0.8565666666666666    0.7452100000000000    0.8075300000000001 O
   0.8818533333333333    0.7024000000000000    0.7043100000000000 O
   0.8101066666666666    0.2548000000000000    0.6924550000000000 O
   0.7848233333333333    0.2976000000000000    0.7956799999999999 O
   0.6728900000000000    0.0437700000000000    0.1415600000000000 O
   0.6151933333333333    0.9194000000000000    0.1006000000000000 O
   0.6604466666666666    0.9562300000000000    0.8584300000000000 O
   0.7181433333333334    0.0806200000000000    0.8993900000000000 O
   0.1899000000000000    0.7452100000000000    0.3075300000000000 O
   0.2151866666666667    0.7024000000000000    0.2043100000000000 O
   0.1434400000000000    0.2548000000000000    0.1924550000000000 O
   0.1181566666666667    0.2976000000000000    0.2956800000000000 O
   0.0062233333333333    0.0437700000000000    0.6415600000000000 O
   0.9485266666666666    0.9194000000000000    0.6006000000000000 O
   0.9937799999999999    0.9562300000000000    0.3584300000000000 O
   0.0514766666666667    0.0806200000000000    0.3993900000000000 O
   0.5232333333333333    0.7452100000000000    0.3075300000000000 O
   0.5485200000000000    0.7024000000000000    0.2043100000000000 O
   0.4767733333333333    0.2548000000000000    0.1924550000000000 O
   0.4514899999999999    0.2976000000000000    0.2956800000000000 O
   0.3395566666666667    0.0437700000000000    0.6415600000000000 O
   0.2818600000000000    0.9194000000000000    0.6006000000000000 O
   0.3271133333333333    0.9562300000000000    0.3584300000000000 O
   0.3848100000000000    0.0806200000000000    0.3993900000000000 O
   0.1899000000000000    0.7452100000000000    0.8075300000000001 O
   0.2151866666666667    0.7024000000000000    0.7043100000000000 O
   0.1434400000000000    0.2548000000000000    0.6924550000000000 O
   0.1181566666666667    0.2976000000000000    0.7956799999999999 O
   0.9937799999999999    0.9562300000000000    0.8584300000000000 O
   0.0514766666666667    0.0806200000000000    0.8993900000000000 O
   0.0062233333333333    0.0437700000000000    0.1415600000000000 O
   0.9485266666666666    0.9194000000000000    0.1006000000000000 O
   0.8565666666666666    0.7452100000000000    0.3075300000000000 O
   0.8818533333333333    0.7024000000000000    0.2043100000000000 O
   0.8101066666666666    0.2548000000000000    0.1924550000000000 O
   0.7848233333333333    0.2976000000000000    0.2956800000000000 O
   0.5014799999999999    0.9786800000000000    0.6476900000000000 O
   0.4450933333333333    0.1051500000000000    0.5829400000000000 O
   0.4985233333333333    0.0213200000000000    0.3523050000000000 O
   0.5549100000000000    0.8948500000000000    0.4170500000000000 O
   0.6728900000000000    0.0437700000000000    0.6415600000000000 O
   0.6151933333333333    0.9194000000000000    0.6006000000000000 O
   0.7181433333333334    0.0806200000000000    0.3993900000000000 O
   0.8348133333333333    0.9786800000000000    0.6476900000000000 O
   0.7784266666666666    0.1051500000000000    0.5829400000000000 O
   0.8318566666666667    0.0213200000000000    0.3523050000000000 O
   0.8882433333333333    0.8948500000000000    0.4170500000000000 O
