H8 O5
1.0
  22.5992263259282247    0.0000000000000000   -1.9592920837569734
   0.6076251316660864   11.5067621804698259   -5.9971089552781267
   0.0000000000000000    0.0000000000000000   25.9720000000000013
H O
8 5
direct
   0.9239512917448526    0.3868535036634295    0.5508519834271722 H
   0.0564599607039525    0.4049268286156982    0.5744167698562624 H
  -0.0051626386808349    0.4375944685306217    0.6376418815337132 H
   0.0641011152160182    0.0787790011257221    0.7343459429861207 H
   0.0906689324860641    0.1595047694443489    0.8027478797326613 H
   0.0853028652869250    0.4036499127872270    0.9006832066176741 H
   0.9525472697938572    0.3856645159607672    0.8799024651371787 H
   0.0107823496596648    0.4370676216696462    0.8336398441647764 H
   0.9400500000000001    0.3669500000000000    0.5138000000000000 O
   0.0392300000000000    0.3827100000000000    0.5354700000000000 O
   0.0973500000000000    0.0984300000000000    0.7633000000000000 O
   0.0716000000000000    0.3790800000000000    0.9274450000000001 O
   0.9718500000000000    0.3672600000000000    0.9096750000000000 O
