H6 C12 S2 N2 O4
1.0
  22.5992263259282247    0.0000000000000000   -1.9592920837569734
   0.6076251316660864   11.5067621804698259   -5.9971089552781267
   0.0000000000000000    0.0000000000000000   25.9720000000000013
H C S N O
6 12 2 2 4
direct
   0.1263500000000000    0.2034500000000000    0.8486750000000001 H
   0.9420900000000000    0.2525600000000000    0.8059100000000000 H
   0.9584500000000000    0.0996600000000000    0.7041850000000001 H
   0.9054100000000000    0.1814700000000000    0.5155200000000000 H
   0.0772200000000000    0.2941800000000000    0.5968500000000000 H
   0.0829200000000000    0.1353800000000000    0.6274999999999999 H
   0.0251400000000000    0.3370800000000000    0.8956700000000000 C
   0.0335000000000000    0.2424100000000000    0.8348900000000000 C
   0.0880900000000000    0.1830800000000000    0.8179750000000000 C
   0.9858000000000000    0.2103700000000000    0.7934450000000000 C
   0.9947400000000000    0.1254000000000000    0.7371750000000000 C
   0.0512100000000000    0.0711600000000000    0.7231200000000000 C
   0.9968900000000001    0.0771600000000000    0.5861050000000000 C
   0.9456700000000000    0.1738200000000000    0.5399650000000000 C
   0.9915300000000000    0.2493300000000000    0.5532500000000000 C
   0.0414500000000000    0.2355900000000000    0.5856800000000000 C
   0.9897200000000000    0.3400900000000000    0.5325500000000000 C
   0.0446300000000000    0.1488800000000000    0.6030200000000000 C
   0.9925900000000000    0.9578700000000000    0.6023000000000001 S
   0.0680600000000000    0.9619900000000000    0.6518600000000000 S
   0.9482600000000000    0.0884300000000000    0.5557500000000000 N
   0.0973500000000000    0.0984300000000000    0.7633000000000000 N
   0.9400500000000001    0.3669500000000000    0.5138000000000000 O
   0.0392300000000000    0.3827100000000000    0.5354700000000000 O
   0.9718500000000000    0.3672600000000000    0.9096750000000000 O
   0.0716000000000000    0.3790800000000000    0.9274450000000001 O
