H1 C1 N4
1.0
  37.0267966154290846    0.0000000000000000   13.9230634703591569
   9.2489017055772500   26.2985977770541908    3.4741126120623260
   0.0000000000000000    0.0000000000000000   28.0954000000000015
H C N
1 1 4
direct
   0.6210774999999999    0.3054950000000000    0.8565800000000000 H
   0.6457575000000000    0.3134100000000000    0.8573550000000000 C
   0.6688499999999999    0.2873600000000000    0.8836600000000000 N
   0.6941349999999999    0.3125450000000000    0.8756050000000000 N
   0.6863950000000000    0.3519800000000000    0.8454999999999999 N
   0.6558700000000000    0.3531250000000000    0.8333333333333333 N
