H6 O4
1.0
  37.0267966154290846    0.0000000000000000   13.9230634703591569
   9.2489017055772500   26.2985977770541908    3.4741126120623260
   0.0000000000000000    0.0000000000000000   28.0954000000000015
H O
6 4
direct
   0.8311202114469900    0.9355098059799024    0.8875528970811861 H
   0.8503126253750966    0.0644762975170654    0.8875501854056055 H
   0.8389413453014503    0.9999997238231173    0.8946922644906425 H
   0.7676071042960406    0.0528124008953144    0.1467854463046981 H
   0.8262103049966982    0.9519234514406867    0.1421200764388408 H
   0.8332541546115456    1.0000412411633683    0.1687636361082079 H
   0.8398775000000001    0.9626550000000000    0.8685849999999999 O
   0.8509925000000000    0.0373550000000000    0.8685900000000000 O
   0.7555050000000000    0.0374200000000000    0.1313900000000000 O
   0.8038675000000000    0.9626650000000000    0.1313800000000000 O
