H3 O2
1.0
  37.0267966154290846    0.0000000000000000   13.9230634703591569
   9.2489017055772500   26.2985977770541908    3.4741126120623260
   0.0000000000000000    0.0000000000000000   28.0954000000000015
H O
3 2
direct
   0.6759489494422857    0.2944308737078887    0.8813984995943203 H
   0.6519480620602965    0.3064266009886013    0.8644067585794566 H
   0.6884070102560332    0.3417288857304043    0.8533257840772455 H
   0.6688499999999999    0.2873600000000000    0.8836600000000000 O
   0.6941349999999999    0.3125450000000000    0.8756050000000000 O
