Cd128 H316 C440 N768 O124
1.0
  37.0267966154290846    0.0000000000000000   13.9230634703591569
   9.2489017055772500   26.2985977770541908    3.4741126120623260
   0.0000000000000000    0.0000000000000000   28.0954000000000015
Cd H C N O
128 316 440 768 124
direct
   0.2245800000000000    0.0776150000000000    0.2056200000000000 Cd
   0.1725650000000000    0.2056250000000000    0.4224550000000000 Cd
   0.2366025000000000    0.2943850000000000    0.0776100000000000 Cd
   0.0995875000000000    0.2056200000000000    0.0776100000000000 Cd
   0.2412050000000000    0.2943700000000000    0.4224200000000000 Cd
   0.1115900000000000    0.0776200000000000    0.2943800000000000 Cd
   0.0475600000000000    0.4224650000000000    0.2056150000000000 Cd
   0.1162025000000000    0.4224200000000000    0.2943650000000000 Cd
   0.4745800000000000    0.0776150000000000    0.2056200000000000 Cd
   0.4225650000000000    0.2056250000000000    0.4224550000000000 Cd
   0.4866025000000000    0.2943850000000000    0.0776100000000000 Cd
   0.3495875000000000    0.2056200000000000    0.0776100000000000 Cd
   0.4912050000000000    0.2943700000000000    0.4224200000000000 Cd
   0.3615900000000000    0.0776200000000000    0.2943800000000000 Cd
   0.2975600000000000    0.4224650000000000    0.2056150000000000 Cd
   0.3662025000000000    0.4224200000000000    0.2943650000000000 Cd
   0.7245800000000000    0.0776150000000000    0.2056200000000000 Cd
   0.6725650000000000    0.2056250000000000    0.4224550000000000 Cd
   0.7366025000000000    0.2943850000000000    0.0776100000000000 Cd
   0.5995874999999999    0.2056200000000000    0.0776100000000000 Cd
   0.7412050000000000    0.2943700000000000    0.4224200000000000 Cd
   0.6115900000000000    0.0776200000000000    0.2943800000000000 Cd
   0.5475600000000000    0.4224650000000000    0.2056150000000000 Cd
   0.6162025000000000    0.4224200000000000    0.2943650000000000 Cd
   0.9745800000000000    0.0776150000000000    0.2056200000000000 Cd
   0.9225650000000000    0.2056250000000000    0.4224550000000000 Cd
   0.9866025000000000    0.2943850000000000    0.0776100000000000 Cd
   0.8495874999999999    0.2056200000000000    0.0776100000000000 Cd
   0.9912050000000000    0.2943700000000000    0.4224200000000000 Cd
   0.8615900000000000    0.0776200000000000    0.2943800000000000 Cd
   0.7975600000000000    0.4224650000000000    0.2056150000000000 Cd
   0.8662025000000000    0.4224200000000000    0.2943650000000000 Cd
   0.2245800000000000    0.5776150000000000    0.2056200000000000 Cd
   0.1725650000000000    0.7056249999999999    0.4224550000000000 Cd
   0.2366025000000000    0.7943850000000000    0.0776100000000000 Cd
   0.0995875000000000    0.7056200000000000    0.0776100000000000 Cd
   0.2412050000000000    0.7943700000000000    0.4224200000000000 Cd
   0.1115900000000000    0.5776200000000000    0.2943800000000000 Cd
   0.0475600000000000    0.9224650000000000    0.2056150000000000 Cd
   0.1162025000000000    0.9224200000000000    0.2943650000000000 Cd
   0.4745800000000000    0.5776150000000000    0.2056200000000000 Cd
   0.4225650000000000    0.7056249999999999    0.4224550000000000 Cd
   0.4866025000000000    0.7943850000000000    0.0776100000000000 Cd
   0.3495875000000000    0.7056200000000000    0.0776100000000000 Cd
   0.4912050000000000    0.7943700000000000    0.4224200000000000 Cd
   0.3615900000000000    0.5776200000000000    0.2943800000000000 Cd
   0.2975600000000000    0.9224650000000000    0.2056150000000000 Cd
   0.3662025000000000    0.9224200000000000    0.2943650000000000 Cd
   0.7245800000000000    0.5776150000000000    0.2056200000000000 Cd
   0.6725650000000000    0.7056249999999999    0.4224550000000000 Cd
   0.7366025000000000    0.7943850000000000    0.0776100000000000 Cd
   0.5995874999999999    0.7056200000000000    0.0776100000000000 Cd
   0.7412050000000000    0.7943700000000000    0.4224200000000000 Cd
   0.6115900000000000    0.5776200000000000    0.2943800000000000 Cd
   0.5475600000000000    0.9224650000000000    0.2056150000000000 Cd
   0.6162025000000000    0.9224200000000000    0.2943650000000000 Cd
   0.9745800000000000    0.5776150000000000    0.2056200000000000 Cd
   0.9225650000000000    0.7056249999999999    0.4224550000000000 Cd
   0.9866025000000000    0.7943850000000000    0.0776100000000000 Cd
   0.8495874999999999    0.7056200000000000    0.0776100000000000 Cd
   0.9912050000000000    0.7943700000000000    0.4224200000000000 Cd
   0.8615900000000000    0.5776200000000000    0.2943800000000000 Cd
   0.7975600000000000    0.9224650000000000    0.2056150000000000 Cd
   0.8662025000000000    0.9224200000000000    0.2943650000000000 Cd
   0.2245800000000000    0.0776150000000000    0.7056200000000000 Cd
   0.1725650000000000    0.2056250000000000    0.9224550000000000 Cd
   0.2366025000000000    0.2943850000000000    0.5776100000000000 Cd
   0.0995875000000000    0.2056200000000000    0.5776100000000000 Cd
   0.2412050000000000    0.2943700000000000    0.9224200000000000 Cd
   0.1115900000000000    0.0776200000000000    0.7943800000000000 Cd
   0.0475600000000000    0.4224650000000000    0.7056150000000000 Cd
   0.1162025000000000    0.4224200000000000    0.7943650000000000 Cd
   0.4745800000000000    0.0776150000000000    0.7056200000000000 Cd
   0.4225650000000000    0.2056250000000000    0.9224550000000000 Cd
   0.4866025000000000    0.2943850000000000    0.5776100000000000 Cd
   0.3495875000000000    0.2056200000000000    0.5776100000000000 Cd
   0.4912050000000000    0.2943700000000000    0.9224200000000000 Cd
   0.3615900000000000    0.0776200000000000    0.7943800000000000 Cd
   0.2975600000000000    0.4224650000000000    0.7056150000000000 Cd
   0.3662025000000000    0.4224200000000000    0.7943650000000000 Cd
   0.7245800000000000    0.0776150000000000    0.7056200000000000 Cd
   0.6725650000000000    0.2056250000000000    0.9224550000000000 Cd
   0.7366025000000000    0.2943850000000000    0.5776100000000000 Cd
   0.5995874999999999    0.2056200000000000    0.5776100000000000 Cd
   0.7412050000000000    0.2943700000000000    0.9224200000000000 Cd
   0.6115900000000000    0.0776200000000000    0.7943800000000000 Cd
   0.5475600000000000    0.4224650000000000    0.7056150000000000 Cd
   0.6162025000000000    0.4224200000000000    0.7943650000000000 Cd
   0.9745800000000000    0.0776150000000000    0.7056200000000000 Cd
   0.9225650000000000    0.2056250000000000    0.9224550000000000 Cd
   0.9866025000000000    0.2943850000000000    0.5776100000000000 Cd
   0.8495874999999999    0.2056200000000000    0.5776100000000000 Cd
   0.9912050000000000    0.2943700000000000    0.9224200000000000 Cd
   0.8615900000000000    0.0776200000000000    0.7943800000000000 Cd
   0.7975600000000000    0.4224650000000000    0.7056150000000000 Cd
   0.8662025000000000    0.4224200000000000    0.7943650000000000 Cd
   0.2245800000000000    0.5776150000000000    0.7056200000000000 Cd
   0.1725650000000000    0.7056249999999999    0.9224550000000000 Cd
   0.2366025000000000    0.7943850000000000    0.5776100000000000 Cd
   0.0995875000000000    0.7056200000000000    0.5776100000000000 Cd
   0.2412050000000000    0.7943700000000000    0.9224200000000000 Cd
   0.1115900000000000    0.5776200000000000    0.7943800000000000 Cd
   0.0475600000000000    0.9224650000000000    0.7056150000000000 Cd
   0.1162025000000000    0.9224200000000000    0.7943650000000000 Cd
   0.4745800000000000    0.5776150000000000    0.7056200000000000 Cd
   0.4225650000000000    0.7056249999999999    0.9224550000000000 Cd
   0.4866025000000000    0.7943850000000000    0.5776100000000000 Cd
   0.3495875000000000    0.7056200000000000    0.5776100000000000 Cd
   0.4912050000000000    0.7943700000000000    0.9224200000000000 Cd
   0.3615900000000000    0.5776200000000000    0.7943800000000000 Cd
   0.2975600000000000    0.9224650000000000    0.7056150000000000 Cd
   0.3662025000000000    0.9224200000000000    0.7943650000000000 Cd
   0.7245800000000000    0.5776150000000000    0.7056200000000000 Cd
   0.6725650000000000    0.7056249999999999    0.9224550000000000 Cd
   0.7366025000000000    0.7943850000000000    0.5776100000000000 Cd
   0.5995874999999999    0.7056200000000000    0.5776100000000000 Cd
   0.7412050000000000    0.7943700000000000    0.9224200000000000 Cd
   0.6115900000000000    0.5776200000000000    0.7943800000000000 Cd
   0.5475600000000000    0.9224650000000000    0.7056150000000000 Cd
   0.6162025000000000    0.9224200000000000    0.7943650000000000 Cd
   0.9745800000000000    0.5776150000000000    0.7056200000000000 Cd
   0.9225650000000000    0.7056249999999999    0.9224550000000000 Cd
   0.9866025000000000    0.7943850000000000    0.5776100000000000 Cd
   0.8495874999999999    0.7056200000000000    0.5776100000000000 Cd
   0.9912050000000000    0.7943700000000000    0.9224200000000000 Cd
   0.8615900000000000    0.5776200000000000    0.7943800000000000 Cd
   0.7975600000000000    0.9224650000000000    0.7056150000000000 Cd
   0.8662025000000000    0.9224200000000000    0.7943650000000000 Cd
   0.2005925000000000    0.3565600000000000    0.1945400000000000 H
   0.0551725000000000    0.0816450000000000    0.4522900000000000 H
   0.2260900000000000    0.1435500000000000    0.3054450000000000 H
   0.0725050000000000    0.4184150000000000    0.0476650000000000 H
   0.1210775000000000    0.3054950000000000    0.3565800000000000 H
   0.1536550000000000    0.0476600000000000    0.0816400000000000 H
   0.2021025000000000    0.1946600000000000    0.1436250000000000 H
   0.2188875000000000    0.4522950000000000    0.4183650000000000 H
   0.1010775000000000    0.3054500000000000    0.1435550000000000 H
   0.1976200000000000    0.0476750000000000    0.4184150000000000 H
   0.0755975000000000    0.1945350000000000    0.3565800000000000 H
   0.1801425000000000    0.4522850000000000    0.0816350000000000 H
   0.0770950000000000    0.1436100000000000    0.1946600000000000 H
   0.0937825000000000    0.4183750000000000    0.4522850000000000 H
   0.2460750000000000    0.3565750000000000    0.3054950000000000 H
   0.0286700000000000    0.0816450000000000    0.0476600000000000 H
   0.2159000000000000    0.3862750000000000    0.2502100000000000 H
   0.0339600000000000    0.1137800000000000    0.2501950000000000 H
   0.0909125000000000    0.2502100000000000    0.3862750000000000 H
   0.1589625000000000    0.2501900000000000    0.1137850000000000 H
   0.4505925000000000    0.3565600000000000    0.1945400000000000 H
   0.3051725000000000    0.0816450000000000    0.4522900000000000 H
   0.4760900000000000    0.1435500000000000    0.3054450000000000 H
   0.3225050000000000    0.4184150000000000    0.0476650000000000 H
   0.3710775000000000    0.3054950000000000    0.3565800000000000 H
   0.4036550000000000    0.0476600000000000    0.0816400000000000 H
   0.4521025000000000    0.1946600000000000    0.1436250000000000 H
   0.4688875000000000    0.4522950000000000    0.4183650000000000 H
   0.3510775000000000    0.3054500000000000    0.1435550000000000 H
   0.4476200000000000    0.0476750000000000    0.4184150000000000 H
   0.3255975000000000    0.1945350000000000    0.3565800000000000 H
   0.4301425000000000    0.4522850000000000    0.0816350000000000 H
   0.3270950000000000    0.1436100000000000    0.1946600000000000 H
   0.3437825000000000    0.4183750000000000    0.4522850000000000 H
   0.4960750000000000    0.3565750000000000    0.3054950000000000 H
   0.2786700000000000    0.0816450000000000    0.0476600000000000 H
   0.4659000000000000    0.3862750000000000    0.2502100000000000 H
   0.2839600000000000    0.1137800000000000    0.2501950000000000 H
   0.3409125000000000    0.2502100000000000    0.3862750000000000 H
   0.4089625000000000    0.2501900000000000    0.1137850000000000 H
   0.7005925000000000    0.3565600000000000    0.1945400000000000 H
   0.5551725000000000    0.0816450000000000    0.4522900000000000 H
   0.7260900000000000    0.1435500000000000    0.3054450000000000 H
   0.5725050000000000    0.4184150000000000    0.0476650000000000 H
   0.6210774999999999    0.3054950000000000    0.3565800000000000 H
   0.6536550000000000    0.0476600000000000    0.0816400000000000 H
   0.7021025000000000    0.1946600000000000    0.1436250000000000 H
   0.7188875000000000    0.4522950000000000    0.4183650000000000 H
   0.6010775000000000    0.3054500000000000    0.1435550000000000 H
   0.6976200000000000    0.0476750000000000    0.4184150000000000 H
   0.5755975000000000    0.1945350000000000    0.3565800000000000 H
   0.6801425000000000    0.4522850000000000    0.0816350000000000 H
   0.5770950000000000    0.1436100000000000    0.1946600000000000 H
   0.5937825000000000    0.4183750000000000    0.4522850000000000 H
   0.7460750000000000    0.3565750000000000    0.3054950000000000 H
   0.5286700000000000    0.0816450000000000    0.0476600000000000 H
   0.7159000000000000    0.3862750000000000    0.2502100000000000 H
   0.5339600000000000    0.1137800000000000    0.2501950000000000 H
   0.5909125000000000    0.2502100000000000    0.3862750000000000 H
   0.6589625000000000    0.2501900000000000    0.1137850000000000 H
   0.9505925000000000    0.3565600000000000    0.1945400000000000 H
   0.8051725000000000    0.0816450000000000    0.4522900000000000 H
   0.9760900000000000    0.1435500000000000    0.3054450000000000 H
   0.8225050000000000    0.4184150000000000    0.0476650000000000 H
   0.8710774999999999    0.3054950000000000    0.3565800000000000 H
   0.9036550000000000    0.0476600000000000    0.0816400000000000 H
   0.9521025000000000    0.1946600000000000    0.1436250000000000 H
   0.9688875000000000    0.4522950000000000    0.4183650000000000 H
   0.8510775000000000    0.3054500000000000    0.1435550000000000 H
   0.9476200000000000    0.0476750000000000    0.4184150000000000 H
   0.8255975000000000    0.1945350000000000    0.3565800000000000 H
   0.9301425000000000    0.4522850000000000    0.0816350000000000 H
   0.8270950000000000    0.1436100000000000    0.1946600000000000 H
   0.8437825000000000    0.4183750000000000    0.4522850000000000 H
   0.9960750000000000    0.3565750000000000    0.3054950000000000 H
   0.9659000000000000    0.3862750000000000    0.2502100000000000 H
   0.7839600000000000    0.1137800000000000    0.2501950000000000 H
   0.8409125000000000    0.2502100000000000    0.3862750000000000 H
   0.9089625000000000    0.2501900000000000    0.1137850000000000 H
   0.2005925000000000    0.8565600000000000    0.1945400000000000 H
   0.0551725000000000    0.5816450000000000    0.4522900000000000 H
   0.2260900000000000    0.6435500000000001    0.3054450000000000 H
   0.0725050000000000    0.9184150000000000    0.0476650000000000 H
   0.1210775000000000    0.8054950000000001    0.3565800000000000 H
   0.1536550000000000    0.5476600000000000    0.0816400000000000 H
   0.2021025000000000    0.6946600000000001    0.1436250000000000 H
   0.2188875000000000    0.9522950000000000    0.4183650000000000 H
   0.1010775000000000    0.8054500000000000    0.1435550000000000 H
   0.1976200000000000    0.5476750000000000    0.4184150000000000 H
   0.0755975000000000    0.6945350000000000    0.3565800000000000 H
   0.1801425000000000    0.9522850000000000    0.0816350000000000 H
   0.0770950000000000    0.6436100000000000    0.1946600000000000 H
   0.0937825000000000    0.9183749999999999    0.4522850000000000 H
   0.2460750000000000    0.8565750000000000    0.3054950000000000 H
   0.0286700000000000    0.5816450000000000    0.0476600000000000 H
   0.2159000000000000    0.8862749999999999    0.2502100000000000 H
   0.0339600000000000    0.6137800000000000    0.2501950000000000 H
   0.0909125000000000    0.7502100000000000    0.3862750000000000 H
   0.1589625000000000    0.7501900000000000    0.1137850000000000 H
   0.4505925000000000    0.8565600000000000    0.1945400000000000 H
   0.3051725000000000    0.5816450000000000    0.4522900000000000 H
   0.4760900000000000    0.6435500000000001    0.3054450000000000 H
   0.3225050000000000    0.9184150000000000    0.0476650000000000 H
   0.3710775000000000    0.8054950000000001    0.3565800000000000 H
   0.4036550000000000    0.5476600000000000    0.0816400000000000 H
   0.4521025000000000    0.6946600000000001    0.1436250000000000 H
   0.4688875000000000    0.9522950000000000    0.4183650000000000 H
   0.3510775000000000    0.8054500000000000    0.1435550000000000 H
   0.4476200000000000    0.5476750000000000    0.4184150000000000 H
   0.3255975000000000    0.6945350000000000    0.3565800000000000 H
   0.4301425000000000    0.9522850000000000    0.0816350000000000 H
   0.3270950000000000    0.6436100000000000    0.1946600000000000 H
   0.3437825000000000    0.9183749999999999    0.4522850000000000 H
   0.4960750000000000    0.8565750000000000    0.3054950000000000 H
   0.2786700000000000    0.5816450000000000    0.0476600000000000 H
   0.4659000000000000    0.8862749999999999    0.2502100000000000 H
   0.2839600000000000    0.6137800000000000    0.2501950000000000 H
   0.3409125000000000    0.7502100000000000    0.3862750000000000 H
   0.4089625000000000    0.7501900000000000    0.1137850000000000 H
   0.7005925000000000    0.8565600000000000    0.1945400000000000 H
   0.5551725000000000    0.5816450000000000    0.4522900000000000 H
   0.7260900000000000    0.6435500000000001    0.3054450000000000 H
   0.5725050000000000    0.9184150000000000    0.0476650000000000 H
   0.6210774999999999    0.8054950000000001    0.3565800000000000 H
   0.6536550000000000    0.5476600000000000    0.0816400000000000 H
   0.7021025000000000    0.6946600000000001    0.1436250000000000 H
   0.7188875000000000    0.9522950000000000    0.4183650000000000 H
   0.6010775000000000    0.8054500000000000    0.1435550000000000 H
   0.6976200000000000    0.5476750000000000    0.4184150000000000 H
   0.5755975000000000    0.6945350000000000    0.3565800000000000 H
   0.6801425000000000    0.9522850000000000    0.0816350000000000 H
   0.5770950000000000    0.6436100000000000    0.1946600000000000 H
   0.5937825000000000    0.9183749999999999    0.4522850000000000 H
   0.7460750000000000    0.8565750000000000    0.3054950000000000 H
   0.5286700000000000    0.5816450000000000    0.0476600000000000 H
   0.7159000000000000    0.8862749999999999    0.2502100000000000 H
   0.5339600000000000    0.6137800000000000    0.2501950000000000 H
   0.5909125000000000    0.7502100000000000    0.3862750000000000 H
   0.6589625000000000    0.7501900000000000    0.1137850000000000 H
   0.9505925000000000    0.8565600000000000    0.1945400000000000 H
   0.8051725000000000    0.5816450000000000    0.4522900000000000 H
   0.9760900000000000    0.6435500000000001    0.3054450000000000 H
   0.8710774999999999    0.8054950000000001    0.3565800000000000 H
   0.9036550000000000    0.5476600000000000    0.0816400000000000 H
   0.9521025000000000    0.6946600000000001    0.1436250000000000 H
   0.9688875000000000    0.9522950000000000    0.4183650000000000 H
   0.8510775000000000    0.8054500000000000    0.1435550000000000 H
   0.9476200000000000    0.5476750000000000    0.4184150000000000 H
   0.8255975000000000    0.6945350000000000    0.3565800000000000 H
   0.9301425000000000    0.9522850000000000    0.0816350000000000 H
   0.8270950000000000    0.6436100000000000    0.1946600000000000 H
   0.8437825000000000    0.9183749999999999    0.4522850000000000 H
   0.9960750000000000    0.8565750000000000    0.3054950000000000 H
   0.7786700000000000    0.5816450000000000    0.0476600000000000 H
   0.9659000000000000    0.8862749999999999    0.2502100000000000 H
   0.7839600000000000    0.6137800000000000    0.2501950000000000 H
   0.8409125000000000    0.7502100000000000    0.3862750000000000 H
   0.9089625000000000    0.7501900000000000    0.1137850000000000 H
   0.2005925000000000    0.3565600000000000    0.6945399999999999 H
   0.0551725000000000    0.0816450000000000    0.9522900000000001 H
   0.2260900000000000    0.1435500000000000    0.8054450000000000 H
   0.0725050000000000    0.4184150000000000    0.5476650000000000 H
   0.1210775000000000    0.3054950000000000    0.8565800000000000 H
   0.1536550000000000    0.0476600000000000    0.5816400000000000 H
   0.2021025000000000    0.1946600000000000    0.6436250000000000 H
   0.2188875000000000    0.4522950000000000    0.9183650000000000 H
   0.1010775000000000    0.3054500000000000    0.6435550000000000 H
   0.1976200000000000    0.0476750000000000    0.9184150000000000 H
   0.0755975000000000    0.1945350000000000    0.8565800000000000 H
   0.1801425000000000    0.4522850000000000    0.5816350000000000 H
   0.0770950000000000    0.1436100000000000    0.6946600000000001 H
   0.0937825000000000    0.4183750000000000    0.9522850000000000 H
   0.2460750000000000    0.3565750000000000    0.8054950000000001 H
   0.0286700000000000    0.0816450000000000    0.5476600000000000 H
   0.2159000000000000    0.3862750000000000    0.7502100000000000 H
   0.0339600000000000    0.1137800000000000    0.7501949999999999 H
   0.0909125000000000    0.2502100000000000    0.8862749999999999 H
   0.1589625000000000    0.2501900000000000    0.6137850000000000 H
   0.4505925000000000    0.3565600000000000    0.6945399999999999 H
   0.3051725000000000    0.0816450000000000    0.9522900000000001 H
   0.4760900000000000    0.1435500000000000    0.8054450000000000 H
   0.3225050000000000    0.4184150000000000    0.5476650000000000 H
   0.3710775000000000    0.3054950000000000    0.8565800000000000 H
   0.4036550000000000    0.0476600000000000    0.5816400000000000 H
   0.4521025000000000    0.1946600000000000    0.6436250000000000 H
   0.4688875000000000    0.4522950000000000    0.9183650000000000 H
   0.3510775000000000    0.3054500000000000    0.6435550000000000 H
   0.4476200000000000    0.0476750000000000    0.9184150000000000 H
   0.3255975000000000    0.1945350000000000    0.8565800000000000 H
   0.4301425000000000    0.4522850000000000    0.5816350000000000 H
   0.3270950000000000    0.1436100000000000    0.6946600000000001 H
   0.3437825000000000    0.4183750000000000    0.9522850000000000 H
   0.4960750000000000    0.3565750000000000    0.8054950000000001 H
   0.2786700000000000    0.0816450000000000    0.5476600000000000 H
   0.4659000000000000    0.3862750000000000    0.7502100000000000 H
   0.2839600000000000    0.1137800000000000    0.7501949999999999 H
   0.3409125000000000    0.2502100000000000    0.8862749999999999 H
   0.4089625000000000    0.2501900000000000    0.6137850000000000 H
   0.7005925000000000    0.3565600000000000    0.6945399999999999 H
   0.5551725000000000    0.0816450000000000    0.9522900000000001 H
   0.7260900000000000    0.1435500000000000    0.8054450000000000 H
   0.5725050000000000    0.4184150000000000    0.5476650000000000 H
   0.6210774999999999    0.3054950000000000    0.8565800000000000 H
   0.6536550000000000    0.0476600000000000    0.5816400000000000 H
   0.7021025000000000    0.1946600000000000    0.6436250000000000 H
   0.7188875000000000    0.4522950000000000    0.9183650000000000 H
   0.6010775000000000    0.3054500000000000    0.6435550000000000 H
   0.6976200000000000    0.0476750000000000    0.9184150000000000 H
   0.5755975000000000    0.1945350000000000    0.8565800000000000 H
   0.6801425000000000    0.4522850000000000    0.5816350000000000 H
   0.5770950000000000    0.1436100000000000    0.6946600000000001 H
   0.5937825000000000    0.4183750000000000    0.9522850000000000 H
   0.7460750000000000    0.3565750000000000    0.8054950000000001 H
   0.5286700000000000    0.0816450000000000    0.5476600000000000 H
   0.7159000000000000    0.3862750000000000    0.7502100000000000 H
   0.5339600000000000    0.1137800000000000    0.7501949999999999 H
   0.5909125000000000    0.2502100000000000    0.8862749999999999 H
   0.6589625000000000    0.2501900000000000    0.6137850000000000 H
   0.9505925000000000    0.3565600000000000    0.6945399999999999 H
   0.9760900000000000    0.1435500000000000    0.8054450000000000 H
   0.8225050000000000    0.4184150000000000    0.5476650000000000 H
   0.8710774999999999    0.3054950000000000    0.8565800000000000 H
   0.9036550000000000    0.0476600000000000    0.5816400000000000 H
   0.9521025000000000    0.1946600000000000    0.6436250000000000 H
   0.9688875000000000    0.4522950000000000    0.9183650000000000 H
   0.8510775000000000    0.3054500000000000    0.6435550000000000 H
   0.9476200000000000    0.0476750000000000    0.9184150000000000 H
   0.8255975000000000    0.1945350000000000    0.8565800000000000 H
   0.9301425000000000    0.4522850000000000    0.5816350000000000 H
   0.8270950000000000    0.1436100000000000    0.6946600000000001 H
   0.8437825000000000    0.4183750000000000    0.9522850000000000 H
   0.9960750000000000    0.3565750000000000    0.8054950000000001 H
   0.7786700000000000    0.0816450000000000    0.5476600000000000 H
   0.9659000000000000    0.3862750000000000    0.7502100000000000 H
   0.7839600000000000    0.1137800000000000    0.7501949999999999 H
   0.8409125000000000    0.2502100000000000    0.8862749999999999 H
   0.9089625000000000    0.2501900000000000    0.6137850000000000 H
   0.2005925000000000    0.8565600000000000    0.6945399999999999 H
   0.0551725000000000    0.5816450000000000    0.9522900000000001 H
   0.2260900000000000    0.6435500000000001    0.8054450000000000 H
   0.0725050000000000    0.9184150000000000    0.5476650000000000 H
   0.1210775000000000    0.8054950000000001    0.8565800000000000 H
   0.1536550000000000    0.5476600000000000    0.5816400000000000 H
   0.2021025000000000    0.6946600000000001    0.6436250000000000 H
   0.2188875000000000    0.9522950000000000    0.9183650000000000 H
   0.1010775000000000    0.8054500000000000    0.6435550000000000 H
   0.1976200000000000    0.5476750000000000    0.9184150000000000 H
   0.0755975000000000    0.6945350000000000    0.8565800000000000 H
   0.1801425000000000    0.9522850000000000    0.5816350000000000 H
   0.0770950000000000    0.6436100000000000    0.6946600000000001 H
   0.0937825000000000    0.9183749999999999    0.9522850000000000 H
   0.2460750000000000    0.8565750000000000    0.8054950000000001 H
   0.0286700000000000    0.5816450000000000    0.5476600000000000 H
   0.2159000000000000    0.8862749999999999    0.7502100000000000 H
   0.0339600000000000    0.6137800000000000    0.7501949999999999 H
   0.0909125000000000    0.7502100000000000    0.8862749999999999 H
   0.1589625000000000    0.7501900000000000    0.6137850000000000 H
   0.4505925000000000    0.8565600000000000    0.6945399999999999 H
   0.3051725000000000    0.5816450000000000    0.9522900000000001 H
   0.4760900000000000    0.6435500000000001    0.8054450000000000 H
   0.3225050000000000    0.9184150000000000    0.5476650000000000 H
   0.3710775000000000    0.8054950000000001    0.8565800000000000 H
   0.4036550000000000    0.5476600000000000    0.5816400000000000 H
   0.4521025000000000    0.6946600000000001    0.6436250000000000 H
   0.4688875000000000    0.9522950000000000    0.9183650000000000 H
   0.3510775000000000    0.8054500000000000    0.6435550000000000 H
   0.4476200000000000    0.5476750000000000    0.9184150000000000 H
   0.3255975000000000    0.6945350000000000    0.8565800000000000 H
   0.4301425000000000    0.9522850000000000    0.5816350000000000 H
   0.3270950000000000    0.6436100000000000    0.6946600000000001 H
   0.3437825000000000    0.9183749999999999    0.9522850000000000 H
   0.4960750000000000    0.8565750000000000    0.8054950000000001 H
   0.2786700000000000    0.5816450000000000    0.5476600000000000 H
   0.4659000000000000    0.8862749999999999    0.7502100000000000 H
   0.2839600000000000    0.6137800000000000    0.7501949999999999 H
   0.3409125000000000    0.7502100000000000    0.8862749999999999 H
   0.4089625000000000    0.7501900000000000    0.6137850000000000 H
   0.7005925000000000    0.8565600000000000    0.6945399999999999 H
   0.5551725000000000    0.5816450000000000    0.9522900000000001 H
   0.7260900000000000    0.6435500000000001    0.8054450000000000 H
   0.5725050000000000    0.9184150000000000    0.5476650000000000 H
   0.6210774999999999    0.8054950000000001    0.8565800000000000 H
   0.6536550000000000    0.5476600000000000    0.5816400000000000 H
   0.7021025000000000    0.6946600000000001    0.6436250000000000 H
   0.7188875000000000    0.9522950000000000    0.9183650000000000 H
   0.6010775000000000    0.8054500000000000    0.6435550000000000 H
   0.6976200000000000    0.5476750000000000    0.9184150000000000 H
   0.5755975000000000    0.6945350000000000    0.8565800000000000 H
   0.6801425000000000    0.9522850000000000    0.5816350000000000 H
   0.5770950000000000    0.6436100000000000    0.6946600000000001 H
   0.5937825000000000    0.9183749999999999    0.9522850000000000 H
   0.7460750000000000    0.8565750000000000    0.8054950000000001 H
   0.5286700000000000    0.5816450000000000    0.5476600000000000 H
   0.7159000000000000    0.8862749999999999    0.7502100000000000 H
   0.5339600000000000    0.6137800000000000    0.7501949999999999 H
   0.5909125000000000    0.7502100000000000    0.8862749999999999 H
   0.6589625000000000    0.7501900000000000    0.6137850000000000 H
   0.9505925000000000    0.8565600000000000    0.6945399999999999 H
   0.8051725000000000    0.5816450000000000    0.9522900000000001 H
   0.9760900000000000    0.6435500000000001    0.8054450000000000 H
   0.8225050000000000    0.9184150000000000    0.5476650000000000 H
   0.8710774999999999    0.8054950000000001    0.8565800000000000 H
   0.9036550000000000    0.5476600000000000    0.5816400000000000 H
   0.9521025000000000    0.6946600000000001    0.6436250000000000 H
   0.9688875000000000    0.9522950000000000    0.9183650000000000 H
   0.8510775000000000    0.8054500000000000    0.6435550000000000 H
   0.9476200000000000    0.5476750000000000    0.9184150000000000 H