H8 C10 N2 O3
1.0
  37.1939775157357175    0.0000000000000000   -0.0408969307642515
  -9.2258144878476216   19.5719133848140139   -6.6288350027104297
   0.0000000000000000    0.0000000000000000   33.0900000000000034
H C N O
8 10 2 3
direct
   0.0047200000000000    0.9588500000000000    0.0277000000000000 H
   0.0319350000000000    0.9289100000000000    0.9595000000000000 H
   0.9001200000000000    0.7667900000000000    0.9848600000000001 H
   0.9034350000000000    0.6921300000000000    0.8029900000000000 H
   0.9685349999999999    0.7163100000000000    0.8138250000000000 H
   0.9561550000000000    0.5973500000000000    0.8056400000000000 H
   0.9368000000000001    0.6034300000000000    0.8556450000000000 H
   0.9880750000000000    0.6523000000000000    0.8541850000000000 H
   0.9359900000000000    0.8844300000000000    0.0517200000000000 C
   0.9513750000000001    0.8646300000000000    0.0105450000000000 C
   0.9883299999999999    0.9099800000000000    0.0029300000000000 C
   0.0036500000000000    0.8934500000000000    0.9651000000000001 C
   0.9285350000000000    0.8018700000000000    0.9793799999999999 C
   0.9431100000000000    0.7861399999999999    0.9408050000000000 C
   0.9537750000000000    0.7411900000000000    0.8767450000000000 C
   0.9808350000000000    0.8305100000000000    0.9338550000000000 C
   0.9485150000000000    0.6898200000000000    0.8336450000000000 C
   0.9579100000000000    0.6319200000000000    0.8375349999999999 C
   0.9262950000000000    0.7303500000000001    0.9037200000000001 N
   0.9871300000000001    0.8003500000000000    0.8930100000000001 N
   0.9547099999999999    0.9462000000000000    0.0762000000000000 O
   0.9051850000000000    0.8385100000000000    0.0592000000000000 O
   0.9078800000000000    0.6590100000000000    0.8131500000000000 O
