Zn96 H575 C630 N126 O257
1.0
  37.1939775157357175    0.0000000000000000   -0.0408969307642515
  -9.2258144878476216   19.5719133848140139   -6.6288350027104297
   0.0000000000000000    0.0000000000000000   33.0900000000000034
Zn H C N O
96 575 630 126 257
direct
   0.5623300000000000    0.5000700000000000    0.3749950000000000 Zn
   0.5363400000000000    0.3359000000000000    0.3646600000000000 Zn
   0.6187000000000000    0.6636500000000000    0.3853750000000000 Zn
   0.6876650000000000    0.9999700000000000    0.6250000000000000 Zn
   0.7136600000000000    0.1641300000000000    0.6353500000000000 Zn
   0.6312949999999999    0.8363800000000000    0.6146350000000000 Zn
   0.8123250000000000    0.5000700000000000    0.8749950000000000 Zn
   0.7863350000000000    0.3359100000000000    0.8646600000000000 Zn
   0.8686950000000000    0.6636500000000000    0.8853750000000000 Zn
   0.9376599999999999    0.9999700000000000    0.1250000000000000 Zn
   0.9636549999999999    0.1641300000000000    0.1353500000000000 Zn
   0.8812900000000000    0.8363800000000000    0.1146350000000000 Zn
   0.0623300000000000    0.5000700000000000    0.3749950000000000 Zn
   0.0363400000000000    0.3359000000000000    0.3646600000000000 Zn
   0.1187000000000000    0.6636500000000000    0.3853750000000000 Zn
   0.1876650000000000    0.9999700000000000    0.6250000000000000 Zn
   0.2136600000000000    0.1641300000000000    0.6353500000000000 Zn
   0.1312950000000000    0.8363800000000000    0.6146350000000000 Zn
   0.3123250000000000    0.5000700000000000    0.8749950000000000 Zn
   0.2863350000000000    0.3359100000000000    0.8646600000000000 Zn
   0.3686950000000000    0.6636500000000000    0.8853750000000000 Zn
   0.4376600000000000    0.9999700000000000    0.1250000000000000 Zn
   0.4636550000000000    0.1641300000000000    0.1353500000000000 Zn
   0.3812900000000000    0.8363800000000000    0.1146350000000000 Zn
   0.8123250000000000    0.0000700000000000    0.3749950000000000 Zn
   0.7863300000000000    0.8359100000000000    0.3646600000000000 Zn
   0.8686950000000000    0.1636500000000000    0.3853750000000000 Zn
   0.9376599999999999    0.4999700000000000    0.6250000000000000 Zn
   0.9636500000000000    0.6641300000000000    0.6353500000000000 Zn
   0.8812900000000000    0.3363800000000000    0.6146350000000000 Zn
   0.0623350000000000    0.0000600000000000    0.8749950000000000 Zn
   0.0363350000000000    0.8359100000000000    0.8646600000000000 Zn
   0.1187050000000000    0.1636500000000000    0.8853750000000000 Zn
   0.1876650000000000    0.4999800000000000    0.1250000000000000 Zn
   0.2136550000000000    0.6641300000000000    0.1353500000000000 Zn
   0.1312950000000000    0.3363800000000000    0.1146350000000000 Zn
   0.3123250000000000    0.0000700000000000    0.3749950000000000 Zn
   0.2863300000000000    0.8359100000000000    0.3646600000000000 Zn
   0.3686950000000000    0.1636500000000000    0.3853750000000000 Zn
   0.4376600000000000    0.4999700000000000    0.6250000000000000 Zn
   0.4636500000000000    0.6641300000000000    0.6353500000000000 Zn
   0.3812900000000000    0.3363800000000000    0.6146350000000000 Zn
   0.5623350000000000    0.0000600000000000    0.8749950000000000 Zn
   0.5363350000000000    0.8359100000000000    0.8646600000000000 Zn
   0.6187050000000001    0.1636500000000000    0.8853750000000000 Zn
   0.6876650000000000    0.4999800000000000    0.1250000000000000 Zn
   0.7136550000000000    0.6641300000000000    0.1353500000000000 Zn
   0.6312949999999999    0.3363800000000000    0.1146350000000000 Zn
   0.5623300000000000    0.5000700000000000    0.8749950000000000 Zn
   0.5363400000000000    0.3359000000000000    0.8646600000000000 Zn
   0.6187000000000000    0.6636500000000000    0.8853750000000000 Zn
   0.6876650000000000    0.9999700000000000    0.1250000000000000 Zn
   0.7136600000000000    0.1641300000000000    0.1353500000000000 Zn
   0.6312949999999999    0.8363800000000000    0.1146350000000000 Zn
   0.8123250000000000    0.5000700000000000    0.3749950000000000 Zn
   0.7863350000000000    0.3359100000000000    0.3646600000000000 Zn
   0.8686950000000000    0.6636500000000000    0.3853750000000000 Zn
   0.9376599999999999    0.9999700000000000    0.6250000000000000 Zn
   0.9636549999999999    0.1641300000000000    0.6353500000000000 Zn
   0.8812900000000000    0.8363800000000000    0.6146350000000000 Zn
   0.0623300000000000    0.5000700000000000    0.8749950000000000 Zn
   0.0363400000000000    0.3359000000000000    0.8646600000000000 Zn
   0.1187000000000000    0.6636500000000000    0.8853750000000000 Zn
   0.1876650000000000    0.9999700000000000    0.1250000000000000 Zn
   0.2136600000000000    0.1641300000000000    0.1353500000000000 Zn
   0.1312950000000000    0.8363800000000000    0.1146350000000000 Zn
   0.3123250000000000    0.5000700000000000    0.3749950000000000 Zn
   0.2863350000000000    0.3359100000000000    0.3646600000000000 Zn
   0.3686950000000000    0.6636500000000000    0.3853750000000000 Zn
   0.4376600000000000    0.9999700000000000    0.6250000000000000 Zn
   0.4636550000000000    0.1641300000000000    0.6353500000000000 Zn
   0.3812900000000000    0.8363800000000000    0.6146350000000000 Zn
   0.8123250000000000    0.0000700000000000    0.8749950000000000 Zn
   0.7863300000000000    0.8359100000000000    0.8646600000000000 Zn
   0.8686950000000000    0.1636500000000000    0.8853750000000000 Zn
   0.9376599999999999    0.4999700000000000    0.1250000000000000 Zn
   0.9636500000000000    0.6641300000000000    0.1353500000000000 Zn
   0.8812900000000000    0.3363800000000000    0.1146350000000000 Zn
   0.0623350000000000    0.0000600000000000    0.3749950000000000 Zn
   0.0363350000000000    0.8359100000000000    0.3646600000000000 Zn
   0.1187050000000000    0.1636500000000000    0.3853750000000000 Zn
   0.1876650000000000    0.4999800000000000    0.6250000000000000 Zn
   0.2136550000000000    0.6641300000000000    0.6353500000000000 Zn
   0.1312950000000000    0.3363800000000000    0.6146350000000000 Zn
   0.3123250000000000    0.0000700000000000    0.8749950000000000 Zn
   0.2863300000000000    0.8359100000000000    0.8646600000000000 Zn
   0.3686950000000000    0.1636500000000000    0.8853750000000000 Zn
   0.4376600000000000    0.4999700000000000    0.1250000000000000 Zn
   0.4636500000000000    0.6641300000000000    0.1353500000000000 Zn
   0.3812900000000000    0.3363800000000000    0.1146350000000000 Zn
   0.5623350000000000    0.0000600000000000    0.3749950000000000 Zn
   0.5363350000000000    0.8359100000000000    0.3646600000000000 Zn
   0.6187050000000001    0.1636500000000000    0.3853750000000000 Zn
   0.6876650000000000    0.4999800000000000    0.6250000000000000 Zn
   0.7136550000000000    0.6641300000000000    0.6353500000000000 Zn
   0.6312949999999999    0.3363800000000000    0.6146350000000000 Zn
   0.3386300000000000    0.1530300000000000    0.1043700000000000 H
   0.3430800000000000    0.0980800000000000    0.0557400000000000 H
   0.3657050000000000    0.1041300000000000    0.1056500000000000 H
   0.4426450000000000    0.1928900000000000    0.0526500000000000 H
   0.3896200000000000    0.2170800000000000    0.0639100000000000 H
   0.4322000000000000    0.4296400000000000    0.2095150000000000 H
   0.4744800000000000    0.4596100000000000    0.2776500000000000 H
   0.4836650000000000    0.2674400000000000    0.2347500000000000 H
   0.5119100000000000    0.8477300000000000    0.6458200000000001 H
   0.5438300000000000    0.9026900000000000    0.6943650000000000 H
   0.5631850000000000    0.8966000000000000    0.6443600000000000 H
   0.5965500000000000    0.8079200000000000    0.6970200000000000 H
   0.5314500000000000    0.7837300000000000    0.6861850000000000 H
   0.4680550000000000    0.5711300000000000    0.5405000000000000 H
   0.4952650000000000    0.5411800000000000    0.4723100000000000 H
   0.5998650000000000    0.7332500000000000    0.5151500000000000 H
   0.5854900000000000    0.4418100000000000    0.4190400000000000 H
   0.6149000000000000    0.5573200000000000    0.3311800000000000 H
   0.9113599999999999    0.3469900000000000    0.8956350000000000 H
   0.9069150000000000    0.4019500000000000    0.9442650000000000 H
   0.8842850000000000    0.3959000000000000    0.8943550000000000 H
   0.8073450000000000    0.3071500000000000    0.9473400000000001 H
   0.8603650000000000    0.2829500000000000    0.9360999999999999 H
   0.8177800000000000    0.0703900000000000    0.7905000000000000 H
   0.7755050000000000    0.0404100000000000    0.7223600000000000 H
   0.7663249999999999    0.2325900000000000    0.7652450000000000 H
   0.7380800000000001    0.6523000000000000    0.3541900000000000 H
   0.7061600000000000    0.5973500000000000    0.3056450000000000 H
   0.6868050000000000    0.6034300000000000    0.3556500000000000 H
   0.6534400000000000    0.6921200000000000    0.3029900000000000 H
   0.7185400000000000    0.7163100000000000    0.3138250000000000 H
   0.7819250000000000    0.9289100000000000    0.4595100000000000 H
   0.7547150000000000    0.9588600000000000    0.5276999999999999 H
   0.6501300000000000    0.7667900000000000    0.4848600000000000 H
   0.6350899999999999    0.9427200000000000    0.6688250000000000 H
   0.6645099999999999    0.0582200000000000    0.5809700000000000 H
   0.9381136352459917    0.7695627065342774    0.9297856609038121 H
   0.9461863259435087    0.7381965055759693    0.8841942169823092 H
   0.9353686104778275    0.6798522317908666    0.8270143797648105 H
   0.8801493229593386    0.6381964319542284    0.7997317924312004 H
   0.1613650000000000    0.3469900000000000    0.3956350000000000 H
   0.1569150000000000    0.4019500000000000    0.4442700000000000 H
   0.1342900000000000    0.3959000000000000    0.3943550000000000 H
   0.0573500000000000    0.3071400000000000    0.4473000000000000 H
   0.1103750000000000    0.2829500000000000    0.4361000000000000 H
   0.0677900000000000    0.0703900000000000    0.2904950000000000 H
   0.0255100000000000    0.0404100000000000    0.2223600000000000 H
   0.0163300000000000    0.2325800000000000    0.2652500000000000 H
   0.5886350000000000    0.1530400000000000    0.6043700000000000 H
   0.5930850000000000    0.0980800000000000    0.5557400000000000 H
   0.6157100000000000    0.1041300000000000    0.6056500000000000 H
   0.6926500000000000    0.1929000000000000    0.5526500000000000 H
   0.6396250000000000    0.2170800000000000    0.5639100000000000 H
   0.6822100000000000    0.4296400000000000    0.7095100000000000 H
   0.7244900000000000    0.4596200000000000    0.7776500000000000 H
   0.7336700000000000    0.2674500000000000    0.7347650000000000 H
   0.8648950000000000    0.5573200000000000    0.8311800000000000 H
   0.8354850000000000    0.4418200000000000    0.9190400000000001 H
   0.8928973304249711    0.7926710937571856    0.0389045085010406 H
   0.9780239869847300    0.9778602382519475    0.0681965261803410 H
   0.9376665406039894    0.8826197146955669    0.0480493907105426 H
   0.7619050000000001    0.8477400000000000    0.1458250000000000 H
   0.7938250000000000    0.9026900000000000    0.1943500000000000 H
   0.8131800000000000    0.8966100000000000    0.1443600000000000 H
   0.8465450000000000    0.8079100000000000    0.1970200000000000 H
   0.7814449999999999    0.7837300000000000    0.1861850000000000 H
   0.7180600000000000    0.5711300000000000    0.0404950000000000 H
   0.7452700000000000    0.5411899999999999    0.9723100000000000 H
   0.8498600000000001    0.7332500000000000    0.0151500000000000 H
   0.8850850000000000    0.9427200000000000    0.1688300000000000 H
   0.9145050000000000    0.0582200000000000    0.0809700000000000 H
   0.8386300000000000    0.1530300000000000    0.1043700000000000 H
   0.8430800000000001    0.0980800000000000    0.0557400000000000 H
   0.8657049999999999    0.1041300000000000    0.1056500000000000 H
   0.9426450000000000    0.1928900000000000    0.0526500000000000 H
   0.8896200000000001    0.2170800000000000    0.0639100000000000 H
   0.9321999999999999    0.4296400000000000    0.2095150000000000 H
   0.9744800000000000    0.4596100000000000    0.2776500000000000 H
   0.9836650000000000    0.2674400000000000    0.2347500000000000 H
   0.0119100000000000    0.8477300000000000    0.6458200000000001 H
   0.0438300000000000    0.9026900000000000    0.6943650000000000 H
   0.0631850000000000    0.8966000000000000    0.6443600000000000 H
   0.0965500000000000    0.8079200000000000    0.6970200000000000 H
   0.0314500000000000    0.7837300000000000    0.6861850000000000 H
   0.9680550000000000    0.5711300000000000    0.5405000000000000 H
   0.9952650000000001    0.5411800000000000    0.4723100000000000 H
   0.0998650000000000    0.7332500000000000    0.5151500000000000 H
   0.0854900000000000    0.4418100000000000    0.4190400000000000 H
   0.1149000000000000    0.5573200000000000    0.3311800000000000 H
   0.4113600000000000    0.3469900000000000    0.8956350000000000 H
   0.4069150000000000    0.4019500000000000    0.9442650000000000 H
   0.3842850000000000    0.3959000000000000    0.8943550000000000 H
   0.3073450000000000    0.3071500000000000    0.9473400000000001 H
   0.3603650000000000    0.2829500000000000    0.9360999999999999 H
   0.3177800000000000    0.0703900000000000    0.7905000000000000 H
   0.2755050000000000    0.0404100000000000    0.7223600000000000 H
   0.2663250000000000    0.2325900000000000    0.7652450000000000 H
   0.2380800000000000    0.6523000000000000    0.3541900000000000 H
   0.2061600000000000    0.5973500000000000    0.3056450000000000 H
   0.1868050000000000    0.6034300000000000    0.3556500000000000 H
   0.1534400000000000    0.6921200000000000    0.3029900000000000 H
   0.2185400000000000    0.7163100000000000    0.3138250000000000 H
   0.2819250000000000    0.9289100000000000    0.4595100000000000 H
   0.2547150000000000    0.9588600000000000    0.5276999999999999 H
   0.1501300000000000    0.7667900000000000    0.4848600000000000 H
   0.1350900000000000    0.9427200000000000    0.6688250000000000 H
   0.1645100000000000    0.0582200000000000    0.5809700000000000 H
   0.0886350000000000    0.1530400000000000    0.6043700000000000 H
   0.0930850000000000    0.0980800000000000    0.5557400000000000 H
   0.1157100000000000    0.1041300000000000    0.6056500000000000 H
   0.1926500000000000    0.1929000000000000    0.5526500000000000 H
   0.1396250000000000    0.2170800000000000    0.5639100000000000 H
   0.1822100000000000    0.4296400000000000    0.7095100000000000 H
   0.2244900000000000    0.4596200000000000    0.7776500000000000 H
   0.2336700000000000    0.2674500000000000    0.7347650000000000 H
   0.2619050000000000    0.8477400000000000    0.1458250000000000 H
   0.2938250000000000    0.9026900000000000    0.1943500000000000 H
   0.3131800000000000    0.8966100000000000    0.1443600000000000 H
   0.3465450000000000    0.8079100000000000    0.1970200000000000 H
   0.2814450000000000    0.7837300000000000    0.1861850000000000 H
   0.2180600000000000    0.5711300000000000    0.0404950000000000 H
   0.2452700000000000    0.5411899999999999    0.9723100000000000 H
   0.3498600000000000    0.7332500000000000    0.0151500000000000 H
   0.3648950000000000    0.5573200000000000    0.8311800000000000 H
   0.3354850000000000    0.4418200000000000    0.9190400000000001 H
   0.6613650000000000    0.3469900000000000    0.3956350000000000 H
   0.6569150000000000    0.4019500000000000    0.4442700000000000 H
   0.6342900000000000    0.3959000000000000    0.3943550000000000 H
   0.5573500000000000    0.3071400000000000    0.4473000000000000 H
   0.6103750000000000    0.2829500000000000    0.4361000000000000 H
   0.5677900000000000    0.0703900000000000    0.2904950000000000 H
   0.5255100000000000    0.0404100000000000    0.2223600000000000 H
   0.5163300000000000    0.2325800000000000    0.2652500000000000 H
   0.4880750000000000    0.6523000000000000    0.8541850000000000 H
   0.4561550000000000    0.5973500000000000    0.8056400000000000 H
   0.4368000000000000    0.6034300000000000    0.8556450000000000 H
   0.4034350000000000    0.6921300000000000    0.8029900000000000 H
   0.4685350000000000    0.7163100000000000    0.8138250000000000 H
   0.5319350000000000    0.9289100000000000    0.9595000000000000 H
   0.5047199999999999    0.9588500000000000    0.0277000000000000 H
   0.4001200000000000    0.7667900000000000    0.9848600000000001 H
   0.3850850000000000    0.9427200000000000    0.1688300000000000 H
   0.4145050000000000    0.0582200000000000    0.0809700000000000 H
   0.5886300000000000    0.6530400000000000    0.1043700000000000 H
   0.5930800000000001    0.5980799999999999    0.0557400000000000 H
   0.6157100000000000    0.6041299999999999    0.1056500000000000 H
   0.6926500000000000    0.6929000000000000    0.0526650000000000 H
   0.6396250000000000    0.7170900000000000    0.0639100000000000 H
   0.6822050000000000    0.9296400000000000    0.2095150000000000 H
   0.7244850000000000    0.9596200000000000    0.2776500000000000 H
   0.7336650000000000    0.7674500000000000    0.2347650000000000 H
   0.7619100000000000    0.3477300000000000    0.6458250000000000 H
   0.7938300000000000    0.4026900000000000    0.6943699999999999 H
   0.8131850000000000    0.3966000000000000    0.6443500000000000 H
   0.8465500000000000    0.3079100000000000    0.6970200000000000 H
   0.7814449999999999    0.2837200000000000    0.6861850000000000 H
   0.7180600000000000    0.0711200000000000    0.5404949999999999 H
   0.7452750000000000    0.0411800000000000    0.4723100000000000 H
   0.8498600000000001    0.2332500000000000    0.5151500000000000 H
   0.8648950000000000    0.0573200000000000    0.3311800000000000 H
   0.8354800000000000    0.9418200000000000    0.4190400000000000 H
   0.1613650000000000    0.8469900000000000    0.8956350000000000 H
   0.1569150000000000    0.9019500000000000    0.9442650000000000 H
   0.1342850000000000    0.8959000000000000    0.8943550000000000 H
   0.0573450000000000    0.8071500000000000    0.9473400000000001 H
   0.1103700000000000    0.7829500000000000    0.9360999999999999 H
   0.0677850000000000    0.5703900000000000    0.7905000000000000 H
   0.0255050000000000    0.5404200000000000    0.7223600000000000 H
   0.0163250000000000    0.7325900000000000    0.7650000000000000 H
   0.9880750000000000    0.1522900000000000    0.3541850000000000 H
   0.9561550000000000    0.0973400000000000    0.3056400000000000 H
   0.9368000000000001    0.1034300000000000    0.3556450000000000 H
   0.9034400000000000    0.1921200000000000    0.3029900000000000 H
   0.9685400000000000    0.2163000000000000    0.3138250000000000 H
   0.0319350000000000    0.4289000000000000    0.4595150000000000 H
   0.0047250000000000    0.4588500000000000    0.5276999999999999 H
   0.9001250000000001    0.2667800000000000    0.4848600000000000 H
   0.8850899999999999    0.4427100000000000    0.6688300000000000 H
   0.9145000000000000    0.5582200000000000    0.5809700000000000 H
   0.8386250000000000    0.6530400000000000    0.6043700000000000 H
   0.8430750000000000    0.5980799999999999    0.5557400000000000 H
   0.8657000000000000    0.6041299999999999    0.6056500000000000 H
   0.9426399999999999    0.6929000000000000    0.5526700000000000 H
   0.8896150000000000    0.7170900000000000    0.5639100000000000 H
   0.9321999999999999    0.9296400000000000    0.7095000000000000 H
   0.9744800000000000    0.9596200000000000    0.7776500000000000 H
   0.9836600000000000    0.7674500000000000    0.7347650000000000 H
   0.0119150000000000    0.3477300000000000    0.1458200000000000 H
   0.0438350000000000    0.4026900000000000    0.1943650000000000 H
   0.0631900000000000    0.3966000000000000    0.1443600000000000 H
   0.0965550000000000    0.3079100000000000    0.1970200000000000 H
   0.0314550000000000    0.2837300000000000    0.1861850000000000 H
   0.9680599999999999    0.0711200000000000    0.0405000000000000 H
   0.9952700000000000    0.0411800000000000    0.9723100000000000 H
   0.0998700000000000    0.2332500000000000    0.0151500000000000 H
   0.1149050000000000    0.0573200000000000    0.8311800000000000 H
   0.0854900000000000    0.9418200000000000    0.9190400000000001 H
   0.4113550000000000    0.8470000000000000    0.3956350000000000 H
   0.4069100000000000    0.9019600000000000    0.4442700000000000 H
   0.3842800000000000    0.8959100000000000    0.3943550000000000 H
   0.3073400000000000    0.8071500000000000    0.4473400000000000 H
   0.3603650000000000    0.7829600000000000    0.4361000000000000 H
   0.3177800000000000    0.5704000000000000    0.2900000000000000 H
   0.2755000000000000    0.5404200000000000    0.2223600000000000 H
   0.2663200000000000    0.7325900000000000    0.2652500000000000 H
   0.2380850000000000    0.1523000000000000    0.8541900000000000 H
   0.2061650000000000    0.0973400000000000    0.8056449999999999 H
   0.1868100000000000    0.1034300000000000    0.8556500000000000 H
   0.1534450000000000    0.1921200000000000    0.8029900000000000 H
   0.2185450000000000    0.2163000000000000    0.8138250000000000 H
   0.2819300000000000    0.4289100000000000    0.9595100000000000 H
   0.2547150000000000    0.4588500000000000    0.0277000000000000 H
   0.1501300000000000    0.2667900000000000    0.9848600000000001 H
   0.1350950000000000    0.4427100000000000    0.1688250000000000 H
   0.1645100000000000    0.5582300000000000    0.0809700000000000 H
   0.0886300000000000    0.6530400000000000    0.1043700000000000 H
   0.0930800000000000    0.5980799999999999    0.0557400000000000 H
   0.1157100000000000    0.6041299999999999    0.1056500000000000 H
   0.1926500000000000    0.6929000000000000    0.0526650000000000 H
   0.1396250000000000    0.7170900000000000    0.0639100000000000 H
   0.1822050000000000    0.9296400000000000    0.2095150000000000 H
   0.2244850000000000    0.9596200000000000    0.2776500000000000 H
   0.2336650000000000    0.7674500000000000    0.2347650000000000 H
   0.2619100000000000    0.3477300000000000    0.6458250000000000 H
   0.2938300000000000    0.4026900000000000    0.6943699999999999 H
   0.3131850000000000    0.3966000000000000    0.6443500000000000 H
   0.3465500000000000    0.3079100000000000    0.6970200000000000 H
   0.2814450000000000    0.2837200000000000    0.6861850000000000 H
   0.2180600000000000    0.0711200000000000    0.5404949999999999 H
   0.2452750000000000    0.0411800000000000    0.4723100000000000 H
   0.3498600000000000    0.2332500000000000    0.5151500000000000 H
   0.3648950000000000    0.0573200000000000    0.3311800000000000 H
   0.3354800000000000    0.9418200000000000    0.4190400000000000 H
   0.6613650000000000    0.8469900000000000    0.8956350000000000 H
   0.6569150000000000    0.9019500000000000    0.9442650000000000 H
   0.6342850000000000    0.8959000000000000    0.8943550000000000 H
   0.5573450000000000    0.8071500000000000    0.9473400000000001 H
   0.6103700000000000    0.7829500000000000    0.9360999999999999 H
   0.5677850000000000    0.5703900000000000    0.7905000000000000 H
   0.5255050000000000    0.5404200000000000    0.7223600000000000 H
   0.5163250000000000    0.7325900000000000    0.7650000000000000 H
   0.4880750000000000    0.1522900000000000    0.3541850000000000 H
   0.4561550000000000    0.0973400000000000    0.3056400000000000 H
   0.4368000000000000    0.1034300000000000    0.3556450000000000 H
   0.4034400000000000    0.1921200000000000    0.3029900000000000 H
   0.4685400000000000    0.2163000000000000    0.3138250000000000 H
   0.5319350000000000    0.4289000000000000    0.4595150000000000 H
   0.5047250000000000    0.4588500000000000    0.5276999999999999 H
   0.4001250000000000    0.2667800000000000    0.4848600000000000 H
   0.3850900000000000    0.4427100000000000    0.6688300000000000 H
   0.4145000000000000    0.5582200000000000    0.5809700000000000 H
   0.3386250000000000    0.6530400000000000    0.6043700000000000 H
   0.3430750000000000    0.5980799999999999    0.5557400000000000 H
   0.3657000000000000    0.6041299999999999    0.6056500000000000 H
   0.4426400000000000    0.6929000000000000    0.5526700000000000 H
   0.3896150000000000    0.7170900000000000    0.5639100000000000 H
   0.4322000000000000    0.9296400000000000    0.7095000000000000 H
   0.4744800000000000    0.9596200000000000    0.7776500000000000 H
   0.4836600000000000    0.7674500000000000    0.7347650000000000 H
   0.5119150000000000    0.3477300000000000    0.1458200000000000 H
   0.5438350000000000    0.4026900000000000    0.1943650000000000 H
   0.5631900000000000    0.3966000000000000    0.1443600000000000 H
   0.5965549999999999    0.3079100000000000    0.1970200000000000 H
   0.5314550000000000    0.2837300000000000    0.1861850000000000 H
   0.4680600000000000    0.0711200000000000    0.0405000000000000 H
   0.4952700000000000    0.0411800000000000    0.9723100000000000 H
   0.5998700000000000    0.2332500000000000    0.0151500000000000 H
   0.6149050000000000    0.0573200000000000    0.8311800000000000 H
   0.5854900000000000    0.9418200000000000    0.9190400000000001 H
   0.9113550000000000    0.8470000000000000    0.3956350000000000 H
   0.9069100000000000    0.9019600000000000    0.4442700000000000 H
   0.8842800000000000    0.8959100000000000    0.3943550000000000 H
   0.8073399999999999    0.8071500000000000    0.4473400000000000 H
   0.8603650000000000    0.7829600000000000    0.4361000000000000 H
   0.8177800000000000    0.5704000000000000    0.2900000000000000 H
   0.7755000000000001    0.5404200000000000    0.2223600000000000 H
   0.7663200000000000    0.7325900000000000    0.2652500000000000 H
   0.7380850000000000    0.1523000000000000    0.8541900000000000 H
   0.7061649999999999    0.0973400000000000    0.8056449999999999 H
   0.6868100000000000    0.1034300000000000    0.8556500000000000 H
   0.6534450000000001    0.1921200000000000    0.8029900000000000 H
   0.7185450000000000    0.2163000000000000    0.8138250000000000 H
   0.7819300000000000    0.4289100000000000    0.9595100000000000 H
   0.7547150000000000    0.4588500000000000    0.0277000000000000 H
   0.6501300000000000    0.2667900000000000    0.9848600000000001 H
   0.6350950000000000    0.4427100000000000    0.1688250000000000 H
   0.6645099999999999    0.5582300000000000    0.0809700000000000 H
   0.3386300000000000    0.1530300000000000    0.6043700000000000 H
   0.3430800000000000    0.0980800000000000    0.5557400000000000 H
   0.3657050000000000    0.1041300000000000    0.6056500000000000 H
   0.4426450000000000    0.1928900000000000    0.5526500000000000 H
   0.3896200000000000    0.2170800000000000    0.5639100000000000 H
   0.4322000000000000    0.4296400000000000    0.7095150000000000 H
   0.4744800000000000    0.4596100000000000    0.7776500000000000 H
   0.4836650000000000    0.2674400000000000    0.7347500000000000 H
   0.5119100000000000    0.8477300000000000    0.1458200000000000 H
   0.5438300000000000    0.9026900000000000    0.1943650000000000 H
   0.5631850000000000    0.8966000000000000    0.1443600000000000 H
   0.5965500000000000    0.8079200000000000    0.1970200000000000 H
   0.5314500000000000    0.7837300000000000    0.1861850000000000 H
   0.4680550000000000    0.5711300000000000    0.0405000000000000 H
   0.4952650000000000    0.5411800000000000    0.9723100000000000 H
   0.5998650000000000    0.7332500000000000    0.0151500000000000 H
   0.5854900000000000    0.4418100000000000    0.9190400000000001 H
   0.6149000000000000    0.5573200000000000    0.8311800000000000 H
   0.9113599999999999    0.3469900000000000    0.3956350000000000 H
   0.9069150000000000    0.4019500000000000    0.4442650000000000 H
   0.8842850000000000    0.3959000000000000    0.3943550000000000 H
   0.8073450000000000    0.3071500000000000    0.4473400000000000 H
   0.8603650000000000    0.2829500000000000    0.4361000000000000 H
   0.8177800000000000    0.0703900000000000    0.2905000000000000 H
   0.7755050000000000    0.0404100000000000    0.2223600000000000 H
   0.7663249999999999    0.2325900000000000    0.2652450000000000 H
   0.7380800000000001    0.6523000000000000    0.8541900000000000 H
   0.7061600000000000    0.5973500000000000    0.8056449999999999 H
   0.6868050000000000    0.6034300000000000    0.8556500000000000 H
   0.6534400000000000    0.6921200000000000    0.8029900000000000 H
   0.7185400000000000    0.7163100000000000    0.8138250000000000 H
   0.7819250000000000    0.9289100000000000    0.9595100000000000 H
   0.7547150000000000    0.9588600000000000    0.0277000000000000 H
   0.6501300000000000    0.7667900000000000    0.9848600000000001 H
   0.6350899999999999    0.9427200000000000    0.1688250000000000 H
   0.6645099999999999    0.0582200000000000    0.0809700000000000 H
   0.5886350000000000    0.1530400000000000    0.1043700000000000 H
   0.5930850000000000    0.0980800000000000    0.0557400000000000 H
   0.6157100000000000    0.1041300000000000    0.1056500000000000 H
   0.6926500000000000    0.1929000000000000    0.0526500000000000 H
   0.6396250000000000    0.2170800000000000    0.0639100000000000 H
   0.6822100000000000    0.4296400000000000    0.2095100000000000 H
   0.7244900000000000    0.4596200000000000    0.2776500000000000 H
   0.7336700000000000    0.2674500000000000    0.2347650000000000 H
   0.7619050000000001    0.8477400000000000    0.6458250000000000 H
   0.7938250000000000    0.9026900000000000    0.6943500000000000 H
   0.8131800000000000    0.8966100000000000    0.6443600000000000 H
   0.8465450000000000    0.8079100000000000    0.6970200000000000 H
   0.7814449999999999    0.7837300000000000    0.6861850000000000 H
   0.7180600000000000    0.5711300000000000    0.5404949999999999 H
   0.7452700000000000    0.5411899999999999    0.4723100000000000 H
   0.8498600000000001    0.7332500000000000    0.5151500000000000 H