H7 O4
1.0
  37.1939775157357175    0.0000000000000000   -0.0408969307642515
  -9.2258144878476216   19.5719133848140139   -6.6288350027104297
   0.0000000000000000    0.0000000000000000   33.0900000000000034
H O
7 4
direct
   0.8928973304249711    0.7926710937571856    0.0389045085010406 H
   0.9780239869847300    0.9778602382519475    0.0681965261803410 H
   0.9376665406039894    0.8826197146955669    0.0480493907105426 H
   0.9381136352459917    0.7695627065342774    0.9297856609038121 H
   0.9461863259435087    0.7381965055759693    0.8841942169823092 H
   0.9353686104778275    0.6798522317908666    0.8270143797648105 H
   0.8801493229593386    0.6381964319542284    0.7997317924312004 H
   0.9051850000000000    0.8385100000000000    0.0592000000000000 O
   0.9547099999999999    0.9462000000000000    0.0762000000000000 O
   0.9262950000000000    0.7303500000000001    0.9037200000000001 O
   0.9078800000000000    0.6590100000000000    0.8131500000000000 O
