H2 O2
1.0
  11.8629452591382272    0.0000000000000000   -5.0267271438471610
  -2.3645791520506134   11.8437109564103551   -5.2895653143422798
   0.0000000000000000    0.0000000000000000   16.2519999999999989
H O
2 2
direct
   0.0341291970666541    0.7991673365559381    0.5055120036343529 H
   0.9380223261115206    0.7700489322114796    0.3680841875388341 H
   0.0239700000000000    0.8728399999999999    0.5060000000000000 O
   0.9554100000000000    0.8520400000000000    0.4075400000000000 O
