H3 C2 N4
1.0
  11.8629452591382272    0.0000000000000000   -5.0267271438471610
  -2.3645791520506134   11.8437109564103551   -5.2895653143422798
   0.0000000000000000    0.0000000000000000   16.2519999999999989
H C N
3 2 4
direct
   0.0882300000000000    0.7630700000000000    0.5718400000000000 H
   0.8469000000000000    0.5978500000000000    0.2215200000000000 H
   0.8229500000000000    0.7291500000000000    0.2185300000000000 H
   0.9313000000000000    0.7383500000000000    0.3528300000000000 C
   0.0377100000000000    0.7732000000000000    0.5053400000000000 C
   0.0239700000000000    0.8728399999999999    0.5060000000000000 N
   0.9554100000000000    0.8520400000000000    0.4075400000000000 N
   0.9823900000000000    0.6864200000000000    0.4128100000000000 N
   0.8709800000000000    0.6844400000000000    0.2537900000000000 N
