Zn8 H35 C40 N32 O12
1.0
  11.8629452591382272    0.0000000000000000   -5.0267271438471610
  -2.3645791520506134   11.8437109564103551   -5.2895653143422798
   0.0000000000000000    0.0000000000000000   16.2519999999999989
Zn H C N O
8 35 40 32 12
direct
   0.0234300000000000    0.4792000000000000    0.6129300000000000 Zn
   0.4901000000000000    0.5901900000000000    0.6151700000000000 Zn
   0.1243500000000000    0.0251800000000000    0.6155100000000000 Zn
   0.4113000000000000    0.8665100000000000    0.3870700000000000 Zn
   0.9765800000000000    0.5207600000000000    0.3869500000000000 Zn
   0.5099000000000000    0.4097800000000000    0.3847000000000000 Zn
   0.8756000000000000    0.9747500000000000    0.3843700000000000 Zn
   0.5886500000000000    0.1334600000000000    0.6128100000000000 Zn
   0.8067299999999999    0.1156800000000000    0.5639300000000000 H
   0.6431000000000000    0.8184700000000000    0.2334400000000000 H
   0.5079500000000000    0.7878900000000000    0.2318900000000000 H
   0.9124400000000000    0.7024600000000000    0.8401800000000000 H
   0.7571700000000000    0.4479500000000000    0.5641500000000000 H
   0.5918900000000000    0.4153500000000000    0.2336500000000000 H
   0.7252999999999999    0.4450200000000000    0.2320400000000000 H
   0.4829600000000000    0.8084600000000000    0.5715100000000000 H
   0.3775800000000000    0.6244200000000000    0.2213000000000000 H
   0.3988500000000000    0.4900800000000000    0.2183900000000000 H
   0.1351400000000000    0.9099000000000000    0.8404100000000000 H
   0.0882300000000000    0.7630700000000000    0.5718400000000000 H
   0.8469000000000000    0.5978500000000000    0.2215200000000000 H
   0.8229500000000000    0.7291500000000000    0.2185300000000000 H
   0.0741400000000000    0.8632800000000000    0.1615900000000000 H
   0.1932400000000000    0.8842400000000000    0.4359700000000000 H
   0.3568500000000000    0.1814900000000000    0.7664400000000000 H
   0.4919900000000000    0.2120900000000000    0.7679900000000000 H
   0.2428300000000000    0.5520500000000000    0.4357500000000000 H
   0.4081100000000000    0.5845500000000000    0.7662099999999999 H
   0.2747100000000000    0.5548800000000000    0.7678199999999999 H
   0.2967600000000000    0.0713600000000000    0.1616500000000000 H
   0.5169800000000000    0.1914900000000000    0.4283400000000000 H
   0.6223700000000000    0.3755300000000000    0.7785500000000000 H
   0.6011500000000000    0.5098900000000000    0.7814700000000000 H
   0.8647300000000000    0.0900600000000000    0.1594800000000000 H
   0.9117200000000000    0.2368800000000000    0.4280300000000000 H
   0.1531100000000000    0.4021000000000000    0.7783400000000000 H
   0.1770400000000000    0.2708000000000000    0.7813300000000000 H
   0.9078200000000000    0.8263800000000000    0.0013300000000000 H
   0.2481700000000000    0.6531900000000000    0.9996000000000000 H
   0.8260999999999999    0.0945600000000000    0.9983200000000000 H
   0.6561800000000000    0.7564400000000000    0.0004800000000000 H
   0.1737700000000000    0.9054700000000000    0.0016100000000000 H
   0.3437400000000000    0.2435000000000000    0.9993700000000000 H
   0.6285900000000000    0.9101000000000000    0.3615300000000000 C
   0.7342800000000000    0.0506300000000000    0.5023000000000000 C
   0.0805700000000000    0.6697800000000000    0.9097200000000000 C
   0.9845200000000000    0.7189100000000000    0.9105900000000000 C
   0.7338300000000000    0.4518900000000000    0.3617000000000000 C
   0.7682800000000000    0.4517000000000000    0.5025200000000000 C
   0.0870000000000000    0.5954800000000000    0.8147500000000000 C
   0.6714500000000000    0.8323400000000000    0.9093300000000000 C
   0.7196500000000000    0.9280600000000000    0.9090900000000000 C
   0.4235800000000000    0.6148900000000000    0.3527000000000000 C
   0.4677900000000000    0.7320500000000000    0.5050800000000000 C
   0.5993500000000000    0.7306800000000000    0.8148400000000000 C
   0.2374700000000000    0.0768200000000000    0.9097700000000000 C
   0.1896900000000000    0.9814200000000000    0.9107600000000000 C
   0.9313000000000000    0.7383500000000000    0.3528300000000000 C
   0.0377100000000000    0.7732000000000000    0.5053400000000000 C
   0.2139700000000000    0.0833700000000000    0.8146500000000000 C
   0.1716600000000000    0.7604200000000000    0.0906900000000000 C
   0.0751900000000000    0.8090700000000000    0.0908000000000000 C
   0.3713600000000000    0.0898600000000000    0.6383600000000000 C
   0.2656900000000000    0.9493100000000000    0.4975900000000000 C
   0.2734500000000000    0.7811600000000000    0.1851500000000000 C
   0.2661700000000000    0.5480300000000000    0.6381599999999999 C
   0.2317300000000000    0.5482800000000000    0.4973700000000000 C
   0.3284900000000000    0.1676400000000000    0.0905300000000000 C
   0.2802600000000000    0.0719400000000000    0.0908000000000000 C
   0.5763900000000000    0.3850700000000000    0.6471600000000000 C
   0.5321700000000000    0.2679100000000000    0.4947700000000000 C
   0.4006100000000000    0.2693000000000000    0.1850100000000000 C
   0.7624400000000000    0.9231200000000001    0.0900900000000000 C
   0.8102000000000000    0.0185500000000000    0.0891200000000000 C
   0.0686900000000000    0.2615900000000000    0.6470300000000000 C
   0.9622500000000000    0.2267400000000000    0.4945300000000000 C
   0.7859400000000000    0.9165400000000000    0.1852000000000000 C
   0.9822600000000000    0.7882000000000000    0.0009500000000000 C
   0.1734800000000000    0.6908500000000000    0.9999800000000000 C
   0.7885300000000000    0.0207100000000000    0.9988100000000000 C
   0.6928800000000001    0.8307000000000000    0.0000300000000000 C
   0.2113500000000000    0.9792900000000000    0.0011100000000000 C
   0.3070300000000000    0.1692500000000000    0.9998500000000000 C
   0.6337000000000000    0.0336000000000000    0.5037800000000000 N
   0.5635500000000000    0.9430300000000000    0.4125300000000000 N
   0.7364700000000000    0.9772200000000000    0.4161000000000000 N
   0.5946000000000000    0.8220000000000000    0.2717300000000000 N
   0.8702299999999999    0.4705100000000000    0.5039300000000000 N
   0.8495600000000000    0.4700900000000000    0.4126500000000000 N
   0.6803600000000000    0.4389600000000000    0.4163400000000000 N
   0.6783300000000000    0.4504100000000000    0.2719300000000000 N
   0.4821900000000000    0.6330900000000000    0.5057800000000000 N
   0.4534500000000000    0.5557400000000000    0.4074100000000000 N
   0.4316800000000000    0.7265900000000000    0.4126200000000000 N
   0.3863800000000000    0.5701600000000000    0.2537800000000000 N
   0.0239700000000000    0.8728399999999999    0.5060000000000000 N
   0.9554100000000000    0.8520400000000000    0.4075400000000000 N
   0.9823900000000000    0.6864200000000000    0.4128100000000000 N
   0.8709800000000000    0.6844400000000000    0.2537900000000000 N
   0.3662600000000000    0.9663500000000000    0.4961000000000000 N
   0.4364000000000000    0.0569400000000000    0.5873400000000000 N
   0.2634900000000000    0.0227200000000000    0.5838000000000000 N
   0.4053500000000000    0.1779800000000000    0.7281400000000000 N
   0.1297700000000000    0.5294600000000000    0.4959600000000000 N
   0.1504500000000000    0.5298500000000000    0.5872300000000000 N
   0.3196500000000000    0.5609900000000000    0.5835399999999999 N
   0.3216700000000000    0.5494599999999999    0.7279200000000000 N
   0.5178000000000000    0.3668700000000000    0.4940800000000000 N
   0.5465400000000000    0.4442200000000000    0.5924500000000000 N
   0.5682700000000001    0.2733700000000000    0.5872400000000000 N
   0.6136000000000000    0.4298000000000000    0.7460800000000000 N
   0.9759800000000000    0.1271000000000000    0.4938700000000000 N
   0.0445600000000000    0.1479000000000000    0.5923300000000000 N
   0.0175900000000000    0.3135300000000000    0.5870500000000000 N
   0.1290300000000000    0.3155100000000000    0.7460700000000000 N
   0.1747600000000000    0.5516600000000000    0.8185900000000000 O
   0.0015000000000000    0.5789000000000000    0.7321100000000000 O
   0.5589800000000000    0.6456900000000000    0.8186500000000000 O
   0.5821300000000000    0.7339800000000000    0.7321700000000000 O
   0.2570100000000000    0.1720400000000000    0.8174900000000000 O
   0.1489000000000000    0.9972200000000000    0.7324200000000000 O
   0.3572000000000000    0.7335800000000000    0.1805500000000000 O
   0.2708500000000000    0.8471700000000000    0.2681300000000000 O
   0.4410000000000000    0.3542600000000000    0.1811700000000000 O
   0.4178500000000000    0.2660100000000000    0.2676900000000000 O
   0.7429100000000000    0.8278500000000000    0.1823300000000000 O
   0.8510000000000000    0.0026800000000000    0.2674300000000000 O
