H12 O8
1.0
  35.5964714162508074    0.0000000000000000    2.2891314317966072
   0.0561195399474486    7.4737376590140032    0.0277849144677412
   0.0000000000000000    0.0000000000000000   31.1722000000000001
H O
12 8
direct
   0.8221787057497282    0.1851098782769243    0.3386278731320718 H
   0.8723127621500570    0.2177658683968789    0.3532538695964950 H
   0.7622906352495137    0.1517716675242245    0.3206105168604469 H
   0.8105510379944139    0.2347079384425353    0.2965360904882565 H
   0.8115598122417942   -0.2609863493277557    0.3144944795004797 H
   0.8328368645715897    0.7073462980383489    0.3586740605596503 H
   0.8338214373516331    0.3082723197060335    0.1413406247226287 H
   0.8550946270332536    0.2765947495012092    0.1855270810375916 H
   0.8044028323857638    0.7781239090984133    0.1822472279852980 H
   0.8560999729655083   -0.2191029309182168    0.2034828956851266 H
   0.8636026859447545   -0.1894894218882134    0.2000420034233111 H
   0.8987481729304895   -0.1645692734424039    0.1936666854489287 H
   0.8468183333333332    0.2186300000000000    0.3441350000000000 O
   0.7876566666666667    0.1862800000000000    0.3262800000000000 O
   0.8180983333333333   -0.1672000000000000    0.3340400000000000 O
   0.8351000000000000    0.5868300000000000    0.3699200000000000 O
   0.8315600000000000    0.4287900000000000    0.1300950000000000 O
   0.8485583333333333    0.1828100000000000    0.1659800000000000 O
   0.8198399999999999    0.7969900000000000    0.1558800000000000 O
   0.8790016666666666   -0.1706700000000000    0.1737400000000000 O
