C2 O4
1.0
  30.4981232236940265    0.0000000000000000   15.9216737760945009
  15.2242537277420276   32.8818040229337782    7.9449530288547754
   0.0000000000000000    0.0000000000000000   37.1120000000000019
C O
2 4
direct
   0.1406050000000000    0.6306000000000000    0.8805799999999999 C
   0.1093500000000000    0.6194999999999999    0.8694750000000000 C
   0.1179150000000000    0.6576649999999999    0.9076500000000001 O
   0.0639550000000000    0.6381000000000000    0.8880749999999999 O
   0.1860000000000000    0.6119950000000000    0.8619500000000000 O
   0.1320400000000000    0.5924300000000000    0.8423950000000000 O
