H12 C12 N2
1.0
  12.7162460331284262    0.0000000000000000   -3.4768629286967205
  -1.7713841604652190   12.5656600921010249   -3.5347296368792565
   0.0000000000000000    0.0000000000000000   27.9600000000000009
H C N
12 12 2
direct
   0.0384300000000000    0.9216700000000000    0.4924700000000000 H
   0.3418100000000000    0.7540000000000000    0.4861500000000000 H
   0.0083100000000000    0.9128300000000000    0.5752000000000000 H
   0.3135100000000000    0.8018200000000000    0.6118050000000000 H
   0.4035300000000000    0.8850200000000000    0.5218450000000000 H
   0.4153000000000000    0.7830300000000000    0.5532000000000000 H
   0.0778600000000000    0.9611000000000000    0.7578350000000000 H
   0.0862300000000000    0.9910200000000000    0.6749600000000000 H
   0.1975500000000000    0.6854200000000000    0.6376150000000000 H
   0.1152400000000000    0.5953800000000000    0.7277400000000001 H
   0.2171200000000000    0.5838400000000000    0.6961850000000001 H
   0.2458200000000000    0.6576900000000000    0.7632800000000000 H
   0.0980900000000000    0.8973500000000000    0.5207300000000000 C
   0.0815800000000000    0.8912500000000000    0.5668900000000000 C
   0.1586900000000000    0.8538700000000000    0.6004650000000000 C
   0.2501800000000000    0.8283400000000000    0.5861000000000000 C
   0.2633000000000000    0.8381999999999999    0.5395600000000000 C
   0.3617300000000000    0.8130800000000000    0.5245700000000000 C
   0.1021600000000000    0.9013300000000000    0.7293700000000000 C
   0.1079800000000000    0.9177200000000000    0.6831700000000001 C
   0.1453100000000000    0.8404400000000000    0.6493000000000000 C
   0.1710500000000000    0.7488899999999999    0.6634850000000000 C
   0.1615000000000000    0.7359000000000000    0.7101150000000001 C
   0.1869100000000000    0.6374600000000000    0.7249400000000000 C
   0.1859800000000000    0.8716100000000000    0.5068049999999999 N
   0.1282000000000000    0.8134300000000000    0.7431250000000000 N
