H6 O4
1.0
  11.5295847552611566    0.0000000000000000    5.7615099037708442
   5.7822193793430472   12.9859503001024432    2.9055317675804209
   0.0000000000000000    0.0000000000000000   14.5259999999999998
H O
6 4
direct
   0.3777184658263190    0.6074176952199193    0.6794150788650020 H
   0.5987171141936719    0.3217946211365677    0.5777262702877758 H
   0.4945436026129019    0.4619651552566804    0.6378605846561737 H
  -0.1158079073985362    1.1210977977261656    0.1739563285831033 H
  -0.0075529052421124    0.1471559298525776    0.8725473184804808 H
  -0.0769977964509282    1.1438722558917016    0.0246090532833487 H
   0.4073400000000000    0.5537900000000000    0.6319600000000000 O
   0.5347800000000000    0.3891200000000000    0.5734000000000000 O
  -0.0502500000000000    1.0998299999999999    0.1053100000000000 O
   0.0119700000000000    0.1150100000000000    0.9314500000000000 O
