H8 C14 O4
1.0
  11.5295847552611566    0.0000000000000000    5.7615099037708442
   5.7822193793430472   12.9859503001024432    2.9055317675804209
   0.0000000000000000    0.0000000000000000   14.5259999999999998
H C O
8 14 4
direct
   0.6131100000000000    0.2731900000000000    0.6940300000000000 H
   0.6828900000000000    0.2245500000000000    0.8370700000000000 H
   0.5352500000000000    0.5459900000000000    0.9055400000000000 H
   0.4596300000000000    0.5932900000000000    0.7661000000000000 H
   0.5028700000000000    0.4772600000000000    0.0661800000000000 H
   0.5730800000000000    0.4213300000000000    0.2093500000000000 H
   0.7670200000000000    0.2628000000000000    0.1929500000000000 H
   0.8300300000000000    0.2197900000000000    0.8852500000000000 H
   0.4883400000000000    0.4623200000000000    0.6359800000000000 C
   0.5319000000000000    0.4362300000000000    0.7207800000000000 C
   0.5963700000000000    0.3323300000000000    0.7409500000000000 C
   0.6364400000000000    0.3056300000000000    0.8204000000000000 C
   0.6151799999999999    0.3815200000000000    0.8816100000000000 C
   0.5507600000000000    0.4855900000000000    0.8607000000000000 C
   0.5090000000000000    0.5126300000000000    0.7818400000000000 C
   0.6586000000000000    0.3510000000000000    0.9660200000000000 C
   0.5892400000000000    0.4084800000000000    0.0575400000000000 C
   0.6279700000000000    0.3771300000000000    0.1384200000000000 C
   0.7366400000000000    0.2880600000000000    0.1298800000000000 C
   0.8091699999999999    0.2315300000000000    0.0380000000000000 C
   0.7702100000000000    0.2632500000000000    0.9568300000000000 C
   0.9317800000000001    0.1415900000000000    0.0244300000000000 C
   0.4073400000000000    0.5537900000000000    0.6319600000000000 O
   0.5347800000000000    0.3891200000000000    0.5734000000000000 O
   0.0119700000000000    0.1150100000000000    0.9314500000000000 O
  -0.0502500000000000    1.0998299999999999    0.1053100000000000 O
