Zn36 H176 C350 N105 O140
1.0
  37.7147447269847547    0.0000000000000000    0.8795767040887195
   0.8671060416900436   12.8340739325728990    0.3071846443386340
   0.0000000000000000    0.0000000000000000   29.0279999999999987
Zn H C N O
36 176 350 105 140
direct
   0.2085566666666666    0.0315200000000000    0.3630300000000000 Zn
   0.0092233333333333    0.6312700000000000    0.1115350000000000 Zn
   0.1247533333333333    0.9685100000000000    0.1368950000000000 Zn
   0.1296166666666667    0.6137400000000000    0.3749350000000000 Zn
   0.2037800000000000    0.3864900000000000    0.1250750000000000 Zn
   0.3240633333333333    0.3689000000000000    0.3872100000000000 Zn
   0.5418900000000000    0.0315200000000000    0.3630300000000000 Zn
   0.3425566666666666    0.6312700000000000    0.1115350000000000 Zn
   0.4580866666666666    0.9685100000000000    0.1368950000000000 Zn
   0.4629500000000000    0.6137400000000000    0.3749350000000000 Zn
   0.5371133333333333    0.3864900000000000    0.1250750000000000 Zn
   0.6573966666666666    0.3689000000000000    0.3872100000000000 Zn
   0.8752233333333332    0.0315200000000000    0.3630300000000000 Zn
   0.6758900000000000    0.6312700000000000    0.1115350000000000 Zn
   0.7914200000000000    0.9685100000000000    0.1368950000000000 Zn
   0.7962833333333332    0.6137400000000000    0.3749350000000000 Zn
   0.8704466666666666    0.3864900000000000    0.1250750000000000 Zn
   0.9907299999999999    0.3689000000000000    0.3872100000000000 Zn
   0.2085566666666666    0.0315200000000000    0.8630300000000000 Zn
   0.0092233333333333    0.6312700000000000    0.6115349999999999 Zn
   0.1247533333333333    0.9685100000000000    0.6368950000000000 Zn
   0.1296166666666667    0.6137400000000000    0.8749350000000000 Zn
   0.2037800000000000    0.3864900000000000    0.6250750000000000 Zn
   0.3240633333333333    0.3689000000000000    0.8872100000000001 Zn
   0.5418900000000000    0.0315200000000000    0.8630300000000000 Zn
   0.3425566666666666    0.6312700000000000    0.6115349999999999 Zn
   0.4580866666666666    0.9685100000000000    0.6368950000000000 Zn
   0.4629500000000000    0.6137400000000000    0.8749350000000000 Zn
   0.5371133333333333    0.3864900000000000    0.6250750000000000 Zn
   0.6573966666666666    0.3689000000000000    0.8872100000000001 Zn
   0.8752233333333332    0.0315200000000000    0.8630300000000000 Zn
   0.6758900000000000    0.6312700000000000    0.6115349999999999 Zn
   0.7914200000000000    0.9685100000000000    0.6368950000000000 Zn
   0.7962833333333332    0.6137400000000000    0.8749350000000000 Zn
   0.8704466666666666    0.3864900000000000    0.6250750000000000 Zn
   0.9907299999999999    0.3689000000000000    0.8872100000000001 Zn
   0.0587633333333333    0.4538900000000000    0.2549950000000000 H
   0.0773000000000000    0.5502000000000000    0.0580550000000000 H
   0.0956900000000000    0.5128200000000001    0.4773100000000000 H
   0.3242133333333333    0.6319700000000000    0.4364450000000000 H
   0.3103500000000000    0.6685800000000000    0.0193700000000000 H
   0.1978433333333333    0.5591200000000000    0.3208700000000000 H
   0.2469733333333333    0.4214600000000000    0.3203750000000000 H
   0.1815033333333333    0.8280000000000000    0.4948450000000000 H
   0.1536700000000000    0.7702800000000000    0.1908500000000000 H
   0.1650166666666666    0.7162600000000000    0.2720100000000000 H
   0.1203633333333333    0.0199300000000000    0.3122250000000000 H
   0.1096733333333333    0.0609800000000000    0.2289550000000000 H
   0.1450933333333333    0.4110800000000000    0.4287100000000000 H
   0.1901800000000000    0.2621400000000000    0.4295950000000000 H
   0.2759633333333333    0.5415600000000000    0.2450150000000000 H
   0.2558466666666667    0.4507400000000000    0.4412400000000000 H
   0.2375400000000000    0.4875100000000000    0.0220650000000000 H
   0.0091666666666667    0.3688800000000000    0.0625250000000000 H
   0.0228900000000000    0.3325500000000000    0.4795700000000000 H
   0.1352233333333333    0.4404700000000000    0.1787250000000000 H
   0.0859233333333333    0.5777500000000000    0.1787800000000000 H
   0.1501433333333333    0.1754000000000000    0.0055950000000000 H
   0.1794933333333333    0.2294900000000000    0.3091200000000000 H
   0.1680266666666667    0.2837600000000000    0.2280300000000000 H
   0.2130166666666667    0.9806700000000000    0.1874900000000000 H
   0.2237833333333333    0.9393200000000000    0.2707200000000000 H
   0.1888233333333333    0.5903800000000000    0.0722000000000000 H
   0.1435100000000000    0.7388300000000000    0.0709050000000000 H
   0.0007400000000000    0.0000000000000000    0.3744450000000000 H
   0.0000000000000000    0.0104600000000000    0.1267350000000000 H
   0.3920966666666666    0.4538900000000000    0.2549950000000000 H
   0.4106333333333333    0.5502000000000000    0.0580550000000000 H
   0.4290233333333333    0.5128200000000001    0.4773100000000000 H
   0.6575466666666666    0.6319700000000000    0.4364450000000000 H
   0.6436833333333334    0.6685800000000000    0.0193700000000000 H
   0.5311766666666666    0.5591200000000000    0.3208700000000000 H
   0.5803066666666666    0.4214600000000000    0.3203750000000000 H
   0.5148366666666666    0.8280000000000000    0.4948450000000000 H
   0.4870033333333333    0.7702800000000000    0.1908500000000000 H
   0.4983500000000000    0.7162600000000000    0.2720100000000000 H
   0.4536966666666666    0.0199300000000000    0.3122250000000000 H
   0.4430066666666667    0.0609800000000000    0.2289550000000000 H
   0.4784266666666667    0.4110800000000000    0.4287100000000000 H
   0.5235133333333333    0.2621400000000000    0.4295950000000000 H
   0.6092966666666666    0.5415600000000000    0.2450150000000000 H
   0.5891800000000000    0.4507400000000000    0.4412400000000000 H
   0.5708733333333333    0.4875100000000000    0.0220650000000000 H
   0.3425000000000000    0.3688800000000000    0.0625250000000000 H
   0.3562233333333333    0.3325500000000000    0.4795700000000000 H
   0.4685566666666666    0.4404700000000000    0.1787250000000000 H
   0.4192566666666666    0.5777500000000000    0.1787800000000000 H
   0.4834766666666667    0.1754000000000000    0.0055950000000000 H
   0.5128266666666667    0.2294900000000000    0.3091200000000000 H
   0.5013600000000000    0.2837600000000000    0.2280300000000000 H
   0.5463500000000000    0.9806700000000000    0.1874900000000000 H
   0.5571166666666667    0.9393200000000000    0.2707200000000000 H
   0.5221566666666666    0.5903800000000000    0.0722000000000000 H
   0.4768433333333333    0.7388300000000000    0.0709050000000000 H
   0.3340733333333333    0.0000000000000000    0.3744450000000000 H
   0.3333333333333333    0.0104600000000000    0.1267350000000000 H
   0.7254300000000000    0.4538900000000000    0.2549950000000000 H
   0.7439666666666667    0.5502000000000000    0.0580550000000000 H
   0.7623566666666666    0.5128200000000001    0.4773100000000000 H
   0.9908800000000000    0.6319700000000000    0.4364450000000000 H
   0.9770166666666666    0.6685800000000000    0.0193700000000000 H
   0.8645099999999999    0.5591200000000000    0.3208700000000000 H
   0.9136400000000000    0.4214600000000000    0.3203750000000000 H
   0.8481700000000000    0.8280000000000000    0.4948450000000000 H
   0.8203366666666666    0.7702800000000000    0.1908500000000000 H
   0.8316833333333333    0.7162600000000000    0.2720100000000000 H
   0.7870300000000000    0.0199300000000000    0.3122250000000000 H
   0.7763399999999999    0.0609800000000000    0.2289550000000000 H
   0.8117599999999999    0.4110800000000000    0.4287100000000000 H
   0.8568466666666666    0.2621400000000000    0.4295950000000000 H
   0.9426300000000000    0.5415600000000000    0.2450150000000000 H
   0.9225133333333333    0.4507400000000000    0.4412400000000000 H
   0.9042066666666666    0.4875100000000000    0.0220650000000000 H
   0.6758333333333333    0.3688800000000000    0.0625250000000000 H
   0.6895566666666666    0.3325500000000000    0.4795700000000000 H
   0.8018900000000000    0.4404700000000000    0.1787250000000000 H
   0.7525900000000000    0.5777500000000000    0.1787800000000000 H
   0.8168099999999999    0.1754000000000000    0.0055950000000000 H
   0.8461599999999999    0.2294900000000000    0.3091200000000000 H
   0.8346933333333333    0.2837600000000000    0.2280300000000000 H
   0.8796833333333333    0.9806700000000000    0.1874900000000000 H
   0.8904500000000000    0.9393200000000000    0.2707200000000000 H
   0.8554900000000000    0.5903800000000000    0.0722000000000000 H
   0.8101766666666667    0.7388300000000000    0.0709050000000000 H
   0.6674066666666666    0.0000000000000000    0.3744450000000000 H
   0.6666666666666666    0.0104600000000000    0.1267350000000000 H
   0.0587633333333333    0.4538900000000000    0.7549950000000001 H
   0.0773000000000000    0.5502000000000000    0.5580550000000000 H
   0.0956900000000000    0.5128200000000001    0.9773100000000000 H
   0.3242133333333333    0.6319700000000000    0.9364450000000000 H
   0.3103500000000000    0.6685800000000000    0.5193700000000000 H
   0.1978433333333333    0.5591200000000000    0.8208700000000000 H
   0.2469733333333333    0.4214600000000000    0.8203750000000001 H
   0.1815033333333333    0.8280000000000000    0.9948450000000000 H
   0.1536700000000000    0.7702800000000000    0.6908500000000000 H
   0.1650166666666666    0.7162600000000000    0.7720100000000000 H
   0.1203633333333333    0.0199300000000000    0.8122250000000000 H
   0.1096733333333333    0.0609800000000000    0.7289550000000000 H
   0.1450933333333333    0.4110800000000000    0.9287099999999999 H
   0.1901800000000000    0.2621400000000000    0.9295949999999999 H
   0.2759633333333333    0.5415600000000000    0.7450150000000000 H
   0.2558466666666667    0.4507400000000000    0.9412400000000001 H
   0.2375400000000000    0.4875100000000000    0.5220650000000000 H
   0.0091666666666667    0.3688800000000000    0.5625249999999999 H
   0.0228900000000000    0.3325500000000000    0.9795700000000001 H
   0.1352233333333333    0.4404700000000000    0.6787250000000000 H
   0.0859233333333333    0.5777500000000000    0.6787799999999999 H
   0.1501433333333333    0.1754000000000000    0.5055950000000000 H
   0.1794933333333333    0.2294900000000000    0.8091200000000001 H
   0.1680266666666667    0.2837600000000000    0.7280300000000000 H
   0.2130166666666667    0.9806700000000000    0.6874899999999999 H
   0.2237833333333333    0.9393200000000000    0.7707200000000001 H
   0.1888233333333333    0.5903800000000000    0.5722000000000000 H
   0.1435100000000000    0.7388300000000000    0.5709050000000000 H
   0.0007400000000000    0.0000000000000000    0.8744449999999999 H
   0.0000000000000000    0.0104600000000000    0.6267350000000000 H
   0.3920966666666666    0.4538900000000000    0.7549950000000001 H
   0.4106333333333333    0.5502000000000000    0.5580550000000000 H
   0.4290233333333333    0.5128200000000001    0.9773100000000000 H
   0.6575466666666666    0.6319700000000000    0.9364450000000000 H
   0.6436833333333334    0.6685800000000000    0.5193700000000000 H
   0.5148366666666666    0.8280000000000000    0.9948450000000000 H
   0.4870033333333333    0.7702800000000000    0.6908500000000000 H
   0.4983500000000000    0.7162600000000000    0.7720100000000000 H
   0.4536966666666666    0.0199300000000000    0.8122250000000000 H
   0.4430066666666667    0.0609800000000000    0.7289550000000000 H
   0.6092966666666666    0.5415600000000000    0.7450150000000000 H
   0.5891800000000000    0.4507400000000000    0.9412400000000001 H
   0.5708733333333333    0.4875100000000000    0.5220650000000000 H
   0.3425000000000000    0.3688800000000000    0.5625249999999999 H
   0.3562233333333333    0.3325500000000000    0.9795700000000001 H
   0.4685566666666666    0.4404700000000000    0.6787250000000000 H
   0.4192566666666666    0.5777500000000000    0.6787799999999999 H
   0.4834766666666667    0.1754000000000000    0.5055950000000000 H
   0.5128266666666667    0.2294900000000000    0.8091200000000001 H
   0.5013600000000000    0.2837600000000000    0.7280300000000000 H
   0.5463500000000000    0.9806700000000000    0.6874899999999999 H
   0.5571166666666667    0.9393200000000000    0.7707200000000001 H
   0.5221566666666666    0.5903800000000000    0.5722000000000000 H
   0.4768433333333333    0.7388300000000000    0.5709050000000000 H
   0.3340733333333333    0.0000000000000000    0.8744449999999999 H
   0.3333333333333333    0.0104600000000000    0.6267350000000000 H
   0.7254300000000000    0.4538900000000000    0.7549950000000001 H
   0.7439666666666667    0.5502000000000000    0.5580550000000000 H
   0.7623566666666666    0.5128200000000001    0.9773100000000000 H
   0.9908800000000000    0.6319700000000000    0.9364450000000000 H
   0.9770166666666666    0.6685800000000000    0.5193700000000000 H
   0.8645099999999999    0.5591200000000000    0.8208700000000000 H
   0.9136400000000000    0.4214600000000000    0.8203750000000001 H
   0.8481700000000000    0.8280000000000000    0.9948450000000000 H
   0.8203366666666666    0.7702800000000000    0.6908500000000000 H
   0.8316833333333333    0.7162600000000000    0.7720100000000000 H
   0.7870300000000000    0.0199300000000000    0.8122250000000000 H
   0.7763399999999999    0.0609800000000000    0.7289550000000000 H
   0.8117599999999999    0.4110800000000000    0.9287099999999999 H
   0.8568466666666666    0.2621400000000000    0.9295949999999999 H
   0.9426300000000000    0.5415600000000000    0.7450150000000000 H
   0.9225133333333333    0.4507400000000000    0.9412400000000001 H
   0.9042066666666666    0.4875100000000000    0.5220650000000000 H
   0.6758333333333333    0.3688800000000000    0.5625249999999999 H
   0.6895566666666666    0.3325500000000000    0.9795700000000001 H
   0.8018900000000000    0.4404700000000000    0.6787250000000000 H
   0.7525900000000000    0.5777500000000000    0.6787799999999999 H
   0.8168099999999999    0.1754000000000000    0.5055950000000000 H
   0.8461599999999999    0.2294900000000000    0.8091200000000001 H
   0.8346933333333333    0.2837600000000000    0.7280300000000000 H
   0.8796833333333333    0.9806700000000000    0.6874899999999999 H
   0.8904500000000000    0.9393200000000000    0.7707200000000001 H
   0.8554900000000000    0.5903800000000000    0.5722000000000000 H
   0.8101766666666667    0.7388300000000000    0.5709050000000000 H
   0.6674066666666666    0.0000000000000000    0.8744449999999999 H
   0.6666666666666666    0.0104600000000000    0.6267350000000000 H
   0.0508033333333333    0.5348900000000000    0.4020600000000000 C
   0.0406766666666667    0.4779800000000000    0.3339350000000000 C
   0.0730700000000000    0.5233100000000001    0.3322800000000000 C
   0.0210166666666667    0.4243700000000000    0.2996050000000000 C
   0.0985500000000000    0.5394300000000000    0.2935750000000000 C
   0.0587400000000000    0.5666300000000000    0.0301850000000000 C
   0.0688433333333333    0.5448800000000000    0.4849150000000000 C
   0.0439400000000000    0.5643700000000000    0.4501150000000000 C
   0.0105133333333333    0.6115400000000000    0.4626050000000000 C
   0.0026733333333333    0.6320400000000000    0.0085350000000000 C
   0.3033966666666666    0.1660500000000000    0.3773650000000000 C
   0.0089900000000000    0.1540800000000000    0.3830600000000000 C
   0.1976133333333333    0.4939100000000000    0.3454300000000000 C
   0.2250366666666667    0.4163400000000000    0.3451550000000000 C
   0.1549500000000000    0.8471700000000000    0.3473250000000000 C
   0.1735033333333333    0.8795300000000000    0.4156250000000000 C
   0.1592400000000000    0.7828000000000001    0.4172300000000000 C
   0.1909733333333333    0.9390100000000000    0.4500550000000000 C
   0.1545966666666667    0.7078300000000000    0.4560400000000000 C
   0.1469166666666666    0.8239700000000000    0.2186800000000000 C
   0.1535266666666666    0.7942900000000001    0.2641800000000000 C
   0.1454133333333333    0.8663900000000000    0.2989750000000000 C
   0.1286100000000000    0.9632800000000000    0.2861600000000000 C
   0.1225533333333333    0.9864300000000000    0.2399950000000000 C
   0.2783266666666667    0.0924600000000000    0.3731800000000000 C
   0.2821566666666666    0.0000000000000000    0.3670750000000000 C
   0.1674433333333333    0.4092300000000000    0.4042800000000000 C
   0.1928500000000000    0.3259300000000000    0.4047300000000000 C
   0.2826233333333333    0.4652800000000000    0.0972850000000000 C
   0.2931866666666667    0.5208300000000000    0.1655550000000000 C
   0.2608266666666667    0.4752600000000000    0.1673550000000000 C
   0.3130933333333333    0.5736100000000000    0.1999450000000000 C
   0.2355700000000000    0.4584900000000000    0.2062600000000000 C
   0.2744766666666666    0.4342900000000000    0.4690350000000000 C
   0.2644100000000000    0.4557000000000000    0.0143700000000000 C
   0.2893733333333333    0.4363100000000000    0.0491050000000000 C
   0.3227933333333333    0.3893000000000000    0.0364500000000000 C
   0.3305766666666666    0.3690500000000000    0.4904750000000000 C
   0.0298900000000000    0.8338900000000000    0.1225150000000000 C
   0.0000000000000000    0.8458800000000000    0.1169850000000000 C
   0.1356066666666667    0.5059800000000000    0.1543350000000000 C
   0.1081166666666667    0.5833700000000001    0.1544250000000000 C
   0.1782000000000000    0.1534100000000000    0.1525900000000000 C
   0.1591966666666667    0.1219700000000000    0.0844150000000000 C
   0.1734900000000000    0.2186500000000000    0.0828600000000000 C
   0.1416033333333333    0.0627900000000000    0.0500050000000000 C
   0.1779533333333333    0.2941200000000000    0.0441800000000000 C
   0.1863133333333333    0.1759900000000000    0.2812400000000000 C
   0.1796466666666666    0.2058300000000000    0.2357700000000000 C
   0.1878333333333333    0.1339700000000000    0.2008950000000000 C
   0.2047333333333333    0.0371500000000000    0.2136150000000000 C
   0.2108366666666667    0.0138400000000000    0.2597650000000000 C
   0.0549366666666667    0.9074800000000000    0.1269550000000000 C
   0.0510866666666667    0.0199600000000000    0.1336000000000000 C
   0.1662133333333333    0.5917000000000000    0.0962200000000000 C
   0.1407400000000000    0.6748100000000000    0.0956100000000000 C
   0.2507733333333333    0.2458500000000000    0.3751900000000000 C
   0.2225933333333333    0.3297000000000000    0.3750050000000000 C
   0.0825266666666667    0.7541700000000000    0.1244650000000000 C
   0.1107166666666667    0.6703600000000000    0.1248000000000000 C
   0.3841366666666666    0.5348900000000000    0.4020600000000000 C
   0.3740100000000000    0.4779800000000000    0.3339350000000000 C
   0.4064033333333333    0.5233100000000001    0.3322800000000000 C
   0.3543500000000000    0.4243700000000000    0.2996050000000000 C
   0.4318833333333333    0.5394300000000000    0.2935750000000000 C
   0.3920733333333333    0.5666300000000000    0.0301850000000000 C
   0.4021766666666666    0.5448800000000000    0.4849150000000000 C
   0.3772733333333333    0.5643700000000000    0.4501150000000000 C
   0.3438466666666666    0.6115400000000000    0.4626050000000000 C
   0.3360066666666667    0.6320400000000000    0.0085350000000000 C
   0.6367300000000000    0.1660500000000000    0.3773650000000000 C
   0.3423233333333333    0.1540800000000000    0.3830600000000000 C
   0.5309466666666667    0.4939100000000000    0.3454300000000000 C
   0.5583700000000000    0.4163400000000000    0.3451550000000000 C
   0.4882833333333333    0.8471700000000000    0.3473250000000000 C
   0.5068366666666666    0.8795300000000000    0.4156250000000000 C
   0.4925733333333333    0.7828000000000001    0.4172300000000000 C
   0.5243066666666667    0.9390100000000000    0.4500550000000000 C
   0.4879300000000000    0.7078300000000000    0.4560400000000000 C
   0.4802500000000000    0.8239700000000000    0.2186800000000000 C
   0.4868600000000000    0.7942900000000001    0.2641800000000000 C
   0.4787466666666667    0.8663900000000000    0.2989750000000000 C
   0.4619433333333333    0.9632800000000000    0.2861600000000000 C
   0.4558866666666667    0.9864300000000000    0.2399950000000000 C
   0.6116600000000000    0.0924600000000000    0.3731800000000000 C
   0.6154899999999999    0.0000000000000000    0.3670750000000000 C
   0.5007766666666666    0.4092300000000000    0.4042800000000000 C
   0.5261833333333333    0.3259300000000000    0.4047300000000000 C
   0.6159566666666667    0.4652800000000000    0.0972850000000000 C
   0.6265200000000000    0.5208300000000000    0.1655550000000000 C
   0.5941600000000000    0.4752600000000000    0.1673550000000000 C
   0.6464266666666667    0.5736100000000000    0.1999450000000000 C
   0.5689033333333333    0.4584900000000000    0.2062600000000000 C
   0.6078100000000000    0.4342900000000000    0.4690350000000000 C
   0.5977433333333333    0.4557000000000000    0.0143700000000000 C
   0.6227066666666666    0.4363100000000000    0.0491050000000000 C
   0.6561266666666666    0.3893000000000000    0.0364500000000000 C
   0.6639100000000000    0.3690500000000000    0.4904750000000000 C
   0.3632233333333333    0.8338900000000000    0.1225150000000000 C
   0.3333333333333333    0.8458800000000000    0.1169850000000000 C
   0.4689400000000000    0.5059800000000000    0.1543350000000000 C
   0.4414500000000000    0.5833700000000001    0.1544250000000000 C
   0.5115333333333333    0.1534100000000000    0.1525900000000000 C
   0.4925300000000000    0.1219700000000000    0.0844150000000000 C
   0.5068233333333333    0.2186500000000000    0.0828600000000000 C
   0.4749366666666667    0.0627900000000000    0.0500050000000000 C
   0.5112866666666667    0.2941200000000000    0.0441800000000000 C
   0.5196466666666666    0.1759900000000000    0.2812400000000000 C
   0.5129800000000000    0.2058300000000000    0.2357700000000000 C
   0.5211666666666667    0.1339700000000000    0.2008950000000000 C
   0.5380666666666667    0.0371500000000000    0.2136150000000000 C
   0.5441700000000000    0.0138400000000000    0.2597650000000000 C
   0.3882700000000000    0.9074800000000000    0.1269550000000000 C
   0.3844200000000000    0.0199600000000000    0.1336000000000000 C
   0.4995466666666666    0.5917000000000000    0.0962200000000000 C
   0.4740733333333333    0.6748100000000000    0.0956100000000000 C
   0.5841066666666666    0.2458500000000000    0.3751900000000000 C
   0.5559266666666667    0.3297000000000000    0.3750050000000000 C
   0.4158600000000000    0.7541700000000000    0.1244650000000000 C
   0.4440499999999999    0.6703600000000000    0.1248000000000000 C
   0.7174699999999999    0.5348900000000000    0.4020600000000000 C
   0.7073433333333333    0.4779800000000000    0.3339350000000000 C
   0.7397366666666666    0.5233100000000001    0.3322800000000000 C
   0.6876833333333333    0.4243700000000000    0.2996050000000000 C
   0.7652166666666667    0.5394300000000000    0.2935750000000000 C
   0.7254066666666666    0.5666300000000000    0.0301850000000000 C
   0.7355100000000000    0.5448800000000000    0.4849150000000000 C
   0.7106066666666666    0.5643700000000000    0.4501150000000000 C
   0.6771800000000000    0.6115400000000000    0.4626050000000000 C
   0.6693399999999999    0.6320400000000000    0.0085350000000000 C
   0.9700633333333333    0.1660500000000000    0.3773650000000000 C
   0.6756566666666667    0.1540800000000000    0.3830600000000000 C
   0.8642799999999999    0.4939100000000000    0.3454300000000000 C
   0.8917033333333333    0.4163400000000000    0.3451550000000000 C
   0.8216166666666667    0.8471700000000000    0.3473250000000000 C
   0.8401700000000000    0.8795300000000000    0.4156250000000000 C
   0.8259066666666666    0.7828000000000001    0.4172300000000000 C
   0.8576400000000000    0.9390100000000000    0.4500550000000000 C
   0.8212633333333332    0.7078300000000000    0.4560400000000000 C
   0.8135833333333333    0.8239700000000000    0.2186800000000000 C
   0.8201933333333333    0.7942900000000001    0.2641800000000000 C
   0.8120799999999999    0.8663900000000000    0.2989750000000000 C
   0.7952766666666666    0.9632800000000000    0.2861600000000000 C
   0.7892199999999999    0.9864300000000000    0.2399950000000000 C
   0.9449933333333334    0.0924600000000000    0.3731800000000000 C
   0.9488233333333332    0.0000000000000000    0.3670750000000000 C
   0.8341099999999999    0.4092300000000000    0.4042800000000000 C
   0.8595166666666666    0.3259300000000000    0.4047300000000000 C
   0.9492900000000000    0.4652800000000000    0.0972850000000000 C
   0.9598533333333332    0.5208300000000000    0.1655550000000000 C
   0.9274933333333333    0.4752600000000000    0.1673550000000000 C
   0.9797600000000000    0.5736100000000000    0.1999450000000000 C
   0.9022366666666666    0.4584900000000000    0.2062600000000000 C
   0.9411433333333332    0.4342900000000000    0.4690350000000000 C
   0.9310766666666666    0.4557000000000000    0.0143700000000000 C
   0.9560400000000000    0.4363100000000000    0.0491050000000000 C
   0.9894600000000000    0.3893000000000000    0.0364500000000000 C
   0.9972433333333333    0.3690500000000000    0.4904750000000000 C
   0.6965566666666666    0.8338900000000000    0.1225150000000000 C
   0.6666666666666666    0.8458800000000000    0.1169850000000000 C
   0.8022733333333333    0.5059800000000000    0.1543350000000000 C
   0.7747833333333333    0.5833700000000001    0.1544250000000000 C
   0.8448666666666667    0.1534100000000000    0.1525900000000000 C
   0.8258633333333333    0.1219700000000000    0.0844150000000000 C
   0.8401566666666667    0.2186500000000000    0.0828600000000000 C
   0.8082699999999999    0.0627900000000000    0.0500050000000000 C
   0.8446199999999999    0.2941200000000000    0.0441800000000000 C
   0.8529800000000000    0.1759900000000000    0.2812400000000000 C
   0.8463133333333333    0.2058300000000000    0.2357700000000000 C
   0.8544999999999999    0.1339700000000000    0.2008950000000000 C
   0.8714000000000000    0.0371500000000000    0.2136150000000000 C
   0.8775033333333333    0.0138400000000000    0.2597650000000000 C
   0.7216033333333333    0.9074800000000000    0.1269550000000000 C
   0.7177533333333332    0.0199600000000000    0.1336000000000000 C
   0.8328800000000000    0.5917000000000000    0.0962200000000000 C
   0.8074066666666666    0.6748100000000000    0.0956100000000000 C
   0.9174399999999999    0.2458500000000000    0.3751900000000000 C
   0.8892599999999999    0.3297000000000000    0.3750050000000000 C
   0.7491933333333333    0.7541700000000000    0.1244650000000000 C
   0.7773833333333333    0.6703600000000000    0.1248000000000000 C
   0.0508033333333333    0.5348900000000000    0.9020600000000000 C
   0.0406766666666667    0.4779800000000000    0.8339350000000000 C
   0.0730700000000000    0.5233100000000001    0.8322800000000000 C
   0.0210166666666667    0.4243700000000000    0.7996050000000000 C
   0.0985500000000000    0.5394300000000000    0.7935749999999999 C
   0.0587400000000000    0.5666300000000000    0.5301850000000000 C
   0.0688433333333333    0.5448800000000000    0.9849150000000000 C
   0.0439400000000000    0.5643700000000000    0.9501150000000000 C
   0.0105133333333333    0.6115400000000000    0.9626049999999999 C
   0.0026733333333333    0.6320400000000000    0.5085350000000000 C
   0.3033966666666666    0.1660500000000000    0.8773650000000000 C
   0.0089900000000000    0.1540800000000000    0.8830600000000000 C
   0.1976133333333333    0.4939100000000000    0.8454300000000000 C
   0.2250366666666667    0.4163400000000000    0.8451550000000000 C
   0.1549500000000000    0.8471700000000000    0.8473250000000000 C
   0.1735033333333333    0.8795300000000000    0.9156250000000000 C
   0.1592400000000000    0.7828000000000001    0.9172300000000000 C
   0.1909733333333333    0.9390100000000000    0.9500550000000000 C
   0.1545966666666667    0.7078300000000000    0.9560400000000000 C
   0.1469166666666666    0.8239700000000000    0.7186800000000000 C
   0.1535266666666666    0.7942900000000001    0.7641800000000001 C
   0.1454133333333333    0.8663900000000000    0.7989750000000000 C
   0.1286100000000000    0.9632800000000000    0.7861600000000000 C
   0.1225533333333333    0.9864300000000000    0.7399950000000000 C
   0.2783266666666667    0.0924600000000000    0.8731800000000001 C
   0.2821566666666666    0.0000000000000000    0.8670750000000000 C
   0.1674433333333333    0.4092300000000000    0.9042800000000000 C
   0.1928500000000000    0.3259300000000000    0.9047300000000000 C
   0.2826233333333333    0.4652800000000000    0.5972850000000000 C
   0.2931866666666667    0.5208300000000000    0.6655550000000000 C
   0.2608266666666667    0.4752600000000000    0.6673550000000000 C
   0.3130933333333333    0.5736100000000000    0.6999450000000000 C
   0.2355700000000000    0.4584900000000000    0.7062600000000000 C
   0.2744766666666666    0.4342900000000000    0.9690350000000000 C
   0.2644100000000000    0.4557000000000000    0.5143700000000000 C
   0.2893733333333333    0.4363100000000000    0.5491050000000000 C
   0.3227933333333333    0.3893000000000000    0.5364500000000000 C
   0.3305766666666666    0.3690500000000000    0.9904750000000000 C
   0.0298900000000000    0.8338900000000000    0.6225150000000000 C
   0.0000000000000000    0.8458800000000000    0.6169850000000000 C
   0.1356066666666667    0.5059800000000000    0.6543350000000000 C
   0.1081166666666667    0.5833700000000001    0.6544250000000000 C
   0.1782000000000000    0.1534100000000000    0.6525900000000000 C
   0.1591966666666667    0.1219700000000000    0.5844150000000000 C