H2 O2
1.0
  23.4719467898683689    0.0000000000000000    0.0499789314406174
   5.8541560154578720   12.5511135102154174    3.2654016598829618
   0.0000000000000000    0.0000000000000000   28.6999999999999993
H O
2 2
direct
   0.2103497414291060    0.7720384701263742    0.4332158035500736 H
   0.9049666844462350    0.3448136241592626    0.4442339245910173 H
   0.1999450000000000    0.7111800000000000    0.4361050000000000 O
   0.8601400000000000    0.3610800000000000    0.4420250000000000 O
