Zn4 H40 C56 N4 O16
1.0
  12.9610917780578383    0.0000000000000000    2.6737344521776123
   0.0830982000988271   13.1982889058009984    1.4226347557087959
   0.0000000000000000    0.0000000000000000   14.0030000000000001
Zn H C N O
4 40 56 4 16
direct
   0.8533500000000001    0.6710100000000000    0.3254200000000000 Zn
   0.8795200000000000    0.6755100000000001    0.1201900000000000 Zn
   0.1466500000000000    0.3290000000000000    0.6746100000000000 Zn
   0.1204800000000000    0.3245000000000000    0.8798400000000000 Zn
   0.5168199999999999    0.6641700000000000    0.4147200000000000 H
   0.3261000000000000    0.6625400000000000    0.4294900000000000 H
   0.5617100000000000    0.6766900000000000    0.1016200000000000 H
   0.2190900000000000    0.6806800000000000    0.0349200000000000 H
   0.4090800000000000    0.6798800000000000    0.0213000000000000 H
   0.1730000000000000    0.6678900000000000    0.3485200000000000 H
   0.8576257662837159    0.8589865180256487    0.3494650981613017 H
   0.8814344362755161    0.8659896887778429    0.0598859465952444 H
   0.8697476749524384    0.8730926225669572    0.2031215476663253 H
   0.8964189802394881    0.4876766597707414    0.0936340458573983 H
   0.8440929210961211    0.4799408411159888    0.3857075428342084 H
   0.8703774145481326    0.4733936624616436    0.2410898674740492 H
   0.8766000000000000    0.8381100000000000    0.7719300000000000 H
   0.8529099999999999    0.5112400000000000    0.8124900000000000 H
   0.8700200000000000    0.5185200000000000    0.9851600000000000 H
   0.8842500000000000    0.8316900000000000    0.9486900000000000 H
   0.7871100000000000    0.8212400000000000    0.6551399999999999 H
   0.9275300000000000    0.5223000000000000    0.6569900000000000 H
   0.9120500000000000    0.5254500000000000    0.4822900000000000 H
   0.7852900000000000    0.8134900000000000    0.4780900000000000 H
   0.1075900000000000    0.9991300000000000    0.9636700000000000 H
   0.1047900000000000    0.8107300000000000    0.9819000000000000 H
   0.1462900000000000    0.0056900000000000    0.6513500000000000 H
   0.1519400000000000    0.6543600000000001    0.5929700000000000 H
   0.1546200000000000    0.8430000000000000    0.5745700000000000 H
   0.1160700000000000    0.6489300000000000    0.9050900000000000 H
   0.8270000000000000    0.3321100000000000    0.6515100000000000 H
   0.7809100000000000    0.3193300000000000    0.9651100000000000 H
   0.5909200000000000    0.3201300000000000    0.9787400000000001 H
   0.4831800000000000    0.3358400000000000    0.5853100000000000 H
   0.6739000000000001    0.3374700000000000    0.5705400000000000 H
   0.4382900000000000    0.3233300000000000    0.8984100000000000 H
   0.1234100000000000    0.1619000000000000    0.2281000000000000 H
   0.1470900000000000    0.4887800000000000    0.1875500000000000 H
   0.1157400000000000    0.1683200000000000    0.0513400000000000 H
   0.1299800000000000    0.4814900000000000    0.0148800000000000 H
   0.2129000000000000    0.1787700000000000    0.3448900000000000 H
   0.0724700000000000    0.4777100000000000    0.3430400000000000 H
   0.0879500000000000    0.4745600000000000    0.5177400000000000 H
   0.2147100000000000    0.1865200000000000    0.5219400000000000 H
   0.6647999999999999    0.6726300000000000    0.2482800000000000 C
   0.0699500000000000    0.6729200000000000    0.2011900000000000 C
   0.4827800000000000    0.6669100000000000    0.3498900000000000 C
   0.3774000000000000    0.6661600000000000    0.3575900000000000 C
   0.5091400000000000    0.6738900000000000    0.1726400000000000 C
   0.5498800000000000    0.6710900000000000    0.2565300000000000 C
   0.4012600000000000    0.6736700000000000    0.1780200000000000 C
   0.2522600000000000    0.6778100000000000    0.1002200000000000 C
   0.3575100000000000    0.6772899999999999    0.0929500000000000 C
   0.2256200000000000    0.6703300000000000    0.2775300000000000 C
   0.1847900000000000    0.6742400000000000    0.1934300000000000 C
   0.3334900000000000    0.6699300000000000    0.2725600000000000 C
   0.8717800000000000    0.7653700000000000    0.8165600000000000 C
   0.8619200000000000    0.5840800000000000    0.8384100000000000 C
   0.8698000000000000    0.5872600000000000    0.9352500000000000 C
   0.8777600000000000    0.7628200000000001    0.9146100000000000 C
   0.8638900000000000    0.6743400000000001    0.7761500000000000 C
   0.8179000000000000    0.7547100000000000    0.6196100000000000 C
   0.8935800000000000    0.5882200000000000    0.6216000000000000 C
   0.8869800000000000    0.5896400000000001    0.5238200000000000 C
   0.8151500000000000    0.7508300000000000    0.5214900000000000 C
   0.8584800000000000    0.6725600000000000    0.6720000000000000 C
   0.1302400000000000    0.1271000000000000    0.7960800000000000 C
   0.1317800000000000    0.5269300000000000    0.7596700000000000 C
   0.1165900000000000    0.9574800000000000    0.8996100000000000 C
   0.1158700000000000    0.8531800000000000    0.9094300000000000 C
   0.1381000000000000    0.9621300000000000    0.7230200000000000 C
   0.1283900000000000    0.0133000000000000    0.8056200000000000 C
   0.1375700000000000    0.8549700000000000    0.7303900000000000 C
   0.1449700000000000    0.6963600000000000    0.6566600000000000 C
   0.1464600000000000    0.8005600000000000    0.6469200000000001 C
   0.1256800000000000    0.6918000000000000    0.8330500000000000 C
   0.1342400000000000    0.6406100000000000    0.7506100000000000 C
   0.1270900000000000    0.7989900000000000    0.8255800000000000 C
   0.3352000000000000    0.3273800000000000    0.7517500000000000 C
   0.9300500000000000    0.3271000000000000    0.7988499999999999 C
   0.7743800000000000    0.3296800000000000    0.7225000000000000 C
   0.8152100000000000    0.3257600000000000    0.8066000000000000 C
   0.6665100000000000    0.3300800000000000    0.7274700000000000 C
   0.7477400000000000    0.3222000000000000    0.8998200000000000 C
   0.6424900000000000    0.3227200000000000    0.9070800000000000 C
   0.5172200000000000    0.3331000000000000    0.6501400000000001 C
   0.6226000000000000    0.3338500000000000    0.6424400000000000 C
   0.4908600000000000    0.3261200000000000    0.8274000000000000 C
   0.4501200000000000    0.3289300000000000    0.7435100000000000 C
   0.5987400000000000    0.3263500000000000    0.8220200000000000 C
   0.1282200000000000    0.2346400000000000    0.1834700000000000 C
   0.1380800000000000    0.4159300000000000    0.1616200000000000 C
   0.1222400000000000    0.2371900000000000    0.0854300000000000 C
   0.1302000000000000    0.4127500000000000    0.0647800000000000 C
   0.1361100000000000    0.3256800000000000    0.2238800000000000 C
   0.1821000000000000    0.2453000000000000    0.3804200000000000 C
   0.1064200000000000    0.4117900000000000    0.3784300000000000 C
   0.1130200000000000    0.4103800000000000    0.4762100000000000 C
   0.1848500000000000    0.2491800000000000    0.4785400000000000 C
   0.1415200000000000    0.3274500000000000    0.3280300000000000 C
   0.8776900000000000    0.6752600000000000    0.9732200000000000 N
   0.8493800000000000    0.6696700000000000    0.4738200000000000 N
   0.1223100000000000    0.3247600000000000    0.0268100000000000 N
   0.1506200000000000    0.3303400000000000    0.5262100000000000 N
   0.7203100000000000    0.6708400000000000    0.1629000000000000 O
   0.6979900000000000    0.6755400000000000    0.3273500000000000 O
   0.0143300000000000    0.6621500000000000    0.2872600000000000 O
   0.0367200000000000    0.6804500000000000    0.1212600000000000 O
   0.8622500000000000    0.8267500000000000    0.2897400000000000 O
   0.8757800000000000    0.8310400000000000    0.1252100000000000 O
   0.8843600000000000    0.5194500000000000    0.1542000000000000 O
   0.8546700000000000    0.5147800000000000    0.3199800000000000 O
   0.1242200000000000    0.1689700000000000    0.8748300000000000 O
   0.1377500000000000    0.1732600000000000    0.7103000000000000 O
   0.1156400000000000    0.4805600000000000    0.8458300000000000 O
   0.1453400000000000    0.4852400000000000    0.6800500000000000 O
   0.2796900000000000    0.3291700000000000    0.8371300000000000 O
   0.3020100000000000    0.3244700000000000    0.6726900000000000 O
   0.9632800000000000    0.3195600000000000    0.8787800000000000 O
   0.0000000000000000    0.3378600000000000    0.7127800000000000 O
