H4 O2
1.0
  12.9610917780578383    0.0000000000000000    2.6737344521776123
   0.0830982000988271   13.1982889058009984    1.4226347557087959
   0.0000000000000000    0.0000000000000000   14.0030000000000001
H O
4 2
direct
   0.1280325874760362    0.3885788177460611    0.0543494989182627 H
   0.1222592308750977    0.2612478247471964    0.0693255157396294 H
   0.1233370993045637    0.3884177492463489    0.4899295469475581 H
   0.1754733858969499    0.2714121355712401    0.4915982294563950 H
   0.1223100000000000    0.3247600000000000    0.0268100000000000 O
   0.1506200000000000    0.3303400000000000    0.5262100000000000 O
