H7 O5
1.0
  32.4909457600698417    0.0000000000000000   18.6959524928846363
   5.3871015228105126   15.3286198684251698    9.3881720857818625
   0.0000000000000000    0.0000000000000000   37.5240000000000009
H O
7 5
direct
   0.7099486226993638    0.9766998332378477    0.0772875259791576 H
   0.7696141079177212   -0.0253780276546167    0.1640986052925829 H
   0.6864872285943310   -0.0068734944856884    0.2408985241745729 H
   0.6642494890410761    0.9742849079137252    0.2693829619893057 H
   0.7145704916232256    0.9726155405595465    0.2143295801547465 H
   0.5896076048100928   -0.0172756613138007    0.1901740933168174 H
   0.5837121820661954    0.9819686844514561    0.2615187110306028 H
   0.6931200000000000    0.9789099999999999    0.0633000000000000 O
   0.7538950000000000   -0.0203700000000000    0.1929900000000000 O
   0.6931499999999999    0.9794400000000000    0.2537000000000000 O
   0.5631850000000000   -0.0201400000000000    0.1929000000000000 O
   0.5633700000000000    0.9797800000000000    0.2536000000000000 O
