H3 C9 O6
1.0
  32.4909457600698417    0.0000000000000000   18.6959524928846363
   5.3871015228105126   15.3286198684251698    9.3881720857818625
   0.0000000000000000    0.0000000000000000   37.5240000000000009
H C O
3 9 6
direct
   0.7478600000000000    0.9720700000000000    0.1329850000000000 H
   0.6329600000000000    0.9722200000000000    0.1329100000000000 H
   0.6329150000000000    0.9733900000000000    0.2474100000000000 H
   0.6283449999999999    0.9715000000000000    0.1927850000000000 C
   0.6930200000000000    0.9709100000000001    0.1283500000000000 C
   0.6930200000000000    0.9713700000000000    0.1928350000000000 C
   0.5815200000000000    0.9768400000000000    0.2148650000000000 C
   0.7151400000000000    0.9765900000000000    0.2149500000000000 C
   0.7151250000000000    0.9760200000000000    0.0815900000000000 C
   0.6499100000000000    0.9716100000000000    0.2142850000000000 C
   0.6499250000000000    0.9710100000000000    0.1498400000000000 C
   0.7145850000000000    0.9709100000000001    0.1498900000000000 C
   0.5633700000000000    0.9797800000000000    0.2536000000000000 O
   0.7538950000000000   -0.0203700000000000    0.1929900000000000 O
   0.6931200000000000    0.9789099999999999    0.0633000000000000 O
   0.5631850000000000   -0.0201400000000000    0.1929000000000000 O
   0.7538800000000000    0.9791100000000000    0.0633750000000000 O
   0.6931499999999999    0.9794400000000000    0.2537000000000000 O
