H9 O6
1.0
  26.2614283190653524    0.0000000000000000   -0.0093961424050562
  -0.0007237043592230    9.0103899309183966   -0.0008492092496402
   0.0000000000000000    0.0000000000000000   29.7979999999999983
H O
9 6
direct
   0.3891600888003084    0.3176332076763815    0.4464521817053834 H
   0.3839306321246916    0.3179468135963673    0.4978518583879525 H
   0.4376570264685841    0.1711634306649080    0.6197988467726815 H
   0.4306666850257342    0.5100420416383076    0.6879491596077961 H
   0.4233614920962558    0.3575558547821310    0.6476176752587821 H
   0.4502296898227512   -0.0879616058432464    0.6298200042508549 H
   0.3816908928376784   -0.0833630776484879    0.5736748475233754 H
   0.4045997410224741   -0.1967010719521180    0.4676210061400666 H
   0.4168945587284328   -0.0344284529120261    0.7319675468328731 H
   0.3823833333333333    0.4211600000000000    0.4530850000000000 O
   0.3778066666666666    0.2126100000000000    0.4938450000000000 O
   0.4556300000000000    0.2120300000000000    0.6454200000000000 O
   0.4506966666666666    0.4197100000000000    0.6865850000000000 O
   0.4454166666666666   -0.0988000000000000    0.5977100000000000 O
   0.3884200000000000   -0.0985500000000000    0.5420000000000000 O
