H4 O2
1.0
  38.1350477196735085    0.0000000000000000   -9.0491862296133956
  -4.0937048844298971   13.2905001675936383   -3.1319659344233415
   0.0000000000000000    0.0000000000000000   28.5219999999999985
H O
4 2
direct
   0.8000889385205326    0.9134617179459532    0.6612340670647672 H
   0.7879340469221975    0.9204190374072081    0.7142369546489005 H
   0.9620502833670885    0.0801613380921376    0.7857718844168387 H
   0.9499052263991096    0.0856870514401291    0.8387168674695991 H
   0.7806649999999999    0.9030400000000000    0.6774750000000000 O
   0.9693250000000000    0.0968700000000000    0.8225150000000000 O
