H4 C10 S2 O4
1.0
  38.1350477196735085    0.0000000000000000   -9.0491862296133956
  -4.0937048844298971   13.2905001675936383   -3.1319659344233415
   0.0000000000000000    0.0000000000000000   28.5219999999999985
H C S O
4 10 2 4
direct
   0.7665999999999999    0.5457600000000000    0.6355200000000000 H
   0.7562500000000000    0.3523800000000000    0.6287199999999999 H
   0.6163450000000000    0.0005100000000000    0.5383650000000000 H
   0.6301550000000000    0.1867600000000000    0.5324500000000000 H
   0.7014000000000000    0.6107100000000000    0.6064500000000000 C
   0.7074800000000000    0.5126800000000000    0.6076350000000000 C
   0.7399350000000000    0.4893000000000000    0.6227750000000000 C
   0.7342950000000000    0.3863500000000000    0.6193850000000000 C
   0.6973150000000000    0.3307600000000000    0.6014500000000000 C
   0.6809350000000001    0.2246200000000000    0.5935049999999999 C
   0.6680450000000000    0.0470600000000000    0.5974300000000000 C
   0.6403750000000000    0.0618200000000000    0.5622650000000000 C
   0.6477050000000000    0.1616300000000000    0.5594700000000000 C
   0.6724600000000001    0.9509200000000000    0.6051500000000000 C
   0.6698150000000000    0.4074900000000000    0.5892950000000000 S
   0.7026749999999999    0.1587700000000000    0.6289650000000000 S
   0.7293300000000000    0.6872200000000001    0.6193400000000000 O
   0.7031300000000000    0.9547200000000000    0.6345600000000000 O
   0.6455100000000000    0.8719200000000000    0.5812850000000001 O
   0.6677450000000000    0.6095400000000000    0.5924150000000000 O
