H24 C25 N4 O4
1.0
  12.5630000000000006    0.0000000000000000    0.0000000000000008
   0.0017538464530456   12.5609998775584195    0.0000000000000008
   0.0000000000000000    0.0000000000000000   25.8279999999999994
H C N O
24 25 4 4
direct
   0.4417600000000000    0.4163800000000000    0.3718300000000000 H
   0.5913200000000000    0.4353100000000000    0.3079600000000000 H
   0.4873600000000000    0.1369700000000000    0.2407300000000000 H
   0.3483500000000000    0.1291700000000000    0.3089100000000000 H
   0.6723100000000000    0.1426300000000000    0.2197900000000000 H
   0.5838500000000000    0.2058500000000000    0.1740700000000000 H
   0.8256200000000000    0.0951500000000000    0.1549600000000000 H
   0.8433600000000000    0.1859100000000000    0.1027700000000000 H
   0.8884500000000000    0.9201100000000000    0.9872300000000001 H
   0.8832000000000000    0.0544200000000000    0.0583600000000000 H
   0.5431700000000000    0.9977600000000000    0.0677300000000000 H
   0.5653200000000000    0.8633800000000000    0.9972700000000000 H
   0.0582600000000000    0.0836300000000000    0.3718300000000000 H
   0.9087100000000000    0.0647000000000000    0.3079500000000000 H
   0.0126400000000000    0.3630400000000000    0.2407300000000000 H
   0.1516600000000000    0.3708400000000000    0.3089100000000000 H
   0.8277099999999999    0.3573800000000000    0.2197900000000000 H
   0.9161700000000000    0.2941700000000000    0.1740700000000000 H
   0.6744100000000000    0.4048700000000000    0.1549000000000000 H
   0.6566600000000000    0.3141000000000000    0.1027700000000000 H
   0.6115699999999999    0.5799500000000000    0.9872400000000000 H
   0.6168200000000000    0.4456100000000000    0.0583600000000000 H
   0.9568400000000000    0.5022799999999999    0.0677000000000000 H
   0.9347000000000000    0.6366500000000000    0.9972600000000000 H
   0.4564400000000000    0.3554200000000000    0.3425800000000000 C
   0.5381700000000000    0.3668100000000000    0.3069400000000000 C
   0.5524600000000000    0.2871200000000000    0.2693700000000000 C
   0.4824000000000000    0.2003100000000000    0.2693000000000000 C
   0.4034500000000000    0.1962600000000000    0.3071800000000000 C
   0.6543400000000000    0.2167300000000000    0.1988200000000000 C
   0.7859200000000000    0.1565900000000000    0.1314900000000000 C
   0.8134100000000000    0.9403100000000000    0.0063200000000000 C
   0.8099900000000000    0.0150300000000000    0.0461900000000000 C
   0.7109200000000000    0.0379000000000000    0.0686100000000000 C
   0.6209700000000000    0.9828600000000000    0.0506200000000000 C
   0.6334200000000000    0.9089400000000000    0.0112700000000000 C
   0.0435700000000000    0.1445900000000000    0.3425700000000000 C
   0.9618600000000000    0.1332100000000000    0.3069400000000000 C
   0.9475700000000000    0.2128900000000000    0.2693700000000000 C
   0.0176100000000000    0.2997100000000000    0.2690000000000000 C
   0.0965600000000000    0.3037500000000000    0.3071800000000000 C
   0.8456800000000000    0.2832800000000000    0.1988200000000000 C
   0.7141000000000000    0.3434300000000000    0.1314900000000000 C
   0.6866000000000000    0.5597500000000000    0.0063200000000000 C
   0.6900300000000000    0.4849900000000000    0.0461900000000000 C
   0.7891000000000000    0.4621100000000000    0.0686100000000000 C
   0.8790400000000000    0.5171900000000000    0.0506200000000000 C
   0.8665900000000000    0.5911000000000000    0.0112000000000000 C
   0.7500100000000000    0.2500100000000000    0.1655200000000000 C
   0.3898100000000000    0.2713700000000000    0.3436000000000000 N
   0.7276400000000000    0.8875400000000000    0.9885200000000000 N
   0.1102000000000000    0.2286400000000000    0.3436000000000000 N
   0.7723800000000000    0.6125100000000000    0.9885200000000000 N
   0.6342300000000000    0.3009000000000000    0.2357200000000000 O
   0.6937900000000000    0.1103600000000000    0.1067900000000000 O
   0.8657899999999999    0.1991200000000000    0.2357200000000000 O
   0.8062400000000000    0.3896600000000000    0.1067900000000000 O
