H6 O4
1.0
  31.9635480181380167    0.0000000000000000   18.3131057467646734
   5.3125227970883175   15.0833955978640120    9.1514427151544524
   0.0000000000000000    0.0000000000000000   36.8500000000000014
H O
6 4
direct
   0.4432180798115963    0.8866107509124960    0.7536819857793340 H
   0.4436709654269363    0.8869492445839888    0.8596969850077271 H
   0.4473315374967739    0.8945524238344397    0.8028091485411452 H
   0.5567798514161887    0.1133978417631761    0.7463076369074468 H
   0.5563216086414248    0.1130485486472001    0.6402618726003467 H
   0.5526599735589741    0.1054443657485161    0.6971636891798902 H
   0.4333650000000000    0.8667899999999999    0.7857950000000000 O
   0.4336300000000000    0.8669900000000000    0.8474650000000000 O
   0.5666300000000000    0.1332100000000000    0.7141950000000000 O
   0.5663600000000000    0.1330000000000000    0.6525000000000000 O
