Zn32 H92 C184 O100
1.0
  31.9635480181380167    0.0000000000000000   18.3131057467646734
   5.3125227970883175   15.0833955978640120    9.1514427151544524
   0.0000000000000000    0.0000000000000000   36.8500000000000014
Zn H C O
32 92 184 100
direct
   0.1902300000000000    0.2067400000000000    0.1033700000000000 Zn
   0.1030750000000000    0.2063500000000000    0.1031700000000000 Zn
   0.1033600000000000    0.2067000000000000    0.1901800000000000 Zn
   0.3097600000000000    0.7932500000000000    0.3966200000000000 Zn
   0.3966350000000000    0.6196300000000000    0.3966450000000000 Zn
   0.3969200000000000    0.7936400000000000    0.3968200000000000 Zn
   0.3966350000000000    0.7932900000000001    0.3098100000000000 Zn
   0.1033600000000000    0.3803700000000000    0.1033450000000000 Zn
   0.6902300000000000    0.2067400000000000    0.1033700000000000 Zn
   0.6030750000000000    0.2063500000000000    0.1031700000000000 Zn
   0.6033600000000000    0.2067000000000000    0.1901800000000000 Zn
   0.8097600000000000    0.7932500000000000    0.3966200000000000 Zn
   0.8966350000000001    0.6196300000000000    0.3966450000000000 Zn
   0.8969199999999999    0.7936400000000000    0.3968200000000000 Zn
   0.8966350000000001    0.7932900000000001    0.3098100000000000 Zn
   0.6033600000000000    0.3803700000000000    0.1033450000000000 Zn
   0.1902300000000000    0.2067400000000000    0.6033700000000000 Zn
   0.1030750000000000    0.2063500000000000    0.6031700000000000 Zn
   0.1033600000000000    0.2067000000000000    0.6901800000000000 Zn
   0.3097600000000000    0.7932500000000000    0.8966200000000000 Zn
   0.3966350000000000    0.6196300000000000    0.8966450000000000 Zn
   0.3969200000000000    0.7936400000000000    0.8968200000000000 Zn
   0.3966350000000000    0.7932900000000001    0.8098099999999999 Zn
   0.1033600000000000    0.3803700000000000    0.6033450000000000 Zn
   0.6902300000000000    0.2067400000000000    0.6033700000000000 Zn
   0.6030750000000000    0.2063500000000000    0.6031700000000000 Zn
   0.6033600000000000    0.2067000000000000    0.6901800000000000 Zn
   0.8097600000000000    0.7932500000000000    0.8966200000000000 Zn
   0.8966350000000001    0.6196300000000000    0.8966450000000000 Zn
   0.8969199999999999    0.7936400000000000    0.8968200000000000 Zn
   0.8966350000000001    0.7932900000000001    0.8098099999999999 Zn
   0.6033600000000000    0.3803700000000000    0.6033450000000000 Zn
   0.0242950000000000    0.5678100000000000    0.0243050000000000 H
   0.2841050000000000    0.0481800000000000    0.1678550000000000 H
   0.0237700000000000    0.3357500000000000    0.0237950000000000 H
   0.1678050000000000    0.0482800000000000    0.2840250000000000 H
   0.0237750000000000    0.0476000000000000    0.1678650000000000 H
   0.2841050000000000    0.3357300000000000    0.0240850000000000 H
   0.0243000000000000    0.0486100000000000    0.2839000000000000 H
   0.1678050000000000    0.5680500000000001    0.0241450000000000 H
   0.0241150000000000    0.3357200000000000    0.2840200000000000 H
   0.2839550000000000    0.0485500000000000    0.0242750000000000 H
   0.0241150000000000    0.5680400000000000    0.1678550000000000 H
   0.1678200000000000    0.0476500000000000    0.0238200000000000 H
   0.2160350000000000    0.9514400000000000    0.4757200000000000 H
   0.4758800000000000    0.4319500000000000    0.3321350000000000 H
   0.3321700000000000    0.9523500000000000    0.4761700000000000 H
   0.4758800000000000    0.6642700000000000    0.2159700000000000 H
   0.4762200000000000    0.9524000000000000    0.3321250000000000 H
   0.3321850000000000    0.4319400000000000    0.4758450000000000 H
   0.4756950000000000    0.9513900000000000    0.2160900000000000 H
   0.2158900000000000    0.6642700000000000    0.4759050000000000 H
   0.3321900000000000    0.9517200000000000    0.2159650000000000 H
   0.4756950000000000    0.4321800000000000    0.4756500000000000 H
   0.2158850000000000    0.9518200000000000    0.3321350000000000 H
   0.4762200000000000    0.6642500000000000    0.4762000000000000 H
   0.5242950000000000    0.5678100000000000    0.0243050000000000 H
   0.7841050000000001    0.0481800000000000    0.1678550000000000 H
   0.5237700000000000    0.3357500000000000    0.0237950000000000 H
   0.6678050000000000    0.0482800000000000    0.2840250000000000 H
   0.5237750000000000    0.0476000000000000    0.1678650000000000 H
   0.7841050000000001    0.3357300000000000    0.0240850000000000 H
   0.5243000000000000    0.0486100000000000    0.2839000000000000 H
   0.6678050000000000    0.5680500000000001    0.0241450000000000 H
   0.5241150000000000    0.3357200000000000    0.2840200000000000 H
   0.7839550000000000    0.0485500000000000    0.0242750000000000 H
   0.5241150000000000    0.5680400000000000    0.1678550000000000 H
   0.6678200000000000    0.0476500000000000    0.0238200000000000 H
   0.7160350000000000    0.9514400000000000    0.4757200000000000 H
   0.9758800000000001    0.4319500000000000    0.3321350000000000 H
   0.8321700000000001    0.9523500000000000    0.4761700000000000 H
   0.9758800000000001    0.6642700000000000    0.2159700000000000 H
   0.9762200000000000    0.9524000000000000    0.3321250000000000 H
   0.8321850000000000    0.4319400000000000    0.4758450000000000 H
   0.9756950000000000    0.9513900000000000    0.2160900000000000 H
   0.7158900000000000    0.6642700000000000    0.4759050000000000 H
   0.8321900000000000    0.9517200000000000    0.2159650000000000 H
   0.9756950000000000    0.4321800000000000    0.4756500000000000 H
   0.7158850000000000    0.9518200000000000    0.3321350000000000 H
   0.9762200000000000    0.6642500000000000    0.4762000000000000 H
   0.0242950000000000    0.5678100000000000    0.5243050000000000 H
   0.2841050000000000    0.0481800000000000    0.6678550000000000 H
   0.0237700000000000    0.3357500000000000    0.5237950000000000 H
   0.1678050000000000    0.0482800000000000    0.7840250000000000 H
   0.0237750000000000    0.0476000000000000    0.6678649999999999 H
   0.2841050000000000    0.3357300000000000    0.5240850000000000 H
   0.0243000000000000    0.0486100000000000    0.7839000000000000 H
   0.1678050000000000    0.5680500000000001    0.5241450000000000 H
   0.0241150000000000    0.3357200000000000    0.7840199999999999 H
   0.2839550000000000    0.0485500000000000    0.5242750000000000 H
   0.0241150000000000    0.5680400000000000    0.6678550000000000 H
   0.1678200000000000    0.0476500000000000    0.5238200000000000 H
   0.2160350000000000    0.9514400000000000    0.9757199999999999 H
   0.4758800000000000    0.4319500000000000    0.8321350000000001 H
   0.3321700000000000    0.9523500000000000    0.9761700000000000 H
   0.4758800000000000    0.6642700000000000    0.7159700000000000 H
   0.3321850000000000    0.4319400000000000    0.9758450000000001 H
   0.2158900000000000    0.6642700000000000    0.9759050000000000 H
   0.3321900000000000    0.9517200000000000    0.7159650000000000 H
   0.4756950000000000    0.4321800000000000    0.9756500000000000 H
   0.2158850000000000    0.9518200000000000    0.8321350000000001 H
   0.4762200000000000    0.6642500000000000    0.9762000000000000 H
   0.5242950000000000    0.5678100000000000    0.5243050000000000 H
   0.7841050000000001    0.0481800000000000    0.6678550000000000 H
   0.5237700000000000    0.3357500000000000    0.5237950000000000 H
   0.6678050000000000    0.0482800000000000    0.7840250000000000 H
   0.7841050000000001    0.3357300000000000    0.5240850000000000 H
   0.6678050000000000    0.5680500000000001    0.5241450000000000 H
   0.5241150000000000    0.3357200000000000    0.7840199999999999 H
   0.7839550000000000    0.0485500000000000    0.5242750000000000 H
   0.5241150000000000    0.5680400000000000    0.6678550000000000 H
   0.6678200000000000    0.0476500000000000    0.5238200000000000 H
   0.7160350000000000    0.9514400000000000    0.9757199999999999 H
   0.9758800000000001    0.4319500000000000    0.8321350000000001 H
   0.8321700000000001    0.9523500000000000    0.9761700000000000 H
   0.9758800000000001    0.6642700000000000    0.7159700000000000 H
   0.9762200000000000    0.9524000000000000    0.8321250000000000 H
   0.8321850000000000    0.4319400000000000    0.9758450000000001 H
   0.9756950000000000    0.9513900000000000    0.7160900000000000 H
   0.7158900000000000    0.6642700000000000    0.9759050000000000 H
   0.8321900000000000    0.9517200000000000    0.7159650000000000 H
   0.9756950000000000    0.4321800000000000    0.9756500000000000 H
   0.7158850000000000    0.9518200000000000    0.8321350000000001 H
   0.9762200000000000    0.6642500000000000    0.9762000000000000 H
   0.0134600000000000    0.5388700000000000    0.0134650000000000 C
   0.2695550000000000    0.0266900000000000    0.2038400000000000 C
   0.0131650000000000    0.4077000000000000    0.0131800000000000 C
   0.2038100000000000    0.0267500000000000    0.2695100000000000 C
   0.0131650000000000    0.0263700000000000    0.2038450000000000 C
   0.2695550000000000    0.4076900000000000    0.0133500000000000 C
   0.0134600000000000    0.0269300000000000    0.2694300000000000 C
   0.2038150000000000    0.5390200000000001    0.0133800000000000 C
   0.0133650000000000    0.4076900000000000    0.2695100000000000 C
   0.2694600000000000    0.0269000000000000    0.0134500000000000 C
   0.0133650000000000    0.5390200000000001    0.2038400000000000 C
   0.2038200000000000    0.0263900000000000    0.0131950000000000 C
   0.2305350000000000    0.9731000000000000    0.4865450000000000 C
   0.4866300000000000    0.4609800000000000    0.2961500000000000 C
   0.2961750000000000    0.9736000000000000    0.4867950000000000 C
   0.4866300000000000    0.5923100000000000    0.2304850000000000 C
   0.4868300000000000    0.9736300000000000    0.2961450000000000 C
   0.2961800000000000    0.4609700000000000    0.4866150000000000 C
   0.4865350000000000    0.9730700000000000    0.2305600000000000 C
   0.2304400000000000    0.5923100000000000    0.4866450000000000 C
   0.2961800000000000    0.9732400000000000    0.2304500000000000 C
   0.4865350000000000    0.4611300000000000    0.4865250000000000 C
   0.2304400000000000    0.9733000000000001    0.2961500000000000 C
   0.4868300000000000    0.5923000000000000    0.4868100000000000 C
   0.0554550000000000    0.3888300000000000    0.0554950000000000 C
   0.0268050000000000    0.4462300000000000    0.0268000000000000 C
   0.1945550000000000    0.1112700000000000    0.1945350000000000 C
   0.2232000000000000    0.0538100000000000    0.2231850000000000 C
   0.0554550000000000    0.1110000000000000    0.1944100000000000 C
   0.0268000000000000    0.0536500000000000    0.2231100000000000 C
   0.1945550000000000    0.3890700000000000    0.0556350000000000 C
   0.2232000000000000    0.4463800000000000    0.0268900000000000 C
   0.0556250000000000    0.3890600000000000    0.1945300000000000 C
   0.0268900000000000    0.4463800000000000    0.2231850000000000 C
   0.1944050000000000    0.1109900000000000    0.0554950000000000 C
   0.2231100000000000    0.0536500000000000    0.0268200000000000 C
   0.3055900000000000    0.8890000000000000    0.4444950000000000 C
   0.2768850000000000    0.9463400000000000    0.4731700000000000 C
   0.4443700000000000    0.6109300000000000    0.3054500000000000 C
   0.4731050000000000    0.5536200000000000    0.2768050000000000 C
   0.4445400000000000    0.8890000000000000    0.3055800000000000 C
   0.4731900000000000    0.9463400000000000    0.2768850000000000 C
   0.3054400000000000    0.6109200000000000    0.4443550000000000 C
   0.2767900000000000    0.5536200000000000    0.4731000000000000 C
   0.3054400000000000    0.8887200000000000    0.3054500000000000 C
   0.2767950000000000    0.9462000000000000    0.2768050000000000 C
   0.4445400000000000    0.6111700000000000    0.4444950000000000 C
   0.4731850000000000    0.5537700000000000    0.4731700000000000 C
   0.5134600000000000    0.5388700000000000    0.0134650000000000 C
   0.7695550000000000    0.0266900000000000    0.2038400000000000 C
   0.5131650000000000    0.4077000000000000    0.0131800000000000 C
   0.7038100000000000    0.0267500000000000    0.2695100000000000 C
   0.5131650000000000    0.0263700000000000    0.2038450000000000 C
   0.7695550000000000    0.4076900000000000    0.0133500000000000 C
   0.5134600000000000    0.0269300000000000    0.2694300000000000 C
   0.7038150000000000    0.5390200000000001    0.0133800000000000 C
   0.5133650000000000    0.4076900000000000    0.2695100000000000 C
   0.7694600000000000    0.0269000000000000    0.0134500000000000 C
   0.5133650000000000    0.5390200000000001    0.2038400000000000 C
   0.7038200000000000    0.0263900000000000    0.0131950000000000 C
   0.7305349999999999    0.9731000000000000    0.4865450000000000 C
   0.9866300000000000    0.4609800000000000    0.2961500000000000 C
   0.7961750000000001    0.9736000000000000    0.4867950000000000 C
   0.9866300000000000    0.5923100000000000    0.2304850000000000 C
   0.9868300000000000    0.9736300000000000    0.2961450000000000 C
   0.7961800000000000    0.4609700000000000    0.4866150000000000 C
   0.9865349999999999    0.9730700000000000    0.2305600000000000 C
   0.7304400000000000    0.5923100000000000    0.4866450000000000 C
   0.7961800000000000    0.9732400000000000    0.2304500000000000 C
   0.9865349999999999    0.4611300000000000    0.4865250000000000 C
   0.7304400000000000    0.9733000000000001    0.2961500000000000 C
   0.9868300000000000    0.5923000000000000    0.4868100000000000 C
   0.5554550000000000    0.3888300000000000    0.0554950000000000 C
   0.5268050000000000    0.4462300000000000    0.0268000000000000 C
   0.6945550000000000    0.1112700000000000    0.1945350000000000 C
   0.7232000000000001    0.0538100000000000    0.2231850000000000 C
   0.5554550000000000    0.1110000000000000    0.1944100000000000 C
   0.5268000000000000    0.0536500000000000    0.2231100000000000 C
   0.6945550000000000    0.3890700000000000    0.0556350000000000 C
   0.7232000000000001    0.4463800000000000    0.0268900000000000 C
   0.5556250000000000    0.3890600000000000    0.1945300000000000 C
   0.5268900000000000    0.4463800000000000    0.2231850000000000 C
   0.6944049999999999    0.1109900000000000    0.0554950000000000 C
   0.7231100000000000    0.0536500000000000    0.0268200000000000 C
   0.8055900000000000    0.8890000000000000    0.4444950000000000 C
   0.7768850000000000    0.9463400000000000    0.4731700000000000 C
   0.9443699999999999    0.6109300000000000    0.3054500000000000 C
   0.9731050000000000    0.5536200000000000    0.2768050000000000 C
   0.9445399999999999    0.8890000000000000    0.3055800000000000 C
   0.9731900000000000    0.9463400000000000    0.2768850000000000 C
   0.8054399999999999    0.6109200000000000    0.4443550000000000 C
   0.7767900000000000    0.5536200000000000    0.4731000000000000 C
   0.8054399999999999    0.8887200000000000    0.3054500000000000 C
   0.7767950000000000    0.9462000000000000    0.2768050000000000 C
   0.9445399999999999    0.6111700000000000    0.4444950000000000 C
   0.9731850000000000    0.5537700000000000    0.4731700000000000 C
   0.0134600000000000    0.5388700000000000    0.5134649999999999 C
   0.2695550000000000    0.0266900000000000    0.7038400000000000 C
   0.0131650000000000    0.4077000000000000    0.5131800000000000 C
   0.2038100000000000    0.0267500000000000    0.7695100000000000 C
   0.0131650000000000    0.0263700000000000    0.7038450000000001 C
   0.2695550000000000    0.4076900000000000    0.5133500000000000 C
   0.0134600000000000    0.0269300000000000    0.7694300000000001 C
   0.2038150000000000    0.5390200000000001    0.5133799999999999 C
   0.0133650000000000    0.4076900000000000    0.7695100000000000 C
   0.2694600000000000    0.0269000000000000    0.5134500000000000 C
   0.0133650000000000    0.5390200000000001    0.7038400000000000 C
   0.2038200000000000    0.0263900000000000    0.5131950000000000 C
   0.2305350000000000    0.9731000000000000    0.9865450000000000 C
   0.4866300000000000    0.4609800000000000    0.7961500000000000 C
   0.2961750000000000    0.9736000000000000    0.9867950000000000 C
   0.4866300000000000    0.5923100000000000    0.7304850000000001 C
   0.2961800000000000    0.4609700000000000    0.9866150000000000 C
   0.2304400000000000    0.5923100000000000    0.9866450000000000 C
   0.2961800000000000    0.9732400000000000    0.7304500000000000 C
   0.4865350000000000    0.4611300000000000    0.9865250000000000 C
   0.2304400000000000    0.9733000000000001    0.7961500000000000 C
   0.4868300000000000    0.5923000000000000    0.9868100000000000 C
   0.0554550000000000    0.3888300000000000    0.5554950000000000 C
   0.0268050000000000    0.4462300000000000    0.5268000000000000 C
   0.1945550000000000    0.1112700000000000    0.6945350000000000 C
   0.2232000000000000    0.0538100000000000    0.7231850000000000 C
   0.0554550000000000    0.1110000000000000    0.6944100000000000 C
   0.0268000000000000    0.0536500000000000    0.7231100000000000 C
   0.1945550000000000    0.3890700000000000    0.5556350000000000 C
   0.2232000000000000    0.4463800000000000    0.5268900000000000 C
   0.0556250000000000    0.3890600000000000    0.6945300000000000 C
   0.0268900000000000    0.4463800000000000    0.7231850000000000 C
   0.1944050000000000    0.1109900000000000    0.5554950000000000 C
   0.2231100000000000    0.0536500000000000    0.5268200000000000 C
   0.3055900000000000    0.8890000000000000    0.9444950000000000 C
   0.2768850000000000    0.9463400000000000    0.9731700000000000 C
   0.4443700000000000    0.6109300000000000    0.8054500000000000 C
   0.4731050000000000    0.5536200000000000    0.7768050000000000 C
   0.3054400000000000    0.6109200000000000    0.9443550000000001 C
   0.2767900000000000    0.5536200000000000    0.9731000000000001 C
   0.3054400000000000    0.8887200000000000    0.8054500000000000 C
   0.2767950000000000    0.9462000000000000    0.7768050000000000 C
   0.4445400000000000    0.6111700000000000    0.9444950000000000 C
   0.4731850000000000    0.5537700000000000    0.9731700000000000 C
   0.5134600000000000    0.5388700000000000    0.5134649999999999 C
   0.7695550000000000    0.0266900000000000    0.7038400000000000 C
   0.5131650000000000    0.4077000000000000    0.5131800000000000 C
   0.7038100000000000    0.0267500000000000    0.7695100000000000 C
   0.7695550000000000    0.4076900000000000    0.5133500000000000 C
   0.7038150000000000    0.5390200000000001    0.5133799999999999 C
   0.5133650000000000    0.4076900000000000    0.7695100000000000 C
   0.7694600000000000    0.0269000000000000    0.5134500000000000 C
   0.5133650000000000    0.5390200000000001    0.7038400000000000 C
   0.7038200000000000    0.0263900000000000    0.5131950000000000 C
   0.7305349999999999    0.9731000000000000    0.9865450000000000 C
   0.9866300000000000    0.4609800000000000    0.7961500000000000 C
   0.7961750000000001    0.9736000000000000    0.9867950000000000 C
   0.9866300000000000    0.5923100000000000    0.7304850000000001 C
   0.9868300000000000    0.9736300000000000    0.7961450000000000 C
   0.7961800000000000    0.4609700000000000    0.9866150000000000 C
   0.9865349999999999    0.9730700000000000    0.7305600000000000 C
   0.7304400000000000    0.5923100000000000    0.9866450000000000 C
   0.7961800000000000    0.9732400000000000    0.7304500000000000 C
   0.9865349999999999    0.4611300000000000    0.9865250000000000 C
   0.7304400000000000    0.9733000000000001    0.7961500000000000 C
   0.9868300000000000    0.5923000000000000    0.9868100000000000 C
   0.5554550000000000    0.3888300000000000    0.5554950000000000 C
   0.5268050000000000    0.4462300000000000    0.5268000000000000 C
   0.6945550000000000    0.1112700000000000    0.6945350000000000 C
   0.7232000000000001    0.0538100000000000    0.7231850000000000 C
   0.6945550000000000    0.3890700000000000    0.5556350000000000 C
   0.7232000000000001    0.4463800000000000    0.5268900000000000 C
   0.5556250000000000    0.3890600000000000    0.6945300000000000 C
   0.5268900000000000    0.4463800000000000    0.7231850000000000 C
   0.6944049999999999    0.1109900000000000    0.5554950000000000 C
   0.7231100000000000    0.0536500000000000    0.5268200000000000 C
   0.8055900000000000    0.8890000000000000    0.9444950000000000 C
   0.7768850000000000    0.9463400000000000    0.9731700000000000 C
   0.9443699999999999    0.6109300000000000    0.8054500000000000 C
   0.9731050000000000    0.5536200000000000    0.7768050000000000 C
   0.9445399999999999    0.8890000000000000    0.8055800000000000 C
   0.9731900000000000    0.9463400000000000    0.7768850000000000 C
   0.8054399999999999    0.6109200000000000    0.9443550000000001 C
   0.7767900000000000    0.5536200000000000    0.9731000000000001 C
   0.8054399999999999    0.8887200000000000    0.8054500000000000 C
   0.7767950000000000    0.9462000000000000    0.7768050000000000 C
   0.9445399999999999    0.6111700000000000    0.9444950000000000 C
   0.9731850000000000    0.5537700000000000    0.9731700000000000 C
   0.0666300000000000    0.4284000000000000    0.0666000000000000 O
   0.2143550000000000    0.1335500000000000    0.1526600000000000 O
   0.0663650000000000    0.3050700000000000    0.0664950000000000 O
   0.1526500000000000    0.1333900000000000    0.2143150000000000 O
   0.0663600000000000    0.1330000000000000    0.1525000000000000 O
   0.2143550000000000    0.3053300000000000    0.0667500000000000 O
   0.0666300000000000    0.1332100000000000    0.2141950000000000 O
   0.1526500000000000    0.4286400000000000    0.0666950000000000 O
   0.0667200000000000    0.3053200000000000    0.2143000000000000 O
   0.2142100000000000    0.1332600000000000    0.0666250000000000 O
   0.0667200000000000    0.4286100000000000    0.1526550000000000 O
   0.1524950000000000    0.1329400000000000    0.0664650000000000 O
   0.2857850000000000    0.8667400000000000    0.4333650000000000 O
   0.4332750000000000    0.5713800000000000    0.3473350000000000 O
   0.3475000000000000    0.8670600000000001    0.4335300000000000 O
   0.4332750000000000    0.6946700000000000    0.2856900000000000 O
   0.4336300000000000    0.8669900000000000    0.3474650000000000 O
   0.3473400000000000    0.5713600000000000    0.4330000000000000 O
   0.4333650000000000    0.8667899999999999    0.2857950000000000 O
   0.2856400000000000    0.6946700000000000    0.4332250000000000 O
   0.3473400000000000    0.8666100000000000    0.2856750000000000 O
   0.4333650000000000    0.5715900000000000    0.4333900000000000 O
   0.2856400000000000    0.8664500000000001    0.3473350000000000 O
   0.4336300000000000    0.6949300000000000    0.4334950000000000 O
   0.1249850000000000    0.2499700000000000    0.1249800000000000 O
   0.3750100000000000    0.7500300000000000    0.3750100000000000 O
   0.5666300000000000    0.4284000000000000    0.0666000000000000 O
   0.7143550000000000    0.1335500000000000    0.1526600000000000 O
   0.5663650000000000    0.3050700000000000    0.0664950000000000 O
   0.6526500000000000    0.1333900000000000    0.2143150000000000 O
   0.5663600000000000    0.1330000000000000    0.1525000000000000 O
   0.7143550000000000    0.3053300000000000    0.0667500000000000 O
   0.5666300000000000    0.1332100000000000    0.2141950000000000 O
   0.6526500000000000    0.4286400000000000    0.0666950000000000 O
   0.5667200000000000    0.3053200000000000    0.2143000000000000 O
   0.7142100000000000    0.1332600000000000    0.0666250000000000 O
   0.5667200000000000    0.4286100000000000    0.1526550000000000 O
   0.6524950000000000    0.1329400000000000    0.0664650000000000 O
   0.7857850000000000    0.8667400000000000    0.4333650000000000 O
   0.9332750000000001    0.5713800000000000    0.3473350000000000 O
   0.8474999999999999    0.8670600000000001    0.4335300000000000 O
   0.9332750000000001    0.6946700000000000    0.2856900000000000 O
   0.9336300000000000    0.8669900000000000    0.3474650000000000 O
   0.8473400000000000    0.5713600000000000    0.4330000000000000 O
   0.9333650000000000    0.8667899999999999    0.2857950000000000 O
   0.7856400000000000    0.6946700000000000    0.4332250000000000 O
   0.8473400000000000    0.8666100000000000    0.2856750000000000 O
   0.9333650000000000    0.5715900000000000    0.4333900000000000 O
   0.7856400000000000    0.8664500000000001    0.3473350000000000 O
   0.9336300000000000    0.6949300000000000    0.4334950000000000 O
   0.6249850000000000    0.2499700000000000    0.1249800000000000 O
   0.8750100000000001    0.7500300000000000    0.3750100000000000 O
   0.0666300000000000    0.4284000000000000    0.5666000000000000 O
   0.2143550000000000    0.1335500000000000    0.6526600000000000 O
   0.0663650000000000    0.3050700000000000    0.5664950000000000 O
   0.1526500000000000    0.1333900000000000    0.7143150000000000 O
   0.0663600000000000    0.1330000000000000    0.6525000000000000 O
   0.2143550000000000    0.3053300000000000    0.5667500000000000 O
   0.0666300000000000    0.1332100000000000    0.7141950000000000 O
   0.1526500000000000    0.4286400000000000    0.5666949999999999 O
   0.0667200000000000    0.3053200000000000    0.7142999999999999 O
   0.2142100000000000    0.1332600000000000    0.5666250000000000 O
   0.0667200000000000    0.4286100000000000    0.6526550000000000 O
   0.1524950000000000    0.1329400000000000    0.5664650000000000 O
   0.2857850000000000    0.8667400000000000    0.9333650000000000 O
   0.4332750000000000    0.5713800000000000    0.8473349999999999 O
   0.3475000000000000    0.8670600000000001    0.9335300000000000 O
   0.4332750000000000    0.6946700000000000    0.7856900000000000 O
   0.3473400000000000    0.5713600000000000    0.9330000000000001 O
   0.2856400000000000    0.6946700000000000    0.9332250000000000 O
   0.3473400000000000    0.8666100000000000    0.7856750000000000 O
   0.4333650000000000    0.5715900000000000    0.9333899999999999 O
   0.2856400000000000    0.8664500000000001    0.8473349999999999 O
   0.4336300000000000    0.6949300000000000    0.9334950000000000 O
   0.1249850000000000    0.2499700000000000    0.6249800000000000 O
   0.3750100000000000    0.7500300000000000    0.8750100000000001 O
   0.5666300000000000    0.4284000000000000    0.5666000000000000 O
   0.7143550000000000    0.1335500000000000    0.6526600000000000 O
   0.5663650000000000    0.3050700000000000    0.5664950000000000 O
   0.6526500000000000    0.1333900000000000    0.7143150000000000 O
   0.7143550000000000    0.3053300000000000    0.5667500000000000 O
   0.6526500000000000    0.4286400000000000    0.5666949999999999 O
   0.5667200000000000    0.3053200000000000    0.7142999999999999 O
   0.7142100000000000    0.1332600000000000    0.5666250000000000 O
   0.5667200000000000    0.4286100000000000    0.6526550000000000 O
   0.6524950000000000    0.1329400000000000    0.5664650000000000 O
   0.7857850000000000    0.8667400000000000    0.9333650000000000 O
   0.9332750000000001    0.5713800000000000    0.8473349999999999 O
   0.8474999999999999    0.8670600000000001    0.9335300000000000 O
   0.9332750000000001    0.6946700000000000    0.7856900000000000 O
   0.9336300000000000    0.8669900000000000    0.8474650000000000 O
   0.8473400000000000    0.5713600000000000    0.9330000000000001 O
   0.9333650000000000    0.8667899999999999    0.7857950000000000 O
   0.7856400000000000    0.6946700000000000    0.9332250000000000 O
   0.8473400000000000    0.8666100000000000    0.7856750000000000 O
   0.9333650000000000    0.5715900000000000    0.9333899999999999 O
   0.7856400000000000    0.8664500000000001    0.8473349999999999 O
   0.9336300000000000    0.6949300000000000    0.9334950000000000 O
   0.6249850000000000    0.2499700000000000    0.6249800000000000 O
   0.8750100000000001    0.7500300000000000    0.8750100000000001 O
