H4 C10 S2 O4
1.0
  26.7632268291288042    0.0000000000000000   -7.9393164499596667
  -4.7479531499564160   13.4120168211819024   -1.2565168817618855
   0.0000000000000000    0.0000000000000000   28.5839999999999996
H C S O
4 10 2 4
direct
   0.9755100000000000    0.9097300000000000    0.3428300000000000 H
   0.9908150000000000    0.9140600000000000    0.2564650000000000 H
   0.7667900000000001    0.8386200000000000    0.3895950000000000 H
   0.7856550000000000    0.8554900000000000    0.3048750000000000 H
   0.8542250000000000    0.8432600000000000    0.4751850000000000 C
   0.8976900000000000    0.8702100000000000    0.1682950000000000 C
   0.9056949999999999    0.8743200000000000    0.2218500000000000 C
   0.8902300000000001    0.8683800000000000    0.3034300000000000 C
   0.8479550000000000    0.8429600000000000    0.4222400000000000 C
   0.9436000000000000    0.8928600000000000    0.3075600000000000 C
   0.9520999999999999    0.8958900000000000    0.2613050000000000 C
   0.8662500000000000    0.8583600000000000    0.3421050000000000 C
   0.8043549999999999    0.8432600000000000    0.3841050000000000 C
   0.8145800000000001    0.8521500000000000    0.3389300000000000 C
   0.9016550000000000    0.8517400000000001    0.4017450000000000 S
   0.8509400000000000    0.8489700000000000    0.2417600000000000 S
   0.8141650000000000    0.8394200000000001    0.4890850000000000 O
   0.9388799999999999    0.8927900000000000    0.1547750000000000 O
   0.8496699999999999    0.8443100000000000    0.1399050000000000 O
   0.9003250000000000    0.8503100000000000    0.5032650000000000 O
