H4 O2
1.0
  26.7632268291288042    0.0000000000000000   -7.9393164499596667
  -4.7479531499564160   13.4120168211819024   -1.2565168817618855
   0.0000000000000000    0.0000000000000000   28.5839999999999996
H O
4 2
direct
   0.4726547055893638    0.1448008911255326    0.3927215837818605 H
   0.4844314937144191    0.1059638527971232    0.4474661723705339 H
   0.2783314949799620    0.2153322686609448    0.4272139692563159 H
   0.2658198499300832    0.1059385718305955    0.4470255256402166 H
   0.4957450000000000    0.1231900000000000    0.4190100000000000 O
   0.2548800000000000    0.1629100000000000    0.4381800000000000 O
