H3 O2
1.0
  36.3019997290735716    0.0000000000000000    0.0044351259643864
   3.0919927035524939    8.6005837749189329    0.0003190287339070
   0.0000000000000000    0.0000000000000000   37.9780000000000015
H O
3 2
direct
   0.7197467373772595    0.7944847240422908    0.6844780295290686 H
   0.6849981597799994    0.5890172379064542    0.7586251906597025 H
   0.6852389716052806    0.6878119101898487    0.7261527211761980 H
   0.7373800000000000    0.7306800000000000    0.7020150000000001 O
   0.7074425000000000    0.6074700000000000    0.7482350000000000 O
