P1 O4
1.0
  36.3019997290735716    0.0000000000000000    0.0044351259643864
   3.0919927035524939    8.6005837749189329    0.0003190287339070
   0.0000000000000000    0.0000000000000000   37.9780000000000015
P O
1 4
direct
   0.7128075000000000    0.6220800000000000    0.7085900000000001 P
   0.7074425000000000    0.6074700000000000    0.7482350000000000 O
   0.6724525000000000    0.6879600000000000    0.6913850000000000 O
   0.7348450000000000    0.4578000000000000    0.6927050000000000 O
   0.7373800000000000    0.7306800000000000    0.7020150000000001 O
