H3 Cl1 O2
1.0
  36.3019997290735716    0.0000000000000000    0.0044351259643864
   3.0919927035524939    8.6005837749189329    0.0003190287339070
   0.0000000000000000    0.0000000000000000   37.9780000000000015
H Cl O
3 1 2
direct
   0.8804996554379371    0.3454583309697908    0.0810128150581193 H
   0.8696322116823350    0.4541566263258711    0.0763632393659597 H
   0.9598204444900630    0.2977906877062502    0.0774199899024298 H
   0.9003350000000000    0.7433900000000000    0.1129700000000000 Cl
   0.8952650000000000    0.4642300000000000    0.0739200000000000 O
   0.9701250000000000    0.3806800000000000    0.0724700000000000 O
