Ga96 P95 H3 O414
1.0
  36.3019997290735716    0.0000000000000000    0.0044351259643864
   3.0919927035524939    8.6005837749189329    0.0003190287339070
   0.0000000000000000    0.0000000000000000   37.9780000000000015
Ga P H O
96 95 3 414
direct
   0.6342075000000000    0.7110300000000001    0.1582650000000000 Ga
   0.7544950000000000    0.8000300000000000    0.1616950000000000 Ga
   0.7423625000000000    0.7889000000000000    0.9082300000000000 Ga
   0.6220225000000000    0.7002800000000000    0.9113850000000000 Ga
   0.7153525000000001    0.6515200000000000    0.7947750000000000 Ga
   0.4112100000000000    0.8483100000000000    0.0447900000000000 Ga
   0.6295375000000000    0.2996700000000000    0.0886100000000000 Ga
   0.5362200000000000    0.3484400000000000    0.2052100000000000 Ga
   0.6173675000000000    0.2890700000000000    0.8417450000000000 Ga
   0.4970425000000000    0.2000800000000000    0.8382650000000000 Ga
   0.5903575000000000    0.1516600000000000    0.9551700000000001 Ga
   0.5092200000000000    0.2109200000000000    0.0917250000000000 Ga
   0.3842075000000000    0.7110300000000001    0.1582650000000000 Ga
   0.5044950000000000    0.8000300000000000    0.1616950000000000 Ga
   0.4923625000000000    0.7889000000000000    0.9082300000000000 Ga
   0.3720225000000000    0.7002800000000000    0.9113850000000000 Ga
   0.4653525000000000    0.6515200000000000    0.7947750000000000 Ga
   0.1612100000000000    0.8483100000000000    0.0447900000000000 Ga
   0.3795375000000000    0.2996700000000000    0.0886100000000000 Ga
   0.2862200000000000    0.3484400000000000    0.2052100000000000 Ga
   0.3673675000000000    0.2890700000000000    0.8417450000000000 Ga
   0.2470425000000000    0.2000800000000000    0.8382650000000000 Ga
   0.3403575000000000    0.1516600000000000    0.9551700000000001 Ga
   0.2592200000000000    0.2109200000000000    0.0917250000000000 Ga
   0.1342075000000000    0.7110300000000001    0.1582650000000000 Ga
   0.2544950000000000    0.8000300000000000    0.1616950000000000 Ga
   0.2423625000000000    0.7889000000000000    0.9082300000000000 Ga
   0.1220225000000000    0.7002800000000000    0.9113850000000000 Ga
   0.2153525000000000    0.6515200000000000    0.7947750000000000 Ga
   0.9112100000000000    0.8483100000000000    0.0447900000000000 Ga
   0.1295375000000000    0.2996700000000000    0.0886100000000000 Ga
   0.0362200000000000    0.3484400000000000    0.2052100000000000 Ga
   0.1173675000000000    0.2890700000000000    0.8417450000000000 Ga
   0.9970425000000001    0.2000800000000000    0.8382650000000000 Ga
   0.0903575000000000    0.1516600000000000    0.9551700000000001 Ga
   0.0092200000000000    0.2109200000000000    0.0917250000000000 Ga
   0.8842075000000000    0.7110300000000001    0.1582650000000000 Ga
   0.0044950000000000    0.8000300000000000    0.1616950000000000 Ga
   0.9923625000000000    0.7889000000000000    0.9082300000000000 Ga
   0.8720225000000000    0.7002800000000000    0.9113850000000000 Ga
   0.9653525000000001    0.6515200000000000    0.7947750000000000 Ga
   0.6612100000000000    0.8483100000000000    0.0447900000000000 Ga
   0.8795375000000000    0.2996700000000000    0.0886100000000000 Ga
   0.7862200000000000    0.3484400000000000    0.2052100000000000 Ga
   0.8673675000000000    0.2890700000000000    0.8417450000000000 Ga
   0.7470425000000001    0.2000800000000000    0.8382650000000000 Ga
   0.8403575000000000    0.1516600000000000    0.9551700000000001 Ga
   0.7592200000000000    0.2109200000000000    0.0917250000000000 Ga
   0.7544950000000000    0.8000300000000000    0.6616950000000000 Ga
   0.7423625000000000    0.7889000000000000    0.4082300000000000 Ga
   0.6220225000000000    0.7002800000000000    0.4113850000000000 Ga
   0.7153525000000001    0.6515200000000000    0.2947750000000000 Ga
   0.4112100000000000    0.8483100000000000    0.5447900000000000 Ga
   0.6295375000000000    0.2996700000000000    0.5886100000000000 Ga
   0.5362200000000000    0.3484400000000000    0.7052100000000000 Ga
   0.6173675000000000    0.2890700000000000    0.3417450000000000 Ga
   0.4970425000000000    0.2000800000000000    0.3382650000000000 Ga
   0.5903575000000000    0.1516600000000000    0.4551700000000000 Ga
   0.5092200000000000    0.2109200000000000    0.5917250000000001 Ga
   0.6342075000000000    0.7110300000000001    0.6582650000000000 Ga
   0.3842075000000000    0.7110300000000001    0.6582650000000000 Ga
   0.5044950000000000    0.8000300000000000    0.6616950000000000 Ga
   0.4923625000000000    0.7889000000000000    0.4082300000000000 Ga
   0.3720225000000000    0.7002800000000000    0.4113850000000000 Ga
   0.4653525000000000    0.6515200000000000    0.2947750000000000 Ga
   0.1612100000000000    0.8483100000000000    0.5447900000000000 Ga
   0.3795375000000000    0.2996700000000000    0.5886100000000000 Ga
   0.2862200000000000    0.3484400000000000    0.7052100000000000 Ga
   0.3673675000000000    0.2890700000000000    0.3417450000000000 Ga
   0.2470425000000000    0.2000800000000000    0.3382650000000000 Ga
   0.3403575000000000    0.1516600000000000    0.4551700000000000 Ga
   0.2592200000000000    0.2109200000000000    0.5917250000000001 Ga
   0.1342075000000000    0.7110300000000001    0.6582650000000000 Ga
   0.2544950000000000    0.8000300000000000    0.6616950000000000 Ga
   0.2423625000000000    0.7889000000000000    0.4082300000000000 Ga
   0.1220225000000000    0.7002800000000000    0.4113850000000000 Ga
   0.2153525000000000    0.6515200000000000    0.2947750000000000 Ga
   0.9112100000000000    0.8483100000000000    0.5447900000000000 Ga
   0.1295375000000000    0.2996700000000000    0.5886100000000000 Ga
   0.0362200000000000    0.3484400000000000    0.7052100000000000 Ga
   0.1173675000000000    0.2890700000000000    0.3417450000000000 Ga
   0.9970425000000001    0.2000800000000000    0.3382650000000000 Ga
   0.0903575000000000    0.1516600000000000    0.4551700000000000 Ga
   0.0092200000000000    0.2109200000000000    0.5917250000000001 Ga
   0.8842075000000000    0.7110300000000001    0.6582650000000000 Ga
   0.0044950000000000    0.8000300000000000    0.6616950000000000 Ga
   0.9923625000000000    0.7889000000000000    0.4082300000000000 Ga
   0.8720225000000000    0.7002800000000000    0.4113850000000000 Ga
   0.9653525000000001    0.6515200000000000    0.2947750000000000 Ga
   0.6612100000000000    0.8483100000000000    0.5447900000000000 Ga
   0.8795375000000000    0.2996700000000000    0.5886100000000000 Ga
   0.7862200000000000    0.3484400000000000    0.7052100000000000 Ga
   0.8673675000000000    0.2890700000000000    0.3417450000000000 Ga
   0.7470425000000001    0.2000800000000000    0.3382650000000000 Ga
   0.8403575000000000    0.1516600000000000    0.4551700000000000 Ga
   0.7592200000000000    0.2109200000000000    0.5917250000000001 Ga
   0.5562800000000000    0.0141100000000000    0.6758600000000000 P
   0.5562800000000000    0.0141100000000000    0.1758600000000000 P
   0.0562800000000000    0.0141100000000000    0.6758600000000000 P
   0.0562800000000000    0.0141100000000000    0.1758600000000000 P
   0.3062800000000000    0.0141100000000000    0.6758600000000000 P
   0.3062800000000000    0.0141100000000000    0.1758600000000000 P
   0.8062800000000000    0.0141100000000000    0.6758600000000000 P
   0.8062800000000000    0.0141100000000000    0.1758600000000000 P
   0.6813950000000000    0.5145400000000000    0.5744850000000000 P
   0.1813950000000000    0.5145400000000000    0.5744850000000000 P
   0.6813950000000000    0.5145400000000000    0.0744850000000000 P
   0.1813950000000000    0.5145400000000000    0.0744850000000000 P
   0.4313950000000000    0.5145400000000000    0.5744850000000000 P
   0.4313950000000000    0.5145400000000000    0.0744850000000000 P
   0.9313950000000000    0.5145400000000000    0.5744850000000000 P
   0.9313950000000000    0.5145400000000000    0.0744850000000000 P
   0.5701750000000000    0.4854700000000000    0.9255050000000000 P
   0.8201750000000000    0.4854700000000000    0.4255050000000000 P
   0.5701750000000000    0.4854700000000000    0.4255050000000000 P
   0.3201750000000000    0.4854700000000000    0.9255050000000000 P
   0.3201750000000000    0.4854700000000000    0.4255050000000000 P
   0.8201750000000000    0.4854700000000000    0.9255050000000000 P
   0.0701750000000000    0.4854700000000000    0.9255050000000000 P
   0.0701750000000000    0.4854700000000000    0.4255050000000000 P
   0.9452650000000000    0.9859300000000000    0.8241250000000000 P
   0.9452650000000000    0.9859300000000000    0.3241250000000000 P
   0.4452650000000000    0.9859300000000000    0.8241250000000000 P
   0.4452650000000000    0.9859300000000000    0.3241250000000000 P
   0.6952650000000000    0.9859300000000000    0.8241250000000000 P
   0.6952650000000000    0.9859300000000000    0.3241250000000000 P
   0.1952650000000000    0.9859300000000000    0.8241250000000000 P
   0.1952650000000000    0.9859300000000000    0.3241250000000000 P
   0.7128075000000000    0.6220800000000000    0.2085900000000000 P
   0.6637550000000000    0.8778500000000000    0.9585900000000001 P
   0.6708275000000000    0.4997300000000000    0.8498350000000000 P
   0.4557225000000000    0.0001200000000000    0.1000100000000000 P
   0.5807450000000000    0.5003900000000000    0.1501600000000000 P
   0.5388400000000000    0.3783600000000000    0.7913500000000000 P
   0.5458150000000001    0.9998200000000000    0.9000000000000000 P
   0.5878150000000000    0.1220900000000000    0.0413800000000000 P
   0.4628075000000000    0.6220800000000000    0.2085900000000000 P
   0.4137550000000000    0.8778500000000000    0.9585900000000001 P
   0.4208275000000000    0.4997300000000000    0.8498350000000000 P
   0.2057225000000000    0.0001200000000000    0.1000100000000000 P
   0.3307450000000000    0.5003900000000000    0.1501600000000000 P
   0.2888400000000000    0.3783600000000000    0.7913500000000000 P
   0.2958150000000000    0.9998200000000000    0.9000000000000000 P
   0.3378150000000000    0.1220900000000000    0.0413800000000000 P
   0.2128075000000000    0.6220800000000000    0.2085900000000000 P
   0.1637550000000000    0.8778500000000000    0.9585900000000001 P
   0.1708275000000000    0.4997300000000000    0.8498350000000000 P
   0.9557225000000000    0.0001200000000000    0.1000100000000000 P
   0.0807450000000000    0.5003900000000000    0.1501600000000000 P
   0.0388400000000000    0.3783600000000000    0.7913500000000000 P
   0.0458150000000000    0.9998200000000000    0.9000000000000000 P
   0.0878150000000000    0.1220900000000000    0.0413800000000000 P
   0.9628075000000000    0.6220800000000000    0.2085900000000000 P
   0.9137550000000000    0.8778500000000000    0.9585900000000001 P
   0.9208275000000000    0.4997300000000000    0.8498350000000000 P
   0.7057225000000000    0.0001200000000000    0.1000100000000000 P
   0.8307450000000000    0.5003900000000000    0.1501600000000000 P
   0.7888400000000000    0.3783600000000000    0.7913500000000000 P
   0.7958150000000001    0.9998200000000000    0.9000000000000000 P
   0.8378150000000000    0.1220900000000000    0.0413800000000000 P
   0.6637550000000000    0.8778500000000000    0.4585900000000000 P
   0.6708275000000000    0.4997300000000000    0.3498350000000000 P
   0.4557225000000000    0.0001200000000000    0.6000100000000000 P
   0.5807450000000000    0.5003900000000000    0.6501600000000000 P
   0.5388400000000000    0.3783600000000000    0.2913500000000000 P
   0.5458150000000001    0.9998200000000000    0.4000000000000000 P
   0.5878150000000000    0.1220900000000000    0.5413800000000000 P
   0.4628075000000000    0.6220800000000000    0.7085900000000001 P
   0.4137550000000000    0.8778500000000000    0.4585900000000000 P
   0.4208275000000000    0.4997300000000000    0.3498350000000000 P
   0.2057225000000000    0.0001200000000000    0.6000100000000000 P
   0.3307450000000000    0.5003900000000000    0.6501600000000000 P
   0.2888400000000000    0.3783600000000000    0.2913500000000000 P
   0.2958150000000000    0.9998200000000000    0.4000000000000000 P
   0.3378150000000000    0.1220900000000000    0.5413800000000000 P
   0.2128075000000000    0.6220800000000000    0.7085900000000001 P
   0.1637550000000000    0.8778500000000000    0.4585900000000000 P
   0.1708275000000000    0.4997300000000000    0.3498350000000000 P
   0.9557225000000000    0.0001200000000000    0.6000100000000000 P
   0.0807450000000000    0.5003900000000000    0.6501600000000000 P
   0.0388400000000000    0.3783600000000000    0.2913500000000000 P
   0.0458150000000000    0.9998200000000000    0.4000000000000000 P
   0.0878150000000000    0.1220900000000000    0.5413800000000000 P
   0.9628075000000000    0.6220800000000000    0.7085900000000001 P
   0.9137550000000000    0.8778500000000000    0.4585900000000000 P
   0.9208275000000000    0.4997300000000000    0.3498350000000000 P
   0.7057225000000000    0.0001200000000000    0.6000100000000000 P
   0.8307450000000000    0.5003900000000000    0.6501600000000000 P
   0.7888400000000000    0.3783600000000000    0.2913500000000000 P
   0.7958150000000001    0.9998200000000000    0.4000000000000000 P
   0.8378150000000000    0.1220900000000000    0.5413800000000000 P
   0.6849981597799994    0.5890172379064542    0.7586251906597025 H
   0.6852389716052806    0.6878119101898487    0.7261527211761980 H
   0.7197467373772595    0.7944847240422908    0.6844780295290686 H
   0.5604250000000000    0.0960300000000000    0.6383750000000000 O
   0.5253500000000000    0.2433900000000000    0.6370050000000000 O
   0.5950050000000000    0.8801600000000001    0.6776100000000000 O
   0.5528725000000000    0.1321200000000000    0.7052200000000000 O
   0.5201575000000001    0.9637400000000000    0.6772000000000000 O
   0.5604250000000000    0.0960300000000000    0.1383750000000000 O
   0.5253500000000000    0.2433900000000000    0.1370050000000000 O
   0.5950050000000000    0.8801600000000001    0.1776100000000000 O
   0.5528725000000000    0.1321200000000000    0.2052200000000000 O
   0.5201575000000001    0.9637400000000000    0.1772000000000000 O
   0.0604250000000000    0.0960300000000000    0.6383750000000000 O
   0.0253500000000000    0.2433900000000000    0.6370050000000000 O
   0.0950050000000000    0.8801600000000001    0.6776100000000000 O
   0.0528725000000000    0.1321200000000000    0.7052200000000000 O
   0.0201575000000000    0.9637400000000000    0.6772000000000000 O
   0.0604250000000000    0.0960300000000000    0.1383750000000000 O
   0.0253500000000000    0.2433900000000000    0.1370050000000000 O
   0.0950050000000000    0.8801600000000001    0.1776100000000000 O
   0.0528725000000000    0.1321200000000000    0.2052200000000000 O
   0.0201575000000000    0.9637400000000000    0.1772000000000000 O
   0.3104250000000000    0.0960300000000000    0.6383750000000000 O
   0.2753500000000000    0.2433900000000000    0.6370050000000000 O
   0.3450050000000000    0.8801600000000001    0.6776100000000000 O
   0.3028725000000000    0.1321200000000000    0.7052200000000000 O
   0.2701575000000000    0.9637400000000000    0.6772000000000000 O
   0.3104250000000000    0.0960300000000000    0.1383750000000000 O
   0.2753500000000000    0.2433900000000000    0.1370050000000000 O
   0.3450050000000000    0.8801600000000001    0.1776100000000000 O
   0.3028725000000000    0.1321200000000000    0.2052200000000000 O
   0.2701575000000000    0.9637400000000000    0.1772000000000000 O
   0.8104250000000000    0.0960300000000000    0.6383750000000000 O
   0.7753500000000000    0.2433900000000000    0.6370050000000000 O
   0.8450050000000000    0.8801600000000001    0.6776100000000000 O
   0.8028725000000000    0.1321200000000000    0.7052200000000000 O
   0.7701575000000001    0.9637400000000000    0.6772000000000000 O
   0.8104250000000000    0.0960300000000000    0.1383750000000000 O
   0.7753500000000000    0.2433900000000000    0.1370050000000000 O
   0.8450050000000000    0.8801600000000001    0.1776100000000000 O
   0.8028725000000000    0.1321200000000000    0.2052200000000000 O
   0.7701575000000001    0.9637400000000000    0.1772000000000000 O
   0.6854050000000000    0.5960000000000000    0.6116100000000000 O
   0.6503350000000000    0.7433900000000000    0.6129700000000000 O
   0.7201250000000000    0.3806800000000000    0.5724700000000000 O
   0.6452650000000000    0.4642300000000000    0.5739200000000000 O
   0.6778850000000000    0.6320100000000000    0.5447700000000000 O
   0.1854050000000000    0.5960000000000000    0.6116100000000000 O
   0.1503350000000000    0.7433900000000000    0.6129700000000000 O
   0.2201250000000000    0.3806800000000000    0.5724700000000000 O
   0.1452650000000000    0.4642300000000000    0.5739200000000000 O
   0.1778850000000000    0.6320100000000000    0.5447700000000000 O
   0.6854050000000000    0.5960000000000000    0.1116100000000000 O
   0.6503350000000000    0.7433900000000000    0.1129700000000000 O
   0.7201250000000000    0.3806800000000000    0.0724700000000000 O
   0.6452650000000000    0.4642300000000000    0.0739200000000000 O
   0.6778850000000000    0.6320100000000000    0.0447700000000000 O
   0.1854050000000000    0.5960000000000000    0.1116100000000000 O
   0.1503350000000000    0.7433900000000000    0.1129700000000000 O
   0.2201250000000000    0.3806800000000000    0.0724700000000000 O
   0.1452650000000000    0.4642300000000000    0.0739200000000000 O
   0.1778850000000000    0.6320100000000000    0.0447700000000000 O
   0.4354050000000000    0.5960000000000000    0.6116100000000000 O
   0.4003350000000000    0.7433900000000000    0.6129700000000000 O
   0.4701250000000000    0.3806800000000000    0.5724700000000000 O
   0.3952650000000000    0.4642300000000000    0.5739200000000000 O
   0.4278850000000000    0.6320100000000000    0.5447700000000000 O
   0.4354050000000000    0.5960000000000000    0.1116100000000000 O
   0.4003350000000000    0.7433900000000000    0.1129700000000000 O
   0.4701250000000000    0.3806800000000000    0.0724700000000000 O
   0.3952650000000000    0.4642300000000000    0.0739200000000000 O
   0.4278850000000000    0.6320100000000000    0.0447700000000000 O
   0.9354050000000000    0.5960000000000000    0.6116100000000000 O
   0.9003350000000000    0.7433900000000000    0.6129700000000000 O
   0.9701250000000000    0.3806800000000000    0.5724700000000000 O
   0.8952650000000000    0.4642300000000000    0.5739200000000000 O
   0.9278850000000000    0.6320100000000000    0.5447700000000000 O
   0.9354050000000000    0.5960000000000000    0.1116100000000000 O
   0.9003350000000000    0.7433900000000000    0.1129700000000000 O
   0.9701250000000000    0.3806800000000000    0.0724700000000000 O
   0.8952650000000000    0.4642300000000000    0.0739200000000000 O
   0.9278850000000000    0.6320100000000000    0.0447700000000000 O
   0.5661250000000000    0.4041000000000000    0.8883799999999999 O
   0.6011649999999999    0.2566200000000000    0.8870100000000001 O
   0.5314775000000000    0.6194800000000000    0.9275350000000000 O
   0.6063375000000000    0.5355799999999999    0.9260600000000000 O
   0.5736725000000000    0.3679700000000000    0.9552200000000000 O
   0.8161250000000000    0.4041000000000000    0.3883800000000000 O
   0.8511649999999999    0.2566200000000000    0.3870100000000000 O
   0.7814775000000000    0.6194800000000000    0.4275350000000000 O
   0.8563375000000000    0.5355799999999999    0.4260600000000000 O
   0.8236725000000000    0.3679700000000000    0.4552200000000000 O
   0.5661250000000000    0.4041000000000000    0.3883800000000000 O
   0.6011649999999999    0.2566200000000000    0.3870100000000000 O
   0.5314775000000000    0.6194800000000000    0.4275350000000000 O
   0.6063375000000000    0.5355799999999999    0.4260600000000000 O
   0.5736725000000000    0.3679700000000000    0.4552200000000000 O
   0.3161250000000000    0.4041000000000000    0.8883799999999999 O
   0.3511650000000000    0.2566200000000000    0.8870100000000001 O
   0.2814775000000000    0.6194800000000000    0.9275350000000000 O
   0.3563375000000000    0.5355799999999999    0.9260600000000000 O
   0.3236725000000000    0.3679700000000000    0.9552200000000000 O
   0.3161250000000000    0.4041000000000000    0.3883800000000000 O
   0.3511650000000000    0.2566200000000000    0.3870100000000000 O
   0.2814775000000000    0.6194800000000000    0.4275350000000000 O
   0.3563375000000000    0.5355799999999999    0.4260600000000000 O
   0.3236725000000000    0.3679700000000000    0.4552200000000000 O
   0.8161250000000000    0.4041000000000000    0.8883799999999999 O
   0.8511649999999999    0.2566200000000000    0.8870100000000001 O
   0.7814775000000000    0.6194800000000000    0.9275350000000000 O
   0.8563375000000000    0.5355799999999999    0.9260600000000000 O
   0.8236725000000000    0.3679700000000000    0.9552200000000000 O
   0.0661250000000000    0.4041000000000000    0.8883799999999999 O
   0.1011650000000000    0.2566200000000000    0.8870100000000001 O
   0.0314775000000000    0.6194800000000000    0.9275350000000000 O
   0.1063375000000000    0.5355799999999999    0.9260600000000000 O
   0.0736725000000000    0.3679700000000000    0.9552200000000000 O
   0.0661250000000000    0.4041000000000000    0.3883800000000000 O
   0.1011650000000000    0.2566200000000000    0.3870100000000000 O
   0.0314775000000000    0.6194800000000000    0.4275350000000000 O
   0.1063375000000000    0.5355799999999999    0.4260600000000000 O
   0.0736725000000000    0.3679700000000000    0.4552200000000000 O
   0.9415925000000001    0.9055800000000001    0.8614950000000000 O
   0.9763999999999999    0.7572800000000000    0.8628350000000000 O
   0.9065325000000000    0.1198600000000000    0.8223900000000000 O
   0.9813775000000000    0.0363800000000000    0.8227800000000001 O
   0.9484900000000001    0.8677800000000000    0.7946750000000000 O
   0.9415925000000001    0.9055800000000001    0.3614950000000000 O
   0.9763999999999999    0.7572800000000000    0.3628350000000000 O
   0.9065325000000000    0.1198600000000000    0.3223900000000000 O
   0.9813775000000000    0.0363800000000000    0.3227800000000000 O
   0.9484900000000001    0.8677800000000000    0.2946750000000000 O
   0.4415925000000000    0.9055800000000001    0.8614950000000000 O
   0.4764000000000000    0.7572800000000000    0.8628350000000000 O
   0.4065325000000000    0.1198600000000000    0.8223900000000000 O
   0.4813775000000000    0.0363800000000000    0.8227800000000001 O
   0.4484900000000000    0.8677800000000000    0.7946750000000000 O
   0.4415925000000000    0.9055800000000001    0.3614950000000000 O
   0.4764000000000000    0.7572800000000000    0.3628350000000000 O
   0.4065325000000000    0.1198600000000000    0.3223900000000000 O
   0.4813775000000000    0.0363800000000000    0.3227800000000000 O
   0.4484900000000000    0.8677800000000000    0.2946750000000000 O
   0.6915925000000001    0.9055800000000001    0.8614950000000000 O
   0.7263999999999999    0.7572800000000000    0.8628350000000000 O
   0.6565325000000000    0.1198600000000000    0.8223900000000000 O
   0.7313775000000000    0.0363800000000000    0.8227800000000001 O
   0.6984900000000001    0.8677800000000000    0.7946750000000000 O
   0.6915925000000001    0.9055800000000001    0.3614950000000000 O
   0.7263999999999999    0.7572800000000000    0.3628350000000000 O
   0.6565325000000000    0.1198600000000000    0.3223900000000000 O
   0.7313775000000000    0.0363800000000000    0.3227800000000000 O
   0.6984900000000001    0.8677800000000000    0.2946750000000000 O
   0.1915925000000000    0.9055800000000001    0.8614950000000000 O
   0.2264000000000000    0.7572800000000000    0.8628350000000000 O
   0.1565325000000000    0.1198600000000000    0.8223900000000000 O
   0.2313775000000000    0.0363800000000000    0.8227800000000001 O
   0.1984900000000000    0.8677800000000000    0.7946750000000000 O
   0.1915925000000000    0.9055800000000001    0.3614950000000000 O
   0.2264000000000000    0.7572800000000000    0.3628350000000000 O
   0.1565325000000000    0.1198600000000000    0.3223900000000000 O
   0.2313775000000000    0.0363800000000000    0.3227800000000000 O
   0.1984900000000000    0.8677800000000000    0.2946750000000000 O
   0.7074425000000000    0.6074700000000000    0.7482350000000000 O
   0.6724525000000000    0.6879600000000000    0.1913850000000000 O
   0.7074425000000000    0.6074700000000000    0.2482350000000000 O
   0.7373800000000000    0.7306800000000000    0.2020150000000000 O
   0.7348450000000000    0.4578000000000000    0.1927050000000000 O
   0.7040975000000000    0.8120200000000000    0.9413400000000001 O
   0.6691625000000000    0.8922600000000001    0.9982450000000000 O
   0.6391750000000000    0.7692800000000000    0.9520200000000000 O
   0.6418125000000000    0.0426000000000000    0.9427350000000000 O
   0.6797325000000000    0.5755000000000000    0.8162400000000001 O
   0.6637625000000000    0.6144700000000000    0.8812400000000000 O
   0.6328625000000000    0.4626700000000000    0.8425700000000000 O
   0.7052275000000000    0.3501000000000000    0.8601000000000000 O
   0.4468550000000000    0.9242600000000000    0.0662450000000000 O
   0.4627850000000000    0.8858400000000000    0.1312700000000000 O
   0.4935950000000000    0.0376900000000000    0.0926200000000000 O
   0.4212500000000000    0.1492000000000000    0.1105500000000000 O
   0.5718400000000000    0.4244500000000000    0.1837300000000000 O
   0.5878000000000000    0.3858700000000000    0.1187200000000000 O
   0.6187150000000000    0.5374100000000001    0.1574450000000000 O
   0.5463500000000000    0.6500800000000000    0.1399200000000000 O
   0.5791875000000000    0.3124900000000000    0.8085700000000000 O
   0.5442350000000000    0.3927600000000000    0.7517000000000000 O
   0.5142800000000000    0.2698000000000000    0.7979100000000000 O
   0.5167850000000000    0.5426700000000000    0.8072150000000000 O
   0.5547050000000000    0.0758200000000000    0.9336900000000000 O
   0.5386725000000000    0.1140200000000000    0.8686550000000000 O
   0.5079275000000000    0.9623600000000000    0.9073850000000000 O
   0.5802750000000000    0.8506700000000000    0.8894850000000001 O
   0.5474575000000000    0.1879100000000000    0.0585900000000000 O
   0.6123850000000000    0.2306700000000000    0.0479750000000000 O
   0.6097625000000000    0.9573800000000000    0.0572400000000000 O
   0.5824525000000000    0.1076100000000000    0.0000000000000000 O
   0.4224525000000000    0.6879600000000000    0.1913850000000000 O
   0.4574425000000000    0.6074700000000000    0.2482350000000000 O
   0.4873800000000000    0.7306800000000000    0.2020150000000000 O
   0.4848450000000000    0.4578000000000000    0.1927050000000000 O
   0.4540975000000000    0.8120200000000000    0.9413400000000001 O
   0.4191625000000000    0.8922600000000001    0.9982450000000000 O
   0.3891750000000000    0.7692800000000000    0.9520200000000000 O
   0.3918125000000000    0.0426000000000000    0.9427350000000000 O
   0.4297325000000000    0.5755000000000000    0.8162400000000001 O
   0.4137625000000000    0.6144700000000000    0.8812400000000000 O
   0.3828625000000000    0.4626700000000000    0.8425700000000000 O
   0.4552275000000000    0.3501000000000000    0.8601000000000000 O
   0.1968550000000000    0.9242600000000000    0.0662450000000000 O
   0.2127850000000000    0.8858400000000000    0.1312700000000000 O
   0.2435950000000000    0.0376900000000000    0.0926200000000000 O
   0.1712500000000000    0.1492000000000000    0.1105500000000000 O
   0.3218400000000000    0.4244500000000000    0.1837300000000000 O
   0.3378000000000000    0.3858700000000000    0.1187200000000000 O
   0.3687150000000000    0.5374100000000001    0.1574450000000000 O
   0.2963500000000000    0.6500800000000000    0.1399200000000000 O
   0.3291875000000000    0.3124900000000000    0.8085700000000000 O
   0.2942350000000000    0.3927600000000000    0.7517000000000000 O
   0.2642800000000000    0.2698000000000000    0.7979100000000000 O
   0.2667850000000000    0.5426700000000000    0.8072150000000000 O
   0.3047050000000000    0.0758200000000000    0.9336900000000000 O
   0.2886725000000000    0.1140200000000000    0.8686550000000000 O
   0.2579275000000000    0.9623600000000000    0.9073850000000000 O
   0.3302750000000000    0.8506700000000000    0.8894850000000001 O
   0.2974575000000000    0.1879100000000000    0.0585900000000000 O
   0.3623850000000000    0.2306700000000000    0.0479750000000000 O
   0.3597625000000000    0.9573800000000000    0.0572400000000000 O
   0.3324525000000000    0.1076100000000000    0.0000000000000000 O
   0.1724525000000000    0.6879600000000000    0.1913850000000000 O
   0.2074425000000000    0.6074700000000000    0.2482350000000000 O
   0.2373800000000000    0.7306800000000000    0.2020150000000000 O
   0.2348450000000000    0.4578000000000000    0.1927050000000000 O
   0.2040975000000000    0.8120200000000000    0.9413400000000001 O
   0.1691625000000000    0.8922600000000001    0.9982450000000000 O
   0.1391750000000000    0.7692800000000000    0.9520200000000000 O
   0.1418125000000000    0.0426000000000000    0.9427350000000000 O
   0.1797325000000000    0.5755000000000000    0.8162400000000001 O
   0.1637625000000000    0.6144700000000000    0.8812400000000000 O
   0.1328625000000000    0.4626700000000000    0.8425700000000000 O
   0.2052275000000000    0.3501000000000000    0.8601000000000000 O
   0.9468550000000000    0.9242600000000000    0.0662450000000000 O
   0.9627850000000000    0.8858400000000000    0.1312700000000000 O
   0.9935950000000000    0.0376900000000000    0.0926200000000000 O
   0.9212500000000000    0.1492000000000000    0.1105500000000000 O
   0.0718400000000000    0.4244500000000000    0.1837300000000000 O