Fe48 H763 C1140 N475 O3
1.0
  36.4294283114400343    0.0000000000000000    6.8939487162040587
  -9.0636925945078612   27.6636515208054483   14.6608559466254160
   0.0000000000000000    0.0000000000000000   32.6760000000000019
Fe H C N O
48 763 1140 475 3
direct
   0.3750050000000000    0.9999950000000000    0.7499850000000000 Fe
   0.8750100000000001    0.7499950000000000    0.4999900000000000 Fe
   0.6250100000000001    0.9999950000000000    0.2499900000000000 Fe
   0.7500050000000000    0.7500050000000000    0.2499850000000000 Fe
   0.6250050000000000    0.7499899999999999    0.9999899999999999 Fe
   0.5000000000000000    0.7500050000000000    0.7499850000000000 Fe
   0.8750050000000000    0.4999950000000000    0.2499850000000000 Fe
   0.3750100000000000    0.2499950000000000    0.9999899999999999 Fe
   0.1250100000000000    0.4999950000000000    0.7499899999999999 Fe
   0.2500050000000000    0.2500050000000000    0.7499850000000000 Fe
   0.1250050000000000    0.2499900000000000    0.4999900000000000 Fe
   0.0000000000000000    0.2500050000000000    0.2499850000000000 Fe
   0.8750050000000000    0.9999950000000000    0.7499850000000000 Fe
   0.3750100000000000    0.7499950000000000    0.4999900000000000 Fe
   0.1250100000000000    0.9999950000000000    0.2499900000000000 Fe
   0.2500050000000000    0.7500050000000000    0.2499850000000000 Fe
   0.1250050000000000    0.7499899999999999    0.9999899999999999 Fe
   0.0000000000000000    0.7500050000000000    0.7499850000000000 Fe
   0.3750050000000000    0.4999950000000000    0.2499850000000000 Fe
   0.8750100000000001    0.2499950000000000    0.9999899999999999 Fe
   0.6250100000000001    0.4999950000000000    0.7499899999999999 Fe
   0.7500050000000000    0.2500050000000000    0.7499850000000000 Fe
   0.6250050000000000    0.2499900000000000    0.4999900000000000 Fe
   0.5000000000000000    0.2500050000000000    0.2499850000000000 Fe
   0.1250100000000000    0.4999950000000000    0.2499900000000000 Fe
   0.8750050000000000    0.9999950000000000    0.2499850000000000 Fe
   0.3750100000000000    0.7499950000000000    0.9999899999999999 Fe
   0.1250100000000000    0.9999950000000000    0.7499899999999999 Fe
   0.2500050000000000    0.7500050000000000    0.7499850000000000 Fe
   0.1250050000000000    0.7499899999999999    0.4999900000000000 Fe
   0.0000000000000000    0.7500050000000000    0.2499850000000000 Fe
   0.3750050000000000    0.4999950000000000    0.7499850000000000 Fe
   0.8750100000000001    0.2499950000000000    0.4999900000000000 Fe
   0.6250100000000001    0.4999950000000000    0.2499900000000000 Fe
   0.7500050000000000    0.2500050000000000    0.2499850000000000 Fe
   0.6250050000000000    0.2499900000000000    0.9999899999999999 Fe
   0.5000000000000000    0.2500050000000000    0.7499850000000000 Fe
   0.3750050000000000    0.9999950000000000    0.2499850000000000 Fe
   0.8750100000000001    0.7499950000000000    0.9999899999999999 Fe
   0.6250100000000001    0.9999950000000000    0.7499899999999999 Fe
   0.7500050000000000    0.7500050000000000    0.7499850000000000 Fe
   0.6250050000000000    0.7499899999999999    0.4999900000000000 Fe
   0.5000000000000000    0.7500050000000000    0.2499850000000000 Fe
   0.8750050000000000    0.4999950000000000    0.7499850000000000 Fe
   0.3750100000000000    0.2499950000000000    0.4999900000000000 Fe
   0.2500050000000000    0.2500050000000000    0.2499850000000000 Fe
   0.1250050000000000    0.2499900000000000    0.9999899999999999 Fe
   0.0000000000000000    0.2500050000000000    0.7499850000000000 Fe
   0.5535850000000000    0.1370900000000000    0.6794150000000000 H
   0.5002799999999999    0.1094400000000000    0.5841250000000000 H
   0.6068100000000000    0.2023400000000000    0.6075200000000001 H
   0.5569650000000000    0.1733100000000000    0.5157050000000000 H
   0.4779050000000000    0.0113850000000000    0.8267949999999999 H
   0.4372950000000000    0.9502450000000000    0.9131000000000000 H
   0.3669800000000000    0.9104600000000000    0.9292000000000000 H
   0.3400950000000000    0.9331100000000000    0.8601500000000000 H
   0.1964200000000000    0.8628850000000000    0.8205600000000000 H
   0.2497300000000000    0.8905500000000000    0.9158450000000000 H
   0.1431950000000000    0.7976350000000000    0.8924600000000000 H
   0.1930450000000000    0.8266750000000000    0.9842649999999999 H
   0.2721000000000000    0.9885950000000000    0.6731800000000000 H
   0.3127100000000000    0.0497450000000000    0.5868550000000000 H
   0.3830250000000000    0.0895400000000000    0.5707750000000000 H
   0.4099050000000000    0.0668950000000000    0.6398200000000001 H
   0.7649300000000000    0.8166249999999999    0.3625950000000000 H
   0.8041450000000000    0.6930950000000000    0.3908500000000000 H
   0.7444150000000000    0.8101100000000000    0.2972900000000000 H
   0.7795449999999999    0.6887300000000001    0.3268400000000000 H
   0.7777149999999999    0.8380600000000000    0.4882500000000000 H
   0.7878499999999999    0.8631949999999999    0.5492500000000000 H
   0.8386100000000001    0.8399150000000000    0.5887950000000000 H
   0.8769600000000000    0.7938250000000000    0.5661250000000000 H
   0.9851099999999999    0.6833950000000000    0.6373600000000000 H
   0.9458700000000000    0.8069050000000000    0.6091200000000000 H
   0.0056200000000000    0.6899100000000000    0.7026500000000000 H
   0.9704650000000000    0.8112699999999999    0.6731350000000000 H
   0.9723200000000001    0.6619550000000000    0.5117100000000000 H
   0.9621750000000000    0.6368000000000000    0.4507050000000000 H
   0.9113950000000000    0.6600550000000001    0.4112050000000000 H
   0.8730400000000000    0.7061400000000000    0.4338750000000000 H
   0.4464350000000000    0.8628650000000000    0.3205650000000000 H
   0.4997300000000000    0.8905650000000001    0.4158450000000000 H
   0.4430450000000000    0.8266899999999999    0.4842700000000000 H
   0.3932100000000000    0.7976200000000000    0.3924650000000000 H
   0.5221050000000000    0.9885999999999999    0.1731800000000000 H
   0.5627150000000000    0.0497500000000000    0.0868550000000000 H
   0.6330300000000000    0.0895450000000000    0.0707800000000000 H
   0.6599100000000000    0.0669000000000000    0.1398300000000000 H
   0.8035950000000001    0.1370950000000000    0.1794200000000000 H
   0.7502800000000001    0.1094400000000000    0.0841350000000000 H
   0.8568200000000000    0.2023450000000000    0.1075200000000000 H
   0.8069649999999999    0.1733150000000000    0.0157150000000000 H
   0.7279100000000001    0.0113850000000000    0.3268000000000000 H
   0.6872950000000000    0.9502400000000000    0.4131250000000000 H
   0.6169800000000000    0.9104550000000000    0.4292050000000000 H
   0.5901000000000000    0.9331050000000001    0.3601500000000000 H
   0.8932950000000000    0.6799600000000000    0.1833450000000000 H
   0.7930400000000000    0.5839900000000000    0.3069000000000000 H
   0.9104500000000000    0.6079450000000000    0.1898250000000000 H
   0.8153450000000000    0.5154600000000000    0.3112100000000000 H
   0.8909150000000000    0.8278150000000000    0.1612250000000000 H
   0.8929950000000000    0.9142100000000000    0.1359550000000000 H
   0.8306450000000001    0.9298700000000000    0.1598300000000000 H
   0.7695900000000000    0.8603600000000000    0.2064100000000000 H
   0.6067250000000000    0.8200450000000000    0.3166350000000000 H
   0.7069700000000000    0.9160200000000001    0.1930500000000000 H
   0.5895700000000000    0.8920600000000001    0.3101550000000000 H
   0.6846650000000000    0.9845450000000000    0.1887550000000000 H
   0.6091000000000000    0.6721950000000000    0.3387500000000000 H
   0.6070200000000000    0.5857950000000000    0.3640200000000000 H
   0.6693700000000000    0.5701350000000001    0.3401450000000000 H
   0.7304250000000000    0.6396400000000000    0.2935650000000000 H
   0.5149550000000001    0.8166550000000000    0.8625650000000000 H
   0.5541000000000000    0.6930650000000000    0.8908499999999999 H
   0.4944450000000000    0.8101350000000000    0.7972600000000001 H
   0.5295050000000000    0.6887050000000000    0.8268650000000000 H
   0.5277100000000000    0.8380550000000000    0.9882500000000001 H
   0.5378400000000000    0.8631850000000000    0.0492800000000000 H
   0.5886000000000000    0.8399000000000000    0.0888050000000000 H
   0.6269550000000000    0.7938200000000000    0.0661300000000000 H
   0.7350900000000000    0.6833750000000001    0.1373500000000000 H
   0.6958750000000000    0.8069100000000000    0.1091150000000000 H
   0.7556000000000000    0.6898950000000000    0.2026850000000000 H
   0.7204699999999999    0.8112750000000000    0.1731300000000000 H
   0.7223250000000000    0.6619650000000000    0.0117000000000000 H
   0.7121850000000001    0.6368300000000000    0.9506749999999999 H
   0.6614100000000001    0.6600850000000000    0.9111750000000001 H
   0.6230500000000000    0.7061550000000000    0.9338600000000000 H
   0.6432900000000000    0.6799600000000000    0.6833500000000000 H
   0.5430400000000000    0.5839850000000000    0.8069250000000000 H
   0.6604500000000000    0.6079450000000000    0.6898299999999999 H
   0.5653450000000000    0.5154600000000000    0.8112200000000001 H
   0.6409150000000000    0.8278099999999999    0.6612400000000000 H
   0.6429950000000000    0.9142100000000000    0.6359650000000000 H
   0.5806450000000000    0.9298750000000000    0.6598200000000000 H
   0.5195900000000000    0.8603650000000000    0.7063950000000000 H
   0.3567300000000000    0.8200400000000000    0.8166450000000001 H
   0.4569650000000000    0.9160150000000000    0.6930499999999999 H
   0.3395650000000000    0.8920550000000000    0.8101550000000000 H
   0.4346550000000000    0.9845400000000000    0.6887500000000000 H
   0.3591050000000000    0.6721850000000000    0.8387549999999999 H
   0.3570250000000000    0.5857900000000000    0.8640150000000000 H
   0.4193750000000000    0.5701350000000001    0.8401300000000000 H
   0.4804250000000000    0.6396450000000000    0.7935500000000000 H
   0.0535850000000000    0.6370899999999999    0.1794150000000000 H
   0.0002800000000000    0.6094400000000000    0.0841250000000000 H
   0.1068100000000000    0.7023400000000000    0.1075200000000000 H
   0.0569650000000000    0.6733100000000000    0.0157050000000000 H
   0.9779050000000000    0.5113850000000000    0.3267950000000000 H
   0.9372950000000000    0.4502450000000000    0.4131000000000000 H
   0.8669800000000000    0.4104600000000000    0.4292000000000000 H
   0.8400950000000000    0.4331100000000000    0.3601500000000000 H
   0.6964200000000000    0.3628850000000000    0.3205600000000000 H
   0.7497300000000000    0.3905500000000000    0.4158450000000000 H
   0.6431950000000000    0.2976350000000000    0.3924600000000000 H
   0.6930450000000000    0.3266750000000000    0.4842650000000000 H
   0.7721000000000000    0.4885950000000000    0.1731800000000000 H
   0.8127100000000000    0.5497450000000000    0.0868550000000000 H
   0.8830249999999999    0.5895400000000000    0.0707750000000000 H
   0.9099050000000000    0.5668950000000000    0.1398200000000000 H
   0.2649300000000000    0.3166250000000000    0.8625950000000000 H
   0.3041450000000000    0.1930950000000000    0.8908499999999999 H
   0.2444150000000000    0.3101100000000000    0.7972900000000001 H
   0.2795450000000000    0.1887300000000000    0.8268400000000000 H
   0.2777150000000000    0.3380600000000000    0.9882500000000001 H
   0.2878500000000000    0.3631950000000000    0.0492500000000000 H
   0.3386100000000000    0.3399150000000000    0.0887950000000000 H
   0.3769600000000000    0.2938250000000000    0.0661250000000000 H
   0.4851100000000000    0.1833950000000000    0.1373600000000000 H
   0.4458700000000000    0.3069050000000000    0.1091200000000000 H
   0.5056200000000000    0.1899100000000000    0.2026500000000000 H
   0.4704650000000000    0.3112700000000000    0.1731350000000000 H
   0.4723200000000000    0.1619550000000000    0.0117100000000000 H
   0.4621750000000000    0.1368000000000000    0.9507050000000000 H
   0.4113950000000000    0.1600550000000000    0.9112050000000000 H
   0.3730400000000000    0.2061400000000000    0.9338750000000000 H
   0.9464350000000000    0.3628650000000000    0.8205650000000000 H
   0.9997300000000000    0.3905650000000000    0.9158450000000000 H
   0.9430450000000000    0.3266900000000000    0.9842700000000000 H
   0.8932100000000001    0.2976200000000000    0.8924650000000001 H
   0.0221050000000000    0.4886000000000000    0.6731800000000000 H
   0.0627150000000000    0.5497500000000000    0.5868550000000000 H
   0.1330300000000000    0.5895450000000000    0.5707800000000000 H
   0.1599100000000000    0.5669000000000000    0.6398300000000000 H
   0.3035950000000000    0.6370950000000000    0.6794200000000000 H
   0.2502800000000000    0.6094400000000000    0.5841350000000000 H
   0.3568200000000000    0.7023450000000000    0.6075200000000001 H
   0.3069650000000000    0.6733150000000000    0.5157150000000000 H
   0.2279100000000000    0.5113850000000000    0.8268000000000000 H
   0.1872950000000000    0.4502400000000000    0.9131250000000000 H
   0.1169800000000000    0.4104550000000000    0.9292050000000001 H
   0.0901000000000000    0.4331050000000000    0.8601500000000000 H
   0.3932950000000000    0.1799600000000000    0.6833450000000000 H
   0.2930400000000000    0.0839900000000000    0.8069000000000000 H
   0.4104500000000000    0.1079450000000000    0.6898250000000000 H
   0.3153450000000000    0.0154600000000000    0.8112100000000000 H
   0.3909150000000000    0.3278150000000000    0.6612250000000000 H
   0.3929950000000000    0.4142100000000000    0.6359550000000000 H
   0.3306450000000000    0.4298700000000000    0.6598300000000000 H
   0.2695900000000000    0.3603600000000000    0.7064100000000000 H
   0.1067250000000000    0.3200450000000000    0.8166350000000000 H
   0.2069700000000000    0.4160200000000000    0.6930499999999999 H
   0.0895700000000000    0.3920600000000000    0.8101550000000000 H
   0.1846650000000000    0.4845450000000000    0.6887550000000000 H
   0.1091000000000000    0.1721950000000000    0.8387500000000000 H
   0.1070200000000000    0.0857950000000000    0.8640200000000000 H
   0.1693700000000000    0.0701350000000000    0.8401449999999999 H
   0.2304250000000000    0.1396400000000000    0.7935650000000001 H
   0.0149550000000000    0.3166550000000000    0.3625650000000000 H
   0.0541000000000000    0.1930650000000000    0.3908500000000000 H
   0.9944450000000000    0.3101350000000000    0.2972600000000000 H
   0.0295050000000000    0.1887050000000000    0.3268650000000000 H
   0.0277100000000000    0.3380550000000000    0.4882500000000000 H
   0.0378400000000000    0.3631850000000000    0.5492800000000000 H
   0.0886000000000000    0.3399000000000000    0.5888050000000000 H
   0.1269550000000000    0.2938200000000000    0.5661300000000000 H
   0.2350900000000000    0.1833750000000000    0.6373500000000000 H
   0.1958750000000000    0.3069100000000000    0.6091150000000000 H
   0.2556000000000000    0.1898950000000000    0.7026850000000000 H
   0.2204700000000000    0.3112750000000000    0.6731300000000000 H
   0.2223250000000000    0.1619650000000000    0.5117000000000000 H
   0.2121850000000000    0.1368300000000000    0.4506750000000000 H
   0.1614100000000000    0.1600850000000000    0.4111750000000000 H
   0.1230500000000000    0.2061550000000000    0.4338600000000000 H
   0.1432900000000000    0.1799600000000000    0.1833500000000000 H
   0.0430400000000000    0.0839850000000000    0.3069250000000000 H
   0.1604500000000000    0.1079450000000000    0.1898300000000000 H
   0.0653450000000000    0.0154600000000000    0.3112200000000000 H
   0.1409150000000000    0.3278100000000000    0.1612400000000000 H
   0.1429950000000000    0.4142100000000000    0.1359650000000000 H
   0.0806450000000000    0.4298750000000000    0.1598200000000000 H
   0.0195900000000000    0.3603650000000000    0.2063950000000000 H
   0.8567300000000000    0.3200400000000000    0.3166450000000000 H
   0.9569650000000001    0.4160150000000000    0.1930500000000000 H
   0.8395650000000000    0.3920550000000000    0.3101550000000000 H
   0.9346550000000000    0.4845400000000000    0.1887500000000000 H
   0.8591050000000000    0.1721850000000000    0.3387550000000000 H
   0.8570249999999999    0.0857900000000000    0.3640150000000000 H
   0.9193750000000001    0.0701350000000000    0.3401300000000000 H
   0.9804250000000000    0.1396450000000000    0.2935500000000000 H
   0.0535850000000000    0.1370900000000000    0.6794150000000000 H
   0.0002800000000000    0.1094400000000000    0.5841250000000000 H
   0.1068100000000000    0.2023400000000000    0.6075200000000001 H
   0.0569650000000000    0.1733100000000000    0.5157050000000000 H
   0.9779050000000000    0.0113850000000000    0.8267949999999999 H
   0.9372950000000000    0.9502450000000000    0.9131000000000000 H
   0.8669800000000000    0.9104600000000000    0.9292000000000000 H
   0.8400950000000000    0.9331100000000000    0.8601500000000000 H
   0.6964200000000000    0.8628850000000000    0.8205600000000000 H
   0.7497300000000000    0.8905500000000000    0.9158450000000000 H
   0.6431950000000000    0.7976350000000000    0.8924600000000000 H
   0.6930450000000000    0.8266750000000000    0.9842649999999999 H
   0.7721000000000000    0.9885950000000000    0.6731800000000000 H
   0.8127100000000000    0.0497450000000000    0.5868550000000000 H
   0.8830249999999999    0.0895400000000000    0.5707750000000000 H
   0.9099050000000000    0.0668950000000000    0.6398200000000001 H
   0.2649300000000000    0.8166249999999999    0.3625950000000000 H
   0.3041450000000000    0.6930950000000000    0.3908500000000000 H
   0.2444150000000000    0.8101100000000000    0.2972900000000000 H
   0.2795450000000000    0.6887300000000001    0.3268400000000000 H
   0.2777150000000000    0.8380600000000000    0.4882500000000000 H
   0.2878500000000000    0.8631949999999999    0.5492500000000000 H
   0.3386100000000000    0.8399150000000000    0.5887950000000000 H
   0.3769600000000000    0.7938250000000000    0.5661250000000000 H
   0.4851100000000000    0.6833950000000000    0.6373600000000000 H
   0.4458700000000000    0.8069050000000000    0.6091200000000000 H
   0.5056200000000000    0.6899100000000000    0.7026500000000000 H
   0.4704650000000000    0.8112699999999999    0.6731350000000000 H
   0.4723200000000000    0.6619550000000000    0.5117100000000000 H
   0.4621750000000000    0.6368000000000000    0.4507050000000000 H
   0.4113950000000000    0.6600550000000001    0.4112050000000000 H
   0.3730400000000000    0.7061400000000000    0.4338750000000000 H
   0.9464350000000000    0.8628650000000000    0.3205650000000000 H
   0.9997300000000000    0.8905650000000001    0.4158450000000000 H
   0.9430450000000000    0.8266899999999999    0.4842700000000000 H
   0.8932100000000001    0.7976200000000000    0.3924650000000000 H
   0.0221050000000000    0.9885999999999999    0.1731800000000000 H
   0.0627150000000000    0.0497500000000000    0.0868550000000000 H
   0.1330300000000000    0.0895450000000000    0.0707800000000000 H
   0.1599100000000000    0.0669000000000000    0.1398300000000000 H
   0.3035950000000000    0.1370950000000000    0.1794200000000000 H
   0.2502800000000000    0.1094400000000000    0.0841350000000000 H
   0.3568200000000000    0.2023450000000000    0.1075200000000000 H
   0.3069650000000000    0.1733150000000000    0.0157150000000000 H
   0.2279100000000000    0.0113850000000000    0.3268000000000000 H
   0.1872950000000000    0.9502400000000000    0.4131250000000000 H
   0.1169800000000000    0.9104550000000000    0.4292050000000000 H
   0.0901000000000000    0.9331050000000001    0.3601500000000000 H
   0.3932950000000000    0.6799600000000000    0.1833450000000000 H
   0.2930400000000000    0.5839900000000000    0.3069000000000000 H
   0.4104500000000000    0.6079450000000000    0.1898250000000000 H
   0.3153450000000000    0.5154600000000000    0.3112100000000000 H
   0.3909150000000000    0.8278150000000000    0.1612250000000000 H
   0.3929950000000000    0.9142100000000000    0.1359550000000000 H
   0.3306450000000000    0.9298700000000000    0.1598300000000000 H
   0.2695900000000000    0.8603600000000000    0.2064100000000000 H
   0.1067250000000000    0.8200450000000000    0.3166350000000000 H
   0.2069700000000000    0.9160200000000001    0.1930500000000000 H
   0.0895700000000000    0.8920600000000001    0.3101550000000000 H
   0.1846650000000000    0.9845450000000000    0.1887550000000000 H
   0.1091000000000000    0.6721950000000000    0.3387500000000000 H
   0.1070200000000000    0.5857950000000000    0.3640200000000000 H
   0.1693700000000000    0.5701350000000001    0.3401450000000000 H
   0.2304250000000000    0.6396400000000000    0.2935650000000000 H
   0.0149550000000000    0.8166550000000000    0.8625650000000000 H
   0.0541000000000000    0.6930650000000000    0.8908499999999999 H
   0.9944450000000000    0.8101350000000000    0.7972600000000001 H
   0.0295050000000000    0.6887050000000000    0.8268650000000000 H
   0.0277100000000000    0.8380550000000000    0.9882500000000001 H
   0.0378400000000000    0.8631850000000000    0.0492800000000000 H
   0.0886000000000000    0.8399000000000000    0.0888050000000000 H
   0.1269550000000000    0.7938200000000000    0.0661300000000000 H
   0.2350900000000000    0.6833750000000001    0.1373500000000000 H
   0.1958750000000000    0.8069100000000000    0.1091150000000000 H
   0.2556000000000000    0.6898950000000000    0.2026850000000000 H
   0.2204700000000000    0.8112750000000000    0.1731300000000000 H
   0.2223250000000000    0.6619650000000000    0.0117000000000000 H
   0.2121850000000000    0.6368300000000000    0.9506749999999999 H
   0.1614100000000000    0.6600850000000000    0.9111750000000001 H
   0.1230500000000000    0.7061550000000000    0.9338600000000000 H
   0.1432900000000000    0.6799600000000000    0.6833500000000000 H
   0.0430400000000000    0.5839850000000000    0.8069250000000000 H
   0.1604500000000000    0.6079450000000000    0.6898299999999999 H
   0.0653450000000000    0.5154600000000000    0.8112200000000001 H
   0.1409150000000000    0.8278099999999999    0.6612400000000000 H
   0.1429950000000000    0.9142100000000000    0.6359650000000000 H
   0.0806450000000000    0.9298750000000000    0.6598200000000000 H
   0.0195900000000000    0.8603650000000000    0.7063950000000000 H
   0.8567300000000000    0.8200400000000000    0.8166450000000001 H
   0.9569650000000001    0.9160150000000000    0.6930499999999999 H
   0.8395650000000000    0.8920550000000000    0.8101550000000000 H
   0.9346550000000000    0.9845400000000000    0.6887500000000000 H
   0.8591050000000000    0.6721850000000000    0.8387549999999999 H
   0.8570249999999999    0.5857900000000000    0.8640150000000000 H
   0.9193750000000001    0.5701350000000001    0.8401300000000000 H
   0.9804250000000000    0.6396450000000000    0.7935500000000000 H
   0.5535850000000000    0.6370899999999999    0.1794150000000000 H
   0.5002799999999999    0.6094400000000000    0.0841250000000000 H
   0.6068100000000000    0.7023400000000000    0.1075200000000000 H
   0.5569650000000000    0.6733100000000000    0.0157050000000000 H
   0.4779050000000000    0.5113850000000000    0.3267950000000000 H
   0.4372950000000000    0.4502450000000000    0.4131000000000000 H
   0.3669800000000000    0.4104600000000000    0.4292000000000000 H
   0.3400950000000000    0.4331100000000000    0.3601500000000000 H
   0.1964200000000000    0.3628850000000000    0.3205600000000000 H
   0.2497300000000000    0.3905500000000000    0.4158450000000000 H
   0.1431950000000000    0.2976350000000000    0.3924600000000000 H
   0.1930450000000000    0.3266750000000000    0.4842650000000000 H
   0.2721000000000000    0.4885950000000000    0.1731800000000000 H
   0.3127100000000000    0.5497450000000000    0.0868550000000000 H
   0.3830250000000000    0.5895400000000000    0.0707750000000000 H
   0.4099050000000000    0.5668950000000000    0.1398200000000000 H
   0.7649300000000000    0.3166250000000000    0.8625950000000000 H
   0.8041450000000000    0.1930950000000000    0.8908499999999999 H
   0.7444150000000000    0.3101100000000000    0.7972900000000001 H
   0.7795449999999999    0.1887300000000000    0.8268400000000000 H
   0.7777149999999999    0.3380600000000000    0.9882500000000001 H
   0.7878499999999999    0.3631950000000000    0.0492500000000000 H
   0.8386100000000001    0.3399150000000000    0.0887950000000000 H
   0.8769600000000000    0.2938250000000000    0.0661250000000000 H
   0.9851099999999999    0.1833950000000000    0.1373600000000000 H
   0.9458700000000000    0.3069050000000000    0.1091200000000000 H
   0.0056200000000000    0.1899100000000000    0.2026500000000000 H
   0.9704650000000000    0.3112700000000000    0.1731350000000000 H
   0.9723200000000001    0.1619550000000000    0.0117100000000000 H
   0.9621750000000000    0.1368000000000000    0.9507050000000000 H
   0.9113950000000000    0.1600550000000000    0.9112050000000000 H
   0.8730400000000000    0.2061400000000000    0.9338750000000000 H
   0.4464350000000000    0.3628650000000000    0.8205650000000000 H
   0.4997300000000000    0.3905650000000000    0.9158450000000000 H
   0.4430450000000000    0.3266900000000000    0.9842700000000000 H
   0.3932100000000000    0.2976200000000000    0.8924650000000001 H
   0.5221050000000000    0.4886000000000000    0.6731800000000000 H
   0.5627150000000000    0.5497500000000000    0.5868550000000000 H
   0.6330300000000000    0.5895450000000000    0.5707800000000000 H
   0.6599100000000000    0.5669000000000000    0.6398300000000000 H
   0.8035950000000001    0.6370950000000000    0.6794200000000000 H
   0.7502800000000001    0.6094400000000000    0.5841350000000000 H
   0.8568200000000000    0.7023450000000000    0.6075200000000001 H
   0.8069649999999999    0.6733150000000000    0.5157150000000000 H
   0.7279100000000001    0.5113850000000000    0.8268000000000000 H
   0.6872950000000000    0.4502400000000000    0.9131250000000000 H
   0.6169800000000000    0.4104550000000000    0.9292050000000001 H
   0.5901000000000000    0.4331050000000000    0.8601500000000000 H
   0.8932950000000000    0.1799600000000000    0.6833450000000000 H
   0.7930400000000000    0.0839900000000000    0.8069000000000000 H
   0.9104500000000000    0.1079450000000000    0.6898250000000000 H
   0.8153450000000000    0.0154600000000000    0.8112100000000000 H
   0.8909150000000000    0.3278150000000000    0.6612250000000000 H
   0.8929950000000000    0.4142100000000000    0.6359550000000000 H
   0.8306450000000001    0.4298700000000000    0.6598300000000000 H
   0.7695900000000000    0.3603600000000000    0.7064100000000000 H
   0.6067250000000000    0.3200450000000000    0.8166350000000000 H
   0.7069700000000000    0.4160200000000000    0.6930499999999999 H
   0.5895700000000000    0.3920600000000000    0.8101550000000000 H
   0.6846650000000000    0.4845450000000000    0.6887550000000000 H
   0.6091000000000000    0.1721950000000000    0.8387500000000000 H
   0.6070200000000000    0.0857950000000000    0.8640200000000000 H
   0.6693700000000000    0.0701350000000000    0.8401449999999999 H
   0.7304250000000000    0.1396400000000000    0.7935650000000001 H
   0.5149550000000001    0.3166550000000000    0.3625650000000000 H
   0.5541000000000000    0.1930650000000000    0.3908500000000000 H
   0.4944450000000000    0.3101350000000000    0.2972600000000000 H
   0.5295050000000000    0.1887050000000000    0.3268650000000000 H
   0.5277100000000000    0.3380550000000000    0.4882500000000000 H
   0.5378400000000000    0.3631850000000000    0.5492800000000000 H
   0.5886000000000000    0.3399000000000000    0.5888050000000000 H
   0.6269550000000000    0.2938200000000000    0.5661300000000000 H
   0.7350900000000000    0.1833750000000000    0.6373500000000000 H
   0.6958750000000000    0.3069100000000000    0.6091150000000000 H
   0.7556000000000000    0.1898950000000000    0.7026850000000000 H
   0.7204699999999999    0.3112750000000000    0.6731300000000000 H
   0.7223250000000000    0.1619650000000000    0.5117000000000000 H
   0.7121850000000001    0.1368300000000000    0.4506750000000000 H
   0.6614100000000001    0.1600850000000000    0.4111750000000000 H
   0.6230500000000000    0.2061550000000000    0.4338600000000000 H
   0.6432900000000000    0.1799600000000000    0.1833500000000000 H
   0.5430400000000000    0.0839850000000000    0.3069250000000000 H
   0.6604500000000000    0.1079450000000000    0.1898300000000000 H
   0.5653450000000000    0.0154600000000000    0.3112200000000000 H
   0.6409150000000000    0.3278100000000000    0.1612400000000000 H
   0.6429950000000000    0.4142100000000000    0.1359650000000000 H
   0.5806450000000000    0.4298750000000000    0.1598200000000000 H
   0.5195900000000000    0.3603650000000000    0.2063950000000000 H
   0.3567300000000000    0.3200400000000000    0.3166450000000000 H
   0.4569650000000000    0.4160150000000000    0.1930500000000000 H
   0.3395650000000000    0.3920550000000000    0.3101550000000000 H
   0.4346550000000000    0.4845400000000000    0.1887500000000000 H
   0.3591050000000000    0.1721850000000000    0.3387550000000000 H
   0.3570250000000000    0.0857900000000000    0.3640150000000000 H
   0.4193750000000000    0.0701350000000000    0.3401300000000000 H
   0.4804250000000000    0.1396450000000000    0.2935500000000000 H
   0.1593386006307466    0.4461653043926434    0.2260657159860400 H
   0.9464350000000000    0.3628650000000000    0.3205650000000000 H
   0.9997300000000000    0.3905650000000000    0.4158450000000000 H
   0.9430450000000000    0.3266900000000000    0.4842700000000000 H