H8 C12 N5
1.0
  36.4294283114400343    0.0000000000000000    6.8939487162040587
  -9.0636925945078612   27.6636515208054483   14.6608559466254160
   0.0000000000000000    0.0000000000000000   32.6760000000000019
H C N
8 12 5
direct
   0.1091000000000000    0.1721950000000000    0.3387500000000000 H
   0.1070200000000000    0.0857950000000000    0.3640200000000000 H
   0.1693700000000000    0.0701350000000000    0.3401450000000000 H
   0.2304250000000000    0.1396400000000000    0.2935650000000000 H
   0.1067250000000000    0.3200450000000000    0.3166350000000000 H
   0.0895700000000000    0.3920600000000000    0.3101550000000000 H
   0.1846650000000000    0.4845450000000000    0.1887550000000000 H
   0.2069700000000000    0.4160200000000000    0.1930500000000000 H
   0.1749150000000000    0.2503100000000000    0.2854100000000000 C
   0.1720350000000000    0.3206600000000000    0.2616450000000000 C
   0.1701450000000000    0.1996500000000000    0.3039950000000000 C
   0.1350050000000000    0.1626100000000000    0.3305000000000000 C
   0.1341650000000000    0.1152900000000000    0.3441000000000000 C
   0.1686550000000000    0.1064550000000000    0.3308700000000000 C
   0.2028500000000000    0.1449300000000000    0.3046250000000000 C
   0.1589250000000000    0.3617100000000000    0.2558500000000000 C
   0.1248750000000000    0.3560150000000000    0.2879350000000000 C
   0.1150800000000000    0.3962550000000000    0.2841900000000000 C
   0.1682650000000000    0.4476500000000000    0.2169150000000000 C
   0.1804000000000000    0.4092550000000000    0.2192000000000000 C
   0.2108900000000000    0.2808200000000000    0.2558500000000000 N
   0.2092300000000000    0.3265100000000000    0.2397950000000000 N
   0.1496750000000000    0.2736200000000000    0.2905200000000000 N
   0.2041850000000000    0.1911450000000000    0.2910050000000000 N
   0.1364300000000000    0.4423550000000000    0.2495500000000000 N
