C1 N1
1.0
  20.2619996265844300    0.0000000000000000   -0.0038900247195307
  -0.0006051929285131    6.9349999735934755    0.0000000000000004
   0.0000000000000000    0.0000000000000000   13.9320000000000004
C N
1 1
direct
   0.6659599999999999    0.6879900000000000    0.1566300000000000 C
   0.6663666666666666    0.8065700000000000    0.0964850000000000 N
