Fe6 Ni6 H25 C47 N35 O1
1.0
  20.2619996265844300    0.0000000000000000   -0.0038900247195307
  -0.0006051929285131    6.9349999735934755    0.0000000000000004
   0.0000000000000000    0.0000000000000000   13.9320000000000004
Fe Ni H C N O
6 6 25 47 35 1
direct
   0.0000433333333333    0.0000200000000000    0.0000300000000000 Fe
   0.0000433333333333    0.0000200000000000    0.5000300000000000 Fe
   0.3333766666666667    0.0000200000000000    0.5000300000000000 Fe
   0.3333766666666667    0.0000200000000000    0.0000300000000000 Fe
   0.6667099999999999    0.0000200000000000    0.5000300000000000 Fe
   0.6667099999999999    0.0000200000000000    0.0000300000000000 Fe
   0.9990233333333333    0.5000400000000000    0.7500650000000000 Ni
   0.9990233333333333    0.5000400000000000    0.2500650000000000 Ni
   0.3323566666666666    0.5000400000000000    0.2500650000000000 Ni
   0.3323566666666666    0.5000400000000000    0.7500650000000000 Ni
   0.6656899999999999    0.5000400000000000    0.2500650000000000 Ni
   0.6656899999999999    0.5000400000000000    0.7500650000000000 Ni
   0.1045466666666666    0.7006200000000000    0.9996600000000000 H
   0.1045933333333333    0.2994300000000000    0.9996100000000000 H
   0.2287800000000000    0.7006200000000000    0.9997700000000000 H
   0.2288266666666667    0.2994300000000000    0.9997500000000000 H
   0.1045466666666666    0.7006200000000000    0.4996600000000000 H
   0.1045933333333333    0.2994300000000000    0.4996100000000000 H
   0.2287800000000000    0.7006200000000000    0.4997700000000000 H
   0.2288266666666667    0.2994300000000000    0.4997500000000000 H
   0.4378799999999999    0.7006200000000000    0.9996600000000000 H
   0.4379266666666666    0.2994300000000000    0.9996100000000000 H
   0.5621133333333332    0.7006200000000000    0.9997700000000000 H
   0.5621600000000000    0.2994300000000000    0.9997500000000000 H
   0.4378799999999999    0.7006200000000000    0.4996600000000000 H
   0.4379266666666666    0.2994300000000000    0.4996100000000000 H
   0.5621133333333332    0.7006200000000000    0.4997700000000000 H
   0.5621600000000000    0.2994300000000000    0.4997500000000000 H
   0.7712133333333333    0.7006200000000000    0.9996600000000000 H
   0.7712599999999999    0.2994300000000000    0.9996100000000000 H
   0.8954466666666666    0.7006200000000000    0.9997700000000000 H
   0.8954933333333333    0.2994300000000000    0.9997500000000000 H
   0.7712133333333333    0.7006200000000000    0.4996600000000000 H
   0.7712599999999999    0.2994300000000000    0.4996100000000000 H
   0.8954466666666666    0.7006200000000000    0.4997700000000000 H
   0.8954933333333333    0.2994300000000000    0.4997500000000000 H
   0.6660277238954279    0.7077376217701247    0.1466138024003698 H
   0.1324966666666667    0.8343000000000000    0.9996600000000000 C
   0.1325366666666667    0.1657400000000000    0.9995900000000000 C
   0.2008366666666667    0.8343100000000000    0.9996900000000000 C
   0.2008766666666666    0.1657400000000000    0.9996800000000000 C
   0.1324966666666667    0.8343000000000000    0.4996600000000000 C
   0.1325366666666667    0.1657400000000000    0.4995900000000000 C
   0.2008366666666667    0.8343100000000000    0.4996900000000000 C
   0.2008766666666666    0.1657400000000000    0.4996800000000000 C
   0.9993033333333332    0.3120700000000000    0.6566300000000000 C
   0.9992933333333333    0.6879900000000000    0.6566300000000000 C
   0.9993000000000000    0.3120600000000000    0.8434750000000000 C
   0.9992900000000000    0.6879999999999999    0.8434800000000000 C
   0.9993033333333332    0.3120700000000000    0.1566300000000000 C
   0.9992933333333333    0.6879900000000000    0.1566300000000000 C
   0.9993000000000000    0.3120600000000000    0.3434750000000000 C
   0.9992900000000000    0.6879999999999999    0.3434800000000000 C
   0.4658300000000000    0.8343000000000000    0.9996600000000000 C
   0.4658700000000000    0.1657400000000000    0.9995900000000000 C
   0.5341700000000000    0.8343100000000000    0.9996900000000000 C
   0.5342100000000000    0.1657400000000000    0.9996800000000000 C
   0.4658300000000000    0.8343000000000000    0.4996600000000000 C
   0.4658700000000000    0.1657400000000000    0.4995900000000000 C
   0.5341700000000000    0.8343100000000000    0.4996900000000000 C
   0.5342100000000000    0.1657400000000000    0.4996800000000000 C
   0.3326366666666666    0.3120700000000000    0.1566300000000000 C
   0.3326266666666666    0.6879900000000000    0.1566300000000000 C
   0.3326333333333333    0.3120600000000000    0.3434750000000000 C
   0.3326233333333333    0.6879999999999999    0.3434800000000000 C
   0.3326366666666666    0.3120700000000000    0.6566300000000000 C
   0.3326266666666666    0.6879900000000000    0.6566300000000000 C
   0.3326333333333333    0.3120600000000000    0.8434750000000000 C
   0.3326233333333333    0.6879999999999999    0.8434800000000000 C
   0.7991633333333332    0.8343000000000000    0.9996600000000000 C
   0.7992033333333333    0.1657400000000000    0.9995900000000000 C
   0.8675033333333333    0.8343100000000000    0.9996900000000000 C
   0.8675433333333333    0.1657400000000000    0.9996800000000000 C
   0.7991633333333332    0.8343000000000000    0.4996600000000000 C
   0.7992033333333333    0.1657400000000000    0.4995900000000000 C
   0.8675033333333333    0.8343100000000000    0.4996900000000000 C
   0.8675433333333333    0.1657400000000000    0.4996800000000000 C
   0.6659700000000000    0.3120700000000000    0.1566300000000000 C
   0.6659666666666666    0.3120600000000000    0.3434750000000000 C
   0.6659566666666666    0.6879999999999999    0.3434800000000000 C
   0.6659700000000000    0.3120700000000000    0.6566300000000000 C
   0.6659599999999999    0.6879900000000000    0.6566300000000000 C
   0.6659666666666666    0.3120600000000000    0.8434750000000000 C
   0.6659566666666666    0.6879999999999999    0.8434800000000000 C
   0.0972733333333333    0.0000700000000000    0.9995900000000000 N
   0.2361400000000000    0.0000800000000000    0.9996800000000000 N
   0.0972733333333333    0.0000700000000000    0.4995900000000000 N
   0.2361400000000000    0.0000800000000000    0.4996800000000000 N
   0.9997166666666666    0.1934700000000000    0.5964950000000000 N
   0.9996999999999999    0.8065700000000000    0.5964850000000000 N
   0.9997033333333333    0.1934200000000000    0.9035900000000000 N
   0.9996833333333333    0.8066300000000000    0.9036000000000000 N
   0.9997166666666666    0.1934700000000000    0.0964950000000000 N
   0.9996999999999999    0.8065700000000000    0.0964850000000000 N
   0.9997033333333333    0.1934200000000000    0.4035900000000000 N
   0.9996833333333333    0.8066300000000000    0.4036000000000000 N
   0.4306066666666666    0.0000700000000000    0.9995900000000000 N
   0.5694733333333333    0.0000800000000000    0.9996800000000000 N
   0.4306066666666666    0.0000700000000000    0.4995900000000000 N
   0.5694733333333333    0.0000800000000000    0.4996800000000000 N
   0.3330500000000000    0.1934700000000000    0.0964950000000000 N
   0.3330333333333333    0.8065700000000000    0.0964850000000000 N
   0.3330366666666666    0.1934200000000000    0.4035900000000000 N
   0.3330166666666666    0.8066300000000000    0.4036000000000000 N
   0.3330500000000000    0.1934700000000000    0.5964950000000000 N
   0.3330333333333333    0.8065700000000000    0.5964850000000000 N
   0.3330366666666666    0.1934200000000000    0.9035900000000000 N
   0.3330166666666666    0.8066300000000000    0.9036000000000000 N
   0.7639400000000000    0.0000700000000000    0.9995900000000000 N
   0.9028066666666666    0.0000800000000000    0.9996800000000000 N
   0.7639400000000000    0.0000700000000000    0.4995900000000000 N
   0.9028066666666666    0.0000800000000000    0.4996800000000000 N
   0.6663833333333333    0.1934700000000000    0.0964950000000000 N
   0.6663699999999999    0.1934200000000000    0.4035900000000000 N
   0.6663500000000000    0.8066300000000000    0.4036000000000000 N
   0.6663833333333333    0.1934700000000000    0.5964950000000000 N
   0.6663666666666666    0.8065700000000000    0.5964850000000000 N
   0.6663699999999999    0.1934200000000000    0.9035900000000000 N
   0.6663500000000000    0.8066300000000000    0.9036000000000000 N
   0.6663666666666666    0.8065700000000000    0.0964850000000000 O
