Zn40 H98 C184 O96
1.0
  12.7686870266574317    0.0000000000000000   -1.1346332514386384
  -0.0572920968895686   28.5138712878368601    0.0637008344260142
   0.0000000000000000    0.0000000000000000   20.1720000000000006
Zn H C O
40 98 184 96
direct
   0.5064300000000000    0.8474150000000000    0.5607700000000000 Zn
   0.9914200000000000    0.1525650000000000    0.4393200000000000 Zn
   0.7516300000000000    0.8023950000000000    0.5441800000000000 Zn
   0.7462500000000000    0.1975850000000000    0.4558500000000000 Zn
   0.0051000000000000    0.8476550000000000    0.5610200000000000 Zn
   0.4927900000000000    0.1523500000000000    0.4390300000000000 Zn
   0.2525000000000000    0.8025550000000000    0.5441900000000000 Zn
   0.2453900000000000    0.1974300000000000    0.4558000000000000 Zn
   0.4987200000000000    0.9999950000000000    0.9999700000000000 Zn
   0.9998700000000000    0.9999850000000000    0.9999300000000000 Zn
   0.9946800000000000    0.5969100000000001    0.9387700000000000 Zn
   0.5064100000000000    0.9031350000000000    0.0611800000000000 Zn
   0.7518600000000000    0.9482100000000000    0.0442500000000000 Zn
   0.7469200000000000    0.5519000000000001    0.9556000000000000 Zn
   0.0049800000000000    0.9031000000000000    0.0612100000000000 Zn
   0.4933800000000000    0.5969000000000000    0.9386800000000000 Zn
   0.2475000000000000    0.5518600000000000    0.9556800000000000 Zn
   0.2526300000000000    0.9480150000000001    0.0443600000000000 Zn
   0.9998000000000000    0.7505100000000000    0.4999600000000000 Zn
   0.4980700000000000    0.7494300000000000    0.5001700000000000 Zn
   0.9946800000000000    0.0969100000000000    0.9387700000000000 Zn
   0.5064100000000000    0.4031350000000000    0.0611800000000000 Zn
   0.7518600000000000    0.4482100000000000    0.0442500000000000 Zn
   0.7469200000000000    0.0519000000000000    0.9556000000000000 Zn
   0.0049800000000000    0.4031000000000000    0.0612100000000000 Zn
   0.4933800000000000    0.0969000000000000    0.9386800000000000 Zn
   0.2475000000000000    0.0518600000000000    0.9556800000000000 Zn
   0.2526300000000000    0.4480150000000000    0.0443600000000000 Zn
   0.9998000000000000    0.2505100000000000    0.4999600000000000 Zn
   0.4980700000000000    0.2494300000000000    0.5001700000000000 Zn
   0.5064300000000000    0.3474150000000000    0.5607700000000000 Zn
   0.9914200000000000    0.6525650000000001    0.4393200000000000 Zn
   0.7516300000000000    0.3023950000000000    0.5441800000000000 Zn
   0.7462500000000000    0.6975850000000000    0.4558500000000000 Zn
   0.0051000000000000    0.3476550000000000    0.5610200000000000 Zn
   0.4927900000000000    0.6523500000000000    0.4390300000000000 Zn
   0.2525000000000000    0.3025550000000000    0.5441900000000000 Zn
   0.2453900000000000    0.6974300000000000    0.4558000000000000 Zn
   0.4987200000000000    0.4999950000000000    0.9999700000000000 Zn
   0.9998700000000000    0.4999850000000000    0.9999300000000000 Zn
   0.9447600000000000    0.9013750000000000    0.8271900000000000 H
   0.8770600000000000    0.8546899999999999    0.7275199999999999 H
   0.5700200000000000    0.9117450000000000    0.7415100000000000 H
   0.6360800000000000    0.9563500000000000    0.8430200000000000 H
   0.5538500000000000    0.0985900000000000    0.1725100000000000 H
   0.6210800000000000    0.1452550000000000    0.2723100000000000 H
   0.9286200000000000    0.0887450000000000    0.2583000000000000 H
   0.8630200000000000    0.0441800000000000    0.1566300000000000 H
   0.3596100000000000    0.0657300000000000    0.4652100000000000 H
   0.4316600000000000    0.9847800000000000    0.4742200000000000 H
   0.0662700000000000    0.0152050000000000    0.5259500000000000 H
   0.1383400000000000    0.9342650000000000    0.5349900000000000 H
   0.4448300000000000    0.9018349999999999    0.8265800000000000 H
   0.3769600000000000    0.8554600000000000    0.7266000000000000 H
   0.0697100000000000    0.9120150000000000    0.7417200000000000 H
   0.1358900000000000    0.9561550000000000    0.8436399999999999 H
   0.4287900000000000    0.0881200000000000    0.2584700000000000 H
   0.3630900000000000    0.0438600000000000    0.1565500000000000 H
   0.0539900000000000    0.0981950000000000    0.1729100000000000 H
   0.1213600000000000    0.1446500000000000    0.2729200000000000 H
   0.5669000000000000    0.0160050000000000    0.5263300000000000 H
   0.6371700000000000    0.9346950000000001    0.5350100000000000 H
   0.9309900000000000    0.9839450000000001    0.4733900000000000 H
   0.8607000000000000    0.0652500000000000    0.4646000000000000 H
   0.5547100000000000    0.6503400000000000    0.6728600000000000 H
   0.6231900000000000    0.6036950000000000    0.7725600000000000 H
   0.9294900000000000    0.6621000000000000    0.7581500000000000 H
   0.8627100000000000    0.7066100000000000    0.6565000000000000 H
   0.9445000000000000    0.8494300000000000    0.3277300000000000 H
   0.8769500000000000    0.8962200000000000    0.2279300000000000 H
   0.5698100000000000    0.8385850000000000    0.2419100000000000 H
   0.6357500000000000    0.7938550000000000    0.3435200000000000 H
   0.4328000000000000    0.7668349999999999    0.9741500000000000 H
   0.3628900000000000    0.6854050000000000    0.9644200000000001 H
   0.0681700000000000    0.7332850000000000    0.0253600000000000 H
   0.1382000000000000    0.8147200000000000    0.0352100000000000 H
   0.4442700000000000    0.8492200000000000    0.3273300000000000 H
   0.3763300000000000    0.8959349999999999    0.2275000000000000 H
   0.0693300000000000    0.8383149999999999    0.2421500000000000 H
   0.1356000000000000    0.7937400000000000    0.3438000000000000 H
   0.0539800000000000    0.6507350000000001    0.6727600000000000 H
   0.1221000000000000    0.6040250000000000    0.7724500000000000 H
   0.4291200000000000    0.6615300000000000    0.7575200000000000 H
   0.3626400000000000    0.7061200000000000    0.6559400000000000 H
   0.5670200000000000    0.7331449999999999    0.0259200000000000 H
   0.6368900000000000    0.8145800000000001    0.0356200000000000 H
   0.8615300000000000    0.6853000000000000    0.9646800000000000 H
   0.9315400000000000    0.7667349999999999    0.9745300000000000 H
   0.5547100000000000    0.1503400000000000    0.6728600000000000 H
   0.6231900000000000    0.1036950000000000    0.7725600000000000 H
   0.9294900000000000    0.1621000000000000    0.7581500000000000 H
   0.8627100000000000    0.2066100000000000    0.6565000000000000 H
   0.9445000000000000    0.3494300000000000    0.3277300000000000 H
   0.8769500000000000    0.3962200000000000    0.2279300000000000 H
   0.5698100000000000    0.3385850000000000    0.2419100000000000 H
   0.6357500000000000    0.2938550000000000    0.3435200000000000 H
   0.4328000000000000    0.2668350000000000    0.9741500000000000 H
   0.3628900000000000    0.1854050000000000    0.9644200000000001 H
   0.0681700000000000    0.2332850000000000    0.0253600000000000 H
   0.1382000000000000    0.3147200000000000    0.0352100000000000 H
   0.4442700000000000    0.3492200000000000    0.3273300000000000 H
   0.3763300000000000    0.3959350000000000    0.2275000000000000 H
   0.0693300000000000    0.3383150000000000    0.2421500000000000 H
   0.1356000000000000    0.2937400000000000    0.3438000000000000 H
   0.0539800000000000    0.1507350000000000    0.6727600000000000 H
   0.1221000000000000    0.1040250000000000    0.7724500000000000 H
   0.4291200000000000    0.1615300000000000    0.7575200000000000 H
   0.3626400000000000    0.2061200000000000    0.6559400000000000 H
   0.5670200000000000    0.2331450000000000    0.0259200000000000 H
   0.6368900000000000    0.3145800000000000    0.0356200000000000 H
   0.8615300000000000    0.1853000000000000    0.9646800000000000 H
   0.9315400000000000    0.2667350000000000    0.9745300000000000 H
   0.6929517818098816    0.4815539540548526   -0.0794950756703333 H
   0.9849546796415641    0.4627128551784269    0.8798611788437646 H
   0.8406856267346228    0.4717255574086223   -0.1087133060503572 H
   0.8039587488350299    0.3161412472521241    0.6652336649962823 H
   0.5375077189181192    0.3830899569130004    0.6698479222551419 H
   0.6723637817597540    0.3520382141552234    0.6768321441501500 H
   0.5538500000000000    0.5985900000000000    0.1725100000000000 H
   0.6210800000000000    0.6452550000000000    0.2723100000000000 H
   0.9286200000000000    0.5887450000000000    0.2583000000000000 H
   0.8630200000000000    0.5441800000000000    0.1566300000000000 H
   0.3596100000000000    0.5657300000000000    0.4652100000000000 H
   0.4316600000000000    0.4847800000000000    0.4742200000000000 H
   0.0662700000000000    0.5152050000000000    0.5259500000000000 H
   0.1383400000000000    0.4342650000000000    0.5349900000000000 H
   0.4448300000000000    0.4018350000000000    0.8265800000000000 H
   0.3769600000000000    0.3554600000000000    0.7266000000000000 H
   0.0697100000000000    0.4120150000000000    0.7417200000000000 H
   0.1358900000000000    0.4561550000000000    0.8436399999999999 H
   0.4287900000000000    0.5881200000000000    0.2584700000000000 H
   0.3630900000000000    0.5438600000000000    0.1565500000000000 H
   0.0539900000000000    0.5981950000000000    0.1729100000000000 H
   0.1213600000000000    0.6446499999999999    0.2729200000000000 H
   0.5669000000000000    0.5160050000000000    0.5263300000000000 H
   0.6371700000000000    0.4346950000000000    0.5350100000000000 H
   0.9309900000000000    0.4839450000000000    0.4733900000000000 H
   0.8607000000000000    0.5652500000000000    0.4646000000000000 H
   0.6782000000000000    0.8541950000000000    0.6670199999999999 C
   0.8347500000000000    0.9607550000000000    0.9001600000000000 C
   0.8625800000000000    0.9032050000000000    0.8084300000000000 C
   0.8248799999999999    0.8771450000000001    0.7530300000000000 C
   0.7191200000000000    0.8801950000000001    0.7286500000000000 C
   0.6515400000000000    0.9090849999999999    0.7613300000000000 C
   0.6888100000000000    0.9342300000000000    0.8174700000000000 C
   0.7949700000000000    0.9320300000000000    0.8411900000000000 C
   0.8198299999999999    0.1458850000000000    0.3329600000000000 C
   0.6643600000000000    0.0393950000000000    0.0996100000000000 C
   0.6360300000000000    0.0968850000000000    0.1912900000000000 C
   0.6734599999999999    0.1229200000000000    0.2467700000000000 C
   0.7792200000000000    0.1200000000000000    0.2711800000000000 C
   0.8470900000000000    0.0912850000000000    0.2384500000000000 C
   0.8101000000000000    0.0661750000000000    0.1822300000000000 C
   0.7039200000000000    0.0682000000000000    0.1585200000000000 C
   0.1637900000000000    0.0940700000000000    0.4867100000000000 C
   0.3341100000000000    0.9059150000000000    0.5133900000000000 C
   0.3114100000000000    0.0369600000000000    0.4807100000000000 C
   0.3519100000000000    0.9917300000000000    0.4858800000000000 C
   0.2900300000000000    0.9544150000000000    0.5054300000000000 C
   0.1460100000000000    0.0082600000000000    0.5142900000000000 C
   0.1865200000000000    0.9630300000000001    0.5194600000000000 C
   0.2078900000000000    0.0455750000000000    0.4947200000000000 C
   0.1776600000000000    0.8549700000000000    0.6665700000000000 C
   0.3347900000000000    0.9607000000000000    0.9002200000000000 C
   0.3625600000000000    0.9035900000000000    0.8080000000000001 C
   0.3247800000000000    0.8777300000000000    0.7524300000000000 C
   0.1513200000000000    0.9093850000000000    0.7613000000000000 C
   0.1886300000000000    0.9342750000000000    0.8177200000000000 C
   0.2189100000000000    0.8807450000000000    0.7283100000000000 C
   0.2949100000000000    0.9321400000000000    0.8411700000000000 C
   0.3204200000000000    0.1451300000000000    0.3333700000000000 C
   0.1643400000000000    0.0391950000000000    0.0996900000000000 C
   0.3472700000000000    0.0907350000000000    0.2386500000000000 C
   0.3102100000000000    0.0657650000000000    0.1823200000000000 C
   0.2040300000000000    0.0678800000000000    0.1586700000000000 C
   0.1361800000000000    0.0964500000000000    0.1916600000000000 C
   0.1736900000000000    0.1223800000000000    0.2472000000000000 C
   0.2794500000000000    0.1193500000000000    0.2715800000000000 C
   0.6654400000000000    0.0942150000000000    0.4867000000000000 C
   0.8324500000000000    0.9057450000000000    0.5131500000000000 C
   0.6463400000000000    0.0086600000000000    0.5144400000000000 C
   0.6858200000000000    0.9632650000000000    0.5194000000000000 C
   0.7089200000000000    0.0456750000000000    0.4947200000000000 C
   0.8515400000000000    0.9912850000000000    0.4852700000000000 C
   0.8120600000000000    0.0366800000000000    0.4803000000000000 C
   0.7889699999999999    0.9542750000000000    0.5050200000000000 C
   0.8222100000000000    0.6040200000000000    0.8330200000000000 C
   0.6639100000000000    0.7105900000000001    0.5998000000000000 C
   0.6369000000000000    0.6524850000000000    0.6915400000000000 C
   0.6750600000000000    0.6264450000000000    0.7469700000000000 C
   0.7807900000000000    0.6299300000000000    0.7713000000000000 C
   0.8479500000000000    0.6591400000000001    0.7384300000000000 C
   0.8102600000000000    0.6842550000000001    0.6822600000000000 C
   0.7040700000000000    0.6817100000000000    0.6586700000000000 C
   0.6781500000000000    0.8963050000000000    0.1672500000000000 C
   0.8343800000000000    0.7894150000000000    0.4004100000000000 C
   0.8623400000000000    0.8474950000000000    0.3089200000000000 C
   0.8247200000000000    0.8736250000000000    0.2534700000000000 C
   0.7190200000000000    0.8703700000000000    0.2290100000000000 C
   0.6513200000000000    0.8413400000000000    0.2617600000000000 C
   0.6885200000000000    0.8161200000000000    0.3179200000000000 C
   0.7946700000000000    0.8184350000000000    0.3416400000000000 C
   0.3338000000000000    0.8445549999999999    0.0141300000000000 C
   0.1674800000000000    0.6555000000000000    0.9857300000000000 C
   0.3532300000000000    0.7591800000000000    0.9856900000000000 C
   0.3139300000000000    0.7136950000000000    0.9801299999999999 C
   0.2904400000000000    0.7958850000000000    0.0055800000000000 C
   0.1477900000000000    0.7409300000000000    0.0138900000000000 C
   0.1871200000000000    0.7864150000000000    0.0194900000000000 C
   0.2106500000000000    0.7042100000000000    0.9940900000000000 C
   0.1773100000000000    0.8959699999999999    0.1670700000000000 C
   0.3344900000000000    0.7892850000000000    0.4004200000000000 C
   0.3620400000000000    0.8472700000000000    0.3086800000000000 C
   0.3241900000000000    0.8733450000000000    0.2532100000000000 C
   0.2184100000000000    0.8701000000000000    0.2289000000000000 C
   0.1509100000000000    0.8410900000000000    0.2618400000000000 C
   0.1882900000000000    0.8159500000000000    0.3180600000000000 C
   0.2945400000000000    0.8182300000000000    0.3416000000000000 C
   0.3211900000000000    0.6039500000000000    0.8327700000000000 C
   0.1635600000000000    0.7106700000000000    0.5995800000000000 C
   0.1362500000000000    0.6526650000000001    0.6913200000000000 C
   0.1742000000000000    0.6265849999999999    0.7467500000000000 C
   0.2800300000000000    0.6298100000000000    0.7709600000000000 C
   0.3474900000000000    0.6587850000000000    0.7379200000000000 C
   0.3099900000000000    0.6839350000000000    0.6817400000000000 C
   0.2036800000000000    0.6816850000000000    0.6583300000000000 C
   0.8322900000000000    0.8445100000000000    0.0142600000000000 C
   0.6659900000000000    0.6554350000000000    0.9858400000000000 C
   0.6465600000000000    0.7408100000000000    0.0143300000000000 C
   0.6858500000000000    0.7862950000000000    0.0199000000000000 C
   0.7093400000000000    0.7041050000000000    0.9944100000000000 C
   0.8126300000000000    0.7135950000000000    0.9804400000000000 C
   0.8519400000000000    0.7590800000000000    0.9860500000000000 C
   0.7891000000000000    0.7957950000000000    0.0058800000000000 C
   0.8222100000000000    0.1040200000000000    0.8330200000000000 C
   0.6639100000000000    0.2105900000000000    0.5998000000000000 C
   0.6369000000000000    0.1524850000000000    0.6915400000000000 C
   0.6750600000000000    0.1264450000000000    0.7469700000000000 C
   0.7807900000000000    0.1299300000000000    0.7713000000000000 C
   0.8479500000000000    0.1591400000000000    0.7384300000000000 C
   0.8102600000000000    0.1842550000000000    0.6822600000000000 C
   0.7040700000000000    0.1817100000000000    0.6586700000000000 C
   0.6781500000000000    0.3963050000000000    0.1672500000000000 C
   0.8343800000000000    0.2894150000000000    0.4004100000000000 C
   0.8623400000000000    0.3474950000000000    0.3089200000000000 C
   0.8247200000000000    0.3736250000000000    0.2534700000000000 C
   0.7190200000000000    0.3703700000000000    0.2290100000000000 C
   0.6513200000000000    0.3413400000000000    0.2617600000000000 C
   0.6885200000000000    0.3161200000000000    0.3179200000000000 C
   0.7946700000000000    0.3184350000000000    0.3416400000000000 C
   0.3338000000000000    0.3445550000000000    0.0141300000000000 C
   0.1674800000000000    0.1555000000000000    0.9857300000000000 C
   0.3532300000000000    0.2591800000000000    0.9856900000000000 C
   0.3139300000000000    0.2136950000000000    0.9801299999999999 C
   0.2904400000000000    0.2958850000000000    0.0055800000000000 C
   0.1477900000000000    0.2409300000000000    0.0138900000000000 C
   0.1871200000000000    0.2864150000000000    0.0194900000000000 C
   0.2106500000000000    0.2042100000000000    0.9940900000000000 C
   0.1773100000000000    0.3959700000000000    0.1670700000000000 C
   0.3344900000000000    0.2892850000000000    0.4004200000000000 C
   0.3620400000000000    0.3472700000000000    0.3086800000000000 C
   0.3241900000000000    0.3733450000000000    0.2532100000000000 C
   0.2184100000000000    0.3701000000000000    0.2289000000000000 C
   0.1509100000000000    0.3410900000000000    0.2618400000000000 C
   0.1882900000000000    0.3159500000000000    0.3180600000000000 C
   0.2945400000000000    0.3182300000000000    0.3416000000000000 C
   0.3211900000000000    0.1039500000000000    0.8327700000000000 C
   0.1635600000000000    0.2106700000000000    0.5995800000000000 C
   0.1362500000000000    0.1526650000000000    0.6913200000000000 C
   0.1742000000000000    0.1265850000000000    0.7467500000000000 C
   0.2800300000000000    0.1298100000000000    0.7709600000000000 C
   0.3474900000000000    0.1587850000000000    0.7379200000000000 C
   0.3099900000000000    0.1839350000000000    0.6817400000000000 C
   0.2036800000000000    0.1816850000000000    0.6583300000000000 C
   0.8322900000000000    0.3445100000000000    0.0142600000000000 C
   0.6659900000000000    0.1554350000000000    0.9858400000000000 C
   0.6465600000000000    0.2408100000000000    0.0143300000000000 C
   0.6858500000000000    0.2862950000000000    0.0199000000000000 C
   0.7093400000000000    0.2041050000000000    0.9944100000000000 C
   0.8126300000000000    0.2135950000000000    0.9804400000000000 C
   0.8519400000000000    0.2590800000000000    0.9860500000000000 C
   0.7891000000000000    0.2957950000000000    0.0058800000000000 C
   0.8198299999999999    0.6458850000000000    0.3329600000000000 C
   0.6643600000000000    0.5393950000000000    0.0996100000000000 C
   0.6360300000000000    0.5968850000000000    0.1912900000000000 C
   0.6734599999999999    0.6229200000000000    0.2467700000000000 C
   0.7792200000000000    0.6200000000000000    0.2711800000000000 C
   0.8470900000000000    0.5912850000000001    0.2384500000000000 C
   0.8101000000000000    0.5661750000000000    0.1822300000000000 C
   0.7039200000000000    0.5682000000000000    0.1585200000000000 C
   0.1637900000000000    0.5940700000000000    0.4867100000000000 C
   0.3341100000000000    0.4059150000000000    0.5133900000000000 C
   0.3114100000000000    0.5369600000000000    0.4807100000000000 C
   0.3519100000000000    0.4917300000000000    0.4858800000000000 C
   0.2900300000000000    0.4544150000000000    0.5054300000000000 C
   0.1460100000000000    0.5082600000000000    0.5142900000000000 C
   0.1865200000000000    0.4630300000000000    0.5194600000000000 C
   0.2078900000000000    0.5455750000000000    0.4947200000000000 C
   0.1776600000000000    0.3549700000000000    0.6665700000000000 C
   0.3347900000000000    0.4607000000000000    0.9002200000000000 C
   0.3625600000000000    0.4035900000000000    0.8080000000000001 C
   0.3247800000000000    0.3777300000000000    0.7524300000000000 C
   0.1513200000000000    0.4093850000000000    0.7613000000000000 C
   0.1886300000000000    0.4342750000000000    0.8177200000000000 C
   0.2189100000000000    0.3807450000000000    0.7283100000000000 C
   0.2949100000000000    0.4321400000000000    0.8411700000000000 C
   0.3204200000000000    0.6451300000000000    0.3333700000000000 C
   0.1643400000000000    0.5391950000000000    0.0996900000000000 C
   0.3472700000000000    0.5907350000000000    0.2386500000000000 C
   0.3102100000000000    0.5657650000000000    0.1823200000000000 C
   0.2040300000000000    0.5678799999999999    0.1586700000000000 C
   0.1361800000000000    0.5964500000000000    0.1916600000000000 C
   0.1736900000000000    0.6223800000000000    0.2472000000000000 C
   0.2794500000000000    0.6193500000000000    0.2715800000000000 C
   0.6654400000000000    0.5942149999999999    0.4867000000000000 C
   0.8324500000000000    0.4057450000000000    0.5131500000000000 C
   0.6463400000000000    0.5086600000000000    0.5144400000000000 C
   0.6858200000000000    0.4632650000000000    0.5194000000000000 C
   0.7089200000000000    0.5456750000000000    0.4947200000000000 C
   0.8515400000000000    0.4912850000000000    0.4852700000000000 C
   0.8120600000000000    0.5366800000000000    0.4803000000000000 C
   0.7889699999999999    0.4542750000000000    0.5050200000000000 C
   0.7378600000000000    0.8252250000000000    0.6416200000000000 O
   0.5835399999999999    0.8642449999999999    0.6451000000000000 O
   0.9328600000000000    0.9669050000000000    0.9114000000000000 O
   0.7660700000000000    0.9777300000000000    0.9364600000000000 O
   0.7600100000000000    0.1747700000000000    0.3583800000000000 O
   0.9144099999999999    0.1357900000000000    0.3549900000000000 O
   0.5663000000000000    0.0330950000000000    0.0884100000000000 O
   0.7331600000000000    0.0224050000000000    0.0634100000000000 O
   0.2268200000000000    0.1282750000000000    0.4912400000000000 O
   0.0632900000000000    0.0967500000000000    0.4749800000000000 O
   0.2710600000000000    0.8717150000000000    0.5088300000000000 O
   0.4346200000000000    0.9032249999999999    0.5250600000000000 O
   0.2361700000000000    0.8253200000000001    0.6415700000000000 O
   0.0837200000000000    0.8659450000000000    0.6442600000000001 O
   0.4328900000000000    0.9668650000000000    0.9114300000000000 O
   0.2663400000000000    0.9776350000000000    0.9367000000000000 O
   0.2617000000000000    0.1746650000000000    0.3584000000000000 O
   0.4143400000000000    0.1341700000000000    0.3557500000000000 O
   0.0662400000000000    0.0330500000000000    0.0884700000000000 O
   0.2328900000000000    0.0222650000000000    0.0632000000000000 O
   0.7286899999999999    0.1283500000000000    0.4910000000000000 O
   0.5649500000000000    0.0969000000000000    0.4752400000000000 O
   0.7692099999999999    0.8715999999999999    0.5089000000000000 O
   0.9329300000000000    0.9030750000000001    0.5247300000000000 O
   0.7637000000000000    0.5742100000000000    0.8581000000000000 O
   0.9161800000000000    0.6150700000000000    0.8553200000000000 O
   0.5656300000000000    0.7160950000000000    0.5883900000000000 O
   0.7324000000000001    0.7282550000000000    0.5637700000000000 O
   0.7373800000000000    0.9257200000000000    0.1419000000000000 O
   0.5839200000000000    0.8856050000000000    0.1450000000000000 O
   0.9326300000000000    0.7838200000000000    0.4118800000000000 O
   0.7657200000000000    0.7717400000000000    0.4362900000000000 O
   0.2703600000000000    0.8784900000000000    0.0109100000000000 O
   0.4343800000000000    0.8476300000000000    0.0248600000000000 O
   0.2310500000000000    0.6216000000000000    0.9889700000000000 O
   0.0669100000000000    0.6523500000000000    0.9751100000000000 O
   0.2360200000000000    0.9257000000000000    0.1419800000000000 O
   0.0833400000000000    0.8849850000000000    0.1447200000000000 O
   0.4327000000000000    0.7836150000000000    0.4118600000000000 O
   0.2661000000000000    0.7716200000000000    0.4365000000000000 O
   0.2624000000000000    0.5742800000000000    0.8579400000000000 O
   0.4152200000000000    0.6148950000000000    0.8550900000000000 O
   0.0653500000000000    0.7163400000000000    0.5882500000000001 O
   0.2318500000000000    0.7283600000000000    0.5634400000000001 O
   0.7687500000000000    0.8784200000000000    0.0110200000000000 O
   0.9328800000000000    0.8476399999999999    0.0248500000000000 O
   0.7294200000000000    0.6214999999999999    0.9890200000000000 O
   0.5653899999999999    0.6523650000000000    0.9751500000000000 O
   0.7637000000000000    0.0742100000000000    0.8581000000000000 O
   0.9161800000000000    0.1150700000000000    0.8553200000000000 O
   0.5656300000000000    0.2160950000000000    0.5883900000000000 O
   0.7324000000000001    0.2282550000000000    0.5637700000000000 O
   0.7373800000000000    0.4257200000000000    0.1419000000000000 O
   0.5839200000000000    0.3856050000000000    0.1450000000000000 O
   0.9326300000000000    0.2838200000000000    0.4118800000000000 O
   0.7657200000000000    0.2717400000000000    0.4362900000000000 O
   0.2703600000000000    0.3784900000000000    0.0109100000000000 O
   0.4343800000000000    0.3476300000000000    0.0248600000000000 O
   0.2310500000000000    0.1216000000000000    0.9889700000000000 O
   0.0669100000000000    0.1523500000000000    0.9751100000000000 O
   0.2360200000000000    0.4257000000000000    0.1419800000000000 O
   0.0833400000000000    0.3849850000000000    0.1447200000000000 O
   0.4327000000000000    0.2836150000000000    0.4118600000000000 O
   0.2661000000000000    0.2716200000000000    0.4365000000000000 O
   0.2624000000000000    0.0742800000000000    0.8579400000000000 O
   0.4152200000000000    0.1148950000000000    0.8550900000000000 O
   0.0653500000000000    0.2163400000000000    0.5882500000000001 O
   0.2318500000000000    0.2283600000000000    0.5634400000000001 O
   0.7687500000000000    0.3784200000000000    0.0110200000000000 O
   0.9328800000000000    0.3476400000000000    0.0248500000000000 O
   0.7294200000000000    0.1215000000000000    0.9890200000000000 O
   0.5653899999999999    0.1523650000000000    0.9751500000000000 O
   0.7660700000000000    0.4777300000000000   -0.0635400000000001 O
   0.9328600000000000    0.4669050000000000    0.9114000000000000 O
   0.7378600000000000    0.3252250000000000    0.6416200000000000 O
   0.5835399999999999    0.3642450000000000    0.6451000000000000 O
   0.7600100000000000    0.6747700000000000    0.3583800000000000 O
   0.9144099999999999    0.6357900000000000    0.3549900000000000 O
   0.5663000000000000    0.5330950000000000    0.0884100000000000 O
   0.7331600000000000    0.5224050000000000    0.0634100000000000 O
   0.2268200000000000    0.6282750000000000    0.4912400000000000 O
   0.0632900000000000    0.5967500000000000    0.4749800000000000 O
   0.2710600000000000    0.3717150000000000    0.5088300000000000 O
   0.4346200000000000    0.4032250000000000    0.5250600000000000 O
   0.2361700000000000    0.3253200000000000    0.6415700000000000 O
   0.0837200000000000    0.3659450000000000    0.6442600000000001 O
   0.4328900000000000    0.4668650000000000    0.9114300000000000 O
   0.2663400000000000    0.4776350000000000    0.9367000000000000 O
   0.2617000000000000    0.6746650000000000    0.3584000000000000 O
   0.4143400000000000    0.6341700000000000    0.3557500000000000 O
   0.0662400000000000    0.5330500000000000    0.0884700000000000 O
   0.2328900000000000    0.5222650000000000    0.0632000000000000 O
   0.7286899999999999    0.6283500000000000    0.4910000000000000 O
   0.5649500000000000    0.5969000000000000    0.4752400000000000 O
   0.7692099999999999    0.3716000000000000    0.5089000000000000 O
   0.9329300000000000    0.4030750000000000    0.5247300000000000 O
