H6 O4
1.0
  12.7686870266574317    0.0000000000000000   -1.1346332514386384
  -0.0572920968895686   28.5138712878368601    0.0637008344260142
   0.0000000000000000    0.0000000000000000   20.1720000000000006
H O
6 4
direct
   0.8039587488350299    0.3161412472521241    0.6652336649962823 H
   0.5375077189181192    0.3830899569130004    0.6698479222551419 H
   0.6723637817597540    0.3520382141552234    0.6768321441501500 H
   0.6929517818098816    0.4815539540548526   -0.0794950756703333 H
   0.9849546796415641    0.4627128551784269    0.8798611788437646 H
   0.8406856267346228    0.4717255574086223   -0.1087133060503572 H
   0.7378600000000000    0.3252250000000000    0.6416200000000000 O
   0.5835399999999999    0.3642450000000000    0.6451000000000000 O
   0.7660700000000000    0.4777300000000000   -0.0635400000000001 O
   0.9328600000000000    0.4669050000000000    0.9114000000000000 O
