H4 C8 O4
1.0
  12.7686870266574317    0.0000000000000000   -1.1346332514386384
  -0.0572920968895686   28.5138712878368601    0.0637008344260142
   0.0000000000000000    0.0000000000000000   20.1720000000000006
H C O
4 8 4
direct
   0.9447600000000000    0.4013750000000000    0.8271900000000000 H
   0.8770600000000000    0.3546900000000000    0.7275199999999999 H
   0.5700200000000000    0.4117450000000000    0.7415100000000000 H
   0.6360800000000000    0.4563500000000000    0.8430200000000000 H
   0.8347500000000000    0.4607550000000000    0.9001600000000000 C
   0.7949700000000000    0.4320300000000000    0.8411900000000000 C
   0.8625800000000000    0.4032050000000000    0.8084300000000000 C
   0.8248799999999999    0.3771450000000000    0.7530300000000000 C
   0.7191200000000000    0.3801950000000000    0.7286500000000000 C
   0.6515400000000000    0.4090850000000000    0.7613300000000000 C
   0.6888100000000000    0.4342300000000000    0.8174700000000000 C
   0.6782000000000000    0.3541950000000000    0.6670199999999999 C
   0.9328600000000000    0.4669050000000000    0.9114000000000000 O
   0.5835399999999999    0.3642450000000000    0.6451000000000000 O
   0.7660700000000000    0.4777300000000000   -0.0635400000000001 O
   0.7378600000000000    0.3252250000000000    0.6416200000000000 O
