H10 C8 N4
1.0
  31.2716887029934263    0.0000000000000000  -15.4547521009905999
  -5.1132255920710357   34.3868294956859160   -3.2230850561557847
   0.0000000000000000    0.0000000000000000   34.9521000000000015
H C N
10 8 4
direct
   0.5809033333333333    0.2638033333333333    0.1007500000000000 H
   0.5424433333333334    0.2809300000000000    0.0171133333333333 H
   0.6956100000000000    0.2344033333333333    0.0631033333333333 H
   0.7051933333333333    0.2857066666666667    0.0653766666666667 H
   0.6748666666666666    0.2555400000000000    0.0146900000000000 H
   0.4356566666666666    0.6657599999999999    0.1895666666666667 H
   0.3004533333333334    0.6964566666666666    0.0852933333333333 H
   0.3122433333333333    0.6889766666666667    0.0409633333333333 H
   0.3265700000000000    0.7359199999999999    0.0723233333333333 H
   0.4669533333333333    0.6848166666666666    0.1321066666666667 H
   0.6404300000000001    0.2628400000000000    0.0517566666666667 C
   0.5936100000000000    0.2654200000000000    0.0776333333333333 C
   0.5745733333333334    0.2740233333333333    0.0362233333333333 C
   0.6812199999999999    0.2594333333333333    0.0486300000000000 C
   0.3243333333333333    0.7044966666666667    0.0738866666666667 C
   0.3670666666666667    0.6942100000000000    0.1032166666666667 C
   0.4351633333333333    0.6854466666666666    0.1302666666666666 C
   0.4197700000000000    0.6762433333333333    0.1588466666666667 C
   0.6350933333333333    0.2581500000000000    0.0872533333333333 N
   0.6042099999999999    0.2723100000000000    0.0199266666666667 N
   0.3767800000000000    0.6818333333333333    0.1416300000000000 N
   0.4017600000000000    0.6966666666666667    0.0951433333333333 N
