H6 C9 O5
1.0
  21.3444609125270830    0.0000000000000000   -1.6611048593040512
   2.2040325081669736   36.6043634323145923  -11.1386015018930067
   0.0000000000000000    0.0000000000000000   25.5199999999999996
H C O
6 9 5
direct
   0.8820500000000000    0.7995933333333333    0.8269800000000000 H
   0.8585000000000000    0.7569833333333333    0.7357100000000000 H
   0.0351000000000000    0.6962166666666666    0.7495499999999999 H
   0.0562700000000000    0.7384466666666666    0.8424050000000001 H
   0.8612900000000000    0.7240333333333333    0.6509650000000000 H
   0.8831700000000000    0.6774766666666666    0.6180300000000000 H
   0.9821500000000000    0.7965766666666666    0.8974299999999999 C
   0.9707700000000000    0.7721366666666667    0.8408000000000000 C
   0.9156900000000000    0.7770966666666667    0.8096449999999999 C
   0.9027500000000001    0.7531200000000000    0.7579500000000000 C
   0.9460800000000000    0.7240000000000000    0.7361500000000000 C
   0.0020100000000000    0.7191066666666667    0.7664650000000000 C
   0.0136000000000000    0.7427466666666667    0.8183500000000000 C
   0.8775400000000000    0.6976966666666666    0.6581500000000000 C
   0.8270300000000000    0.6852266666666667    0.6872950000000000 C
   0.9493100000000000    0.8268000000000000    0.9115450000000000 O
   0.0237100000000000    0.7851199999999999    0.9283300000000000 O
   0.9383000000000000    0.6990933333333333    0.6855350000000000 O
   0.7713000000000000    0.6870633333333332    0.6665500000000000 O
   0.8455400000000000    0.6741100000000000    0.7281150000000001 O
