H4 O2
1.0
  21.3444609125270830    0.0000000000000000   -1.6611048593040512
   2.2040325081669736   36.6043634323145923  -11.1386015018930067
   0.0000000000000000    0.0000000000000000   25.5199999999999996
H O
4 2
direct
   0.1463665693278865    0.4258700726958795    0.4755478930861863 H
   0.1421416224275346    0.4319538349812366    0.5432048027203771 H
   0.3580059394717807    0.2345763718175191    0.4572098522039344 H
   0.3539753055237801    0.2407865498052447    0.5249233683320533 H
   0.1268200000000000    0.4384833333333333    0.5099500000000000 O
   0.3734000000000000    0.2281000000000000    0.4904900000000000 O
