H12 O8
1.0
  13.2578477169889695    0.0000000000000000    0.6340369966574129
  -0.2324132518546174   12.9797903730025084    5.7468108506608893
   0.0000000000000000    0.0000000000000000   17.2850000000000001
H O
12 8
direct
   0.9943969617337033    0.3380172116964378    0.4568957648564284 H
   1.0891487385628789    0.3468502748030529    0.2446978305455659 H
   1.0576634512188003    0.3319630201951699    0.3546664966692312 H
   0.8825398887843304    0.7574815074088389    0.0541826353172792 H
   1.0139550471846326    0.5742296491058966    0.2631344343691869 H
   0.9622764745763478    0.6635737098241047    0.1658364025551712 H
   0.3167947433485038    1.1431472099329660    0.2667692719068419 H
   0.2192197940700639    0.9345417858537022    0.4854227658146492 H
   0.2614003509238418    1.0469856073292778    0.3826280229356820 H
   0.3080227771684044    0.9736779964554854    0.1413555753400800 H
   0.1345690974653344    0.7753574930034546    0.3268029887856730 H
   0.2103797969928977    0.8686834908299839    0.2302372595142388 H
   0.9785800000000000    0.3652100000000000    0.3976800000000000 O
   1.0360100000000001    0.3691900000000000    0.2736000000000000 O
   0.8803400000000000    0.6963700000000000    0.1068700000000000 O
   0.9598400000000000    0.5958900000000000    0.2241900000000000 O
   0.3105100000000000    1.0702400000000001    0.3029500000000000 O
   0.2530900000000000    0.9505800000000000    0.4304700000000000 O
   0.2934100000000000    0.9377400000000000    0.2018600000000000 O
   0.1917800000000000    0.8229400000000000    0.3072500000000000 O
