H4 O2
1.0
  13.1879999979913531    0.0000000000000000    0.0002301740217415
  -0.1036714636001303   13.1995927826158557   -0.0016126842248317
   0.0000000000000000    0.0000000000000000   23.3389999999999986
H O
4 2
direct
   0.7581370835223097    0.6449194176504723    0.1318185360560918 H
   0.7009294598912796    0.5375346184949997    0.1549231902757549 H
   0.7598263112619618    0.7391078282950260    0.4748138692389062 H
   0.6916017162078818    0.6342115895149718    0.4915034618146159 H
   0.7364700000000000    0.6011300000000001    0.1634300000000000 O
   0.7222900000000000    0.6786000000000000    0.4626300000000000 O
