H16 C32 N4 O4
1.0
  13.1879999979913531    0.0000000000000000    0.0002301740217415
  -0.1036714636001303   13.1995927826158557   -0.0016126842248317
   0.0000000000000000    0.0000000000000000   23.3389999999999986
H C N O
16 32 4 4
direct
   0.8057400000000000    0.8069100000000000    0.4448700000000000 H
   0.8267500000000000    0.8575500000000000    0.5478400000000000 H
   0.7537300000000000    0.7458900000000001    0.6240400000000000 H
   0.6134100000000000    0.5150400000000001    0.4403700000000000 H
   0.5371600000000000    0.3998000000000000    0.5130500000000000 H
   0.5630500000000001    0.4331900000000000    0.6172600000000000 H
   0.9420200000000000    0.5619200000000000    0.7396300000000000 H
   0.9747000000000000    0.5980000000000000    0.8439000000000000 H
   0.4460500000000000    0.6624000000000000    0.7780600000000000 H
   0.4770600000000000    0.6915300000000000    0.8825499999999999 H
   0.8466700000000000    0.8437600000000000    0.9947800000000000 H
   0.8854100000000000    0.8894200000000000    0.0962900000000000 H
   0.8333700000000001    0.7746600000000000    0.1755800000000000 H
   0.6807200000000000    0.5178000000000000    0.0064100000000000 H
   0.6265900000000000    0.4101500000000000    0.0898300000000000 H
   0.6638600000000000    0.4697100000000000    0.1885600000000000 H
   0.7733700000000000    0.7609399999999999    0.4792100000000000 C
   0.7852900000000000    0.7884900000000000    0.5370500000000000 C
   0.7448500000000000    0.7267800000000000    0.5789000000000000 C
   0.6913100000000000    0.6378500000000000    0.5631200000000000 C
   0.6791700000000001    0.6162300000000001    0.5032000000000000 C
   0.6225200000000000    0.5299500000000000    0.4859200000000000 C
   0.5809900000000000    0.4660100000000000    0.5265000000000000 C
   0.5951400000000000    0.4847900000000000    0.5855800000000000 C
   0.6491600000000000    0.5685900000000000    0.6034600000000000 C
   0.5816600000000000    0.6162900000000000    0.6974000000000000 C
   0.7652500000000000    0.5687300000000000    0.6846400000000000 C
   0.7829300000000000    0.5918700000000000    0.7456800000000000 C
   0.8804600000000000    0.5841900000000000    0.7679000000000000 C
   0.8986499999999999    0.6037800000000000    0.8260900000000000 C
   0.8192199999999999    0.6298100000000000    0.8622800000000000 C
   0.7191400000000000    0.6377200000000000    0.8407400000000000 C
   0.7009500000000000    0.6195400000000000    0.7814000000000000 C
   0.6014100000000000    0.6296900000000000    0.7594100000000000 C
   0.5219600000000000    0.6549400000000000    0.7957200000000000 C
   0.5394300000000000    0.6713200000000000    0.8540000000000000 C
   0.6368100000000000    0.6637000000000000    0.8767800000000000 C
   0.6541800000000000    0.6846200000000000    0.9383100000000000 C
   0.8405600000000000    0.6498200000000000    0.9234400000000000 C
   0.7758900000000000    0.7030500000000000    0.0166900000000000 C
   0.8245900000000000    0.7928900000000000    0.0294000000000000 C
   0.8462900000000000    0.8182900000000000    0.0869000000000000 C
   0.8182000000000000    0.7547700000000001    0.1311200000000000 C
   0.7669300000000000    0.6626900000000000    0.1189900000000000 C
   0.7463800000000000    0.6347000000000000    0.0607400000000000 C
   0.6967000000000000    0.5411100000000000    0.0502900000000000 C
   0.6675000000000000    0.4812800000000000    0.0957100000000000 C
   0.6880900000000000    0.5145600000000000    0.1518500000000000 C
   0.7222900000000000    0.6786000000000000    0.4626300000000000 N
   0.6654900000000000    0.5863200000000000    0.6637800000000000 N
   0.7556200000000000    0.6777600000000000    0.9575600000000000 N
   0.7364700000000000    0.6011300000000001    0.1634300000000000 N
   0.8313100000000000    0.5378200000000000    0.6522800000000000 O
   0.4985900000000000    0.6310300000000000    0.6752200000000000 O
   0.9249700000000000    0.6439700000000000    0.9448800000000001 O
   0.5861400000000000    0.7068400000000000    0.9719300000000000 O
