H6 O4
1.0
  13.1879999979913531    0.0000000000000000    0.0002301740217415
  -0.1036714636001303   13.1995927826158557   -0.0016126842248317
   0.0000000000000000    0.0000000000000000   23.3389999999999986
H O
6 4
direct
   0.2961317143703575    0.1567456860058962    0.8869530420400608 H
   0.2737618285287843    0.1814980753710523    0.7169411510648682 H
   0.2860873297613210    0.1584006348447751    0.8011628685011569 H
   0.2239733352817747    0.5544168580227877    0.7398768147152671 H
   0.2621791774573517    0.5306437293479817    0.9090410297953373 H
   0.2419374820445419    0.5529938094002104    0.8254890981343062 H
   0.2876500000000000    0.1957400000000000    0.8520799999999999 O
   0.2749400000000000    0.2096500000000000    0.7553299999999999 O
   0.2361600000000000    0.5158199999999999    0.7745300000000001 O
   0.2578300000000000    0.5026600000000000    0.8706800000000000 O
