Zn4 H40 C80 N4 O20
1.0
  13.1879999979913531    0.0000000000000000    0.0002301740217415
  -0.1036714636001303   13.1995927826158557   -0.0016126842248317
   0.0000000000000000    0.0000000000000000   23.3389999999999986
Zn H C N O
4 40 80 4 20
direct
   0.2757900000000000    0.3472900000000000    0.8746300000000000 Zn
   0.7463800000000000    0.6353799999999999    0.2503800000000000 Zn
   0.7242300000000000    0.6526999999999999    0.3746400000000000 Zn
   0.2536400000000000    0.3645900000000000    0.7503700000000000 Zn
   0.6035900000000000    0.3809600000000000    0.8891900000000000 H
   0.7523000000000000    0.3334900000000000    0.6944800000000000 H
   0.5648800000000000    0.3504900000000000    0.7078100000000001 H
   0.7783000000000000    0.3785200000000000    0.9316100000000000 H
   0.9651300000000000    0.3626200000000000    0.9182800000000000 H
   0.9257200000000000    0.3308800000000000    0.7366600000000000 H
   0.2794000000000000    0.0217400000000000    0.8868800000000000 H
   0.2587600000000000    0.8611799999999999    0.6937000000000000 H
   0.2724700000000000    0.0489900000000000    0.7038100000000000 H
   0.2683400000000000    0.8505200000000001    0.9324700000000000 H
   0.2542600000000000    0.6629300000000000    0.9224700000000000 H
   0.2459200000000000    0.6902700000000001    0.7392700000000000 H
   0.1942300000000000    0.1931100000000000    0.9448299999999999 H
   0.1732200000000000    0.1424800000000000    0.0478200000000000 H
   0.2462600000000000    0.2541200000000000    0.1240300000000000 H
   0.3866000000000000    0.4849500000000000    0.9403000000000000 H
   0.4628900000000000    0.6001800000000000    0.0130000000000000 H
   0.4370000000000000    0.5668000000000000    0.1172900000000000 H
   0.0580000000000000    0.4380600000000000    0.2396400000000000 H
   0.0253200000000000    0.4019700000000000    0.3439100000000000 H
   0.5539700000000000    0.3375600000000000    0.2780400000000000 H
   0.5229600000000000    0.3084200000000000    0.3825300000000000 H
   0.1533700000000000    0.1561900000000000    0.4947500000000000 H
   0.1146600000000000    0.1105300000000000    0.5962400000000000 H
   0.1667000000000000    0.2252800000000000    0.6755500000000000 H
   0.3193300000000000    0.4821500000000000    0.5064100000000000 H
   0.3734600000000000    0.5898000000000000    0.5898400000000000 H
   0.3361900000000000    0.5302400000000000    0.6885599999999999 H
   0.3964300000000000    0.6190500000000000    0.3890000000000000 H
   0.2477300000000000    0.6664800000000000    0.1944900000000000 H
   0.4351500000000000    0.6494799999999999    0.2078200000000000 H
   0.2217100000000000    0.6214900000000000    0.4316200000000000 H
   0.0348900000000000    0.6373900000000000    0.4182900000000000 H
   0.0743100000000000    0.6690900000000000    0.2366700000000000 H
   0.7206100000000000    0.9782800000000000    0.3868900000000000 H
   0.7412700000000000    0.1387400000000000    0.1937100000000000 H
   0.7275600000000000    0.9509300000000001    0.2038000000000000 H
   0.7316700000000000    0.1495300000000000    0.4324800000000000 H
   0.7457500000000000    0.3371100000000000    0.4224800000000000 H
   0.7541099999999999    0.3096700000000000    0.2392700000000000 H
   0.4617100000000000    0.3738600000000000    0.8063600000000000 C
   0.5745600000000000    0.3676100000000000    0.7994599999999999 C
   0.6374800000000000    0.3717500000000000    0.8469000000000000 C
   0.7437600000000000    0.3627000000000000    0.8411500000000000 C
   0.7860400000000000    0.3479600000000000    0.7850000000000000 C
   0.7197600000000000    0.3441200000000000    0.7370300000000000 C
   0.6167300000000000    0.3541200000000000    0.7440600000000001 C
   0.8104000000000000    0.3674000000000000    0.8889600000000000 C
   0.9135200000000000    0.3581800000000000    0.8819500000000000 C
   0.9553900000000000    0.3447800000000000    0.8264300000000000 C
   0.8922900000000000    0.3398000000000000    0.7790700000000000 C
   0.2471800000000000    0.5528700000000000    0.8245400000000001 C
   0.2800200000000000    0.1590800000000000    0.8017800000000000 C
   0.2754500000000000    0.0457800000000000    0.7963700000000000 C
   0.2742000000000000    0.9856300000000000    0.8449600000000000 C
   0.2660200000000000    0.8789400000000001    0.8409600000000000 C
   0.2593800000000000    0.8330200000000000    0.7852100000000000 C
   0.2624400000000000    0.8964000000000000    0.7359800000000000 C
   0.2701000000000000    0.0000000000000000    0.7413300000000000 C
   0.2636600000000000    0.8155000000000000    0.8901000000000000 C
   0.2559700000000000    0.7118800000000000    0.8849300000000000 C
   0.2499400000000000    0.6662000000000000    0.8298700000000000 C
   0.2508100000000000    0.7263400000000000    0.7812200000000000 C
   0.0682100000000000    0.3392600000000000    0.8191600000000000 C
   0.2266000000000000    0.2390700000000000    0.9791800000000001 C
   0.2146900000000000    0.2115400000000000    0.0370300000000000 C
   0.2551500000000000    0.2732400000000000    0.0788900000000000 C
   0.3087100000000000    0.3621500000000000    0.0631000000000000 C
   0.3208300000000000    0.3837600000000000    0.0000000000000000 C
   0.3775000000000000    0.4700400000000000    0.9859200000000000 C
   0.4190400000000000    0.5339800000000000    0.0265000000000000 C
   0.4049000000000000    0.5152000000000000    0.0856000000000000 C
   0.3508700000000000    0.4314100000000000    0.1034700000000000 C
   0.4183600000000000    0.3837000000000000    0.1974000000000000 C
   0.2347800000000000    0.4312600000000000    0.1846400000000000 C
   0.2170900000000000    0.4081100000000000    0.2456900000000000 C
   0.1195600000000000    0.4157900000000000    0.2679500000000000 C
   0.1013800000000000    0.3961900000000000    0.3260900000000000 C
   0.1808000000000000    0.3701600000000000    0.3622800000000000 C
   0.2808800000000000    0.3622400000000000    0.3407400000000000 C
   0.2990700000000000    0.3804400000000000    0.2814000000000000 C
   0.3986100000000000    0.3702900000000000    0.2594000000000000 C
   0.4780600000000000    0.3450200000000000    0.2957100000000000 C
   0.4605900000000000    0.3286400000000000    0.3542800000000000 C
   0.3632100000000000    0.3362600000000000    0.3767700000000000 C
   0.3458400000000000    0.3153400000000000    0.4380000000000000 C
   0.1594700000000000    0.3501500000000000    0.4234000000000000 C
   0.2241500000000000    0.2969100000000000    0.5166700000000000 C
   0.1754600000000000    0.2070700000000000    0.5294000000000000 C
   0.1537600000000000    0.1816500000000000    0.5868600000000000 C
   0.1818600000000000    0.2451800000000000    0.6310900000000000 C
   0.2331200000000000    0.3372600000000000    0.6189700000000000 C
   0.2536700000000000    0.3652600000000000    0.5607200000000000 C
   0.3033500000000000    0.4588400000000000    0.5502800000000000 C
   0.3325600000000000    0.5186700000000000    0.5957200000000000 C
   0.3119500000000000    0.4853900000000000    0.6518500000000000 C
   0.5383100000000000    0.6261300000000000    0.3063700000000000 C
   0.4254600000000000    0.6323800000000001    0.2994700000000000 C
   0.3625400000000000    0.6282400000000000    0.3469100000000000 C
   0.2562600000000000    0.6372900000000000    0.3411600000000000 C
   0.2139900000000000    0.6520200000000000    0.2850100000000000 C
   0.2802600000000000    0.6558600000000000    0.2370400000000000 C
   0.3832900000000000    0.6458600000000000    0.2440700000000000 C
   0.1896200000000000    0.6326000000000001    0.3889700000000000 C
   0.0865000000000000    0.6418199999999999    0.3819600000000000 C
   0.0446400000000000    0.6552000000000000    0.3264400000000000 C
   0.1077300000000000    0.6601700000000000    0.2790800000000000 C
   0.7528400000000000    0.4471200000000000    0.3245400000000000 C
   0.7200000000000000    0.8409000000000000    0.3017900000000000 C
   0.7245700000000000    0.9542000000000000    0.2963800000000000 C
   0.7258200000000000    0.0143700000000000    0.3449700000000000 C
   0.7340000000000000    0.1210600000000000    0.3409700000000000 C
   0.7406500000000000    0.1669500000000000    0.2852200000000000 C
   0.7375800000000000    0.1035500000000000    0.2359900000000000 C
   0.7299200000000000    0.9999500000000000    0.2413400000000000 C
   0.7363499999999999    0.1845200000000000    0.3901800000000000 C
   0.7440400000000000    0.2881400000000000    0.3849300000000000 C
   0.7500800000000000    0.3337900000000000    0.3298700000000000 C
   0.7492200000000000    0.2736300000000000    0.2812300000000000 C
   0.9318100000000000    0.6607300000000000    0.3191700000000000 C
   0.2777000000000000    0.3214000000000000    0.9626200000000000 N
   0.3345400000000000    0.4136700000000000    0.1637900000000000 N
   0.2444100000000000    0.3222000000000000    0.4575500000000000 N
   0.2635800000000000    0.3988200000000000    0.6634200000000000 N
   0.8975500000000000    0.6578400000000000    0.2680700000000000 O
   0.4270700000000000    0.3688900000000000    0.8572800000000000 O
   0.4098000000000000    0.3826500000000000    0.7607100000000000 O
   0.2578300000000000    0.5026600000000000    0.8706800000000000 O
   0.2361600000000000    0.5158199999999999    0.7745300000000001 O
   0.2876500000000000    0.1957400000000000    0.8520799999999999 O
   0.2749400000000000    0.2096500000000000    0.7553299999999999 O
   0.1202800000000000    0.3333333333333333    0.8649200000000000 O
   0.1024700000000000    0.3421400000000000    0.7680600000000000 O
   0.1687200000000000    0.4621700000000000    0.1522900000000000 O
   0.5014400000000000    0.3689600000000000    0.1752000000000000 O
   0.0750600000000000    0.3560100000000000    0.4448800000000000 O
   0.4138900000000000    0.2931300000000000    0.4719100000000000 O
   0.5729500000000000    0.6311000000000000    0.3572900000000000 O
   0.5902200000000000    0.6173300000000000    0.2607200000000000 O
   0.7422000000000000    0.4973400000000000    0.3706900000000000 O
   0.7638600000000000    0.4841500000000000    0.2745400000000000 O
   0.7123699999999999    0.8042600000000000    0.3520900000000000 O
   0.7250799999999999    0.7903200000000000    0.2553000000000000 O
   0.8797300000000000    0.6666666666666666    0.3649300000000000 O
