H8 C10 N2
1.0
  22.9579999999999984    0.0000000000000000    0.0000000000000014
   0.0000000000000020   12.5150000000000006    0.0000000000000008
   0.0000000000000000    0.0000000000000000   29.7040000000000006
H C N
8 10 2
direct
   0.1504100000000000    0.1591600000000000    0.6436250000000000 H
   0.0425600000000000    0.1675800000000000    0.6439250000000000 H
   0.8495700000000000    0.8408700000000000    0.6436200000000000 H
   0.9574200000000000    0.8324600000000000    0.6439250000000000 H
   0.8495700000000000    0.1591600000000000    0.6063499999999999 H
   0.9574300000000000    0.1675800000000000    0.6060650000000000 H
   0.1504100000000000    0.8408700000000000    0.6063700000000000 H
   0.0425600000000000    0.8324600000000000    0.6060650000000000 H
   0.1244900000000000    0.0891200000000000    0.6349950000000000 C
   0.0640200000000000    0.0928200000000000    0.6351300000000000 C
   0.8754900000000000    0.9109100000000000    0.6349950000000000 C
   0.9359700000000000    0.9072200000000000    0.6351300000000000 C
   0.8754900000000000    0.0891200000000000    0.6149950000000000 C
   0.9359700000000000    0.0928200000000000    0.6148600000000000 C
   0.1244900000000000    0.9109100000000000    0.6149950000000000 C
   0.0640100000000000    0.9072200000000000    0.6148600000000000 C
   0.0322200000000000    0.0000000000000000    0.6000000000000000 C
   0.9677600000000000    0.0000000000000000    0.6249950000000000 C
   0.1548000000000000    0.0000000000000000    0.6249500000000000 N
   0.8451900000000000    0.0000000000000000    0.6250000000000000 N
