Zn8 H124 C262 N78 O2
1.0
  22.9579999999999984    0.0000000000000000    0.0000000000000014
   0.0000000000000020   12.5150000000000006    0.0000000000000008
   0.0000000000000000    0.0000000000000000   29.7040000000000006
Zn H C N O
8 124 262 78 2
direct
   0.2500000000000000    0.0000000000000000    0.1249950000000000 Zn
   0.2499900000000000    0.0000000000000000    0.3749900000000000 Zn
   0.2500000000000000    0.0000000000000000    0.6249950000000000 Zn
   0.2499900000000000    0.0000000000000000    0.8749899999999999 Zn
   0.7499900000000000    0.0000000000000000    0.8749899999999999 Zn
   0.7499900000000000    0.0000000000000000    0.6249950000000000 Zn
   0.7499900000000000    0.0000000000000000    0.1249950000000000 Zn
   0.7499900000000000    0.0000000000000000    0.3749900000000000 Zn
   0.1327976316132948    0.0646932058932091    0.6322417779757326 H
   0.1327829329552240   -0.0647146322342163    0.6177187264127104 H
   0.9574200000000000    0.1675800000000000    0.8939200000000000 H
   0.9574200000000000    0.8324600000000000    0.8560600000000000 H
   0.8495700000000000    0.1591600000000000    0.8936200000000001 H
   0.8495700000000000    0.8408800000000000    0.8563650000000000 H
   0.0425600000000000    0.1675800000000000    0.8560650000000001 H
   0.1504100000000000    0.1591600000000000    0.8563650000000000 H
   0.0425500000000000    0.8324600000000000    0.8939250000000001 H
   0.1504100000000000    0.8408800000000000    0.8936200000000001 H
   0.9574200000000000    0.1675800000000000    0.3939200000000000 H
   0.9574200000000000    0.8324600000000000    0.3560600000000000 H
   0.8495700000000000    0.1591600000000000    0.3936200000000000 H
   0.8495700000000000    0.8408800000000000    0.3563650000000000 H
   0.0425600000000000    0.1675800000000000    0.3560650000000000 H
   0.1504100000000000    0.1591600000000000    0.3563650000000000 H
   0.0425500000000000    0.8324600000000000    0.3939250000000000 H
   0.1504100000000000    0.8408800000000000    0.3936200000000000 H
   0.9574300000000000    0.1675800000000000    0.1060650000000000 H
   0.9574200000000000    0.8324600000000000    0.1439250000000000 H
   0.8495700000000000    0.1591600000000000    0.1063500000000000 H
   0.8495700000000000    0.8408700000000000    0.1436200000000000 H
   0.0425600000000000    0.8324600000000000    0.1060650000000000 H
   0.0425600000000000    0.1675800000000000    0.1439250000000000 H
   0.1504100000000000    0.1591600000000000    0.1436250000000000 H
   0.1504100000000000    0.8408700000000000    0.1063700000000000 H
   0.8671974709991496   -0.0647077752908988    0.6322595601530198 H
   0.8671913276681400    0.0647114957684697    0.6177352051709656 H
   0.5425500000000000    0.8324600000000000    0.8938999999999999 H
   0.5425500000000000    0.1675800000000000    0.8560650000000001 H
   0.6504000000000000    0.1591600000000000    0.8563650000000000 H
   0.6504000000000000    0.8408800000000000    0.8936200000000001 H
   0.4574300000000000    0.1675800000000000    0.8939250000000001 H
   0.4574300000000000    0.8324600000000000    0.8560650000000001 H
   0.3495800000000000    0.1591600000000000    0.8936200000000001 H
   0.3495800000000000    0.8408800000000000    0.8563650000000000 H
   0.5425500000000000    0.8324600000000000    0.3939000000000000 H
   0.5425500000000000    0.1675800000000000    0.3560650000000000 H
   0.6504000000000000    0.1591600000000000    0.3563650000000000 H
   0.6504000000000000    0.8408800000000000    0.3936200000000000 H
   0.4574300000000000    0.1675800000000000    0.3939250000000000 H
   0.4574300000000000    0.8324600000000000    0.3560650000000000 H
   0.3495800000000000    0.1591600000000000    0.3936200000000000 H
   0.3495800000000000    0.8408800000000000    0.3563650000000000 H
   0.5425500000000000    0.1675800000000000    0.6439250000000000 H
   0.5425500000000000    0.8324600000000000    0.6060650000000000 H
   0.6504000000000000    0.1591600000000000    0.6436200000000000 H
   0.6504000000000000    0.8408800000000000    0.6063650000000000 H
   0.4574300000000000    0.1675800000000000    0.6060650000000000 H
   0.4574300000000000    0.8324600000000000    0.6439250000000000 H
   0.3495800000000000    0.1591600000000000    0.6063700000000000 H
   0.3495800000000000    0.8408800000000000    0.6436250000000000 H
   0.5425500000000000    0.1675800000000000    0.1439250000000000 H
   0.5425500000000000    0.8324600000000000    0.1060650000000000 H
   0.6504000000000000    0.1591600000000000    0.1436200000000000 H
   0.6504000000000000    0.8408800000000000    0.1063650000000000 H
   0.4574300000000000    0.1675800000000000    0.1060650000000000 H
   0.4574300000000000    0.8324600000000000    0.1439250000000000 H
   0.3495800000000000    0.1591600000000000    0.1063700000000000 H
   0.3495800000000000    0.8408800000000000    0.1436250000000000 H
   0.1604300000000000    0.7093900000000000    0.1772800000000000 H
   0.0864400000000000    0.5685300000000000    0.1771700000000000 H
   0.1604300000000000    0.7093900000000000    0.3227100000000000 H
   0.0864400000000000    0.5685300000000000    0.3228150000000000 H
   0.8395500000000000    0.2906400000000000    0.1772800000000000 H
   0.9135400000000000    0.4315100000000000    0.1771700000000000 H
   0.8395500000000000    0.2906400000000000    0.3227100000000000 H
   0.9135400000000000    0.4315100000000000    0.3228150000000000 H
   0.3395600000000000    0.7094000000000000    0.4272750000000000 H
   0.4135500000000000    0.5685300000000000    0.4271700000000000 H
   0.3395600000000000    0.7094000000000000    0.5727150000000000 H
   0.4135500000000000    0.5685300000000000    0.5728200000000000 H
   0.6604200000000000    0.2906400000000000    0.4272750000000000 H
   0.5864300000000000    0.4315000000000000    0.4271700000000000 H
   0.6604200000000000    0.2906400000000000    0.5727150000000000 H
   0.5864300000000000    0.4315000000000000    0.5728200000000000 H
   0.1604300000000000    0.7093900000000000    0.6772800000000000 H
   0.0864400000000000    0.5685300000000000    0.6771700000000000 H
   0.1604300000000000    0.7093900000000000    0.8227100000000001 H
   0.0864400000000000    0.5685300000000000    0.8228150000000001 H
   0.8395500000000000    0.2906400000000000    0.6772800000000000 H
   0.9135400000000000    0.4315100000000000    0.6771700000000000 H
   0.8395500000000000    0.2906400000000000    0.8227100000000001 H
   0.9135400000000000    0.4315100000000000    0.8228150000000001 H
   0.3395600000000000    0.7094000000000000    0.9272750000000001 H
   0.4135500000000000    0.5685300000000000    0.9271700000000000 H
   0.3395600000000000    0.7094000000000000    0.0727150000000000 H
   0.4135500000000000    0.5685300000000000    0.0728200000000000 H
   0.6604200000000000    0.2906400000000000    0.9272750000000001 H
   0.5864300000000000    0.4315000000000000    0.9271700000000000 H
   0.6604200000000000    0.2906400000000000    0.0727150000000000 H
   0.5864300000000000    0.4315000000000000    0.0728200000000000 H
   0.1604200000000000    0.2906400000000000    0.4272750000000000 H
   0.0864400000000000    0.4315000000000000    0.4271700000000000 H
   0.1604300000000000    0.2906400000000000    0.5727150000000000 H
   0.0864400000000000    0.4315000000000000    0.5728200000000000 H
   0.8395500000000000    0.7094000000000000    0.4272750000000000 H
   0.9135400000000000    0.5685300000000000    0.4271700000000000 H
   0.8395500000000000    0.7094000000000000    0.5727150000000000 H
   0.9135400000000000    0.5685300000000000    0.5728200000000000 H
   0.6604200000000000    0.7093900000000000    0.6772800000000000 H
   0.5864300000000000    0.5685300000000000    0.6771700000000000 H
   0.6604200000000000    0.7093900000000000    0.8227100000000001 H
   0.5864300000000000    0.5685300000000000    0.8228150000000001 H
   0.3395600000000000    0.2906400000000000    0.6772800000000000 H
   0.4135500000000000    0.4315100000000000    0.6771700000000000 H
   0.3395600000000000    0.2906400000000000    0.8227100000000001 H
   0.4135500000000000    0.4315100000000000    0.8228150000000001 H
   0.1604200000000000    0.2906400000000000    0.9272750000000001 H
   0.0864400000000000    0.4315000000000000    0.9271700000000000 H
   0.1604300000000000    0.2906400000000000    0.0727150000000000 H
   0.0864400000000000    0.4315000000000000    0.0728200000000000 H
   0.8395500000000000    0.7094000000000000    0.9272750000000001 H
   0.9135400000000000    0.5685300000000000    0.9271700000000000 H
   0.8395500000000000    0.7094000000000000    0.0727150000000000 H
   0.9135400000000000    0.5685300000000000    0.0728200000000000 H
   0.6604200000000000    0.7093900000000000    0.3227100000000000 H
   0.5864300000000000    0.5685300000000000    0.3228150000000000 H
   0.6604200000000000    0.7093900000000000    0.1772800000000000 H
   0.5864300000000000    0.5685300000000000    0.1771700000000000 H
   0.3395600000000000    0.2906400000000000    0.1772800000000000 H
   0.4135500000000000    0.4315100000000000    0.1771700000000000 H
   0.3395600000000000    0.2906400000000000    0.3227100000000000 H
   0.4135500000000000    0.4315100000000000    0.3228150000000000 H
   0.9359700000000000    0.0928200000000000    0.8851249999999999 C
   0.9359700000000000    0.9072200000000000    0.8648549999999999 C
   0.8754900000000000    0.0891200000000000    0.8849899999999999 C
   0.8754900000000000    0.9109100000000000    0.8649950000000000 C
   0.9677600000000000    0.0000000000000000    0.8749950000000000 C
   0.0640200000000000    0.0928200000000000    0.8648600000000000 C
   0.1244900000000000    0.0891200000000000    0.8649950000000000 C
   0.0640100000000000    0.9072200000000000    0.8851300000000000 C
   0.1244900000000000    0.9109100000000000    0.8849899999999999 C
   0.0322200000000000    0.0000000000000000    0.8749899999999999 C
   0.9359700000000000    0.0928200000000000    0.3851250000000000 C
   0.9359700000000000    0.9072200000000000    0.3648550000000000 C
   0.8754900000000000    0.0891200000000000    0.3849900000000000 C
   0.8754900000000000    0.9109100000000000    0.3649950000000000 C
   0.9677600000000000    0.0000000000000000    0.3749950000000000 C
   0.0640200000000000    0.0928200000000000    0.3648600000000000 C
   0.1244900000000000    0.0891200000000000    0.3649950000000000 C
   0.0640100000000000    0.9072200000000000    0.3851300000000000 C
   0.1244900000000000    0.9109100000000000    0.3849900000000000 C
   0.0322200000000000    0.0000000000000000    0.3749900000000000 C
   0.9359700000000000    0.0928200000000000    0.1148600000000000 C
   0.9359700000000000    0.9072200000000000    0.1351300000000000 C
   0.8754900000000000    0.0891200000000000    0.1149950000000000 C
   0.8754900000000000    0.9109100000000000    0.1349950000000000 C
   0.9677600000000000    0.0000000000000000    0.1249950000000000 C
   0.0640100000000000    0.9072200000000000    0.1148600000000000 C
   0.0640200000000000    0.0928200000000000    0.1351300000000000 C
   0.1244900000000000    0.0891200000000000    0.1349950000000000 C
   0.1244900000000000    0.9109100000000000    0.1149950000000000 C
   0.0322200000000000    0.0000000000000000    0.1000000000000000 C
   0.5639999999999999    0.9072200000000000    0.8851000000000000 C
   0.5640100000000000    0.0928200000000000    0.8648500000000000 C
   0.6244800000000000    0.0891300000000000    0.8649950000000000 C
   0.6244800000000000    0.9109100000000000    0.8849500000000000 C
   0.5322100000000000    0.0000000000000000    0.8749950000000000 C
   0.4359800000000000    0.0928200000000000    0.8851300000000000 C
   0.4359700000000000    0.9072200000000000    0.8648600000000000 C
   0.3755000000000000    0.0891300000000000    0.8849899999999999 C
   0.3754900000000000    0.9109100000000000    0.8649500000000000 C
   0.4677700000000000    0.0000000000000000    0.8749899999999999 C
   0.5639999999999999    0.9072200000000000    0.3851000000000000 C
   0.5640100000000000    0.0928200000000000    0.3648500000000000 C
   0.6244800000000000    0.0891300000000000    0.3649950000000000 C
   0.6244800000000000    0.9109100000000000    0.3849500000000000 C
   0.5322100000000000    0.0000000000000000    0.3749950000000000 C
   0.4359800000000000    0.0928200000000000    0.3851300000000000 C
   0.4359700000000000    0.9072200000000000    0.3648600000000000 C
   0.3755000000000000    0.0891300000000000    0.3849900000000000 C
   0.3754900000000000    0.9109100000000000    0.3649500000000000 C
   0.4677700000000000    0.0000000000000000    0.3749900000000000 C
   0.5640100000000000    0.0928200000000000    0.6351300000000000 C
   0.5639999999999999    0.9072200000000000    0.6148600000000000 C
   0.6244900000000000    0.0891300000000000    0.6349899999999999 C
   0.6244800000000000    0.9109100000000000    0.6149950000000000 C
   0.5322100000000000    0.0000000000000000    0.6249900000000000 C
   0.4359800000000000    0.0928200000000000    0.6148600000000000 C
   0.4359700000000000    0.9072200000000000    0.6351300000000000 C
   0.3755000000000000    0.0891300000000000    0.6150000000000000 C
   0.3755000000000000    0.9109100000000000    0.6349950000000000 C
   0.4677700000000000    0.0000000000000000    0.6250000000000000 C
   0.5640100000000000    0.0928200000000000    0.1351300000000000 C
   0.5639999999999999    0.9072200000000000    0.1148600000000000 C
   0.6244900000000000    0.0891300000000000    0.1349900000000000 C
   0.6244800000000000    0.9109100000000000    0.1149950000000000 C
   0.5322100000000000    0.0000000000000000    0.1249900000000000 C
   0.4359800000000000    0.0928200000000000    0.1148600000000000 C
   0.4359700000000000    0.9072200000000000    0.1351300000000000 C
   0.3755000000000000    0.0891300000000000    0.1150000000000000 C
   0.3755000000000000    0.9109100000000000    0.1349950000000000 C
   0.4677700000000000    0.0000000000000000    0.1250000000000000 C
   0.2328900000000000    0.8452100000000000    0.2101050000000000 C
   0.2328900000000000    0.8452100000000000    0.2898800000000000 C
   0.2107300000000000    0.8038500000000000    0.2499950000000000 C
   0.1441700000000000    0.6790200000000000    0.2092500000000000 C
   0.1023700000000000    0.5990500000000000    0.2092550000000000 C
   0.1441700000000000    0.6790200000000000    0.2907100000000000 C
   0.1023700000000000    0.5990500000000000    0.2907350000000000 C
   0.0809700000000000    0.5580700000000000    0.2499950000000000 C
   0.1662100000000000    0.7207900000000000    0.2499950000000000 C
   0.0376800000000000    0.4044600000000000    0.2100900000000000 C
   0.0376800000000000    0.4044600000000000    0.2899000000000000 C
   0.0334200000000000    0.4731500000000000    0.2499950000000000 C
   0.7670900000000000    0.1548300000000000    0.2101050000000000 C
   0.7670900000000000    0.1548300000000000    0.2898800000000000 C
   0.7892500000000000    0.1961900000000000    0.2499950000000000 C
   0.8558100000000000    0.3210100000000000    0.2092500000000000 C
   0.8976100000000000    0.4009900000000000    0.2092550000000000 C
   0.8558100000000000    0.3210100000000000    0.2907100000000000 C
   0.8976100000000000    0.4009900000000000    0.2907350000000000 C
   0.9190100000000000    0.4419600000000000    0.2499950000000000 C
   0.8337700000000000    0.2792400000000000    0.2499950000000000 C
   0.9623000000000000    0.5955700000000000    0.2100900000000000 C
   0.9623000000000000    0.5955700000000000    0.2895000000000000 C
   0.9665600000000000    0.5268800000000000    0.2499950000000000 C
   0.2671000000000000    0.8452100000000000    0.4601000000000000 C
   0.2671000000000000    0.8452100000000000    0.5398849999999999 C
   0.2892700000000000    0.8038500000000000    0.5000000000000000 C
   0.3558200000000000    0.6790300000000000    0.4592750000000000 C
   0.3976200000000000    0.5990500000000000    0.4592500000000000 C
   0.3558200000000000    0.6790300000000000    0.5407150000000001 C
   0.3976200000000000    0.5990500000000000    0.5407000000000000 C
   0.4190200000000000    0.5580800000000000    0.5000000000000000 C
   0.3337800000000000    0.7208000000000000    0.4999900000000000 C
   0.4623100000000000    0.4044700000000000    0.5399000000000000 C
   0.4623100000000000    0.4044700000000000    0.4600850000000000 C
   0.4665600000000000    0.4731600000000000    0.4999900000000000 C
   0.7328800000000000    0.1548200000000000    0.4601000000000000 C
   0.7328800000000000    0.1548200000000000    0.5398849999999999 C
   0.7107200000000000    0.1961900000000000    0.5000000000000000 C
   0.6441600000000000    0.3210100000000000    0.4592750000000000 C
   0.6023600000000000    0.4009800000000000    0.4592500000000000 C
   0.6441600000000000    0.3210100000000000    0.5407150000000001 C
   0.6023600000000000    0.4009800000000000    0.5407000000000000 C
   0.5809600000000000    0.4419600000000000    0.4999900000000000 C
   0.6662000000000000    0.2792400000000000    0.5000000000000000 C
   0.5376700000000000    0.5955700000000000    0.4600850000000000 C
   0.5376800000000000    0.5955700000000000    0.5399000000000000 C
   0.5334200000000000    0.5268800000000000    0.5000000000000000 C
   0.2328900000000000    0.8452100000000000    0.7101050000000000 C
   0.2328900000000000    0.8452100000000000    0.7898800000000000 C
   0.2107300000000000    0.8038500000000000    0.7499950000000000 C
   0.1441700000000000    0.6790200000000000    0.7092499999999999 C
   0.1023700000000000    0.5990500000000000    0.7092550000000000 C
   0.1441700000000000    0.6790200000000000    0.7907100000000000 C
   0.1023700000000000    0.5990500000000000    0.7907350000000000 C
   0.0809700000000000    0.5580700000000000    0.7499950000000000 C
   0.1662100000000000    0.7207900000000000    0.7499950000000000 C
   0.0376800000000000    0.4044600000000000    0.7899000000000000 C
   0.0376800000000000    0.4044600000000000    0.7100900000000000 C
   0.0334200000000000    0.4731500000000000    0.7499950000000000 C
   0.7670900000000000    0.1548300000000000    0.7101050000000000 C
   0.7670900000000000    0.1548300000000000    0.7898800000000000 C
   0.7892500000000000    0.1961900000000000    0.7499950000000000 C
   0.8558100000000000    0.3210100000000000    0.7092499999999999 C
   0.8976100000000000    0.4009900000000000    0.7092550000000000 C
   0.8558100000000000    0.3210100000000000    0.7907100000000000 C
   0.8976100000000000    0.4009900000000000    0.7907350000000000 C
   0.9190100000000000    0.4419600000000000    0.7499950000000000 C
   0.8337700000000000    0.2792400000000000    0.7499950000000000 C
   0.9623000000000000    0.5955700000000000    0.7100900000000000 C
   0.9623000000000000    0.5955700000000000    0.7895000000000000 C
   0.9665600000000000    0.5268800000000000    0.7499950000000000 C
   0.2671000000000000    0.8452100000000000    0.9601000000000000 C
   0.2671000000000000    0.8452100000000000    0.0398850000000000 C
   0.2892700000000000    0.8038500000000000    0.0000000000000000 C
   0.3558200000000000    0.6790300000000000    0.9592750000000000 C
   0.3976200000000000    0.5990500000000000    0.9592499999999999 C
   0.3558200000000000    0.6790300000000000    0.0407150000000000 C
   0.3976200000000000    0.5990500000000000    0.0407000000000000 C
   0.4190200000000000    0.5580800000000000    0.0000000000000000 C
   0.3337800000000000    0.7208000000000000    0.9999899999999999 C
   0.4623100000000000    0.4044700000000000    0.0399000000000000 C
   0.4623100000000000    0.4044700000000000    0.9600850000000001 C
   0.4665600000000000    0.4731600000000000    0.9999899999999999 C
   0.7328800000000000    0.1548200000000000    0.9601000000000000 C
   0.7328800000000000    0.1548200000000000    0.0398850000000000 C
   0.7107200000000000    0.1961900000000000    0.0000000000000000 C
   0.6441600000000000    0.3210100000000000    0.9592750000000000 C
   0.6023600000000000    0.4009800000000000    0.9592499999999999 C
   0.6441600000000000    0.3210100000000000    0.0407150000000000 C
   0.6023600000000000    0.4009800000000000    0.0407000000000000 C
   0.5809600000000000    0.4419600000000000    0.9999899999999999 C
   0.6662000000000000    0.2792400000000000    0.0000000000000000 C
   0.5376700000000000    0.5955700000000000    0.9600850000000001 C
   0.5376800000000000    0.5955700000000000    0.0399000000000000 C
   0.5334200000000000    0.5268800000000000    0.0000000000000000 C
   0.2328900000000000    0.1548200000000000    0.4601000000000000 C
   0.2328900000000000    0.1548200000000000    0.5398849999999999 C
   0.2107300000000000    0.1961800000000000    0.5000000000000000 C
   0.1441700000000000    0.3210100000000000    0.4592750000000000 C
   0.1023600000000000    0.4009800000000000    0.4592500000000000 C
   0.1441700000000000    0.3210100000000000    0.5407150000000001 C
   0.1023700000000000    0.4009800000000000    0.5407000000000000 C
   0.0809700000000000    0.4419600000000000    0.5000000000000000 C
   0.1662100000000000    0.2792400000000000    0.5000000000000000 C
   0.0376800000000000    0.5955700000000000    0.4600850000000000 C
   0.0376800000000000    0.5955700000000000    0.5399000000000000 C
   0.0334200000000000    0.5268800000000000    0.5000000000000000 C
   0.7670900000000000    0.8452100000000000    0.4601000000000000 C
   0.7670900000000000    0.8452100000000000    0.5398849999999999 C
   0.7892600000000000    0.8038500000000000    0.5000000000000000 C
   0.8558100000000000    0.6790300000000000    0.4592750000000000 C
   0.8976100000000000    0.5990500000000000    0.4592500000000000 C
   0.8558100000000000    0.6790300000000000    0.5407150000000001 C
   0.8976100000000000    0.5990500000000000    0.5407000000000000 C
   0.9190100000000000    0.5580800000000000    0.4999900000000000 C
   0.8337700000000000    0.7208000000000000    0.4999900000000000 C
   0.9623000000000000    0.4044700000000000    0.4600850000000000 C
   0.9623000000000000    0.4044700000000000    0.5399000000000000 C
   0.9665600000000000    0.4731600000000000    0.5000000000000000 C
   0.7328800000000000    0.8452100000000000    0.7101050000000000 C
   0.7328800000000000    0.8452100000000000    0.7898800000000000 C
   0.7107200000000000    0.8038500000000000    0.7499950000000000 C
   0.6441600000000000    0.6790200000000000    0.7092499999999999 C
   0.6023600000000000    0.5990500000000000    0.7092550000000000 C
   0.6441600000000000    0.6790200000000000    0.7907100000000000 C
   0.6023600000000000    0.5990500000000000    0.7907350000000000 C
   0.5809600000000000    0.5580700000000000    0.7499950000000000 C
   0.6662000000000000    0.7207900000000000    0.7499950000000000 C
   0.5376700000000000    0.4044600000000000    0.7899000000000000 C
   0.5376700000000000    0.4044600000000000    0.7100900000000000 C
   0.5334100000000001    0.4731500000000000    0.7499950000000000 C
   0.2671000000000000    0.1548300000000000    0.7101050000000000 C
   0.2671000000000000    0.1548300000000000    0.7898800000000000 C
   0.2892600000000000    0.1961900000000000    0.7499950000000000 C
   0.3558200000000000    0.3210100000000000    0.7092499999999999 C
   0.3976200000000000    0.4009900000000000    0.7092550000000000 C
   0.3558200000000000    0.3210100000000000    0.7907100000000000 C
   0.3976200000000000    0.4009900000000000    0.7907350000000000 C
   0.4190200000000000    0.4419600000000000    0.7499950000000000 C
   0.3337800000000000    0.2792400000000000    0.7499950000000000 C
   0.4623100000000000    0.5955700000000000    0.7100900000000000 C
   0.4623100000000000    0.5955700000000000    0.7895000000000000 C
   0.4665700000000000    0.5268800000000000    0.7499950000000000 C
   0.2328900000000000    0.1548200000000000    0.9601000000000000 C
   0.2328900000000000    0.1548200000000000    0.0398850000000000 C
   0.2107300000000000    0.1961800000000000    0.0000000000000000 C
   0.1441700000000000    0.3210100000000000    0.9592750000000000 C
   0.1023600000000000    0.4009800000000000    0.9592499999999999 C
   0.1441700000000000    0.3210100000000000    0.0407150000000000 C
   0.1023700000000000    0.4009800000000000    0.0407000000000000 C
   0.0809700000000000    0.4419600000000000    0.0000000000000000 C
   0.1662100000000000    0.2792400000000000    0.0000000000000000 C
   0.0376800000000000    0.5955700000000000    0.9600850000000001 C
   0.0376800000000000    0.5955700000000000    0.0399000000000000 C
   0.0334200000000000    0.5268800000000000    0.0000000000000000 C
   0.7670900000000000    0.8452100000000000    0.9601000000000000 C
   0.7670900000000000    0.8452100000000000    0.0398850000000000 C
   0.7892600000000000    0.8038500000000000    0.0000000000000000 C
   0.8558100000000000    0.6790300000000000    0.9592750000000000 C
   0.8976100000000000    0.5990500000000000    0.9592499999999999 C
   0.8558100000000000    0.6790300000000000    0.0407150000000000 C
   0.8976100000000000    0.5990500000000000    0.0407000000000000 C
   0.9190100000000000    0.5580800000000000    0.9999899999999999 C
   0.8337700000000000    0.7208000000000000    0.9999899999999999 C
   0.9623000000000000    0.4044700000000000    0.9600850000000001 C
   0.9623000000000000    0.4044700000000000    0.0399000000000000 C
   0.9665600000000000    0.4731600000000000    0.0000000000000000 C
   0.7328800000000000    0.8452100000000000    0.2101050000000000 C
   0.7328800000000000    0.8452100000000000    0.2898800000000000 C
   0.7107200000000000    0.8038500000000000    0.2499950000000000 C
   0.6441600000000000    0.6790200000000000    0.2907100000000000 C
   0.6023600000000000    0.5990500000000000    0.2907350000000000 C
   0.6441600000000000    0.6790200000000000    0.2092500000000000 C
   0.6023600000000000    0.5990500000000000    0.2092550000000000 C
   0.5809600000000000    0.5580700000000000    0.2499950000000000 C
   0.6662000000000000    0.7207900000000000    0.2499950000000000 C
   0.5376700000000000    0.4044600000000000    0.2100900000000000 C
   0.5376700000000000    0.4044600000000000    0.2899000000000000 C
   0.5334100000000001    0.4731500000000000    0.2499950000000000 C
   0.2671000000000000    0.1548300000000000    0.2101050000000000 C
   0.2671000000000000    0.1548300000000000    0.2898800000000000 C
   0.2892600000000000    0.1961900000000000    0.2499950000000000 C
   0.3558200000000000    0.3210100000000000    0.2092500000000000 C
   0.3976200000000000    0.4009900000000000    0.2092550000000000 C
   0.3558200000000000    0.3210100000000000    0.2907100000000000 C
   0.3976200000000000    0.4009900000000000    0.2907350000000000 C
   0.4190200000000000    0.4419600000000000    0.2499950000000000 C
   0.3337800000000000    0.2792400000000000    0.2499950000000000 C
   0.4623100000000000    0.5955700000000000    0.2100900000000000 C
   0.4623100000000000    0.5955700000000000    0.2895000000000000 C
   0.4665700000000000    0.5268800000000000    0.2499950000000000 C
   0.8451900000000000    0.0000100000000000    0.8749850000000000 N
   0.1548000000000000    0.0000000000000000    0.8500000000000000 N
   0.8451900000000000    0.0000100000000000    0.3749850000000000 N
   0.1548000000000000    0.0000000000000000    0.3500000000000000 N
   0.8451900000000000    0.0000000000000000    0.1250000000000000 N
   0.1548000000000000    0.0000000000000000    0.1249500000000000 N
   0.6547900000000000    0.0000000000000000    0.8749899999999999 N
   0.3451900000000000    0.0000000000000000    0.8749950000000000 N
   0.6547900000000000    0.0000000000000000    0.3749900000000000 N
   0.3451900000000000    0.0000000000000000    0.3749950000000000 N
   0.6547900000000000    0.0000000000000000    0.6250000000000000 N
   0.3451900000000000    0.0000000000000000    0.6249900000000000 N
   0.6547900000000000    0.0000000000000000    0.1250000000000000 N
   0.3451900000000000    0.0000000000000000    0.1249900000000000 N
   0.2516000000000000    0.8778200000000000    0.1758550000000000 N
   0.2516000000000000    0.8778200000000000    0.3241300000000000 N
   0.0422100000000000    0.3515800000000000    0.1779850000000000 N
   0.0422100000000000    0.3515800000000000    0.3220000000000000 N
   0.7483800000000000    0.1222100000000000    0.1758550000000000 N
   0.7483800000000000    0.1222100000000000    0.3241300000000000 N
   0.9577700000000000    0.6484600000000000    0.1779850000000000 N
   0.9577700000000000    0.6484600000000000    0.3220000000000000 N
   0.2483900000000000    0.8778200000000000    0.4258500000000000 N
   0.2483900000000000    0.8778200000000000    0.5741350000000001 N
   0.4577800000000000    0.3515800000000000    0.5720050000000000 N
   0.4577700000000000    0.3515800000000000    0.4279800000000000 N
   0.7515900000000000    0.1222100000000000    0.4258500000000000 N
   0.7515900000000000    0.1222100000000000    0.5741350000000001 N
   0.5422000000000000    0.6484500000000000    0.4279500000000000 N
   0.5422000000000000    0.6484500000000000    0.5720050000000000 N
   0.2516000000000000    0.8778200000000000    0.6758550000000000 N
   0.2516000000000000    0.8778200000000000    0.8241300000000000 N
   0.0422100000000000    0.3515800000000000    0.8220000000000001 N
   0.0422100000000000    0.3515800000000000    0.6779850000000001 N
   0.7483800000000000    0.1222100000000000    0.6758550000000000 N
   0.7483800000000000    0.1222100000000000    0.8241300000000000 N
   0.9577700000000000    0.6484600000000000    0.6779850000000001 N
   0.9577700000000000    0.6484600000000000    0.8220000000000001 N
   0.2483900000000000    0.8778200000000000    0.9258500000000001 N
   0.2483900000000000    0.8778200000000000    0.0741350000000000 N
   0.4577800000000000    0.3515800000000000    0.0720050000000000 N
   0.4577700000000000    0.3515800000000000    0.9279800000000000 N
   0.7515900000000000    0.1222100000000000    0.9258500000000001 N