H2 C7 N1 O4
1.0
  30.1919999954014955    0.0000000000000000   -0.0005269498077389
  -0.0008541007698054   28.3394710131467598  -16.2623693835039447
   0.0000000000000000    0.0000000000000000   32.6739999999999995
H C N O
2 7 1 4
direct
   0.6603200000000000    0.7902950000000000    0.4265950000000000 H
   0.6604150000000000    0.8638000000000000    0.5727450000000001 H
   0.6768300000000000    0.7975350000000000    0.4592400000000000 C
   0.7161550000000000    0.7738100000000000    0.4574250000000000 C
   0.7362000000000000    0.7374050000000000    0.4124650000000000 C
   0.7362900000000000    0.7840050000000001    0.4999150000000000 C
   0.6768750000000000    0.8382450000000000    0.5402000000000000 C
   0.7161800000000000    0.8164450000000000    0.5422800000000000 C
   0.7362250000000000    0.8252500000000000    0.5873950000000000 C
   0.6574650000000000    0.8295350000000000    0.4996550000000000 N
   0.7164050000000000    0.7228150000000000    0.3723750000000000 O
   0.7737450000000000    0.7204850000000000    0.4130000000000000 O
   0.7164000000000000    0.8508150000000000    0.6274150000000001 O
   0.7737600000000000    0.8074150000000000    0.5865500000000000 O
