H6 O4
1.0
  30.1919999954014955    0.0000000000000000   -0.0005269498077389
  -0.0008541007698054   28.3394710131467598  -16.2623693835039447
   0.0000000000000000    0.0000000000000000   32.6739999999999995
H O
6 4
direct
   0.1272543450489029    0.2388465801498352    0.3275086497783314 H
   0.1709317170801213    0.2301649930323949    0.2926213987901791 H
   0.0684771016788452    0.2428616443974381    0.3726085468194305 H
   0.1272526602136109    0.3275108439295963    0.2388470051153389 H
   0.1709252002774517    0.2926199517658887    0.2301600520807481 H
   0.0684809523367143    0.3726156083080205    0.2428671920769201 H
   0.1484650000000000    0.2202700000000000    0.3071050000000000 O
   0.0911950000000000    0.2229650000000000    0.3507550000000000 O
   0.1484600000000000    0.3071050000000000    0.2202650000000000 O
   0.0911950000000000    0.3507600000000000    0.2229650000000000 O
