H6 O4
1.0
  30.1919999954014955    0.0000000000000000   -0.0005269498077389
  -0.0008541007698054   28.3394710131467598  -16.2623693835039447
   0.0000000000000000    0.0000000000000000   32.6739999999999995
H O
6 4
direct
   0.7919420853870132    0.7287938143445384    0.4405166161274311 H
   0.6880951097301834    0.7321691932612684    0.3655769531701790 H
   0.7375179373157289    0.7324551963662523    0.4043008045496697 H
   0.6935677883129977    0.8726773681999438    0.6295421971664417 H
   0.7525077738750630    0.8277644956590795    0.5885299954473652 H
   0.7962863132493068    0.7930346373906981    0.5622910745873115 H
   0.7737450000000000    0.7204850000000000    0.4130000000000000 O
   0.7164050000000000    0.7228150000000000    0.3723750000000000 O
   0.7164000000000000    0.8508150000000000    0.6274150000000001 O
   0.7737600000000000    0.8074150000000000    0.5865500000000000 O
