H6 O4
1.0
  30.1919999954014955    0.0000000000000000   -0.0005269498077389
  -0.0008541007698054   28.3394710131467598  -16.2623693835039447
   0.0000000000000000    0.0000000000000000   32.6739999999999995
H O
6 4
direct
   0.9982008049028271    0.1470970666903814    0.7801305709836196 H
   0.0558081574318042    0.1943289160768872    0.7823199913455535 H
   0.9982008325942328    0.2801356450842122    0.6470923488575703 H
   0.0558081806272545    0.2823196561854606    0.6943241569777815 H
   0.3674116676811114    0.3116610004682775    0.6683713371485733 H
   0.3674110556330419    0.1683733055778818    0.8116601693325505 H
   0.9664500000000000    0.1493550000000000    0.7771650000000000 O
   0.0237850000000000    0.1928100000000000    0.7795650000000001 O
   0.9664500000000000    0.2771700000000000    0.6493500000000000 O
   0.0237850000000000    0.2795650000000000    0.6928050000000000 O
