Cu64 H186 C124 I32 N93
1.0
  29.9690056486289365    0.0000000000000000    8.5544290535632523
  -7.4498092947070207   12.5146307726658161    5.6645818112498585
   0.0000000000000000    0.0000000000000000   31.3440000000000012
Cu H C I N
64 186 124 32 93
direct
   0.1219550000000000    0.9363700000000000    0.0319150000000000 Cu
   0.2946400000000000    0.6913500000000000    0.1240550000000000 Cu
   0.2506600000000000    0.5656099999999999    0.3451950000000000 Cu
   0.1258200000000000    0.1648800000000000    0.4685600000000000 Cu
   0.4045650000000000    0.8113899999999999    0.1282000000000000 Cu
   0.1982200000000000    0.3369000000000000    0.4549900000000000 Cu
   0.2182200000000000    0.6929200000000000    0.4988950000000000 Cu
   0.2190850000000000    0.1913000000000000    0.4487200000000000 Cu
   0.3780550000000000    0.0636600000000000    0.4680500000000000 Cu
   0.2053700000000000    0.3086700000000000    0.3759450000000000 Cu
   0.2493450000000000    0.4344100000000000    0.1548000000000000 Cu
   0.3741850000000000    0.8351400000000000    0.0314350000000000 Cu
   0.0954400000000000    0.1886400000000000    0.3717800000000000 Cu
   0.3017750000000000    0.6631300000000000    0.0450100000000000 Cu
   0.2817850000000000    0.3071100000000000    0.0000000000000000 Cu
   0.2809200000000000    0.8087299999999999    0.0512800000000000 Cu
   0.6219550000000000    0.9363700000000000    0.0319150000000000 Cu
   0.7946400000000000    0.6913500000000000    0.1240550000000000 Cu
   0.7506600000000000    0.5656099999999999    0.3451950000000000 Cu
   0.6258200000000000    0.1648800000000000    0.4685600000000000 Cu
   0.9045650000000001    0.8113899999999999    0.1282000000000000 Cu
   0.6982200000000001    0.3369000000000000    0.4549900000000000 Cu
   0.7182200000000000    0.6929200000000000    0.4988950000000000 Cu
   0.7190850000000000    0.1913000000000000    0.4487200000000000 Cu
   0.8780550000000000    0.0636600000000000    0.4680500000000000 Cu
   0.7053700000000001    0.3086700000000000    0.3759450000000000 Cu
   0.7493450000000000    0.4344100000000000    0.1548000000000000 Cu
   0.8741850000000000    0.8351400000000000    0.0314350000000000 Cu
   0.5954400000000000    0.1886400000000000    0.3717800000000000 Cu
   0.8017750000000000    0.6631300000000000    0.0450100000000000 Cu
   0.7817850000000000    0.3071100000000000    0.0000000000000000 Cu
   0.7809200000000001    0.8087299999999999    0.0512800000000000 Cu
   0.1219550000000000    0.9363700000000000    0.5319150000000000 Cu
   0.2946400000000000    0.6913500000000000    0.6240550000000000 Cu
   0.2506600000000000    0.5656099999999999    0.8451949999999999 Cu
   0.1258200000000000    0.1648800000000000    0.9685600000000000 Cu
   0.4045650000000000    0.8113899999999999    0.6282000000000000 Cu
   0.1982200000000000    0.3369000000000000    0.9549900000000000 Cu
   0.2182200000000000    0.6929200000000000    0.9988950000000000 Cu
   0.2190850000000000    0.1913000000000000    0.9487200000000000 Cu
   0.3780550000000000    0.0636600000000000    0.9680500000000001 Cu
   0.2053700000000000    0.3086700000000000    0.8759450000000000 Cu
   0.2493450000000000    0.4344100000000000    0.6548000000000000 Cu
   0.3741850000000000    0.8351400000000000    0.5314350000000000 Cu
   0.0954400000000000    0.1886400000000000    0.8717800000000000 Cu
   0.3017750000000000    0.6631300000000000    0.5450100000000000 Cu
   0.2817850000000000    0.3071100000000000    0.5000000000000000 Cu
   0.2809200000000000    0.8087299999999999    0.5512800000000000 Cu
   0.6219550000000000    0.9363700000000000    0.5319150000000000 Cu
   0.7946400000000000    0.6913500000000000    0.6240550000000000 Cu
   0.7506600000000000    0.5656099999999999    0.8451949999999999 Cu
   0.6258200000000000    0.1648800000000000    0.9685600000000000 Cu
   0.9045650000000001    0.8113899999999999    0.6282000000000000 Cu
   0.6982200000000001    0.3369000000000000    0.9549900000000000 Cu
   0.7182200000000000    0.6929200000000000    0.9988950000000000 Cu
   0.7190850000000000    0.1913000000000000    0.9487200000000000 Cu
   0.8780550000000000    0.0636600000000000    0.9680500000000001 Cu
   0.7053700000000001    0.3086700000000000    0.8759450000000000 Cu
   0.7493450000000000    0.4344100000000000    0.6548000000000000 Cu
   0.8741850000000000    0.8351400000000000    0.5314350000000000 Cu
   0.5954400000000000    0.1886400000000000    0.8717800000000000 Cu
   0.8017750000000000    0.6631300000000000    0.5450100000000000 Cu
   0.7817850000000000    0.3071100000000000    0.5000000000000000 Cu
   0.7809200000000001    0.8087299999999999    0.5512800000000000 Cu
   0.1367400000000000    0.7136600000000000    0.4838700000000000 H
   0.1409450000000000    0.8405899999999999    0.4563400000000000 H
   0.0901650000000000    0.7359800000000000    0.0188500000000000 H
   0.2481050000000000    0.9556100000000000    0.0803100000000000 H
   0.1803250000000000    0.8983500000000000    0.1182300000000000 H
   0.2149450000000000    0.0210500000000000    0.0586300000000000 H
   0.0309750000000000    0.7454900000000000    0.1139650000000000 H
   0.4719300000000000    0.6979500000000000    0.1092650000000000 H
   0.4731150000000000    0.7232300000000000    0.1597500000000000 H
   0.0203250000000000    0.1599500000000000    0.0020400000000000 H
   0.4800250000000000    0.0990600000000000    0.0694200000000000 H
   0.4548850000000000    0.0512100000000000    0.0332650000000000 H
   0.2659350000000000    0.7588200000000001    0.3401500000000000 H
   0.2942550000000000    0.8050700000000000    0.3757100000000000 H
   0.2314400000000000    0.7827200000000000    0.3861350000000000 H
   0.1693600000000000    0.3445500000000000    0.0573000000000000 H
   0.1314150000000000    0.4047300000000000    0.0662850000000000 H
   0.1913550000000000    0.4540500000000000    0.0680850000000000 H
   0.3632650000000000    0.2863700000000000    0.0000000000000000 H
   0.3590650000000000    0.1594400000000000    0.0436600000000000 H
   0.4098400000000000    0.2640500000000000    0.4811350000000000 H
   0.2519000000000000    0.0444200000000000    0.4196900000000000 H
   0.3196800000000000    0.1016800000000000    0.3817700000000000 H
   0.2850600000000000    0.9789800000000000    0.4413700000000000 H
   0.0901250000000000    0.2121900000000000    0.2800000000000000 H
   0.1259750000000000    0.3387700000000000    0.2210050000000000 H
   0.1363200000000000    0.2334700000000000    0.2229100000000000 H
   0.3078250000000000    0.4544800000000000    0.2706100000000000 H
   0.3176500000000000    0.3981700000000000    0.2311750000000000 H
   0.3185150000000000    0.5205100000000000    0.2052700000000000 H
   0.4690300000000000    0.2545400000000000    0.3860000000000000 H
   0.0280800000000000    0.3020800000000000    0.3907000000000000 H
   0.0268900000000000    0.2768000000000000    0.3402550000000000 H
   0.4796800000000000    0.8400800000000000    0.4979500000000000 H
   0.0199750000000000    0.9009700000000000    0.4305500000000000 H
   0.0451200000000000    0.9488200000000000    0.4667350000000000 H
   0.2340750000000000    0.2412100000000000    0.1598250000000000 H
   0.2057550000000000    0.1949600000000000    0.1242900000000000 H
   0.2685650000000000    0.2173100000000000    0.1138500000000000 H
   0.3306450000000000    0.6554900000000000    0.4427000000000000 H
   0.3685900000000000    0.5953100000000000    0.4337150000000000 H
   0.3086550000000000    0.5459800000000000    0.4319150000000000 H
   0.6367400000000000    0.7136600000000000    0.4838700000000000 H
   0.6409450000000000    0.8405899999999999    0.4563400000000000 H
   0.5901650000000001    0.7359800000000000    0.0188500000000000 H
   0.7481050000000000    0.9556100000000000    0.0803100000000000 H
   0.6803250000000001    0.8983500000000000    0.1182300000000000 H
   0.7149449999999999    0.0210500000000000    0.0586300000000000 H
   0.9098800000000000    0.7878400000000000    0.2200000000000000 H
   0.8740300000000000    0.6612500000000000    0.2789950000000000 H
   0.8636850000000000    0.7665500000000000    0.2770950000000000 H
   0.6921800000000000    0.5455500000000000    0.2293900000000000 H
   0.6823600000000000    0.6018700000000000    0.2688250000000000 H
   0.6814900000000000    0.4795200000000000    0.2947300000000000 H
   0.5309750000000000    0.7454900000000000    0.1139650000000000 H
   0.9719300000000000    0.6979500000000000    0.1092650000000000 H
   0.9731150000000000    0.7232300000000000    0.1597500000000000 H
   0.5203250000000000    0.1599500000000000    0.0020400000000000 H
   0.9800249999999999    0.0990600000000000    0.0694200000000000 H
   0.9548850000000000    0.0512100000000000    0.0332650000000000 H
   0.7659350000000000    0.7588200000000001    0.3401500000000000 H
   0.7942549999999999    0.8050700000000000    0.3757100000000000 H
   0.7314400000000000    0.7827200000000000    0.3861350000000000 H
   0.6693600000000000    0.3445500000000000    0.0573000000000000 H
   0.6314150000000001    0.4047300000000000    0.0662850000000000 H
   0.6913549999999999    0.4540500000000000    0.0680850000000000 H
   0.8632649999999999    0.2863700000000000    0.0000000000000000 H
   0.8590650000000000    0.1594400000000000    0.0436600000000000 H
   0.9098400000000000    0.2640500000000000    0.4811350000000000 H
   0.7519000000000000    0.0444200000000000    0.4196900000000000 H
   0.8196800000000000    0.1016800000000000    0.3817700000000000 H
   0.7850600000000000    0.9789800000000000    0.4413700000000000 H
   0.5901250000000000    0.2121900000000000    0.2800000000000000 H
   0.6259749999999999    0.3387700000000000    0.2210050000000000 H
   0.6363200000000000    0.2334700000000000    0.2229100000000000 H
   0.8078250000000000    0.4544800000000000    0.2706100000000000 H
   0.8176500000000000    0.3981700000000000    0.2311750000000000 H
   0.8185150000000000    0.5205100000000000    0.2052700000000000 H
   0.9690300000000001    0.2545400000000000    0.3860000000000000 H
   0.5280800000000000    0.3020800000000000    0.3907000000000000 H
   0.5268900000000000    0.2768000000000000    0.3402550000000000 H
   0.9796800000000000    0.8400800000000000    0.4979500000000000 H
   0.5199750000000000    0.9009700000000000    0.4305500000000000 H
   0.5451200000000000    0.9488200000000000    0.4667350000000000 H
   0.7340750000000000    0.2412100000000000    0.1598250000000000 H
   0.7057550000000000    0.1949600000000000    0.1242900000000000 H
   0.7685649999999999    0.2173100000000000    0.1138500000000000 H
   0.8306450000000001    0.6554900000000000    0.4427000000000000 H
   0.8685900000000000    0.5953100000000000    0.4337150000000000 H
   0.8086550000000000    0.5459800000000000    0.4319150000000000 H
   0.1367400000000000    0.7136600000000000    0.9838700000000000 H
   0.1409450000000000    0.8405899999999999    0.9563400000000000 H
   0.0901650000000000    0.7359800000000000    0.5188500000000000 H
   0.2481050000000000    0.9556100000000000    0.5803100000000000 H
   0.1803250000000000    0.8983500000000000    0.6182300000000001 H
   0.2149450000000000    0.0210500000000000    0.5586300000000000 H
   0.4098800000000000    0.7878400000000000    0.7200000000000000 H
   0.3740300000000000    0.6612500000000000    0.7789950000000000 H
   0.3636850000000000    0.7665500000000000    0.7770950000000000 H
   0.1921800000000000    0.5455500000000000    0.7293900000000000 H
   0.1823600000000000    0.6018700000000000    0.7688250000000000 H
   0.1814900000000000    0.4795200000000000    0.7947299999999999 H
   0.0309750000000000    0.7454900000000000    0.6139650000000000 H
   0.4719300000000000    0.6979500000000000    0.6092649999999999 H
   0.4731150000000000    0.7232300000000000    0.6597500000000001 H
   0.0203250000000000    0.1599500000000000    0.5020400000000000 H
   0.4800250000000000    0.0990600000000000    0.5694200000000000 H
   0.4548850000000000    0.0512100000000000    0.5332650000000000 H
   0.2659350000000000    0.7588200000000001    0.8401500000000000 H
   0.2942550000000000    0.8050700000000000    0.8757100000000000 H
   0.2314400000000000    0.7827200000000000    0.8861350000000000 H
   0.1693600000000000    0.3445500000000000    0.5573000000000000 H
   0.1314150000000000    0.4047300000000000    0.5662850000000000 H
   0.1913550000000000    0.4540500000000000    0.5680850000000000 H
   0.3632650000000000    0.2863700000000000    0.5000000000000000 H
   0.3590650000000000    0.1594400000000000    0.5436600000000000 H
   0.4098400000000000    0.2640500000000000    0.9811350000000000 H
   0.2519000000000000    0.0444200000000000    0.9196900000000000 H
   0.3196800000000000    0.1016800000000000    0.8817699999999999 H
   0.2850600000000000    0.9789800000000000    0.9413700000000000 H
   0.0901250000000000    0.2121900000000000    0.7800000000000000 H
   0.1259750000000000    0.3387700000000000    0.7210050000000000 H
   0.1363200000000000    0.2334700000000000    0.7229099999999999 H
   0.3078250000000000    0.4544800000000000    0.7706100000000000 H
   0.3176500000000000    0.3981700000000000    0.7311750000000000 H
   0.3185150000000000    0.5205100000000000    0.7052700000000001 H
   0.4690300000000000    0.2545400000000000    0.8860000000000000 H
   0.0280800000000000    0.3020800000000000    0.8907000000000000 H
   0.0268900000000000    0.2768000000000000    0.8402550000000000 H
   0.4796800000000000    0.8400800000000000    0.9979500000000000 H
   0.0199750000000000    0.9009700000000000    0.9305500000000000 H
   0.0451200000000000    0.9488200000000000    0.9667350000000000 H
   0.2340750000000000    0.2412100000000000    0.6598250000000000 H
   0.2057550000000000    0.1949600000000000    0.6242900000000000 H
   0.2685650000000000    0.2173100000000000    0.6138500000000000 H
   0.3306450000000000    0.6554900000000000    0.9427000000000000 H
   0.3685900000000000    0.5953100000000000    0.9337150000000001 H
   0.3086550000000000    0.5459800000000000    0.9319150000000000 H
   0.6367400000000000    0.7136600000000000    0.9838700000000000 H
   0.6409450000000000    0.8405899999999999    0.9563400000000000 H
   0.5901650000000001    0.7359800000000000    0.5188500000000000 H
   0.7481050000000000    0.9556100000000000    0.5803100000000000 H
   0.6803250000000001    0.8983500000000000    0.6182300000000001 H
   0.7149449999999999    0.0210500000000000    0.5586300000000000 H
   0.9098800000000000    0.7878400000000000    0.7200000000000000 H
   0.8740300000000000    0.6612500000000000    0.7789950000000000 H
   0.8636850000000000    0.7665500000000000    0.7770950000000000 H
   0.6921800000000000    0.5455500000000000    0.7293900000000000 H
   0.6823600000000000    0.6018700000000000    0.7688250000000000 H
   0.6814900000000000    0.4795200000000000    0.7947299999999999 H
   0.5309750000000000    0.7454900000000000    0.6139650000000000 H
   0.9719300000000000    0.6979500000000000    0.6092649999999999 H
   0.9731150000000000    0.7232300000000000    0.6597500000000001 H
   0.5203250000000000    0.1599500000000000    0.5020400000000000 H
   0.9800249999999999    0.0990600000000000    0.5694200000000000 H
   0.9548850000000000    0.0512100000000000    0.5332650000000000 H
   0.7659350000000000    0.7588200000000001    0.8401500000000000 H
   0.7942549999999999    0.8050700000000000    0.8757100000000000 H
   0.7314400000000000    0.7827200000000000    0.8861350000000000 H
   0.6693600000000000    0.3445500000000000    0.5573000000000000 H
   0.6314150000000001    0.4047300000000000    0.5662850000000000 H
   0.6913549999999999    0.4540500000000000    0.5680850000000000 H
   0.8632649999999999    0.2863700000000000    0.5000000000000000 H
   0.8590650000000000    0.1594400000000000    0.5436600000000000 H
   0.9098400000000000    0.2640500000000000    0.9811350000000000 H
   0.7519000000000000    0.0444200000000000    0.9196900000000000 H
   0.8196800000000000    0.1016800000000000    0.8817699999999999 H
   0.7850600000000000    0.9789800000000000    0.9413700000000000 H
   0.5901250000000000    0.2121900000000000    0.7800000000000000 H
   0.6259749999999999    0.3387700000000000    0.7210050000000000 H
   0.6363200000000000    0.2334700000000000    0.7229099999999999 H
   0.8078250000000000    0.4544800000000000    0.7706100000000000 H
   0.8176500000000000    0.3981700000000000    0.7311750000000000 H
   0.8185150000000000    0.5205100000000000    0.7052700000000001 H
   0.9690300000000001    0.2545400000000000    0.8860000000000000 H
   0.5280800000000000    0.3020800000000000    0.8907000000000000 H
   0.5268900000000000    0.2768000000000000    0.8402550000000000 H
   0.9796800000000000    0.8400800000000000    0.9979500000000000 H
   0.5199750000000000    0.9009700000000000    0.9305500000000000 H
   0.5451200000000000    0.9488200000000000    0.9667350000000000 H
   0.7340750000000000    0.2412100000000000    0.6598250000000000 H
   0.7057550000000000    0.1949600000000000    0.6242900000000000 H
   0.7685649999999999    0.2173100000000000    0.6138500000000000 H
   0.8306450000000001    0.6554900000000000    0.9427000000000000 H
   0.8685900000000000    0.5953100000000000    0.9337150000000001 H
   0.8086550000000000    0.5459800000000000    0.9319150000000000 H
   0.2008000000000000    0.8839700000000000    0.0515650000000000 C
   0.1647900000000000    0.8080700000000000    0.0152700000000000 C
   0.1313250000000000    0.7724500000000000    0.4923000000000000 C
   0.2119350000000000    0.9435300000000000    0.0784650000000000 C
   0.0087850000000000    0.0075900000000000    0.0488500000000000 C
   0.0112650000000000    0.8635500000000000    0.0852000000000000 C
   0.4960750000000000    0.7513300000000001    0.1185000000000000 C
   0.4900200000000000    0.0838200000000000    0.0374750000000000 C
   0.1982300000000000    0.4962200000000000    0.4927100000000000 C
   0.2347000000000000    0.6403600000000000    0.4185700000000000 C
   0.2578800000000000    0.7529700000000000    0.3778000000000000 C
   0.1713100000000000    0.4205500000000000    0.0492500000000000 C
   0.2992050000000000    0.1160600000000000    0.4484350000000000 C
   0.3352150000000000    0.1919600000000000    0.4847000000000000 C
   0.3686800000000000    0.2275800000000000    0.0000000000000000 C
   0.2880700000000000    0.0565000000000000    0.4215350000000000 C
   0.2432200000000000    0.3827200000000000    0.2590900000000000 C
   0.1688400000000000    0.3062300000000000    0.2610850000000000 C
   0.1279650000000000    0.2705300000000000    0.2454850000000000 C
   0.2999750000000000    0.4427800000000000    0.2405450000000000 C
   0.4912200000000000    0.9924400000000000    0.4511000000000000 C
   0.4887400000000000    0.1364800000000000    0.4148000000000000 C
   0.0039300000000000    0.2487000000000000    0.3811050000000000 C
   0.0099850000000000    0.9162100000000000    0.4625250000000000 C
   0.3017750000000000    0.5038100000000000    0.0000000000000000 C
   0.2653050000000000    0.3596700000000000    0.0814300000000000 C
   0.2421250000000000    0.2470500000000000    0.1222000000000000 C
   0.3286950000000000    0.5794800000000000    0.4507400000000000 C
   0.7008000000000000    0.8839700000000000    0.0515650000000000 C
   0.6647900000000000    0.8080700000000000    0.0152700000000000 C
   0.6313250000000000    0.7724500000000000    0.4923000000000000 C
   0.7119350000000000    0.9435300000000000    0.0784650000000000 C
   0.7567850000000000    0.6173100000000000    0.2409000000000000 C
   0.8311649999999999    0.6938000000000000    0.2389200000000000 C
   0.8720399999999999    0.7294900000000000    0.2545150000000000 C
   0.7000350000000000    0.5572500000000000    0.2594550000000000 C
   0.5087850000000000    0.0075900000000000    0.0488500000000000 C
   0.5112650000000000    0.8635500000000000    0.0852000000000000 C
   0.9960750000000000    0.7513300000000001    0.1185000000000000 C
   0.9900200000000000    0.0838200000000000    0.0374750000000000 C
   0.6982300000000000    0.4962200000000000    0.4927100000000000 C
   0.7347000000000000    0.6403600000000000    0.4185700000000000 C
   0.7578800000000000    0.7529700000000000    0.3778000000000000 C
   0.6713100000000000    0.4205500000000000    0.0492500000000000 C
   0.7992049999999999    0.1160600000000000    0.4484350000000000 C
   0.8352150000000000    0.1919600000000000    0.4847000000000000 C
   0.8686800000000000    0.2275800000000000    0.0000000000000000 C
   0.7880700000000000    0.0565000000000000    0.4215350000000000 C
   0.7432200000000000    0.3827200000000000    0.2590900000000000 C
   0.6688400000000000    0.3062300000000000    0.2610850000000000 C
   0.6279650000000000    0.2705300000000000    0.2454850000000000 C
   0.7999750000000000    0.4427800000000000    0.2405450000000000 C
   0.9912200000000000    0.9924400000000000    0.4511000000000000 C
   0.9887400000000000    0.1364800000000000    0.4148000000000000 C
   0.5039300000000000    0.2487000000000000    0.3811050000000000 C
   0.5099850000000000    0.9162100000000000    0.4625250000000000 C
   0.8017750000000000    0.5038100000000000    0.0000000000000000 C
   0.7653050000000000    0.3596700000000000    0.0814300000000000 C
   0.7421250000000000    0.2470500000000000    0.1222000000000000 C
   0.8286950000000000    0.5794800000000000    0.4507400000000000 C
   0.2008000000000000    0.8839700000000000    0.5515650000000000 C
   0.1647900000000000    0.8080700000000000    0.5152700000000000 C
   0.1313250000000000    0.7724500000000000    0.9923000000000000 C
   0.2119350000000000    0.9435300000000000    0.5784650000000000 C
   0.2567850000000000    0.6173100000000000    0.7409000000000000 C
   0.3311650000000000    0.6938000000000000    0.7389200000000000 C
   0.3720400000000000    0.7294900000000000    0.7545150000000000 C
   0.2000350000000000    0.5572500000000000    0.7594550000000000 C
   0.0087850000000000    0.0075900000000000    0.5488499999999999 C
   0.0112650000000000    0.8635500000000000    0.5851999999999999 C
   0.4960750000000000    0.7513300000000001    0.6185000000000000 C
   0.4900200000000000    0.0838200000000000    0.5374750000000000 C
   0.1982300000000000    0.4962200000000000    0.9927100000000000 C
   0.2347000000000000    0.6403600000000000    0.9185700000000000 C
   0.2578800000000000    0.7529700000000000    0.8778000000000000 C
   0.1713100000000000    0.4205500000000000    0.5492500000000000 C
   0.2992050000000000    0.1160600000000000    0.9484349999999999 C
   0.3352150000000000    0.1919600000000000    0.9847000000000000 C
   0.3686800000000000    0.2275800000000000    0.5000000000000000 C
   0.2880700000000000    0.0565000000000000    0.9215350000000000 C
   0.2432200000000000    0.3827200000000000    0.7590900000000000 C
   0.1688400000000000    0.3062300000000000    0.7610850000000000 C
   0.1279650000000000    0.2705300000000000    0.7454850000000000 C
   0.2999750000000000    0.4427800000000000    0.7405450000000000 C
   0.4912200000000000    0.9924400000000000    0.9511000000000001 C
   0.4887400000000000    0.1364800000000000    0.9148000000000001 C
   0.0039300000000000    0.2487000000000000    0.8811050000000000 C
   0.0099850000000000    0.9162100000000000    0.9625250000000001 C
   0.3017750000000000    0.5038100000000000    0.5000000000000000 C
   0.2653050000000000    0.3596700000000000    0.5814300000000000 C
   0.2421250000000000    0.2470500000000000    0.6222000000000000 C
   0.3286950000000000    0.5794800000000000    0.9507399999999999 C
   0.7008000000000000    0.8839700000000000    0.5515650000000000 C
   0.6647900000000000    0.8080700000000000    0.5152700000000000 C
   0.6313250000000000    0.7724500000000000    0.9923000000000000 C
   0.7119350000000000    0.9435300000000000    0.5784650000000000 C
   0.7567850000000000    0.6173100000000000    0.7409000000000000 C
   0.8311649999999999    0.6938000000000000    0.7389200000000000 C
   0.8720399999999999    0.7294900000000000    0.7545150000000000 C
   0.7000350000000000    0.5572500000000000    0.7594550000000000 C
   0.5087850000000000    0.0075900000000000    0.5488499999999999 C
   0.5112650000000000    0.8635500000000000    0.5851999999999999 C
   0.9960750000000000    0.7513300000000001    0.6185000000000000 C
   0.9900200000000000    0.0838200000000000    0.5374750000000000 C
   0.6982300000000000    0.4962200000000000    0.9927100000000000 C
   0.7347000000000000    0.6403600000000000    0.9185700000000000 C
   0.7578800000000000    0.7529700000000000    0.8778000000000000 C
   0.6713100000000000    0.4205500000000000    0.5492500000000000 C
   0.7992049999999999    0.1160600000000000    0.9484349999999999 C
   0.8352150000000000    0.1919600000000000    0.9847000000000000 C
   0.8686800000000000    0.2275800000000000    0.5000000000000000 C
   0.7880700000000000    0.0565000000000000    0.9215350000000000 C
   0.7432200000000000    0.3827200000000000    0.7590900000000000 C
   0.6688400000000000    0.3062300000000000    0.7610850000000000 C
   0.6279650000000000    0.2705300000000000    0.7454850000000000 C
   0.7999750000000000    0.4427800000000000    0.7405450000000000 C
   0.9912200000000000    0.9924400000000000    0.9511000000000001 C
   0.9887400000000000    0.1364800000000000    0.9148000000000001 C
   0.5039300000000000    0.2487000000000000    0.8811050000000000 C
   0.5099850000000000    0.9162100000000000    0.9625250000000001 C
   0.8017750000000000    0.5038100000000000    0.5000000000000000 C
   0.7653050000000000    0.3596700000000000    0.5814300000000000 C
   0.7421250000000000    0.2470500000000000    0.6222000000000000 C
   0.8286950000000000    0.5794800000000000    0.9507399999999999 C
   0.2065800000000000    0.5805200000000000    0.1254350000000000 I
   0.3350100000000000    0.9201300000000000    0.0836500000000000 I
   0.1664050000000000    0.1651300000000000    0.0429500000000000 I
   0.1243600000000000    0.3378100000000000    0.4144450000000000 I
   0.2934250000000000    0.4195100000000000    0.3745700000000000 I
   0.1649950000000000    0.0799000000000000    0.4163500000000000 I
   0.3336000000000000    0.8349000000000000    0.4570500000000000 I
   0.3756500000000000    0.6622200000000000    0.0855550000000000 I
   0.7065800000000000    0.5805200000000000    0.1254350000000000 I
   0.8350100000000000    0.9201300000000000    0.0836500000000000 I
   0.6664050000000000    0.1651300000000000    0.0429500000000000 I
   0.6243600000000000    0.3378100000000000    0.4144450000000000 I
   0.7934250000000000    0.4195100000000000    0.3745700000000000 I
   0.6649950000000000    0.0799000000000000    0.4163500000000000 I
   0.8336000000000000    0.8349000000000000    0.4570500000000000 I
   0.8756500000000000    0.6622200000000000    0.0855550000000000 I
   0.2065800000000000    0.5805200000000000    0.6254350000000000 I
   0.3350100000000000    0.9201300000000000    0.5836500000000000 I
   0.1664050000000000    0.1651300000000000    0.5429500000000000 I
   0.1243600000000000    0.3378100000000000    0.9144450000000000 I
   0.2934250000000000    0.4195100000000000    0.8745700000000001 I
   0.1649950000000000    0.0799000000000000    0.9163500000000000 I
   0.3336000000000000    0.8349000000000000    0.9570500000000000 I
   0.3756500000000000    0.6622200000000000    0.5855550000000000 I
   0.7065800000000000    0.5805200000000000    0.6254350000000000 I
   0.8350100000000000    0.9201300000000000    0.5836500000000000 I
   0.6664050000000000    0.1651300000000000    0.5429500000000000 I
   0.6243600000000000    0.3378100000000000    0.9144450000000000 I
   0.7934250000000000    0.4195100000000000    0.8745700000000001 I
   0.6649950000000000    0.0799000000000000    0.9163500000000000 I
   0.8336000000000000    0.8349000000000000    0.9570500000000000 I
   0.8756500000000000    0.6622200000000000    0.5855550000000000 I
   0.2233400000000000    0.8295200000000000    0.0426300000000000 N
   0.1642550000000000    0.8734400000000000    0.0344500000000000 N
   0.1999350000000000    0.7802900000000000    0.0197850000000000 N
   0.0584050000000000    0.0341400000000000    0.0263000000000000 N
   0.4779200000000000    0.9010200000000000    0.0856000000000000 N
   0.0599500000000000    0.9420300000000000    0.0499150000000000 N
   0.2070650000000000    0.4689200000000000    0.4567800000000000 N
   0.2155150000000000    0.6032700000000000    0.4702750000000000 N
   0.2300150000000000    0.5611100000000000    0.4093850000000000 N
   0.2766650000000000    0.1705100000000000    0.4573500000000000 N
   0.3357500000000000    0.1265900000000000    0.4655300000000000 N
   0.3000700000000000    0.2197400000000000    0.4802150000000000 N
   0.2071550000000000    0.3280300000000000    0.3085350000000000 N
   0.2207050000000000    0.3719600000000000    0.2280500000000000 N
   0.1596150000000000    0.2783500000000000    0.3097900000000000 N
   0.4416000000000000    0.9658900000000000    0.4737000000000000 N
   0.0220850000000000    0.0990100000000000    0.4144050000000000 N
   0.4400550000000000    0.0580000000000000    0.4500850000000000 N
   0.2929400000000000    0.5311100000000000    0.0432200000000000 N
   0.2844900000000000    0.3967600000000000    0.0297250000000000 N
   0.2699900000000000    0.4389200000000000    0.0906150000000000 N
   0.7233400000000000    0.8295200000000000    0.0426300000000000 N
   0.6642550000000000    0.8734400000000000    0.0344500000000000 N
   0.6999350000000000    0.7802900000000000    0.0197850000000000 N
   0.7928500000000001    0.6720000000000000    0.1914650000000000 N
   0.7793000000000000    0.6280700000000000    0.2719500000000000 N
   0.8403900000000000    0.7216800000000000    0.1902100000000000 N
   0.5584050000000000    0.0341400000000000    0.0263000000000000 N
   0.9779200000000000    0.9010200000000000    0.0856000000000000 N
   0.5599499999999999    0.9420300000000000    0.0499150000000000 N