C6 O12
1.0
  37.7142919924012432    0.0000000000000000    3.6447605561819691
   2.4580526812543741   31.5483386717402183   14.9505955757407385
   0.0000000000000000    0.0000000000000000   39.1000000000000014
C O
6 12
direct
   0.1431433333333333    0.3200250000000000    0.7035275000000000 C
   0.1018616666666667    0.3213800000000000    0.7029125000000001 C
   0.5235300000000001    0.4299700000000000    0.5464900000000000 C
   0.5648083333333334    0.4286125000000000    0.5471300000000000 C
   0.6431433333333333    0.8200250000000000    0.9535275000000000 C
   0.6018616666666666    0.8213800000000000    0.9529125000000001 C
   0.1604800000000000    0.3399600000000000    0.6721500000000000 O
   0.1572783333333333    0.2969250000000000    0.7343375000000000 O
   0.0877650000000000    0.3424400000000000    0.6710800000000000 O
   0.0852750000000000    0.2990050000000000    0.7333425000000000 O
   0.5061833333333333    0.4100300000000000    0.5778575000000000 O
   0.5094016666666666    0.4530700000000000    0.5156750000000000 O
   0.5788916666666667    0.4074725000000000    0.5789575000000000 O
   0.5813983333333334    0.4510600000000000    0.5167325000000000 O
   0.6604800000000000    0.8399600000000000    0.9221500000000000 O
   0.6572783333333333    0.7969250000000000    0.9843375000000000 O
   0.5877650000000000    0.8424400000000000    0.9210800000000000 O
   0.5852750000000000    0.7990050000000000    0.9833425000000000 O
