H8 O5
1.0
  28.3439990286664418    0.0000000000000000   -0.0074204417630121
  -0.0183392531785436   29.9999514023520497   -0.0507890569715564
   0.0000000000000000    0.0000000000000000   30.7360000000000007
H O
8 5
direct
   0.4234763105582936    0.2901215098859271    0.2632879121729341 H
   0.3659843639619711    0.2748011898312139    0.2432625230325700 H
   0.3192466087965811    0.2581013212920935    0.2220877433519076 H
   0.3605603341699707    0.3435877246266478    0.2845755659437164 H
   0.3111932284394574    0.3207056638472554    0.2709612329132271 H
   0.4241294970408162    0.2112502967886633    0.2743042786410450 H
   0.3720312709204882    0.1439420998121007    0.2455045421311132 H
   0.3153953223488765    0.1749959200180409    0.2592944209593717 H
   0.4564450000000000    0.2970200000000000    0.2684600000000000 O
   0.3354100000000000    0.2849750000000000    0.2323300000000000 O
   0.3942750000000000    0.3380900000000000    0.2839950000000000 O
   0.4567300000000000    0.2023500000000000    0.2702500000000000 O
   0.4054500000000000    0.1504100000000000    0.2480950000000000 O
