H2 C5 N2 O4
1.0
  28.3439990286664418    0.0000000000000000   -0.0074204417630121
  -0.0183392531785436   29.9999514023520497   -0.0507890569715564
   0.0000000000000000    0.0000000000000000   30.7360000000000007
H C N O
2 5 2 4
direct
   0.3981350000000000    0.5928400000000000    0.1832200000000000 H
   0.6081450000000000    0.6341350000000000    0.1167850000000000 H
   0.4639050000000000    0.5971250000000000    0.1682600000000000 C
   0.4603400000000000    0.6244300000000000    0.0586950000000000 C
   0.5000000000000000    0.6103550000000000    0.1366700000000000 C
   0.5000000000000000    0.6234700000000000    0.0929350000000000 C
   0.5703549999999999    0.6283550000000000    0.1170600000000000 C
   0.5453249999999999    0.6135950000000000    0.1513250000000000 N
   0.5430200000000001    0.6348600000000000    0.0816000000000000 N
   0.4770700000000000    0.5832250000000000    0.2048950000000000 O
   0.4192600000000000    0.6013600000000000    0.1575950000000000 O
   0.4203450000000000    0.6093000000000000    0.0644150000000000 O
   0.4757300000000000    0.6424000000000000    0.0220600000000000 O
