H4 O2
1.0
  18.7619531808386810    0.0000000000000000   -0.0419146754401632
  -3.1016186779435784   15.0335346461682668   -3.9289722089994372
   0.0000000000000000    0.0000000000000000   33.2879999999999967
H O
4 2
direct
   0.4175528285173176    0.9551368227932782    0.9172808640417500 H
   0.4742771718658897    1.0395106071845457    0.9497977521573150 H
   0.1923739390317206   -0.0395237038542261    0.0501908133862295 H
   0.2491034799626838    0.0448499711031289    0.0827079305695227 H
   0.4646733333333333    0.9964600000000000    0.9227000000000001 O
   0.2019766666666666    0.0035400000000000    0.0772850000000000 O
