H6 O4
1.0
  18.7619531808386810    0.0000000000000000   -0.0419146754401632
  -3.1016186779435784   15.0335346461682668   -3.9289722089994372
   0.0000000000000000    0.0000000000000000   33.2879999999999967
H O
6 4
direct
   0.9707081305613814   -0.0913582445238177    0.8440657685780358 H
   0.7687025291131719   -0.2316251553930612    0.8512414032835386 H
   0.8626637118817450   -0.1724883245379570    0.8468613624338746 H
   0.0292847912718459    1.0913656486681531    0.6559298693111418 H
   0.2312762456438822    1.2316150895094371    0.6487521962635177 H
   0.1373266033483550    1.1724976798380620    0.6531345928284507 H
   0.9198499999999999   -0.0991200000000000    0.8505750000000001 O
   0.8083333333333333   -0.1807800000000000    0.8538150000000000 O
   0.0801400000000000    1.0991000000000000    0.6494150000000000 O
   0.1916533333333333    1.1807600000000000    0.6461749999999999 O
