Zn12 H212 C296 N24 O48
1.0
  18.7619531808386810    0.0000000000000000   -0.0419146754401632
  -3.1016186779435784   15.0335346461682668   -3.9289722089994372
   0.0000000000000000    0.0000000000000000   33.2879999999999967
Zn H C N O
12 212 296 24 48
direct
   0.8702399999999999    0.0001500000000000    0.8751599999999999 Zn
   0.4630799999999999    0.9998600000000000    0.1248300000000000 Zn
   0.2035733333333333    0.0001500000000000    0.3751600000000000 Zn
   0.7964133333333333    0.9998600000000000    0.6248300000000000 Zn
   0.5369066666666666    0.0001500000000000    0.8751599999999999 Zn
   0.4630799999999999    0.9998600000000000    0.6248300000000000 Zn
   0.2035733333333333    0.0001500000000000    0.8751599999999999 Zn
   0.1297466666666666    0.9998600000000000    0.1248300000000000 Zn
   0.8702399999999999    0.0001500000000000    0.3751600000000000 Zn
   0.1297466666666666    0.9998600000000000    0.6248300000000000 Zn
   0.7964133333333333    0.9998600000000000    0.1248300000000000 Zn
   0.5369066666666666    0.0001500000000000    0.3751600000000000 Zn
   0.3705766666666667    0.1081200000000000    0.0643150000000000 H
   0.2232233333333333    0.8915100000000000    0.9796050000000001 H
   0.1361966666666667    0.8983200000000000    0.0350200000000000 H
   0.2757666666666667    0.1077500000000000    0.1150600000000000 H
   0.2960766666666667    0.8918700000000001    0.9356700000000000 H
   0.4434300000000000    0.1084700000000000    0.0203850000000000 H
   0.5304533333333333    0.1016700000000000    0.9649650000000001 H
   0.3908833333333333    0.8922500000000000    0.8849300000000000 H
   0.7039099999999999    0.1081200000000000    0.0643150000000000 H
   0.5565566666666666    0.8915100000000000    0.9796050000000001 H
   0.4695300000000000    0.8983200000000000    0.0350200000000000 H
   0.6091000000000000    0.1077500000000000    0.1150600000000000 H
   0.6294100000000000    0.8918700000000001    0.9356700000000000 H
   0.7767633333333333    0.1084700000000000    0.0203850000000000 H
   0.8637866666666666    0.1016700000000000    0.9649650000000001 H
   0.7242166666666666    0.8922500000000000    0.8849300000000000 H
   0.0372433333333333    0.1081200000000000    0.0643150000000000 H
   0.8898900000000000    0.8915100000000000    0.9796050000000001 H
   0.8028633333333333    0.8983200000000000    0.0350200000000000 H
   0.9424333333333332    0.1077500000000000    0.1150600000000000 H
   0.9627433333333333    0.8918700000000001    0.9356700000000000 H
   0.1100966666666666    0.1084700000000000    0.0203850000000000 H
   0.1971200000000000    0.1016700000000000    0.9649650000000001 H
   0.0575500000000000    0.8922500000000000    0.8849300000000000 H
   0.3705766666666667    0.1081200000000000    0.5643150000000000 H
   0.2232233333333333    0.8915100000000000    0.4796050000000000 H
   0.1361966666666667    0.8983200000000000    0.5350200000000001 H
   0.2757666666666667    0.1077500000000000    0.6150599999999999 H
   0.2960766666666667    0.8918700000000001    0.4356700000000000 H
   0.4434300000000000    0.1084700000000000    0.5203850000000000 H
   0.5304533333333333    0.1016700000000000    0.4649650000000000 H
   0.3908833333333333    0.8922500000000000    0.3849300000000000 H
   0.0372433333333333    0.1081200000000000    0.5643150000000000 H
   0.8898900000000000    0.8915100000000000    0.4796050000000000 H
   0.8028633333333333    0.8983200000000000    0.5350200000000001 H
   0.9424333333333332    0.1077500000000000    0.6150599999999999 H
   0.9627433333333333    0.8918700000000001    0.4356700000000000 H
   0.1100966666666666    0.1084700000000000    0.5203850000000000 H
   0.1971200000000000    0.1016700000000000    0.4649650000000000 H
   0.0575500000000000    0.8922500000000000    0.3849300000000000 H
   0.7039099999999999    0.1081200000000000    0.5643150000000000 H
   0.5565566666666666    0.8915100000000000    0.4796050000000000 H
   0.4695300000000000    0.8983200000000000    0.5350200000000001 H
   0.6091000000000000    0.1077500000000000    0.6150599999999999 H
   0.6294100000000000    0.8918700000000001    0.4356700000000000 H
   0.7767633333333333    0.1084700000000000    0.5203850000000000 H
   0.8637866666666666    0.1016700000000000    0.4649650000000000 H
   0.7242166666666666    0.8922500000000000    0.3849300000000000 H
   0.6651466666666666    0.1083900000000000    0.8141800000000000 H
   0.7410300000000000    0.8917000000000000    0.7298900000000000 H
   0.8304966666666667    0.8989400000000000    0.7855449999999999 H
   0.7599399999999999    0.1083200000000000    0.8652000000000000 H
   0.6681900000000000    0.8916300000000000    0.6858050000000000 H
   0.5922633333333334    0.1082700000000000    0.7701050000000000 H
   0.5028033333333333    0.1010300000000000    0.7144450000000000 H
   0.5733999999999999    0.8916900000000000    0.6347800000000000 H
   0.3318133333333333    0.1083900000000000    0.8141800000000000 H
   0.4076966666666667    0.8917000000000000    0.7298900000000000 H
   0.4971633333333333    0.8989400000000000    0.7855449999999999 H
   0.4266066666666666    0.1083200000000000    0.8652000000000000 H
   0.3348566666666666    0.8916300000000000    0.6858050000000000 H
   0.2589300000000000    0.1082700000000000    0.7701050000000000 H
   0.1694700000000000    0.1010300000000000    0.7144450000000000 H
   0.2400666666666667    0.8916900000000000    0.6347800000000000 H
   0.9984799999999999    0.1083900000000000    0.8141800000000000 H
   0.0743633333333333    0.8917000000000000    0.7298900000000000 H
   0.1638300000000000    0.8989400000000000    0.7855449999999999 H
   0.0932733333333333    0.1083200000000000    0.8652000000000000 H
   0.0015233333333333    0.8916300000000000    0.6858050000000000 H
   0.9255966666666666    0.1082700000000000    0.7701050000000000 H
   0.8361366666666666    0.1010300000000000    0.7144450000000000 H
   0.9067333333333333    0.8916900000000000    0.6347800000000000 H
   0.6651466666666666    0.1083900000000000    0.3141800000000000 H
   0.7410300000000000    0.8917000000000000    0.2298900000000000 H
   0.8304966666666667    0.8989400000000000    0.2855450000000000 H
   0.7599399999999999    0.1083200000000000    0.3652000000000000 H
   0.6681900000000000    0.8916300000000000    0.1858050000000000 H
   0.5922633333333334    0.1082700000000000    0.2701050000000000 H
   0.5028033333333333    0.1010300000000000    0.2144450000000000 H
   0.5733999999999999    0.8916900000000000    0.1347800000000000 H
   0.9984799999999999    0.1083900000000000    0.3141800000000000 H
   0.0743633333333333    0.8917000000000000    0.2298900000000000 H
   0.1638300000000000    0.8989400000000000    0.2855450000000000 H
   0.0932733333333333    0.1083200000000000    0.3652000000000000 H
   0.0015233333333333    0.8916300000000000    0.1858050000000000 H
   0.9255966666666666    0.1082700000000000    0.2701050000000000 H
   0.8361366666666666    0.1010300000000000    0.2144450000000000 H
   0.9067333333333333    0.8916900000000000    0.1347800000000000 H
   0.3318133333333333    0.1083900000000000    0.3141800000000000 H
   0.4076966666666667    0.8917000000000000    0.2298900000000000 H
   0.4971633333333333    0.8989400000000000    0.2855450000000000 H
   0.4266066666666666    0.1083200000000000    0.3652000000000000 H
   0.3348566666666666    0.8916300000000000    0.1858050000000000 H
   0.2589300000000000    0.1082700000000000    0.2701050000000000 H
   0.1694700000000000    0.1010300000000000    0.2144450000000000 H
   0.2400666666666667    0.8916900000000000    0.1347800000000000 H
   0.2643166666666666    0.8129300000000000    0.0618500000000000 H
   0.1772933333333333    0.6778700000000000    0.0257550000000000 H
   0.4182100000000000    0.6559900000000000    0.0800650000000000 H
   0.3305166666666667    0.5179800000000000    0.0441450000000000 H
   0.1133833333333333    0.5558200000000000    0.9903900000000000 H
   0.2199433333333333    0.4441700000000000    0.0095950000000000 H
   0.0690033333333333    0.1870600000000000    0.9381349999999999 H
   0.1560300000000000    0.3221200000000000    0.9742350000000000 H
   0.9151133333333332    0.3440000000000000    0.9199250000000000 H
   0.0028066666666667    0.4820100000000000    0.9558450000000001 H
   0.9707081305613814   -0.0913582445238177    0.8440657685780358 H
   0.7687025291131719   -0.2316251553930612    0.8512414032835386 H
   0.8626637118817450   -0.1724883245379570    0.8468613624338746 H
   0.5976500000000000    0.8129300000000000    0.5618500000000000 H
   0.5106266666666667    0.6778700000000000    0.5257550000000000 H
   0.7515433333333333    0.6559900000000000    0.5800650000000001 H
   0.6638500000000001    0.5179800000000000    0.5441450000000000 H
   0.4467166666666667    0.5558200000000000    0.4903900000000000 H
   0.5532766666666666    0.4441700000000000    0.5095950000000000 H
   0.4023366666666667    0.1870600000000000    0.4381350000000000 H
   0.4893633333333333    0.3221200000000000    0.4742350000000000 H
   0.2484466666666666    0.3440000000000000    0.4199250000000000 H
   0.3361400000000000    0.4820100000000000    0.4558450000000000 H
   0.3269666666666666    0.1870100000000000    0.1880350000000000 H
   0.2850066666666666    0.3221900000000000    0.2243450000000000 H
   0.5324000000000000    0.3437200000000000    0.1696150000000000 H
   0.4908533333333333    0.4818200000000000    0.2058450000000000 H
   0.2615433333333333    0.4442700000000000    0.2594500000000000 H
   0.4051100000000000    0.5557200000000000    0.2405450000000000 H
   0.3396866666666666    0.8129800000000000    0.3119550000000000 H
   0.3816433333333333    0.6778000000000000    0.2756450000000000 H
   0.1342533333333333    0.6562700000000000    0.3303750000000000 H
   0.1758033333333333    0.5181700000000000    0.2941500000000000 H
   0.9309833333333333    0.8129300000000000    0.0618500000000000 H
   0.8439599999999999    0.6778700000000000    0.0257550000000000 H
   0.0848766666666667    0.6559900000000000    0.0800650000000000 H
   0.9971833333333333    0.5179800000000000    0.0441450000000000 H
   0.7800499999999999    0.5558200000000000    0.9903900000000000 H
   0.8866099999999999    0.4441700000000000    0.0095950000000000 H
   0.7356699999999999    0.1870600000000000    0.9381349999999999 H
   0.8226966666666666    0.3221200000000000    0.9742350000000000 H
   0.5817800000000000    0.3440000000000000    0.9199250000000000 H
   0.6694733333333333    0.4820100000000000    0.9558450000000001 H
   0.6602999999999999    0.1870100000000000    0.6880350000000000 H
   0.6183399999999999    0.3221900000000000    0.7243450000000000 H
   0.8657333333333332    0.3437200000000000    0.6696150000000000 H
   0.8241866666666666    0.4818200000000000    0.7058450000000001 H
   0.5948766666666667    0.4442700000000000    0.7594500000000000 H
   0.7384433333333333    0.5557200000000000    0.7405450000000000 H
   0.6730200000000000    0.8129800000000000    0.8119550000000000 H
   0.7149766666666666    0.6778000000000000    0.7756449999999999 H
   0.4675866666666667    0.6562700000000000    0.8303750000000000 H
   0.5091366666666667    0.5181700000000000    0.7941500000000000 H
   0.5976500000000000    0.8129300000000000    0.0618500000000000 H
   0.5106266666666667    0.6778700000000000    0.0257550000000000 H
   0.7515433333333333    0.6559900000000000    0.0800650000000000 H
   0.6638500000000001    0.5179800000000000    0.0441450000000000 H
   0.4467166666666667    0.5558200000000000    0.9903900000000000 H
   0.5532766666666666    0.4441700000000000    0.0095950000000000 H
   0.4023366666666667    0.1870600000000000    0.9381349999999999 H
   0.4893633333333333    0.3221200000000000    0.9742350000000000 H
   0.2484466666666666    0.3440000000000000    0.9199250000000000 H
   0.3361400000000000    0.4820100000000000    0.9558450000000001 H
   0.3269666666666666    0.1870100000000000    0.6880350000000000 H
   0.2850066666666666    0.3221900000000000    0.7243450000000000 H
   0.5324000000000000    0.3437200000000000    0.6696150000000000 H
   0.4908533333333333    0.4818200000000000    0.7058450000000001 H
   0.2615433333333333    0.4442700000000000    0.7594500000000000 H
   0.4051100000000000    0.5557200000000000    0.7405450000000000 H
   0.3396866666666666    0.8129800000000000    0.8119550000000000 H
   0.3816433333333333    0.6778000000000000    0.7756449999999999 H
   0.1342533333333333    0.6562700000000000    0.8303750000000000 H
   0.1758033333333333    0.5181700000000000    0.7941500000000000 H
   0.2643166666666666    0.8129300000000000    0.5618500000000000 H
   0.1772933333333333    0.6778700000000000    0.5257550000000000 H
   0.4182100000000000    0.6559900000000000    0.5800650000000001 H
   0.3305166666666667    0.5179800000000000    0.5441450000000000 H
   0.1133833333333333    0.5558200000000000    0.4903900000000000 H
   0.2199433333333333    0.4441700000000000    0.5095950000000000 H
   0.0690033333333333    0.1870600000000000    0.4381350000000000 H
   0.1560300000000000    0.3221200000000000    0.4742350000000000 H
   0.9151133333333332    0.3440000000000000    0.4199250000000000 H
   0.0028066666666667    0.4820100000000000    0.4558450000000000 H
   0.9936333333333333    0.1870100000000000    0.1880350000000000 H
   0.9516733333333333    0.3221900000000000    0.2243450000000000 H
   0.1990666666666666    0.3437200000000000    0.1696150000000000 H
   0.1575200000000000    0.4818200000000000    0.2058450000000000 H
   0.9282100000000000    0.4442700000000000    0.2594500000000000 H
   0.0717766666666667    0.5557200000000000    0.2405450000000000 H
   0.0063533333333333    0.8129800000000000    0.3119550000000000 H
   0.0483100000000000    0.6778000000000000    0.2756450000000000 H
   0.8009200000000000    0.6562700000000000    0.3303750000000000 H
   0.8424699999999999    0.5181700000000000    0.2941500000000000 H
   0.0292847912718459    1.0913656486681531    0.6559298693111418 H
   0.2312762456438822    1.2316150895094371    0.6487521962635177 H
   0.1373266033483550    1.1724976798380620    0.6531345928284507 H
   0.9309833333333333    0.8129300000000000    0.5618500000000000 H
   0.8439599999999999    0.6778700000000000    0.5257550000000000 H
   0.0848766666666667    0.6559900000000000    0.5800650000000001 H
   0.9971833333333333    0.5179800000000000    0.5441450000000000 H
   0.7800499999999999    0.5558200000000000    0.4903900000000000 H
   0.8866099999999999    0.4441700000000000    0.5095950000000000 H
   0.7356699999999999    0.1870600000000000    0.4381350000000000 H
   0.8226966666666666    0.3221200000000000    0.4742350000000000 H
   0.5817800000000000    0.3440000000000000    0.4199250000000000 H
   0.6694733333333333    0.4820100000000000    0.4558450000000000 H
   0.6602999999999999    0.1870100000000000    0.1880350000000000 H
   0.6183399999999999    0.3221900000000000    0.2243450000000000 H
   0.8657333333333332    0.3437200000000000    0.1696150000000000 H
   0.8241866666666666    0.4818200000000000    0.2058450000000000 H
   0.5948766666666667    0.4442700000000000    0.2594500000000000 H
   0.7384433333333333    0.5557200000000000    0.2405450000000000 H
   0.6730200000000000    0.8129800000000000    0.3119550000000000 H
   0.7149766666666666    0.6778000000000000    0.2756450000000000 H
   0.4675866666666667    0.6562700000000000    0.3303750000000000 H
   0.5091366666666667    0.5181700000000000    0.2941500000000000 H
   0.3194633333333333    0.0605100000000000    0.0554450000000000 C
   0.2383933333333333    0.9408400000000000    0.0090300000000000 C
   0.1887266666666667    0.9441200000000000    0.0399000000000000 C
   0.2669800000000000    0.0605200000000000    0.0847650000000000 C
   0.3061166666666666    0.0003900000000000    0.0161400000000000 C
   0.3471866666666666    0.9394900000000000    0.9445399999999999 C
   0.4282566666666666    0.0591500000000000    0.9909550000000000 C
   0.4779266666666666    0.0558700000000000    0.9600949999999999 C
   0.3996766666666667    0.9394600000000000    0.9152250000000000 C
   0.3605333333333333    0.9996200000000000    0.9838500000000000 C
   0.6527966666666667    0.0605100000000000    0.0554450000000000 C
   0.5717266666666667    0.9408400000000000    0.0090300000000000 C
   0.5220600000000000    0.9441200000000000    0.0399000000000000 C
   0.6003133333333333    0.0605200000000000    0.0847650000000000 C
   0.6394500000000000    0.0003900000000000    0.0161400000000000 C
   0.6805200000000000    0.9394900000000000    0.9445399999999999 C
   0.7615900000000000    0.0591500000000000    0.9909550000000000 C
   0.8112600000000000    0.0558700000000000    0.9600949999999999 C
   0.7330099999999999    0.9394600000000000    0.9152250000000000 C
   0.6938666666666666    0.9996200000000000    0.9838500000000000 C
   0.9861300000000000    0.0605100000000000    0.0554450000000000 C
   0.9050600000000000    0.9408400000000000    0.0090300000000000 C
   0.8553933333333332    0.9441200000000000    0.0399000000000000 C
   0.9336466666666666    0.0605200000000000    0.0847650000000000 C
   0.9727833333333333    0.0003900000000000    0.0161400000000000 C
   0.0138533333333333    0.9394900000000000    0.9445399999999999 C
   0.0949233333333333    0.0591500000000000    0.9909550000000000 C
   0.1445933333333333    0.0558700000000000    0.9600949999999999 C
   0.0663433333333333    0.9394600000000000    0.9152250000000000 C
   0.0272000000000000    0.9996200000000000    0.9838500000000000 C
   0.3194633333333333    0.0605100000000000    0.5554450000000000 C
   0.2383933333333333    0.9408400000000000    0.5090300000000000 C
   0.1887266666666667    0.9441200000000000    0.5399000000000000 C
   0.2669800000000000    0.0605200000000000    0.5847650000000000 C
   0.3061166666666666    0.0003900000000000    0.5161400000000000 C
   0.3471866666666666    0.9394900000000000    0.4445400000000000 C
   0.4282566666666666    0.0591500000000000    0.4909550000000000 C
   0.4779266666666666    0.0558700000000000    0.4600950000000000 C
   0.3996766666666667    0.9394600000000000    0.4152250000000000 C
   0.3605333333333333    0.9996200000000000    0.4838500000000000 C
   0.9861300000000000    0.0605100000000000    0.5554450000000000 C
   0.9050600000000000    0.9408400000000000    0.5090300000000000 C
   0.8553933333333332    0.9441200000000000    0.5399000000000000 C
   0.9336466666666666    0.0605200000000000    0.5847650000000000 C
   0.9727833333333333    0.0003900000000000    0.5161400000000000 C
   0.0138533333333333    0.9394900000000000    0.4445400000000000 C
   0.0949233333333333    0.0591500000000000    0.4909550000000000 C
   0.1445933333333333    0.0558700000000000    0.4600950000000000 C
   0.0663433333333333    0.9394600000000000    0.4152250000000000 C
   0.0272000000000000    0.9996200000000000    0.4838500000000000 C
   0.6527966666666667    0.0605100000000000    0.5554450000000000 C
   0.5717266666666667    0.9408400000000000    0.5090300000000000 C
   0.5220600000000000    0.9441200000000000    0.5399000000000000 C
   0.6003133333333333    0.0605200000000000    0.5847650000000000 C
   0.6394500000000000    0.0003900000000000    0.5161400000000000 C
   0.6805200000000000    0.9394900000000000    0.4445400000000000 C
   0.7615900000000000    0.0591500000000000    0.4909550000000000 C
   0.8112600000000000    0.0558700000000000    0.4600950000000000 C
   0.7330099999999999    0.9394600000000000    0.4152250000000000 C
   0.6938666666666666    0.9996200000000000    0.4838500000000000 C
   0.7005633333333333    0.0608200000000000    0.8054600000000001 C
   0.7421666666666666    0.9410800000000000    0.7592650000000001 C
   0.7929733333333333    0.9445800000000000    0.7902600000000000 C
   0.7531099999999999    0.0610500000000000    0.8349200000000000 C
   0.6940433333333333    0.0005400000000000    0.7662050000000000 C
   0.6327666666666667    0.9391900000000000    0.6945250000000001 C
   0.5911400000000000    0.0588900000000000    0.7407300000000000 C
   0.5403333333333333    0.0554000000000000    0.7097350000000000 C
   0.5802133333333332    0.9389500000000000    0.6650700000000001 C
   0.6392666666666666    0.9994700000000000    0.7337850000000000 C
   0.3672300000000000    0.0608200000000000    0.8054600000000001 C
   0.4088333333333333    0.9410800000000000    0.7592650000000001 C
   0.4596399999999999    0.9445800000000000    0.7902600000000000 C
   0.4197766666666666    0.0610500000000000    0.8349200000000000 C
   0.3607100000000000    0.0005400000000000    0.7662050000000000 C
   0.2994333333333333    0.9391900000000000    0.6945250000000001 C
   0.2578066666666666    0.0588900000000000    0.7407300000000000 C
   0.2070000000000000    0.0554000000000000    0.7097350000000000 C
   0.2468800000000000    0.9389500000000000    0.6650700000000001 C
   0.3059333333333333    0.9994700000000000    0.7337850000000000 C
   0.0338966666666667    0.0608200000000000    0.8054600000000001 C
   0.0755000000000000    0.9410800000000000    0.7592650000000001 C
   0.1263066666666667    0.9445800000000000    0.7902600000000000 C
   0.0864433333333333    0.0610500000000000    0.8349200000000000 C
   0.0273766666666667    0.0005400000000000    0.7662050000000000 C
   0.9661000000000000    0.9391900000000000    0.6945250000000001 C
   0.9244733333333333    0.0588900000000000    0.7407300000000000 C
   0.8736666666666666    0.0554000000000000    0.7097350000000000 C
   0.9135466666666666    0.9389500000000000    0.6650700000000001 C
   0.9725999999999999    0.9994700000000000    0.7337850000000000 C
   0.7005633333333333    0.0608200000000000    0.3054600000000000 C
   0.7421666666666666    0.9410800000000000    0.2592650000000000 C
   0.7929733333333333    0.9445800000000000    0.2902600000000000 C
   0.7531099999999999    0.0610500000000000    0.3349200000000000 C
   0.6940433333333333    0.0005400000000000    0.2662050000000000 C
   0.6327666666666667    0.9391900000000000    0.1945250000000000 C
   0.5911400000000000    0.0588900000000000    0.2407300000000000 C
   0.5403333333333333    0.0554000000000000    0.2097350000000000 C
   0.5802133333333332    0.9389500000000000    0.1650700000000000 C
   0.6392666666666666    0.9994700000000000    0.2337850000000000 C
   0.0338966666666667    0.0608200000000000    0.3054600000000000 C
   0.0755000000000000    0.9410800000000000    0.2592650000000000 C
   0.1263066666666667    0.9445800000000000    0.2902600000000000 C
   0.0864433333333333    0.0610500000000000    0.3349200000000000 C
   0.0273766666666667    0.0005400000000000    0.2662050000000000 C
   0.9661000000000000    0.9391900000000000    0.1945250000000000 C
   0.9244733333333333    0.0588900000000000    0.2407300000000000 C
   0.8736666666666666    0.0554000000000000    0.2097350000000000 C
   0.9135466666666666    0.9389500000000000    0.1650700000000000 C
   0.9725999999999999    0.9994700000000000    0.2337850000000000 C
   0.3672300000000000    0.0608200000000000    0.3054600000000000 C
   0.4088333333333333    0.9410800000000000    0.2592650000000000 C
   0.4596399999999999    0.9445800000000000    0.2902600000000000 C
   0.4197766666666666    0.0610500000000000    0.3349200000000000 C
   0.3607100000000000    0.0005400000000000    0.2662050000000000 C
   0.2994333333333333    0.9391900000000000    0.1945250000000000 C
   0.2578066666666666    0.0588900000000000    0.2407300000000000 C
   0.2070000000000000    0.0554000000000000    0.2097350000000000 C
   0.2468800000000000    0.9389500000000000    0.1650700000000000 C
   0.3059333333333333    0.9994700000000000    0.2337850000000000 C
   0.9311999999999999    0.1749400000000000    0.9065300000000001 C
   0.4021200000000000    0.8250500000000000    0.0934650000000000 C
   0.2789866666666667    0.7482400000000000    0.0573750000000000 C
   0.2301733333333333    0.6716900000000000    0.0369300000000000 C
   0.3652600000000000    0.6594900000000000    0.0678200000000000 C
   0.3161166666666667    0.5828300000000000    0.0477250000000000 C
   0.3475000000000000    0.7433999999999999    0.0727200000000000 C
   0.2477233333333333    0.5869500000000000    0.0313300000000000 C
   0.1339533333333333    0.4957600000000000    0.9902350000000000 C
   0.1993700000000000    0.5042300000000000    0.0097500000000000 C
   0.0543400000000000    0.2517500000000000    0.9426050000000000 C
   0.1031500000000000    0.3283000000000000    0.9630550000000000 C
   0.9680666666666666    0.3405000000000000    0.9321699999999999 C
   0.0172033333333333    0.4171600000000000    0.9522649999999999 C
   0.9858266666666666    0.2566000000000000    0.9272700000000000 C
   0.0856033333333333    0.4130400000000000    0.9686550000000000 C
   0.2645333333333333    0.1749400000000000    0.4065300000000000 C
   0.7354533333333333    0.8250500000000000    0.5934650000000000 C
   0.6123200000000000    0.7482400000000000    0.5573750000000000 C
   0.5635066666666666    0.6716900000000000    0.5369300000000000 C
   0.6985933333333333    0.6594900000000000    0.5678200000000000 C
   0.6494500000000000    0.5828300000000000    0.5477250000000000 C
   0.6808333333333333    0.7433999999999999    0.5727200000000000 C
   0.5810566666666667    0.5869500000000000    0.5313300000000000 C
   0.4672866666666666    0.4957600000000000    0.4902350000000000 C
   0.5327033333333333    0.5042300000000000    0.5097500000000000 C
   0.3876733333333333    0.2517500000000000    0.4426050000000000 C
   0.4364833333333333    0.3283000000000000    0.4630550000000000 C
   0.3014000000000000    0.3405000000000000    0.4321700000000000 C
   0.3505366666666667    0.4171600000000000    0.4522650000000000 C
   0.3191600000000000    0.2566000000000000    0.4272700000000000 C
   0.4189366666666666    0.4130400000000000    0.4686550000000000 C
   0.4602066666666667    0.1748400000000000    0.1559850000000000 C
   0.2064466666666667    0.8251500000000001    0.3440000000000000 C
   0.3630333333333333    0.2516800000000000    0.1925150000000000 C
   0.3397666666666667    0.3282600000000000    0.2130650000000000 C
   0.4784800000000000    0.3403200000000000    0.1819750000000000 C
   0.4549566666666667    0.4170000000000000    0.2022150000000000 C
   0.4328933333333333    0.2564800000000000    0.1770050000000000 C
   0.3853900000000000    0.4129500000000000    0.2186800000000000 C
   0.3020666666666666    0.5042800000000000    0.2597150000000000 C
   0.3645900000000000    0.4957100000000000    0.2402850000000000 C
   0.3036200000000000    0.7483100000000000    0.3074750000000000 C
   0.3268866666666667    0.6717300000000000    0.2869300000000000 C
   0.1881733333333333    0.6596600000000000    0.3180200000000000 C
   0.2116966666666667    0.5829800000000001    0.2977750000000000 C
   0.2337600000000000    0.7435100000000000    0.3229900000000000 C
   0.2812633333333333    0.5870400000000000    0.2813150000000000 C
   0.5978666666666665    0.1749400000000000    0.9065300000000001 C
   0.0687866666666667    0.8250500000000000    0.0934650000000000 C
   0.9456533333333332    0.7482400000000000    0.0573750000000000 C
   0.8968400000000000    0.6716900000000000    0.0369300000000000 C
   0.0319266666666667    0.6594900000000000    0.0678200000000000 C
   0.9827833333333333    0.5828300000000000    0.0477250000000000 C
   0.0141666666666667    0.7433999999999999    0.0727200000000000 C
   0.9143899999999999    0.5869500000000000    0.0313300000000000 C
   0.8006199999999999    0.4957600000000000    0.9902350000000000 C
   0.8660366666666666    0.5042300000000000    0.0097500000000000 C
   0.7210066666666666    0.2517500000000000    0.9426050000000000 C
   0.7698166666666666    0.3283000000000000    0.9630550000000000 C
   0.6347333333333334    0.3405000000000000    0.9321699999999999 C
   0.6838700000000000    0.4171600000000000    0.9522649999999999 C
   0.6524933333333334    0.2566000000000000    0.9272700000000000 C
   0.7522700000000000    0.4130400000000000    0.9686550000000000 C
   0.7935399999999999    0.1748400000000000    0.6559850000000000 C
   0.5397799999999999    0.8251500000000001    0.8440000000000000 C
   0.6963666666666666    0.2516800000000000    0.6925150000000000 C
   0.6730999999999999    0.3282600000000000    0.7130650000000001 C
   0.8118133333333333    0.3403200000000000    0.6819750000000000 C
   0.7882899999999999    0.4170000000000000    0.7022150000000000 C
   0.7662266666666666    0.2564800000000000    0.6770050000000000 C
   0.7187233333333333    0.4129500000000000    0.7186800000000000 C
   0.6354000000000000    0.5042800000000000    0.7597149999999999 C
   0.6979233333333333    0.4957100000000000    0.7402850000000000 C
   0.6369533333333333    0.7483100000000000    0.8074749999999999 C
   0.6602200000000000    0.6717300000000000    0.7869300000000000 C
   0.5215066666666667    0.6596600000000000    0.8180200000000000 C
   0.5450300000000000    0.5829800000000001    0.7977750000000000 C
   0.5670933333333333    0.7435100000000000    0.8229900000000000 C
   0.6145966666666667    0.5870400000000000    0.7813150000000000 C
   0.2645333333333333    0.1749400000000000    0.9065300000000001 C
   0.7354533333333333    0.8250500000000000    0.0934650000000000 C
   0.6123200000000000    0.7482400000000000    0.0573750000000000 C
   0.5635066666666666    0.6716900000000000    0.0369300000000000 C
   0.6985933333333333    0.6594900000000000    0.0678200000000000 C
   0.6494500000000000    0.5828300000000000    0.0477250000000000 C
   0.6808333333333333    0.7433999999999999    0.0727200000000000 C
   0.5810566666666667    0.5869500000000000    0.0313300000000000 C
   0.4672866666666666    0.4957600000000000    0.9902350000000000 C
   0.5327033333333333    0.5042300000000000    0.0097500000000000 C
   0.3876733333333333    0.2517500000000000    0.9426050000000000 C
   0.4364833333333333    0.3283000000000000    0.9630550000000000 C
   0.3014000000000000    0.3405000000000000    0.9321699999999999 C