H12 O8
1.0
  26.5954512818283320    0.0000000000000000   -4.2061201975093025
   6.0639115044091589   39.1822167514089870   -1.3603130934822207
   0.0000000000000000    0.0000000000000000   26.4759999999999991
H O
12 8
direct
   0.3324900697324712    0.8480159072629457    0.3230568139036555 H
   0.2397575847314656    0.7961121315142090    0.2339393494486340 H
   0.2847890395002199    0.8249031216921241    0.2729125401890239 H
   0.4484431516804076    0.8227338704053019    0.9042137956994100 H
   0.3756971497287439    0.8003259379777941    0.8839398432135593 H
   0.2697912030138285    0.8006521581233912    0.8778196940168230 H
   0.1188904237228032    0.0971287042424894    0.8637995918710063 H
   0.0323769997735026    0.0737080515293755    0.9578445127787288 H
   0.0791913701323658    0.0827429329808884    0.9155513907511610 H
   0.5734421474235545    0.0520572378775154    0.2824634714651713 H
   0.5083701159221178    0.0905013025268177    0.3165255234982323 H
   0.8936916141923225    0.0868010981135519    0.3146538858918234 H
   0.3149850000000000    0.8282866666666666    0.3181500000000000 O
   0.2613950000000000    0.7985366666666667    0.2663550000000000 O
   0.4845700000000000    0.8236133333333333    0.9070050000000001 O
   0.4108750000000000    0.8040866666666666    0.8887200000000000 O
   0.0852350000000000    0.0993966666666667    0.8734999999999999 O
   0.0366950000000000    0.0856066666666667    0.9278000000000000 O
   0.5373950000000000    0.0520800000000000    0.2823500000000000 O
   0.4731250000000000    0.0870666666666667    0.3133300000000000 O
