H24 C33 O12
1.0
  26.5954512818283320    0.0000000000000000   -4.2061201975093025
   6.0639115044091589   39.1822167514089870   -1.3603130934822207
   0.0000000000000000    0.0000000000000000   26.4759999999999991
H C O
24 33 12
direct
   0.2467600000000000    0.0000000000000000    0.1055200000000000 H
   0.3506950000000000    0.0000000000000000    0.0660550000000000 H
   0.1603100000000000    0.0180366666666667    0.0553750000000000 H
   0.0842950000000000    0.0499333333333333    0.0000000000000000 H
   0.3229600000000000    0.0499033333333333    0.2183250000000000 H
   0.3878250000000000    0.0727166666666667    0.2822950000000000 H
   0.5000000000000000    0.0197300000000000    0.2053800000000000 H
   0.2250000000000000    0.9743666666666666    0.0652500000000000 H
   0.3144500000000000    0.9613566666666666    0.0058750000000000 H
   0.2877250000000000    0.9287366666666665    0.0328500000000000 H
   0.2994850000000000    0.9645133333333333    0.1657950000000000 H
   0.3482000000000000    0.9339233333333332    0.1443750000000000 H
   0.3862900000000000    0.9739800000000000    0.1070500000000000 H
   0.4521200000000000    0.8879500000000000    0.0648950000000000 H
   0.4861800000000000    0.8440500000000000    0.0035650000000000 H
   0.2252750000000000    0.8721433333333333    0.1146050000000000 H
   0.3313550000000000    0.9218999999999999    0.2193900000000000 H
   0.2284800000000000    0.8277833333333333    0.1807150000000000 H
   0.3344750000000000    0.8776400000000000    0.2832600000000000 H
   0.4429300000000000    0.9982266666666666    0.1398650000000000 H
   0.2534700000000000    0.0417000000000000    0.9461600000000000 H
   0.1780400000000000    0.0744000000000000    0.8952000000000000 H
   0.3129350000000000    0.9103766666666666    0.9583900000000001 H
   0.3449850000000000    0.8655933333333332    0.9002450000000000 H
   0.2117700000000000    0.0275366666666667    0.0035800000000000 C
   0.1641600000000000    0.0297233333333333    0.0198500000000000 C
   0.3785400000000000    0.0226833333333333    0.1752050000000000 C
   0.4303800000000000    0.0140500000000000    0.1712400000000000 C
   0.3633800000000000    0.0435900000000000    0.2155000000000000 C
   0.4665000000000000    0.0263200000000000    0.2079050000000000 C
   0.3996200000000000    0.0561700000000000    0.2513050000000000 C
   0.4517550000000000    0.0477433333333333    0.2478750000000000 C
   0.4900250000000000    0.0632633333333333    0.2839650000000000 C
   0.3072150000000000    0.9687600000000000    0.0862200000000000 C
   0.2547750000000000    0.9908166666666667    0.0732350000000000 C
   0.3168100000000000    0.9457233333333332    0.0399450000000000 C
   0.3091650000000000    0.9474799999999999    0.1339450000000000 C
   0.3497600000000000    0.9909566666666666    0.0986850000000000 C
   0.3807900000000000    0.9017933333333332    0.0157000000000000 C
   0.4296050000000000    0.8829033333333333    0.0283400000000000 C
   0.2779650000000000    0.8997299999999999    0.1624900000000000 C
   0.2486550000000000    0.8732566666666666    0.1519800000000000 C
   0.3086150000000000    0.9015500000000000    0.2101550000000000 C
   0.2506650000000000    0.8486133333333332    0.1886550000000000 C
   0.3103250000000000    0.8766766666666665    0.2463950000000000 C
   0.2817600000000000    0.8499333333333332    0.2363350000000000 C
   0.2858900000000000    0.8235600000000000    0.2761150000000000 C
   0.2164350000000000    0.0436466666666667    0.9585600000000001 C
   0.1215750000000000    0.0477466666666667    0.9903050000000000 C
   0.1738400000000000    0.0616933333333333    0.9297150000000001 C
   0.1256700000000000    0.0638300000000000    0.9450100000000000 C
   0.0798800000000000    0.0830700000000000    0.9150700000000001 C
   0.3504650000000000    0.8956366666666666    0.9693100000000000 C
   0.3687900000000000    0.8700966666666666    0.9363500000000000 C
   0.4480800000000000    0.8584866666666666    0.9944400000000000 C
   0.4175900000000000    0.8514400000000000    0.9483050000000000 C
   0.4382550000000000    0.8250233333333332    0.9128350000000001 C
   0.2561250000000000    0.0102466666666667    0.0288250000000000 O
   0.3394650000000000    0.0119933333333333    0.1421850000000000 O
   0.4731250000000000    0.0870666666666667    0.3133300000000000 O
   0.5373950000000000    0.0520800000000000    0.2823500000000000 O
   0.3664700000000000    0.9258466666666666    0.0511000000000000 O
   0.2746950000000000    0.9229533333333333    0.1242300000000000 O
   0.2613950000000000    0.7985366666666667    0.2663550000000000 O
   0.3149850000000000    0.8282866666666666    0.3181500000000000 O
   0.0366950000000000    0.0856066666666667    0.9278000000000000 O
   0.0852350000000000    0.0993966666666667    0.8734999999999999 O
   0.4108750000000000    0.8040866666666666    0.8887200000000000 O
   0.4845700000000000    0.8236133333333333    0.9070050000000001 O
