H23 C33 O12
1.0
  26.5954512818283320    0.0000000000000000   -4.2061201975093025
   6.0639115044091589   39.1822167514089870   -1.3603130934822207
   0.0000000000000000    0.0000000000000000   26.4759999999999991
H C O
23 33 12
direct
   0.0644450000000000    0.6627900000000000    0.0579700000000000 H
   0.0376900000000000    0.6447766666666666    0.1068300000000000 H
   0.0494800000000000    0.5560633333333334    0.0532750000000000 H
   0.0981850000000000    0.5703700000000000    0.0991050000000000 H
   0.1362950000000000    0.5952233333333332    0.0390500000000000 H
   0.2020900000000000    0.6233433333333334    0.1678900000000000 H
   0.2361550000000000    0.6642133333333333    0.2337700000000000 H
   0.0813150000000000    0.5203466666666666    0.1171900000000000 H
   0.1929150000000000    0.5734466666666667    0.0000000000000000 H
   0.9750150000000000    0.6231566666666666    0.0384650000000000 H
   0.9752149999999999    0.5903633333333334    0.1916400000000000 H
   0.9784200000000001    0.5463033333333334    0.2580000000000000 H
   0.0628650000000000    0.6944366666666666    0.1344950000000000 H
   0.0949200000000000    0.7331799999999999    0.2016850000000000 H
   0.1007450000000000    0.6226499999999999    0.9893400000000000 H
   0.0729550000000000    0.5210633333333333    0.9251900000000000 H
   0.2568400000000000    0.5297600000000000    0.9702450000000000 H
   0.1378200000000000    0.4784100000000000    0.8909100000000000 H
   0.9967600000000000    0.5962566666666667    0.9881800000000001 H
   0.9104200000000000    0.6296533333333333    0.9730950000000000 H
   0.8343800000000000    0.6649533333333333    0.9251350000000000 H
   0.0000000000000000    0.7025433333333333    0.9373850000000000 H
   0.9280150000000000    0.7364700000000000    0.8882900000000000 H
   0.0572200000000000    0.6091633333333333    0.0468700000000000 C
   0.0048000000000000    0.6178166666666667    0.0138200000000000 C
   0.0667900000000000    0.6400466666666667    0.0813850000000000 C
   0.0591600000000000    0.5773300000000000    0.0787500000000000 C
   0.0997750000000000    0.6008499999999999    0.0136150000000000 C
   0.1307500000000000    0.6561833333333333    0.1472600000000000 C
   0.1795750000000000    0.6477266666666666    0.1755250000000000 C
   0.0279250000000000    0.5583533333333333    0.1503550000000000 C
   0.0585750000000000    0.5265400000000000    0.1476800000000000 C
   0.0000000000000000    0.5409700000000000    0.2269900000000000 C
   0.0602850000000000    0.5023900000000000    0.1500000000000000 C
   0.0317100000000000    0.5091466666666666    0.2250600000000000 C
   0.0358400000000000    0.4826199999999999    0.2646100000000000 C
   0.9985999999999999    0.5654133333333333    0.1900150000000000 C
   0.1004050000000000    0.6871366666666666    0.1565600000000000 C
   0.1187300000000000    0.7090966666666666    0.1948750000000000 C
   0.1980450000000000    0.6703266666666666    0.2121550000000000 C
   0.1675400000000000    0.7010966666666666    0.2227950000000000 C
   0.1882250000000000    0.7247300000000000    0.2624200000000000 C
   0.1285350000000000    0.5498433333333334    0.9659550000000000 C
   0.1803650000000000    0.5525099999999999    0.9788000000000000 C
   0.1133750000000000    0.5227966666666666    0.9346000000000000 C
   0.2164850000000000    0.5280600000000000    0.9603999999999999 C
   0.1496150000000000    0.4990900000000000    0.9157050000000000 C
   0.2017450000000000    0.5013900000000000    0.9283000000000000 C
   0.2400250000000000    0.4773166666666666    0.9050000000000000 C
   0.9618249999999999    0.6642266666666666    0.9587250000000000 C
   0.9142399999999999    0.6533266666666666    0.9554950000000000 C
   0.9664500000000000    0.6942533333333333    0.9345000000000000 C
   0.8716450000000000    0.6730066666666666    0.9284049999999999 C
   0.9238500000000001    0.7134566666666666    0.9074000000000000 C
   0.8757150000000000    0.7032100000000000    0.9042200000000000 C
   0.8298900000000000    0.7230700000000000    0.8752900000000000 C
   0.1164400000000000    0.6325866666666666    0.1111800000000000 O
   0.0246700000000000    0.5838533333333333    0.1155100000000000 O
   0.0113300000000000    0.4891433333333333    0.3021050000000000 O
   0.0649550000000000    0.4545633333333333    0.2575500000000000 O
   0.1608600000000000    0.7408300000000000    0.2938050000000000 O
   0.2345550000000000    0.7285800000000000    0.2645550000000000 O
   0.0061850000000000    0.6474199999999999    0.9846699999999999 O
   0.0894650000000000    0.5718566666666667    0.9820450000000001 O
   0.2873800000000000    0.4783900000000000    0.9218000000000000 O
   0.2231500000000000    0.4577233333333333    0.8693400000000000 O
   0.7868350000000000    0.7143699999999999    0.8713250000000000 O
   0.8350949999999999    0.7508999999999999    0.8509000000000000 O
