Ca128 Fe64 H257 C127 N127 O129
1.0
  35.1696350956505341    0.0000000000000000   -3.4862201936748032
  -1.9747401800268656   35.1146386713949781   -3.4813095522747832
   0.0000000000000000    0.0000000000000000   27.4059999999999988
Ca Fe H C N O
128 64 257 127 127 129
direct
   0.8810825000000000    0.4621150000000000    0.3018150000000000 Ca
   0.6188975000000000    0.2878750000000000    0.1981900000000000 Ca
   0.1310825000000000    0.7121150000000001    0.3018150000000000 Ca
   0.8688975000000000    0.5378750000000000    0.1981900000000000 Ca
   0.6310825000000000    0.2121150000000000    0.3018150000000000 Ca
   0.3688975000000000    0.0378750000000000    0.1981900000000000 Ca
   0.3810825000000000    0.9621150000000001    0.3018150000000000 Ca
   0.1188975000000000    0.7878750000000000    0.1981900000000000 Ca
   0.1310825000000000    0.4621150000000000    0.3018150000000000 Ca
   0.8688975000000000    0.2878750000000000    0.1981900000000000 Ca
   0.3810825000000000    0.7121150000000001    0.3018150000000000 Ca
   0.1188975000000000    0.5378750000000000    0.1981900000000000 Ca
   0.8810825000000000    0.2121150000000000    0.3018150000000000 Ca
   0.6188975000000000    0.0378750000000000    0.1981900000000000 Ca
   0.6310825000000000    0.9621150000000001    0.3018150000000000 Ca
   0.3688975000000000    0.7878750000000000    0.1981900000000000 Ca
   0.3810825000000000    0.4621150000000000    0.3018150000000000 Ca
   0.1188975000000000    0.2878750000000000    0.1981900000000000 Ca
   0.6310825000000000    0.7121150000000001    0.3018150000000000 Ca
   0.3688975000000000    0.5378750000000000    0.1981900000000000 Ca
   0.8810825000000000    0.9621150000000001    0.3018150000000000 Ca
   0.6188975000000000    0.7878750000000000    0.1981900000000000 Ca
   0.1310825000000000    0.2121150000000000    0.3018150000000000 Ca
   0.8688975000000000    0.0378750000000000    0.1981900000000000 Ca
   0.6310825000000000    0.4621150000000000    0.3018150000000000 Ca
   0.3688975000000000    0.2878750000000000    0.1981900000000000 Ca
   0.8810825000000000    0.7121150000000001    0.3018150000000000 Ca
   0.6188975000000000    0.5378750000000000    0.1981900000000000 Ca
   0.3810825000000000    0.2121150000000000    0.3018150000000000 Ca
   0.1188975000000000    0.0378750000000000    0.1981900000000000 Ca
   0.1310825000000000    0.9621150000000001    0.3018150000000000 Ca
   0.8688975000000000    0.7878750000000000    0.1981900000000000 Ca
   0.2121225000000000    0.3810925000000000    0.0518200000000000 Ca
   0.0378600000000000    0.1188950000000000    0.9481850000000001 Ca
   0.9621225000000000    0.1310925000000000    0.0518200000000000 Ca
   0.7878600000000000    0.8688950000000000    0.9481850000000001 Ca
   0.4621225000000000    0.6310925000000001    0.0518200000000000 Ca
   0.2878600000000000    0.3688950000000000    0.9481850000000001 Ca
   0.7121225000000000    0.8810925000000001    0.0518200000000000 Ca
   0.5378600000000000    0.6188950000000000    0.9481850000000001 Ca
   0.7121225000000000    0.1310925000000000    0.0518200000000000 Ca
   0.5378600000000000    0.8688950000000000    0.9481850000000001 Ca
   0.4621225000000000    0.8810925000000001    0.0518200000000000 Ca
   0.2878600000000000    0.6188950000000000    0.9481850000000001 Ca
   0.9621225000000000    0.3810925000000000    0.0518200000000000 Ca
   0.7878600000000000    0.1188950000000000    0.9481850000000001 Ca
   0.2121225000000000    0.6310925000000001    0.0518200000000000 Ca
   0.0378600000000000    0.3688950000000000    0.9481850000000001 Ca
   0.2121225000000000    0.1310925000000000    0.0518200000000000 Ca
   0.0378600000000000    0.8688950000000000    0.9481850000000001 Ca
   0.9621225000000000    0.8810925000000001    0.0518200000000000 Ca
   0.7878600000000000    0.6188950000000000    0.9481850000000001 Ca
   0.4621225000000000    0.3810925000000000    0.0518200000000000 Ca
   0.2878600000000000    0.1188950000000000    0.9481850000000001 Ca
   0.7121225000000000    0.6310925000000001    0.0518200000000000 Ca
   0.5378600000000000    0.3688950000000000    0.9481850000000001 Ca
   0.7121225000000000    0.3810925000000000    0.0518200000000000 Ca
   0.5378600000000000    0.1188950000000000    0.9481850000000001 Ca
   0.4621225000000000    0.1310925000000000    0.0518200000000000 Ca
   0.2878600000000000    0.8688950000000000    0.9481850000000001 Ca
   0.9621225000000000    0.6310925000000001    0.0518200000000000 Ca
   0.7878600000000000    0.3688950000000000    0.9481850000000001 Ca
   0.2121225000000000    0.8810925000000001    0.0518200000000000 Ca
   0.0378600000000000    0.6188950000000000    0.9481850000000001 Ca
   0.6310825000000000    0.2121150000000000    0.8018149999999999 Ca
   0.3688975000000000    0.0378750000000000    0.6981900000000000 Ca
   0.8810825000000000    0.4621150000000000    0.8018149999999999 Ca
   0.6188975000000000    0.2878750000000000    0.6981900000000000 Ca
   0.3810825000000000    0.9621150000000001    0.8018149999999999 Ca
   0.1188975000000000    0.7878750000000000    0.6981900000000000 Ca
   0.1310825000000000    0.7121150000000001    0.8018149999999999 Ca
   0.8688975000000000    0.5378750000000000    0.6981900000000000 Ca
   0.3810825000000000    0.7121150000000001    0.8018149999999999 Ca
   0.1188975000000000    0.5378750000000000    0.6981900000000000 Ca
   0.1310825000000000    0.4621150000000000    0.8018149999999999 Ca
   0.8688975000000000    0.2878750000000000    0.6981900000000000 Ca
   0.6310825000000000    0.9621150000000001    0.8018149999999999 Ca
   0.3688975000000000    0.7878750000000000    0.6981900000000000 Ca
   0.8810825000000000    0.2121150000000000    0.8018149999999999 Ca
   0.6188975000000000    0.0378750000000000    0.6981900000000000 Ca
   0.1310825000000000    0.2121150000000000    0.8018149999999999 Ca
   0.8688975000000000    0.0378750000000000    0.6981900000000000 Ca
   0.3810825000000000    0.4621150000000000    0.8018149999999999 Ca
   0.1188975000000000    0.2878750000000000    0.6981900000000000 Ca
   0.8810825000000000    0.9621150000000001    0.8018149999999999 Ca
   0.6188975000000000    0.7878750000000000    0.6981900000000000 Ca
   0.6310825000000000    0.7121150000000001    0.8018149999999999 Ca
   0.3688975000000000    0.5378750000000000    0.6981900000000000 Ca
   0.8810825000000000    0.7121150000000001    0.8018149999999999 Ca
   0.6188975000000000    0.5378750000000000    0.6981900000000000 Ca
   0.6310825000000000    0.4621150000000000    0.8018149999999999 Ca
   0.3688975000000000    0.2878750000000000    0.6981900000000000 Ca
   0.1310825000000000    0.9621150000000001    0.8018149999999999 Ca
   0.8688975000000000    0.7878750000000000    0.6981900000000000 Ca
   0.3810825000000000    0.2121150000000000    0.8018149999999999 Ca
   0.1188975000000000    0.0378750000000000    0.6981900000000000 Ca
   0.2121225000000000    0.3810925000000000    0.5518200000000000 Ca
   0.0378600000000000    0.1188950000000000    0.4481850000000000 Ca
   0.4621225000000000    0.6310925000000001    0.5518200000000000 Ca
   0.2878600000000000    0.3688950000000000    0.4481850000000000 Ca
   0.9621225000000000    0.1310925000000000    0.5518200000000000 Ca
   0.7878600000000000    0.8688950000000000    0.4481850000000000 Ca
   0.7121225000000000    0.8810925000000001    0.5518200000000000 Ca
   0.5378600000000000    0.6188950000000000    0.4481850000000000 Ca
   0.9621225000000000    0.3810925000000000    0.5518200000000000 Ca
   0.7878600000000000    0.1188950000000000    0.4481850000000000 Ca
   0.2121225000000000    0.6310925000000001    0.5518200000000000 Ca
   0.0378600000000000    0.3688950000000000    0.4481850000000000 Ca
   0.7121225000000000    0.1310925000000000    0.5518200000000000 Ca
   0.5378600000000000    0.8688950000000000    0.4481850000000000 Ca
   0.4621225000000000    0.8810925000000001    0.5518200000000000 Ca
   0.2878600000000000    0.6188950000000000    0.4481850000000000 Ca
   0.4621225000000000    0.3810925000000000    0.5518200000000000 Ca
   0.2878600000000000    0.1188950000000000    0.4481850000000000 Ca
   0.2121225000000000    0.1310925000000000    0.5518200000000000 Ca
   0.0378600000000000    0.8688950000000000    0.4481850000000000 Ca
   0.7121225000000000    0.6310925000000001    0.5518200000000000 Ca
   0.5378600000000000    0.3688950000000000    0.4481850000000000 Ca
   0.9621225000000000    0.8810925000000001    0.5518200000000000 Ca
   0.7878600000000000    0.6188950000000000    0.4481850000000000 Ca
   0.7121225000000000    0.3810925000000000    0.5518200000000000 Ca
   0.5378600000000000    0.1188950000000000    0.4481850000000000 Ca
   0.9621225000000000    0.6310925000000001    0.5518200000000000 Ca
   0.7878600000000000    0.3688950000000000    0.4481850000000000 Ca
   0.4621225000000000    0.1310925000000000    0.5518200000000000 Ca
   0.2878600000000000    0.8688950000000000    0.4481850000000000 Ca
   0.2121225000000000    0.8810925000000001    0.5518200000000000 Ca
   0.0378600000000000    0.6188950000000000    0.4481850000000000 Ca
   0.7499925000000001    0.3749950000000000    0.2500050000000000 Fe
   0.9999925000000001    0.6249950000000000    0.2500050000000000 Fe
   0.4999925000000000    0.1249950000000000    0.2500050000000000 Fe
   0.2499925000000000    0.8749950000000000    0.2500050000000000 Fe
   0.9999925000000001    0.3749950000000000    0.2500050000000000 Fe
   0.2499925000000000    0.6249950000000000    0.2500050000000000 Fe
   0.7499925000000001    0.1249950000000000    0.2500050000000000 Fe
   0.4999925000000000    0.8749950000000000    0.2500050000000000 Fe
   0.2499925000000000    0.3749950000000000    0.2500050000000000 Fe
   0.4999925000000000    0.6249950000000000    0.2500050000000000 Fe
   0.7499925000000001    0.8749950000000000    0.2500050000000000 Fe
   0.9999925000000001    0.1249950000000000    0.2500050000000000 Fe
   0.4999925000000000    0.3749950000000000    0.2500050000000000 Fe
   0.7499925000000001    0.6249950000000000    0.2500050000000000 Fe
   0.2499925000000000    0.1249950000000000    0.2500050000000000 Fe
   0.9999925000000001    0.8749950000000000    0.2500050000000000 Fe
   0.1249875000000000    0.2499900000000000    0.0000000000000000 Fe
   0.8749875000000000    0.9999899999999999    0.0000000000000000 Fe
   0.3749875000000000    0.4999900000000000    0.0000000000000000 Fe
   0.6249875000000000    0.7499899999999999    0.0000000000000000 Fe
   0.6249875000000000    0.9999899999999999    0.0000000000000000 Fe
   0.3749875000000000    0.7499899999999999    0.0000000000000000 Fe
   0.8749875000000000    0.2499900000000000    0.0000000000000000 Fe
   0.1249875000000000    0.4999900000000000    0.0000000000000000 Fe
   0.1249875000000000    0.9999899999999999    0.0000000000000000 Fe
   0.8749875000000000    0.7499899999999999    0.0000000000000000 Fe
   0.3749875000000000    0.2499900000000000    0.0000000000000000 Fe
   0.6249875000000000    0.4999900000000000    0.0000000000000000 Fe
   0.6249875000000000    0.2499900000000000    0.0000000000000000 Fe
   0.3749875000000000    0.9999899999999999    0.0000000000000000 Fe
   0.8749875000000000    0.4999900000000000    0.0000000000000000 Fe
   0.1249875000000000    0.7499899999999999    0.0000000000000000 Fe
   0.4999925000000000    0.1249950000000000    0.7500050000000000 Fe
   0.7499925000000001    0.3749950000000000    0.7500050000000000 Fe
   0.2499925000000000    0.8749950000000000    0.7500050000000000 Fe
   0.9999925000000001    0.6249950000000000    0.7500050000000000 Fe
   0.2499925000000000    0.6249950000000000    0.7500050000000000 Fe
   0.9999925000000001    0.3749950000000000    0.7500050000000000 Fe
   0.4999925000000000    0.8749950000000000    0.7500050000000000 Fe
   0.7499925000000001    0.1249950000000000    0.7500050000000000 Fe
   0.9999925000000001    0.1249950000000000    0.7500050000000000 Fe
   0.2499925000000000    0.3749950000000000    0.7500050000000000 Fe
   0.7499925000000001    0.8749950000000000    0.7500050000000000 Fe
   0.4999925000000000    0.6249950000000000    0.7500050000000000 Fe
   0.7499925000000001    0.6249950000000000    0.7500050000000000 Fe
   0.4999925000000000    0.3749950000000000    0.7500050000000000 Fe
   0.9999925000000001    0.8749950000000000    0.7500050000000000 Fe
   0.2499925000000000    0.1249950000000000    0.7500050000000000 Fe
   0.1249875000000000    0.2499900000000000    0.5000000000000000 Fe
   0.3749875000000000    0.4999900000000000    0.5000000000000000 Fe
   0.8749875000000000    0.9999899999999999    0.5000000000000000 Fe
   0.6249875000000000    0.7499899999999999    0.5000000000000000 Fe
   0.8749875000000000    0.2499900000000000    0.5000000000000000 Fe
   0.1249875000000000    0.4999900000000000    0.5000000000000000 Fe
   0.6249875000000000    0.9999899999999999    0.5000000000000000 Fe
   0.3749875000000000    0.7499899999999999    0.5000000000000000 Fe
   0.3749875000000000    0.2499900000000000    0.5000000000000000 Fe
   0.1249875000000000    0.9999899999999999    0.5000000000000000 Fe
   0.6249875000000000    0.4999900000000000    0.5000000000000000 Fe
   0.8749875000000000    0.7499899999999999    0.5000000000000000 Fe
   0.6249875000000000    0.2499900000000000    0.5000000000000000 Fe
   0.8749875000000000    0.4999900000000000    0.5000000000000000 Fe
   0.3749875000000000    0.9999899999999999    0.5000000000000000 Fe
   0.1249875000000000    0.7499899999999999    0.5000000000000000 Fe
   0.8289175000000000    0.5260575000000000    0.2790350000000000 H
   0.8682974999999999    0.5459050000000000    0.3070350000000000 H
   0.6710675000000000    0.2239375000000000    0.2209700000000000 H
   0.6316875000000000    0.2040900000000000    0.1929700000000000 H
   0.0789175000000000    0.7760575000000000    0.2790350000000000 H
   0.1182975000000000    0.7959050000000000    0.3070350000000000 H
   0.9210675000000000    0.4739375000000000    0.2209700000000000 H
   0.8816875000000000    0.4540900000000000    0.1929700000000000 H
   0.5789175000000000    0.2760575000000000    0.2790350000000000 H
   0.6182974999999999    0.2959050000000000    0.3070350000000000 H
   0.4210675000000000    0.9739375000000000    0.2209700000000000 H
   0.3816875000000000    0.9540900000000000    0.1929700000000000 H
   0.3289175000000000    0.0260575000000000    0.2790350000000000 H
   0.3682975000000000    0.0459050000000000    0.3070350000000000 H
   0.1710675000000000    0.7239375000000000    0.2209700000000000 H
   0.1316875000000000    0.7040900000000000    0.1929700000000000 H
   0.0789175000000000    0.5260575000000000    0.2790350000000000 H
   0.1182975000000000    0.5459050000000000    0.3070350000000000 H
   0.9210675000000000    0.2239375000000000    0.2209700000000000 H
   0.8816875000000000    0.2040900000000000    0.1929700000000000 H
   0.3289175000000000    0.7760575000000000    0.2790350000000000 H
   0.3682975000000000    0.7959050000000000    0.3070350000000000 H
   0.1710675000000000    0.4739375000000000    0.2209700000000000 H
   0.1316875000000000    0.4540900000000000    0.1929700000000000 H
   0.8289175000000000    0.2760575000000000    0.2790350000000000 H
   0.8682974999999999    0.2959050000000000    0.3070350000000000 H
   0.6710675000000000    0.9739375000000000    0.2209700000000000 H
   0.6316875000000000    0.9540900000000000    0.1929700000000000 H
   0.5789175000000000    0.0260575000000000    0.2790350000000000 H
   0.6182974999999999    0.0459050000000000    0.3070350000000000 H
   0.4210675000000000    0.7239375000000000    0.2209700000000000 H
   0.3816875000000000    0.7040900000000000    0.1929700000000000 H
   0.3289175000000000    0.5260575000000000    0.2790350000000000 H
   0.3682975000000000    0.5459050000000000    0.3070350000000000 H
   0.1710675000000000    0.2239375000000000    0.2209700000000000 H
   0.1316875000000000    0.2040900000000000    0.1929700000000000 H
   0.5789175000000000    0.7760575000000000    0.2790350000000000 H
   0.6182974999999999    0.7959050000000000    0.3070350000000000 H
   0.4210675000000000    0.4739375000000000    0.2209700000000000 H
   0.3816875000000000    0.4540900000000000    0.1929700000000000 H
   0.8289175000000000    0.0260575000000000    0.2790350000000000 H
   0.8682974999999999    0.0459050000000000    0.3070350000000000 H
   0.7965712784701776    0.9151522694597392    0.2625702075172663 H
   0.6710675000000000    0.7239375000000000    0.2209700000000000 H
   0.6316875000000000    0.7040900000000000    0.1929700000000000 H
   0.0789175000000000    0.2760575000000000    0.2790350000000000 H
   0.1182975000000000    0.2959050000000000    0.3070350000000000 H
   0.9210675000000000    0.9739375000000000    0.2209700000000000 H
   0.8816875000000000    0.9540900000000000    0.1929700000000000 H
   0.5789175000000000    0.5260575000000000    0.2790350000000000 H
   0.6182974999999999    0.5459050000000000    0.3070350000000000 H
   0.4210675000000000    0.2239375000000000    0.2209700000000000 H
   0.3816875000000000    0.2040900000000000    0.1929700000000000 H
   0.8289175000000000    0.7760575000000000    0.2790350000000000 H
   0.8682974999999999    0.7959050000000000    0.3070350000000000 H
   0.6710675000000000    0.4739375000000000    0.2209700000000000 H
   0.6316875000000000    0.4540900000000000    0.1929700000000000 H
   0.3289175000000000    0.2760575000000000    0.2790350000000000 H
   0.3682975000000000    0.2959050000000000    0.3070350000000000 H
   0.1710675000000000    0.9739375000000000    0.2209700000000000 H
   0.1316875000000000    0.9540900000000000    0.1929700000000000 H
   0.0789175000000000    0.0260575000000000    0.2790350000000000 H
   0.1182975000000000    0.0459050000000000    0.3070350000000000 H
   0.9210675000000000    0.7239375000000000    0.2209700000000000 H
   0.8816875000000000    0.7040900000000000    0.1929700000000000 H
   0.2760375000000000    0.3289225000000000    0.0290650000000000 H
   0.2959050000000000    0.3683075000000000    0.0570250000000000 H
   0.9739475000000000    0.1710725000000000    0.9709400000000000 H
   0.9540800000000000    0.1316875000000000    0.9429799999999999 H
   0.0260375000000000    0.0789225000000000    0.0290650000000000 H
   0.0459050000000000    0.1183075000000000    0.0570250000000000 H
   0.7239475000000000    0.9210725000000000    0.9709400000000000 H
   0.7040800000000000    0.8816875000000000    0.9429799999999999 H
   0.5260375000000000    0.5789225000000000    0.0290650000000000 H
   0.5459050000000000    0.6183075000000000    0.0570250000000000 H
   0.2239475000000000    0.4210725000000000    0.9709400000000000 H
   0.2040800000000000    0.3816875000000000    0.9429799999999999 H
   0.7760375000000000    0.8289225000000000    0.0290650000000000 H
   0.7959050000000000    0.8683075000000000    0.0570250000000000 H
   0.4739475000000000    0.6710725000000000    0.9709400000000000 H
   0.4540800000000000    0.6316875000000000    0.9429799999999999 H
   0.7760375000000000    0.0789225000000000    0.0290650000000000 H
   0.7959050000000000    0.1183075000000000    0.0570250000000000 H
   0.4739475000000000    0.9210725000000000    0.9709400000000000 H
   0.4540800000000000    0.8816875000000000    0.9429799999999999 H
   0.5260375000000000    0.8289225000000000    0.0290650000000000 H
   0.5459050000000000    0.8683075000000000    0.0570250000000000 H
   0.2239475000000000    0.6710725000000000    0.9709400000000000 H
   0.2040800000000000    0.6316875000000000    0.9429799999999999 H
   0.0260375000000000    0.3289225000000000    0.0290650000000000 H
   0.0459050000000000    0.3683075000000000    0.0570250000000000 H
   0.7239475000000000    0.1710725000000000    0.9709400000000000 H
   0.7040800000000000    0.1316875000000000    0.9429799999999999 H
   0.2760375000000000    0.5789225000000000    0.0290650000000000 H
   0.2959050000000000    0.6183075000000000    0.0570250000000000 H
   0.9739475000000000    0.4210725000000000    0.9709400000000000 H
   0.9540800000000000    0.3816875000000000    0.9429799999999999 H
   0.2760375000000000    0.0789225000000000    0.0290650000000000 H
   0.2959050000000000    0.1183075000000000    0.0570250000000000 H
   0.9739475000000000    0.9210725000000000    0.9709400000000000 H
   0.9540800000000000    0.8816875000000000    0.9429799999999999 H
   0.0260375000000000    0.8289225000000000    0.0290650000000000 H
   0.0459050000000000    0.8683075000000000    0.0570250000000000 H
   0.7239475000000000    0.6710725000000000    0.9709400000000000 H
   0.7040800000000000    0.6316875000000000    0.9429799999999999 H
   0.5260375000000000    0.3289225000000000    0.0290650000000000 H
   0.5459050000000000    0.3683075000000000    0.0570250000000000 H
   0.2239475000000000    0.1710725000000000    0.9709400000000000 H
   0.2040800000000000    0.1316875000000000    0.9429799999999999 H
   0.7760375000000000    0.5789225000000000    0.0290650000000000 H
   0.7959050000000000    0.6183075000000000    0.0570250000000000 H
   0.4739475000000000    0.4210725000000000    0.9709400000000000 H
   0.4540800000000000    0.3816875000000000    0.9429799999999999 H
   0.7760375000000000    0.3289225000000000    0.0290650000000000 H
   0.7959050000000000    0.3683075000000000    0.0570250000000000 H
   0.4739475000000000    0.1710725000000000    0.9709400000000000 H
   0.4540800000000000    0.1316875000000000    0.9429799999999999 H
   0.5260375000000000    0.0789225000000000    0.0290650000000000 H
   0.5459050000000000    0.1183075000000000    0.0570250000000000 H
   0.2239475000000000    0.9210725000000000    0.9709400000000000 H
   0.2040800000000000    0.8816875000000000    0.9429799999999999 H
   0.0260375000000000    0.5789225000000000    0.0290650000000000 H
   0.0459050000000000    0.6183075000000000    0.0570250000000000 H
   0.7239475000000000    0.4210725000000000    0.9709400000000000 H
   0.7040800000000000    0.3816875000000000    0.9429799999999999 H
   0.2760375000000000    0.8289225000000000    0.0290650000000000 H
   0.2959050000000000    0.8683075000000000    0.0570250000000000 H
   0.9739475000000000    0.6710725000000000    0.9709400000000000 H
   0.9540800000000000    0.6316875000000000    0.9429799999999999 H
   0.5789175000000000    0.2760575000000000    0.7790349999999999 H
   0.6182974999999999    0.2959050000000000    0.8070349999999999 H
   0.4210675000000000    0.9739375000000000    0.7209700000000000 H
   0.3816875000000000    0.9540900000000000    0.6929700000000000 H
   0.8289175000000000    0.5260575000000000    0.7790349999999999 H
   0.8682974999999999    0.5459050000000000    0.8070349999999999 H
   0.6710675000000000    0.2239375000000000    0.7209700000000000 H
   0.6316875000000000    0.2040900000000000    0.6929700000000000 H
   0.3289175000000000    0.0260575000000000    0.7790349999999999 H
   0.3682975000000000    0.0459050000000000    0.8070349999999999 H
   0.1710675000000000    0.7239375000000000    0.7209700000000000 H
   0.1316875000000000    0.7040900000000000    0.6929700000000000 H
   0.0789175000000000    0.7760575000000000    0.7790349999999999 H
   0.1182975000000000    0.7959050000000000    0.8070349999999999 H
   0.9210675000000000    0.4739375000000000    0.7209700000000000 H
   0.8816875000000000    0.4540900000000000    0.6929700000000000 H
   0.3289175000000000    0.7760575000000000    0.7790349999999999 H
   0.3682975000000000    0.7959050000000000    0.8070349999999999 H
   0.1710675000000000    0.4739375000000000    0.7209700000000000 H
   0.1316875000000000    0.4540900000000000    0.6929700000000000 H
   0.0789175000000000    0.5260575000000000    0.7790349999999999 H
   0.1182975000000000    0.5459050000000000    0.8070349999999999 H
   0.9210675000000000    0.2239375000000000    0.7209700000000000 H
   0.8816875000000000    0.2040900000000000    0.6929700000000000 H
   0.5789175000000000    0.0260575000000000    0.7790349999999999 H
   0.6182974999999999    0.0459050000000000    0.8070349999999999 H
   0.4210675000000000    0.7239375000000000    0.7209700000000000 H
   0.3816875000000000    0.7040900000000000    0.6929700000000000 H
   0.8289175000000000    0.2760575000000000    0.7790349999999999 H
   0.8682974999999999    0.2959050000000000    0.8070349999999999 H
   0.6710675000000000    0.9739375000000000    0.7209700000000000 H
   0.6316875000000000    0.9540900000000000    0.6929700000000000 H
   0.0789175000000000    0.2760575000000000    0.7790349999999999 H
   0.1182975000000000    0.2959050000000000    0.8070349999999999 H
   0.9210675000000000    0.9739375000000000    0.7209700000000000 H
   0.8816875000000000    0.9540900000000000    0.6929700000000000 H
   0.3289175000000000    0.5260575000000000    0.7790349999999999 H
   0.3682975000000000    0.5459050000000000    0.8070349999999999 H
   0.1710675000000000    0.2239375000000000    0.7209700000000000 H
   0.1316875000000000    0.2040900000000000    0.6929700000000000 H
   0.8289175000000000    0.0260575000000000    0.7790349999999999 H
   0.8682974999999999    0.0459050000000000    0.8070349999999999 H
   0.6710675000000000    0.7239375000000000    0.7209700000000000 H
   0.6316875000000000    0.7040900000000000    0.6929700000000000 H
   0.5789175000000000    0.7760575000000000    0.7790349999999999 H
   0.6182974999999999    0.7959050000000000    0.8070349999999999 H
   0.4210675000000000    0.4739375000000000    0.7209700000000000 H
   0.3816875000000000    0.4540900000000000    0.6929700000000000 H
   0.8289175000000000    0.7760575000000000    0.7790349999999999 H
   0.8682974999999999    0.7959050000000000    0.8070349999999999 H
   0.6710675000000000    0.4739375000000000    0.7209700000000000 H
   0.6316875000000000    0.4540900000000000    0.6929700000000000 H
   0.5789175000000000    0.5260575000000000    0.7790349999999999 H
   0.6182974999999999    0.5459050000000000    0.8070349999999999 H
   0.4210675000000000    0.2239375000000000    0.7209700000000000 H
   0.3816875000000000    0.2040900000000000    0.6929700000000000 H
   0.0789175000000000    0.0260575000000000    0.7790349999999999 H
   0.1182975000000000    0.0459050000000000    0.8070349999999999 H
   0.9210675000000000    0.7239375000000000    0.7209700000000000 H
   0.8816875000000000    0.7040900000000000    0.6929700000000000 H
   0.3289175000000000    0.2760575000000000    0.7790349999999999 H
   0.3682975000000000    0.2959050000000000    0.8070349999999999 H
   0.1710675000000000    0.9739375000000000    0.7209700000000000 H
   0.1316875000000000    0.9540900000000000    0.6929700000000000 H
   0.2760375000000000    0.3289225000000000    0.5290650000000000 H
   0.2959050000000000    0.3683075000000000    0.5570250000000000 H
   0.9739475000000000    0.1710725000000000    0.4709400000000000 H
   0.9540800000000000    0.1316875000000000    0.4429800000000000 H
   0.5260375000000000    0.5789225000000000    0.5290650000000000 H
   0.5459050000000000    0.6183075000000000    0.5570250000000000 H
   0.2239475000000000    0.4210725000000000    0.4709400000000000 H
   0.2040800000000000    0.3816875000000000    0.4429800000000000 H
   0.0260375000000000    0.0789225000000000    0.5290650000000000 H
   0.0459050000000000    0.1183075000000000    0.5570250000000000 H
   0.7239475000000000    0.9210725000000000    0.4709400000000000 H
   0.7040800000000000    0.8816875000000000    0.4429800000000000 H
   0.7760375000000000    0.8289225000000000    0.5290650000000000 H
   0.7959050000000000    0.8683075000000000    0.5570250000000000 H
   0.4739475000000000    0.6710725000000000    0.4709400000000000 H
   0.4540800000000000    0.6316875000000000    0.4429800000000000 H
   0.0260375000000000    0.3289225000000000    0.5290650000000000 H
   0.0459050000000000    0.3683075000000000    0.5570250000000000 H
   0.7239475000000000    0.1710725000000000    0.4709400000000000 H
   0.7040800000000000    0.1316875000000000    0.4429800000000000 H
   0.2760375000000000    0.5789225000000000    0.5290650000000000 H
   0.2959050000000000    0.6183075000000000    0.5570250000000000 H
   0.9739475000000000    0.4210725000000000    0.4709400000000000 H
   0.9540800000000000    0.3816875000000000    0.4429800000000000 H
   0.7760375000000000    0.0789225000000000    0.5290650000000000 H
   0.7959050000000000    0.1183075000000000    0.5570250000000000 H
   0.4739475000000000    0.9210725000000000    0.4709400000000000 H
   0.4540800000000000    0.8816875000000000    0.4429800000000000 H
   0.5260375000000000    0.8289225000000000    0.5290650000000000 H
   0.5459050000000000    0.8683075000000000    0.5570250000000000 H
   0.2239475000000000    0.6710725000000000    0.4709400000000000 H
   0.2040800000000000    0.6316875000000000    0.4429800000000000 H
   0.5260375000000000    0.3289225000000000    0.5290650000000000 H
   0.5459050000000000    0.3683075000000000    0.5570250000000000 H
   0.2239475000000000    0.1710725000000000    0.4709400000000000 H
   0.2040800000000000    0.1316875000000000    0.4429800000000000 H
   0.2760375000000000    0.0789225000000000    0.5290650000000000 H
   0.2959050000000000    0.1183075000000000    0.5570250000000000 H
   0.9739475000000000    0.9210725000000000    0.4709400000000000 H
   0.9540800000000000    0.8816875000000000    0.4429800000000000 H
   0.7760375000000000    0.5789225000000000    0.5290650000000000 H
   0.7959050000000000    0.6183075000000000    0.5570250000000000 H
   0.4739475000000000    0.4210725000000000    0.4709400000000000 H
   0.4540800000000000    0.3816875000000000    0.4429800000000000 H
   0.0260375000000000    0.8289225000000000    0.5290650000000000 H
   0.0459050000000000    0.8683075000000000    0.5570250000000000 H
   0.7239475000000000    0.6710725000000000    0.4709400000000000 H
   0.7040800000000000    0.6316875000000000    0.4429800000000000 H
   0.7760375000000000    0.3289225000000000    0.5290650000000000 H