C1 N1
1.0
  35.1696350956505341    0.0000000000000000   -3.4862201936748032
  -1.9747401800268656   35.1146386713949781   -3.4813095522747832
   0.0000000000000000    0.0000000000000000   27.4059999999999988
C N
1 1
direct
   0.7917125000000000    0.9115200000000000    0.2612750000000000 C
   0.8194725000000000    0.9322725000000001    0.2686750000000000 N
