H6 O4
1.0
  33.2898701989463746    0.0000000000000000   -0.0929630964538870
   0.3514883534382556   33.6301388564768686   -0.0405022404581604
   0.0000000000000000    0.0000000000000000   27.2600000000000016
H O
6 4
direct
   0.2121235845645483    0.9296203441517923    0.8749279147389482 H
   0.1313736090571458    0.8649237077467601    0.8166144902171852 H
   0.1651732286267532    0.8949720422845554    0.8359284355023285 H
   0.2118555580560627    0.9296133057738905    0.6260834791079452 H
   0.1648013540120020    0.8945042299029298    0.6651504101858359 H
   0.1313804930061976    0.8647741535203217    0.6845638856113222 H
   0.1964900000000000    0.9062100000000000    0.8823200000000000 O
   0.1494350000000000    0.8714050000000000    0.8433700000000000 O
   0.1961550000000000    0.9061950000000000    0.6187700000000000 O
   0.1493650000000000    0.8714800000000000    0.6579600000000000 O
