Zn192 H582 C574 N768 O384
1.0
  39.3839873071191775    0.0000000000000000   -0.0316194983430205
  -0.0580255772676558   27.9379397420851809    0.0000000000000017
   0.0000000000000000    0.0000000000000000   33.9799999999999969
Zn H C N O
192 582 574 768 384
direct
   0.1910533333333333    0.5102000000000000    0.7968250000000000 Zn
   0.9925999999999999    0.5461300000000000    0.7147150000000000 Zn
   0.8088366666666666    0.4898200000000000    0.7031900000000000 Zn
   0.0074200000000000    0.4542450000000000    0.7866000000000000 Zn
   0.8577199999999999    0.5102000000000000    0.7968250000000000 Zn
   0.6592666666666667    0.5461300000000000    0.7147150000000000 Zn
   0.4755033333333333    0.4898200000000000    0.7031900000000000 Zn
   0.6740866666666666    0.4542450000000000    0.7866000000000000 Zn
   0.5243866666666667    0.5102000000000000    0.7968250000000000 Zn
   0.3259333333333333    0.5461300000000000    0.7147150000000000 Zn
   0.1421700000000000    0.4898200000000000    0.7031900000000000 Zn
   0.3407533333333333    0.4542450000000000    0.7866000000000000 Zn
   0.5243866666666667    0.5102000000000000    0.2968250000000000 Zn
   0.3259333333333333    0.5461300000000000    0.2147150000000000 Zn
   0.1421700000000000    0.4898200000000000    0.2031900000000000 Zn
   0.3407533333333333    0.4542450000000000    0.2866000000000000 Zn
   0.8577199999999999    0.5102000000000000    0.2968250000000000 Zn
   0.6592666666666667    0.5461300000000000    0.2147150000000000 Zn
   0.4755033333333333    0.4898200000000000    0.2031900000000000 Zn
   0.6740866666666666    0.4542450000000000    0.2866000000000000 Zn
   0.1910533333333333    0.5102000000000000    0.2968250000000000 Zn
   0.9925999999999999    0.5461300000000000    0.2147150000000000 Zn
   0.8088366666666666    0.4898200000000000    0.2031900000000000 Zn
   0.0074200000000000    0.4542450000000000    0.2866000000000000 Zn
   0.5243866666666667    0.0102000000000000    0.2968250000000000 Zn
   0.3259333333333333    0.0461300000000000    0.2147150000000000 Zn
   0.1421700000000000    0.9898199999999999    0.2031900000000000 Zn
   0.3407533333333333    0.9542450000000000    0.2866000000000000 Zn
   0.1910533333333333    0.0102000000000000    0.2968250000000000 Zn
   0.9925999999999999    0.0461300000000000    0.2147150000000000 Zn
   0.8088366666666666    0.9898199999999999    0.2031900000000000 Zn
   0.0074200000000000    0.9542450000000000    0.2866000000000000 Zn
   0.8577199999999999    0.0102000000000000    0.2968250000000000 Zn
   0.6592666666666667    0.0461300000000000    0.2147150000000000 Zn
   0.4755033333333333    0.9898199999999999    0.2031900000000000 Zn
   0.6740866666666666    0.9542450000000000    0.2866000000000000 Zn
   0.9758566666666666    0.0093050000000000    0.0483000000000000 Zn
   0.1746800000000000    0.0457600000000000    0.9634499999999999 Zn
   0.9758566666666666    0.5093050000000000    0.0483000000000000 Zn
   0.1746800000000000    0.5457600000000000    0.9634499999999999 Zn
   0.0240433333333333    0.9901750000000000    0.9533000000000000 Zn
   0.8253933333333333    0.9541800000000000    0.0365700000000000 Zn
   0.9757800000000000    0.7598700000000000    0.2034250000000000 Zn
   0.1745933333333333    0.7958200000000000    0.2865700000000000 Zn
   0.0241666666666667    0.7408900000000000    0.2983150000000000 Zn
   0.8252766666666667    0.7042300000000000    0.2135050000000000 Zn
   0.0240433333333333    0.4901750000000000    0.9533000000000000 Zn
   0.8253933333333333    0.4541800000000000    0.0365700000000000 Zn
   0.9757800000000000    0.2598700000000000    0.2034250000000000 Zn
   0.1745933333333333    0.2958200000000000    0.2865700000000000 Zn
   0.0241666666666667    0.2408900000000000    0.2983150000000000 Zn
   0.8252766666666667    0.2042300000000000    0.2135050000000000 Zn
   0.9758566666666666    0.5093050000000000    0.5483000000000000 Zn
   0.1746800000000000    0.5457600000000000    0.4634500000000000 Zn
   0.9758566666666666    0.0093050000000000    0.5483000000000000 Zn
   0.1746800000000000    0.0457600000000000    0.4634500000000000 Zn
   0.0240433333333333    0.9901750000000000    0.4533000000000000 Zn
   0.8253933333333333    0.9541800000000000    0.5365700000000000 Zn
   0.9757800000000000    0.7598700000000000    0.7034250000000000 Zn
   0.1745933333333333    0.7958200000000000    0.7865700000000000 Zn
   0.0241666666666667    0.7408900000000000    0.7983150000000000 Zn
   0.8252766666666667    0.7042300000000000    0.7135050000000001 Zn
   0.0240433333333333    0.4901750000000000    0.4533000000000000 Zn
   0.8253933333333333    0.4541800000000000    0.5365700000000000 Zn
   0.9757800000000000    0.2598700000000000    0.7034250000000000 Zn
   0.1745933333333333    0.2958200000000000    0.7865700000000000 Zn
   0.0241666666666667    0.2408900000000000    0.7983150000000000 Zn
   0.8252766666666667    0.2042300000000000    0.7135050000000001 Zn
   0.3091900000000000    0.0093050000000000    0.0483000000000000 Zn
   0.5080133333333333    0.0457600000000000    0.9634499999999999 Zn
   0.3091900000000000    0.5093050000000000    0.0483000000000000 Zn
   0.5080133333333333    0.5457600000000000    0.9634499999999999 Zn
   0.3573766666666667    0.9901750000000000    0.9533000000000000 Zn
   0.1587266666666667    0.9541800000000000    0.0365700000000000 Zn
   0.3091133333333334    0.7598700000000000    0.2034250000000000 Zn
   0.5079266666666666    0.7958200000000000    0.2865700000000000 Zn
   0.3575000000000000    0.7408900000000000    0.2983150000000000 Zn
   0.1586100000000000    0.7042300000000000    0.2135050000000000 Zn
   0.3573766666666667    0.4901750000000000    0.9533000000000000 Zn
   0.1587266666666667    0.4541800000000000    0.0365700000000000 Zn
   0.3091133333333334    0.2598700000000000    0.2034250000000000 Zn
   0.5079266666666666    0.2958200000000000    0.2865700000000000 Zn
   0.3575000000000000    0.2408900000000000    0.2983150000000000 Zn
   0.1586100000000000    0.2042300000000000    0.2135050000000000 Zn
   0.3091900000000000    0.0093050000000000    0.5483000000000000 Zn
   0.5080133333333333    0.0457600000000000    0.4634500000000000 Zn
   0.3091900000000000    0.5093050000000000    0.5483000000000000 Zn
   0.5080133333333333    0.5457600000000000    0.4634500000000000 Zn
   0.3573766666666667    0.9901750000000000    0.4533000000000000 Zn
   0.1587266666666667    0.9541800000000000    0.5365700000000000 Zn
   0.3091133333333334    0.7598700000000000    0.7034250000000000 Zn
   0.5079266666666666    0.7958200000000000    0.7865700000000000 Zn
   0.3575000000000000    0.7408900000000000    0.7983150000000000 Zn
   0.1586100000000000    0.7042300000000000    0.7135050000000001 Zn
   0.3573766666666667    0.4901750000000000    0.4533000000000000 Zn
   0.1587266666666667    0.4541800000000000    0.5365700000000000 Zn
   0.3091133333333334    0.2598700000000000    0.7034250000000000 Zn
   0.5079266666666666    0.2958200000000000    0.7865700000000000 Zn
   0.3575000000000000    0.2408900000000000    0.7983150000000000 Zn
   0.1586100000000000    0.2042300000000000    0.7135050000000001 Zn
   0.1422666666666667    0.7398300000000000    0.0468300000000000 Zn
   0.3407000000000000    0.7039050000000000    0.9646950000000001 Zn
   0.5244566666666667    0.7601599999999999    0.9531950000000000 Zn
   0.3258400000000000    0.7958100000000000    0.0366250000000000 Zn
   0.8089333333333333    0.7398300000000000    0.0468300000000000 Zn
   0.0073666666666667    0.7039050000000000    0.9646950000000001 Zn
   0.1911233333333333    0.7601599999999999    0.9531950000000000 Zn
   0.9925066666666666    0.7958100000000000    0.0366250000000000 Zn
   0.4756000000000000    0.7398300000000000    0.0468300000000000 Zn
   0.6740333333333333    0.7039050000000000    0.9646950000000001 Zn
   0.8577899999999999    0.7601599999999999    0.9531950000000000 Zn
   0.6591733333333333    0.7958100000000000    0.0366250000000000 Zn
   0.1422666666666667    0.2398300000000000    0.0468300000000000 Zn
   0.3407000000000000    0.2039050000000000    0.9646950000000001 Zn
   0.5244566666666667    0.2601600000000000    0.9531950000000000 Zn
   0.3258400000000000    0.2958100000000000    0.0366250000000000 Zn
   0.8089333333333333    0.2398300000000000    0.0468300000000000 Zn
   0.0073666666666667    0.2039050000000000    0.9646950000000001 Zn
   0.1911233333333333    0.2601600000000000    0.9531950000000000 Zn
   0.9925066666666666    0.2958100000000000    0.0366250000000000 Zn
   0.4756000000000000    0.2398300000000000    0.0468300000000000 Zn
   0.6740333333333333    0.2039050000000000    0.9646950000000001 Zn
   0.8577899999999999    0.2601600000000000    0.9531950000000000 Zn
   0.6591733333333333    0.2958100000000000    0.0366250000000000 Zn
   0.1422666666666667    0.7398300000000000    0.5468300000000000 Zn
   0.3407000000000000    0.7039050000000000    0.4646950000000000 Zn
   0.5244566666666667    0.7601599999999999    0.4531950000000000 Zn
   0.3258400000000000    0.7958100000000000    0.5366250000000000 Zn
   0.8089333333333333    0.7398300000000000    0.5468300000000000 Zn
   0.0073666666666667    0.7039050000000000    0.4646950000000000 Zn
   0.1911233333333333    0.7601599999999999    0.4531950000000000 Zn
   0.9925066666666666    0.7958100000000000    0.5366250000000000 Zn
   0.4756000000000000    0.7398300000000000    0.5468300000000000 Zn
   0.6740333333333333    0.7039050000000000    0.4646950000000000 Zn
   0.8577899999999999    0.7601599999999999    0.4531950000000000 Zn
   0.6591733333333333    0.7958100000000000    0.5366250000000000 Zn
   0.1422666666666667    0.2398300000000000    0.5468300000000000 Zn
   0.3407000000000000    0.2039050000000000    0.4646950000000000 Zn
   0.5244566666666667    0.2601600000000000    0.4531950000000000 Zn
   0.3258400000000000    0.2958100000000000    0.5366250000000000 Zn
   0.8089333333333333    0.2398300000000000    0.5468300000000000 Zn
   0.0073666666666667    0.2039050000000000    0.4646950000000000 Zn
   0.1911233333333333    0.2601600000000000    0.4531950000000000 Zn
   0.9925066666666666    0.2958100000000000    0.5366250000000000 Zn
   0.4756000000000000    0.2398300000000000    0.5468300000000000 Zn
   0.6740333333333333    0.2039050000000000    0.4646950000000000 Zn
   0.8577899999999999    0.2601600000000000    0.4531950000000000 Zn
   0.6591733333333333    0.2958100000000000    0.5366250000000000 Zn
   0.6425233333333333    0.5093050000000000    0.0483000000000000 Zn
   0.8413466666666666    0.5457600000000000    0.9634499999999999 Zn
   0.6425233333333333    0.0093050000000000    0.0483000000000000 Zn
   0.8413466666666666    0.0457600000000000    0.9634499999999999 Zn
   0.6907099999999999    0.9901750000000000    0.9533000000000000 Zn
   0.4920599999999999    0.9541800000000000    0.0365700000000000 Zn
   0.6424466666666666    0.7598700000000000    0.2034250000000000 Zn
   0.8412599999999999    0.7958200000000000    0.2865700000000000 Zn
   0.6908333333333333    0.7408900000000000    0.2983150000000000 Zn
   0.4919433333333333    0.7042300000000000    0.2135050000000000 Zn
   0.6907099999999999    0.4901750000000000    0.9533000000000000 Zn
   0.4920599999999999    0.4541800000000000    0.0365700000000000 Zn
   0.6424466666666666    0.2598700000000000    0.2034250000000000 Zn
   0.8412599999999999    0.2958200000000000    0.2865700000000000 Zn
   0.6908333333333333    0.2408900000000000    0.2983150000000000 Zn
   0.4919433333333333    0.2042300000000000    0.2135050000000000 Zn
   0.6425233333333333    0.0093050000000000    0.5483000000000000 Zn
   0.4920599999999999    0.9541800000000000    0.5365700000000000 Zn
   0.8413466666666666    0.0457600000000000    0.4634500000000000 Zn
   0.6425233333333333    0.5093050000000000    0.5483000000000000 Zn
   0.8413466666666666    0.5457600000000000    0.4634500000000000 Zn
   0.1910533333333333    0.0102000000000000    0.7968250000000000 Zn
   0.9925999999999999    0.0461300000000000    0.7147150000000000 Zn
   0.8088366666666666    0.9898199999999999    0.7031900000000000 Zn
   0.0074200000000000    0.9542450000000000    0.7866000000000000 Zn
   0.5243866666666667    0.0102000000000000    0.7968250000000000 Zn
   0.3259333333333333    0.0461300000000000    0.7147150000000000 Zn
   0.1421700000000000    0.9898199999999999    0.7031900000000000 Zn
   0.3407533333333333    0.9542450000000000    0.7866000000000000 Zn
   0.6908333333333333    0.2408900000000000    0.7983150000000000 Zn
   0.4919433333333333    0.2042300000000000    0.7135050000000001 Zn
   0.4755033333333333    0.9898199999999999    0.7031900000000000 Zn
   0.6740866666666666    0.9542450000000000    0.7866000000000000 Zn
   0.6424466666666666    0.2598700000000000    0.7034250000000000 Zn
   0.6907099999999999    0.9901750000000000    0.4533000000000000 Zn
   0.8577199999999999    0.0102000000000000    0.7968250000000000 Zn
   0.6592666666666667    0.0461300000000000    0.7147150000000000 Zn
   0.8412599999999999    0.2958200000000000    0.7865700000000000 Zn
   0.6424466666666666    0.7598700000000000    0.7034250000000000 Zn
   0.6907099999999999    0.4901750000000000    0.4533000000000000 Zn
   0.8412599999999999    0.7958200000000000    0.7865700000000000 Zn
   0.4920599999999999    0.4541800000000000    0.5365700000000000 Zn
   0.6908333333333333    0.7408900000000000    0.7983150000000000 Zn
   0.4919433333333333    0.7042300000000000    0.7135050000000001 Zn
   0.1860466666666666    0.4006500000000000    0.8259799999999999 H
   0.1449900000000000    0.3305900000000000    0.7045300000000000 H
   0.1467766666666667    0.3850500000000000    0.6806850000000000 H
   0.0866500000000000    0.4298700000000000    0.7539350000000000 H
   0.0507066666666667    0.5751850000000001    0.6677500000000001 H
   0.0915900000000000    0.5553500000000000    0.6590150000000000 H
   0.8136766666666666    0.5994500000000000    0.6741400000000000 H
   0.8532366666666666    0.6149350000000000    0.8192999999999999 H
   0.8549899999999999    0.6694150000000000    0.7955300000000001 H
   0.9133066666666666    0.5701750000000000    0.7465100000000000 H
   0.9490033333333333    0.4249100000000000    0.8327899999999999 H
   0.9080299999999999    0.4444950000000000    0.8411649999999999 H
   0.8527133333333332    0.4006500000000000    0.8259799999999999 H
   0.8116566666666667    0.3305900000000000    0.7045300000000000 H
   0.8134433333333333    0.3850500000000000    0.6806850000000000 H
   0.7533166666666666    0.4298700000000000    0.7539350000000000 H
   0.7173733333333333    0.5751850000000001    0.6677500000000001 H
   0.7582566666666666    0.5553500000000000    0.6590150000000000 H
   0.4803433333333333    0.5994500000000000    0.6741400000000000 H
   0.5199033333333334    0.6149350000000000    0.8192999999999999 H
   0.5216566666666667    0.6694150000000000    0.7955300000000001 H
   0.5799733333333333    0.5701750000000000    0.7465100000000000 H
   0.6156699999999999    0.4249100000000000    0.8327899999999999 H
   0.5746966666666666    0.4444950000000000    0.8411649999999999 H
   0.5193800000000000    0.4006500000000000    0.8259799999999999 H
   0.4783233333333333    0.3305900000000000    0.7045300000000000 H
   0.4801100000000000    0.3850500000000000    0.6806850000000000 H
   0.4199833333333333    0.4298700000000000    0.7539350000000000 H
   0.3840400000000000    0.5751850000000001    0.6677500000000001 H
   0.4249233333333333    0.5553500000000000    0.6590150000000000 H
   0.1470100000000000    0.5994500000000000    0.6741400000000000 H
   0.1865700000000000    0.6149350000000000    0.8192999999999999 H
   0.1883233333333333    0.6694150000000000    0.7955300000000001 H
   0.2466400000000000    0.5701750000000000    0.7465100000000000 H
   0.2823366666666667    0.4249100000000000    0.8327899999999999 H
   0.2413633333333333    0.4444950000000000    0.8411649999999999 H
   0.5193800000000000    0.4006500000000000    0.3259800000000000 H
   0.4783233333333333    0.3305900000000000    0.2045300000000000 H
   0.4801100000000000    0.3850500000000000    0.1806850000000000 H
   0.4199833333333333    0.4298700000000000    0.2539350000000000 H
   0.3840400000000000    0.5751850000000001    0.1677500000000000 H
   0.4249233333333333    0.5553500000000000    0.1590150000000000 H
   0.1470100000000000    0.5994500000000000    0.1741400000000000 H
   0.1865700000000000    0.6149350000000000    0.3193000000000000 H
   0.1883233333333333    0.6694150000000000    0.2955300000000000 H
   0.2466400000000000    0.5701750000000000    0.2465100000000000 H
   0.2823366666666667    0.4249100000000000    0.3327900000000000 H
   0.2413633333333333    0.4444950000000000    0.3411650000000000 H
   0.8527133333333332    0.4006500000000000    0.3259800000000000 H
   0.8116566666666667    0.3305900000000000    0.2045300000000000 H
   0.8134433333333333    0.3850500000000000    0.1806850000000000 H
   0.7533166666666666    0.4298700000000000    0.2539350000000000 H
   0.7173733333333333    0.5751850000000001    0.1677500000000000 H
   0.7582566666666666    0.5553500000000000    0.1590150000000000 H
   0.4803433333333333    0.5994500000000000    0.1741400000000000 H
   0.5199033333333334    0.6149350000000000    0.3193000000000000 H
   0.5216566666666667    0.6694150000000000    0.2955300000000000 H
   0.5799733333333333    0.5701750000000000    0.2465100000000000 H
   0.6156699999999999    0.4249100000000000    0.3327900000000000 H
   0.5746966666666666    0.4444950000000000    0.3411650000000000 H
   0.1860466666666666    0.4006500000000000    0.3259800000000000 H
   0.1449900000000000    0.3305900000000000    0.2045300000000000 H
   0.1467766666666667    0.3850500000000000    0.1806850000000000 H
   0.0866500000000000    0.4298700000000000    0.2539350000000000 H
   0.0507066666666667    0.5751850000000001    0.1677500000000000 H
   0.0915900000000000    0.5553500000000000    0.1590150000000000 H
   0.8136766666666666    0.5994500000000000    0.1741400000000000 H
   0.8532366666666666    0.6149350000000000    0.3193000000000000 H
   0.8549899999999999    0.6694150000000000    0.2955300000000000 H
   0.9133066666666666    0.5701750000000000    0.2465100000000000 H
   0.9490033333333333    0.4249100000000000    0.3327900000000000 H
   0.9080299999999999    0.4444950000000000    0.3411650000000000 H
   0.5193800000000000    0.9006500000000000    0.3259800000000000 H
   0.4783233333333333    0.8305899999999999    0.2045300000000000 H
   0.4801100000000000    0.8850500000000000    0.1806850000000000 H
   0.4199833333333333    0.9298700000000000    0.2539350000000000 H
   0.3840400000000000    0.0751850000000000    0.1677500000000000 H
   0.4249233333333333    0.0553500000000000    0.1590150000000000 H
   0.1470100000000000    0.0994500000000000    0.1741400000000000 H
   0.1865700000000000    0.1149350000000000    0.3193000000000000 H
   0.1883233333333333    0.1694150000000000    0.2955300000000000 H
   0.2466400000000000    0.0701750000000000    0.2465100000000000 H
   0.2823366666666667    0.9249100000000000    0.3327900000000000 H
   0.2413633333333333    0.9444950000000000    0.3411650000000000 H
   0.1860466666666666    0.9006500000000000    0.3259800000000000 H
   0.1449900000000000    0.8305899999999999    0.2045300000000000 H
   0.1467766666666667    0.8850500000000000    0.1806850000000000 H
   0.0866500000000000    0.9298700000000000    0.2539350000000000 H
   0.0507066666666667    0.0751850000000000    0.1677500000000000 H
   0.0915900000000000    0.0553500000000000    0.1590150000000000 H
   0.8136766666666666    0.0994500000000000    0.1741400000000000 H
   0.8532366666666666    0.1149350000000000    0.3193000000000000 H
   0.8549899999999999    0.1694150000000000    0.2955300000000000 H
   0.9133066666666666    0.0701750000000000    0.2465100000000000 H
   0.9490033333333333    0.9249100000000000    0.3327900000000000 H
   0.9080299999999999    0.9444950000000000    0.3411650000000000 H
   0.8527133333333332    0.9006500000000000    0.3259800000000000 H
   0.8116566666666667    0.8305899999999999    0.2045300000000000 H
   0.8134433333333333    0.8850500000000000    0.1806850000000000 H
   0.7533166666666666    0.9298700000000000    0.2539350000000000 H
   0.7173733333333333    0.0751850000000000    0.1677500000000000 H
   0.7582566666666666    0.0553500000000000    0.1590150000000000 H
   0.4803433333333333    0.0994500000000000    0.1741400000000000 H
   0.5199033333333334    0.1149350000000000    0.3193000000000000 H
   0.5216566666666667    0.1694150000000000    0.2955300000000000 H
   0.5799733333333333    0.0701750000000000    0.2465100000000000 H
   0.6156699999999999    0.9249100000000000    0.3327900000000000 H
   0.5746966666666666    0.9444950000000000    0.3411650000000000 H
   0.9815166666666666    0.8999600000000000    0.0763250000000000 H
   0.0199933333333333    0.8858900000000001    0.9307350000000000 H
   0.0220500000000000    0.8311999999999999    0.9540750000000000 H
   0.0797900000000000    0.9302699999999999    0.0034300000000000 H
   0.1158766666666667    0.0755250000000000    0.9171800000000000 H
   0.0746700000000000    0.0563300000000000    0.9092100000000001 H
   0.9815166666666666    0.3999600000000000    0.0763250000000000 H
   0.0199933333333333    0.3858900000000000    0.9307350000000000 H
   0.0220500000000000    0.3312000000000000    0.9540750000000000 H
   0.0797900000000000    0.4302700000000000    0.0034300000000000 H
   0.1158766666666667    0.5755250000000000    0.9171800000000000 H
   0.0746700000000000    0.5563300000000000    0.9092100000000001 H
   0.9799533333333332    0.1140200000000000    0.0705850000000000 H
   0.9778333333333333    0.1685900000000000    0.0470300000000000 H
   0.0183600000000000    0.0995950000000000    0.9249849999999999 H
   0.9204466666666666    0.0695550000000000    0.9970700000000000 H
   0.8838766666666666    0.9244100000000000    0.0831650000000000 H
   0.9250200000000000    0.9436650000000000    0.0913850000000000 H
   0.9815600000000000    0.6504600000000000    0.1749850000000000 H
   0.0199966666666667    0.6360200000000000    0.3206300000000000 H
   0.0220966666666667    0.5814850000000000    0.2970150000000000 H
   0.0794800000000000    0.6805150000000000    0.2470100000000000 H
   0.1161700000000000    0.8256500000000000    0.3330900000000000 H
   0.0750500000000000    0.8063700000000000    0.3413150000000000 H
   0.9800866666666666    0.8641550000000000    0.1806100000000000 H
   0.9782633333333333    0.9190050000000001    0.2039150000000000 H
   0.0183333333333333    0.8501000000000001    0.3264350000000000 H
   0.9201366666666666    0.8198000000000000    0.2534800000000000 H
   0.8840800000000000    0.6745099999999999    0.1671950000000000 H
   0.9252899999999999    0.6937100000000000    0.1593200000000000 H
   0.9799533333333332    0.6140200000000000    0.0705850000000000 H
   0.9778333333333333    0.6685900000000000    0.0470300000000000 H
   0.0183600000000000    0.5995950000000000    0.9249849999999999 H
   0.9204466666666666    0.5695550000000000    0.9970700000000000 H
   0.8838766666666666    0.4244100000000000    0.0831650000000000 H
   0.9250200000000000    0.4436650000000000    0.0913850000000000 H
   0.9815600000000000    0.1504600000000000    0.1749850000000000 H
   0.0199966666666667    0.1360200000000000    0.3206300000000000 H
   0.0220966666666667    0.0814850000000000    0.2970150000000000 H
   0.0794800000000000    0.1805150000000000    0.2470100000000000 H
   0.1161700000000000    0.3256500000000000    0.3330900000000000 H
   0.0750500000000000    0.3063700000000000    0.3413150000000000 H
   0.9800866666666666    0.3641550000000000    0.1806100000000000 H
   0.9782633333333333    0.4190050000000000    0.2039150000000000 H
   0.0183333333333333    0.3501000000000000    0.3264350000000000 H
   0.9201366666666666    0.3198000000000000    0.2534800000000000 H
   0.8840800000000000    0.1745100000000000    0.1671950000000000 H
   0.9252899999999999    0.1937100000000000    0.1593200000000000 H
   0.9815166666666666    0.3999600000000000    0.5763250000000000 H
   0.0199933333333333    0.3858900000000000    0.4307350000000000 H
   0.0220500000000000    0.3312000000000000    0.4540750000000000 H
   0.0797900000000000    0.4302700000000000    0.5034300000000000 H
   0.1158766666666667    0.5755250000000000    0.4171800000000000 H
   0.0746700000000000    0.5563300000000000    0.4092100000000000 H
   0.9815166666666666    0.8999600000000000    0.5763250000000000 H
   0.0199933333333333    0.8858900000000001    0.4307350000000000 H
   0.0220500000000000    0.8311999999999999    0.4540750000000000 H
   0.0797900000000000    0.9302699999999999    0.5034300000000000 H
   0.1158766666666667    0.0755250000000000    0.4171800000000000 H
   0.0746700000000000    0.0563300000000000    0.4092100000000000 H
   0.9799533333333332    0.1140200000000000    0.5705850000000000 H
   0.9778333333333333    0.1685900000000000    0.5470300000000000 H
   0.0183600000000000    0.0995950000000000    0.4249850000000000 H
   0.9204466666666666    0.0695550000000000    0.4970700000000000 H
   0.8838766666666666    0.9244100000000000    0.5831650000000000 H
   0.9250200000000000    0.9436650000000000    0.5913850000000000 H
   0.9815600000000000    0.6504600000000000    0.6749849999999999 H
   0.0199966666666667    0.6360200000000000    0.8206300000000000 H
   0.0220966666666667    0.5814850000000000    0.7970150000000000 H
   0.0794800000000000    0.6805150000000000    0.7470100000000000 H
   0.1161700000000000    0.8256500000000000    0.8330900000000000 H
   0.0750500000000000    0.8063700000000000    0.8413150000000000 H
   0.9800866666666666    0.8641550000000000    0.6806099999999999 H
   0.9782633333333333    0.9190050000000001    0.7039150000000001 H
   0.0183333333333333    0.8501000000000001    0.8264350000000000 H
   0.9201366666666666    0.8198000000000000    0.7534799999999999 H
   0.8840800000000000    0.6745099999999999    0.6671950000000000 H
   0.9252899999999999    0.6937100000000000    0.6593200000000000 H
   0.9799533333333332    0.6140200000000000    0.5705850000000000 H
   0.9778333333333333    0.6685900000000000    0.5470300000000000 H
   0.0183600000000000    0.5995950000000000    0.4249850000000000 H
   0.9204466666666666    0.5695550000000000    0.4970700000000000 H
   0.8838766666666666    0.4244100000000000    0.5831650000000000 H
   0.9250200000000000    0.4436650000000000    0.5913850000000000 H
   0.9815600000000000    0.1504600000000000    0.6749849999999999 H
   0.0199966666666667    0.1360200000000000    0.8206300000000000 H
   0.0220966666666667    0.0814850000000000    0.7970150000000000 H
   0.0794800000000000    0.1805150000000000    0.7470100000000000 H
   0.1161700000000000    0.3256500000000000    0.8330900000000000 H
   0.0750500000000000    0.3063700000000000    0.8413150000000000 H
   0.9800866666666666    0.3641550000000000    0.6806099999999999 H
   0.9782633333333333    0.4190050000000000    0.7039150000000001 H
   0.0183333333333333    0.3501000000000000    0.8264350000000000 H
   0.9201366666666666    0.3198000000000000    0.7534799999999999 H
   0.8840800000000000    0.1745100000000000    0.6671950000000000 H
   0.9252899999999999    0.1937100000000000    0.6593200000000000 H
   0.3148500000000000    0.8999600000000000    0.0763250000000000 H
   0.3533266666666666    0.8858900000000001    0.9307350000000000 H
   0.3553833333333333    0.8311999999999999    0.9540750000000000 H
   0.4131233333333333    0.9302699999999999    0.0034300000000000 H
   0.4492100000000000    0.0755250000000000    0.9171800000000000 H
   0.4080033333333333    0.0563300000000000    0.9092100000000001 H
   0.3148500000000000    0.3999600000000000    0.0763250000000000 H
   0.3533266666666666    0.3858900000000000    0.9307350000000000 H
   0.3553833333333333    0.3312000000000000    0.9540750000000000 H
   0.4131233333333333    0.4302700000000000    0.0034300000000000 H
   0.4492100000000000    0.5755250000000000    0.9171800000000000 H
   0.4080033333333333    0.5563300000000000    0.9092100000000001 H
   0.3132866666666667    0.1140200000000000    0.0705850000000000 H
   0.3111666666666666    0.1685900000000000    0.0470300000000000 H
   0.3516933333333333    0.0995950000000000    0.9249849999999999 H
   0.2537800000000000    0.0695550000000000    0.9970700000000000 H
   0.2172100000000000    0.9244100000000000    0.0831650000000000 H
   0.2583533333333333    0.9436650000000000    0.0913850000000000 H
   0.3148933333333333    0.6504600000000000    0.1749850000000000 H
   0.3533300000000000    0.6360200000000000    0.3206300000000000 H
   0.3554300000000000    0.5814850000000000    0.2970150000000000 H
   0.4128133333333333    0.6805150000000000    0.2470100000000000 H
   0.4495033333333333    0.8256500000000000    0.3330900000000000 H
   0.4083833333333333    0.8063700000000000    0.3413150000000000 H
   0.3134200000000000    0.8641550000000000    0.1806100000000000 H
   0.3115966666666666    0.9190050000000001    0.2039150000000000 H
   0.3516666666666666    0.8501000000000001    0.3264350000000000 H
   0.2534700000000000    0.8198000000000000    0.2534800000000000 H
   0.2174133333333333    0.6745099999999999    0.1671950000000000 H
   0.2586233333333333    0.6937100000000000    0.1593200000000000 H
   0.3132866666666667    0.6140200000000000    0.0705850000000000 H
   0.3111666666666666    0.6685900000000000    0.0470300000000000 H
   0.3516933333333333    0.5995950000000000    0.9249849999999999 H
   0.2537800000000000    0.5695550000000000    0.9970700000000000 H
   0.2172100000000000    0.4244100000000000    0.0831650000000000 H
   0.2583533333333333    0.4436650000000000    0.0913850000000000 H
   0.3148933333333333    0.1504600000000000    0.1749850000000000 H
   0.3533300000000000    0.1360200000000000    0.3206300000000000 H