H1 O1
1.0
  39.3839873071191775    0.0000000000000000   -0.0316194983430205
  -0.0580255772676558   27.9379397420851809    0.0000000000000017
   0.0000000000000000    0.0000000000000000   33.9799999999999969
H O
1 1
direct
   0.5739772977558483    0.2359186026490619    0.2066856557937957 H
   0.5912400000000000    0.2596200000000000    0.2138350000000000 O
