H6 O4
1.0
  39.3839873071191775    0.0000000000000000   -0.0316194983430205
  -0.0580255772676558   27.9379397420851809    0.0000000000000017
   0.0000000000000000    0.0000000000000000   33.9799999999999969
H O
6 4
direct
   0.6659094706108685    0.0733957604842571    0.5717625329168685 H
   0.6728504524158477    0.1001200923255284    0.6674371076647919 H
   0.6773237090058584    0.1121445139455038    0.6148011829187418 H
   0.6329015965391961    0.9318844901145487    0.6077901227479343 H
   0.6415726289753473    0.9487676418543483    0.6790542616266997 H
   0.6477723269284464    0.6219780539041653    0.6342100565222577 H
   0.6590633333333333    0.0522950000000000    0.5930050000000000 O
   0.6638299999999999    0.0705550000000000    0.6566700000000000 O
   0.6321633333333333    0.9662350000000000    0.6118399999999999 O
   0.6400066666666666    0.9833050000000000    0.6768100000000000 O
