H8 C24 N8
1.0
  25.0979999999999990    0.0000000000000000    0.0000000000000015
   0.0004006228764851   22.9539999965039065    0.0000000000000014
   0.0000000000000000    0.0000000000000000   29.6799999999999997
H C N
8 24 8
direct
   0.1051200000000000    0.3432200000000000    0.4232550000000000 H
   0.0345600000000000    0.4167700000000000    0.4251350000000000 H
   0.9646200000000000    0.5887400000000000    0.4291600000000000 H
   0.8941250000000001    0.6624100000000001    0.4312000000000000 H
   0.0354000000000000    0.4112700000000000    0.5708350000000000 H
   0.1058950000000000    0.3376000000000000    0.5687550000000000 H
   0.8949000000000000    0.6567900000000000    0.5767400000000000 H
   0.9654600000000000    0.5832400000000000    0.5748600000000000 H
   0.0467800000000000    0.5395000000000000    0.4603650000000000 C
   0.0900650000000000    0.3581100000000000    0.4557100000000000 C
   0.1111250000000000    0.3345500000000000    0.4958650000000000 C
   0.1728100000000000    0.2685100000000000    0.4545900000000000 C
   0.1525000000000000    0.2900100000000000    0.4948500000000000 C
   0.0499950000000000    0.3997000000000000    0.4568150000000000 C
   0.0296700000000000    0.4193700000000000    0.4981450000000000 C
   0.8268400000000000    0.7332400000000000    0.4656250000000000 C
   0.9095050000000000    0.6449800000000000    0.4628150000000000 C
   0.9495199999999999    0.6033800000000000    0.4616700000000000 C
   0.9869300000000000    0.4664500000000000    0.4994700000000000 C
   0.9521700000000000    0.4630800000000000    0.4598050000000000 C
   0.0130900000000000    0.5335600000000000    0.5005250000000000 C
   0.0478500000000000    0.5369300000000000    0.5401899999999999 C
   0.1731800000000000    0.2667700000000000    0.5343700000000000 C
   0.0905150000000000    0.3550300000000000    0.5371800000000000 C
   0.0505000000000000    0.3966300000000000    0.5383249999999999 C
   0.9099550000000001    0.6419000000000000    0.5442850000000000 C
   0.8888950000000000    0.6654600000000001    0.5041300000000000 C
   0.8272100000000000    0.7315000000000000    0.5454000000000000 C
   0.8475200000000001    0.7100000000000000    0.5051450000000000 C
   0.9500250000000000    0.6003100000000000    0.5431800000000000 C
   0.9703500000000000    0.5806400000000000    0.5018500000000000 C
   0.9532400000000000    0.4605200000000000    0.5396350000000000 C
   0.0727350000000000    0.5453000000000000    0.4281100000000000 N
   0.1889750000000000    0.2500400000000000    0.4202000000000000 N
   0.8106650000000000    0.7527600000000000    0.4315850000000000 N
   0.9253300000000000    0.4592700000000000    0.4279000000000000 N
   0.0746950000000000    0.5407500000000000    0.5720950000000000 N
   0.1893550000000000    0.2472600000000000    0.5684100000000000 N
   0.8110450000000000    0.7499700000000000    0.5797950000000001 N
   0.9272850000000000    0.4547100000000000    0.5718500000000000 N
