H8 C10 N2
1.0
  25.0979999999999990    0.0000000000000000    0.0000000000000015
   0.0004006228764851   22.9539999965039065    0.0000000000000014
   0.0000000000000000    0.0000000000000000   29.6799999999999997
H C N
8 10 2
direct
   0.3321400000000000    0.9586200000000000    0.8961250000000001 H
   0.3280400000000000    0.8507600000000000    0.8990750000000001 H
   0.1697850000000000    0.8486600000000000    0.8603950000000000 H
   0.1654900000000000    0.9565000000000000    0.8568450000000001 H
   0.3321350000000000    0.0413900000000000    0.8538700000000000 H
   0.3280400000000000    0.1492500000000000    0.8509200000000000 H
   0.1697850000000000    0.1513500000000000    0.8895999999999999 H
   0.1654850000000000    0.0435200000000000    0.8931500000000000 H
   0.2931900000000000    0.8761900000000000    0.8894050000000000 C
   0.2949800000000000    0.9366400000000000    0.8876950000000000 C
   0.2488250000000000    0.9678200000000000    0.8761000000000000 C
   0.2026550000000000    0.9355000000000000    0.8666000000000000 C
   0.2045550000000000    0.8750599999999999    0.8686100000000000 C
   0.2931900000000000    0.1238200000000000    0.8605950000000000 C
   0.2949800000000000    0.0633700000000000    0.8623000000000001 C
   0.2488200000000000    0.0321900000000000    0.8738950000000000 C
   0.2026500000000000    0.0645200000000000    0.8833800000000001 C
   0.2045550000000000    0.1249600000000000    0.8813850000000000 C
   0.2489200000000000    0.8453400000000000    0.8798400000000000 N
   0.2489150000000000    0.1546700000000000    0.8701449999999999 N
