H4 O2
1.0
  25.0979999999999990    0.0000000000000000    0.0000000000000015
   0.0004006228764851   22.9539999965039065    0.0000000000000014
   0.0000000000000000    0.0000000000000000   29.6799999999999997
H O
4 2
direct
   0.2167065605134882    0.8669197006996310    0.8716858937127572 H
   0.2810616985087947    0.8677382696859344    0.8867845526595125 H
   0.2167021614900184    0.1330955312864844    0.8783071349155138 H
   0.2810605820279883    0.1322715537986801    0.8632112832666903 H
   0.2489200000000000    0.8453400000000000    0.8798400000000000 O
   0.2489150000000000    0.1546700000000000    0.8701449999999999 O
