C1 S1 N1
1.0
  21.6439964100356761    0.0000000000000000    0.0124660483997333
  -0.0651044051513602   13.8293471781141868   -0.1175501748834064
   0.0000000000000000    0.0000000000000000   13.6899999999999995
C S N
1 1 1
direct
   0.7632400000000000    0.2063200000000000    0.6287900000000000 C
   0.8395500000000000    0.2025900000000000    0.6217400000000000 S
   0.7086300000000000    0.2096700000000000    0.6320000000000000 N
