H8 O4
1.0
  21.6439964100356761    0.0000000000000000    0.0124660483997333
  -0.0651044051513602   13.8293471781141868   -0.1175501748834064
   0.0000000000000000    0.0000000000000000   13.6899999999999995
H O
8 4
direct
   0.5379961031017378    0.3080876135586249    0.9911525361248031 H
   0.5898263847687694    0.3986305391810883    0.9849569472217581 H
   0.5884254071514540    0.1017594455203781    0.5116988651405081 H
   0.5379690015488355    0.1935345279252369    0.5062937850792349 H
   0.1599527893709668    0.9821938318453798    0.0990077632940245 H
   0.2112506732669343    0.9916503024939264    0.1906661015399315 H
   0.1587055965604737    0.5179988239202488    0.3999223151065481 H
   0.2108642512691090    0.5114405390556899    0.3092373793909264 H
   0.5737000000000000    0.3374600000000000    0.9588400000000000 O
   0.5733100000000000    0.1632100000000000    0.5381400000000000 O
   0.1762600000000000    0.9576500000000000    0.1606200000000000 O
   0.1752800000000000    0.5437700000000000    0.3388800000000000 O
