H6 O4
1.0
  28.0955697925534302    0.0000000000000000   -0.9609901309374602
  -0.7005738146549603   17.6117006678425803   -3.2069332572620004
   0.0000000000000000    0.0000000000000000   35.8340000000000032
H O
6 4
direct
   0.4094658319592728    0.5656080150068292    0.4296311835269006 H
   0.2673239059031747    0.5475734969384589    0.4223617014922424 H
   0.3377140572579334    0.5571932295484625    0.4299580075964008 H
   0.4124683682816072    0.5391036623394049    0.7888364758186885 H
   0.2704101643798963    0.5182960124700691    0.7811572329376287 H
   0.3407720712742127    0.5277009307709922    0.7810070390314922 H
   0.3791850000000000    0.5595800000000000    0.4154000000000000 O
   0.2983650000000000    0.5493600000000000    0.4114650000000000 O
   0.3814950000000000    0.5374600000000000    0.7998550000000000 O
   0.3008050000000000    0.5255800000000000    0.7952250000000001 O
