H4 O2
1.0
  28.0955697925534302    0.0000000000000000   -0.9609901309374602
  -0.7005738146549603   17.6117006678425803   -3.2069332572620004
   0.0000000000000000    0.0000000000000000   35.8340000000000032
H O
4 2
direct
   0.0164709878817515    0.2862680794830194    0.7491283450603438 H
   0.0143373835409512    0.2822800423073348    0.7018193307490622 H
   0.7969368035527449    0.2637885826581846    0.7078023863343238 H
   0.8020991205366819    0.3287139366992842    0.7481161888497313 H
   0.0331450000000000    0.2833900000000000    0.7254150000000000 O
   0.7818050000000001    0.2966400000000000    0.7284650000000000 O
