H6 O4
1.0
  38.1215954803556940    0.0000000000000000   -0.0185631927343691
  19.0034161033409461   33.2917715463566708   -0.1538821252721133
   0.0000000000000000    0.0000000000000000   18.4460000000000015
H O
6 4
direct
   0.4958634488526397    0.1888544860143458    0.7372346672983577 H
   0.5636132252064957    0.0755210013697438    0.6598730087977047 H
   0.5307073673817058    0.1301346043309560    0.6927125193472612 H
   0.4049194900393760    0.2311314748502603    0.5238018118804604 H
   0.4295295084569892    0.1609654041381034    0.4850548070943616 H
   0.5992268471882916    0.2063864040270926    0.5011162884414285 H
   0.5142500000000000    0.1600966666666667    0.7381500000000000 O
   0.5513466666666667    0.0978533333333333    0.6937400000000000 O
   0.3823233333333333    0.2261800000000000    0.5222500000000000 O
   0.4029966666666667    0.1633866666666667    0.4876400000000000 O
