H14 C10 O4
1.0
  38.1215954803556940    0.0000000000000000   -0.0185631927343691
  19.0034161033409461   33.2917715463566708   -0.1538821252721133
   0.0000000000000000    0.0000000000000000   18.4460000000000015
H C O
14 10 4
direct
   0.5349133333333334    0.1317533333333333    0.5715600000000000 H
   0.4941633333333333    0.2109733333333333    0.6485400000000000 H
   0.5238833333333333    0.1969466666666667    0.5691200000000000 H
   0.4618599999999999    0.2309933333333333    0.5041400000000000 H
   0.4339366666666666    0.2344800000000000    0.5826800000000000 H
   0.4669633333333333    0.1837000000000000    0.4104600000000000 H
   0.4758033333333333    0.1351566666666666    0.4339100000000000 H
   0.5107999999999999    0.1511600000000000    0.4601900000000000 H
   0.4958600000000000    0.0855466666666667    0.6186199999999999 H
   0.5067199999999999    0.0921300000000000    0.5277100000000000 H
   0.4569133333333333    0.1035500000000000    0.5517600000000000 H
   0.4549799999999999    0.1425733333333333    0.7000600000000000 H
   0.4147166666666666    0.1615600000000000    0.6367600000000000 H
   0.4333899999999999    0.1929033333333333    0.6705800000000000 H
   0.4549833333333333    0.1784033333333333    0.5241200000000000 C
   0.4725500000000000    0.1477833333333333    0.5898200000000000 C
   0.5109033333333333    0.1510000000000000    0.6095100000000000 C
   0.4991866666666667    0.1952666666666666    0.5964800000000000 C
   0.4602900000000000    0.2137866666666667    0.5502700000000000 C
   0.4786700000000000    0.1607200000000000    0.4531300000000000 C
   0.4836633333333333    0.1046866666666667    0.5705200000000000 C
   0.4420633333333333    0.1622933333333333    0.6529199999999999 C
   0.4110733333333333    0.1898866666666667    0.5101300000000000 C
   0.5269699999999999    0.1348100000000000    0.6846900000000000 C
   0.3823233333333333    0.2261800000000000    0.5222500000000000 O
   0.4029966666666667    0.1633866666666667    0.4876400000000000 O
   0.5142500000000000    0.1600966666666667    0.7381500000000000 O
   0.5513466666666667    0.0978533333333333    0.6937400000000000 O
