In27 H742 C530 O212
1.0
  38.1215954803556940    0.0000000000000000   -0.0185631927343691
  19.0034161033409461   33.2917715463566708   -0.1538821252721133
   0.0000000000000000    0.0000000000000000   18.4460000000000015
In H C O
27 742 530 212
direct
   0.1232933333333333    0.3333100000000000    0.1660500000000000 In
   0.2100766666666666    0.1230900000000000    0.8338500000000000 In
   0.3331333333333333    0.2101633333333333    0.4998700000000000 In
   0.4566266666666666    0.3333100000000000    0.1660500000000000 In
   0.5434099999999999    0.1230900000000000    0.8338500000000000 In
   0.6664666666666665    0.2101633333333333    0.4998700000000000 In
   0.7899600000000000    0.3333100000000000    0.1660500000000000 In
   0.8767433333333332    0.1230900000000000    0.8338500000000000 In
   0.9997999999999999    0.2101633333333333    0.4998700000000000 In
   0.1232933333333333    0.6666433333333333    0.1660500000000000 In
   0.2100766666666666    0.4564233333333333    0.8338500000000000 In
   0.3331333333333333    0.5434966666666666    0.4998700000000000 In
   0.4566266666666666    0.6666433333333333    0.1660500000000000 In
   0.5434099999999999    0.4564233333333333    0.8338500000000000 In
   0.6664666666666665    0.5434966666666666    0.4998700000000000 In
   0.7899600000000000    0.6666433333333333    0.1660500000000000 In
   0.8767433333333332    0.4564233333333333    0.8338500000000000 In
   0.9997999999999999    0.5434966666666666    0.4998700000000000 In
   0.1232933333333333    0.9999766666666666    0.1660500000000000 In
   0.2100766666666666    0.7897566666666667    0.8338500000000000 In
   0.3331333333333333    0.8768300000000000    0.4998700000000000 In
   0.4566266666666666    0.9999766666666666    0.1660500000000000 In
   0.5434099999999999    0.7897566666666667    0.8338500000000000 In
   0.6664666666666665    0.8768300000000000    0.4998700000000000 In
   0.7899600000000000    0.9999766666666666    0.1660500000000000 In
   0.8767433333333332    0.7897566666666667    0.8338500000000000 In
   0.9997999999999999    0.8768300000000000    0.4998700000000000 In
   0.1318233333333333    0.3328933333333333    0.4284600000000000 H
   0.1737700000000000    0.0380433333333333    0.3529300000000000 H
   0.1439100000000000    0.0537000000000000    0.4321700000000000 H
   0.2058000000000000    0.0255733333333333    0.4977600000000000 H
   0.2337200000000000    0.0013933333333333    0.4191100000000000 H
   0.1997633333333333    0.3168700000000000    0.5900900000000000 H
   0.1902200000000000    0.2775833333333333    0.5652600000000000 H
   0.1558433333333333    0.3283033333333333    0.5397800000000000 H
   0.1697800000000000    0.2487500000000000    0.3793500000000000 H
   0.1588633333333333    0.2660000000000000    0.4704600000000000 H
   0.2085000000000000    0.2277766666666667    0.4465300000000000 H
   0.2112500000000000    0.2649233333333333    0.2991000000000000 H
   0.2514733333333333    0.2434533333333333    0.3624200000000000 H
   0.2335733333333333    0.2931933333333333    0.3298600000000000 H
   0.2019000000000000    0.1323766666666666    0.0967700000000000 H
   0.1218866666666667    0.1724100000000000    0.0201700000000000 H
   0.1357766666666667    0.1435833333333333    0.1001500000000000 H
   0.1015100000000000    0.2058966666666666    0.1639700000000000 H
   0.0983600000000000    0.2328900000000000    0.0847500000000000 H
   0.1490900000000000    0.2012500000000000    0.2570100000000000 H
   0.1980066666666667    0.1920533333333333    0.2328800000000000 H
   0.1817433333333333    0.1572200000000000    0.2077000000000000 H
   0.2481800000000000    0.1705300000000000    0.0478100000000000 H
   0.2413900000000000    0.1605100000000000    0.1390900000000000 H
   0.2301200000000000    0.2097966666666667    0.1140400000000000 H
   0.1910733333333333    0.2106866666666666    0.9664700000000001 H
   0.1719666666666667    0.2512300000000000    0.0291200000000000 H
   0.1403866666666667    0.2325433333333333    0.0000000000000000 H
   0.0000000000000000    0.2017900000000000    0.7624300000000001 H
   0.0384100000000000    0.1226300000000000    0.6857300000000000 H
   0.0539766666666667    0.1368533333333333    0.7651600000000000 H
   0.0260733333333333    0.1026333333333333    0.8300800000000000 H
   0.0016633333333333    0.0990633333333333    0.7514999999999999 H
   0.3173366666666667    0.1500833333333333    0.9236100000000000 H
   0.2776433333333333    0.1985233333333333    0.8999500000000000 H
   0.3285366666666666    0.1826633333333333    0.8736200000000000 H
   0.2480800000000000    0.2478133333333333    0.7149799999999999 H
   0.2654700000000000    0.2414333333333333    0.8059100000000000 H
   0.2271700000000000    0.2298033333333333    0.7819300000000000 H
   0.2643166666666666    0.1906200000000000    0.6338300000000000 H
   0.2430566666666666    0.1716233333333333    0.6972000000000000 H
   0.2930199999999999    0.1403466666666667    0.6635700000000000 H
   0.2015800000000000    0.1317533333333333    0.5715600000000000 H
   0.1608300000000000    0.2109733333333333    0.6485400000000000 H
   0.1905500000000000    0.1969466666666667    0.5691200000000000 H
   0.1285266666666667    0.2309933333333333    0.5041400000000000 H
   0.1006033333333333    0.2344800000000000    0.5826800000000000 H
   0.1336300000000000    0.1837000000000000    0.4104600000000000 H
   0.1424700000000000    0.1351566666666666    0.4339100000000000 H
   0.1774666666666667    0.1511600000000000    0.4601900000000000 H
   0.1625266666666667    0.0855466666666667    0.6186199999999999 H
   0.1733866666666666    0.0921300000000000    0.5277100000000000 H
   0.1235800000000000    0.1035500000000000    0.5517600000000000 H
   0.1216466666666667    0.1425733333333333    0.7000600000000000 H
   0.0813833333333333    0.1615600000000000    0.6367600000000000 H
   0.1000566666666667    0.1929033333333333    0.6705800000000000 H
   0.1311233333333333    0.0002566666666667    0.9036600000000000 H
   0.2114233333333333    0.2949633333333333    0.9793300000000000 H
   0.1971900000000000    0.2794133333333333    0.8999000000000000 H
   0.2311333333333333    0.3075566666666666    0.8347300000000000 H
   0.2349700000000000    0.3315866666666666    0.9136000000000000 H
   0.1834233333333333    0.0164500000000000    0.7423600000000000 H
   0.1346966666666667    0.0557533333333333    0.7670200000000000 H
   0.1507700000000000    0.0050133333333333    0.7921600000000000 H
   0.0852300000000000    0.0843600000000000    0.9526400000000000 H
   0.0916400000000000    0.0671100000000000    0.8615000000000000 H
   0.1031533333333333    0.1053200000000000    0.8857000000000000 H
   0.1427233333333333    0.0681633333333333    0.0333100000000000 H
   0.1615766666666666    0.0896600000000000    0.9702200000000000 H
   0.1932666666666666    0.0399166666666667    0.0027800000000000 H
   0.0011100000000000    0.2006233333333333    0.2372600000000000 H
   0.2948166666666666    0.1599566666666667    0.3132700000000000 H
   0.2796633333333333    0.1891466666666667    0.2337200000000000 H
   0.3076966666666666    0.1271466666666667    0.1688900000000000 H
   0.3316733333333333    0.0998200000000000    0.2477300000000000 H
   0.0170566666666667    0.1324600000000000    0.0761800000000000 H
   0.0566833333333333    0.1417733333333333    0.1007100000000000 H
   0.0056733333333333    0.1763100000000000    0.1262200000000000 H
   0.0855233333333333    0.1625633333333333    0.2863700000000000 H
   0.0686466666666667    0.1729033333333333    0.1951500000000000 H
   0.1066566666666666    0.1235733333333333    0.2196300000000000 H
   0.0685866666666667    0.1220033333333333    0.3669700000000000 H
   0.0900366666666667    0.0816733333333333    0.3038500000000000 H
   0.0398533333333333    0.1000800000000000    0.3365300000000000 H
   0.4651566666666667    0.3328933333333333    0.4284600000000000 H
   0.5071033333333334    0.0380433333333333    0.3529300000000000 H
   0.4772433333333333    0.0537000000000000    0.4321700000000000 H
   0.5391333333333332    0.0255733333333333    0.4977600000000000 H
   0.5670533333333333    0.0013933333333333    0.4191100000000000 H
   0.5330966666666667    0.3168700000000000    0.5900900000000000 H
   0.5235533333333333    0.2775833333333333    0.5652600000000000 H
   0.4891766666666666    0.3283033333333333    0.5397800000000000 H
   0.5031133333333333    0.2487500000000000    0.3793500000000000 H
   0.4921966666666666    0.2660000000000000    0.4704600000000000 H
   0.5418333333333333    0.2277766666666667    0.4465300000000000 H
   0.5445833333333333    0.2649233333333333    0.2991000000000000 H
   0.5848066666666667    0.2434533333333333    0.3624200000000000 H
   0.5669066666666667    0.2931933333333333    0.3298600000000000 H
   0.5352333333333333    0.1323766666666666    0.0967700000000000 H
   0.4552200000000000    0.1724100000000000    0.0201700000000000 H
   0.4691100000000000    0.1435833333333333    0.1001500000000000 H
   0.4348433333333333    0.2058966666666666    0.1639700000000000 H
   0.4316933333333333    0.2328900000000000    0.0847500000000000 H
   0.4824233333333333    0.2012500000000000    0.2570100000000000 H
   0.5313399999999999    0.1920533333333333    0.2328800000000000 H
   0.5150766666666666    0.1572200000000000    0.2077000000000000 H
   0.5815133333333333    0.1705300000000000    0.0478100000000000 H
   0.5747233333333333    0.1605100000000000    0.1390900000000000 H
   0.5634533333333334    0.2097966666666667    0.1140400000000000 H
   0.5244066666666667    0.2106866666666666    0.9664700000000001 H
   0.5053000000000000    0.2512300000000000    0.0291200000000000 H
   0.4737200000000000    0.2325433333333333    0.0000000000000000 H
   0.3333333333333333    0.2017900000000000    0.7624300000000001 H
   0.3717433333333333    0.1226300000000000    0.6857300000000000 H
   0.3873100000000000    0.1368533333333333    0.7651600000000000 H
   0.3594066666666667    0.1026333333333333    0.8300800000000000 H
   0.3349966666666667    0.0990633333333333    0.7514999999999999 H
   0.6506700000000000    0.1500833333333333    0.9236100000000000 H
   0.6109766666666666    0.1985233333333333    0.8999500000000000 H
   0.6618700000000000    0.1826633333333333    0.8736200000000000 H
   0.5814133333333333    0.2478133333333333    0.7149799999999999 H
   0.5988033333333334    0.2414333333333333    0.8059100000000000 H
   0.5605033333333334    0.2298033333333333    0.7819300000000000 H
   0.5976500000000000    0.1906200000000000    0.6338300000000000 H
   0.5763900000000000    0.1716233333333333    0.6972000000000000 H
   0.6263533333333333    0.1403466666666667    0.6635700000000000 H
   0.4644566666666666    0.0002566666666667    0.9036600000000000 H
   0.5447566666666667    0.2949633333333333    0.9793300000000000 H
   0.5305233333333333    0.2794133333333333    0.8999000000000000 H
   0.5644666666666667    0.3075566666666666    0.8347300000000000 H
   0.5683033333333334    0.3315866666666666    0.9136000000000000 H
   0.5167566666666666    0.0164500000000000    0.7423600000000000 H
   0.4680299999999999    0.0557533333333333    0.7670200000000000 H
   0.4841033333333333    0.0050133333333333    0.7921600000000000 H
   0.4185633333333333    0.0843600000000000    0.9526400000000000 H
   0.4249733333333333    0.0671100000000000    0.8615000000000000 H
   0.4364866666666666    0.1053200000000000    0.8857000000000000 H
   0.4760566666666666    0.0681633333333333    0.0333100000000000 H
   0.4949100000000000    0.0896600000000000    0.9702200000000000 H
   0.5266000000000000    0.0399166666666667    0.0027800000000000 H
   0.3344433333333333    0.2006233333333333    0.2372600000000000 H
   0.6281500000000000    0.1599566666666667    0.3132700000000000 H
   0.6129966666666666    0.1891466666666667    0.2337200000000000 H
   0.6410300000000000    0.1271466666666667    0.1688900000000000 H
   0.6650066666666666    0.0998200000000000    0.2477300000000000 H
   0.3503900000000000    0.1324600000000000    0.0761800000000000 H
   0.3900166666666667    0.1417733333333333    0.1007100000000000 H
   0.3390066666666666    0.1763100000000000    0.1262200000000000 H
   0.4188566666666667    0.1625633333333333    0.2863700000000000 H
   0.4019800000000000    0.1729033333333333    0.1951500000000000 H
   0.4399900000000000    0.1235733333333333    0.2196300000000000 H
   0.4019199999999999    0.1220033333333333    0.3669700000000000 H
   0.4233700000000000    0.0816733333333333    0.3038500000000000 H
   0.3731866666666667    0.1000800000000000    0.3365300000000000 H
   0.7984899999999999    0.3328933333333333    0.4284600000000000 H
   0.8404366666666666    0.0380433333333333    0.3529300000000000 H
   0.8105766666666666    0.0537000000000000    0.4321700000000000 H
   0.8724666666666666    0.0255733333333333    0.4977600000000000 H
   0.9003866666666667    0.0013933333333333    0.4191100000000000 H
   0.8664299999999999    0.3168700000000000    0.5900900000000000 H
   0.8568866666666666    0.2775833333333333    0.5652600000000000 H
   0.8225100000000000    0.3283033333333333    0.5397800000000000 H
   0.8364466666666666    0.2487500000000000    0.3793500000000000 H
   0.8255300000000000    0.2660000000000000    0.4704600000000000 H
   0.8751666666666666    0.2277766666666667    0.4465300000000000 H
   0.8779166666666667    0.2649233333333333    0.2991000000000000 H
   0.9181400000000000    0.2434533333333333    0.3624200000000000 H
   0.9002399999999999    0.2931933333333333    0.3298600000000000 H
   0.8685666666666666    0.1323766666666666    0.0967700000000000 H
   0.7885533333333333    0.1724100000000000    0.0201700000000000 H
   0.8024433333333333    0.1435833333333333    0.1001500000000000 H
   0.7681766666666666    0.2058966666666666    0.1639700000000000 H
   0.7650266666666666    0.2328900000000000    0.0847500000000000 H
   0.8157566666666667    0.2012500000000000    0.2570100000000000 H
   0.8646733333333333    0.1920533333333333    0.2328800000000000 H
   0.8484099999999999    0.1572200000000000    0.2077000000000000 H
   0.9148466666666666    0.1705300000000000    0.0478100000000000 H
   0.9080566666666666    0.1605100000000000    0.1390900000000000 H
   0.8967866666666666    0.2097966666666667    0.1140400000000000 H
   0.8577399999999999    0.2106866666666666    0.9664700000000001 H
   0.8386333333333333    0.2512300000000000    0.0291200000000000 H
   0.8070533333333333    0.2325433333333333    0.0000000000000000 H
   0.6666666666666666    0.2017900000000000    0.7624300000000001 H
   0.7050766666666666    0.1226300000000000    0.6857300000000000 H
   0.7206433333333333    0.1368533333333333    0.7651600000000000 H
   0.6927399999999999    0.1026333333333333    0.8300800000000000 H
   0.6683300000000000    0.0990633333333333    0.7514999999999999 H
   0.9840033333333333    0.1500833333333333    0.9236100000000000 H
   0.9443100000000000    0.1985233333333333    0.8999500000000000 H
   0.9952033333333332    0.1826633333333333    0.8736200000000000 H
   0.9147466666666666    0.2478133333333333    0.7149799999999999 H
   0.9321366666666666    0.2414333333333333    0.8059100000000000 H
   0.8938366666666666    0.2298033333333333    0.7819300000000000 H
   0.9309833333333333    0.1906200000000000    0.6338300000000000 H
   0.9097233333333332    0.1716233333333333    0.6972000000000000 H
   0.9596866666666666    0.1403466666666667    0.6635700000000000 H
   0.8682466666666666    0.1317533333333333    0.5715600000000000 H
   0.8274966666666665    0.2109733333333333    0.6485400000000000 H
   0.8572166666666666    0.1969466666666667    0.5691200000000000 H
   0.7951933333333333    0.2309933333333333    0.5041400000000000 H
   0.7672700000000000    0.2344800000000000    0.5826800000000000 H
   0.8002966666666667    0.1837000000000000    0.4104600000000000 H
   0.8091366666666666    0.1351566666666666    0.4339100000000000 H
   0.8441333333333333    0.1511600000000000    0.4601900000000000 H
   0.8291933333333332    0.0855466666666667    0.6186199999999999 H
   0.8400533333333333    0.0921300000000000    0.5277100000000000 H
   0.7902466666666667    0.1035500000000000    0.5517600000000000 H
   0.7883133333333333    0.1425733333333333    0.7000600000000000 H
   0.7480500000000000    0.1615600000000000    0.6367600000000000 H
   0.7667233333333333    0.1929033333333333    0.6705800000000000 H
   0.7977900000000000    0.0002566666666667    0.9036600000000000 H
   0.8780899999999999    0.2949633333333333    0.9793300000000000 H
   0.8638566666666666    0.2794133333333333    0.8999000000000000 H
   0.8977999999999999    0.3075566666666666    0.8347300000000000 H
   0.9016366666666666    0.3315866666666666    0.9136000000000000 H
   0.8500900000000000    0.0164500000000000    0.7423600000000000 H
   0.8013633333333333    0.0557533333333333    0.7670200000000000 H
   0.8174366666666666    0.0050133333333333    0.7921600000000000 H
   0.7518966666666667    0.0843600000000000    0.9526400000000000 H
   0.7583066666666667    0.0671100000000000    0.8615000000000000 H
   0.7698199999999999    0.1053200000000000    0.8857000000000000 H
   0.8093899999999999    0.0681633333333333    0.0333100000000000 H
   0.8282433333333332    0.0896600000000000    0.9702200000000000 H
   0.8599333333333332    0.0399166666666667    0.0027800000000000 H
   0.6677766666666667    0.2006233333333333    0.2372600000000000 H
   0.9614833333333332    0.1599566666666667    0.3132700000000000 H
   0.9463299999999999    0.1891466666666667    0.2337200000000000 H
   0.9743633333333332    0.1271466666666667    0.1688900000000000 H
   0.9983400000000000    0.0998200000000000    0.2477300000000000 H
   0.6837233333333332    0.1324600000000000    0.0761800000000000 H
   0.7233499999999999    0.1417733333333333    0.1007100000000000 H
   0.6723399999999999    0.1763100000000000    0.1262200000000000 H
   0.7521899999999999    0.1625633333333333    0.2863700000000000 H
   0.7353133333333333    0.1729033333333333    0.1951500000000000 H
   0.7733233333333333    0.1235733333333333    0.2196300000000000 H
   0.7352533333333333    0.1220033333333333    0.3669700000000000 H
   0.7567033333333333    0.0816733333333333    0.3038500000000000 H
   0.7065199999999999    0.1000800000000000    0.3365300000000000 H
   0.1318233333333333    0.6662266666666666    0.4284600000000000 H
   0.1737700000000000    0.3713766666666666    0.3529300000000000 H
   0.1439100000000000    0.3870333333333333    0.4321700000000000 H
   0.2058000000000000    0.3589066666666667    0.4977600000000000 H
   0.2337200000000000    0.3347266666666667    0.4191100000000000 H
   0.1997633333333333    0.6502033333333332    0.5900900000000000 H
   0.1902200000000000    0.6109166666666666    0.5652600000000000 H
   0.1558433333333333    0.6616366666666667    0.5397800000000000 H
   0.1697800000000000    0.5820833333333333    0.3793500000000000 H
   0.1588633333333333    0.5993333333333333    0.4704600000000000 H
   0.2085000000000000    0.5611100000000000    0.4465300000000000 H
   0.2112500000000000    0.5982566666666667    0.2991000000000000 H
   0.2514733333333333    0.5767866666666667    0.3624200000000000 H
   0.2335733333333333    0.6265266666666667    0.3298600000000000 H
   0.2019000000000000    0.4657100000000000    0.0967700000000000 H
   0.1218866666666667    0.5057433333333333    0.0201700000000000 H
   0.1357766666666667    0.4769166666666667    0.1001500000000000 H
   0.1015100000000000    0.5392300000000000    0.1639700000000000 H
   0.0983600000000000    0.5662233333333333    0.0847500000000000 H
   0.1490900000000000    0.5345833333333333    0.2570100000000000 H
   0.1980066666666667    0.5253866666666667    0.2328800000000000 H
   0.1817433333333333    0.4905533333333333    0.2077000000000000 H
   0.2481800000000000    0.5038633333333333    0.0478100000000000 H
   0.2413900000000000    0.4938433333333333    0.1390900000000000 H
   0.2301200000000000    0.5431300000000000    0.1140400000000000 H
   0.1910733333333333    0.5440199999999999    0.9664700000000001 H
   0.1719666666666667    0.5845633333333333    0.0291200000000000 H
   0.1403866666666667    0.5658766666666666    0.0000000000000000 H
   0.0000000000000000    0.5351233333333333    0.7624300000000001 H
   0.0384100000000000    0.4559633333333333    0.6857300000000000 H
   0.0539766666666667    0.4701866666666666    0.7651600000000000 H
   0.0260733333333333    0.4359666666666666    0.8300800000000000 H
   0.0016633333333333    0.4323966666666667    0.7514999999999999 H
   0.3173366666666667    0.4834166666666666    0.9236100000000000 H
   0.2776433333333333    0.5318566666666666    0.8999500000000000 H
   0.3285366666666666    0.5159966666666667    0.8736200000000000 H
   0.2480800000000000    0.5811466666666667    0.7149799999999999 H
   0.2654700000000000    0.5747666666666666    0.8059100000000000 H
   0.2271700000000000    0.5631366666666666    0.7819300000000000 H
   0.2643166666666666    0.5239533333333333    0.6338300000000000 H
   0.2430566666666666    0.5049566666666667    0.6972000000000000 H
   0.2930199999999999    0.4736800000000000    0.6635700000000000 H
   0.2015800000000000    0.4650866666666666    0.5715600000000000 H
   0.1608300000000000    0.5443066666666667    0.6485400000000000 H
   0.1905500000000000    0.5302800000000000    0.5691200000000000 H
   0.1285266666666667    0.5643266666666666    0.5041400000000000 H
   0.1006033333333333    0.5678133333333333    0.5826800000000000 H
   0.1336300000000000    0.5170333333333333    0.4104600000000000 H
   0.1424700000000000    0.4684900000000000    0.4339100000000000 H
   0.1774666666666667    0.4844933333333333    0.4601900000000000 H
   0.1625266666666667    0.4188800000000000    0.6186199999999999 H
   0.1733866666666666    0.4254633333333333    0.5277100000000000 H
   0.1235800000000000    0.4368833333333333    0.5517600000000000 H
   0.1216466666666667    0.4759066666666666    0.7000600000000000 H
   0.0813833333333333    0.4948933333333333    0.6367600000000000 H
   0.1000566666666667    0.5262366666666667    0.6705800000000000 H
   0.1311233333333333    0.3335900000000000    0.9036600000000000 H
   0.2114233333333333    0.6282966666666666    0.9793300000000000 H
   0.1971900000000000    0.6127466666666666    0.8999000000000000 H
   0.2311333333333333    0.6408900000000000    0.8347300000000000 H
   0.2349700000000000    0.6649200000000000    0.9136000000000000 H
   0.1834233333333333    0.3497833333333333    0.7423600000000000 H
   0.1346966666666667    0.3890866666666666    0.7670200000000000 H
   0.1507700000000000    0.3383466666666666    0.7921600000000000 H
   0.0852300000000000    0.4176933333333333    0.9526400000000000 H
   0.0916400000000000    0.4004433333333333    0.8615000000000000 H
   0.1031533333333333    0.4386533333333333    0.8857000000000000 H
   0.1427233333333333    0.4014966666666666    0.0333100000000000 H
   0.1615766666666666    0.4229933333333333    0.9702200000000000 H
   0.1932666666666666    0.3732500000000000    0.0027800000000000 H
   0.0011100000000000    0.5339566666666666    0.2372600000000000 H
   0.2948166666666666    0.4932900000000000    0.3132700000000000 H
   0.2796633333333333    0.5224800000000001    0.2337200000000000 H
   0.3076966666666666    0.4604800000000000    0.1688900000000000 H
   0.3316733333333333    0.4331533333333333    0.2477300000000000 H
   0.0170566666666667    0.4657933333333333    0.0761800000000000 H
   0.0566833333333333    0.4751066666666666    0.1007100000000000 H
   0.0056733333333333    0.5096433333333333    0.1262200000000000 H
   0.0855233333333333    0.4958966666666667    0.2863700000000000 H
   0.0686466666666667    0.5062366666666667    0.1951500000000000 H
   0.1066566666666666    0.4569066666666666    0.2196300000000000 H
   0.0685866666666667    0.4553366666666666    0.3669700000000000 H
   0.0900366666666667    0.4150066666666666    0.3038500000000000 H
   0.0398533333333333    0.4334133333333333    0.3365300000000000 H
   0.4651566666666667    0.6662266666666666    0.4284600000000000 H
   0.5071033333333334    0.3713766666666666    0.3529300000000000 H
   0.4772433333333333    0.3870333333333333    0.4321700000000000 H
   0.5391333333333332    0.3589066666666667    0.4977600000000000 H
   0.5670533333333333    0.3347266666666667    0.4191100000000000 H
   0.5330966666666667    0.6502033333333332    0.5900900000000000 H
   0.5235533333333333    0.6109166666666666    0.5652600000000000 H
   0.4891766666666666    0.6616366666666667    0.5397800000000000 H
   0.5031133333333333    0.5820833333333333    0.3793500000000000 H
   0.4921966666666666    0.5993333333333333    0.4704600000000000 H
   0.5418333333333333    0.5611100000000000    0.4465300000000000 H
   0.5445833333333333    0.5982566666666667    0.2991000000000000 H
   0.5848066666666667    0.5767866666666667    0.3624200000000000 H
   0.5669066666666667    0.6265266666666667    0.3298600000000000 H
   0.5352333333333333    0.4657100000000000    0.0967700000000000 H
   0.4552200000000000    0.5057433333333333    0.0201700000000000 H
   0.4691100000000000    0.4769166666666667    0.1001500000000000 H
   0.4348433333333333    0.5392300000000000    0.1639700000000000 H
   0.4316933333333333    0.5662233333333333    0.0847500000000000 H
   0.4824233333333333    0.5345833333333333    0.2570100000000000 H
   0.5313399999999999    0.5253866666666667    0.2328800000000000 H
   0.5150766666666666    0.4905533333333333    0.2077000000000000 H
   0.5815133333333333    0.5038633333333333    0.0478100000000000 H
   0.5747233333333333    0.4938433333333333    0.1390900000000000 H
   0.5634533333333334    0.5431300000000000    0.1140400000000000 H
   0.5244066666666667    0.5440199999999999    0.9664700000000001 H
   0.5053000000000000    0.5845633333333333    0.0291200000000000 H
   0.4737200000000000    0.5658766666666666    0.0000000000000000 H
   0.3333333333333333    0.5351233333333333    0.7624300000000001 H
   0.3717433333333333    0.4559633333333333    0.6857300000000000 H
   0.3873100000000000    0.4701866666666666    0.7651600000000000 H
   0.3594066666666667    0.4359666666666666    0.8300800000000000 H
   0.3349966666666667    0.4323966666666667    0.7514999999999999 H
   0.6506700000000000    0.4834166666666666    0.9236100000000000 H
   0.6109766666666666    0.5318566666666666    0.8999500000000000 H
   0.6618700000000000    0.5159966666666667    0.8736200000000000 H
   0.5814133333333333    0.5811466666666667    0.7149799999999999 H
   0.5988033333333334    0.5747666666666666    0.8059100000000000 H
   0.5605033333333334    0.5631366666666666    0.7819300000000000 H
   0.5976500000000000    0.5239533333333333    0.6338300000000000 H
   0.5763900000000000    0.5049566666666667    0.6972000000000000 H
   0.6263533333333333    0.4736800000000000    0.6635700000000000 H
   0.5349133333333334    0.4650866666666666    0.5715600000000000 H
   0.4941633333333333    0.5443066666666667    0.6485400000000000 H
   0.5238833333333333    0.5302800000000000    0.5691200000000000 H
   0.4618599999999999    0.5643266666666666    0.5041400000000000 H
   0.4339366666666666    0.5678133333333333    0.5826800000000000 H
   0.4669633333333333    0.5170333333333333    0.4104600000000000 H
   0.4758033333333333    0.4684900000000000    0.4339100000000000 H
   0.5107999999999999    0.4844933333333333    0.4601900000000000 H
   0.4958600000000000    0.4188800000000000    0.6186199999999999 H
   0.5067199999999999    0.4254633333333333    0.5277100000000000 H
   0.4569133333333333    0.4368833333333333    0.5517600000000000 H
   0.4549799999999999    0.4759066666666666    0.7000600000000000 H
   0.4147166666666666    0.4948933333333333    0.6367600000000000 H
   0.4333899999999999    0.5262366666666667    0.6705800000000000 H
   0.4644566666666666    0.3335900000000000    0.9036600000000000 H
   0.5447566666666667    0.6282966666666666    0.9793300000000000 H
   0.5305233333333333    0.6127466666666666    0.8999000000000000 H
   0.5644666666666667    0.6408900000000000    0.8347300000000000 H
   0.5683033333333334    0.6649200000000000    0.9136000000000000 H
   0.5167566666666666    0.3497833333333333    0.7423600000000000 H
   0.4680299999999999    0.3890866666666666    0.7670200000000000 H
   0.4841033333333333    0.3383466666666666    0.7921600000000000 H
   0.4185633333333333    0.4176933333333333    0.9526400000000000 H
   0.4249733333333333    0.4004433333333333    0.8615000000000000 H
   0.4364866666666666    0.4386533333333333    0.8857000000000000 H
   0.4760566666666666    0.4014966666666666    0.0333100000000000 H
   0.4949100000000000    0.4229933333333333    0.9702200000000000 H
   0.5266000000000000    0.3732500000000000    0.0027800000000000 H
   0.3344433333333333    0.5339566666666666    0.2372600000000000 H
   0.6281500000000000    0.4932900000000000    0.3132700000000000 H
   0.6129966666666666    0.5224800000000001    0.2337200000000000 H
   0.6410300000000000    0.4604800000000000    0.1688900000000000 H
   0.6650066666666666    0.4331533333333333    0.2477300000000000 H
   0.3503900000000000    0.4657933333333333    0.0761800000000000 H
   0.3900166666666667    0.4751066666666666    0.1007100000000000 H
   0.3390066666666666    0.5096433333333333    0.1262200000000000 H
   0.4188566666666667    0.4958966666666667    0.2863700000000000 H
   0.4019800000000000    0.5062366666666667    0.1951500000000000 H
   0.4399900000000000    0.4569066666666666    0.2196300000000000 H
   0.4019199999999999    0.4553366666666666    0.3669700000000000 H
   0.4233700000000000    0.4150066666666666    0.3038500000000000 H
   0.3731866666666667    0.4334133333333333    0.3365300000000000 H
   0.7984899999999999    0.6662266666666666    0.4284600000000000 H
   0.8404366666666666    0.3713766666666666    0.3529300000000000 H
   0.8105766666666666    0.3870333333333333    0.4321700000000000 H
   0.8724666666666666    0.3589066666666667    0.4977600000000000 H