Sc32 H124 C248 O124
1.0
  14.7879997747658809    0.0000000000000000    0.0025809928847464
  -0.0221313665040546   18.1149864119073207   -0.0015808319679862
   0.0000000000000000    0.0000000000000000   38.9720000000000013
Sc H C O
32 124 248 124
direct
   0.3244800000000000    0.7501300000000000    0.2498950000000000 Sc
   0.8244500000000000    0.2501100000000000    0.2498900000000000 Sc
   0.8244700000000000    0.7501100000000001    0.2498750000000000 Sc
   0.0744400000000000    0.2499100000000000    0.2500850000000000 Sc
   0.0744600000000000    0.7499300000000000    0.2501000000000000 Sc
   0.5744200000000000    0.2499300000000000    0.2501050000000000 Sc
   0.5744800000000000    0.7499100000000000    0.2500850000000000 Sc
   0.3242700000000000    0.4999700000000000    0.4998500000000000 Sc
   0.3242800000000000    0.9999700000000000    0.4998400000000000 Sc
   0.8242800000000000    0.4999600000000000    0.4998450000000000 Sc
   0.8242900000000000    0.9999700000000000    0.4998550000000000 Sc
   0.0742900000000000    0.0000600000000000    0.0001200000000000 Sc
   0.0742700000000000    0.5000500000000000    0.0001450000000000 Sc
   0.5742900000000000    0.0000500000000000    0.0001400000000000 Sc
   0.5742800000000000    0.5000599999999999    0.0001250000000000 Sc
   0.3244200000000000    0.2500900000000000    0.2498600000000000 Sc
   0.3244800000000000    0.7501300000000000    0.7498950000000000 Sc
   0.8244500000000000    0.2501100000000000    0.7498899999999999 Sc
   0.8244700000000000    0.7501100000000001    0.7498750000000001 Sc
   0.0744400000000000    0.2499100000000000    0.7500850000000000 Sc
   0.0744600000000000    0.7499300000000000    0.7501000000000000 Sc
   0.5744200000000000    0.2499300000000000    0.7501050000000000 Sc
   0.5744800000000000    0.7499100000000000    0.7500850000000000 Sc
   0.3242700000000000    0.4999700000000000    0.9998500000000000 Sc
   0.3242800000000000    0.9999700000000000    0.9998400000000001 Sc
   0.8242800000000000    0.4999600000000000    0.9998450000000000 Sc
   0.8242900000000000    0.9999700000000000    0.9998549999999999 Sc
   0.0742900000000000    0.0000600000000000    0.5001200000000000 Sc
   0.0742700000000000    0.5000500000000000    0.5001450000000000 Sc
   0.5742900000000000    0.0000500000000000    0.5001400000000000 Sc
   0.5742800000000000    0.5000599999999999    0.5001250000000000 Sc
   0.3244200000000000    0.2500900000000000    0.7498600000000000 Sc
   0.0546100000000000    0.1446500000000000    0.3449450000000000 H
   0.0545900000000000    0.6446700000000000    0.3449550000000000 H
   0.5546000000000000    0.1446600000000000    0.3449700000000000 H
   0.5546200000000000    0.6446600000000000    0.3449500000000000 H
   0.0539800000000000    0.1073200000000000    0.4071300000000000 H
   0.0539300000000000    0.6073400000000000    0.4071400000000000 H
   0.5539800000000000    0.1073300000000000    0.4071500000000000 H
   0.5539800000000000    0.6073499999999999    0.4071350000000000 H
   0.3441600000000000    0.1153100000000000    0.4085500000000000 H
   0.3441100000000000    0.6153000000000000    0.4085800000000000 H
   0.8441600000000000    0.1153000000000000    0.4085700000000000 H
   0.8441700000000000    0.6153100000000000    0.4085600000000000 H
   0.3448000000000000    0.1526700000000000    0.3463800000000000 H
   0.3447800000000000    0.6526800000000000    0.3464050000000000 H
   0.8447900000000000    0.1526800000000000    0.3463950000000000 H
   0.8448200000000000    0.6526600000000000    0.3463850000000000 H
   0.3047200000000000    0.3552900000000000    0.1551250000000000 H
   0.8046600000000000    0.3552700000000000    0.1551250000000000 H
   0.8047400000000000    0.8553100000000000    0.1551200000000000 H
   0.3039000000000000    0.3926200000000000    0.0929400000000000 H
   0.8038400000000000    0.3926000000000000    0.0929400000000000 H
   0.8039400000000000    0.8926300000000000    0.0929350000000000 H
   0.0939900000000000    0.3848000000000000    0.0913100000000000 H
   0.0940900000000000    0.8847900000000000    0.0913100000000000 H
   0.5940600000000000    0.3847900000000000    0.0913000000000000 H
   0.0948100000000000    0.3474300000000000    0.1534850000000000 H
   0.0948900000000000    0.8474100000000000    0.1534800000000000 H
   0.5948900000000000    0.3474000000000000    0.1534700000000000 H
   0.0547100000000000    0.1053900000000000    0.0949250000000000 H
   0.0547400000000000    0.6054000000000000    0.0949700000000000 H
   0.5547299999999999    0.1053600000000000    0.0949600000000000 H
   0.5547200000000000    0.6053900000000000    0.0949500000000000 H
   0.0541300000000000    0.1427200000000000    0.1571000000000000 H
   0.0542300000000000    0.6427400000000000    0.1571550000000000 H
   0.5541800000000000    0.1427000000000000    0.1570000000000000 H
   0.5542000000000000    0.6427100000000000    0.1571000000000000 H
   0.3442900000000000    0.1346900000000000    0.1585750000000000 H
   0.3443900000000000    0.6347000000000000    0.1585750000000000 H
   0.8443300000000000    0.1347000000000000    0.1585900000000000 H
   0.8443600000000000    0.6346900000000000    0.1585650000000000 H
   0.3448800000000000    0.0973200000000000    0.0964000000000000 H
   0.3449000000000000    0.5973100000000000    0.0963950000000000 H
   0.8448900000000000    0.0973200000000000    0.0964000000000000 H
   0.8448900000000000    0.5973300000000000    0.0963850000000000 H
   0.3046000000000000    0.3946300000000000    0.4050000000000000 H
   0.3046900000000000    0.8945900000000000    0.4049750000000000 H
   0.8046800000000000    0.3946100000000000    0.4049800000000000 H
   0.8046300000000000    0.8946100000000000    0.4000000000000000 H
   0.3040600000000000    0.3573000000000000    0.3428200000000000 H
   0.3042800000000000    0.8572600000000000    0.3427900000000000 H
   0.8042500000000000    0.3572700000000000    0.3427950000000000 H
   0.8041400000000000    0.8572800000000000    0.3428100000000000 H
   0.0944200000000000    0.3653700000000000    0.3414500000000000 H
   0.0943100000000000    0.8653700000000000    0.3414300000000000 H
   0.5942400000000000    0.3653500000000000    0.3414100000000000 H
   0.5944700000000001    0.8653800000000000    0.3414600000000000 H
   0.0948600000000000    0.4027500000000000    0.4036300000000000 H
   0.0948000000000000    0.9027400000000000    0.4036100000000000 H
   0.5947900000000000    0.4027300000000000    0.4035850000000000 H
   0.5948800000000000    0.9027600000000000    0.4036400000000000 H
   0.0546100000000000    0.1446500000000000    0.8449450000000001 H
   0.0545900000000000    0.6446700000000000    0.8449550000000000 H
   0.5546000000000000    0.1446600000000000    0.8449700000000000 H
   0.5546200000000000    0.6446600000000000    0.8449500000000000 H
   0.0539800000000000    0.1073200000000000    0.9071300000000000 H
   0.0539300000000000    0.6073400000000000    0.9071400000000001 H
   0.5539800000000000    0.1073300000000000    0.9071500000000000 H
   0.5539800000000000    0.6073499999999999    0.9071350000000000 H
   0.3441600000000000    0.1153100000000000    0.9085500000000000 H
   0.3441100000000000    0.6153000000000000    0.9085799999999999 H
   0.8441600000000000    0.1153000000000000    0.9085700000000000 H
   0.8441700000000000    0.6153100000000000    0.9085600000000000 H
   0.3448000000000000    0.1526700000000000    0.8463800000000000 H
   0.3447800000000000    0.6526800000000000    0.8464050000000001 H
   0.8447900000000000    0.1526800000000000    0.8463950000000000 H
   0.8448200000000000    0.6526600000000000    0.8463849999999999 H
   0.3047200000000000    0.3552900000000000    0.6551250000000000 H
   0.3046700000000000    0.8552900000000000    0.6551300000000000 H
   0.8046600000000000    0.3552700000000000    0.6551250000000000 H
   0.8047400000000000    0.8553100000000000    0.6551200000000000 H
   0.3039000000000000    0.3926200000000000    0.5929400000000000 H
   0.3038600000000000    0.8926100000000000    0.5929000000000000 H
   0.8038400000000000    0.3926000000000000    0.5929400000000000 H
   0.8039400000000000    0.8926300000000000    0.5929350000000000 H
   0.0939900000000000    0.3848000000000000    0.5913100000000000 H
   0.0940900000000000    0.8847900000000000    0.5913100000000000 H
   0.5940600000000000    0.3847900000000000    0.5913000000000000 H
   0.5940200000000000    0.8848000000000000    0.5913100000000000 H
   0.0948100000000000    0.3474300000000000    0.6534850000000000 H
   0.0948900000000000    0.8474100000000000    0.6534800000000001 H
   0.5948900000000000    0.3474000000000000    0.6534700000000000 H
   0.5948400000000000    0.8474300000000000    0.6534800000000001 H
   0.0547100000000000    0.1053900000000000    0.5949250000000000 H
   0.0547400000000000    0.6054000000000000    0.5949700000000000 H
   0.5547299999999999    0.1053600000000000    0.5949600000000000 H
   0.5547200000000000    0.6053900000000000    0.5949500000000000 H
   0.0541300000000000    0.1427200000000000    0.6571000000000000 H
   0.0542300000000000    0.6427400000000000    0.6571549999999999 H
   0.5541800000000000    0.1427000000000000    0.6570000000000000 H
   0.5542000000000000    0.6427100000000000    0.6571000000000000 H
   0.3442900000000000    0.1346900000000000    0.6585750000000000 H
   0.3443900000000000    0.6347000000000000    0.6585750000000000 H
   0.8443300000000000    0.1347000000000000    0.6585900000000000 H
   0.8443600000000000    0.6346900000000000    0.6585650000000001 H
   0.3448800000000000    0.0973200000000000    0.5964000000000000 H
   0.3449000000000000    0.5973100000000000    0.5963950000000000 H
   0.8448900000000000    0.0973200000000000    0.5964000000000000 H
   0.8448900000000000    0.5973300000000000    0.5963849999999999 H
   0.3046000000000000    0.3946300000000000    0.9050000000000000 H
   0.3046900000000000    0.8945900000000000    0.9049750000000000 H
   0.8046800000000000    0.3946100000000000    0.9049800000000000 H
   0.8046300000000000    0.8946100000000000    0.9000000000000000 H
   0.3040600000000000    0.3573000000000000    0.8428200000000000 H
   0.3042800000000000    0.8572600000000000    0.8427899999999999 H
   0.8042500000000000    0.3572700000000000    0.8427950000000000 H
   0.8041400000000000    0.8572800000000000    0.8428100000000001 H
   0.0944200000000000    0.3653700000000000    0.8414500000000000 H
   0.0943100000000000    0.8653700000000000    0.8414300000000000 H
   0.5942400000000000    0.3653500000000000    0.8414100000000000 H
   0.5944700000000001    0.8653800000000000    0.8414600000000000 H
   0.0948600000000000    0.4027500000000000    0.9036299999999999 H
   0.0948000000000000    0.9027400000000000    0.9036100000000000 H
   0.5947900000000000    0.4027300000000000    0.9035850000000001 H
   0.5948800000000000    0.9027600000000000    0.9036400000000000 H
   0.2002300000000000    0.1739700000000000    0.3053800000000000 C
   0.2002300000000000    0.6740200000000000    0.3054000000000000 C
   0.7002200000000000    0.1740200000000000    0.3054100000000000 C
   0.7002500000000000    0.6739800000000000    0.3053850000000000 C
   0.9497800000000000    0.9003800000000000    0.4078000000000000 C
   0.3674900000000000    0.3879700000000000    0.3908050000000000 C
   0.3676100000000000    0.8879500000000000    0.3907900000000000 C
   0.8676000000000000    0.3879500000000000    0.3907950000000000 C
   0.1997700000000000    0.1503600000000000    0.3421200000000000 C
   0.1997500000000000    0.6503800000000000    0.3421400000000000 C
   0.6997600000000000    0.1503800000000000    0.3421000000000000 C
   0.6997800000000000    0.6503600000000000    0.3421250000000000 C
   0.1174800000000000    0.1379700000000000    0.3590000000000000 C
   0.1174500000000000    0.6379899999999999    0.3591650000000000 C
   0.6174700000000000    0.1379800000000000    0.3591700000000000 C
   0.6174900000000000    0.6379899999999999    0.3591500000000000 C
   0.1171000000000000    0.1176500000000000    0.3935500000000000 C
   0.1170600000000000    0.6176700000000001    0.3935650000000000 C
   0.6171000000000000    0.1176600000000000    0.3935700000000000 C
   0.6171100000000000    0.6176700000000001    0.3935550000000000 C
   0.1989900000000000    0.1096500000000000    0.4113750000000000 C
   0.1989400000000000    0.6096600000000000    0.4113950000000000 C
   0.6989900000000000    0.1096500000000000    0.4113950000000000 C
   0.6989900000000000    0.6096700000000000    0.4113500000000000 C
   0.2812900000000000    0.1220900000000000    0.3943600000000000 C
   0.2812500000000000    0.6221000000000000    0.3943850000000000 C
   0.7812900000000000    0.1220900000000000    0.3943750000000000 C
   0.7813000000000000    0.6221000000000000    0.3943650000000000 C
   0.2816500000000000    0.1424300000000000    0.3599600000000000 C
   0.2816300000000000    0.6424400000000000    0.3599500000000000 C
   0.7816500000000000    0.1424300000000000    0.3599750000000000 C
   0.7816700000000000    0.6424299999999999    0.3599650000000000 C
   0.1985200000000000    0.0851700000000000    0.4479850000000000 C
   0.1984600000000000    0.5851800000000000    0.4480050000000000 C
   0.6985300000000000    0.0851700000000000    0.4480050000000000 C
   0.6985300000000000    0.5851800000000000    0.4479900000000000 C
   0.4504500000000000    0.3260000000000000    0.1945500000000000 C
   0.9503800000000000    0.3260100000000000    0.1945500000000000 C
   0.9504500000000000    0.8260200000000000    0.1945750000000000 C
   0.4498800000000000    0.3496400000000000    0.1578350000000000 C
   0.9498200000000000    0.3496400000000000    0.1578000000000000 C
   0.9499000000000000    0.8496600000000000    0.1578400000000000 C
   0.3675400000000000    0.3620000000000000    0.1408750000000000 C
   0.8674800000000000    0.3619900000000000    0.1408800000000000 C
   0.8675700000000000    0.8620100000000001    0.1408750000000000 C
   0.3670500000000000    0.3823200000000000    0.1064700000000000 C
   0.8670000000000000    0.3823000000000000    0.1064750000000000 C
   0.8670900000000000    0.8823299999999999    0.1064750000000000 C
   0.4488800000000000    0.3903700000000000    0.0885850000000000 C
   0.9488300000000000    0.3903600000000000    0.0885900000000000 C
   0.9489200000000000    0.8903700000000000    0.0885900000000000 C
   0.0311600000000000    0.3779700000000000    0.1055000000000000 C
   0.0312500000000000    0.8779700000000000    0.1055450000000000 C
   0.5312300000000000    0.3779600000000000    0.1055000000000000 C
   0.0316300000000000    0.3576300000000000    0.1395000000000000 C
   0.0317200000000000    0.8576300000000000    0.1399450000000000 C
   0.5317100000000000    0.3576200000000000    0.1399350000000000 C
   0.4483200000000000    0.4148400000000000    0.0519750000000000 C
   0.9482800000000000    0.4148300000000000    0.0519800000000000 C
   0.9483800000000000    0.9148500000000001    0.0519800000000000 C
   0.2003000000000000    0.0760400000000000    0.0553850000000000 C
   0.2003000000000000    0.5760300000000000    0.0554050000000000 C
   0.7003100000000000    0.0760100000000000    0.0554100000000000 C
   0.7002900000000000    0.5760400000000000    0.0553900000000000 C
   0.1998600000000000    0.0996500000000000    0.0921250000000000 C
   0.1998800000000000    0.5996500000000000    0.0921450000000000 C
   0.6998700000000000    0.0996400000000000    0.0920000000000000 C
   0.6998700000000000    0.5996600000000000    0.0921300000000000 C
   0.1175900000000000    0.1120600000000000    0.1091350000000000 C
   0.1176300000000000    0.6120700000000000    0.1091700000000000 C
   0.6176100000000000    0.1120400000000000    0.1091650000000000 C
   0.6176100000000000    0.6120600000000000    0.1091550000000000 C
   0.1172400000000000    0.1323700000000000    0.1435400000000000 C
   0.1173200000000000    0.6323900000000000    0.1435750000000000 C
   0.6172700000000000    0.1323600000000000    0.1435700000000000 C
   0.6172900000000000    0.6323800000000001    0.1435600000000000 C
   0.1991300000000000    0.1403700000000000    0.1613750000000000 C
   0.1992500000000000    0.6403900000000000    0.1614000000000000 C
   0.6991800000000000    0.1403600000000000    0.1614000000000000 C
   0.6992100000000000    0.6403600000000000    0.1613850000000000 C
   0.2814100000000000    0.1279100000000000    0.1443750000000000 C
   0.2815000000000000    0.6279200000000000    0.1443800000000000 C
   0.7814500000000000    0.1279100000000000    0.1443900000000000 C
   0.7814700000000000    0.6279100000000000    0.1443500000000000 C
   0.2817600000000000    0.1075800000000000    0.1099700000000000 C
   0.2818000000000000    0.6075800000000000    0.1099800000000000 C
   0.7817800000000000    0.1075700000000000    0.1099900000000000 C
   0.7817800000000000    0.6075800000000000    0.1099650000000000 C
   0.1987300000000000    0.1648300000000000    0.1979900000000000 C
   0.1989200000000000    0.6648500000000001    0.1980150000000000 C
   0.6988000000000000    0.1648300000000000    0.1980150000000000 C
   0.6988600000000000    0.6648300000000000    0.1979950000000000 C
   0.4501900000000000    0.4240100000000000    0.4445750000000000 C
   0.4502100000000000    0.9240000000000000    0.4445850000000000 C
   0.9502100000000000    0.4240000000000000    0.4445850000000000 C
   0.9501900000000000    0.9240000000000000    0.4445800000000000 C
   0.4497500000000000    0.4003900000000000    0.4078350000000000 C
   0.4498400000000000    0.9003800000000000    0.4078450000000000 C
   0.9498300000000000    0.4003800000000000    0.4078450000000000 C
   0.8675300000000000    0.8879600000000000    0.3908050000000000 C
   0.3671600000000000    0.3676500000000000    0.3564050000000000 C
   0.3673600000000000    0.8676199999999999    0.3563850000000000 C
   0.8673300000000000    0.3676300000000000    0.3563900000000000 C
   0.8672299999999999    0.8676400000000000    0.3564000000000000 C
   0.4490800000000000    0.3596600000000000    0.3385800000000000 C
   0.4493300000000000    0.8596600000000000    0.3385900000000000 C
   0.9492900000000000    0.3596600000000000    0.3385900000000000 C
   0.9491700000000000    0.8596700000000000    0.3385850000000000 C
   0.0315100000000000    0.3721300000000000    0.3556300000000000 C
   0.0314100000000000    0.8721300000000000    0.3556150000000000 C
   0.5313500000000000    0.3721300000000000    0.3556000000000000 C
   0.5315500000000000    0.8721400000000000    0.3556000000000000 C
   0.0317600000000000    0.3924800000000000    0.3900300000000000 C
   0.0316900000000000    0.8924700000000000    0.3900000000000000 C
   0.5316700000000000    0.3924700000000000    0.3900000000000000 C
   0.5317900000000000    0.8924800000000001    0.3900000000000000 C
   0.4486600000000000    0.3352000000000000    0.3019700000000000 C
   0.4490800000000000    0.8351900000000000    0.3019800000000000 C
   0.9490000000000000    0.3351900000000000    0.3019750000000000 C
   0.9488100000000000    0.8351900000000000    0.3019750000000000 C
   0.2002300000000000    0.1739700000000000    0.8053800000000000 C
   0.2002300000000000    0.6740200000000000    0.8054000000000000 C
   0.7002200000000000    0.1740200000000000    0.8054100000000000 C
   0.7002500000000000    0.6739800000000000    0.8053850000000000 C
   0.9497800000000000    0.9003800000000000    0.9077999999999999 C
   0.3674900000000000    0.3879700000000000    0.8908050000000001 C
   0.3676100000000000    0.8879500000000000    0.8907900000000000 C
   0.8676000000000000    0.3879500000000000    0.8907950000000000 C
   0.1997700000000000    0.1503600000000000    0.8421200000000000 C
   0.1997500000000000    0.6503800000000000    0.8421400000000000 C
   0.6997600000000000    0.1503800000000000    0.8421000000000001 C
   0.6997800000000000    0.6503600000000000    0.8421250000000000 C
   0.1174800000000000    0.1379700000000000    0.8590000000000000 C
   0.1174500000000000    0.6379899999999999    0.8591650000000000 C
   0.6174700000000000    0.1379800000000000    0.8591700000000000 C
   0.6174900000000000    0.6379899999999999    0.8591500000000001 C
   0.1171000000000000    0.1176500000000000    0.8935500000000001 C
   0.1170600000000000    0.6176700000000001    0.8935649999999999 C
   0.6171000000000000    0.1176600000000000    0.8935700000000000 C
   0.6171100000000000    0.6176700000000001    0.8935550000000000 C
   0.1989900000000000    0.1096500000000000    0.9113750000000000 C
   0.1989400000000000    0.6096600000000000    0.9113950000000000 C
   0.6989900000000000    0.1096500000000000    0.9113950000000000 C
   0.6989900000000000    0.6096700000000000    0.9113500000000000 C
   0.2812900000000000    0.1220900000000000    0.8943600000000000 C
   0.2812500000000000    0.6221000000000000    0.8943850000000000 C
   0.7812900000000000    0.1220900000000000    0.8943749999999999 C
   0.7813000000000000    0.6221000000000000    0.8943650000000001 C
   0.2816500000000000    0.1424300000000000    0.8599600000000001 C
   0.2816300000000000    0.6424400000000000    0.8599500000000000 C
   0.7816500000000000    0.1424300000000000    0.8599749999999999 C
   0.7816700000000000    0.6424299999999999    0.8599650000000000 C
   0.1985200000000000    0.0851700000000000    0.9479850000000001 C
   0.1984600000000000    0.5851800000000000    0.9480050000000000 C
   0.6985300000000000    0.0851700000000000    0.9480050000000000 C
   0.6985300000000000    0.5851800000000000    0.9479900000000000 C
   0.4504500000000000    0.3260000000000000    0.6945500000000000 C
   0.4503900000000000    0.8260300000000000    0.6945800000000000 C
   0.9503800000000000    0.3260100000000000    0.6945500000000000 C
   0.9504500000000000    0.8260200000000000    0.6945749999999999 C
   0.4498800000000000    0.3496400000000000    0.6578349999999999 C
   0.4498400000000000    0.8496600000000000    0.6578450000000000 C
   0.9498200000000000    0.3496400000000000    0.6577999999999999 C
   0.9499000000000000    0.8496600000000000    0.6578400000000000 C
   0.3675400000000000    0.3620000000000000    0.6408750000000000 C
   0.3675000000000000    0.8620000000000000    0.6408800000000000 C
   0.8674800000000000    0.3619900000000000    0.6408800000000000 C
   0.8675700000000000    0.8620100000000001    0.6408750000000000 C
   0.3670500000000000    0.3823200000000000    0.6064700000000000 C
   0.3670100000000000    0.8823200000000000    0.6064750000000000 C
   0.8670000000000000    0.3823000000000000    0.6064750000000000 C
   0.8670900000000000    0.8823299999999999    0.6064750000000000 C
   0.4488800000000000    0.3903700000000000    0.5885850000000000 C
   0.4488400000000000    0.8903700000000000    0.5885899999999999 C
   0.9488300000000000    0.3903600000000000    0.5885899999999999 C
   0.9489200000000000    0.8903700000000000    0.5885899999999999 C
   0.0311600000000000    0.3779700000000000    0.6055000000000000 C
   0.0312500000000000    0.8779700000000000    0.6055450000000000 C
   0.5312300000000000    0.3779600000000000    0.6055000000000000 C
   0.5311900000000001    0.8779800000000000    0.6055450000000000 C
   0.0316300000000000    0.3576300000000000    0.6395000000000000 C
   0.0317200000000000    0.8576300000000000    0.6399450000000000 C
   0.5317100000000000    0.3576200000000000    0.6399350000000000 C
   0.5316700000000000    0.8576400000000000    0.6395000000000000 C
   0.4483200000000000    0.4148400000000000    0.5519750000000000 C
   0.4482900000000000    0.9148400000000000    0.5519800000000000 C
   0.9482800000000000    0.4148300000000000    0.5519800000000000 C
   0.9483800000000000    0.9148500000000001    0.5519800000000000 C
   0.2003000000000000    0.0760400000000000    0.5553850000000000 C
   0.2003000000000000    0.5760300000000000    0.5554050000000000 C
   0.7003100000000000    0.0760100000000000    0.5554100000000000 C
   0.7002900000000000    0.5760400000000000    0.5553900000000001 C
   0.1998600000000000    0.0996500000000000    0.5921250000000000 C
   0.1998800000000000    0.5996500000000000    0.5921450000000000 C
   0.6998700000000000    0.0996400000000000    0.5920000000000000 C
   0.6998700000000000    0.5996600000000000    0.5921300000000000 C
   0.1175900000000000    0.1120600000000000    0.6091350000000000 C
   0.1176300000000000    0.6120700000000000    0.6091700000000000 C
   0.6176100000000000    0.1120400000000000    0.6091650000000000 C
   0.6176100000000000    0.6120600000000000    0.6091550000000000 C
   0.1172400000000000    0.1323700000000000    0.6435400000000000 C
   0.1173200000000000    0.6323900000000000    0.6435750000000000 C
   0.6172700000000000    0.1323600000000000    0.6435700000000000 C
   0.6172900000000000    0.6323800000000001    0.6435600000000000 C
   0.1991300000000000    0.1403700000000000    0.6613750000000000 C
   0.1992500000000000    0.6403900000000000    0.6614000000000000 C
   0.6991800000000000    0.1403600000000000    0.6614000000000000 C
   0.6992100000000000    0.6403600000000000    0.6613850000000000 C
   0.2814100000000000    0.1279100000000000    0.6443750000000000 C
   0.2815000000000000    0.6279200000000000    0.6443800000000000 C
   0.7814500000000000    0.1279100000000000    0.6443900000000000 C
   0.7814700000000000    0.6279100000000000    0.6443500000000000 C
   0.2817600000000000    0.1075800000000000    0.6099700000000000 C
   0.2818000000000000    0.6075800000000000    0.6099800000000000 C
   0.7817800000000000    0.1075700000000000    0.6099900000000000 C
   0.7817800000000000    0.6075800000000000    0.6099650000000000 C
   0.1987300000000000    0.1648300000000000    0.6979900000000000 C
   0.1989200000000000    0.6648500000000001    0.6980150000000001 C
   0.6988000000000000    0.1648300000000000    0.6980150000000001 C
   0.6988600000000000    0.6648300000000000    0.6979950000000000 C
   0.4501900000000000    0.4240100000000000    0.9445749999999999 C
   0.4502100000000000    0.9240000000000000    0.9445850000000000 C
   0.9502100000000000    0.4240000000000000    0.9445850000000000 C
   0.9501900000000000    0.9240000000000000    0.9445800000000000 C
   0.4497500000000000    0.4003900000000000    0.9078349999999999 C
   0.4498400000000000    0.9003800000000000    0.9078450000000000 C
   0.9498300000000000    0.4003800000000000    0.9078450000000000 C
   0.8675300000000000    0.8879600000000000    0.8908050000000001 C
   0.3671600000000000    0.3676500000000000    0.8564050000000001 C
   0.3673600000000000    0.8676199999999999    0.8563850000000000 C
   0.8673300000000000    0.3676300000000000    0.8563900000000000 C
   0.8672299999999999    0.8676400000000000    0.8564000000000001 C
   0.4490800000000000    0.3596600000000000    0.8385800000000000 C
   0.4493300000000000    0.8596600000000000    0.8385899999999999 C
   0.9492900000000000    0.3596600000000000    0.8385899999999999 C
   0.9491700000000000    0.8596700000000000    0.8385850000000000 C
   0.0315100000000000    0.3721300000000000    0.8556300000000000 C
   0.0314100000000000    0.8721300000000000    0.8556150000000000 C
   0.5313500000000000    0.3721300000000000    0.8556000000000000 C
   0.5315500000000000    0.8721400000000000    0.8556000000000000 C
   0.0317600000000000    0.3924800000000000    0.8900300000000000 C
   0.0316900000000000    0.8924700000000000    0.8900000000000000 C
   0.5316700000000000    0.3924700000000000    0.8900000000000000 C
   0.5317900000000000    0.8924800000000001    0.8900000000000000 C
   0.4486600000000000    0.3352000000000000    0.8019700000000001 C
   0.4490800000000000    0.8351900000000000    0.8019800000000000 C
   0.9490000000000000    0.3351900000000000    0.8019750000000000 C
   0.9488100000000000    0.8351900000000000    0.8019750000000000 C
   0.0243600000000000    0.4251400000000000    0.0373050000000000 O
   0.0244600000000000    0.9251500000000000    0.0373000000000000 O
   0.5244100000000000    0.4251400000000000    0.0372900000000000 O
   0.2766800000000000    0.1839400000000000    0.2909700000000000 O
   0.2766800000000000    0.6840300000000000    0.2910050000000000 O
   0.7766700000000000    0.1840100000000000    0.2910050000000000 O
   0.7766999999999999    0.6839800000000000    0.2909800000000000 O
   0.1241400000000000    0.1836200000000000    0.2906400000000000 O
   0.1241500000000000    0.6836900000000000    0.2906500000000000 O
   0.6241400000000000    0.1836900000000000    0.2906700000000000 O
   0.6241600000000000    0.6836400000000000    0.2906500000000000 O
   0.1221100000000000    0.0749100000000000    0.4624000000000000 O
   0.1220400000000000    0.5749200000000000    0.4624000000000000 O
   0.6221100000000001    0.0749100000000000    0.4624150000000000 O
   0.6221200000000000    0.5749200000000000    0.4624050000000000 O
   0.2746100000000000    0.0748400000000000    0.4626350000000000 O
   0.2745400000000000    0.5748500000000000    0.4626550000000000 O
   0.7746100000000000    0.0748400000000000    0.4626500000000000 O
   0.7746100000000000    0.5748500000000000    0.4626400000000000 O
   0.0268200000000000    0.3159500000000000    0.2089250000000000 O
   0.0269000000000000    0.8159400000000000    0.2089200000000000 O
   0.5269200000000001    0.3159400000000000    0.2089100000000000 O
   0.3743900000000000    0.3164100000000000    0.2093500000000000 O
   0.8743100000000000    0.3164400000000000    0.2093700000000000 O
   0.8743900000000000    0.8164400000000001    0.2093700000000000 O
   0.3719100000000000    0.4251200000000000    0.0376000000000000 O
   0.8718800000000000    0.4251100000000000    0.0376000000000000 O
   0.8719700000000000    0.9251300000000000    0.0376000000000000 O
   0.2767300000000000    0.0660700000000000    0.0409500000000000 O
   0.2767200000000000    0.5660500000000001    0.0410000000000000 O
   0.7767300000000000    0.0660300000000000    0.0410100000000000 O
   0.7767100000000000    0.5660700000000000    0.0409800000000000 O