H9 C15 N6
1.0
  18.5770000000000017    0.0000000000000000    0.0000000000000011
   0.0000000000000030   18.5829999971696438   -0.0003243345348838
   0.0000000000000000    0.0000000000000000   18.5829999999999984
H C N
9 15 6
direct
   0.2807800000000000    0.8686800000000000    0.5549300000000000 H
   0.1312500000000000    0.5550000000000000    0.7192800000000000 H
   0.4449400000000000    0.7194100000000000    0.8688800000000000 H
   0.1312000000000000    0.7193400000000000    0.5550200000000000 H
   0.4448900000000000    0.8689600000000000    0.7194000000000000 H
   0.2807100000000000    0.5550000000000000    0.8687100000000000 H
   0.2281600000000000    0.7718500000000000    0.6083200000000000 H
   0.2282100000000000    0.6082800000000000    0.7717800000000000 H
   0.3917500000000000    0.7718400000000000    0.7718000000000000 H
   0.3269900000000000    0.8778600000000000    0.5891100000000000 C
   0.3431600000000000    0.7486400000000000    0.7486300000000000 C
   0.1221400000000000    0.5891100000000000    0.6730300000000000 C
   0.4108500000000000    0.6731200000000001    0.8779000000000000 C
   0.1221100000000000    0.6730699999999999    0.5891300000000000 C
   0.4108400000000000    0.8779800000000000    0.6731500000000000 C
   0.3269500000000000    0.5891400000000000    0.8778600000000000 C
   0.3131800000000000    0.7800600000000000    0.6868500000000000 C
   0.3474900000000000    0.8423000000000000    0.6525400000000000 C
   0.2199800000000000    0.6868400000000000    0.6868200000000000 C
   0.1577500000000000    0.6525100000000000    0.6525000000000000 C
   0.3131900000000000    0.6868500000000000    0.7800300000000000 C
   0.3474900000000000    0.6525400000000000    0.8422700000000000 C
   0.2513800000000000    0.7486400000000000    0.6568700000000000 C
   0.2514000000000000    0.6568600000000000    0.7486000000000000 C
   0.3749300000000000    0.9300300000000000    0.5732100000000000 N
   0.0699900000000000    0.5731900000000000    0.6250700000000000 N
   0.4267800000000000    0.6251600000000000    0.9300600000000000 N
   0.0699800000000000    0.6251000000000000    0.5731800000000000 N
   0.4267900000000000    0.9300900000000000    0.6251800000000000 N
   0.3748900000000000    0.5732300000000000    0.9300000000000000 N
