Ni12 H63 C105 N42
1.0
  18.5770000000000017    0.0000000000000000    0.0000000000000011
   0.0000000000000030   18.5829999971696438   -0.0003243345348838
   0.0000000000000000    0.0000000000000000   18.5829999999999984
Ni H C N
12 63 105 42
direct
   0.0000100000000000    0.3756300000000000    0.4999700000000000 Ni
   0.5000200000000000    0.0000200000000000    0.6243500000000000 Ni
   0.5000200000000000    0.9999700000000000    0.3755800000000000 Ni
   0.6243600000000000    0.4999600000000000    0.9999800000000000 Ni
   0.3756700000000000    0.5000100000000000    0.0000000000000000 Ni
   0.6243300000000001    0.9999700000000000    0.4999700000000000 Ni
   0.3757300000000000    0.0000100000000000    0.4999900000000000 Ni
   0.0000200000000000    0.4999700000000000    0.3757300000000000 Ni
   0.0000100000000000    0.4999900000000000    0.6242400000000000 Ni
   0.5000100000000000    0.6243300000000001    0.0000000000000000 Ni
   0.5000000000000000    0.3756700000000000    0.9999800000000000 Ni
   0.0000000000000000    0.6243200000000000    0.5000100000000000 Ni
   0.8687700000000000    0.7193100000000000    0.5550100000000000 H
   0.1311500000000000    0.2805900000000000    0.5550500000000000 H
   0.1311800000000000    0.7193400000000000    0.4449700000000000 H
   0.8687900000000000    0.2806400000000000    0.4449500000000000 H
   0.5549900000000000    0.8688200000000000    0.7193200000000000 H
   0.5550600000000000    0.1311000000000000    0.2805700000000000 H
   0.4449900000000000    0.1311900000000000    0.7193000000000001 H
   0.4449400000000000    0.8688500000000000    0.2805900000000000 H
   0.7193300000000000    0.5549900000000000    0.8687300000000000 H
   0.2807400000000000    0.5549500000000001    0.1313100000000000 H
   0.7193400000000000    0.4449700000000000    0.1312200000000000 H
   0.2807100000000000    0.4450700000000000    0.8686700000000001 H
   0.7192300000000000    0.8686199999999999    0.4450000000000000 H
   0.2807800000000000    0.1313000000000000    0.4450300000000000 H
   0.7193500000000000    0.1312300000000000    0.5549800000000000 H
   0.8686900000000000    0.5548999999999999    0.2807900000000000 H
   0.1312900000000000    0.4450100000000000    0.2807300000000000 H
   0.8687400000000000    0.4450300000000000    0.7192100000000000 H
   0.5550300000000000    0.7192900000000000    0.1311600000000000 H
   0.5549200000000000    0.2807400000000000    0.8686800000000000 H
   0.4450500000000000    0.2807200000000000    0.1312200000000000 H
   0.1312300000000000    0.2806400000000000    0.4449000000000000 H
   0.8688200000000000    0.7193300000000000    0.4449500000000000 H
   0.8688100000000000    0.2806200000000000    0.5550200000000000 H
   0.4449600000000000    0.1311000000000000    0.2805600000000000 H
   0.5550600000000000    0.8688399999999999    0.2805700000000000 H
   0.5550400000000000    0.1311700000000000    0.7193200000000000 H
   0.2806500000000000    0.4449600000000000    0.1312100000000000 H
   0.7193500000000000    0.4449700000000000    0.8687500000000000 H
   0.7193300000000000    0.5549500000000001    0.1312400000000000 H
   0.2807600000000000    0.1313100000000000    0.5549500000000001 H
   0.7192900000000000    0.8687000000000000    0.5549800000000000 H
   0.2807600000000000    0.8687000000000000    0.4450600000000000 H
   0.7192100000000000    0.1313500000000000    0.4450700000000000 H
   0.1312700000000000    0.4450400000000000    0.7192000000000000 H
   0.8687800000000000    0.4449600000000000    0.2806800000000000 H
   0.8687500000000000    0.5549800000000000    0.7192800000000000 H
   0.1312500000000000    0.5549700000000000    0.2807400000000000 H
   0.4448900000000000    0.2806100000000000    0.8689100000000000 H
   0.4449700000000000    0.7193700000000000    0.1311700000000000 H
   0.5550300000000000    0.2806300000000000    0.1311300000000000 H
   0.5549500000000001    0.7192700000000000    0.8687700000000000 H
   0.7718000000000000    0.7718000000000000    0.6082900000000000 H
   0.2281900000000000    0.2281800000000000    0.6082800000000000 H
   0.2281800000000000    0.7718000000000000    0.3917200000000000 H
   0.7717800000000000    0.2282000000000000    0.3917100000000000 H
   0.6082300000000000    0.7718000000000000    0.7718100000000000 H
   0.6082100000000000    0.2282000000000000    0.2281000000000000 H
   0.3917600000000000    0.2282200000000000    0.7718100000000000 H
   0.3917400000000000    0.7718200000000000    0.2281800000000000 H
   0.7718000000000000    0.6082700000000000    0.7710000000000000 H
   0.2281700000000000    0.6082900000000000    0.2282000000000000 H
   0.7718300000000000    0.3916800000000000    0.2281000000000000 H
   0.2281300000000000    0.3916900000000000    0.7718100000000000 H
   0.7717900000000000    0.7717600000000000    0.3917100000000000 H
   0.2282100000000000    0.2281700000000000    0.3917000000000000 H
   0.7718500000000000    0.2281700000000000    0.6082800000000000 H
   0.7718200000000000    0.6082400000000000    0.2281900000000000 H
   0.2282000000000000    0.3917000000000000    0.2281900000000000 H
   0.7717900000000000    0.3917300000000000    0.7717500000000000 H
   0.6082600000000000    0.7717700000000000    0.2281500000000000 H
   0.6082600000000000    0.2281700000000000    0.7717800000000000 H
   0.3917600000000000    0.2281600000000000    0.2281400000000000 H
   0.8778700000000000    0.6730500000000000    0.5891200000000000 C
   0.1220900000000000    0.3268800000000000    0.5891200000000000 C
   0.1221000000000000    0.6730699999999999    0.4108800000000000 C
   0.8778800000000000    0.3269100000000000    0.4108500000000000 C
   0.5891100000000000    0.8779000000000000    0.6730600000000000 C
   0.5891400000000000    0.1220500000000000    0.3268700000000000 C
   0.4109000000000000    0.1221100000000000    0.6730800000000000 C
   0.4108600000000000    0.8779100000000000    0.3268900000000000 C
   0.6730600000000000    0.5891100000000000    0.8778600000000000 C
   0.3269800000000000    0.5890900000000000    0.1221700000000000 C
   0.6730800000000000    0.4108500000000000    0.1221000000000000 C
   0.3269300000000000    0.4109100000000000    0.8778500000000000 C
   0.6730200000000000    0.8778000000000000    0.4108000000000000 C
   0.3270100000000000    0.1221400000000000    0.4108700000000000 C
   0.6730900000000000    0.1221100000000000    0.5891000000000000 C
   0.7486000000000000    0.3431500000000000    0.7485700000000000 C
   0.6568400000000000    0.7485700000000000    0.2513000000000000 C
   0.6568400000000000    0.2513800000000000    0.7485800000000000 C
   0.8778500000000000    0.5890500000000000    0.3270000000000000 C
   0.1221700000000000    0.4108800000000000    0.3269700000000000 C
   0.8778700000000000    0.4108900000000000    0.6729800000000000 C
   0.5891400000000000    0.6730200000000000    0.1220000000000000 C
   0.5890700000000000    0.3269700000000000    0.8778200000000000 C
   0.4109100000000000    0.3269600000000000    0.1221100000000000 C
   0.1221300000000000    0.3269100000000000    0.4108600000000000 C
   0.8778899999999999    0.6730400000000000    0.4108700000000000 C
   0.8779000000000000    0.3269100000000000    0.5891000000000000 C
   0.4108800000000000    0.1220500000000000    0.3268600000000000 C
   0.5891400000000000    0.8778899999999999    0.3268600000000000 C
   0.5891600000000000    0.1220700000000000    0.6730500000000000 C
   0.3269300000000000    0.4108600000000000    0.1221000000000000 C
   0.6730600000000000    0.4108700000000000    0.8778400000000000 C
   0.6730800000000000    0.5890800000000000    0.1221000000000000 C
   0.3269900000000000    0.1221600000000000    0.5890000000000000 C
   0.6730400000000000    0.8778400000000000    0.5891100000000000 C
   0.3269900000000000    0.8778500000000000    0.4109000000000000 C
   0.6730000000000000    0.1221600000000000    0.4108900000000000 C
   0.1221300000000000    0.4108900000000000    0.6729800000000000 C
   0.8778899999999999    0.4108500000000000    0.3269300000000000 C
   0.8778700000000000    0.5891000000000000    0.6730300000000000 C
   0.1221300000000000    0.5891000000000000    0.3269800000000000 C
   0.4108200000000000    0.3269200000000000    0.8779400000000001 C
   0.4108700000000000    0.6730900000000000    0.1220000000000000 C
   0.5891400000000000    0.3269000000000000    0.1220400000000000 C
   0.5890900000000000    0.6730200000000000    0.8778800000000000 C
   0.7800100000000000    0.6868100000000000    0.6868200000000000 C
   0.8422500000000001    0.6525000000000000    0.6525000000000000 C
   0.2199500000000000    0.3131600000000000    0.6868200000000000 C
   0.1577200000000000    0.3474700000000000    0.6524900000000000 C
   0.2199600000000000    0.6868200000000000    0.3131800000000000 C
   0.1577300000000000    0.6525100000000000    0.3475000000000000 C
   0.7800200000000000    0.3131600000000000    0.3131600000000000 C
   0.8422700000000000    0.3474600000000000    0.3474000000000000 C
   0.6867900000000000    0.7800100000000000    0.6868200000000000 C
   0.6524900000000000    0.8422400000000000    0.6525000000000000 C
   0.6867799999999999    0.2199800000000000    0.3131700000000000 C
   0.6524799999999999    0.1577500000000000    0.3474800000000000 C
   0.3131900000000000    0.2199800000000000    0.6868000000000000 C
   0.3475200000000000    0.1577600000000000    0.6525000000000000 C
   0.3131800000000000    0.7800300000000000    0.3131700000000000 C
   0.3474900000000000    0.8422600000000000    0.3474000000000000 C
   0.6867900000000000    0.6868100000000000    0.7800000000000000 C
   0.6524900000000000    0.6524799999999999    0.8422400000000000 C
   0.3131800000000000    0.6868300000000001    0.2199800000000000 C
   0.3475000000000000    0.6525100000000000    0.1577500000000000 C
   0.6868000000000000    0.3131600000000000    0.2199500000000000 C
   0.6525100000000000    0.3474700000000000    0.1577100000000000 C
   0.3131600000000000    0.3131700000000000    0.7800300000000000 C
   0.3474600000000000    0.3475000000000000    0.8422700000000000 C
   0.6868000000000000    0.7799800000000000    0.3131500000000000 C
   0.6525000000000000    0.8422100000000000    0.3474600000000000 C
   0.3132100000000000    0.2199500000000000    0.3131400000000000 C
   0.3475200000000000    0.1577100000000000    0.3474500000000000 C
   0.6868300000000001    0.2199500000000000    0.6868000000000000 C
   0.6525400000000000    0.1577100000000000    0.6524900000000000 C
   0.7800200000000000    0.6867799999999999    0.3131800000000000 C
   0.8422400000000000    0.6524600000000000    0.3475100000000000 C
   0.2200000000000000    0.3131600000000000    0.3131000000000000 C
   0.1577700000000000    0.3474700000000000    0.3474900000000000 C
   0.7800300000000000    0.3131700000000000    0.6860000000000001 C
   0.8422700000000000    0.3474800000000000    0.6524700000000000 C
   0.6868200000000000    0.6867799999999999    0.2199500000000000 C
   0.6525300000000001    0.6524600000000000    0.1577200000000000 C
   0.6868000000000000    0.3131800000000000    0.7799800000000000 C
   0.6524799999999999    0.3475000000000000    0.8421999999999999 C
   0.3132000000000000    0.3131600000000000    0.2199500000000000 C
   0.3475000000000000    0.3474900000000000    0.1577200000000000 C
   0.7486000000000000    0.7486000000000000    0.6568500000000000 C
   0.2513900000000000    0.2513800000000000    0.6568500000000000 C
   0.2513800000000000    0.7486100000000000    0.3431500000000000 C
   0.7485900000000000    0.2513900000000000    0.3431400000000000 C
   0.6568100000000000    0.7486000000000000    0.7486100000000000 C
   0.6568100000000000    0.2513900000000000    0.2513800000000000 C
   0.3431600000000000    0.2514000000000000    0.7486000000000000 C
   0.3431600000000000    0.7486200000000000    0.2513800000000000 C
   0.7485900000000000    0.6568400000000000    0.7486000000000000 C
   0.2513800000000000    0.6568500000000000    0.2513900000000000 C
   0.7486100000000000    0.3431300000000000    0.2513600000000000 C
   0.2513500000000000    0.3431300000000000    0.7486000000000000 C
   0.7486000000000000    0.7485600000000000    0.3431400000000000 C
   0.2514200000000000    0.2513700000000000    0.3431300000000000 C
   0.7486400000000000    0.2513700000000000    0.6568400000000000 C
   0.7486100000000000    0.6568000000000001    0.2513800000000000 C
   0.2514100000000000    0.3431300000000000    0.2513800000000000 C
   0.3431800000000000    0.2513600000000000    0.2513500000000000 C
   0.9300100000000000    0.6250900000000000    0.5731800000000000 N
   0.0699700000000000    0.3748600000000000    0.5731600000000000 N
   0.0699800000000000    0.6250900000000000    0.4268300000000000 N
   0.9300300000000000    0.3748600000000000    0.4267800000000000 N
   0.5731900000000000    0.9300200000000000    0.6251000000000000 N
   0.5732200000000000    0.0699200000000000    0.3748200000000000 N
   0.4268400000000000    0.0699900000000000    0.6251200000000000 N
   0.4268100000000000    0.9300300000000000    0.3748400000000000 N
   0.6251200000000000    0.5731800000000000    0.9300100000000000 N
   0.3749100000000000    0.5732000000000000    0.0699900000000000 N
   0.6251500000000000    0.4267600000000000    0.0699300000000000 N
   0.3748800000000000    0.4268400000000000    0.9300000000000000 N
   0.6250800000000000    0.9299700000000000    0.4267800000000000 N
   0.3749600000000000    0.0699800000000000    0.4267800000000000 N
   0.6251400000000000    0.0699500000000000    0.5731800000000000 N
   0.9299900000000000    0.5731300000000000    0.3749700000000000 N
   0.0700200000000000    0.4267900000000000    0.3749200000000000 N
   0.9300100000000000    0.4268100000000000    0.6250100000000000 N
   0.5732300000000000    0.6250800000000000    0.0699400000000000 N
   0.5731600000000000    0.3749100000000000    0.9299600000000000 N
   0.4268200000000000    0.3749100000000000    0.0699700000000000 N
   0.0700100000000000    0.3748800000000000    0.4268100000000000 N
   0.9300200000000000    0.6250800000000000    0.4268200000000000 N
   0.9300200000000000    0.3748700000000000    0.5731400000000000 N
   0.4268200000000000    0.0699300000000000    0.3748200000000000 N
   0.5732100000000000    0.9300100000000000    0.3748200000000000 N
   0.5732300000000000    0.0699500000000000    0.6250900000000000 N
   0.3748900000000000    0.4268000000000000    0.0699600000000000 N
   0.6251200000000000    0.4267800000000000    0.9300000000000000 N
   0.6251300000000000    0.5731500000000000    0.0699600000000000 N
   0.3749500000000000    0.0700000000000000    0.5731900000000000 N
   0.6251000000000000    0.9300000000000000    0.5731800000000000 N
   0.3749400000000000    0.9300100000000000    0.4268000000000000 N
   0.6250900000000000    0.0699600000000000    0.4267700000000000 N
   0.0700100000000000    0.4268200000000000    0.6250100000000000 N
   0.9300300000000000    0.4267800000000000    0.3749000000000000 N
   0.9300000000000000    0.5731700000000000    0.6250700000000000 N
   0.0700000000000000    0.5731700000000000    0.3749500000000000 N
   0.4267500000000000    0.3748800000000000    0.9300600000000000 N
   0.4268200000000000    0.6251200000000000    0.0699800000000000 N
   0.5732200000000000    0.3748500000000000    0.0699100000000000 N
   0.5731800000000000    0.6250700000000000    0.9300100000000000 N
