Zn48 P94 H282 C282 O376
1.0
  37.0511699661985006    0.0000000000000000   -6.0879477770321495
  -5.4369906775769898   31.1407413038121916   -0.5727586062086369
   0.0000000000000000    0.0000000000000000   21.1389999999999993
Zn P H C O
48 94 282 282 376
direct
   0.0624650000000000    0.0067800000000000    0.4894900000000000 Zn
   0.1875300000000000    0.3265533333333333    0.0105150000000000 Zn
   0.3124650000000000    0.0067800000000000    0.4894900000000000 Zn
   0.4375300000000000    0.3265533333333333    0.0105150000000000 Zn
   0.5624650000000000    0.0067800000000000    0.4894900000000000 Zn
   0.6875300000000000    0.3265533333333333    0.0105150000000000 Zn
   0.8124650000000000    0.0067800000000000    0.4894900000000000 Zn
   0.9375300000000000    0.3265533333333333    0.0105150000000000 Zn
   0.0624650000000000    0.3401133333333333    0.4894900000000000 Zn
   0.1875300000000000    0.6598866666666666    0.0105150000000000 Zn
   0.3124650000000000    0.3401133333333333    0.4894900000000000 Zn
   0.4375300000000000    0.6598866666666666    0.0105150000000000 Zn
   0.5624650000000000    0.3401133333333333    0.4894900000000000 Zn
   0.6875300000000000    0.6598866666666666    0.0105150000000000 Zn
   0.8124650000000000    0.3401133333333333    0.4894900000000000 Zn
   0.9375300000000000    0.6598866666666666    0.0105150000000000 Zn
   0.0624650000000000    0.6734466666666666    0.4894900000000000 Zn
   0.1875300000000000    0.9932200000000000    0.0105150000000000 Zn
   0.3124650000000000    0.6734466666666666    0.4894900000000000 Zn
   0.4375300000000000    0.9932200000000000    0.0105150000000000 Zn
   0.5624650000000000    0.6734466666666666    0.4894900000000000 Zn
   0.6875300000000000    0.9932200000000000    0.0105150000000000 Zn
   0.8124650000000000    0.6734466666666666    0.4894900000000000 Zn
   0.9375300000000000    0.9932200000000000    0.0105150000000000 Zn
   0.0624650000000000    0.0067800000000000    0.9894900000000000 Zn
   0.1875300000000000    0.3265533333333333    0.5105150000000001 Zn
   0.3124650000000000    0.0067800000000000    0.9894900000000000 Zn
   0.4375300000000000    0.3265533333333333    0.5105150000000001 Zn
   0.5624650000000000    0.0067800000000000    0.9894900000000000 Zn
   0.6875300000000000    0.3265533333333333    0.5105150000000001 Zn
   0.8124650000000000    0.0067800000000000    0.9894900000000000 Zn
   0.9375300000000000    0.3265533333333333    0.5105150000000001 Zn
   0.0624650000000000    0.3401133333333333    0.9894900000000000 Zn
   0.1875300000000000    0.6598866666666666    0.5105150000000001 Zn
   0.3124650000000000    0.3401133333333333    0.9894900000000000 Zn
   0.4375300000000000    0.6598866666666666    0.5105150000000001 Zn
   0.5624650000000000    0.3401133333333333    0.9894900000000000 Zn
   0.6875300000000000    0.6598866666666666    0.5105150000000001 Zn
   0.8124650000000000    0.3401133333333333    0.9894900000000000 Zn
   0.9375300000000000    0.6598866666666666    0.5105150000000001 Zn
   0.0624650000000000    0.6734466666666666    0.9894900000000000 Zn
   0.1875300000000000    0.9932200000000000    0.5105150000000001 Zn
   0.3124650000000000    0.6734466666666666    0.9894900000000000 Zn
   0.4375300000000000    0.9932200000000000    0.5105150000000001 Zn
   0.5624650000000000    0.6734466666666666    0.9894900000000000 Zn
   0.6875300000000000    0.9932200000000000    0.5105150000000001 Zn
   0.8124650000000000    0.6734466666666666    0.9894900000000000 Zn
   0.9375300000000000    0.9932200000000000    0.5105150000000001 Zn
   0.2473175000000000    0.2662000000000000    0.0211350000000000 P
   0.1271500000000000    0.3198066666666667    0.1008250000000000 P
   0.0026825000000000    0.0671333333333333    0.4788750000000000 P
   0.1228450000000000    0.0135266666666667    0.3991850000000000 P
   0.4973175000000000    0.2662000000000000    0.0211350000000000 P
   0.3771500000000000    0.3198066666666667    0.1008250000000000 P
   0.2526825000000000    0.0671333333333333    0.4788750000000000 P
   0.3728450000000000    0.0135266666666667    0.3991850000000000 P
   0.7473175000000000    0.2662000000000000    0.0211350000000000 P
   0.6271500000000000    0.3198066666666667    0.1008250000000000 P
   0.5026825000000000    0.0671333333333333    0.4788750000000000 P
   0.6228450000000000    0.0135266666666667    0.3991850000000000 P
   0.9973175000000000    0.2662000000000000    0.0211350000000000 P
   0.8771500000000000    0.3198066666666667    0.1008250000000000 P
   0.7526825000000000    0.0671333333333333    0.4788750000000000 P
   0.8728450000000000    0.0135266666666667    0.3991850000000000 P
   0.2473175000000000    0.5995333333333333    0.0211350000000000 P
   0.1271500000000000    0.6531400000000001    0.1008250000000000 P
   0.0026825000000000    0.4004666666666666    0.4788750000000000 P
   0.1228450000000000    0.3468600000000000    0.3991850000000000 P
   0.4973175000000000    0.5995333333333333    0.0211350000000000 P
   0.3771500000000000    0.6531400000000001    0.1008250000000000 P
   0.2526825000000000    0.4004666666666666    0.4788750000000000 P
   0.3728450000000000    0.3468600000000000    0.3991850000000000 P
   0.7473175000000000    0.5995333333333333    0.0211350000000000 P
   0.6271500000000000    0.6531400000000001    0.1008250000000000 P
   0.6228450000000000    0.3468600000000000    0.3991850000000000 P
   0.9973175000000000    0.5995333333333333    0.0211350000000000 P
   0.8771500000000000    0.6531400000000001    0.1008250000000000 P
   0.7526825000000000    0.4004666666666666    0.4788750000000000 P
   0.8728450000000000    0.3468600000000000    0.3991850000000000 P
   0.2473175000000000    0.9328666666666666    0.0211350000000000 P
   0.1271500000000000    0.9864733333333333    0.1008250000000000 P
   0.0026825000000000    0.7338000000000000    0.4788750000000000 P
   0.1228450000000000    0.6801933333333333    0.3991850000000000 P
   0.4973175000000000    0.9328666666666666    0.0211350000000000 P
   0.3771500000000000    0.9864733333333333    0.1008250000000000 P
   0.2526825000000000    0.7338000000000000    0.4788750000000000 P
   0.3728450000000000    0.6801933333333333    0.3991850000000000 P
   0.7473175000000000    0.9328666666666666    0.0211350000000000 P
   0.6271500000000000    0.9864733333333333    0.1008250000000000 P
   0.5026825000000000    0.7338000000000000    0.4788750000000000 P
   0.6228450000000000    0.6801933333333333    0.3991850000000000 P
   0.9973175000000000    0.9328666666666666    0.0211350000000000 P
   0.8771500000000000    0.9864733333333333    0.1008250000000000 P
   0.7526825000000000    0.7338000000000000    0.4788750000000000 P
   0.8728450000000000    0.6801933333333333    0.3991850000000000 P
   0.2473175000000000    0.2662000000000000    0.5211350000000000 P
   0.1271500000000000    0.3198066666666667    0.6008249999999999 P
   0.0026825000000000    0.0671333333333333    0.9788749999999999 P
   0.1228450000000000    0.0135266666666667    0.8991850000000000 P
   0.4973175000000000    0.2662000000000000    0.5211350000000000 P
   0.3771500000000000    0.3198066666666667    0.6008249999999999 P
   0.2526825000000000    0.0671333333333333    0.9788749999999999 P
   0.3728450000000000    0.0135266666666667    0.8991850000000000 P
   0.7473175000000000    0.2662000000000000    0.5211350000000000 P
   0.6271500000000000    0.3198066666666667    0.6008249999999999 P
   0.5026825000000000    0.0671333333333333    0.9788749999999999 P
   0.6228450000000000    0.0135266666666667    0.8991850000000000 P
   0.9973175000000000    0.2662000000000000    0.5211350000000000 P
   0.8771500000000000    0.3198066666666667    0.6008249999999999 P
   0.7526825000000000    0.0671333333333333    0.9788749999999999 P
   0.8728450000000000    0.0135266666666667    0.8991850000000000 P
   0.2473175000000000    0.5995333333333333    0.5211350000000000 P
   0.1271500000000000    0.6531400000000001    0.6008249999999999 P
   0.0026825000000000    0.4004666666666666    0.9788749999999999 P
   0.1228450000000000    0.3468600000000000    0.8991850000000000 P
   0.3771500000000000    0.6531400000000001    0.6008249999999999 P
   0.2526825000000000    0.4004666666666666    0.9788749999999999 P
   0.3728450000000000    0.3468600000000000    0.8991850000000000 P
   0.7473175000000000    0.5995333333333333    0.5211350000000000 P
   0.6271500000000000    0.6531400000000001    0.6008249999999999 P
   0.5026825000000000    0.4004666666666666    0.9788749999999999 P
   0.6228450000000000    0.3468600000000000    0.8991850000000000 P
   0.9973175000000000    0.5995333333333333    0.5211350000000000 P
   0.8771500000000000    0.6531400000000001    0.6008249999999999 P
   0.7526825000000000    0.4004666666666666    0.9788749999999999 P
   0.8728450000000000    0.3468600000000000    0.8991850000000000 P
   0.2473175000000000    0.9328666666666666    0.5211350000000000 P
   0.1271500000000000    0.9864733333333333    0.6008249999999999 P
   0.0026825000000000    0.7338000000000000    0.9788749999999999 P
   0.1228450000000000    0.6801933333333333    0.8991850000000000 P
   0.4973175000000000    0.9328666666666666    0.5211350000000000 P
   0.3771500000000000    0.9864733333333333    0.6008249999999999 P
   0.2526825000000000    0.7338000000000000    0.9788749999999999 P
   0.3728450000000000    0.6801933333333333    0.8991850000000000 P
   0.7473175000000000    0.9328666666666666    0.5211350000000000 P
   0.6271500000000000    0.9864733333333333    0.6008249999999999 P
   0.5026825000000000    0.7338000000000000    0.9788749999999999 P
   0.6228450000000000    0.6801933333333333    0.8991850000000000 P
   0.9973175000000000    0.9328666666666666    0.5211350000000000 P
   0.8771500000000000    0.9864733333333333    0.6008249999999999 P
   0.7526825000000000    0.7338000000000000    0.9788749999999999 P
   0.8728450000000000    0.6801933333333333    0.8991850000000000 P
   0.0004800000000000    0.2681800000000000    0.1256250000000000 H
   0.1831625000000000    0.2213066666666667    0.4789300000000000 H
   0.0560125000000000    0.2194766666666667    0.0409650000000000 H
   0.1250525000000000    0.2500433333333333    0.0970750000000000 H
   0.1915800000000000    0.0146700000000000    0.1671950000000000 H
   0.0687075000000000    0.3067666666666666    0.1715250000000000 H
   0.2495200000000000    0.0651533333333333    0.3743800000000000 H
   0.0668375000000000    0.1120266666666667    0.0210800000000000 H
   0.1939875000000000    0.1138566666666667    0.4590400000000000 H
   0.1249450000000000    0.0832900000000000    0.4029350000000000 H
   0.0584175000000000    0.3186666666666667    0.3328150000000000 H
   0.1812900000000000    0.0265700000000000    0.3284800000000000 H
   0.2504800000000000    0.2681800000000000    0.1256250000000000 H
   0.4331625000000000    0.2213066666666667    0.4789300000000000 H
   0.3060125000000000    0.2194766666666667    0.0409650000000000 H
   0.3750525000000000    0.2500433333333333    0.0970750000000000 H
   0.4415800000000000    0.0146700000000000    0.1671950000000000 H
   0.3187075000000000    0.3067666666666666    0.1715250000000000 H
   0.4995200000000000    0.0651533333333333    0.3743800000000000 H
   0.3168375000000000    0.1120266666666667    0.0210800000000000 H
   0.4439875000000000    0.1138566666666667    0.4590400000000000 H
   0.3749450000000000    0.0832900000000000    0.4029350000000000 H
   0.3084175000000000    0.3186666666666667    0.3328150000000000 H
   0.4312900000000000    0.0265700000000000    0.3284800000000000 H
   0.5004800000000000    0.2681800000000000    0.1256250000000000 H
   0.6831625000000000    0.2213066666666667    0.4789300000000000 H
   0.5560125000000000    0.2194766666666667    0.0409650000000000 H
   0.6250525000000000    0.2500433333333333    0.0970750000000000 H
   0.6915800000000000    0.0146700000000000    0.1671950000000000 H
   0.5687075000000000    0.3067666666666666    0.1715250000000000 H
   0.7495200000000000    0.0651533333333333    0.3743800000000000 H
   0.5668375000000000    0.1120266666666667    0.0210800000000000 H
   0.6939875000000000    0.1138566666666667    0.4590400000000000 H
   0.6249450000000000    0.0832900000000000    0.4029350000000000 H
   0.5584175000000000    0.3186666666666667    0.3328150000000000 H
   0.6812900000000000    0.0265700000000000    0.3284800000000000 H
   0.7504800000000000    0.2681800000000000    0.1256250000000000 H
   0.9331625000000000    0.2213066666666667    0.4789300000000000 H
   0.8060125000000000    0.2194766666666667    0.0409650000000000 H
   0.8750525000000000    0.2500433333333333    0.0970750000000000 H
   0.9415800000000000    0.0146700000000000    0.1671950000000000 H
   0.8187075000000000    0.3067666666666666    0.1715250000000000 H
   0.9995200000000000    0.0651533333333333    0.3743800000000000 H
   0.8168375000000000    0.1120266666666667    0.0210800000000000 H
   0.9439875000000000    0.1138566666666667    0.4590400000000000 H
   0.8749450000000000    0.0832900000000000    0.4029350000000000 H
   0.8084175000000000    0.3186666666666667    0.3328150000000000 H
   0.9312900000000000    0.0265700000000000    0.3284800000000000 H
   0.0004800000000000    0.6015133333333333    0.1256250000000000 H
   0.1831625000000000    0.5546400000000000    0.4789300000000000 H
   0.0560125000000000    0.5528100000000000    0.0409650000000000 H
   0.1250525000000000    0.5833766666666667    0.0970750000000000 H
   0.1915800000000000    0.3480033333333333    0.1671950000000000 H
   0.0687075000000000    0.6400999999999999    0.1715250000000000 H
   0.2495200000000000    0.3984866666666667    0.3743800000000000 H
   0.0668375000000000    0.4453600000000000    0.0210800000000000 H
   0.1939875000000000    0.4471900000000000    0.4590400000000000 H
   0.1249450000000000    0.4166233333333333    0.4029350000000000 H
   0.0584175000000000    0.6519999999999999    0.3328150000000000 H
   0.1812900000000000    0.3599033333333333    0.3284800000000000 H
   0.2504800000000000    0.6015133333333333    0.1256250000000000 H
   0.3060125000000000    0.5528100000000000    0.0409650000000000 H
   0.3750525000000000    0.5833766666666667    0.0970750000000000 H
   0.4415800000000000    0.3480033333333333    0.1671950000000000 H
   0.3187075000000000    0.6400999999999999    0.1715250000000000 H
   0.3168375000000000    0.4453600000000000    0.0210800000000000 H
   0.3749450000000000    0.4166233333333333    0.4029350000000000 H
   0.3084175000000000    0.6519999999999999    0.3328150000000000 H
   0.4312900000000000    0.3599033333333333    0.3284800000000000 H
   0.5004800000000000    0.6015133333333333    0.1256250000000000 H
   0.6831625000000000    0.5546400000000000    0.4789300000000000 H
   0.5560125000000000    0.5528100000000000    0.0409650000000000 H
   0.6250525000000000    0.5833766666666667    0.0970750000000000 H
   0.6915800000000000    0.3480033333333333    0.1671950000000000 H
   0.5687075000000000    0.6400999999999999    0.1715250000000000 H
   0.7495200000000000    0.3984866666666667    0.3743800000000000 H
   0.5668375000000000    0.4453600000000000    0.0210800000000000 H
   0.6939875000000000    0.4471900000000000    0.4590400000000000 H
   0.6249450000000000    0.4166233333333333    0.4029350000000000 H
   0.5584175000000000    0.6519999999999999    0.3328150000000000 H
   0.6812900000000000    0.3599033333333333    0.3284800000000000 H
   0.7504800000000000    0.6015133333333333    0.1256250000000000 H
   0.9331625000000000    0.5546400000000000    0.4789300000000000 H
   0.8060125000000000    0.5528100000000000    0.0409650000000000 H
   0.8750525000000000    0.5833766666666667    0.0970750000000000 H
   0.9415800000000000    0.3480033333333333    0.1671950000000000 H
   0.8187075000000000    0.6400999999999999    0.1715250000000000 H
   0.9995200000000000    0.3984866666666667    0.3743800000000000 H
   0.8168375000000000    0.4453600000000000    0.0210800000000000 H
   0.9439875000000000    0.4471900000000000    0.4590400000000000 H
   0.8749450000000000    0.4166233333333333    0.4029350000000000 H
   0.8084175000000000    0.6519999999999999    0.3328150000000000 H
   0.9312900000000000    0.3599033333333333    0.3284800000000000 H
   0.0004800000000000    0.9348466666666666    0.1256250000000000 H
   0.1831625000000000    0.8879733333333333    0.4789300000000000 H
   0.0560125000000000    0.8861433333333333    0.0409650000000000 H
   0.1250525000000000    0.9167099999999999    0.0970750000000000 H
   0.1915800000000000    0.6813366666666666    0.1671950000000000 H
   0.0687075000000000    0.9734333333333333    0.1715250000000000 H
   0.2495200000000000    0.7318199999999999    0.3743800000000000 H
   0.0668375000000000    0.7786933333333332    0.0210800000000000 H
   0.1939875000000000    0.7805233333333332    0.4590400000000000 H
   0.1249450000000000    0.7499566666666666    0.4029350000000000 H
   0.0584175000000000    0.9853333333333333    0.3328150000000000 H
   0.1812900000000000    0.6932366666666666    0.3284800000000000 H
   0.2504800000000000    0.9348466666666666    0.1256250000000000 H
   0.4331625000000000    0.8879733333333333    0.4789300000000000 H
   0.3060125000000000    0.8861433333333333    0.0409650000000000 H
   0.3750525000000000    0.9167099999999999    0.0970750000000000 H
   0.4415800000000000    0.6813366666666666    0.1671950000000000 H
   0.3187075000000000    0.9734333333333333    0.1715250000000000 H
   0.4995200000000000    0.7318199999999999    0.3743800000000000 H
   0.3168375000000000    0.7786933333333332    0.0210800000000000 H
   0.4439875000000000    0.7805233333333332    0.4590400000000000 H
   0.3749450000000000    0.7499566666666666    0.4029350000000000 H
   0.3084175000000000    0.9853333333333333    0.3328150000000000 H
   0.4312900000000000    0.6932366666666666    0.3284800000000000 H
   0.5004800000000000    0.9348466666666666    0.1256250000000000 H
   0.6831625000000000    0.8879733333333333    0.4789300000000000 H
   0.5560125000000000    0.8861433333333333    0.0409650000000000 H
   0.6250525000000000    0.9167099999999999    0.0970750000000000 H
   0.6915800000000000    0.6813366666666666    0.1671950000000000 H
   0.5687075000000000    0.9734333333333333    0.1715250000000000 H
   0.7495200000000000    0.7318199999999999    0.3743800000000000 H
   0.5668375000000000    0.7786933333333332    0.0210800000000000 H
   0.6939875000000000    0.7805233333333332    0.4590400000000000 H
   0.6249450000000000    0.7499566666666666    0.4029350000000000 H
   0.5584175000000000    0.9853333333333333    0.3328150000000000 H
   0.6812900000000000    0.6932366666666666    0.3284800000000000 H
   0.7504800000000000    0.9348466666666666    0.1256250000000000 H
   0.9331625000000000    0.8879733333333333    0.4789300000000000 H
   0.8060125000000000    0.8861433333333333    0.0409650000000000 H
   0.8750525000000000    0.9167099999999999    0.0970750000000000 H
   0.9415800000000000    0.6813366666666666    0.1671950000000000 H
   0.8187075000000000    0.9734333333333333    0.1715250000000000 H
   0.9995200000000000    0.7318199999999999    0.3743800000000000 H
   0.8168375000000000    0.7786933333333332    0.0210800000000000 H
   0.9439875000000000    0.7805233333333332    0.4590400000000000 H
   0.8749450000000000    0.7499566666666666    0.4029350000000000 H
   0.8084175000000000    0.9853333333333333    0.3328150000000000 H
   0.9312900000000000    0.6932366666666666    0.3284800000000000 H
   0.0004800000000000    0.2681800000000000    0.6256250000000000 H
   0.1831625000000000    0.2213066666666667    0.9789300000000001 H
   0.0560125000000000    0.2194766666666667    0.5409650000000000 H
   0.1250525000000000    0.2500433333333333    0.5970750000000000 H
   0.1915800000000000    0.0146700000000000    0.6671950000000000 H
   0.0687075000000000    0.3067666666666666    0.6715250000000000 H
   0.2495200000000000    0.0651533333333333    0.8743799999999999 H
   0.0668375000000000    0.1120266666666667    0.5210800000000000 H
   0.1939875000000000    0.1138566666666667    0.9590400000000000 H
   0.1249450000000000    0.0832900000000000    0.9029350000000000 H
   0.0584175000000000    0.3186666666666667    0.8328150000000001 H
   0.1812900000000000    0.0265700000000000    0.8284800000000000 H
   0.2504800000000000    0.2681800000000000    0.6256250000000000 H
   0.4331625000000000    0.2213066666666667    0.9789300000000001 H
   0.3060125000000000    0.2194766666666667    0.5409650000000000 H
   0.3750525000000000    0.2500433333333333    0.5970750000000000 H
   0.4415800000000000    0.0146700000000000    0.6671950000000000 H
   0.3187075000000000    0.3067666666666666    0.6715250000000000 H
   0.4995200000000000    0.0651533333333333    0.8743799999999999 H
   0.3168375000000000    0.1120266666666667    0.5210800000000000 H
   0.4439875000000000    0.1138566666666667    0.9590400000000000 H
   0.3749450000000000    0.0832900000000000    0.9029350000000000 H
   0.3084175000000000    0.3186666666666667    0.8328150000000001 H
   0.4312900000000000    0.0265700000000000    0.8284800000000000 H
   0.5004800000000000    0.2681800000000000    0.6256250000000000 H
   0.6831625000000000    0.2213066666666667    0.9789300000000001 H
   0.5560125000000000    0.2194766666666667    0.5409650000000000 H
   0.6250525000000000    0.2500433333333333    0.5970750000000000 H
   0.6915800000000000    0.0146700000000000    0.6671950000000000 H
   0.5687075000000000    0.3067666666666666    0.6715250000000000 H
   0.7495200000000000    0.0651533333333333    0.8743799999999999 H
   0.5668375000000000    0.1120266666666667    0.5210800000000000 H
   0.6939875000000000    0.1138566666666667    0.9590400000000000 H
   0.6249450000000000    0.0832900000000000    0.9029350000000000 H
   0.5584175000000000    0.3186666666666667    0.8328150000000001 H
   0.6812900000000000    0.0265700000000000    0.8284800000000000 H
   0.7504800000000000    0.2681800000000000    0.6256250000000000 H
   0.9331625000000000    0.2213066666666667    0.9789300000000001 H
   0.8060125000000000    0.2194766666666667    0.5409650000000000 H
   0.8750525000000000    0.2500433333333333    0.5970750000000000 H
   0.9415800000000000    0.0146700000000000    0.6671950000000000 H
   0.8187075000000000    0.3067666666666666    0.6715250000000000 H
   0.9995200000000000    0.0651533333333333    0.8743799999999999 H
   0.8168375000000000    0.1120266666666667    0.5210800000000000 H
   0.9439875000000000    0.1138566666666667    0.9590400000000000 H
   0.8749450000000000    0.0832900000000000    0.9029350000000000 H
   0.8084175000000000    0.3186666666666667    0.8328150000000001 H
   0.9312900000000000    0.0265700000000000    0.8284800000000000 H
   0.0004800000000000    0.6015133333333333    0.6256250000000000 H
   0.1831625000000000    0.5546400000000000    0.9789300000000001 H
   0.0560125000000000    0.5528100000000000    0.5409650000000000 H
   0.1250525000000000    0.5833766666666667    0.5970750000000000 H
   0.1915800000000000    0.3480033333333333    0.6671950000000000 H
   0.0687075000000000    0.6400999999999999    0.6715250000000000 H
   0.2495200000000000    0.3984866666666667    0.8743799999999999 H
   0.0668375000000000    0.4453600000000000    0.5210800000000000 H
   0.1939875000000000    0.4471900000000000    0.9590400000000000 H
   0.1249450000000000    0.4166233333333333    0.9029350000000000 H
   0.0584175000000000    0.6519999999999999    0.8328150000000001 H
   0.1812900000000000    0.3599033333333333    0.8284800000000000 H
   0.2504800000000000    0.6015133333333333    0.6256250000000000 H
   0.4331625000000000    0.5546400000000000    0.9789300000000001 H
   0.3060125000000000    0.5528100000000000    0.5409650000000000 H
   0.3750525000000000    0.5833766666666667    0.5970750000000000 H
   0.4415800000000000    0.3480033333333333    0.6671950000000000 H
   0.3187075000000000    0.6400999999999999    0.6715250000000000 H
   0.4995200000000000    0.3984866666666667    0.8743799999999999 H
   0.3168375000000000    0.4453600000000000    0.5210800000000000 H
   0.4439875000000000    0.4471900000000000    0.9590400000000000 H
   0.3749450000000000    0.4166233333333333    0.9029350000000000 H
   0.3084175000000000    0.6519999999999999    0.8328150000000001 H
   0.4312900000000000    0.3599033333333333    0.8284800000000000 H
   0.6831625000000000    0.5546400000000000    0.9789300000000001 H
   0.6250525000000000    0.5833766666666667    0.5970750000000000 H
   0.6915800000000000    0.3480033333333333    0.6671950000000000 H
   0.5687075000000000    0.6400999999999999    0.6715250000000000 H
   0.7495200000000000    0.3984866666666667    0.8743799999999999 H
   0.6939875000000000    0.4471900000000000    0.9590400000000000 H
   0.6249450000000000    0.4166233333333333    0.9029350000000000 H
   0.5584175000000000    0.6519999999999999    0.8328150000000001 H
   0.6812900000000000    0.3599033333333333    0.8284800000000000 H
   0.7504800000000000    0.6015133333333333    0.6256250000000000 H
   0.9331625000000000    0.5546400000000000    0.9789300000000001 H
   0.8060125000000000    0.5528100000000000    0.5409650000000000 H
   0.8750525000000000    0.5833766666666667    0.5970750000000000 H
   0.9415800000000000    0.3480033333333333    0.6671950000000000 H
   0.8187075000000000    0.6400999999999999    0.6715250000000000 H
   0.9995200000000000    0.3984866666666667    0.8743799999999999 H
   0.8168375000000000    0.4453600000000000    0.5210800000000000 H
   0.9439875000000000    0.4471900000000000    0.9590400000000000 H
   0.8749450000000000    0.4166233333333333    0.9029350000000000 H
   0.8084175000000000    0.6519999999999999    0.8328150000000001 H
   0.9312900000000000    0.3599033333333333    0.8284800000000000 H
   0.0004800000000000    0.9348466666666666    0.6256250000000000 H
   0.1831625000000000    0.8879733333333333    0.9789300000000001 H
   0.0560125000000000    0.8861433333333333    0.5409650000000000 H
   0.1250525000000000    0.9167099999999999    0.5970750000000000 H
   0.1915800000000000    0.6813366666666666    0.6671950000000000 H
   0.0687075000000000    0.9734333333333333    0.6715250000000000 H
   0.2495200000000000    0.7318199999999999    0.8743799999999999 H
   0.0668375000000000    0.7786933333333332    0.5210800000000000 H
   0.1939875000000000    0.7805233333333332    0.9590400000000000 H
   0.1249450000000000    0.7499566666666666    0.9029350000000000 H
   0.0584175000000000    0.9853333333333333    0.8328150000000001 H
   0.1812900000000000    0.6932366666666666    0.8284800000000000 H
   0.2504800000000000    0.9348466666666666    0.6256250000000000 H
   0.4331625000000000    0.8879733333333333    0.9789300000000001 H
   0.3060125000000000    0.8861433333333333    0.5409650000000000 H
   0.3750525000000000    0.9167099999999999    0.5970750000000000 H
   0.4415800000000000    0.6813366666666666    0.6671950000000000 H
   0.3187075000000000    0.9734333333333333    0.6715250000000000 H
   0.4995200000000000    0.7318199999999999    0.8743799999999999 H
   0.3168375000000000    0.7786933333333332    0.5210800000000000 H
   0.4439875000000000    0.7805233333333332    0.9590400000000000 H
   0.3749450000000000    0.7499566666666666    0.9029350000000000 H
   0.3084175000000000    0.9853333333333333    0.8328150000000001 H
   0.4312900000000000    0.6932366666666666    0.8284800000000000 H
   0.5004800000000000    0.9348466666666666    0.6256250000000000 H
   0.6831625000000000    0.8879733333333333    0.9789300000000001 H
   0.5560125000000000    0.8861433333333333    0.5409650000000000 H
   0.6250525000000000    0.9167099999999999    0.5970750000000000 H
   0.6915800000000000    0.6813366666666666    0.6671950000000000 H
   0.5687075000000000    0.9734333333333333    0.6715250000000000 H
   0.7495200000000000    0.7318199999999999    0.8743799999999999 H
   0.5668375000000000    0.7786933333333332    0.5210800000000000 H
   0.6939875000000000    0.7805233333333332    0.9590400000000000 H
   0.6249450000000000    0.7499566666666666    0.9029350000000000 H
   0.5584175000000000    0.9853333333333333    0.8328150000000001 H
   0.6812900000000000    0.6932366666666666    0.8284800000000000 H
   0.7504800000000000    0.9348466666666666    0.6256250000000000 H
   0.9331625000000000    0.8879733333333333    0.9789300000000001 H
   0.8060125000000000    0.8861433333333333    0.5409650000000000 H
   0.8750525000000000    0.9167099999999999    0.5970750000000000 H
   0.9415800000000000    0.6813366666666666    0.6671950000000000 H
   0.8187075000000000    0.9734333333333333    0.6715250000000000 H
   0.9995200000000000    0.7318199999999999    0.8743799999999999 H
   0.8168375000000000    0.7786933333333332    0.5210800000000000 H
   0.9439875000000000    0.7805233333333332    0.9590400000000000 H
   0.8749450000000000    0.7499566666666666    0.9029350000000000 H
   0.8084175000000000    0.9853333333333333    0.8328150000000001 H
   0.9312900000000000    0.6932366666666666    0.8284800000000000 H
   0.2153325000000000    0.1800066666666666    0.4851750000000000 C
   0.2474125000000000    0.2100766666666666    0.0088700000000000 C
   0.0313375000000000    0.1963433333333333    0.0231200000000000 C
   0.1596275000000000    0.0098833333333333    0.2295600000000000 C
   0.1273725000000000    0.3277800000000000    0.1848950000000000 C
   0.0935000000000000    0.3183200000000000    0.2059250000000000 C
   0.0346675000000000    0.1533266666666667    0.0148350000000000 C
   0.0025875000000000    0.1232566666666667    0.4911350000000000 C
   0.2186625000000000    0.1369900000000000    0.4768900000000000 C
   0.0903700000000000    0.3234500000000000    0.2704500000000000 C
   0.1226250000000000    0.0055533333333333    0.3151100000000000 C
   0.1564975000000000    0.0150133333333333    0.2940850000000000 C