H8 C10 N2
1.0
  13.9676857210714456    0.0000000000000000    1.1260215794454600
   0.4576175856792464   15.1590840597950773    0.9055416132590927
   0.0000000000000000    0.0000000000000000   30.6340000000000003
H C N
8 10 2
direct
   0.2034600000000000    0.6428100000000000    0.9920450000000001 H
   0.0606900000000000    0.5849800000000001    0.8556600000000000 H
   0.2383500000000000    0.5907700000000000    0.8540600000000000 H
   0.0281500000000000    0.6300700000000000    0.9880750000000000 H
   0.5486000000000000    0.6627500000000000    0.8607650000000000 H
   0.5227400000000000    0.5798100000000000    0.9919500000000000 H
   0.3454200000000000    0.5722200000000000    0.9930350000000000 H
   0.3711200000000000    0.6666666666666666    0.8563750000000000 H
   0.2370800000000000    0.6171300000000000    0.9232199999999999 C
   0.1759000000000000    0.6283000000000000    0.9611400000000000 C
   0.0961200000000000    0.5975000000000000    0.8849549999999999 C
   0.1949200000000000    0.6020799999999999    0.8844000000000001 C
   0.0777900000000000    0.6225200000000000    0.9592499999999999 C
   0.3420500000000000    0.6195700000000000    0.9244500000000000 C
   0.4999200000000000    0.6444500000000000    0.8891350000000000 C
   0.4854600000000000    0.5974200000000000    0.9626850000000000 C
   0.3864700000000000    0.5952800000000000    0.9630799999999999 C
   0.4013500000000000    0.6451800000000000    0.8870450000000000 C
   0.0381400000000000    0.6071299999999999    0.9218150000000001 N
   0.5417900000000000    0.6206900000000000    0.9263450000000000 N
