H6 O4
1.0
  13.9676857210714456    0.0000000000000000    1.1260215794454600
   0.4576175856792464   15.1590840597950773    0.9055416132590927
   0.0000000000000000    0.0000000000000000   30.6340000000000003
H O
6 4
direct
   0.0773816396521026    0.3745380873355757   -0.0011637508577139 H
   0.3608616194006517    0.4063073881130737   -0.0096033320341827 H
   0.2206693824421459    0.3905264518063589   -0.0098556287929596 H
   0.3375165160878265    0.3618297233265267    0.6527888737842592 H
   0.0566296426676137    0.4187639106880777    0.6635485268403979 H
   0.1934905611363946    0.3908604134671855    0.6629113213950252 H
   0.1378400000000000    0.3815400000000000    0.0114050000000000 O
   0.2986700000000000    0.3995600000000000    0.0063600000000000 O
   0.2769200000000000    0.3746400000000000    0.6401600000000001 O
   0.1172400000000000    0.4069800000000000    0.6470200000000000 O
