H7 C13 N1 O4
1.0
  13.9676857210714456    0.0000000000000000    1.1260215794454600
   0.4576175856792464   15.1590840597950773    0.9055416132590927
   0.0000000000000000    0.0000000000000000   30.6340000000000003
H C N O
7 13 1 4
direct
   0.3726000000000000    0.3934300000000000    0.8489450000000001 H
   0.3747600000000000    0.3942900000000000    0.9303000000000000 H
   0.0679600000000000    0.3832300000000000    0.9394250000000000 H
   0.3490100000000000    0.3432900000000000    0.7087000000000000 H
   0.3591100000000000    0.3384800000000000    0.7889900000000001 H
   0.0634100000000000    0.4257200000000000    0.8060250000000000 H
   0.0543700000000000    0.4295800000000000    0.7245750000000000 H
   0.2213600000000000    0.3876100000000000    0.9412000000000000 C
   0.2015700000000000    0.3876700000000000    0.7114500000000000 C
   0.2188400000000000    0.3896100000000000    0.9901000000000000 C
   0.3060000000000000    0.3893000000000000    0.8697750000000000 C
   0.3077100000000000    0.3903700000000000    0.9149650000000000 C
   0.1367300000000000    0.3840200000000000    0.9200050000000000 C
   0.1977200000000000    0.3900100000000000    0.6625500000000000 C
   0.2176800000000000    0.3846800000000000    0.8512450000000000 C
   0.2121600000000000    0.3843500000000000    0.8032250000000001 C
   0.2870300000000000    0.3622500000000000    0.7301900000000000 C
   0.2923300000000000    0.3604400000000000    0.7753000000000000 C
   0.1260000000000000    0.4086600000000000    0.7843750000000000 C
   0.1209400000000000    0.4103800000000000    0.7391000000000000 C
   0.1337700000000000    0.3824700000000000    0.8765200000000000 N
   0.1378400000000000    0.3815400000000000    0.0114050000000000 O
   0.2986700000000000    0.3995600000000000    0.0063600000000000 O
   0.2769200000000000    0.3746400000000000    0.6401600000000001 O
   0.1172400000000000    0.4069800000000000    0.6470200000000000 O
