H6 O4
1.0
  13.9676857210714456    0.0000000000000000    1.1260215794454600
   0.4576175856792464   15.1590840597950773    0.9055416132590927
   0.0000000000000000    0.0000000000000000   30.6340000000000003
H O
6 4
direct
   0.0736076226014386    0.5567505779243430    0.5682470292948235 H
   0.3569071627974421    0.5527047174152313    0.5747671971970694 H
   0.2171997595315917    0.5642325349491175    0.5712531080117934 H
   0.0707964199397989    0.2372382247702862    0.5970639619625476 H
   0.3513253527930821    0.2156551401643934    0.5642496909645148 H
   0.2133084303698675    0.2166202814601559    0.5806477909979219 H
   0.1348400000000000    0.5257600000000000    0.5706000000000000 O
   0.2961000000000000    0.5243000000000000    0.5742850000000000 O
   0.1325800000000000    0.2629800000000000    0.5890350000000000 O
   0.2923200000000000    0.2495400000000000    0.5703800000000000 O
