Cu24 H228 C176 I24 N44 O4
1.0
  15.9673138026519297    0.0000000000000000   -4.4020289557931305
  -5.7802402534578947   14.8780474168912562   -4.4457045193130398
   0.0000000000000000    0.0000000000000000   33.1420000000000030
Cu H C I N O
24 228 176 24 44 4
direct
   0.9380200000000000    0.2508800000000000    0.2817800000000000 Cu
   0.0620200000000000    0.4365900000000000    0.3746150000000000 Cu
   0.0619900000000000    0.7491700000000000    0.2182200000000000 Cu
   0.9379999999999999    0.5634600000000000    0.1253850000000000 Cu
   0.9379999999999999    0.5634600000000000    0.6253850000000000 Cu
   0.0620200000000000    0.4365900000000000    0.8746149999999999 Cu
   0.0619900000000000    0.7491700000000000    0.7182200000000000 Cu
   0.9380200000000000    0.2508800000000000    0.7817799999999999 Cu
   0.5637300000000000    0.9383200000000000    0.6252949999999999 Cu
   0.7493900000000000    0.0622100000000000    0.7182250000000000 Cu
   0.4362800000000000    0.0617400000000000    0.8747100000000000 Cu
   0.2506400000000000    0.9378900000000000    0.7817900000000000 Cu
   0.5636500000000000    0.2505000000000000    0.9690900000000000 Cu
   0.2506300000000000    0.5637600000000000    0.9690050000000000 Cu
   0.4363700000000000    0.7495700000000000    0.0309150000000000 Cu
   0.7493900000000000    0.4362900000000000    0.0310050000000000 Cu
   0.5637300000000000    0.9383200000000000    0.1252950000000000 Cu
   0.7493900000000000    0.0622100000000000    0.2182250000000000 Cu
   0.4362800000000000    0.0617400000000000    0.3747100000000000 Cu
   0.2506400000000000    0.9378900000000000    0.2817900000000000 Cu
   0.5636500000000000    0.2505000000000000    0.4690900000000000 Cu
   0.2506300000000000    0.5637600000000000    0.4690050000000000 Cu
   0.4363700000000000    0.7495700000000000    0.5309150000000000 Cu
   0.7493900000000000    0.4362900000000000    0.5310049999999999 Cu
   0.9967324633142776    0.3743825738484566    0.3052905743715428 H
  -0.0019648132871884    0.3906253689533352    0.3067131776795692 H
   0.9842984598503982    0.3771298175959783    0.2475444349577663 H
   0.0157206178498151    0.5050420808755435    0.3114632704163464 H
   0.0032722631287176    0.6256725759614093    0.1947086289108003 H
   1.0019735844865352    0.6094218680106366    0.1932962795282709 H
   0.0157189303852760    0.6229200677490401    0.2524561455377801 H
   0.9842967716436176    0.4950090692204130    0.1885366723534452 H
   0.7835299999999999    0.2942000000000000    0.6131550000000000 H
   0.8128400000000000    0.3442100000000000    0.6720650000000000 H
   0.7836000000000000    0.2263600000000000    0.6472200000000000 H
   0.8835000000000000    0.2287300000000000    0.5807500000000000 H
   0.8833900000000000    0.1613800000000000    0.6144400000000000 H
   0.9873900000000000    0.2332500000000000    0.6167500000000000 H
   0.9256400000000000    0.2373500000000000    0.7007650000000000 H
   0.0302000000000000    0.2927300000000000    0.6980600000000000 H
   0.0743700000000000    0.7627000000000000    0.7992300000000000 H
   0.9698200000000000    0.7073199999999999    0.8019400000000000 H
   0.9255300000000000    0.4013500000000000    0.6186600000000000 H
   0.0301300000000000    0.3959200000000000    0.6463550000000000 H
   0.0744900000000000    0.5987000000000000    0.8813400000000000 H
   0.9698900000000000    0.6041299999999999    0.8536450000000000 H
   0.2164100000000000    0.7736800000000000    0.8527800000000000 H
   0.2164900000000000    0.7058500000000000    0.8868400000000001 H
   0.1871700000000000    0.6558400000000000    0.8279300000000001 H
   0.1165200000000000    0.7713200000000000    0.9192500000000000 H
   0.1166300000000000    0.8386700000000000    0.8855600000000000 H
   0.0126300000000000    0.7668000000000000    0.8832249999999999 H
   0.9032100000000000    0.9036100000000000    0.8065950000000000 H
   0.8556600000000000    0.7886100000000000    0.7988999999999999 H
   0.7882100000000000    0.8559600000000001    0.7989100000000000 H
   0.7082100000000000    0.7080900000000000    0.6770900000000000 H
   0.7416600000000000    0.6742200000000000    0.7233700000000001 H
   0.6740400000000000    0.7418600000000000    0.7233250000000000 H
   0.2555100000000000    0.0901600000000000    0.7659250000000000 H
   0.2345100000000000    0.1329800000000000    0.8148450000000000 H
   0.7445000000000001    0.9098900000000000    0.7340700000000000 H
   0.7655100000000000    0.8670900000000000    0.6851500000000000 H
   0.0902900000000000    0.2555100000000000    0.7659250000000000 H
   0.1328300000000000    0.2346500000000000    0.8148350000000000 H
   0.9097300000000000    0.7445500000000000    0.7340700000000000 H
   0.8671800000000000    0.7654100000000000    0.6851650000000000 H
   0.0968100000000000    0.0964400000000000    0.6934000000000000 H
   0.2118100000000000    0.1441000000000000    0.7010900000000000 H
   0.1443600000000000    0.2114400000000000    0.7010950000000000 H
   0.2918100000000000    0.2919700000000000    0.8229050000000000 H
   0.3259800000000000    0.2581900000000000    0.7766750000000000 H
   0.2583600000000000    0.3258300000000000    0.7766250000000000 H
   0.9032100000000000    0.9036100000000000    0.3065950000000000 H
   0.8556600000000000    0.7886100000000000    0.2989000000000000 H
   0.7882100000000000    0.8559600000000001    0.2989100000000000 H
   0.7082100000000000    0.7080900000000000    0.1770900000000000 H
   0.7416600000000000    0.6742200000000000    0.2233700000000000 H
   0.6740400000000000    0.7418600000000000    0.2233250000000000 H
   0.2555100000000000    0.0901600000000000    0.2659250000000000 H
   0.2345100000000000    0.1329800000000000    0.3148450000000000 H
   0.7445000000000001    0.9098900000000000    0.2340700000000000 H
   0.7655100000000000    0.8670900000000000    0.1851500000000000 H
   0.0902900000000000    0.2555100000000000    0.2659250000000000 H
   0.1328300000000000    0.2346500000000000    0.3148350000000000 H
   0.9097300000000000    0.7445500000000000    0.2340700000000000 H
   0.8671800000000000    0.7654100000000000    0.1851650000000000 H
   0.0968100000000000    0.0964400000000000    0.1934000000000000 H
   0.2118100000000000    0.1441000000000000    0.2010900000000000 H
   0.1443600000000000    0.2114400000000000    0.2010950000000000 H
   0.2918100000000000    0.2919700000000000    0.3229050000000000 H
   0.3259800000000000    0.2581900000000000    0.2766750000000000 H
   0.2583600000000000    0.3258300000000000    0.2766250000000000 H
   0.9031900000000000    0.6131700000000000    0.4517100000000000 H
   0.7881800000000000    0.5978700000000000    0.4279100000000000 H
   0.8555199999999999    0.5977600000000000    0.3942050000000000 H
   0.7080900000000000    0.3542100000000000    0.3539900000000000 H
   0.7416400000000000    0.4466300000000000    0.3369950000000000 H
   0.6740200000000000    0.4468100000000000    0.3707950000000000 H
   0.7444800000000000    0.4681800000000000    0.4548500000000000 H
   0.7654900000000000    0.3703300000000000    0.4334500000000000 H
   0.2555400000000000    0.5318700000000000    0.5451500000000000 H
   0.2345200000000000    0.6297199999999999    0.5665000000000000 H
   0.9096600000000000    0.4680800000000000    0.3722200000000000 H
   0.8672000000000000    0.3703100000000000    0.3826750000000000 H
   0.0903500000000000    0.5319700000000001    0.6277500000000000 H
   0.1328200000000000    0.6297400000000000    0.6173000000000000 H
   0.0968300000000000    0.3868800000000000    0.5482899999999999 H
   0.2118400000000000    0.4021900000000000    0.5720900000000000 H
   0.1445000000000000    0.4022900000000000    0.6057950000000000 H
   0.2919200000000000    0.6458400000000000    0.6460100000000000 H
   0.2583900000000000    0.5534200000000000    0.6630050000000001 H
   0.3259900000000000    0.5532400000000000    0.6292050000000000 H
   0.9031900000000000    0.6131700000000000    0.9517100000000001 H
   0.7881800000000000    0.5978700000000000    0.9279100000000000 H
   0.8555199999999999    0.5977600000000000    0.8942050000000000 H
   0.7080900000000000    0.3542100000000000    0.8539900000000000 H
   0.7416400000000000    0.4466300000000000    0.8369949999999999 H
   0.6740200000000000    0.4468100000000000    0.8707950000000000 H
   0.7444800000000000    0.4681800000000000    0.9548500000000000 H
   0.7654900000000000    0.3703300000000000    0.9334500000000000 H
   0.2555400000000000    0.5318700000000000    0.0451500000000000 H
   0.2345200000000000    0.6297199999999999    0.0665000000000000 H
   0.9096600000000000    0.4680800000000000    0.8722200000000000 H
   0.8672000000000000    0.3703100000000000    0.8826750000000000 H
   0.0903500000000000    0.5319700000000001    0.1277500000000000 H
   0.1328200000000000    0.6297400000000000    0.1173000000000000 H
   0.0968300000000000    0.3868800000000000    0.0482900000000000 H
   0.2118400000000000    0.4021900000000000    0.0720900000000000 H
   0.1445000000000000    0.4022900000000000    0.1057950000000000 H
   0.2919200000000000    0.6458400000000000    0.1460100000000000 H
   0.2583900000000000    0.5534200000000000    0.1630050000000000 H
   0.3259900000000000    0.5532400000000000    0.1292050000000000 H
   0.6558200000000000    0.1872000000000000    0.8280100000000000 H
   0.7054000000000000    0.2164400000000000    0.8869050000000001 H
   0.7735700000000000    0.2164000000000000    0.8529249999999999 H
   0.7708199999999999    0.1165400000000000    0.9191549999999999 H
   0.8382200000000000    0.1163300000000000    0.8854000000000000 H
   0.7661400000000000    0.0124500000000000    0.8830700000000000 H
   0.2374400000000000    0.9257800000000000    0.7008400000000000 H
   0.2930100000000000    0.0304000000000000    0.6982600000000000 H
   0.4017800000000000    0.9256400000000000    0.6187100000000000 H
   0.3963000000000000    0.0303000000000000    0.6465100000000000 H
   0.5982400000000000    0.0744100000000000    0.8812900000000000 H
   0.6037200000000000    0.9697500000000000    0.8534900000000001 H
   0.7625700000000000    0.0742800000000000    0.7991600000000000 H
   0.7070100000000000    0.9696500000000000    0.8017000000000001 H
   0.3442000000000000    0.8128600000000000    0.6719950000000000 H
   0.2264500000000000    0.7836500000000000    0.6470800000000000 H
   0.2946200000000000    0.7836100000000000    0.6130000000000000 H
   0.1617900000000000    0.8837200000000000    0.6145500000000000 H
   0.2292000000000000    0.8835100000000000    0.5808450000000001 H
   0.2338700000000000    0.9876000000000000    0.6169249999999999 H
   0.6130000000000000    0.9029700000000001    0.9515549999999999 H
   0.5976900000000001    0.7879100000000000    0.9276450000000001 H
   0.5977100000000000    0.8552500000000000    0.8940200000000000 H
   0.3542000000000000    0.7078000000000000    0.8538450000000000 H
   0.4466500000000000    0.6736500000000000    0.8706199999999999 H
   0.4467600000000000    0.7411600000000000    0.8368550000000000 H
   0.4680200000000000    0.9093200000000000    0.8721500000000000 H
   0.3702500000000000    0.8668800000000000    0.8826650000000000 H
   0.5320000000000000    0.0907300000000000    0.1278500000000000 H
   0.6297700000000001    0.1331700000000000    0.1173350000000000 H
   0.5320200000000000    0.2557400000000000    0.0453200000000000 H
   0.6297800000000000    0.2346400000000000    0.0665800000000000 H
   0.4680100000000000    0.7443200000000000    0.9546800000000000 H
   0.3702500000000000    0.7654200000000000    0.9334200000000000 H
   0.3870300000000000    0.0970900000000000    0.0484450000000000 H
   0.4023300000000000    0.2121500000000000    0.0723550000000000 H
   0.4023100000000000    0.1448000000000000    0.1059750000000000 H
   0.6458199999999999    0.2922500000000000    0.1461550000000000 H
   0.5533700000000000    0.3264100000000000    0.1293800000000000 H
   0.5532600000000000    0.2589000000000000    0.1631450000000000 H
   0.3441700000000000    0.3440100000000000    0.9064050000000000 H
   0.2943300000000000    0.2262600000000000    0.8917700000000000 H
   0.2264100000000000    0.2945100000000000    0.8917999999999999 H
   0.1617700000000000    0.2294300000000000    0.9417900000000000 H
   0.2292000000000000    0.1619300000000000    0.9418299999999999 H
   0.2337900000000000    0.2342600000000000    0.9938050000000000 H
   0.4017000000000000    0.2374800000000000    0.9628000000000000 H
   0.3963300000000000    0.2931300000000000    0.0151500000000000 H
   0.5983200000000000    0.7625800000000000    0.0372050000000000 H
   0.6036899999999999    0.7069200000000000    0.9848450000000000 H
   0.7625500000000000    0.5980900000000000    0.0370950000000000 H
   0.7069100000000000    0.6032900000000000    0.9847699999999999 H
   0.2374800000000000    0.4019700000000000    0.9629000000000000 H
   0.2931000000000000    0.3967600000000000    0.0152300000000000 H
   0.6558500000000000    0.6560400000000000    0.0935950000000000 H
   0.7736100000000000    0.7055399999999999    0.1081650000000000 H
   0.7056900000000000    0.7737900000000000    0.1082300000000000 H
   0.7708199999999999    0.8381200000000000    0.0581750000000000 H
   0.8382500000000001    0.7706200000000000    0.0582100000000000 H
   0.7662400000000000    0.7658000000000000    0.0061950000000000 H
   0.6558200000000000    0.1872000000000000    0.3280100000000000 H
   0.7054000000000000    0.2164400000000000    0.3869050000000000 H
   0.7735700000000000    0.2164000000000000    0.3529250000000000 H
   0.7708199999999999    0.1165400000000000    0.4191550000000000 H
   0.8382200000000000    0.1163300000000000    0.3854000000000000 H
   0.7661400000000000    0.0124500000000000    0.3830700000000000 H
   0.2374400000000000    0.9257800000000000    0.2008400000000000 H
   0.2930100000000000    0.0304000000000000    0.1982600000000000 H
   0.4017800000000000    0.9256400000000000    0.1187100000000000 H
   0.3963000000000000    0.0303000000000000    0.1465100000000000 H
   0.5982400000000000    0.0744100000000000    0.3812900000000000 H
   0.6037200000000000    0.9697500000000000    0.3534900000000000 H
   0.7625700000000000    0.0742800000000000    0.2991600000000000 H
   0.7070100000000000    0.9696500000000000    0.3017000000000000 H
   0.3442000000000000    0.8128600000000000    0.1719950000000000 H
   0.2264500000000000    0.7836500000000000    0.1470800000000000 H
   0.2946200000000000    0.7836100000000000    0.1130000000000000 H
   0.1617900000000000    0.8837200000000000    0.1145500000000000 H
   0.2292000000000000    0.8835100000000000    0.0808450000000000 H
   0.2338700000000000    0.9876000000000000    0.1169250000000000 H
   0.6130000000000000    0.9029700000000001    0.4515550000000000 H
   0.5976900000000001    0.7879100000000000    0.4276450000000000 H
   0.5977100000000000    0.8552500000000000    0.3940200000000000 H
   0.3542000000000000    0.7078000000000000    0.3538450000000000 H
   0.4466500000000000    0.6736500000000000    0.3706200000000000 H
   0.4467600000000000    0.7411600000000000    0.3368550000000000 H
   0.4680200000000000    0.9093200000000000    0.3721500000000000 H
   0.3702500000000000    0.8668800000000000    0.3826650000000000 H
   0.5320000000000000    0.0907300000000000    0.6278500000000000 H
   0.6297700000000001    0.1331700000000000    0.6173350000000000 H
   0.5320200000000000    0.2557400000000000    0.5453200000000000 H
   0.6297800000000000    0.2346400000000000    0.5665800000000000 H
   0.4680100000000000    0.7443200000000000    0.4546800000000000 H
   0.3702500000000000    0.7654200000000000    0.4334200000000000 H
   0.3870300000000000    0.0970900000000000    0.5484450000000000 H
   0.4023300000000000    0.2121500000000000    0.5723549999999999 H
   0.4023100000000000    0.1448000000000000    0.6059750000000000 H
   0.6458199999999999    0.2922500000000000    0.6461550000000000 H
   0.5533700000000000    0.3264100000000000    0.6293800000000001 H
   0.5532600000000000    0.2589000000000000    0.6631450000000000 H
   0.3441700000000000    0.3440100000000000    0.4064050000000000 H
   0.2943300000000000    0.2262600000000000    0.3917700000000000 H
   0.2264100000000000    0.2945100000000000    0.3918000000000000 H
   0.1617700000000000    0.2294300000000000    0.4417900000000000 H
   0.2292000000000000    0.1619300000000000    0.4418300000000000 H
   0.2337900000000000    0.2342600000000000    0.4938050000000000 H
   0.4017000000000000    0.2374800000000000    0.4628000000000000 H
   0.3963300000000000    0.2931300000000000    0.5151500000000000 H
   0.5983200000000000    0.7625800000000000    0.5372050000000000 H
   0.6036899999999999    0.7069200000000000    0.4848450000000000 H
   0.7625500000000000    0.5980900000000000    0.5370950000000000 H
   0.7069100000000000    0.6032900000000000    0.4847700000000000 H
   0.2374800000000000    0.4019700000000000    0.4629000000000000 H
   0.2931000000000000    0.3967600000000000    0.5152300000000000 H
   0.6558500000000000    0.6560400000000000    0.5935950000000000 H
   0.7736100000000000    0.7055399999999999    0.6081650000000000 H
   0.7056900000000000    0.7737900000000000    0.6082300000000000 H
   0.7708199999999999    0.8381200000000000    0.5581750000000000 H
   0.8382500000000001    0.7706200000000000    0.5582100000000000 H
   0.7662400000000000    0.7658000000000000    0.5061950000000000 H
   0.8180900000000000    0.2913800000000000    0.6457100000000000 C
   0.9179800000000000    0.2271800000000000    0.6136500000000000 C
   0.9160500000000000    0.3029900000000000    0.6515400000000000 C
   0.9647900000000000    0.2983600000000000    0.6972400000000000 C
   0.0352300000000000    0.7016900000000000    0.8027599999999999 C
   0.9647400000000000    0.3943400000000000    0.6491800000000000 C
   0.0352800000000000    0.6057200000000000    0.8508000000000000 C
   0.0173400000000000    0.6208000000000000    0.7631900000000000 C
   0.9826700000000000    0.4735400000000000    0.6896050000000000 C
   0.9826800000000000    0.3792500000000000    0.7368100000000000 C
   0.0173500000000000    0.5265100000000000    0.8103950000000000 C
   0.0075600000000000    0.5373599999999999    0.7686550000000000 C
   0.9924600000000000    0.4626900000000000    0.7313450000000000 C
   0.1819300000000000    0.7086700000000000    0.8542850000000000 C
   0.0820500000000000    0.7728699999999999    0.8863300000000001 C
   0.0839600000000000    0.6970600000000000    0.8484600000000000 C
   0.8424100000000000    0.8427300000000000    0.7882500000000000 C
   0.7297900000000000    0.7298900000000000    0.7138150000000000 C
   0.8147500000000000    0.8148800000000000    0.7369550000000000 C
   0.2046900000000000    0.1090400000000000    0.7775000000000001 C
   0.7953300000000000    0.8910200000000000    0.7222050000000000 C
   0.1090700000000000    0.2047100000000000    0.7777849999999999 C
   0.8909500000000000    0.7953400000000000    0.7222100000000000 C
   0.9723600000000000    0.8778700000000000    0.7374750000000000 C
   0.1221400000000000    0.0276300000000000    0.7625450000000000 C
   0.0276600000000000    0.1221800000000000    0.7625299999999999 C
   0.8778700000000000    0.9724200000000000    0.7374450000000000 C
   0.0381500000000000    0.0381700000000000    0.7562300000000000 C
   0.9618600000000000    0.9618900000000000    0.7437700000000000 C
   0.1576100000000000    0.1573200000000000    0.7117450000000000 C
   0.2702300000000000    0.2701600000000000    0.7861800000000000 C
   0.1852700000000000    0.1851700000000000    0.7630450000000000 C
   0.8424100000000000    0.8427300000000000    0.2882500000000000 C
   0.7297900000000000    0.7298900000000000    0.2138150000000000 C
   0.8147500000000000    0.8148800000000000    0.2369550000000000 C
   0.2046900000000000    0.1090400000000000    0.2775000000000000 C
   0.7953300000000000    0.8910200000000000    0.2222050000000000 C
   0.1090700000000000    0.2047100000000000    0.2777850000000000 C
   0.8909500000000000    0.7953400000000000    0.2222100000000000 C
   0.9723600000000000    0.8778700000000000    0.2374750000000000 C
   0.1221400000000000    0.0276300000000000    0.2625450000000000 C
   0.0276600000000000    0.1221800000000000    0.2625300000000000 C
   0.8778700000000000    0.9724200000000000    0.2374450000000000 C
   0.0381500000000000    0.0381700000000000    0.2562300000000000 C
   0.9618600000000000    0.9618900000000000    0.2437700000000000 C
   0.1576100000000000    0.1573200000000000    0.2117450000000000 C
   0.2702300000000000    0.2701600000000000    0.2861800000000000 C
   0.1852700000000000    0.1851700000000000    0.2630450000000000 C
   0.8423400000000000    0.5765000000000000    0.4212800000000000 C
   0.7297400000000001    0.4276600000000000    0.3648500000000000 C
   0.8147000000000000    0.4739100000000000    0.4073650000000000 C
   0.7953000000000000    0.4444200000000000    0.4454250000000000 C
   0.2047100000000000    0.5556300000000000    0.5545750000000000 C
   0.8909200000000000    0.4444000000000000    0.3976250000000000 C
   0.1091000000000000    0.5556500000000000    0.6023750000000000 C
   0.0276600000000000    0.5250800000000000    0.5610900000000000 C
   0.8778500000000000    0.4748900000000000    0.4861500000000000 C
   0.9723500000000000    0.4749700000000000    0.4389150000000000 C
   0.1221600000000000    0.5251800000000000    0.5138550000000000 C
   0.9618500000000000    0.4875500000000000    0.4809100000000000 C
   0.0381600000000000    0.5125000000000000    0.5190900000000001 C
   0.1576800000000000    0.4235600000000000    0.5787200000000000 C
   0.2702800000000000    0.5724000000000000    0.6351550000000000 C
   0.1853200000000000    0.5261400000000001    0.5926400000000001 C
   0.8423400000000000    0.5765000000000000    0.9212800000000000 C
   0.7297400000000001    0.4276600000000000    0.8648500000000000 C
   0.8147000000000000    0.4739100000000000    0.9073650000000000 C
   0.7953000000000000    0.4444200000000000    0.9454250000000000 C
   0.2047100000000000    0.5556300000000000    0.0545750000000000 C
   0.8909200000000000    0.4444000000000000    0.8976250000000000 C
   0.1091000000000000    0.5556500000000000    0.1023750000000000 C
   0.0276600000000000    0.5250800000000000    0.0610900000000000 C
   0.8778500000000000    0.4748900000000000    0.9861500000000001 C
   0.9723500000000000    0.4749700000000000    0.9389149999999999 C
   0.1221600000000000    0.5251800000000000    0.0138550000000000 C
   0.0381600000000000    0.5125000000000000    0.0190900000000000 C
   0.9618500000000000    0.4875500000000000    0.9809099999999999 C
   0.1576800000000000    0.4235600000000000    0.0787200000000000 C
   0.2702800000000000    0.5724000000000000    0.1351550000000000 C
   0.1853200000000000    0.5261400000000001    0.0926400000000000 C
   0.7084500000000000    0.1819000000000000    0.8543499999999999 C
   0.7723900000000000    0.0819000000000000    0.8862099999999999 C
   0.6967400000000000    0.0838800000000000    0.8484000000000000 C
   0.2985200000000000    0.9649100000000000    0.6973450000000000 C
   0.3946600000000000    0.9648600000000001    0.6492550000000000 C
   0.6053500000000001    0.0351900000000000    0.8507450000000000 C
   0.7015000000000000    0.0351500000000000    0.8026550000000000 C
   0.4737400000000000    0.9828100000000000    0.6896450000000001 C
   0.6207600000000000    0.0173900000000000    0.7631399999999999 C
   0.3792600000000000    0.9826800000000000    0.7368650000000000 C
   0.5262800000000000    0.0172600000000000    0.8103549999999999 C
   0.5372800000000000    0.0075500000000000    0.7686299999999999 C
   0.4627300000000000    0.9925000000000000    0.7313700000000000 C
   0.2915700000000000    0.8181500000000000    0.6456500000000001 C
   0.2276300000000000    0.9181500000000000    0.6137900000000001 C
   0.3032800000000000    0.9161700000000000    0.6516000000000000 C
   0.5763700000000000    0.8420900000000000    0.9210900000000000 C
   0.4276200000000000    0.7293800000000000    0.8647000000000000 C
   0.4738200000000000    0.8144500000000000    0.9072350000000000 C
   0.4443200000000000    0.8906500000000001    0.8975500000000001 C
   0.5557000000000000    0.1094100000000000    0.1024350000000000 C
   0.5557100000000000    0.2048800000000000    0.0546750000000000 C
   0.4443100000000000    0.7951700000000000    0.9453250000000000 C
   0.4748600000000000    0.9721900000000000    0.9388900000000000 C
   0.5251900000000000    0.1222200000000000    0.0139150000000000 C
   0.5251700000000000    0.0278700000000000    0.0611100000000000 C
   0.4748500000000000    0.8778300000000000    0.9860850000000000 C
   0.5125200000000000    0.0382400000000000    0.0191150000000000 C
   0.4875000000000000    0.9618100000000001    0.9808850000000000 C
   0.4236500000000000    0.1579700000000000    0.0789100000000000 C
   0.5724000000000000    0.2706700000000000    0.1353000000000000 C
   0.5262100000000000    0.1856100000000000    0.0927500000000000 C
   0.2914700000000000    0.2914600000000000    0.9090650000000000 C
   0.2276000000000000    0.2278600000000000    0.9590750000000000 C
   0.3032500000000000    0.3033800000000000    0.9580800000000000 C
   0.3946500000000000    0.2986100000000000    0.9824200000000001 C
   0.6053700000000000    0.7014500000000000    0.0175850000000000 C
   0.7014700000000000    0.6051500000000000    0.0175450000000000 C
   0.2985600000000000    0.3949100000000000    0.9824600000000000 C
   0.6207200000000000    0.5261800000000000    0.0086500000000000 C
   0.4737200000000000    0.3793200000000000    0.9913700000000000 C
   0.5263000000000000    0.6207400000000000    0.0086350000000000 C
   0.3793000000000000    0.4738700000000000    0.9913449999999999 C
   0.5372800000000000    0.5372600000000000    0.0037700000000000 C
   0.4627400000000000    0.4628000000000000    0.9962350000000000 C
   0.7085500000000000    0.7085900000000001    0.0909400000000000 C
   0.7724200000000000    0.7722000000000000    0.0409250000000000 C
   0.6967700000000000    0.6966700000000000    0.0419200000000000 C
   0.7084500000000000    0.1819000000000000    0.3543500000000000 C
   0.7723900000000000    0.0819000000000000    0.3862100000000000 C
   0.6967400000000000    0.0838800000000000    0.3484000000000000 C
   0.2985200000000000    0.9649100000000000    0.1973450000000000 C
   0.3946600000000000    0.9648600000000001    0.1492550000000000 C
   0.6053500000000001    0.0351900000000000    0.3507450000000000 C
   0.7015000000000000    0.0351500000000000    0.3026550000000000 C
   0.4737400000000000    0.9828100000000000    0.1896450000000000 C
   0.6207600000000000    0.0173900000000000    0.2631400000000000 C
   0.3792600000000000    0.9826800000000000    0.2368650000000000 C
   0.5262800000000000    0.0172600000000000    0.3103550000000000 C
   0.5372800000000000    0.0075500000000000    0.2686300000000000 C
   0.4627300000000000    0.9925000000000000    0.2313700000000000 C
   0.2915700000000000    0.8181500000000000    0.1456500000000000 C
   0.2276300000000000    0.9181500000000000    0.1137900000000000 C
   0.3032800000000000    0.9161700000000000    0.1516000000000000 C
   0.5763700000000000    0.8420900000000000    0.4210900000000000 C
   0.4276200000000000    0.7293800000000000    0.3647000000000000 C
   0.4738200000000000    0.8144500000000000    0.4072350000000000 C
   0.4443200000000000    0.8906500000000001    0.3975500000000000 C
   0.5557000000000000    0.1094100000000000    0.6024350000000001 C
   0.5557100000000000    0.2048800000000000    0.5546750000000000 C
   0.4443100000000000    0.7951700000000000    0.4453250000000000 C
   0.4748600000000000    0.9721900000000000    0.4388900000000000 C
   0.5251900000000000    0.1222200000000000    0.5139150000000000 C
   0.5251700000000000    0.0278700000000000    0.5611100000000000 C
   0.4748500000000000    0.8778300000000000    0.4860850000000000 C
   0.4875000000000000    0.9618100000000001    0.4808850000000000 C
   0.5125200000000000    0.0382400000000000    0.5191150000000000 C
   0.4236500000000000    0.1579700000000000    0.5789100000000000 C
   0.5724000000000000    0.2706700000000000    0.6353000000000000 C
   0.5262100000000000    0.1856100000000000    0.5927500000000000 C
   0.2914700000000000    0.2914600000000000    0.4090650000000000 C
   0.2276000000000000    0.2278600000000000    0.4590750000000000 C
   0.3032500000000000    0.3033800000000000    0.4580800000000000 C
   0.3946500000000000    0.2986100000000000    0.4824200000000000 C
   0.6053700000000000    0.7014500000000000    0.5175850000000000 C
   0.7014700000000000    0.6051500000000000    0.5175450000000000 C
   0.2985600000000000    0.3949100000000000    0.4824600000000000 C
   0.6207200000000000    0.5261800000000000    0.5086500000000000 C
   0.4737200000000000    0.3793200000000000    0.4913700000000000 C
   0.5263000000000000    0.6207400000000000    0.5086349999999999 C
   0.3793000000000000    0.4738700000000000    0.4913450000000000 C
   0.4627400000000000    0.4628000000000000    0.4962350000000000 C
   0.5372800000000000    0.5372600000000000    0.5037700000000001 C
   0.7085500000000000    0.7085900000000001    0.5909400000000000 C
   0.7724200000000000    0.7722000000000000    0.5409250000000000 C
   0.6967700000000000    0.6966700000000000    0.5419200000000000 C
   0.2339500000000000    0.4999700000000000    0.3829650000000000 I
   0.2339500000000000    0.4999700000000000    0.8829650000000000 I
   0.7660500000000000    0.2342500000000000    0.2501100000000000 I
   0.7660500000000000    0.2342500000000000    0.7501100000000001 I
   0.2339700000000000    0.7658199999999999    0.7498950000000000 I
   0.2339700000000000    0.7658199999999999    0.2498950000000000 I
   0.7660500000000000    0.5000800000000000    0.6170400000000000 I
   0.7660500000000000    0.5000800000000000    0.1170400000000000 I