H20 C16 N4
1.0
  15.9673138026519297    0.0000000000000000   -4.4020289557931305
  -5.7802402534578947   14.8780474168912562   -4.4457045193130398
   0.0000000000000000    0.0000000000000000   33.1420000000000030
H C N
20 16 4
direct
   0.0301300000000000    0.3959200000000000    0.1463550000000000 H
   0.9255300000000000    0.4013500000000000    0.1186600000000000 H
   0.0743700000000000    0.7627000000000000    0.2992300000000000 H
   0.9698200000000000    0.7073199999999999    0.3019400000000000 H
   0.7835299999999999    0.2942000000000000    0.1131550000000000 H
   0.8128400000000000    0.3442100000000000    0.1720650000000000 H
   0.7836000000000000    0.2263600000000000    0.1472200000000000 H
   0.9873900000000000    0.2332500000000000    0.1167500000000000 H
   0.8835000000000000    0.2287300000000000    0.0807500000000000 H
   0.8833900000000000    0.1613800000000000    0.1144400000000000 H
   0.9698900000000000    0.6041299999999999    0.3536450000000000 H
   0.0744900000000000    0.5987000000000000    0.3813400000000000 H
   0.9256400000000000    0.2373500000000000    0.2007650000000000 H
   0.0302000000000000    0.2927300000000000    0.1980600000000000 H
   0.2164900000000000    0.7058500000000000    0.3868400000000000 H
   0.1871700000000000    0.6558400000000000    0.3279300000000000 H
   0.2164100000000000    0.7736800000000000    0.3527800000000000 H
   0.0126300000000000    0.7668000000000000    0.3832250000000000 H
   0.1165200000000000    0.7713200000000000    0.4192500000000000 H
   0.1166300000000000    0.8386700000000000    0.3855600000000000 H
   0.0173400000000000    0.6208000000000000    0.2631900000000000 C
   0.0075600000000000    0.5373599999999999    0.2686550000000000 C
   0.9826700000000000    0.4735400000000000    0.1896050000000000 C
   0.9647400000000000    0.3943400000000000    0.1491800000000000 C
   0.9160500000000000    0.3029900000000000    0.1515400000000000 C
   0.0352300000000000    0.7016900000000000    0.3027600000000000 C
   0.8180900000000000    0.2913800000000000    0.1457100000000000 C
   0.9179800000000000    0.2271800000000000    0.1136500000000000 C
   0.9826800000000000    0.3792500000000000    0.2368100000000000 C
   0.9924600000000000    0.4626900000000000    0.2313450000000000 C
   0.0173500000000000    0.5265100000000000    0.3103950000000000 C
   0.0352800000000000    0.6057200000000000    0.3508000000000000 C
   0.0839600000000000    0.6970600000000000    0.3484600000000000 C
   0.9647900000000000    0.2983600000000000    0.1972400000000000 C
   0.1819300000000000    0.7086700000000000    0.3542850000000000 C
   0.0820500000000000    0.7728699999999999    0.3863300000000000 C
   0.9886800000000000    0.3713900000000000    0.2766050000000000 N
   0.0113100000000000    0.4469300000000000    0.3143550000000000 N
   0.0113300000000000    0.6286600000000000    0.2233950000000000 N
   0.9887000000000000    0.5531199999999999    0.1856450000000000 N
