H4 O2
1.0
  16.3733593547236929    0.0000000000000000   -4.4906110320403148
  -4.4722063038549633   23.0794479515638820   -2.2056738260253956
   0.0000000000000000    0.0000000000000000   15.9429999999999996
H O
4 2
direct
   0.6981985479093263    0.1024437695316033    0.3519640881594240 H
   0.7614046347908481    0.1053583200615373    0.2867049220646101 H
   0.7423148402944505    0.8434904933719275    0.2698992841563932 H
   0.7232778058053779    0.8473012639553966    0.3682929636341136 H
   0.7306600000000000    0.1253300000000000    0.3201700000000000 O
   0.7338200000000000    0.8243100000000000    0.3194900000000000 O
