H7 C10 N2
1.0
  16.3733593547236929    0.0000000000000000   -4.4906110320403148
  -4.4722063038549633   23.0794479515638820   -2.2056738260253956
   0.0000000000000000    0.0000000000000000   15.9429999999999996
H C N
7 10 2
direct
   0.2567700000000000    0.8241700000000000    0.1975400000000000 H
   0.2099500000000000    0.8334800000000000    0.4410200000000000 H
   0.2056200000000000    0.9378700000000000    0.4448700000000000 H
   0.1441700000000000    0.0112000000000000    0.3989700000000000 H
   0.3109800000000000    0.0195400000000000    0.2350200000000000 H
   0.1522200000000000    0.1171000000000000    0.4008600000000000 H
   0.3082500000000000    0.1249800000000000    0.2396400000000000 H
   0.2285500000000000    0.9427600000000000    0.3173800000000000 C
   0.2277500000000000    0.0054000000000000    0.3171000000000000 C
   0.2455300000000000    0.8507500000000000    0.2511300000000000 C
   0.2192800000000000    0.8560300000000000    0.3868000000000000 C
   0.2162000000000000    0.9145400000000000    0.3878600000000000 C
   0.2430400000000000    0.9090400000000000    0.2477000000000000 C
   0.1827400000000000    0.0344600000000000    0.3636400000000000 C
   0.2734100000000000    0.0388400000000000    0.2712900000000000 C
   0.1859200000000000    0.0937800000000000    0.3640000000000000 C
   0.2730400000000000    0.0978000000000000    0.2740400000000000 C
   0.2338300000000000    0.8243100000000000    0.3195000000000000 N
   0.2306600000000000    0.1253300000000000    0.3201700000000000 N
