H6 O4
1.0
  16.3733593547236929    0.0000000000000000   -4.4906110320403148
  -4.4722063038549633   23.0794479515638820   -2.2056738260253956
   0.0000000000000000    0.0000000000000000   15.9429999999999996
H O
6 4
direct
   0.6014459260317838    0.6686717005691009    0.2060593043850443 H
   0.6065680250365200    0.7710259338399255    1.0198523897905509 H
   0.5811432892409611    0.7171782720131838    0.1043155344391292 H
   0.3806702860595978    0.7099661817815144    0.3022085086992737 H
   0.3906065992966089    0.8063333179070925    1.1102996425723815 H
   0.4091193435048631    0.7620197974373232    0.2123964978162851 H
   0.6397900000000000    0.6933400000000000    0.1832200000000000 O
   0.6422800000000000    0.7565100000000000    1.0678999999999998 O
   0.3445900000000000    0.7233300000000000    0.2531200000000000 O
   0.3519900000000000    0.7831800000000000    1.1346700000000001 O
