H4 C2 S2 O6
1.0
  16.3733593547236929    0.0000000000000000   -4.4906110320403148
  -4.4722063038549633   23.0794479515638820   -2.2056738260253956
   0.0000000000000000    0.0000000000000000   15.9429999999999996
H C S O
4 2 2 6
direct
   0.5725100000000000    0.7974300000000000    0.1947000000000000 H
   0.4932900000000000    0.7786300000000000    0.0921000000000000 H
   0.5091000000000000    0.7161400000000000    0.2565700000000000 H
   0.4367300000000000    0.6869200000000000    0.1519800000000000 H
   0.5287600000000000    0.7614600000000000    0.1489900000000000 C
   0.4728900000000000    0.7269400000000000    0.1941900000000000 C
   0.5894100000000000    0.7161900000000000    0.1072500000000000 S
   0.3987200000000000    0.7669899999999999    0.2198100000000000 S
   0.6422800000000000    0.7565100000000000    1.0678999999999998 O
   0.6397900000000000    0.6933400000000000    0.1832200000000000 O
   0.5302200000000000    0.6699800000000000    0.0419200000000000 O
   0.3519900000000000    0.7831800000000000    1.1346700000000001 O
   0.3445900000000000    0.7233300000000000    0.2531200000000000 O
   0.4441400000000000    0.8174900000000000    0.2841100000000000 O
