Cd45 H203 C435 O174
1.0
  38.7451386974606393    0.0000000000000000    3.2950648422357736
   6.6064030118583137   27.5351817957709635   11.4234127439549784
   0.0000000000000000    0.0000000000000000   13.4299999999999997
Cd H C O
45 203 435 174
direct
   0.1716280000000000    0.2202100000000000    0.5472800000000000 Cd
   0.0999980000000000    0.0000033333333333    0.5000000000000000 Cd
   0.0283660000000000    0.1131300000000000    0.4527200000000000 Cd
   0.3716280000000000    0.2202100000000000    0.5472800000000000 Cd
   0.2999980000000000    0.0000033333333333    0.5000000000000000 Cd
   0.2283660000000000    0.1131300000000000    0.4527200000000000 Cd
   0.5716280000000000    0.2202100000000000    0.5472800000000000 Cd
   0.4999980000000001    0.0000033333333333    0.5000000000000000 Cd
   0.4283660000000000    0.1131300000000000    0.4527200000000000 Cd
   0.7716280000000001    0.2202100000000000    0.5472800000000000 Cd
   0.6999980000000001    0.0000033333333333    0.5000000000000000 Cd
   0.6283660000000001    0.1131300000000000    0.4527200000000000 Cd
   0.9716280000000000    0.2202100000000000    0.5472800000000000 Cd
   0.8999980000000001    0.0000033333333333    0.5000000000000000 Cd
   0.8283660000000000    0.1131300000000000    0.4527200000000000 Cd
   0.1716280000000000    0.5535433333333333    0.5472800000000000 Cd
   0.0999980000000000    0.3333366666666667    0.5000000000000000 Cd
   0.0283660000000000    0.4464633333333333    0.4527200000000000 Cd
   0.3716280000000000    0.5535433333333333    0.5472800000000000 Cd
   0.2999980000000000    0.3333366666666667    0.5000000000000000 Cd
   0.2283660000000000    0.4464633333333333    0.4527200000000000 Cd
   0.5716280000000000    0.5535433333333333    0.5472800000000000 Cd
   0.4999980000000001    0.3333366666666667    0.5000000000000000 Cd
   0.4283660000000000    0.4464633333333333    0.4527200000000000 Cd
   0.7716280000000001    0.5535433333333333    0.5472800000000000 Cd
   0.6999980000000001    0.3333366666666667    0.5000000000000000 Cd
   0.6283660000000001    0.4464633333333333    0.4527200000000000 Cd
   0.9716280000000000    0.5535433333333333    0.5472800000000000 Cd
   0.8999980000000001    0.3333366666666667    0.5000000000000000 Cd
   0.8283660000000000    0.4464633333333333    0.4527200000000000 Cd
   0.1716280000000000    0.8868766666666666    0.5472800000000000 Cd
   0.0999980000000000    0.6666700000000000    0.5000000000000000 Cd
   0.0283660000000000    0.7797966666666667    0.4527200000000000 Cd
   0.3716280000000000    0.8868766666666666    0.5472800000000000 Cd
   0.2999980000000000    0.6666700000000000    0.5000000000000000 Cd
   0.2283660000000000    0.7797966666666667    0.4527200000000000 Cd
   0.5716280000000000    0.8868766666666666    0.5472800000000000 Cd
   0.4999980000000001    0.6666700000000000    0.5000000000000000 Cd
   0.4283660000000000    0.7797966666666667    0.4527200000000000 Cd
   0.7716280000000001    0.8868766666666666    0.5472800000000000 Cd
   0.6999980000000001    0.6666700000000000    0.5000000000000000 Cd
   0.6283660000000001    0.7797966666666667    0.4527200000000000 Cd
   0.9716280000000000    0.8868766666666666    0.5472800000000000 Cd
   0.8999980000000001    0.6666700000000000    0.5000000000000000 Cd
   0.8283660000000000    0.7797966666666667    0.4527200000000000 Cd
   0.0302860000000000    0.2883433333333333    0.4486800000000000 H
   0.0441060000000000    0.2473733333333333    0.1729000000000000 H
   0.0367780000000000    0.0629266666666667    0.1358300000000000 H
   0.0793140000000000    0.2632866666666667    0.0412900000000000 H
   0.0889040000000000    0.2813099999999999    0.8469600000000000 H
   0.0311940000000000    0.0956033333333333    0.7779800000000000 H
   0.0189780000000000    0.0772700000000000    0.9715300000000000 H
   0.1697100000000000    0.0449933333333333    0.5513100000000000 H
   0.1558900000000000    0.0859700000000000    0.8270900000000000 H
   0.1632180000000000    0.2704133333333333    0.8641700000000000 H
   0.1206860000000000    0.0700600000000000    0.9587100000000000 H
   0.1110960000000000    0.0520333333333333    0.1530400000000000 H
   0.1688020000000000    0.2377433333333333    0.2220200000000000 H
   0.1810200000000000    0.2560733333333333    0.0284700000000000 H
   0.2302860000000000    0.2883433333333333    0.4486800000000000 H
   0.2441060000000000    0.2473733333333333    0.1729000000000000 H
   0.2367780000000000    0.0629266666666667    0.1358300000000000 H
   0.2793140000000000    0.2632866666666667    0.0412900000000000 H
   0.2889040000000000    0.2813099999999999    0.8469600000000000 H
   0.2311940000000000    0.0956033333333333    0.7779800000000000 H
   0.2189780000000000    0.0772700000000000    0.9715300000000000 H
   0.3697100000000000    0.0449933333333333    0.5513100000000000 H
   0.3558900000000000    0.0859700000000000    0.8270900000000000 H
   0.3632180000000000    0.2704133333333333    0.8641700000000000 H
   0.3206860000000000    0.0700600000000000    0.9587100000000000 H
   0.3110960000000000    0.0520333333333333    0.1530400000000000 H
   0.3688020000000000    0.2377433333333333    0.2220200000000000 H
   0.3810200000000000    0.2560733333333333    0.0284700000000000 H
   0.4302860000000000    0.2883433333333333    0.4486800000000000 H
   0.4441060000000000    0.2473733333333333    0.1729000000000000 H
   0.4367780000000000    0.0629266666666667    0.1358300000000000 H
   0.4793140000000000    0.2632866666666667    0.0412900000000000 H
   0.4889040000000000    0.2813099999999999    0.8469600000000000 H
   0.4311940000000000    0.0956033333333333    0.7779800000000000 H
   0.4189780000000000    0.0772700000000000    0.9715300000000000 H
   0.5697100000000000    0.0449933333333333    0.5513100000000000 H
   0.5558900000000000    0.0859700000000000    0.8270900000000000 H
   0.5632180000000000    0.2704133333333333    0.8641700000000000 H
   0.5206860000000000    0.0700600000000000    0.9587100000000000 H
   0.5110960000000000    0.0520333333333333    0.1530400000000000 H
   0.5688020000000000    0.2377433333333333    0.2220200000000000 H
   0.5810200000000001    0.2560733333333333    0.0284700000000000 H
   0.6302860000000001    0.2883433333333333    0.4486800000000000 H
   0.6441060000000001    0.2473733333333333    0.1729000000000000 H
   0.6367780000000001    0.0629266666666667    0.1358300000000000 H
   0.6793140000000001    0.2632866666666667    0.0412900000000000 H
   0.6889040000000001    0.2813099999999999    0.8469600000000000 H
   0.6311940000000000    0.0956033333333333    0.7779800000000000 H
   0.6189780000000001    0.0772700000000000    0.9715300000000000 H
   0.7697100000000001    0.0449933333333333    0.5513100000000000 H
   0.7558900000000001    0.0859700000000000    0.8270900000000000 H
   0.7632180000000001    0.2704133333333333    0.8641700000000000 H
   0.7206860000000002    0.0700600000000000    0.9587100000000000 H
   0.7110960000000001    0.0520333333333333    0.1530400000000000 H
   0.7688020000000001    0.2377433333333333    0.2220200000000000 H
   0.7810200000000000    0.2560733333333333    0.0284700000000000 H
   0.8302860000000001    0.2883433333333333    0.4486800000000000 H
   0.8441060000000000    0.2473733333333333    0.1729000000000000 H
   0.8367780000000000    0.0629266666666667    0.1358300000000000 H
   0.8793140000000000    0.2632866666666667    0.0412900000000000 H
   0.8889040000000000    0.2813099999999999    0.8469600000000000 H
   0.8311940000000000    0.0956033333333333    0.7779800000000000 H
   0.8189780000000001    0.0772700000000000    0.9715300000000000 H
   0.9697100000000001    0.0449933333333333    0.5513100000000000 H
   0.9558900000000000    0.0859700000000000    0.8270900000000000 H
   0.9632180000000000    0.2704133333333333    0.8641700000000000 H
   0.9206860000000001    0.0700600000000000    0.9587100000000000 H
   0.9110960000000000    0.0520333333333333    0.1530400000000000 H
   0.9688020000000001    0.2377433333333333    0.2220200000000000 H
   0.9810200000000000    0.2560733333333333    0.0284700000000000 H
   0.0302860000000000    0.6216766666666667    0.4486800000000000 H
   0.0441060000000000    0.5807066666666667    0.1729000000000000 H
   0.0367780000000000    0.3962599999999999    0.1358300000000000 H
   0.0793140000000000    0.5966199999999999    0.0412900000000000 H
   0.0889040000000000    0.6146433333333332    0.8469600000000000 H
   0.0311940000000000    0.4289366666666666    0.7779800000000000 H
   0.0189780000000000    0.4106033333333333    0.9715300000000000 H
   0.1697100000000000    0.3783266666666666    0.5513100000000000 H
   0.1558900000000000    0.4193033333333333    0.8270900000000000 H
   0.1206860000000000    0.4033933333333333    0.9587100000000000 H
   0.1110960000000000    0.3853666666666666    0.1530400000000000 H
   0.2302860000000000    0.6216766666666667    0.4486800000000000 H
   0.2441060000000000    0.5807066666666667    0.1729000000000000 H
   0.2367780000000000    0.3962599999999999    0.1358300000000000 H
   0.2793140000000000    0.5966199999999999    0.0412900000000000 H
   0.2889040000000000    0.6146433333333332    0.8469600000000000 H
   0.2311940000000000    0.4289366666666666    0.7779800000000000 H
   0.2189780000000000    0.4106033333333333    0.9715300000000000 H
   0.3697100000000000    0.3783266666666666    0.5513100000000000 H
   0.3558900000000000    0.4193033333333333    0.8270900000000000 H
   0.3632180000000000    0.6037466666666667    0.8641700000000000 H
   0.3206860000000000    0.4033933333333333    0.9587100000000000 H
   0.3110960000000000    0.3853666666666666    0.1530400000000000 H
   0.3688020000000000    0.5710766666666667    0.2220200000000000 H
   0.3810200000000000    0.5894066666666666    0.0284700000000000 H
   0.4302860000000000    0.6216766666666667    0.4486800000000000 H
   0.4441060000000000    0.5807066666666667    0.1729000000000000 H
   0.4367780000000000    0.3962599999999999    0.1358300000000000 H
   0.4793140000000000    0.5966199999999999    0.0412900000000000 H
   0.4889040000000000    0.6146433333333332    0.8469600000000000 H
   0.4311940000000000    0.4289366666666666    0.7779800000000000 H
   0.4189780000000000    0.4106033333333333    0.9715300000000000 H
   0.5697100000000000    0.3783266666666666    0.5513100000000000 H
   0.5558900000000000    0.4193033333333333    0.8270900000000000 H
   0.5632180000000000    0.6037466666666667    0.8641700000000000 H
   0.5206860000000000    0.4033933333333333    0.9587100000000000 H
   0.5110960000000000    0.3853666666666666    0.1530400000000000 H
   0.5688020000000000    0.5710766666666667    0.2220200000000000 H
   0.5810200000000001    0.5894066666666666    0.0284700000000000 H
   0.6302860000000001    0.6216766666666667    0.4486800000000000 H
   0.6441060000000001    0.5807066666666667    0.1729000000000000 H
   0.6367780000000001    0.3962599999999999    0.1358300000000000 H
   0.6793140000000001    0.5966199999999999    0.0412900000000000 H
   0.6889040000000001    0.6146433333333332    0.8469600000000000 H
   0.6311940000000000    0.4289366666666666    0.7779800000000000 H
   0.6189780000000001    0.4106033333333333    0.9715300000000000 H
   0.7697100000000001    0.3783266666666666    0.5513100000000000 H
   0.7558900000000001    0.4193033333333333    0.8270900000000000 H
   0.7632180000000001    0.6037466666666667    0.8641700000000000 H
   0.7206860000000002    0.4033933333333333    0.9587100000000000 H
   0.7110960000000001    0.3853666666666666    0.1530400000000000 H
   0.7688020000000001    0.5710766666666667    0.2220200000000000 H
   0.7810200000000000    0.5894066666666666    0.0284700000000000 H
   0.8302860000000001    0.6216766666666667    0.4486800000000000 H
   0.8441060000000000    0.5807066666666667    0.1729000000000000 H
   0.8367780000000000    0.3962599999999999    0.1358300000000000 H
   0.8793140000000000    0.5966199999999999    0.0412900000000000 H
   0.8889040000000000    0.6146433333333332    0.8469600000000000 H
   0.8311940000000000    0.4289366666666666    0.7779800000000000 H
   0.8189780000000001    0.4106033333333333    0.9715300000000000 H
   0.9697100000000001    0.3783266666666666    0.5513100000000000 H
   0.9558900000000000    0.4193033333333333    0.8270900000000000 H
   0.9632180000000000    0.6037466666666667    0.8641700000000000 H
   0.9206860000000001    0.4033933333333333    0.9587100000000000 H
   0.9110960000000000    0.3853666666666666    0.1530400000000000 H
   0.9688020000000001    0.5710766666666667    0.2220200000000000 H
   0.9810200000000000    0.5894066666666666    0.0284700000000000 H
   0.0302860000000000    0.9550099999999999    0.4486800000000000 H
   0.0441060000000000    0.9140400000000000    0.1729000000000000 H
   0.0367780000000000    0.7295933333333333    0.1358300000000000 H
   0.0793140000000000    0.9299533333333333    0.0412900000000000 H
   0.0889040000000000    0.9479766666666666    0.8469600000000000 H
   0.0311940000000000    0.7622700000000000    0.7779800000000000 H
   0.0189780000000000    0.7439366666666666    0.9715300000000000 H
   0.1632180000000000    0.9370799999999999    0.8641700000000000 H
   0.1688020000000000    0.9044099999999999    0.2220200000000000 H
   0.1810200000000000    0.9227399999999999    0.0284700000000000 H
   0.2302860000000000    0.9550099999999999    0.4486800000000000 H
   0.2441060000000000    0.9140400000000000    0.1729000000000000 H
   0.2367780000000000    0.7295933333333333    0.1358300000000000 H
   0.2793140000000000    0.9299533333333333    0.0412900000000000 H
   0.2889040000000000    0.9479766666666666    0.8469600000000000 H
   0.2311940000000000    0.7622700000000000    0.7779800000000000 H
   0.2189780000000000    0.7439366666666666    0.9715300000000000 H
   0.3697100000000000    0.7116600000000000    0.5513100000000000 H
   0.3558900000000000    0.7526366666666666    0.8270900000000000 H
   0.3632180000000000    0.9370799999999999    0.8641700000000000 H
   0.3206860000000000    0.7367266666666666    0.9587100000000000 H
   0.3110960000000000    0.7187000000000000    0.1530400000000000 H
   0.3688020000000000    0.9044099999999999    0.2220200000000000 H
   0.3810200000000000    0.9227399999999999    0.0284700000000000 H
   0.4302860000000000    0.9550099999999999    0.4486800000000000 H
   0.4441060000000000    0.9140400000000000    0.1729000000000000 H
   0.4367780000000000    0.7295933333333333    0.1358300000000000 H
   0.4793140000000000    0.9299533333333333    0.0412900000000000 H
   0.4889040000000000    0.9479766666666666    0.8469600000000000 H
   0.4311940000000000    0.7622700000000000    0.7779800000000000 H
   0.4189780000000000    0.7439366666666666    0.9715300000000000 H
   0.5697100000000000    0.7116600000000000    0.5513100000000000 H
   0.5558900000000000    0.7526366666666666    0.8270900000000000 H
   0.5632180000000000    0.9370799999999999    0.8641700000000000 H
   0.5206860000000000    0.7367266666666666    0.9587100000000000 H
   0.5110960000000000    0.7187000000000000    0.1530400000000000 H
   0.5688020000000000    0.9044099999999999    0.2220200000000000 H
   0.5810200000000001    0.9227399999999999    0.0284700000000000 H
   0.6302860000000001    0.9550099999999999    0.4486800000000000 H
   0.6441060000000001    0.9140400000000000    0.1729000000000000 H
   0.6367780000000001    0.7295933333333333    0.1358300000000000 H
   0.6793140000000001    0.9299533333333333    0.0412900000000000 H
   0.6889040000000001    0.9479766666666666    0.8469600000000000 H
   0.6311940000000000    0.7622700000000000    0.7779800000000000 H
   0.6189780000000001    0.7439366666666666    0.9715300000000000 H
   0.7697100000000001    0.7116600000000000    0.5513100000000000 H
   0.7558900000000001    0.7526366666666666    0.8270900000000000 H
   0.7632180000000001    0.9370799999999999    0.8641700000000000 H
   0.7206860000000002    0.7367266666666666    0.9587100000000000 H
   0.7110960000000001    0.7187000000000000    0.1530400000000000 H
   0.7688020000000001    0.9044099999999999    0.2220200000000000 H
   0.7810200000000000    0.9227399999999999    0.0284700000000000 H
   0.8302860000000001    0.9550099999999999    0.4486800000000000 H
   0.8441060000000000    0.9140400000000000    0.1729000000000000 H
   0.8367780000000000    0.7295933333333333    0.1358300000000000 H
   0.8793140000000000    0.9299533333333333    0.0412900000000000 H
   0.8889040000000000    0.9479766666666666    0.8469600000000000 H
   0.8311940000000000    0.7622700000000000    0.7779800000000000 H
   0.8189780000000001    0.7439366666666666    0.9715300000000000 H
   0.9697100000000001    0.7116600000000000    0.5513100000000000 H
   0.9558900000000000    0.7526366666666666    0.8270900000000000 H
   0.9632180000000000    0.9370799999999999    0.8641700000000000 H
   0.9206860000000001    0.7367266666666666    0.9587100000000000 H
   0.9110960000000000    0.7187000000000000    0.1530400000000000 H
   0.9688020000000001    0.9044099999999999    0.2220200000000000 H
   0.9810200000000000    0.9227399999999999    0.0284700000000000 H
   0.0331980000000000    0.0127000000000000    0.2960700000000000 C
   0.0333300000000000    0.2980633333333333    0.3623300000000000 C
   0.0369220000000000    0.2628966666666667    0.3165700000000000 C
   0.0414460000000000    0.2756500000000000    0.2056700000000000 C
   0.0417200000000000    0.3234466666666667    0.1379400000000000 C
   0.0367060000000000    0.0253366666666667    0.1847400000000000 C
   0.0479340000000000    0.0020033333333333    0.0214700000000000 C
   0.0677500000000000    0.2993566666666667    0.9840200000000000 C
   0.0737060000000000    0.3094133333333333    0.8752000000000000 C
   0.0606080000000000    0.0228433333333333    0.7998800000000000 C
   0.0413780000000000    0.0592566666666667    0.8362300000000000 C
   0.0349320000000000    0.0488166666666667    0.9453400000000000 C
   0.0303100000000000    0.0504700000000000    0.3434600000000000 C
   0.0352480000000000    0.2119400000000000    0.3842800000000000 C
   0.0670720000000000    0.0331400000000000    0.6828500000000000 C
   0.1667980000000000    0.3206400000000000    0.7039400000000000 C
   0.1666640000000000    0.0352766666666667    0.6376700000000000 C
   0.1630720000000000    0.0704433333333333    0.6834200000000000 C
   0.1585480000000000    0.0576900000000000    0.7943200000000000 C
   0.1582740000000000    0.0098966666666667    0.8620600000000000 C
   0.1632880000000000    0.3080033333333333    0.8152600000000000 C
   0.1520600000000000    0.3313366666666666    0.9785199999999999 C
   0.1322480000000000    0.0339833333333333    0.0159800000000000 C
   0.1262920000000000    0.0239300000000000    0.1248000000000000 C
   0.1393880000000000    0.3105033333333333    0.2001200000000000 C
   0.1586200000000000    0.2740866666666666    0.1637700000000000 C
   0.1650640000000000    0.2845266666666666    0.0546600000000000 C
   0.1696880000000000    0.2828633333333333    0.6565500000000000 C
   0.1647460000000000    0.1213966666666667    0.6157000000000000 C
   0.1329260000000000    0.3002066666666666    0.3171400000000000 C
   0.2331980000000000    0.0127000000000000    0.2960700000000000 C
   0.2333300000000000    0.2980633333333333    0.3623300000000000 C
   0.2369220000000000    0.2628966666666667    0.3165700000000000 C
   0.2414460000000000    0.2756500000000000    0.2056700000000000 C
   0.2417200000000000    0.3234466666666667    0.1379400000000000 C
   0.2367060000000000    0.0253366666666667    0.1847400000000000 C
   0.2479340000000000    0.0020033333333333    0.0214700000000000 C
   0.2677500000000000    0.2993566666666667    0.9840200000000000 C
   0.2737060000000000    0.3094133333333333    0.8752000000000000 C
   0.2606080000000000    0.0228433333333333    0.7998800000000000 C
   0.2413780000000000    0.0592566666666667    0.8362300000000000 C
   0.2349320000000000    0.0488166666666667    0.9453400000000000 C
   0.2303100000000000    0.0504700000000000    0.3434600000000000 C
   0.2352480000000000    0.2119400000000000    0.3842800000000000 C
   0.2670720000000000    0.0331400000000000    0.6828500000000000 C
   0.3667980000000000    0.3206400000000000    0.7039400000000000 C
   0.3666640000000000    0.0352766666666667    0.6376700000000000 C
   0.3630720000000000    0.0704433333333333    0.6834200000000000 C
   0.3585480000000000    0.0576900000000000    0.7943200000000000 C
   0.3582740000000000    0.0098966666666667    0.8620600000000000 C
   0.3632880000000001    0.3080033333333333    0.8152600000000000 C
   0.3520600000000000    0.3313366666666666    0.9785199999999999 C
   0.3322480000000000    0.0339833333333333    0.0159800000000000 C
   0.3262920000000000    0.0239300000000000    0.1248000000000000 C
   0.3393880000000000    0.3105033333333333    0.2001200000000000 C
   0.3586200000000000    0.2740866666666666    0.1637700000000000 C
   0.3650640000000001    0.2845266666666666    0.0546600000000000 C
   0.3696880000000000    0.2828633333333333    0.6565500000000000 C
   0.3647460000000000    0.1213966666666667    0.6157000000000000 C
   0.3329260000000001    0.3002066666666666    0.3171400000000000 C
   0.4331980000000000    0.0127000000000000    0.2960700000000000 C
   0.4333300000000000    0.2980633333333333    0.3623300000000000 C
   0.4369220000000000    0.2628966666666667    0.3165700000000000 C
   0.4414460000000000    0.2756500000000000    0.2056700000000000 C
   0.4417200000000000    0.3234466666666667    0.1379400000000000 C
   0.4367060000000000    0.0253366666666667    0.1847400000000000 C
   0.4479340000000001    0.0020033333333333    0.0214700000000000 C
   0.4677500000000000    0.2993566666666667    0.9840200000000000 C
   0.4737060000000000    0.3094133333333333    0.8752000000000000 C
   0.4606080000000000    0.0228433333333333    0.7998800000000000 C
   0.4413780000000000    0.0592566666666667    0.8362300000000000 C
   0.4349320000000000    0.0488166666666667    0.9453400000000000 C
   0.4303100000000000    0.0504700000000000    0.3434600000000000 C
   0.4352480000000000    0.2119400000000000    0.3842800000000000 C
   0.4670720000000000    0.0331400000000000    0.6828500000000000 C
   0.5667980000000000    0.3206400000000000    0.7039400000000000 C
   0.5666640000000001    0.0352766666666667    0.6376700000000000 C
   0.5630720000000000    0.0704433333333333    0.6834200000000000 C
   0.5585480000000000    0.0576900000000000    0.7943200000000000 C
   0.5582740000000000    0.0098966666666667    0.8620600000000000 C
   0.5632880000000000    0.3080033333333333    0.8152600000000000 C
   0.5520600000000000    0.3313366666666666    0.9785199999999999 C
   0.5322480000000001    0.0339833333333333    0.0159800000000000 C
   0.5262920000000000    0.0239300000000000    0.1248000000000000 C
   0.5393880000000000    0.3105033333333333    0.2001200000000000 C
   0.5586200000000000    0.2740866666666666    0.1637700000000000 C
   0.5650640000000000    0.2845266666666666    0.0546600000000000 C
   0.5696880000000000    0.2828633333333333    0.6565500000000000 C
   0.5647460000000000    0.1213966666666667    0.6157000000000000 C
   0.5329260000000000    0.3002066666666666    0.3171400000000000 C
   0.6331980000000000    0.0127000000000000    0.2960700000000000 C
   0.6333300000000001    0.2980633333333333    0.3623300000000000 C
   0.6369220000000001    0.2628966666666667    0.3165700000000000 C
   0.6414460000000001    0.2756500000000000    0.2056700000000000 C
   0.6417200000000001    0.3234466666666667    0.1379400000000000 C
   0.6367060000000001    0.0253366666666667    0.1847400000000000 C
   0.6479340000000001    0.0020033333333333    0.0214700000000000 C
   0.6677500000000001    0.2993566666666667    0.9840200000000000 C
   0.6737060000000001    0.3094133333333333    0.8752000000000000 C
   0.6606080000000001    0.0228433333333333    0.7998800000000000 C
   0.6413780000000001    0.0592566666666667    0.8362300000000000 C
   0.6349320000000001    0.0488166666666667    0.9453400000000000 C
   0.6303100000000000    0.0504700000000000    0.3434600000000000 C
   0.6352480000000000    0.2119400000000000    0.3842800000000000 C
   0.6670720000000001    0.0331400000000000    0.6828500000000000 C
   0.7667980000000001    0.3206400000000000    0.7039400000000000 C
   0.7666640000000001    0.0352766666666667    0.6376700000000000 C
   0.7630720000000001    0.0704433333333333    0.6834200000000000 C
   0.7585480000000001    0.0576900000000000    0.7943200000000000 C
   0.7582740000000001    0.0098966666666667    0.8620600000000000 C
   0.7632880000000001    0.3080033333333333    0.8152600000000000 C
   0.7520600000000001    0.3313366666666666    0.9785199999999999 C
   0.7322480000000001    0.0339833333333333    0.0159800000000000 C
   0.7262920000000002    0.0239300000000000    0.1248000000000000 C
   0.7393880000000002    0.3105033333333333    0.2001200000000000 C
   0.7586200000000001    0.2740866666666666    0.1637700000000000 C
   0.7650640000000001    0.2845266666666666    0.0546600000000000 C
   0.7696880000000001    0.2828633333333333    0.6565500000000000 C
   0.7647460000000001    0.1213966666666667    0.6157000000000000 C
   0.7329260000000001    0.3002066666666666    0.3171400000000000 C
   0.8331980000000000    0.0127000000000000    0.2960700000000000 C
   0.8333300000000000    0.2980633333333333    0.3623300000000000 C
   0.8369220000000001    0.2628966666666667    0.3165700000000000 C
   0.8414460000000000    0.2756500000000000    0.2056700000000000 C
   0.8417200000000000    0.3234466666666667    0.1379400000000000 C
   0.8367060000000001    0.0253366666666667    0.1847400000000000 C
   0.8479340000000001    0.0020033333333333    0.0214700000000000 C
   0.8677500000000000    0.2993566666666667    0.9840200000000000 C
   0.8737060000000001    0.3094133333333333    0.8752000000000000 C
   0.8606080000000000    0.0228433333333333    0.7998800000000000 C
   0.8413780000000001    0.0592566666666667    0.8362300000000000 C
   0.8349320000000000    0.0488166666666667    0.9453400000000000 C
   0.8303100000000000    0.0504700000000000    0.3434600000000000 C
   0.8352480000000000    0.2119400000000000    0.3842800000000000 C
   0.8670720000000001    0.0331400000000000    0.6828500000000000 C
   0.9667980000000000    0.3206400000000000    0.7039400000000000 C
   0.9666640000000001    0.0352766666666667    0.6376700000000000 C
   0.9630720000000000    0.0704433333333333    0.6834200000000000 C
   0.9585480000000001    0.0576900000000000    0.7943200000000000 C
   0.9582740000000001    0.0098966666666667    0.8620600000000000 C
   0.9632880000000000    0.3080033333333333    0.8152600000000000 C
   0.9520600000000000    0.3313366666666666    0.9785199999999999 C
   0.9322480000000001    0.0339833333333333    0.0159800000000000 C
   0.9262920000000001    0.0239300000000000    0.1248000000000000 C
   0.9393880000000001    0.3105033333333333    0.2001200000000000 C
   0.9586200000000000    0.2740866666666666    0.1637700000000000 C
   0.9650640000000000    0.2845266666666666    0.0546600000000000 C
   0.9696880000000001    0.2828633333333333    0.6565500000000000 C
   0.9647460000000001    0.1213966666666667    0.6157000000000000 C
   0.9329260000000000    0.3002066666666666    0.3171400000000000 C
   0.0331980000000000    0.3460333333333333    0.2960700000000000 C
   0.0333300000000000    0.6313966666666666    0.3623300000000000 C
   0.0369220000000000    0.5962300000000000    0.3165700000000000 C
   0.0414460000000000    0.6089833333333332    0.2056700000000000 C
   0.0417200000000000    0.6567799999999999    0.1379400000000000 C
   0.0367060000000000    0.3586700000000000    0.1847400000000000 C
   0.0479340000000000    0.3353366666666667    0.0214700000000000 C
   0.0677500000000000    0.6326900000000000    0.9840200000000000 C
   0.0737060000000000    0.6427466666666666    0.8752000000000000 C
   0.0606080000000000    0.3561766666666666    0.7998800000000000 C
   0.0413780000000000    0.3925900000000000    0.8362300000000000 C
   0.0349320000000000    0.3821500000000000    0.9453400000000000 C
   0.0303100000000000    0.3838033333333333    0.3434600000000000 C
   0.0352480000000000    0.5452733333333333    0.3842800000000000 C
   0.0670720000000000    0.3664733333333333    0.6828500000000000 C
   0.1666640000000000    0.3686100000000000    0.6376700000000000 C
   0.1630720000000000    0.4037766666666667    0.6834200000000000 C
   0.1585480000000000    0.3910233333333333    0.7943200000000000 C
   0.1582740000000000    0.3432300000000000    0.8620600000000000 C
   0.1322480000000000    0.3673166666666666    0.0159800000000000 C
   0.1262920000000000    0.3572633333333333    0.1248000000000000 C
   0.1647460000000000    0.4547300000000000    0.6157000000000000 C
   0.2331980000000000    0.3460333333333333    0.2960700000000000 C
   0.2333300000000000    0.6313966666666666    0.3623300000000000 C
   0.2369220000000000    0.5962300000000000    0.3165700000000000 C
   0.2414460000000000    0.6089833333333332    0.2056700000000000 C
   0.2417200000000000    0.6567799999999999    0.1379400000000000 C
   0.2367060000000000    0.3586700000000000    0.1847400000000000 C
   0.2479340000000000    0.3353366666666667    0.0214700000000000 C
   0.2677500000000000    0.6326900000000000    0.9840200000000000 C
   0.2737060000000000    0.6427466666666666    0.8752000000000000 C
   0.2606080000000000    0.3561766666666666    0.7998800000000000 C
   0.2413780000000000    0.3925900000000000    0.8362300000000000 C
   0.2349320000000000    0.3821500000000000    0.9453400000000000 C
   0.2303100000000000    0.3838033333333333    0.3434600000000000 C
   0.2352480000000000    0.5452733333333333    0.3842800000000000 C
   0.2670720000000000    0.3664733333333333    0.6828500000000000 C
   0.3667980000000000    0.6539733333333333    0.7039400000000000 C