H1 C6 N9
1.0
  14.9290770749793626    0.0000000000000000    1.9039846872613300
   1.4971345200064763   12.4250712237226164    1.0746693977336244
   0.0000000000000000    0.0000000000000000   25.1340000000000003
H C N
1 6 9
direct
   0.7238350000000000    0.4168600000000000    0.2340000000000000 H
   0.7180250000000000    0.5292500000000000    0.1670200000000000 C
   0.6809750000000000    0.3503500000000000    0.1688700000000000 C
   0.6622700000000000    0.4697700000000000    0.0964450000000000 C
   0.7470600000000001    0.7014300000000000    0.1751900000000000 C
   0.6586200000000000    0.1706100000000000    0.1812550000000000 C
   0.6014500000000000    0.4241300000000000    0.0220100000000000 C
   0.7100299999999999    0.4305500000000000    0.1940700000000000 N
   0.6579800000000000    0.3683900000000000    0.1191150000000000 N
   0.6940850000000001    0.5506100000000000    0.1177100000000000 N
   0.7500750000000000    0.6017800000000000    0.1943350000000000 N
   0.7464350000000000    0.7940700000000001    0.1627300000000000 N
   0.6730900000000000    0.2580600000000000    0.1995400000000000 N
   0.6443700000000000    0.0847100000000000    0.1701300000000000 N
   0.6294700000000000    0.4965900000000000    0.0479750000000000 N
   0.5742600000000000    0.3700800000000000    0.9928850000000000 N
