Cu16 H15 C90 N135
1.0
  14.9290770749793626    0.0000000000000000    1.9039846872613300
   1.4971345200064763   12.4250712237226164    1.0746693977336244
   0.0000000000000000    0.0000000000000000   25.1340000000000003
Cu H C N
16 15 90 135
direct
   0.2032900000000000    0.9405400000000000    0.1781100000000000 Cu
   0.2966750000000000    0.0594900000000000    0.3218850000000000 Cu
   0.0470800000000000    0.6437800000000000    0.0296900000000000 Cu
   0.4530750000000000    0.3562100000000000    0.4702850000000000 Cu
   0.7032900000000000    0.9405400000000000    0.1781100000000000 Cu
   0.7966750000000000    0.0594900000000000    0.3218850000000000 Cu
   0.5470800000000000    0.6437800000000000    0.0296900000000000 Cu
   0.9530750000000000    0.3562100000000000    0.4702850000000000 Cu
   0.2032900000000000    0.9405400000000000    0.6781100000000000 Cu
   0.2966750000000000    0.0594900000000000    0.8218850000000000 Cu
   0.0470800000000000    0.6437800000000000    0.5296900000000000 Cu
   0.4530750000000000    0.3562100000000000    0.9702850000000001 Cu
   0.7032900000000000    0.9405400000000000    0.6781100000000000 Cu
   0.7966750000000000    0.0594900000000000    0.8218850000000000 Cu
   0.5470800000000000    0.6437800000000000    0.5296900000000000 Cu
   0.9530750000000000    0.3562100000000000    0.9702850000000001 Cu
   0.2238350000000000    0.4168600000000000    0.2340000000000000 H
   0.4736850000000000    0.4678700000000000    0.2084350000000000 H
   0.0263350000000000    0.5321100000000000    0.2915550000000000 H
   0.2762150000000000    0.5831700000000000    0.2660200000000000 H
   0.9736850000000000    0.4678700000000000    0.2084350000000000 H
   0.5263350000000000    0.5321100000000000    0.2915550000000000 H
   0.7762150000000000    0.5831700000000000    0.2660200000000000 H
   0.2238350000000000    0.4168600000000000    0.7340000000000000 H
   0.4736850000000000    0.4678700000000000    0.7084350000000000 H
   0.0263350000000000    0.5321100000000000    0.7915550000000000 H
   0.2762150000000000    0.5831700000000000    0.7660199999999999 H
   0.7238350000000000    0.4168600000000000    0.7340000000000000 H
   0.9736850000000000    0.4678700000000000    0.7084350000000000 H
   0.5263350000000000    0.5321100000000000    0.7915550000000000 H
   0.7762150000000000    0.5831700000000000    0.7660199999999999 H
   0.2180250000000000    0.5292500000000000    0.1670200000000000 C
   0.1809750000000000    0.3503500000000000    0.1688700000000000 C
   0.1622700000000000    0.4697700000000000    0.0964450000000000 C
   0.2470600000000000    0.7014300000000000    0.1751900000000000 C
   0.1586200000000000    0.1706100000000000    0.1812550000000000 C
   0.1014500000000000    0.4241300000000000    0.0220100000000000 C
   0.4676750000000000    0.3341300000000000    0.2647450000000000 C
   0.4308250000000000    0.3375600000000000    0.1752450000000000 C
   0.4119200000000000    0.1929600000000000    0.2350550000000000 C
   0.4967600000000000    0.3505800000000000    0.3508300000000000 C
   0.4087850000000000    0.3621400000000000    0.0852950000000000 C
   0.3513050000000000    0.0440300000000000    0.2122200000000000 C
   0.0323400000000000    0.6658400000000000    0.2352350000000000 C
   0.0692150000000000    0.6624200000000000    0.3247300000000000 C
   0.0880750000000000    0.8070300000000000    0.2649250000000000 C
   0.0032400000000000    0.6494600000000000    0.1492100000000000 C
   0.0913200000000000    0.6378000000000000    0.4146700000000000 C
   0.1486700000000000    0.9559800000000001    0.2877550000000000 C
   0.2820250000000000    0.4707500000000000    0.3329850000000000 C
   0.3190650000000000    0.6496600000000000    0.3311550000000000 C
   0.3378000000000000    0.5302000000000000    0.4035650000000000 C
   0.2529400000000000    0.2986000000000000    0.3248050000000000 C
   0.3413900000000000    0.8294200000000000    0.3187750000000000 C
   0.3985700000000000    0.5758100000000000    0.4780250000000000 C
   0.9676750000000001    0.3341300000000000    0.2647450000000000 C
   0.9308250000000000    0.3375600000000000    0.1752450000000000 C
   0.9119200000000001    0.1929600000000000    0.2350550000000000 C
   0.9967600000000000    0.3505800000000000    0.3508300000000000 C
   0.9087850000000000    0.3621400000000000    0.0852950000000000 C
   0.8513050000000000    0.0440300000000000    0.2122200000000000 C
   0.5323400000000000    0.6658400000000000    0.2352350000000000 C
   0.5692150000000000    0.6624200000000000    0.3247300000000000 C
   0.5880750000000000    0.8070300000000000    0.2649250000000000 C
   0.5032400000000000    0.6494600000000000    0.1492100000000000 C
   0.5913200000000000    0.6378000000000000    0.4146700000000000 C
   0.6486700000000000    0.9559800000000001    0.2877550000000000 C
   0.7820250000000000    0.4707500000000000    0.3329850000000000 C
   0.8190649999999999    0.6496600000000000    0.3311550000000000 C
   0.8378000000000000    0.5302000000000000    0.4035650000000000 C
   0.7529399999999999    0.2986000000000000    0.3248050000000000 C
   0.8413900000000001    0.8294200000000000    0.3187750000000000 C
   0.8985700000000000    0.5758100000000000    0.4780250000000000 C
   0.2180250000000000    0.5292500000000000    0.6670199999999999 C
   0.1809750000000000    0.3503500000000000    0.6688700000000000 C
   0.1622700000000000    0.4697700000000000    0.5964450000000000 C
   0.2470600000000000    0.7014300000000000    0.6751900000000000 C
   0.1586200000000000    0.1706100000000000    0.6812549999999999 C
   0.1014500000000000    0.4241300000000000    0.5220100000000000 C
   0.4676750000000000    0.3341300000000000    0.7647450000000000 C
   0.4308250000000000    0.3375600000000000    0.6752450000000000 C
   0.4119200000000000    0.1929600000000000    0.7350550000000000 C
   0.4967600000000000    0.3505800000000000    0.8508300000000000 C
   0.4087850000000000    0.3621400000000000    0.5852950000000000 C
   0.3513050000000000    0.0440300000000000    0.7122200000000000 C
   0.0323400000000000    0.6658400000000000    0.7352350000000000 C
   0.0692150000000000    0.6624200000000000    0.8247300000000000 C
   0.0880750000000000    0.8070300000000000    0.7649250000000001 C
   0.0032400000000000    0.6494600000000000    0.6492100000000001 C
   0.0913200000000000    0.6378000000000000    0.9146700000000000 C
   0.1486700000000000    0.9559800000000001    0.7877550000000000 C
   0.2820250000000000    0.4707500000000000    0.8329850000000000 C
   0.3190650000000000    0.6496600000000000    0.8311550000000000 C
   0.3378000000000000    0.5302000000000000    0.9035650000000000 C
   0.2529400000000000    0.2986000000000000    0.8248050000000000 C
   0.3413900000000000    0.8294200000000000    0.8187750000000000 C
   0.3985700000000000    0.5758100000000000    0.9780249999999999 C
   0.7180250000000000    0.5292500000000000    0.6670199999999999 C
   0.6809750000000000    0.3503500000000000    0.6688700000000000 C
   0.6622700000000000    0.4697700000000000    0.5964450000000000 C
   0.7470600000000001    0.7014300000000000    0.6751900000000000 C
   0.6586200000000000    0.1706100000000000    0.6812549999999999 C
   0.6014500000000000    0.4241300000000000    0.5220100000000000 C
   0.9676750000000001    0.3341300000000000    0.7647450000000000 C
   0.9308250000000000    0.3375600000000000    0.6752450000000000 C
   0.9119200000000001    0.1929600000000000    0.7350550000000000 C
   0.9967600000000000    0.3505800000000000    0.8508300000000000 C
   0.9087850000000000    0.3621400000000000    0.5852950000000000 C
   0.8513050000000000    0.0440300000000000    0.7122200000000000 C
   0.5323400000000000    0.6658400000000000    0.7352350000000000 C
   0.5692150000000000    0.6624200000000000    0.8247300000000000 C
   0.5880750000000000    0.8070300000000000    0.7649250000000001 C
   0.5032400000000000    0.6494600000000000    0.6492100000000001 C
   0.5913200000000000    0.6378000000000000    0.9146700000000000 C
   0.6486700000000000    0.9559800000000001    0.7877550000000000 C
   0.7820250000000000    0.4707500000000000    0.8329850000000000 C
   0.8190649999999999    0.6496600000000000    0.8311550000000000 C
   0.8378000000000000    0.5302000000000000    0.9035650000000000 C
   0.7529399999999999    0.2986000000000000    0.8248050000000000 C
   0.8413900000000001    0.8294200000000000    0.8187750000000000 C
   0.8985700000000000    0.5758100000000000    0.9780249999999999 C
   0.2100300000000000    0.4305500000000000    0.1940700000000000 N
   0.1579800000000000    0.3683900000000000    0.1191150000000000 N
   0.1940850000000000    0.5506100000000000    0.1177100000000000 N
   0.2500750000000000    0.6017800000000000    0.1943350000000000 N
   0.2464350000000000    0.7940700000000001    0.1627300000000000 N
   0.1730900000000000    0.2580600000000000    0.1995400000000000 N
   0.1443700000000000    0.0847100000000000    0.1701300000000000 N
   0.1294700000000000    0.4965900000000000    0.0479750000000000 N
   0.0742600000000000    0.3700800000000000    0.4928850000000000 N
   0.4597400000000000    0.3881000000000000    0.2153550000000000 N
   0.4077850000000000    0.2381000000000000    0.1843200000000000 N
   0.4436950000000000    0.2355800000000000    0.2754700000000000 N
   0.4997750000000000    0.3888000000000000    0.3010250000000000 N
   0.4960650000000000    0.3256300000000000    0.3971300000000000 N
   0.4231450000000000    0.3987200000000000    0.1290350000000000 N
   0.3946100000000000    0.3399600000000000    0.0423200000000000 N
   0.3791250000000000    0.0960900000000000    0.2484700000000000 N
   0.3243300000000000    0.9856700000000000    0.1851750000000000 N
   0.0402650000000000    0.6118900000000000    0.2846250000000000 N
   0.0922350000000000    0.7618800000000000    0.3156550000000000 N
   0.0562800000000000    0.7644100000000000    0.2245150000000000 N
   0.0002550000000000    0.6112100000000000    0.1990100000000000 N
   0.0039100000000000    0.6744200000000000    0.1029100000000000 N
   0.0769000000000000    0.6012500000000000    0.3709350000000000 N
   0.1055350000000000    0.6599400000000000    0.4576450000000000 N
   0.1208400000000000    0.9039199999999999    0.2515050000000000 N
   0.1756550000000000    0.0143400000000000    0.3147950000000000 N
   0.2900300000000000    0.5694600000000000    0.3059450000000000 N
   0.3420750000000000    0.6316000000000001    0.3809100000000000 N
   0.3059900000000000    0.4493700000000000    0.3822900000000000 N
   0.2499600000000000    0.3982400000000000    0.3056700000000000 N
   0.2535350000000000    0.2059600000000000    0.3372600000000000 N
   0.3269550000000000    0.7419500000000000    0.3004900000000000 N
   0.3556150000000000    0.9153400000000000    0.3298950000000000 N
   0.3705950000000000    0.5033600000000000    0.4520400000000000 N
   0.4257000000000000    0.6298700000000000    0.0071750000000000 N
   0.5742600000000000    0.3700800000000000    0.4928850000000000 N
   0.9597400000000000    0.3881000000000000    0.2153550000000000 N
   0.9077850000000001    0.2381000000000000    0.1843200000000000 N
   0.9436950000000000    0.2355800000000000    0.2754700000000000 N
   0.9997750000000001    0.3888000000000000    0.3010250000000000 N
   0.9960650000000000    0.3256300000000000    0.3971300000000000 N
   0.9231450000000000    0.3987200000000000    0.1290350000000000 N
   0.8946100000000000    0.3399600000000000    0.0423200000000000 N
   0.8791249999999999    0.0960900000000000    0.2484700000000000 N
   0.8243300000000000    0.9856700000000000    0.1851750000000000 N
   0.5402650000000000    0.6118900000000000    0.2846250000000000 N
   0.5922350000000000    0.7618800000000000    0.3156550000000000 N
   0.5562800000000000    0.7644100000000000    0.2245150000000000 N
   0.5002550000000000    0.6112100000000000    0.1990100000000000 N
   0.5039100000000000    0.6744200000000000    0.1029100000000000 N
   0.5769000000000000    0.6012500000000000    0.3709350000000000 N
   0.6055350000000000    0.6599400000000000    0.4576450000000000 N
   0.6208400000000001    0.9039199999999999    0.2515050000000000 N
   0.6756550000000000    0.0143400000000000    0.3147950000000000 N
   0.7900300000000000    0.5694600000000000    0.3059450000000000 N
   0.8420750000000000    0.6316000000000001    0.3809100000000000 N
   0.8059900000000000    0.4493700000000000    0.3822900000000000 N
   0.7499600000000000    0.3982400000000000    0.3056700000000000 N
   0.7535350000000001    0.2059600000000000    0.3372600000000000 N
   0.8269550000000000    0.7419500000000000    0.3004900000000000 N
   0.8556150000000000    0.9153400000000000    0.3298950000000000 N
   0.8705950000000000    0.5033600000000000    0.4520400000000000 N
   0.9257000000000000    0.6298700000000000    0.0071750000000000 N
   0.2100300000000000    0.4305500000000000    0.6940700000000000 N
   0.1579800000000000    0.3683900000000000    0.6191150000000000 N
   0.1940850000000000    0.5506100000000000    0.6177100000000000 N
   0.2500750000000000    0.6017800000000000    0.6943350000000000 N
   0.2464350000000000    0.7940700000000001    0.6627300000000000 N
   0.1730900000000000    0.2580600000000000    0.6995400000000001 N
   0.1443700000000000    0.0847100000000000    0.6701300000000000 N
   0.1294700000000000    0.4965900000000000    0.5479750000000000 N
   0.0742600000000000    0.3700800000000000    0.9928850000000000 N
   0.4597400000000000    0.3881000000000000    0.7153550000000000 N
   0.4077850000000000    0.2381000000000000    0.6843200000000000 N
   0.4436950000000000    0.2355800000000000    0.7754700000000000 N
   0.4997750000000000    0.3888000000000000    0.8010250000000000 N
   0.4960650000000000    0.3256300000000000    0.8971300000000000 N
   0.4231450000000000    0.3987200000000000    0.6290350000000000 N
   0.3946100000000000    0.3399600000000000    0.5423200000000000 N
   0.3791250000000000    0.0960900000000000    0.7484700000000000 N
   0.3243300000000000    0.9856700000000000    0.6851750000000000 N
   0.0402650000000000    0.6118900000000000    0.7846250000000000 N
   0.0922350000000000    0.7618800000000000    0.8156550000000000 N
   0.0562800000000000    0.7644100000000000    0.7245150000000000 N
   0.0002550000000000    0.6112100000000000    0.6990100000000000 N
   0.0039100000000000    0.6744200000000000    0.6029100000000001 N
   0.0769000000000000    0.6012500000000000    0.8709350000000000 N
   0.1055350000000000    0.6599400000000000    0.9576450000000001 N
   0.1208400000000000    0.9039199999999999    0.7515050000000000 N
   0.1756550000000000    0.0143400000000000    0.8147949999999999 N
   0.2900300000000000    0.5694600000000000    0.8059450000000000 N
   0.3420750000000000    0.6316000000000001    0.8809100000000001 N
   0.3059900000000000    0.4493700000000000    0.8822900000000000 N
   0.2499600000000000    0.3982400000000000    0.8056700000000000 N
   0.2535350000000000    0.2059600000000000    0.8372600000000000 N
   0.3269550000000000    0.7419500000000000    0.8004899999999999 N
   0.3556150000000000    0.9153400000000000    0.8298950000000000 N
   0.3705950000000000    0.5033600000000000    0.9520400000000000 N
   0.4257000000000000    0.6298700000000000    0.5071750000000000 N
   0.7100299999999999    0.4305500000000000    0.6940700000000000 N
   0.6579800000000000    0.3683900000000000    0.6191150000000000 N
   0.6940850000000001    0.5506100000000000    0.6177100000000000 N
   0.7500750000000000    0.6017800000000000    0.6943350000000000 N
   0.7464350000000000    0.7940700000000001    0.6627300000000000 N
   0.6730900000000000    0.2580600000000000    0.6995400000000001 N
   0.6443700000000000    0.0847100000000000    0.6701300000000000 N
   0.6294700000000000    0.4965900000000000    0.5479750000000000 N
   0.9597400000000000    0.3881000000000000    0.7153550000000000 N
   0.9077850000000001    0.2381000000000000    0.6843200000000000 N
   0.9436950000000000    0.2355800000000000    0.7754700000000000 N
   0.9997750000000001    0.3888000000000000    0.8010250000000000 N
   0.9960650000000000    0.3256300000000000    0.8971300000000000 N
   0.9231450000000000    0.3987200000000000    0.6290350000000000 N
   0.8946100000000000    0.3399600000000000    0.5423200000000000 N
   0.8791249999999999    0.0960900000000000    0.7484700000000000 N
   0.8243300000000000    0.9856700000000000    0.6851750000000000 N
   0.5402650000000000    0.6118900000000000    0.7846250000000000 N
   0.5922350000000000    0.7618800000000000    0.8156550000000000 N
   0.5562800000000000    0.7644100000000000    0.7245150000000000 N
   0.5002550000000000    0.6112100000000000    0.6990100000000000 N
   0.5039100000000000    0.6744200000000000    0.6029100000000001 N
   0.5769000000000000    0.6012500000000000    0.8709350000000000 N
   0.6055350000000000    0.6599400000000000    0.9576450000000001 N
   0.6208400000000001    0.9039199999999999    0.7515050000000000 N
   0.6756550000000000    0.0143400000000000    0.8147949999999999 N
   0.7900300000000000    0.5694600000000000    0.8059450000000000 N
   0.8420750000000000    0.6316000000000001    0.8809100000000001 N
   0.8059900000000000    0.4493700000000000    0.8822900000000000 N
   0.7499600000000000    0.3982400000000000    0.8056700000000000 N
   0.7535350000000001    0.2059600000000000    0.8372600000000000 N
   0.8269550000000000    0.7419500000000000    0.8004899999999999 N
   0.8556150000000000    0.9153400000000000    0.8298950000000000 N
   0.8705950000000000    0.5033600000000000    0.9520400000000000 N
   0.9257000000000000    0.6298700000000000    0.5071750000000000 N
