H4 C9 O6
1.0
  33.7244532212568799    0.0000000000000000    5.0973337321835395
   8.5961985414080786   33.2458835524093175   14.4408116790827581
   0.0000000000000000    0.0000000000000000   20.3640000000000008
H C O
4 9 6
direct
   0.7499960000000001    0.6817500000000000    0.2768900000000000 H
   0.7512160000000001    0.7718250000000000    0.3800350000000000 H
   0.7449780000000001    0.7767975000000000    0.1664800000000000 H
   0.7555780000000001    0.8806575000000000    0.2008100000000000 H
   0.7484760000000001    0.7261500000000000    0.3050500000000000 C
   0.7525880000000000    0.8285350000000000    0.2954800000000000 C
   0.7499420000000001    0.8311125000000000    0.1753350000000000 C
   0.7508160000000001    0.7882575000000001    0.3226550000000000 C
   0.7474120000000001    0.7911350000000000    0.2026700000000000 C
   0.7540680000000001    0.8485450000000000    0.3460050000000000 C
   0.7492140000000000    0.8530000000000000    0.0964350000000000 C
   0.7531540000000001    0.8496625000000000    0.2216700000000000 C
   0.7488140000000001    0.7693050000000000    0.2762800000000000 C
   0.7487460000000001    0.7116225000000000    0.2548950000000000 O
   0.7482300000000001    0.7057850000000000    0.3701000000000000 O
   0.7551080000000001    0.8858025000000000    0.3206350000000000 O
   0.7226040000000001    0.8500650000000000    0.0620250000000000 O
   0.7753960000000001    0.8734250000000000    0.0641350000000000 O
   0.7539740000000001    0.8287575000000000    0.4124750000000000 O
