H4 C8 O4
1.0
  15.3994225839484180    0.0000000000000000   -4.2532763936734090
  -3.5533745105229899   18.2425364016825711   -6.6402628879624821
   0.0000000000000000    0.0000000000000000   13.5449999999999999
H C O
4 8 4
direct
   0.4221500000000000    0.0269500000000000    0.8363000000000000 H
   0.6601200000000000    0.9935500000000000    0.0395500000000000 H
   0.5778400000000000    0.9730400000000000    0.1637300000000000 H
   0.3398700000000000    0.0000000000000000    0.9604900000000000 H
   0.5956700000000000    0.0244700000000000    0.8576500000000000 C
   0.5457400000000000    0.0105000000000000    0.9297200000000000 C
   0.4555100000000000    0.0139600000000000    0.9071399999999999 C
   0.5901500000000000    0.9963900000000000    0.0231400000000000 C
   0.4043100000000000    0.9755200000000001    0.1423800000000000 C
   0.4542500000000000    0.9894900000000000    0.0703000000000000 C
   0.5444800000000000    0.9860300000000000    0.0929000000000000 C
   0.4098400000000000    0.0000000000000000    0.9768900000000000 C
   0.5560100000000000    0.0379200000000000    0.7719500000000000 O
   0.6785500000000000    0.0244400000000000    0.8828700000000000 O
   0.4439700000000000    0.9620500000000000    0.2280700000000000 O
   0.3214400000000000    0.9755600000000000    0.1171600000000000 O
