H2 O2
1.0
  15.3994225839484180    0.0000000000000000   -4.2532763936734090
  -3.5533745105229899   18.2425364016825711   -6.6402628879624821
   0.0000000000000000    0.0000000000000000   13.5449999999999999
H O
2 2
direct
   0.4010057623341357    0.1109794557528171    0.4111678915362747 H
   0.2779972305207309    0.1090140412818509    0.3987785515623048 H
   0.3964200000000000    0.1616200000000000    0.4495700000000000 O
   0.3076600000000000    0.1602100000000000    0.4404900000000000 O
