H2 C2 N3
1.0
  15.3994225839484180    0.0000000000000000   -4.2532763936734090
  -3.5533745105229899   18.2425364016825711   -6.6402628879624821
   0.0000000000000000    0.0000000000000000   13.5449999999999999
H C N
2 2 3
direct
   0.4632700000000000    0.0744900000000000    0.3864300000000000 H
   0.1964300000000000    0.0707200000000000    0.3618900000000000 H
   0.4027000000000000    0.0922700000000000    0.3969800000000000 C
   0.2669400000000000    0.0899300000000000    0.3832300000000000 C
   0.3964200000000000    0.1616200000000000    0.4495700000000000 N
   0.3076600000000000    0.1602100000000000    0.4404900000000000 N
   0.3238900000000000    0.0461200000000000    0.3551000000000000 N
