La64 P63 H189 C190 O506
1.0
  29.4419767535316375    0.0000000000000000    0.0369978986253413
  -3.2363343596795371   20.2186226815964751    0.0035737361582409
   0.0000000000000000    0.0000000000000000   26.2839999999999989
La P H C O
64 63 189 190 506
direct
   0.0383400000000000    0.6388600000000000    0.4589100000000000 La
   0.2883350000000000    0.1388500000000000    0.4589100000000000 La
   0.2883350000000000    0.6388600000000000    0.4589100000000000 La
   0.2115550000000000    0.1111900000000000    0.2089000000000000 La
   0.2115550000000000    0.6112000000000000    0.2089400000000000 La
   0.4615500000000000    0.1111900000000000    0.2089000000000000 La
   0.4615500000000000    0.6112000000000000    0.2089000000000000 La
   0.2116550000000000    0.3611600000000000    0.0410850000000000 La
   0.2116550000000000    0.8611700000000000    0.0410850000000000 La
   0.4616450000000000    0.3611600000000000    0.0410850000000000 La
   0.4616500000000000    0.8611700000000000    0.0410850000000000 La
   0.0384400000000000    0.3888200000000000    0.2910550000000000 La
   0.0384400000000000    0.8888300000000000    0.2910550000000000 La
   0.2884300000000000    0.3888200000000000    0.2910550000000000 La
   0.2884350000000000    0.8888400000000000    0.2910550000000000 La
   0.0383400000000000    0.1388500000000000    0.4589100000000000 La
   0.5383400000000000    0.6388600000000000    0.4589100000000000 La
   0.7883350000000000    0.1388500000000000    0.4589100000000000 La
   0.7883350000000000    0.6388600000000000    0.4589100000000000 La
   0.7115549999999999    0.1111900000000000    0.2089000000000000 La
   0.7115549999999999    0.6112000000000000    0.2089400000000000 La
   0.9615500000000000    0.1111900000000000    0.2089000000000000 La
   0.9615500000000000    0.6112000000000000    0.2089000000000000 La
   0.7116550000000000    0.3611600000000000    0.0410850000000000 La
   0.7116550000000000    0.8611700000000000    0.0410850000000000 La
   0.9616450000000001    0.3611600000000000    0.0410850000000000 La
   0.9616500000000000    0.8611700000000000    0.0410850000000000 La
   0.5384400000000000    0.3888200000000000    0.2910550000000000 La
   0.5384400000000000    0.8888300000000000    0.2910550000000000 La
   0.7884300000000000    0.3888200000000000    0.2910550000000000 La
   0.7884350000000000    0.8888400000000000    0.2910550000000000 La
   0.5383400000000000    0.1388500000000000    0.4589100000000000 La
   0.0383400000000000    0.6388600000000000    0.9589099999999999 La
   0.2883350000000000    0.1388500000000000    0.9589099999999999 La
   0.2883350000000000    0.6388600000000000    0.9589099999999999 La
   0.2115550000000000    0.1111900000000000    0.7089000000000000 La
   0.2115550000000000    0.6112000000000000    0.7089400000000000 La
   0.4615500000000000    0.1111900000000000    0.7089000000000000 La
   0.4615500000000000    0.6112000000000000    0.7089000000000000 La
   0.2116550000000000    0.3611600000000000    0.5410850000000000 La
   0.2116550000000000    0.8611700000000000    0.5410850000000000 La
   0.4616450000000000    0.3611600000000000    0.5410850000000000 La
   0.4616500000000000    0.8611700000000000    0.5410850000000000 La
   0.0384400000000000    0.3888200000000000    0.7910550000000001 La
   0.0384400000000000    0.8888300000000000    0.7910550000000001 La
   0.2884300000000000    0.3888200000000000    0.7910550000000001 La
   0.2884350000000000    0.8888400000000000    0.7910550000000001 La
   0.0383400000000000    0.1388500000000000    0.9589099999999999 La
   0.5383400000000000    0.6388600000000000    0.9589099999999999 La
   0.7883350000000000    0.1388500000000000    0.9589099999999999 La
   0.7883350000000000    0.6388600000000000    0.9589099999999999 La
   0.7115549999999999    0.1111900000000000    0.7089000000000000 La
   0.7115549999999999    0.6112000000000000    0.7089400000000000 La
   0.9615500000000000    0.1111900000000000    0.7089000000000000 La
   0.9615500000000000    0.6112000000000000    0.7089000000000000 La
   0.7116550000000000    0.3611600000000000    0.5410850000000000 La
   0.7116550000000000    0.8611700000000000    0.5410850000000000 La
   0.9616450000000001    0.3611600000000000    0.5410850000000000 La
   0.9616500000000000    0.8611700000000000    0.5410850000000000 La
   0.5384400000000000    0.3888200000000000    0.7910550000000001 La
   0.5384400000000000    0.8888300000000000    0.7910550000000001 La
   0.7884300000000000    0.3888200000000000    0.7910550000000001 La
   0.7884350000000000    0.8888400000000000    0.7910550000000001 La
   0.5383400000000000    0.1388500000000000    0.9589099999999999 La
   0.1968350000000000    0.0407800000000000    0.0332550000000000 P
   0.1968350000000000    0.5407999999999999    0.0332550000000000 P
   0.4468300000000000    0.0407800000000000    0.0332550000000000 P
   0.4468300000000000    0.5407999999999999    0.0332550000000000 P
   0.0531850000000000    0.2091800000000000    0.2826450000000000 P
   0.0531900000000000    0.7091900000000000    0.2826450000000000 P
   0.3031800000000000    0.2091800000000000    0.2826450000000000 P
   0.3031800000000000    0.7091900000000000    0.2826450000000000 P
   0.0531600000000000    0.4592300000000000    0.4667400000000000 P
   0.0531600000000000    0.9592400000000000    0.4667400000000000 P
   0.3031500000000000    0.4592300000000000    0.4667400000000000 P
   0.3031550000000000    0.9592400000000000    0.4667400000000000 P
   0.1968050000000000    0.2908300000000000    0.2173500000000000 P
   0.1968100000000000    0.7908400000000000    0.2173500000000000 P
   0.4468000000000000    0.2908300000000000    0.2173500000000000 P
   0.4468000000000000    0.7908400000000000    0.2173500000000000 P
   0.6968350000000000    0.0407800000000000    0.0332550000000000 P
   0.6968350000000000    0.5407999999999999    0.0332550000000000 P
   0.9468300000000001    0.0407800000000000    0.0332550000000000 P
   0.9468300000000001    0.5407999999999999    0.0332550000000000 P
   0.5531850000000000    0.2091800000000000    0.2826450000000000 P
   0.8031800000000000    0.2091800000000000    0.2826450000000000 P
   0.8031800000000000    0.7091900000000000    0.2826450000000000 P
   0.5531600000000000    0.4592300000000000    0.4667400000000000 P
   0.5531600000000000    0.9592400000000000    0.4667400000000000 P
   0.8031500000000000    0.4592300000000000    0.4667400000000000 P
   0.8031550000000001    0.9592400000000000    0.4667400000000000 P
   0.6968050000000000    0.2908300000000000    0.2173500000000000 P
   0.6968100000000000    0.7908400000000000    0.2173500000000000 P
   0.9468000000000000    0.2908300000000000    0.2173500000000000 P
   0.9468000000000000    0.7908400000000000    0.2173500000000000 P
   0.1968350000000000    0.0407800000000000    0.5332550000000000 P
   0.1968350000000000    0.5407999999999999    0.5332550000000000 P
   0.4468300000000000    0.0407800000000000    0.5332550000000000 P
   0.4468300000000000    0.5407999999999999    0.5332550000000000 P
   0.0531850000000000    0.2091800000000000    0.7826450000000000 P
   0.0531900000000000    0.7091900000000000    0.7826450000000000 P
   0.3031800000000000    0.2091800000000000    0.7826450000000000 P
   0.3031800000000000    0.7091900000000000    0.7826450000000000 P
   0.0531600000000000    0.4592300000000000    0.9667399999999999 P
   0.0531600000000000    0.9592400000000000    0.9667399999999999 P
   0.3031500000000000    0.4592300000000000    0.9667399999999999 P
   0.3031550000000000    0.9592400000000000    0.9667399999999999 P
   0.1968050000000000    0.2908300000000000    0.7173499999999999 P
   0.1968100000000000    0.7908400000000000    0.7173499999999999 P
   0.4468000000000000    0.2908300000000000    0.7173499999999999 P
   0.4468000000000000    0.7908400000000000    0.7173499999999999 P
   0.6968350000000000    0.0407800000000000    0.5332550000000000 P
   0.6968350000000000    0.5407999999999999    0.5332550000000000 P
   0.9468300000000001    0.0407800000000000    0.5332550000000000 P
   0.9468300000000001    0.5407999999999999    0.5332550000000000 P
   0.5531850000000000    0.2091800000000000    0.7826450000000000 P
   0.5531900000000000    0.7091900000000000    0.7826450000000000 P
   0.8031800000000000    0.2091800000000000    0.7826450000000000 P
   0.8031800000000000    0.7091900000000000    0.7826450000000000 P
   0.5531600000000000    0.4592300000000000    0.9667399999999999 P
   0.5531600000000000    0.9592400000000000    0.9667399999999999 P
   0.8031500000000000    0.4592300000000000    0.9667399999999999 P
   0.8031550000000001    0.9592400000000000    0.9667399999999999 P
   0.6968050000000000    0.2908300000000000    0.7173499999999999 P
   0.6968100000000000    0.7908400000000000    0.7173499999999999 P
   0.9468000000000000    0.2908300000000000    0.7173499999999999 P
   0.9468000000000000    0.7908400000000000    0.7173499999999999 P
   0.1429800000000000    0.1054600000000000    0.0290750000000000 H
   0.1429800000000000    0.6054700000000000    0.0290750000000000 H
   0.3929700000000000    0.1054600000000000    0.0290750000000000 H
   0.3929750000000000    0.6054700000000000    0.0290750000000000 H
   0.2299450000000000    0.9928700000000000    0.1334000000000000 H
   0.2299500000000000    0.4928800000000000    0.1334000000000000 H
   0.4799400000000000    0.9928700000000000    0.1334000000000000 H
   0.4799400000000000    0.4928800000000000    0.1334000000000000 H
   0.0222100000000000    0.0474100000000000    0.0712600000000000 H
   0.0222150000000000    0.5474200000000000    0.0712600000000000 H
   0.2722050000000000    0.0474100000000000    0.0712600000000000 H
   0.2722050000000000    0.5474200000000000    0.0712600000000000 H
   0.1070350000000000    0.1445000000000000    0.2782250000000000 H
   0.1070350000000000    0.6445100000000000    0.2782250000000000 H
   0.3570250000000000    0.1445000000000000    0.2782250000000000 H
   0.3570300000000000    0.6445100000000000    0.2782250000000000 H
   0.0201300000000000    0.2571300000000000    0.3830950000000000 H
   0.0201350000000000    0.7571400000000000    0.3830950000000000 H
   0.2701250000000000    0.2571300000000000    0.3830950000000000 H
   0.2701300000000000    0.7571400000000000    0.3830950000000000 H
   0.2279250000000000    0.2027700000000000    0.3210650000000000 H
   0.2279300000000000    0.7027800000000000    0.3210650000000000 H
   0.4779200000000000    0.2027700000000000    0.3210650000000000 H
   0.1070150000000000    0.3945500000000000    0.4709200000000000 H
   0.1070150000000000    0.8945600000000000    0.4709200000000000 H
   0.3570100000000000    0.3945500000000000    0.4709200000000000 H
   0.3570100000000000    0.8945600000000000    0.4709200000000000 H
   0.0200450000000000    0.5071400000000000    0.3665850000000000 H
   0.0200500000000000    0.0000000000000000    0.3665850000000000 H
   0.2700400000000000    0.5071400000000000    0.3665850000000000 H
   0.2700400000000000    0.0000000000000000    0.3665850000000000 H
   0.2277800000000000    0.4526000000000000    0.4287350000000000 H
   0.2277850000000000    0.9526100000000000    0.4287350000000000 H
   0.4777750000000000    0.4526000000000000    0.4287350000000000 H
   0.4777800000000000    0.9526100000000000    0.4287350000000000 H
   0.1429600000000000    0.3555100000000000    0.2217700000000000 H
   0.1429600000000000    0.8555199999999999    0.2217700000000000 H
   0.3929550000000000    0.3555100000000000    0.2217700000000000 H
   0.3929550000000000    0.8555199999999999    0.2217700000000000 H
   0.2298600000000000    0.2428800000000000    0.1169000000000000 H
   0.2298650000000000    0.7429000000000000    0.1169000000000000 H
   0.4798550000000000    0.2428800000000000    0.1169000000000000 H
   0.4798550000000000    0.7429000000000000    0.1169000000000000 H
   0.0220650000000000    0.2972400000000000    0.1789000000000000 H
   0.0220700000000000    0.7972600000000000    0.1789000000000000 H
   0.2720600000000000    0.2972400000000000    0.1789250000000000 H
   0.2720600000000000    0.7972600000000000    0.1789250000000000 H
   0.6429800000000000    0.1054600000000000    0.0290750000000000 H
   0.6429800000000000    0.6054700000000000    0.0290750000000000 H
   0.8929700000000000    0.1054600000000000    0.0290750000000000 H
   0.8929750000000001    0.6054700000000000    0.0290750000000000 H
   0.7299450000000001    0.9928700000000000    0.1334000000000000 H
   0.7299500000000000    0.4928800000000000    0.1334000000000000 H
   0.9799400000000000    0.9928700000000000    0.1334000000000000 H
   0.9799400000000000    0.4928800000000000    0.1334000000000000 H
   0.5222100000000000    0.0474100000000000    0.0712600000000000 H
   0.5222150000000000    0.5474200000000000    0.0712600000000000 H
   0.7722050000000000    0.0474100000000000    0.0712600000000000 H
   0.7722050000000000    0.5474200000000000    0.0712600000000000 H
   0.6070350000000000    0.1445000000000000    0.2782250000000000 H
   0.8570249999999999    0.1445000000000000    0.2782250000000000 H
   0.8570300000000000    0.6445100000000000    0.2782250000000000 H
   0.5201300000000000    0.2571300000000000    0.3830950000000000 H
   0.7701249999999999    0.2571300000000000    0.3830950000000000 H
   0.7701300000000000    0.7571400000000000    0.3830950000000000 H
   0.7279249999999999    0.2027700000000000    0.3210650000000000 H
   0.7279300000000000    0.7027800000000000    0.3210650000000000 H
   0.9779200000000000    0.2027700000000000    0.3210650000000000 H
   0.9779200000000000    0.7027800000000000    0.3210650000000000 H
   0.6070150000000000    0.3945500000000000    0.4709200000000000 H
   0.6070150000000000    0.8945600000000000    0.4709200000000000 H
   0.8570100000000000    0.3945500000000000    0.4709200000000000 H
   0.8570100000000000    0.8945600000000000    0.4709200000000000 H
   0.5200450000000000    0.5071400000000000    0.3665850000000000 H
   0.5200500000000000    0.0000000000000000    0.3665850000000000 H
   0.7700400000000001    0.5071400000000000    0.3665850000000000 H
   0.7700400000000001    0.0000000000000000    0.3665850000000000 H
   0.7277800000000000    0.4526000000000000    0.4287350000000000 H
   0.7277850000000000    0.9526100000000000    0.4287350000000000 H
   0.9777750000000001    0.4526000000000000    0.4287350000000000 H
   0.9777800000000000    0.9526100000000000    0.4287350000000000 H
   0.6429600000000000    0.3555100000000000    0.2217700000000000 H
   0.6429600000000000    0.8555199999999999    0.2217700000000000 H
   0.8929549999999999    0.3555100000000000    0.2217700000000000 H
   0.8929549999999999    0.8555199999999999    0.2217700000000000 H
   0.7298600000000000    0.2428800000000000    0.1169000000000000 H
   0.7298650000000000    0.7429000000000000    0.1169000000000000 H
   0.9798549999999999    0.2428800000000000    0.1169000000000000 H
   0.9798549999999999    0.7429000000000000    0.1169000000000000 H
   0.5220650000000000    0.2972400000000000    0.1789000000000000 H
   0.5220700000000000    0.7972600000000000    0.1789000000000000 H
   0.7720600000000000    0.2972400000000000    0.1789250000000000 H
   0.7720600000000000    0.7972600000000000    0.1789250000000000 H
   0.1429800000000000    0.1054600000000000    0.5290750000000000 H
   0.1429800000000000    0.6054700000000000    0.5290750000000000 H
   0.3929700000000000    0.1054600000000000    0.5290750000000000 H
   0.3929750000000000    0.6054700000000000    0.5290750000000000 H
   0.2299450000000000    0.9928700000000000    0.6334000000000000 H
   0.2299500000000000    0.4928800000000000    0.6334000000000000 H
   0.4799400000000000    0.9928700000000000    0.6334000000000000 H
   0.4799400000000000    0.4928800000000000    0.6334000000000000 H
   0.0222100000000000    0.0474100000000000    0.5712600000000000 H
   0.0222150000000000    0.5474200000000000    0.5712600000000000 H
   0.2722050000000000    0.0474100000000000    0.5712600000000000 H
   0.2722050000000000    0.5474200000000000    0.5712600000000000 H
   0.1070350000000000    0.1445000000000000    0.7782249999999999 H
   0.1070350000000000    0.6445100000000000    0.7782249999999999 H
   0.3570250000000000    0.1445000000000000    0.7782249999999999 H
   0.3570300000000000    0.6445100000000000    0.7782249999999999 H
   0.0201300000000000    0.2571300000000000    0.8830950000000000 H
   0.0201350000000000    0.7571400000000000    0.8830950000000000 H
   0.2701250000000000    0.2571300000000000    0.8830950000000000 H
   0.2701300000000000    0.7571400000000000    0.8830950000000000 H
   0.2279250000000000    0.2027700000000000    0.8210649999999999 H
   0.2279300000000000    0.7027800000000000    0.8210649999999999 H
   0.4779200000000000    0.2027700000000000    0.8210649999999999 H
   0.4779200000000000    0.7027800000000000    0.8210649999999999 H
   0.1070150000000000    0.3945500000000000    0.9709200000000000 H
   0.1070150000000000    0.8945600000000000    0.9709200000000000 H
   0.3570100000000000    0.3945500000000000    0.9709200000000000 H
   0.3570100000000000    0.8945600000000000    0.9709200000000000 H
   0.0200450000000000    0.5071400000000000    0.8665849999999999 H
   0.0200500000000000    0.0000000000000000    0.8665849999999999 H
   0.2700400000000000    0.5071400000000000    0.8665849999999999 H
   0.2700400000000000    0.0000000000000000    0.8665849999999999 H
   0.2277800000000000    0.4526000000000000    0.9287350000000000 H
   0.2277850000000000    0.9526100000000000    0.9287350000000000 H
   0.4777750000000000    0.4526000000000000    0.9287350000000000 H
   0.4777800000000000    0.9526100000000000    0.9287350000000000 H
   0.1429600000000000    0.3555100000000000    0.7217700000000000 H
   0.1429600000000000    0.8555199999999999    0.7217700000000000 H
   0.3929550000000000    0.3555100000000000    0.7217700000000000 H
   0.3929550000000000    0.8555199999999999    0.7217700000000000 H
   0.2298600000000000    0.2428800000000000    0.6169000000000000 H
   0.2298650000000000    0.7429000000000000    0.6169000000000000 H
   0.4798550000000000    0.2428800000000000    0.6169000000000000 H
   0.4798550000000000    0.7429000000000000    0.6169000000000000 H
   0.0220650000000000    0.2972400000000000    0.6789000000000001 H
   0.0220700000000000    0.7972600000000000    0.6789000000000001 H
   0.2720600000000000    0.2972400000000000    0.6789250000000000 H
   0.2720600000000000    0.7972600000000000    0.6789250000000000 H
   0.6429800000000000    0.1054600000000000    0.5290750000000000 H
   0.6429800000000000    0.6054700000000000    0.5290750000000000 H
   0.8929700000000000    0.1054600000000000    0.5290750000000000 H
   0.8929750000000001    0.6054700000000000    0.5290750000000000 H
   0.7299450000000001    0.9928700000000000    0.6334000000000000 H
   0.7299500000000000    0.4928800000000000    0.6334000000000000 H
   0.9799400000000000    0.9928700000000000    0.6334000000000000 H
   0.9799400000000000    0.4928800000000000    0.6334000000000000 H
   0.5222100000000000    0.0474100000000000    0.5712600000000000 H
   0.5222150000000000    0.5474200000000000    0.5712600000000000 H
   0.7722050000000000    0.0474100000000000    0.5712600000000000 H
   0.7722050000000000    0.5474200000000000    0.5712600000000000 H
   0.6070350000000000    0.1445000000000000    0.7782249999999999 H
   0.6070350000000000    0.6445100000000000    0.7782249999999999 H
   0.8570249999999999    0.1445000000000000    0.7782249999999999 H
   0.8570300000000000    0.6445100000000000    0.7782249999999999 H
   0.5201300000000000    0.2571300000000000    0.8830950000000000 H
   0.5201350000000000    0.7571400000000000    0.8830950000000000 H
   0.7701249999999999    0.2571300000000000    0.8830950000000000 H
   0.7701300000000000    0.7571400000000000    0.8830950000000000 H
   0.7279249999999999    0.2027700000000000    0.8210649999999999 H
   0.7279300000000000    0.7027800000000000    0.8210649999999999 H
   0.9779200000000000    0.2027700000000000    0.8210649999999999 H
   0.9779200000000000    0.7027800000000000    0.8210649999999999 H
   0.6070150000000000    0.3945500000000000    0.9709200000000000 H
   0.6070150000000000    0.8945600000000000    0.9709200000000000 H
   0.8570100000000000    0.3945500000000000    0.9709200000000000 H
   0.8570100000000000    0.8945600000000000    0.9709200000000000 H
   0.5200450000000000    0.5071400000000000    0.8665849999999999 H
   0.5200500000000000    0.0000000000000000    0.8665849999999999 H
   0.7700400000000001    0.5071400000000000    0.8665849999999999 H
   0.7700400000000001    0.0000000000000000    0.8665849999999999 H
   0.7277800000000000    0.4526000000000000    0.9287350000000000 H
   0.7277850000000000    0.9526100000000000    0.9287350000000000 H
   0.9777750000000001    0.4526000000000000    0.9287350000000000 H
   0.9777800000000000    0.9526100000000000    0.9287350000000000 H
   0.6429600000000000    0.3555100000000000    0.7217700000000000 H
   0.6429600000000000    0.8555199999999999    0.7217700000000000 H
   0.8929549999999999    0.3555100000000000    0.7217700000000000 H
   0.8929549999999999    0.8555199999999999    0.7217700000000000 H
   0.7298600000000000    0.2428800000000000    0.6169000000000000 H
   0.7298650000000000    0.7429000000000000    0.6169000000000000 H
   0.9798549999999999    0.2428800000000000    0.6169000000000000 H
   0.9798549999999999    0.7429000000000000    0.6169000000000000 H
   0.5220650000000000    0.2972400000000000    0.6789000000000001 H
   0.5220700000000000    0.7972600000000000    0.6789000000000001 H
   0.7720600000000000    0.2972400000000000    0.6789250000000000 H
   0.7720600000000000    0.7972600000000000    0.6789250000000000 H
   0.2409950000000000    0.0669000000000000    0.0833200000000000 C
   0.2410000000000000    0.5669100000000000    0.0833200000000000 C
   0.4909900000000000    0.0669000000000000    0.0833200000000000 C
   0.4909900000000000    0.5669100000000000    0.0833200000000000 C
   0.2509550000000000    0.1417100000000000    0.0849000000000000 C
   0.2509550000000000    0.6417300000000000    0.0849000000000000 C
   0.0000000000000000    0.1417100000000000    0.0849000000000000 C
   0.0000000000000000    0.6417300000000000    0.0849000000000000 C
   0.1117450000000000    0.2777200000000000    0.4908500000000000 C
   0.1117450000000000    0.7777300000000000    0.4908500000000000 C
   0.3617350000000000    0.2777200000000000    0.4908500000000000 C
   0.3617400000000000    0.7777300000000000    0.4908500000000000 C
   0.0091050000000000    0.1831600000000000    0.3330150000000000 C
   0.0091050000000000    0.6831700000000001    0.3330150000000000 C
   0.2590950000000000    0.1831600000000000    0.3330150000000000 C
   0.2591000000000000    0.6831700000000001    0.3330150000000000 C
   0.4990000000000000    0.1083700000000000    0.3347250000000000 C
   0.2489900000000000    0.1083700000000000    0.3347250000000000 C
   0.2489950000000000    0.6083900000000000    0.3347250000000000 C
   0.1382750000000000    0.4723000000000000    0.2409050000000000 C
   0.1382800000000000    0.9723100000000000    0.2409050000000000 C
   0.3882700000000000    0.4723000000000000    0.2409050000000000 C
   0.3882750000000000    0.9723100000000000    0.2409050000000000 C
   0.0089950000000000    0.4331100000000000    0.4166750000000000 C
   0.0090000000000000    0.9331199999999999    0.4166750000000000 C
   0.2589900000000000    0.4331100000000000    0.4166750000000000 C
   0.2589950000000000    0.9331199999999999    0.4166750000000000 C
   0.4990350000000000    0.3583000000000000    0.4150950000000000 C
   0.4990400000000000    0.8583100000000000    0.4150950000000000 C
   0.2490300000000000    0.3583000000000000    0.4150950000000000 C
   0.2490350000000000    0.8583100000000000    0.4150950000000000 C
   0.1382500000000000    0.2222900000000000    0.0091300000000000 C
   0.1382500000000000    0.7223100000000000    0.0091300000000000 C
   0.3882450000000000    0.2222900000000000    0.0091300000000000 C
   0.3882450000000000    0.7223100000000000    0.0091300000000000 C
   0.2408900000000000    0.3168500000000000    0.1669800000000000 C
   0.2408900000000000    0.8168700000000000    0.1669800000000000 C
   0.4908800000000000    0.3168500000000000    0.1669800000000000 C
   0.4908850000000000    0.8168700000000000    0.1669800000000000 C
   0.2509950000000000    0.3916400000000000    0.1652700000000000 C
   0.2510000000000000    0.8916500000000001    0.1652700000000000 C
   0.0000000000000000    0.3916400000000000    0.1652700000000000 C
   0.0000000000000000    0.8916500000000001    0.1652700000000000 C
   0.1117150000000000    0.0277100000000000    0.2590900000000000 C
   0.1117200000000000    0.5277200000000000    0.2590900000000000 C
   0.3617100000000000    0.0277100000000000    0.2590900000000000 C
   0.3617100000000000    0.5277200000000000    0.2590900000000000 C
   0.7409950000000000    0.0669000000000000    0.0833200000000000 C
   0.7410000000000000    0.5669100000000000    0.0833200000000000 C
   0.9909900000000000    0.0669000000000000    0.0833200000000000 C
   0.9909900000000000    0.5669100000000000    0.0833200000000000 C
   0.7509550000000000    0.1417100000000000    0.0849000000000000 C
   0.7509550000000000    0.6417300000000000    0.0849000000000000 C
   0.5000000000000000    0.1417100000000000    0.0849000000000000 C
   0.5000000000000000    0.6417300000000000    0.0849000000000000 C
   0.6117450000000000    0.2777200000000000    0.4908500000000000 C
   0.6117450000000000    0.7777300000000000    0.4908500000000000 C
   0.8617349999999999    0.2777200000000000    0.4908500000000000 C
   0.8617400000000000    0.7777300000000000    0.4908500000000000 C
   0.5091050000000000    0.1831600000000000    0.3330150000000000 C
   0.7590950000000001    0.1831600000000000    0.3330150000000000 C
   0.7591000000000000    0.6831700000000001    0.3330150000000000 C
   0.9990000000000000    0.1083700000000000    0.3347250000000000 C
   0.9990000000000000    0.6083800000000000    0.3347250000000000 C
   0.7489900000000000    0.1083700000000000    0.3347250000000000 C
   0.7489950000000000    0.6083900000000000    0.3347250000000000 C
   0.6382750000000000    0.4723000000000000    0.2409050000000000 C
   0.6382800000000000    0.9723100000000000    0.2409050000000000 C
   0.8882700000000000    0.4723000000000000    0.2409050000000000 C
   0.8882749999999999    0.9723100000000000    0.2409050000000000 C
   0.5089950000000000    0.4331100000000000    0.4166750000000000 C
   0.5090000000000000    0.9331199999999999    0.4166750000000000 C
   0.7589900000000001    0.4331100000000000    0.4166750000000000 C
   0.7589950000000000    0.9331199999999999    0.4166750000000000 C
   0.9990350000000000    0.3583000000000000    0.4150950000000000 C
   0.9990399999999999    0.8583100000000000    0.4150950000000000 C
   0.7490300000000000    0.3583000000000000    0.4150950000000000 C
   0.7490350000000000    0.8583100000000000    0.4150950000000000 C
   0.6382500000000000    0.2222900000000000    0.0091300000000000 C
   0.6382500000000000    0.7223100000000000    0.0091300000000000 C
   0.8882450000000000    0.2222900000000000    0.0091300000000000 C
   0.8882450000000000    0.7223100000000000    0.0091300000000000 C
   0.7408900000000000    0.3168500000000000    0.1669800000000000 C
   0.7408900000000000    0.8168700000000000    0.1669800000000000 C
   0.9908800000000000    0.3168500000000000    0.1669800000000000 C
   0.9908850000000000    0.8168700000000000    0.1669800000000000 C
   0.7509950000000001    0.3916400000000000    0.1652700000000000 C
   0.7510000000000000    0.8916500000000001    0.1652700000000000 C
   0.5000000000000000    0.3916400000000000    0.1652700000000000 C
   0.5000000000000000    0.8916500000000001    0.1652700000000000 C
   0.6117150000000000    0.0277100000000000    0.2590900000000000 C
   0.6117200000000000    0.5277200000000000    0.2590900000000000 C
   0.8617100000000000    0.0277100000000000    0.2590900000000000 C
   0.8617100000000000    0.5277200000000000    0.2590900000000000 C
   0.2409950000000000    0.0669000000000000    0.5833200000000001 C
   0.2410000000000000    0.5669100000000000    0.5833200000000001 C
   0.4909900000000000    0.0669000000000000    0.5833200000000001 C
   0.4909900000000000    0.5669100000000000    0.5833200000000001 C
   0.2509550000000000    0.1417100000000000    0.5849000000000000 C
   0.2509550000000000    0.6417300000000000    0.5849000000000000 C
   0.0000000000000000    0.1417100000000000    0.5849000000000000 C
   0.0000000000000000    0.6417300000000000    0.5849000000000000 C
   0.1117450000000000    0.2777200000000000    0.9908500000000000 C
   0.1117450000000000    0.7777300000000000    0.9908500000000000 C
   0.3617350000000000    0.2777200000000000    0.9908500000000000 C
   0.3617400000000000    0.7777300000000000    0.9908500000000000 C
   0.0091050000000000    0.1831600000000000    0.8330150000000001 C
   0.0091050000000000    0.6831700000000001    0.8330150000000001 C
   0.2590950000000000    0.1831600000000000    0.8330150000000001 C
   0.2591000000000000    0.6831700000000001    0.8330150000000001 C
   0.4990000000000000    0.1083700000000000    0.8347249999999999 C
   0.4990000000000000    0.6083800000000000    0.8347249999999999 C
   0.2489900000000000    0.1083700000000000    0.8347249999999999 C
   0.2489950000000000    0.6083900000000000    0.8347249999999999 C
   0.1382750000000000    0.4723000000000000    0.7409050000000000 C
   0.1382800000000000    0.9723100000000000    0.7409050000000000 C
   0.3882700000000000    0.4723000000000000    0.7409050000000000 C
   0.3882750000000000    0.9723100000000000    0.7409050000000000 C
   0.0089950000000000    0.4331100000000000    0.9166750000000000 C
   0.0090000000000000    0.9331199999999999    0.9166750000000000 C