H3 O2
1.0
  14.6469999196888363    0.0000000000000000   -0.0015338302504326
  -0.0014531866263628   20.8169999207427097    0.0010899755706634
   0.0000000000000000    0.0000000000000000   33.1920000000000002
H O
3 2
direct
   0.4357899260959084    0.9394066724587847    0.4217466183389104 H
   0.4044830455588825    0.8899187300341774    0.3880132434462013 H
   0.2074847711098576    0.9616028173709465    0.4175148815543441 H
   0.4164100000000000    0.9352900000000000    0.3936500000000000 O
   0.1487600000000000    0.9836100000000000    0.4148500000000000 O
