H8 C14 O5
1.0
  32.6387446067298299    0.0000000000000000   -1.3822353260802729
  -1.4215240693092119   32.6292642707172362   -1.2980672062994565
   0.0000000000000000    0.0000000000000000   32.6880000000000024
H C O
8 14 5
direct
   0.5607900000000000    0.6406300000000000    0.4840300000000000 H
   0.4888800000000000    0.6711950000000000    0.6797600000000000 H
   0.5144350000000000    0.6932900000000000    0.7508200000000000 H
   0.6121200000000000    0.6820750000000000    0.6383600000000000 H
   0.6371599999999999    0.7059400000000000    0.7087000000000000 H
   0.5356000000000000    0.6171800000000001    0.5512500000000000 H
   0.5657300000000000    0.7372750000000000    0.6059500000000000 H
   0.5919050000000000    0.7597200000000000    0.5395500000000000 H
   0.5926000000000000    0.7157950000000000    0.4680500000000000 C
   0.5928350000000000    0.7155250000000000    0.7758750000000000 C
   0.5774500000000000    0.7012450000000000    0.7341450000000000 C
   0.5356350000000000    0.6910950000000000    0.7260949999999999 C
   0.5212850000000000    0.6787500000000000    0.6867000000000000 C
   0.5488900000000000    0.6757550000000000    0.6553400000000000 C
   0.5908850000000000    0.6848350000000000    0.6630150000000000 C
   0.6047850000000000    0.6979950000000000    0.7021999999999999 C
   0.5780550000000000    0.7015250000000000    0.5077950000000000 C
   0.5619499999999999    0.6613650000000000    0.5109900000000001 C
   0.5479900000000000    0.6482950000000001    0.5480850000000000 C
   0.5496100000000000    0.6756850000000000    0.5821350000000000 C
   0.5650900000000000    0.7160500000000000    0.5793500000000000 C
   0.5795300000000000    0.7285650000000000    0.5423350000000000 C
   0.6096000000000000    0.7518549999999999    0.4687100000000000 O
   0.5869700000000000    0.6908200000000000    0.4369150000000000 O
   0.6305149999999999    0.7291650000000001    0.7789950000000000 O
   0.5679000000000000    0.7138500000000000    0.8048649999999999 O
   0.5329400000000000    0.6614250000000000    0.6173900000000000 O
