H6 O4
1.0
  32.6387446067298299    0.0000000000000000   -1.3822353260802729
  -1.4215240693092119   32.6292642707172362   -1.2980672062994565
   0.0000000000000000    0.0000000000000000   32.6880000000000024
H O
6 4
direct
   0.6172864045853969    0.7698012256037909    0.4923780332664696 H
   0.5773964650532556    0.6622904516087588    0.4359829877319913 H
   0.5968939931051783    0.7139905496604173    0.4674730322164956 H
   0.5387295255144178    0.7067947082621643    0.8027171089317537 H
   0.6495096278617973    0.7338874108742585    0.7574825510726910 H
   0.5931701256987494    0.7201326140770918    0.7762452085286243 H
   0.6096000000000000    0.7518549999999999    0.4687100000000000 O
   0.5869700000000000    0.6908200000000000    0.4369150000000000 O
   0.5679000000000000    0.7138500000000000    0.8048649999999999 O
   0.6305149999999999    0.7291650000000001    0.7789950000000000 O
