In72 H568 C1018 O427
1.0
  32.6387446067298299    0.0000000000000000   -1.3822353260802729
  -1.4215240693092119   32.6292642707172362   -1.2980672062994565
   0.0000000000000000    0.0000000000000000   32.6880000000000024
In H C O
72 568 1018 427
direct
   0.2046550000000000    0.3707850000000000    0.0790250000000000 In
   0.0783550000000000    0.2041300000000000    0.3716800000000000 In
   0.4214800000000000    0.1281350000000000    0.2958700000000000 In
   0.1288450000000000    0.2946900000000000    0.4219100000000000 In
   0.2953050000000000    0.4211100000000000    0.1291150000000000 In
   0.3329250000000000    0.1661250000000000    0.2504200000000000 In
   0.2500350000000000    0.3327750000000000    0.1673900000000000 In
   0.1668700000000000    0.2495450000000000    0.3337900000000000 In
   0.3710650000000000    0.0780050000000000    0.2053200000000000 In
   0.7046550000000000    0.3707850000000000    0.0790250000000000 In
   0.5783550000000000    0.2041300000000000    0.3716800000000000 In
   0.9214800000000001    0.1281350000000000    0.2958700000000000 In
   0.6288450000000000    0.2946900000000000    0.4219100000000000 In
   0.7953049999999999    0.4211100000000000    0.1291150000000000 In
   0.8329250000000000    0.1661250000000000    0.2504200000000000 In
   0.7500350000000000    0.3327750000000000    0.1673900000000000 In
   0.6668700000000000    0.2495450000000000    0.3337900000000000 In
   0.8710650000000000    0.0780050000000000    0.2053200000000000 In
   0.2046550000000000    0.8707849999999999    0.0790250000000000 In
   0.0783550000000000    0.7041300000000000    0.3716800000000000 In
   0.4214800000000000    0.6281350000000000    0.2958700000000000 In
   0.1288450000000000    0.7946900000000000    0.4219100000000000 In
   0.2953050000000000    0.9211100000000000    0.1291150000000000 In
   0.3329250000000000    0.6661250000000000    0.2504200000000000 In
   0.2500350000000000    0.8327750000000000    0.1673900000000000 In
   0.1668700000000000    0.7495450000000000    0.3337900000000000 In
   0.3710650000000000    0.5780050000000000    0.2053200000000000 In
   0.7046550000000000    0.8707849999999999    0.0790250000000000 In
   0.5783550000000000    0.7041300000000000    0.3716800000000000 In
   0.9214800000000001    0.6281350000000000    0.2958700000000000 In
   0.6288450000000000    0.7946900000000000    0.4219100000000000 In
   0.7953049999999999    0.9211100000000000    0.1291150000000000 In
   0.8329250000000000    0.6661250000000000    0.2504200000000000 In
   0.7500350000000000    0.8327750000000000    0.1673900000000000 In
   0.6668700000000000    0.7495450000000000    0.3337900000000000 In
   0.8710650000000000    0.5780050000000000    0.2053200000000000 In
   0.2046550000000000    0.3707850000000000    0.5790250000000000 In
   0.0783550000000000    0.2041300000000000    0.8716800000000000 In
   0.4214800000000000    0.1281350000000000    0.7958700000000001 In
   0.1288450000000000    0.2946900000000000    0.9219100000000000 In
   0.2953050000000000    0.4211100000000000    0.6291150000000000 In
   0.3329250000000000    0.1661250000000000    0.7504200000000000 In
   0.2500350000000000    0.3327750000000000    0.6673900000000000 In
   0.1668700000000000    0.2495450000000000    0.8337900000000000 In
   0.3710650000000000    0.0780050000000000    0.7053199999999999 In
   0.7046550000000000    0.3707850000000000    0.5790250000000000 In
   0.5783550000000000    0.2041300000000000    0.8716800000000000 In
   0.9214800000000001    0.1281350000000000    0.7958700000000001 In
   0.6288450000000000    0.2946900000000000    0.9219100000000000 In
   0.7953049999999999    0.4211100000000000    0.6291150000000000 In
   0.8329250000000000    0.1661250000000000    0.7504200000000000 In
   0.7500350000000000    0.3327750000000000    0.6673900000000000 In
   0.6668700000000000    0.2495450000000000    0.8337900000000000 In
   0.8710650000000000    0.0780050000000000    0.7053199999999999 In
   0.2046550000000000    0.8707849999999999    0.5790250000000000 In
   0.0783550000000000    0.7041300000000000    0.8716800000000000 In
   0.4214800000000000    0.6281350000000000    0.7958700000000001 In
   0.1288450000000000    0.7946900000000000    0.9219100000000000 In
   0.2953050000000000    0.9211100000000000    0.6291150000000000 In
   0.3329250000000000    0.6661250000000000    0.7504200000000000 In
   0.2500350000000000    0.8327750000000000    0.6673900000000000 In
   0.1668700000000000    0.7495450000000000    0.8337900000000000 In
   0.3710650000000000    0.5780050000000000    0.7053199999999999 In
   0.7046550000000000    0.8707849999999999    0.5790250000000000 In
   0.5783550000000000    0.7041300000000000    0.8716800000000000 In
   0.9214800000000001    0.6281350000000000    0.7958700000000001 In
   0.6288450000000000    0.7946900000000000    0.9219100000000000 In
   0.7953049999999999    0.9211100000000000    0.6291150000000000 In
   0.8329250000000000    0.6661250000000000    0.7504200000000000 In
   0.7500350000000000    0.8327750000000000    0.6673900000000000 In
   0.6668700000000000    0.7495450000000000    0.8337900000000000 In
   0.8710650000000000    0.5780050000000000    0.7053199999999999 In
   0.2500700000000000    0.0142250000000000    0.1936800000000000 H
   0.1789750000000000    0.4887400000000000    0.1713100000000000 H
   0.1375850000000000    0.1119450000000000    0.1817200000000000 H
   0.2080200000000000    0.1369150000000000    0.2057500000000000 H
   0.4829450000000000    0.0612500000000000    0.1418350000000000 H
   0.0499550000000000    0.0360750000000000    0.1177500000000000 H
   0.1058450000000000    0.0652850000000000    0.2375850000000000 H
   0.0397200000000000    0.0914650000000000    0.2606700000000000 H
   0.3324150000000000    0.1145150000000000    0.0864250000000000 H
   0.3111300000000000    0.1362300000000000    0.0166100000000000 H
   0.2964400000000000    0.2586900000000000    0.0656850000000000 H
   0.3155350000000000    0.2364950000000000    0.1356450000000000 H
   0.1940450000000000    0.2503800000000000    0.0155050000000000 H
   0.1717950000000000    0.1795450000000000    0.4895250000000000 H
   0.1818250000000000    0.1371700000000000    0.1124650000000000 H
   0.2057250000000000    0.2073750000000000    0.1379700000000000 H
   0.1407200000000000    0.4831750000000000    0.0608000000000000 H
   0.1173600000000000    0.0505250000000000    0.0357500000000000 H
   0.2375850000000000    0.1051850000000000    0.0660450000000000 H
   0.2599600000000000    0.0387150000000000    0.0920500000000000 H
   0.0863900000000000    0.3316650000000000    0.1154350000000000 H
   0.0165500000000000    0.3097500000000000    0.1365800000000000 H
   0.0650350000000000    0.2957900000000000    0.2595300000000000 H
   0.1350550000000000    0.3154600000000000    0.2379200000000000 H
   0.0144350000000000    0.1932900000000000    0.2508200000000000 H
   0.4888800000000000    0.1711950000000000    0.1797600000000000 H
   0.1121200000000000    0.1820750000000000    0.1383600000000000 H
   0.1371600000000000    0.2059400000000000    0.2087000000000000 H
   0.0607900000000000    0.1406300000000000    0.4840300000000000 H
   0.0356000000000000    0.1171800000000000    0.0512500000000000 H
   0.0657300000000000    0.2372750000000000    0.1059500000000000 H
   0.0919050000000000    0.2597200000000000    0.0395500000000000 H
   0.1143700000000000    0.0862600000000000    0.3317850000000000 H
   0.1352250000000000    0.0163750000000000    0.3098950000000000 H
   0.2583750000000000    0.0643250000000000    0.2959600000000000 H
   0.2370650000000000    0.1344200000000000    0.3156600000000000 H
   0.4855900000000000    0.2489150000000000    0.3066400000000000 H
   0.0111150000000000    0.3199850000000000    0.3287100000000000 H
   0.3878350000000000    0.3613700000000000    0.3178750000000000 H
   0.3628250000000000    0.2909700000000000    0.2940350000000000 H
   0.4393050000000000    0.0157500000000000    0.3593300000000000 H
   0.4644350000000000    0.4484450000000000    0.3827700000000000 H
   0.4341250000000000    0.3938000000000000    0.2626500000000000 H
   0.4080000000000000    0.4602300000000000    0.2402500000000000 H
   0.3853650000000000    0.1681400000000000    0.4134350000000000 H
   0.3647400000000000    0.1900100000000000    0.4833950000000000 H
   0.2414550000000000    0.2040300000000000    0.4357900000000000 H
   0.2625300000000000    0.1843500000000000    0.3656150000000000 H
   0.2498350000000000    0.3062150000000000    0.4856450000000000 H
   0.3208950000000000    0.3285900000000000    0.0111450000000000 H
   0.3623000000000000    0.3182050000000000    0.3879850000000000 H
   0.2918950000000000    0.2941250000000000    0.3629800000000000 H
   0.0169100000000000    0.3581500000000000    0.4387550000000000 H
   0.4498900000000000    0.3822300000000000    0.4639100000000000 H
   0.3940850000000000    0.2623700000000000    0.4347000000000000 H
   0.4602200000000000    0.2393050000000000    0.4085350000000000 H
   0.1676050000000000    0.4135900000000000    0.3854700000000000 H
   0.1889150000000000    0.4833850000000000    0.3637350000000000 H
   0.2036800000000000    0.4342250000000000    0.2413300000000000 H
   0.1845400000000000    0.3643000000000000    0.2635350000000000 H
   0.3064700000000000    0.4846050000000000    0.2498650000000000 H
   0.3283850000000000    0.0105700000000000    0.3208050000000000 H
   0.3181750000000000    0.3875900000000000    0.3630750000000000 H
   0.2944950000000000    0.3621250000000000    0.2927800000000000 H
   0.3589050000000000    0.4388650000000000    0.0170900000000000 H
   0.3824300000000000    0.4641300000000000    0.4499150000000000 H
   0.2623100000000000    0.4340800000000000    0.3948500000000000 H
   0.2397850000000000    0.4077900000000000    0.4611800000000000 H
   0.4136100000000000    0.3845600000000000    0.1682100000000000 H
   0.4834450000000000    0.3634050000000000    0.1902000000000000 H
   0.4349700000000000    0.2404800000000000    0.2042200000000000 H
   0.3649450000000000    0.2621150000000000    0.1845000000000000 H
   0.7500700000000000    0.0142250000000000    0.1936800000000000 H
   0.6789750000000000    0.4887400000000000    0.1713100000000000 H
   0.6375850000000001    0.1119450000000000    0.1817200000000000 H
   0.7080200000000000    0.1369150000000000    0.2057500000000000 H
   0.9829450000000000    0.0612500000000000    0.1418350000000000 H
   0.5499550000000000    0.0360750000000000    0.1177500000000000 H
   0.6058450000000000    0.0652850000000000    0.2375850000000000 H
   0.5397200000000000    0.0914650000000000    0.2606700000000000 H
   0.8324150000000000    0.1145150000000000    0.0864250000000000 H
   0.8111300000000000    0.1362300000000000    0.0166100000000000 H
   0.7964400000000000    0.2586900000000000    0.0656850000000000 H
   0.8155350000000000    0.2364950000000000    0.1356450000000000 H
   0.6940450000000000    0.2503800000000000    0.0155050000000000 H
   0.6717950000000000    0.1795450000000000    0.4895250000000000 H
   0.6818250000000000    0.1371700000000000    0.1124650000000000 H
   0.7057249999999999    0.2073750000000000    0.1379700000000000 H
   0.6407200000000000    0.4831750000000000    0.0608000000000000 H
   0.6173600000000000    0.0505250000000000    0.0357500000000000 H
   0.7375849999999999    0.1051850000000000    0.0660450000000000 H
   0.7599600000000000    0.0387150000000000    0.0920500000000000 H
   0.5863900000000000    0.3316650000000000    0.1154350000000000 H
   0.5165500000000000    0.3097500000000000    0.1365800000000000 H
   0.5650350000000000    0.2957900000000000    0.2595300000000000 H
   0.6350550000000000    0.3154600000000000    0.2379200000000000 H
   0.5144350000000000    0.1932900000000000    0.2508200000000000 H
   0.9888800000000000    0.1711950000000000    0.1797600000000000 H
   0.6121200000000000    0.1820750000000000    0.1383600000000000 H
   0.6371599999999999    0.2059400000000000    0.2087000000000000 H
   0.5607900000000000    0.1406300000000000    0.4840300000000000 H
   0.5356000000000000    0.1171800000000000    0.0512500000000000 H
   0.5657300000000000    0.2372750000000000    0.1059500000000000 H
   0.5919050000000000    0.2597200000000000    0.0395500000000000 H
   0.6143700000000000    0.0862600000000000    0.3317850000000000 H
   0.6352250000000000    0.0163750000000000    0.3098950000000000 H
   0.7583750000000000    0.0643250000000000    0.2959600000000000 H
   0.7370650000000000    0.1344200000000000    0.3156600000000000 H
   0.9855900000000000    0.2489150000000000    0.3066400000000000 H
   0.5111150000000000    0.3199850000000000    0.3287100000000000 H
   0.8878349999999999    0.3613700000000000    0.3178750000000000 H
   0.8628250000000000    0.2909700000000000    0.2940350000000000 H
   0.9393050000000001    0.0157500000000000    0.3593300000000000 H
   0.9644349999999999    0.4484450000000000    0.3827700000000000 H
   0.9341250000000000    0.3938000000000000    0.2626500000000000 H
   0.9079999999999999    0.4602300000000000    0.2402500000000000 H
   0.8853650000000000    0.1681400000000000    0.4134350000000000 H
   0.8647400000000001    0.1900100000000000    0.4833950000000000 H
   0.7414550000000000    0.2040300000000000    0.4357900000000000 H
   0.7625299999999999    0.1843500000000000    0.3656150000000000 H
   0.7498350000000000    0.3062150000000000    0.4856450000000000 H
   0.8208949999999999    0.3285900000000000    0.0111450000000000 H
   0.8623000000000001    0.3182050000000000    0.3879850000000000 H
   0.7918950000000000    0.2941250000000000    0.3629800000000000 H
   0.5169100000000000    0.3581500000000000    0.4387550000000000 H
   0.9498900000000000    0.3822300000000000    0.4639100000000000 H
   0.8940850000000000    0.2623700000000000    0.4347000000000000 H
   0.9602200000000001    0.2393050000000000    0.4085350000000000 H
   0.6676050000000000    0.4135900000000000    0.3854700000000000 H
   0.6889149999999999    0.4833850000000000    0.3637350000000000 H
   0.7036800000000000    0.4342250000000000    0.2413300000000000 H
   0.6845400000000000    0.3643000000000000    0.2635350000000000 H
   0.8064700000000000    0.4846050000000000    0.2498650000000000 H
   0.8283849999999999    0.0105700000000000    0.3208050000000000 H
   0.8181750000000000    0.3875900000000000    0.3630750000000000 H
   0.7944950000000000    0.3621250000000000    0.2927800000000000 H
   0.8589050000000000    0.4388650000000000    0.0170900000000000 H
   0.8824300000000000    0.4641300000000000    0.4499150000000000 H
   0.7623100000000000    0.4340800000000000    0.3948500000000000 H
   0.7397850000000000    0.4077900000000000    0.4611800000000000 H
   0.9136100000000000    0.3845600000000000    0.1682100000000000 H
   0.9834450000000000    0.3634050000000000    0.1902000000000000 H
   0.9349700000000001    0.2404800000000000    0.2042200000000000 H
   0.8649450000000001    0.2621150000000000    0.1845000000000000 H
   0.2500700000000000    0.5142250000000000    0.1936800000000000 H
   0.1789750000000000    0.9887400000000000    0.1713100000000000 H
   0.1375850000000000    0.6119450000000000    0.1817200000000000 H
   0.2080200000000000    0.6369150000000000    0.2057500000000000 H
   0.4829450000000000    0.5612500000000000    0.1418350000000000 H
   0.0499550000000000    0.5360750000000000    0.1177500000000000 H
   0.1058450000000000    0.5652850000000000    0.2375850000000000 H
   0.0397200000000000    0.5914650000000000    0.2606700000000000 H
   0.3324150000000000    0.6145150000000000    0.0864250000000000 H
   0.3111300000000000    0.6362300000000000    0.0166100000000000 H
   0.2964400000000000    0.7586900000000000    0.0656850000000000 H
   0.3155350000000000    0.7364950000000000    0.1356450000000000 H
   0.1940450000000000    0.7503800000000000    0.0155050000000000 H
   0.1717950000000000    0.6795450000000001    0.4895250000000000 H
   0.1818250000000000    0.6371700000000000    0.1124650000000000 H
   0.2057250000000000    0.7073750000000000    0.1379700000000000 H
   0.1407200000000000    0.9831750000000000    0.0608000000000000 H
   0.1173600000000000    0.5505250000000000    0.0357500000000000 H
   0.2375850000000000    0.6051850000000000    0.0660450000000000 H
   0.2599600000000000    0.5387150000000001    0.0920500000000000 H
   0.0863900000000000    0.8316650000000000    0.1154350000000000 H
   0.0165500000000000    0.8097500000000000    0.1365800000000000 H
   0.0650350000000000    0.7957900000000000    0.2595300000000000 H
   0.1350550000000000    0.8154600000000001    0.2379200000000000 H
   0.0144350000000000    0.6932900000000000    0.2508200000000000 H
   0.4888800000000000    0.6711950000000000    0.1797600000000000 H
   0.1121200000000000    0.6820750000000000    0.1383600000000000 H
   0.1371600000000000    0.7059400000000000    0.2087000000000000 H
   0.0607900000000000    0.6406300000000000    0.4840300000000000 H
   0.0356000000000000    0.6171800000000001    0.0512500000000000 H
   0.0657300000000000    0.7372750000000000    0.1059500000000000 H
   0.0919050000000000    0.7597200000000000    0.0395500000000000 H
   0.1143700000000000    0.5862600000000000    0.3317850000000000 H
   0.1352250000000000    0.5163750000000000    0.3098950000000000 H
   0.2583750000000000    0.5643250000000000    0.2959600000000000 H
   0.2370650000000000    0.6344200000000000    0.3156600000000000 H
   0.4855900000000000    0.7489150000000000    0.3066400000000000 H
   0.0111150000000000    0.8199850000000000    0.3287100000000000 H
   0.3878350000000000    0.8613700000000000    0.3178750000000000 H
   0.3628250000000000    0.7909700000000000    0.2940350000000000 H
   0.4393050000000000    0.5157500000000000    0.3593300000000000 H
   0.4644350000000000    0.9484450000000000    0.3827700000000000 H
   0.4341250000000000    0.8937999999999999    0.2626500000000000 H
   0.4080000000000000    0.9602299999999999    0.2402500000000000 H
   0.3853650000000000    0.6681400000000000    0.4134350000000000 H
   0.3647400000000000    0.6900100000000000    0.4833950000000000 H
   0.2414550000000000    0.7040299999999999    0.4357900000000000 H
   0.2625300000000000    0.6843500000000000    0.3656150000000000 H
   0.2498350000000000    0.8062150000000000    0.4856450000000000 H
   0.3208950000000000    0.8285899999999999    0.0111450000000000 H
   0.3623000000000000    0.8182050000000001    0.3879850000000000 H
   0.2918950000000000    0.7941250000000000    0.3629800000000000 H
   0.0169100000000000    0.8581500000000000    0.4387550000000000 H
   0.4498900000000000    0.8822300000000001    0.4639100000000000 H
   0.3940850000000000    0.7623700000000000    0.4347000000000000 H
   0.4602200000000000    0.7393050000000000    0.4085350000000000 H
   0.1676050000000000    0.9135900000000000    0.3854700000000000 H
   0.1889150000000000    0.9833850000000000    0.3637350000000000 H
   0.2036800000000000    0.9342250000000001    0.2413300000000000 H
   0.1845400000000000    0.8643000000000001    0.2635350000000000 H
   0.3064700000000000    0.9846050000000000    0.2498650000000000 H
   0.3283850000000000    0.5105700000000000    0.3208050000000000 H
   0.3181750000000000    0.8875900000000000    0.3630750000000000 H
   0.2944950000000000    0.8621250000000000    0.2927800000000000 H
   0.3589050000000000    0.9388650000000001    0.0170900000000000 H
   0.3824300000000000    0.9641299999999999    0.4499150000000000 H
   0.2623100000000000    0.9340800000000000    0.3948500000000000 H
   0.2397850000000000    0.9077900000000000    0.4611800000000000 H
   0.4136100000000000    0.8845600000000000    0.1682100000000000 H
   0.4834450000000000    0.8634050000000000    0.1902000000000000 H
   0.4349700000000000    0.7404800000000000    0.2042200000000000 H
   0.3649450000000000    0.7621150000000000    0.1845000000000000 H
   0.7500700000000000    0.5142250000000000    0.1936800000000000 H
   0.6789750000000000    0.9887400000000000    0.1713100000000000 H
   0.6375850000000001    0.6119450000000000    0.1817200000000000 H
   0.7080200000000000    0.6369150000000000    0.2057500000000000 H
   0.9829450000000000    0.5612500000000000    0.1418350000000000 H
   0.5499550000000000    0.5360750000000000    0.1177500000000000 H
   0.6058450000000000    0.5652850000000000    0.2375850000000000 H
   0.5397200000000000    0.5914650000000000    0.2606700000000000 H
   0.8324150000000000    0.6145150000000000    0.0864250000000000 H
   0.8111300000000000    0.6362300000000000    0.0166100000000000 H
   0.7964400000000000    0.7586900000000000    0.0656850000000000 H
   0.8155350000000000    0.7364950000000000    0.1356450000000000 H
   0.6940450000000000    0.7503800000000000    0.0155050000000000 H
   0.6717950000000000    0.6795450000000001    0.4895250000000000 H
   0.6818250000000000    0.6371700000000000    0.1124650000000000 H
   0.7057249999999999    0.7073750000000000    0.1379700000000000 H
   0.6407200000000000    0.9831750000000000    0.0608000000000000 H
   0.6173600000000000    0.5505250000000000    0.0357500000000000 H
   0.7375849999999999    0.6051850000000000    0.0660450000000000 H
   0.7599600000000000    0.5387150000000001    0.0920500000000000 H
   0.5863900000000000    0.8316650000000000    0.1154350000000000 H
   0.5165500000000000    0.8097500000000000    0.1365800000000000 H
   0.5650350000000000    0.7957900000000000    0.2595300000000000 H
   0.6350550000000000    0.8154600000000001    0.2379200000000000 H
   0.5144350000000000    0.6932900000000000    0.2508200000000000 H
   0.9888800000000000    0.6711950000000000    0.1797600000000000 H
   0.6121200000000000    0.6820750000000000    0.1383600000000000 H
   0.6371599999999999    0.7059400000000000    0.2087000000000000 H
   0.5356000000000000    0.6171800000000001    0.0512500000000000 H
   0.5657300000000000    0.7372750000000000    0.1059500000000000 H
   0.5919050000000000    0.7597200000000000    0.0395500000000000 H
   0.6143700000000000    0.5862600000000000    0.3317850000000000 H
   0.6352250000000000    0.5163750000000000    0.3098950000000000 H
   0.7583750000000000    0.5643250000000000    0.2959600000000000 H
   0.7370650000000000    0.6344200000000000    0.3156600000000000 H
   0.9855900000000000    0.7489150000000000    0.3066400000000000 H
   0.5111150000000000    0.8199850000000000    0.3287100000000000 H
   0.8878349999999999    0.8613700000000000    0.3178750000000000 H
   0.8628250000000000    0.7909700000000000    0.2940350000000000 H
   0.9393050000000001    0.5157500000000000    0.3593300000000000 H
   0.9644349999999999    0.9484450000000000    0.3827700000000000 H
   0.9341250000000000    0.8937999999999999    0.2626500000000000 H
   0.9079999999999999    0.9602299999999999    0.2402500000000000 H
   0.8853650000000000    0.6681400000000000    0.4134350000000000 H
   0.8647400000000001    0.6900100000000000    0.4833950000000000 H
   0.7414550000000000    0.7040299999999999    0.4357900000000000 H
   0.7625299999999999    0.6843500000000000    0.3656150000000000 H
   0.7498350000000000    0.8062150000000000    0.4856450000000000 H
   0.8208949999999999    0.8285899999999999    0.0111450000000000 H
   0.8623000000000001    0.8182050000000001    0.3879850000000000 H
   0.7918950000000000    0.7941250000000000    0.3629800000000000 H
   0.5169100000000000    0.8581500000000000    0.4387550000000000 H
   0.9498900000000000    0.8822300000000001    0.4639100000000000 H
   0.8940850000000000    0.7623700000000000    0.4347000000000000 H
   0.9602200000000001    0.7393050000000000    0.4085350000000000 H
   0.6676050000000000    0.9135900000000000    0.3854700000000000 H
   0.6889149999999999    0.9833850000000000    0.3637350000000000 H
   0.7036800000000000    0.9342250000000001    0.2413300000000000 H
   0.6845400000000000    0.8643000000000001    0.2635350000000000 H
   0.8064700000000000    0.9846050000000000    0.2498650000000000 H
   0.8283849999999999    0.5105700000000000    0.3208050000000000 H
   0.8181750000000000    0.8875900000000000    0.3630750000000000 H
   0.7944950000000000    0.8621250000000000    0.2927800000000000 H
   0.8589050000000000    0.9388650000000001    0.0170900000000000 H
   0.8824300000000000    0.9641299999999999    0.4499150000000000 H
   0.7623100000000000    0.9340800000000000    0.3948500000000000 H
   0.7397850000000000    0.9077900000000000    0.4611800000000000 H
   0.9136100000000000    0.8845600000000000    0.1682100000000000 H
   0.9834450000000000    0.8634050000000000    0.1902000000000000 H
   0.9349700000000001    0.7404800000000000    0.2042200000000000 H
   0.8649450000000001    0.7621150000000000    0.1845000000000000 H
   0.2500700000000000    0.0142250000000000    0.6936800000000000 H
   0.1789750000000000    0.4887400000000000    0.6713100000000000 H
   0.1375850000000000    0.1119450000000000    0.6817200000000000 H
   0.2080200000000000    0.1369150000000000    0.7057500000000000 H
   0.4829450000000000    0.0612500000000000    0.6418349999999999 H
   0.0499550000000000    0.0360750000000000    0.6177500000000000 H
   0.1058450000000000    0.0652850000000000    0.7375849999999999 H
   0.0397200000000000    0.0914650000000000    0.7606700000000000 H
   0.3324150000000000    0.1145150000000000    0.5864250000000000 H
   0.3111300000000000    0.1362300000000000    0.5166100000000000 H
   0.2964400000000000    0.2586900000000000    0.5656850000000000 H
   0.3155350000000000    0.2364950000000000    0.6356450000000000 H
   0.1940450000000000    0.2503800000000000    0.5155050000000000 H
   0.1717950000000000    0.1795450000000000    0.9895250000000000 H
   0.1818250000000000    0.1371700000000000    0.6124650000000000 H
   0.2057250000000000    0.2073750000000000    0.6379700000000000 H
   0.1407200000000000    0.4831750000000000    0.5608000000000000 H
   0.1173600000000000    0.0505250000000000    0.5357499999999999 H
   0.2375850000000000    0.1051850000000000    0.5660450000000000 H
   0.2599600000000000    0.0387150000000000    0.5920500000000000 H
   0.0863900000000000    0.3316650000000000    0.6154350000000000 H
   0.0165500000000000    0.3097500000000000    0.6365800000000000 H
   0.0650350000000000    0.2957900000000000    0.7595300000000000 H
   0.1350550000000000    0.3154600000000000    0.7379200000000000 H
   0.0144350000000000    0.1932900000000000    0.7508200000000000 H
   0.4888800000000000    0.1711950000000000    0.6797600000000000 H
   0.1121200000000000    0.1820750000000000    0.6383600000000000 H
   0.1371600000000000    0.2059400000000000    0.7087000000000000 H
   0.0607900000000000    0.1406300000000000    0.9840300000000000 H
   0.0356000000000000    0.1171800000000000    0.5512500000000000 H
   0.0657300000000000    0.2372750000000000    0.6059500000000000 H
   0.0919050000000000    0.2597200000000000    0.5395500000000000 H
   0.1143700000000000    0.0862600000000000    0.8317850000000000 H
   0.1352250000000000    0.0163750000000000    0.8098950000000000 H
   0.2583750000000000    0.0643250000000000    0.7959600000000000 H
   0.2370650000000000    0.1344200000000000    0.8156600000000001 H
   0.4855900000000000    0.2489150000000000    0.8066400000000000 H
   0.0111150000000000    0.3199850000000000    0.8287100000000001 H
   0.3878350000000000    0.3613700000000000    0.8178750000000000 H
   0.3628250000000000    0.2909700000000000    0.7940350000000000 H
   0.4393050000000000    0.0157500000000000    0.8593299999999999 H
   0.4644350000000000    0.4484450000000000    0.8827700000000001 H
   0.4341250000000000    0.3938000000000000    0.7626500000000001 H
   0.4080000000000000    0.4602300000000000    0.7402500000000000 H
   0.3853650000000000    0.1681400000000000    0.9134350000000000 H
   0.3647400000000000    0.1900100000000000    0.9833950000000000 H
   0.2414550000000000    0.2040300000000000    0.9357900000000000 H
   0.2625300000000000    0.1843500000000000    0.8656150000000000 H
   0.2498350000000000    0.3062150000000000    0.9856450000000000 H
   0.3208950000000000    0.3285900000000000    0.5111450000000000 H
   0.3623000000000000    0.3182050000000000    0.8879850000000000 H
   0.2918950000000000    0.2941250000000000    0.8629800000000001 H
   0.0169100000000000    0.3581500000000000    0.9387550000000000 H
   0.4498900000000000    0.3822300000000000    0.9639100000000000 H
   0.3940850000000000    0.2623700000000000    0.9347000000000000 H
   0.4602200000000000    0.2393050000000000    0.9085350000000000 H
   0.1676050000000000    0.4135900000000000    0.8854700000000000 H
   0.1889150000000000    0.4833850000000000    0.8637349999999999 H
   0.2036800000000000    0.4342250000000000    0.7413300000000000 H
   0.1845400000000000    0.3643000000000000    0.7635350000000001 H
   0.3064700000000000    0.4846050000000000    0.7498650000000000 H
   0.3283850000000000    0.0105700000000000    0.8208050000000000 H
   0.3181750000000000    0.3875900000000000    0.8630750000000000 H
   0.2944950000000000    0.3621250000000000    0.7927800000000000 H
   0.3589050000000000    0.4388650000000000    0.5170900000000000 H
   0.3824300000000000    0.4641300000000000    0.9499150000000001 H
   0.2623100000000000    0.4340800000000000    0.8948499999999999 H
   0.2397850000000000    0.4077900000000000    0.9611799999999999 H
   0.4136100000000000    0.3845600000000000    0.6682100000000000 H
   0.4834450000000000    0.3634050000000000    0.6902000000000000 H
   0.4349700000000000    0.2404800000000000    0.7042200000000001 H
   0.3649450000000000    0.2621150000000000    0.6845000000000000 H
   0.7500700000000000    0.0142250000000000    0.6936800000000000 H
   0.6789750000000000    0.4887400000000000    0.6713100000000000 H
   0.6375850000000001    0.1119450000000000    0.6817200000000000 H
   0.7080200000000000    0.1369150000000000    0.7057500000000000 H
   0.9829450000000000    0.0612500000000000    0.6418349999999999 H