H8 O4
1.0
  14.8259999796768405    0.0000000000000000    0.0007762875443462
   0.0003449065428875   20.7379479518030791   -6.5872297386189604
   0.0000000000000000    0.0000000000000000   12.7479999999999993
H O
8 4
direct
   0.0434149231247737    0.9665100306907162    0.0850001791444591 H
   0.1585307802600410    0.9288104937255744    0.0590186959951553 H
   0.3802702159007926    0.9407047668113452    0.1262091714436969 H
   0.3413619107065702    0.9287508995630266    0.0592413346743466 H
   0.3804374450045518    0.5594551050072629    0.8735806109231408 H
   0.3411910036401200    0.5714123142146307    0.9408022853143663 H
   0.1583550480083768    0.5710419260968052    0.9410722592548776 H
   0.0480116249800511    0.5249811458350508    0.9554514957584902 H
   0.1014800000000000    0.9524200000000000    0.0673500000000000 O
   0.3984200000000000    0.9523600000000000    0.0677300000000000 O
   0.3984000000000000    0.5479800000000000    0.9322400000000000 O
   0.1014900000000000    0.5472100000000000    0.9327000000000000 O
