H4 C12 N4
1.0
  14.8259999796768405    0.0000000000000000    0.0007762875443462
   0.0003449065428875   20.7379479518030791   -6.5872297386189604
   0.0000000000000000    0.0000000000000000   12.7479999999999993
H C N
4 12 4
direct
   0.1045600000000000    0.8090600000000000    0.0217800000000000 H
   0.1043900000000000    0.6911900000000000    0.9789800000000000 H
   0.3948200000000000    0.6909800000000000    0.9785100000000000 H
   0.3949900000000000    0.8088400000000000    0.0213200000000000 H
   0.1703000000000000    0.9239400000000000    0.0573000000000000 C
   0.1687400000000000    0.7834200000000000    0.0119700000000000 C
   0.1700900000000000    0.5759600000000000    0.9428000000000000 C
   0.1686400000000000    0.7167300000000000    0.9885699999999999 C
   0.3293800000000000    0.5762500000000000    0.9425700000000000 C
   0.3306400000000000    0.7166200000000000    0.9883200000000000 C
   0.3295900000000000    0.9238800000000000    0.0574900000000000 C
   0.3307300000000000    0.7833000000000000    0.0117300000000000 C
   0.2499000000000000    0.8891300000000000    0.0471100000000000 C
   0.2497900000000000    0.8186200000000000    0.0238000000000000 C
   0.2496200000000000    0.6108900000000000    0.9530600000000000 C
   0.2496000000000000    0.6814100000000000    0.9764000000000000 C
   0.1014800000000000    0.9524200000000000    0.0673500000000000 N
   0.1014900000000000    0.5472100000000000    0.9327000000000000 N
   0.3984000000000000    0.5479800000000000    0.9322400000000000 N
   0.3984200000000000    0.9523600000000000    0.0677300000000000 N
