H8 C12 N2
1.0
  14.8259999796768405    0.0000000000000000    0.0007762875443462
   0.0003449065428875   20.7379479518030791   -6.5872297386189604
   0.0000000000000000    0.0000000000000000   12.7479999999999993
H C N
8 12 2
direct
   0.5000000000000000    0.9855900000000000    0.7563000000000000 H
   0.5000000000000000    0.8998699999999999    0.5725000000000000 H
   0.4999900000000000    0.7582300000000000    0.7488500000000000 H
   0.5000000000000000    0.8500200000000000    0.9233100000000000 H
   0.5000000000000000    0.5145500000000000    0.2435300000000000 H
   0.5000000000000000    0.6000300000000000    0.4276300000000000 H
   0.5000000000000000    0.7421100000000000    0.2521700000000000 H
   0.5000000000000000    0.6505600000000000    0.0774000000000000 H
   0.5000000000000000    0.9344600000000000    0.7497400000000000 C
   0.5000000000000000    0.8869100000000000    0.6485600000000000 C
   0.4999900000000000    0.8215700000000000    0.6450000000000000 C
   0.5000000000000000    0.7715200000000000    0.5440700000000001 C
   0.5000000000000000    0.8078400000000000    0.7465800000000000 C
   0.4999900000000000    0.8586600000000000    0.8435600000000000 C
   0.5000100000000000    0.5657100000000000    0.2503800000000000 C
   0.4999900000000000    0.6131300000000000    0.3517000000000000 C
   0.5000100000000000    0.6785300000000000    0.3552000000000000 C
   0.4999900000000000    0.7284700000000000    0.4566600000000000 C
   0.4999900000000000    0.6924500000000000    0.2541800000000000 C
   0.5000100000000000    0.6417600000000000    0.1570300000000000 C
   0.5000000000000000    0.9208800000000000    0.8460200000000000 N
   0.4999900000000000    0.5794800000000000    0.1542600000000000 N
