Fe2 H9 Pt2 C15 N11 O1
1.0
   6.7564999495753835    0.0000000000000000   -0.0008254621943239
  -0.0001248826360984    7.1534999945517654   -0.0002497042560310
   0.0000000000000000    0.0000000000000000   14.3729999999999993
Fe H Pt C N O
2 9 2 15 11 1
direct
   0.9999300000000000    0.5001000000000000    0.2499950000000000 Fe
   0.9999300000000000    0.5001000000000000    0.7499950000000000 Fe
   0.6859499999999999    0.2097400000000000    0.2498600000000000 H
   0.6859600000000000    0.7904400000000000    0.2498800000000000 H
   0.3139900000000000    0.2097400000000000    0.2500900000000000 H
   0.3140000000000000    0.7904400000000000    0.2501150000000000 H
   0.9998749646429813    0.2166596179754223    0.3920935926162655 H
   0.6859499999999999    0.2097400000000000    0.7498600000000000 H
   0.6859600000000000    0.7904400000000000    0.7498800000000000 H
   0.3139900000000000    0.2097400000000000    0.7500899999999999 H
   0.3140000000000000    0.7904400000000000    0.7501150000000000 H
   0.0000000000000000    0.0000100000000000    0.5000000000000000 Pt
   0.0000000000000000    0.0000100000000000    0.0000000000000000 Pt
   0.6024500000000000    0.3395000000000000    0.2499550000000000 C
   0.6024500000000000    0.6606700000000000    0.2499650000000000 C
   0.3975000000000000    0.3395000000000000    0.2500150000000000 C
   0.3975000000000000    0.6606700000000000    0.2500250000000000 C
   0.0000900000000000    0.1976500000000000    0.0982750000000000 C
   0.0001000000000000    0.8024300000000000    0.0982800000000000 C
   0.9998700000000000    0.8024300000000000    0.4017200000000000 C
   0.6024500000000000    0.3395000000000000    0.7499550000000000 C
   0.6024500000000000    0.6606700000000000    0.7499650000000000 C
   0.3975000000000000    0.3395000000000000    0.7500150000000000 C
   0.3975000000000000    0.6606700000000000    0.7500249999999999 C
   0.9998700000000000    0.1976500000000000    0.9017250000000000 C
   0.0000900000000000    0.1976500000000000    0.5982750000000000 C
   0.0001000000000000    0.8024300000000000    0.5982800000000000 C
   0.9998700000000000    0.8024300000000000    0.9017200000000001 C
   0.7082400000000000    0.5000900000000000    0.2499150000000000 N
   0.2917100000000000    0.5000900000000000    0.2500700000000000 N
   0.0000500000000000    0.3125300000000000    0.1564750000000000 N
   0.0000600000000000    0.6876100000000001    0.1565000000000000 N
   0.9999000000000000    0.6876100000000001    0.3434950000000000 N
   0.7082400000000000    0.5000900000000000    0.7499150000000000 N
   0.2917100000000000    0.5000900000000000    0.7500700000000000 N
   0.9999000000000000    0.3125200000000000    0.8435250000000001 N
   0.0000500000000000    0.3125300000000000    0.6564750000000000 N
   0.0000600000000000    0.6876100000000001    0.6565000000000000 N
   0.9999000000000000    0.6876100000000001    0.8434950000000000 N
   0.9999000000000000    0.3125200000000000    0.3435250000000000 O
