H4 O2
1.0
   6.7564999495753835    0.0000000000000000   -0.0008254621943239
  -0.0001248826360984    7.1534999945517654   -0.0002497042560310
   0.0000000000000000    0.0000000000000000   14.3729999999999993
H O
4 2
direct
   0.6317262468387081    0.3839415585577856    0.7499439304294021 H
   0.6317240122079908    0.6162346008095363    0.7499511640929162 H
   0.3682225505159332    0.3839433841823074    0.7500302212848249 H
   0.3682271858982505    0.6162364194303911    0.7500374518067358 H
   0.7082400000000000    0.5000900000000000    0.7499150000000000 O
   0.2917100000000000    0.5000900000000000    0.7500700000000000 O
