H6 C13 N1 O4
1.0
  13.9676857210714456    0.0000000000000000    1.1260215794454600
   0.4576175856792464   15.1590840597950773    0.9055416132590927
   0.0000000000000000    0.0000000000000000   15.3170000000000002
H C N O
6 13 1 4
direct
   0.3551100000000000    0.6819499999999999    0.1178300000000000 H
   0.3479200000000000    0.0907500000000000    0.1244500000000000 H
   0.0563500000000000    0.6563900000000000    0.2018300000000000 H
   0.0365800000000000    0.8181500000000000    0.2117200000000000 H
   0.0492500000000000    0.1273500000000000    0.2055000000000000 H
   0.0338600000000000    0.9625500000000000    0.2101800000000000 H
   0.2064500000000000    0.6608900000000000    0.1568500000000000 C
   0.2138900000000000    0.5629999999999999    0.1488000000000000 C
   0.2097500000000000    0.2185200000000000    0.1607600000000000 C
   0.1997000000000000    0.1203900000000000    0.1646800000000000 C
   0.2862000000000000    0.7140200000000000    0.1367000000000000 C
   0.2777200000000000    0.0639700000000000    0.1434900000000000 C
   0.1165500000000000    0.6988500000000000    0.1839600000000000 C
   0.2766700000000000    0.8061000000000000    0.1409600000000000 C
   0.1847200000000000    0.8435100000000000    0.1676000000000000 C
   0.1820800000000000    0.9385900000000000    0.1693300000000000 C
   0.1062600000000000    0.7895300000000000    0.1897000000000000 C
   0.1103900000000000    0.0836400000000000    0.1890800000000000 C
   0.1024200000000000    0.9927400000000000    0.1914400000000000 C
   0.2704600000000000    0.9752000000000000    0.1450900000000000 N
   0.2961000000000000    0.5243000000000000    0.1485700000000000 O
   0.1348400000000000    0.5257600000000000    0.1412000000000000 O
   0.2923200000000000    0.2495400000000000    0.1407600000000000 O
   0.1325800000000000    0.2629800000000000    0.1780700000000000 O
