H7 C13 N1 O4
1.0
  13.9676857210714456    0.0000000000000000    1.1260215794454600
   0.4576175856792464   15.1590840597950773    0.9055416132590927
   0.0000000000000000    0.0000000000000000   15.3170000000000002
H C N O
7 13 1 4
direct
   0.3726000000000000    0.3934300000000000    0.6978900000000000 H
   0.3747600000000000    0.3942900000000000    0.8606000000000000 H
   0.0679600000000000    0.3832300000000000    0.8788500000000000 H
   0.3490100000000000    0.3432900000000000    0.4174000000000000 H
   0.3591100000000000    0.3384800000000000    0.5779800000000000 H
   0.0634100000000000    0.4257200000000000    0.6120500000000000 H
   0.0543700000000000    0.4295800000000000    0.4491500000000000 H
   0.2213600000000000    0.3876100000000000    0.8824000000000000 C
   0.2015700000000000    0.3876700000000000    0.4229000000000000 C
   0.2188400000000000    0.3896100000000000    0.9802000000000000 C
   0.3060000000000000    0.3893000000000000    0.7395500000000000 C
   0.3077100000000000    0.3903700000000000    0.8299299999999999 C
   0.1367300000000000    0.3840200000000000    0.8400100000000000 C
   0.1977200000000000    0.3900100000000000    0.3251000000000000 C
   0.2176800000000000    0.3846800000000000    0.7024899999999999 C
   0.2121600000000000    0.3843500000000000    0.6064500000000000 C
   0.2870300000000000    0.3622500000000000    0.4603800000000000 C
   0.2923300000000000    0.3604400000000000    0.5506000000000000 C
   0.1260000000000000    0.4086600000000000    0.5687500000000000 C
   0.1209400000000000    0.4103800000000000    0.4782000000000000 C
   0.1337700000000000    0.3824700000000000    0.7530400000000000 N
   0.1378400000000000    0.3815400000000000    0.0228100000000000 O
   0.2769200000000000    0.3746400000000000    0.2803200000000000 O
   0.2986700000000000    0.3995600000000000    0.0127200000000000 O
   0.1172400000000000    0.4069800000000000    0.2940400000000000 O
