H8 C10 N2
1.0
  13.9676857210714456    0.0000000000000000    1.1260215794454600
   0.4576175856792464   15.1590840597950773    0.9055416132590927
   0.0000000000000000    0.0000000000000000   15.3170000000000002
H C N
8 10 2
direct
   0.7964300000000000    0.3572100000000000    0.0159000000000000 H
   0.9392100000000000    0.4149800000000000    0.2886000000000000 H
   0.7615400000000000    0.4092200000000000    0.2918700000000000 H
   0.9717300000000000    0.3699300000000000    0.0238000000000000 H
   0.4512900000000000    0.3372000000000000    0.2784000000000000 H
   0.4771200000000000    0.4202600000000000    0.0160600000000000 H
   0.6544300000000000    0.4278400000000000    0.0139400000000000 H
   0.6287700000000001    0.3333333333333333    0.2872300000000000 H
   0.7628100000000000    0.3828700000000000    0.1535500000000000 C
   0.8239800000000000    0.3717100000000000    0.0777100000000000 C
   0.9037700000000000    0.4024800000000000    0.2300800000000000 C
   0.8049700000000000    0.3979200000000000    0.2311900000000000 C
   0.9221000000000000    0.3774700000000000    0.0814900000000000 C
   0.6578200000000000    0.3804300000000000    0.1511000000000000 C
   0.4999600000000000    0.3555300000000000    0.2217000000000000 C
   0.5144000000000000    0.4026300000000000    0.0746500000000000 C
   0.6133999999999999    0.4047600000000000    0.0738500000000000 C
   0.5985400000000000    0.3547900000000000    0.2259000000000000 C
   0.9617599999999999    0.3928400000000000    0.1563600000000000 N
   0.4580700000000000    0.3793200000000000    0.1473300000000000 N
