Zn4 H36 Rh2 C59 N7 O12
1.0
  13.9676857210714456    0.0000000000000000    1.1260215794454600
   0.4576175856792464   15.1590840597950773    0.9055416132590927
   0.0000000000000000    0.0000000000000000   15.3170000000000002
Zn H Rh C N O
4 36 2 59 7 12
direct
   0.6888600000000000    0.6145400000000000    0.8530300000000000 Zn
   0.1081300000000000    0.3958300000000000    0.1590900000000000 Zn
   0.3109500000000000    0.3854400000000000    0.1469900000000000 Zn
   0.8918000000000000    0.6041400000000000    0.8409100000000000 Zn
   0.2034600000000000    0.6428100000000000    0.9840900000000000 H
   0.0606900000000000    0.5849800000000001    0.7113200000000000 H
   0.2383500000000000    0.5907700000000000    0.7081200000000000 H
   0.0281500000000000    0.6300700000000000    0.9761500000000000 H
   0.6273400000000000    0.6066200000000000    0.3021100000000000 H
   0.6251700000000000    0.6057300000000000    0.1393300000000000 H
   0.9319800000000000    0.6167300000000000    0.1211400000000000 H
   0.6508900000000000    0.6567600000000000    0.5825700000000000 H
   0.6408300000000000    0.6615900000000000    0.4219900000000000 H
   0.9365200000000000    0.5742800000000000    0.3879800000000000 H
   0.9455100000000000    0.5704000000000000    0.5508900000000000 H
   0.6447700000000000    0.3180000000000000    0.8821000000000000 H
   0.6520000000000000    0.9092200000000000    0.8754000000000000 H
   0.9435500000000000    0.3436000000000000    0.7982100000000000 H
   0.9633500000000000    0.1818500000000000    0.7883500000000000 H
   0.9507100000000001    0.8726200000000000    0.7945900000000000 H
   0.9661000000000000    0.0374300000000000    0.7899300000000000 H
   0.5486000000000000    0.6627500000000000    0.7215300000000000 H
   0.5227400000000000    0.5798100000000000    0.9839000000000000 H
   0.3454200000000000    0.5722200000000000    0.9860700000000000 H
   0.3711200000000000    0.6666666666666666    0.7127500000000000 H
   0.7964300000000000    0.3572100000000000    0.0159000000000000 H
   0.9392100000000000    0.4149800000000000    0.2886000000000000 H
   0.7615400000000000    0.4092200000000000    0.2918700000000000 H
   0.9717300000000000    0.3699300000000000    0.0238000000000000 H
   0.3726000000000000    0.3934300000000000    0.6978900000000000 H
   0.3747600000000000    0.3942900000000000    0.8606000000000000 H
   0.0679600000000000    0.3832300000000000    0.8788500000000000 H
   0.3490100000000000    0.3432900000000000    0.4174000000000000 H
   0.3591100000000000    0.3384800000000000    0.5779800000000000 H
   0.0634100000000000    0.4257200000000000    0.6120500000000000 H
   0.0543700000000000    0.4295800000000000    0.4491500000000000 H
   0.4512900000000000    0.3372000000000000    0.2784000000000000 H
   0.4771200000000000    0.4202600000000000    0.0160600000000000 H
   0.6544300000000000    0.4278400000000000    0.0139400000000000 H
   0.6287700000000001    0.3333333333333333    0.2872300000000000 H
   0.6244100000000000    0.1099000000000000    0.8844700000000000 Rh
   0.3755100000000000    0.8900700000000000    0.1155000000000000 Rh
   0.2370800000000000    0.6171300000000000    0.8464400000000000 C
   0.1759000000000000    0.6283000000000000    0.9222800000000000 C
   0.7934300000000000    0.3390900000000000    0.8431600000000000 C
   0.0961200000000000    0.5975000000000000    0.7699100000000000 C
   0.7785700000000000    0.6124500000000000    0.1175500000000000 C
   0.7983100000000000    0.6123300000000000    0.5771100000000000 C
   0.1949200000000000    0.6020799999999999    0.7688000000000000 C
   0.0777900000000000    0.6225200000000000    0.9185000000000000 C
   0.7810800000000000    0.6103800000000000    0.0198000000000000 C
   0.7859699999999999    0.4369800000000000    0.8511400000000000 C
   0.6939400000000000    0.6107399999999999    0.2604400000000000 C
   0.7901899999999999    0.7814500000000000    0.8392500000000001 C
   0.6922199999999999    0.6096500000000000    0.1700000000000000 C
   0.8632000000000000    0.6159600000000000    0.1599800000000000 C
   0.8021200000000001    0.6099800000000000    0.6749100000000000 C
   0.3420500000000000    0.6195700000000000    0.8489000000000000 C
   0.7822600000000000    0.6153200000000000    0.2975100000000000 C
   0.7877800000000000    0.6156700000000001    0.3935500000000000 C
   0.7128700000000000    0.6377800000000000    0.5396100000000000 C
   0.8002400000000000    0.8795800000000000    0.8353300000000000 C
   0.7076000000000000    0.6395999999999999    0.4493700000000000 C
   0.8739200000000000    0.5913500000000000    0.4312700000000000 C
   0.8789500000000000    0.5896200000000000    0.5217600000000000 C
   0.7136900000000000    0.2859400000000000    0.8632800000000000 C
   0.7222100000000000    0.9360100000000000    0.8564800000000000 C
   0.8833500000000000    0.3011400000000000    0.8160700000000000 C
   0.7232400000000000    0.1938700000000000    0.8590400000000000 C
   0.8152000000000000    0.1564600000000000    0.8324300000000000 C
   0.8178500000000000    0.0613800000000000    0.8306900000000000 C
   0.8936600000000000    0.2104600000000000    0.8103000000000000 C
   0.8895700000000000    0.9163300000000000    0.8109800000000000 C
   0.8975300000000000    0.0072300000000000    0.8086000000000000 C
   0.4999200000000000    0.6444500000000000    0.7782700000000000 C
   0.4854600000000000    0.5974200000000000    0.9253700000000000 C
   0.3864700000000000    0.5952800000000000    0.9261600000000000 C
   0.4013500000000000    0.6451800000000000    0.7740899999999999 C
   0.7628100000000000    0.3828700000000000    0.1535500000000000 C
   0.8239800000000000    0.3717100000000000    0.0777100000000000 C
   0.9037700000000000    0.4024800000000000    0.2300800000000000 C
   0.2213600000000000    0.3876100000000000    0.8824000000000000 C
   0.2015700000000000    0.3876700000000000    0.4229000000000000 C
   0.8049700000000000    0.3979200000000000    0.2311900000000000 C
   0.9221000000000000    0.3774700000000000    0.0814900000000000 C
   0.2188400000000000    0.3896100000000000    0.9802000000000000 C
   0.3060000000000000    0.3893000000000000    0.7395500000000000 C
   0.3077100000000000    0.3903700000000000    0.8299299999999999 C
   0.1367300000000000    0.3840200000000000    0.8400100000000000 C
   0.1977200000000000    0.3900100000000000    0.3251000000000000 C
   0.6578200000000000    0.3804300000000000    0.1511000000000000 C
   0.2176800000000000    0.3846800000000000    0.7024899999999999 C
   0.2121600000000000    0.3843500000000000    0.6064500000000000 C
   0.2870300000000000    0.3622500000000000    0.4603800000000000 C
   0.2923300000000000    0.3604400000000000    0.5506000000000000 C
   0.1260000000000000    0.4086600000000000    0.5687500000000000 C
   0.1209400000000000    0.4103800000000000    0.4782000000000000 C
   0.4999600000000000    0.3555300000000000    0.2217000000000000 C
   0.5144000000000000    0.4026300000000000    0.0746500000000000 C
   0.6133999999999999    0.4047600000000000    0.0738500000000000 C
   0.5985400000000000    0.3547900000000000    0.2259000000000000 C
   0.0381400000000000    0.6071299999999999    0.8436300000000000 N
   0.5417900000000000    0.6206900000000000    0.8526899999999999 N
   0.8661600000000000    0.6174900000000000    0.2469600000000000 N
   0.7294600000000000    0.0247700000000000    0.8548800000000000 N
   0.9617599999999999    0.3928400000000000    0.1563600000000000 N
   0.4580700000000000    0.3793200000000000    0.1473300000000000 N
   0.1337700000000000    0.3824700000000000    0.7530400000000000 N
   0.8620900000000000    0.6184300000000000    0.9771800000000000 O
   0.7229000000000000    0.6253200000000000    0.7196800000000000 O
   0.7012500000000000    0.6004000000000000    0.9872900000000000 O
   0.7037500000000000    0.4756700000000000    0.8514200000000000 O
   0.8826100000000000    0.5930200000000000    0.7059800000000001 O
   0.8650000000000000    0.4742300000000000    0.8588000000000000 O
   0.7076300000000000    0.7504300000000000    0.8592400000000000 O
   0.8673700000000000    0.7369900000000000    0.8219500000000000 O
   0.1378400000000000    0.3815400000000000    0.0228100000000000 O
   0.2769200000000000    0.3746400000000000    0.2803200000000000 O
   0.2986700000000000    0.3995600000000000    0.0127200000000000 O
   0.1172400000000000    0.4069800000000000    0.2940400000000000 O
