H3 C9 O6
1.0
  39.3676304957610768    0.0000000000000000    4.7570353319291803
  14.6032086821904166   36.5165551828805448    4.6311438932555564
   0.0000000000000000    0.0000000000000000   37.0339999999999989
H C O
3 9 6
direct
   0.8705900000000000    0.7934666666666667    0.8336500000000000 H
   0.8167566666666666    0.8479133333333333    0.8130450000000000 H
   0.8033733333333333    0.7289966666666666    0.8509500000000000 H
   0.8717933333333333    0.7254533333333333    0.8566500000000000 C
   0.8400033333333332    0.7579933333333333    0.8435200000000000 C
   0.8440966666666666    0.7914633333333333    0.8326100000000001 C
   0.8142866666666666    0.8215699999999999    0.8211850000000001 C
   0.7800699999999999    0.8188899999999999    0.8200499999999999 C
   0.7759400000000000    0.7851666666666666    0.8305000000000000 C
   0.8060333333333333    0.7551933333333333    0.8424300000000000 C
   0.7490500000000000    0.8521433333333333    0.8084300000000000 C
   0.7410366666666666    0.7786266666666666    0.8290500000000001 C
   0.9031766666666666    0.7274633333333334    0.8518850000000000 O
   0.8644700000000000    0.6978400000000000    0.8716150000000000 O
   0.7166233333333333    0.8518666666666665    0.8094500000000000 O
   0.7542066666666667    0.8820533333333332    0.7972100000000000 O
   0.7330633333333333    0.7718499999999999    0.8000800000000000 O
   0.7230833333333333    0.7779566666666666    0.8609100000000001 O
