H7 O5
1.0
  39.3676304957610768    0.0000000000000000    4.7570353319291803
  14.6032086821904166   36.5165551828805448    4.6311438932555564
   0.0000000000000000    0.0000000000000000   37.0339999999999989
H O
7 5
direct
   0.7365371006489764    0.7784587474743986    0.8370349335308360 H
   0.7167565777008790    0.8278903465017531    0.8187865161216452 H
   0.7796623642173094    0.8785280665564681    0.7982558795038435 H
   0.7544035001597960    0.8466346290580806    0.8110022458992520 H
   0.8667103778701587    0.7195555379576196    0.8789928842618027 H
   0.9124169775712360    0.7468199666449153    0.8524079147553070 H
   0.9099494397262339    0.7931104781352742    0.8741887088655949 H
   0.7230833333333333    0.7779566666666666    0.8609100000000001 O
   0.7166233333333333    0.8518666666666665    0.8094500000000000 O
   0.7542066666666667    0.8820533333333332    0.7972100000000000 O
   0.8644700000000000    0.6978400000000000    0.8716150000000000 O
   0.9031766666666666    0.7274633333333334    0.8518850000000000 O
