H2 O2
1.0
  39.3676304957610768    0.0000000000000000    4.7570353319291803
  14.6032086821904166   36.5165551828805448    4.6311438932555564
   0.0000000000000000    0.0000000000000000   37.0339999999999989
H O
2 2
direct
   0.0387570026361872    0.5973492682750443    0.7008618097442327 H
  -0.0003125665549528    0.5772558766945799    0.7093727410018094 H
   0.0299433333333333    0.5983099999999999    0.6770450000000000 O
   0.0000000000000000    0.5840166666666666    0.6830950000000000 O
