Zn180 H502 C934 N429 O432
1.0
  39.3676304957610768    0.0000000000000000    4.7570353319291803
  14.6032086821904166   36.5165551828805448    4.6311438932555564
   0.0000000000000000    0.0000000000000000   37.0339999999999989
Zn H C N O
180 502 934 429 432
direct
   0.0328366666666667    0.2387333333333333    0.2888200000000000 Zn
   0.0145200000000000    0.0978100000000000    0.3593350000000000 Zn
   0.0935300000000000    0.3005666666666666    0.4611700000000000 Zn
   0.0977933333333333    0.0145433333333333    0.1092500000000000 Zn
   0.3005033333333333    0.0945933333333333    0.2111850000000000 Zn
   0.3188233333333333    0.2355133333333333    0.1406650000000000 Zn
   0.2398166666666667    0.0327600000000000    0.0388350000000000 Zn
   0.2873400000000000    0.0459600000000000    0.3749300000000000 Zn
   0.0460000000000000    0.2873666666666667    0.1250750000000000 Zn
   0.2355466666666667    0.3187833333333333    0.3907400000000000 Zn
   0.3661700000000000    0.2387333333333333    0.2888200000000000 Zn
   0.3478533333333333    0.0978100000000000    0.3593350000000000 Zn
   0.4268633333333333    0.3005666666666666    0.4611700000000000 Zn
   0.4311266666666667    0.0145433333333333    0.1092500000000000 Zn
   0.6338366666666666    0.0945933333333333    0.2111850000000000 Zn
   0.6521566666666667    0.2355133333333333    0.1406650000000000 Zn
   0.5731500000000000    0.0327600000000000    0.0388350000000000 Zn
   0.6206733333333333    0.0459600000000000    0.3749300000000000 Zn
   0.3793333333333333    0.2873666666666667    0.1250750000000000 Zn
   0.5688800000000001    0.3187833333333333    0.3907400000000000 Zn
   0.6995033333333333    0.2387333333333333    0.2888200000000000 Zn
   0.6811866666666666    0.0978100000000000    0.3593350000000000 Zn
   0.7601966666666666    0.3005666666666666    0.4611700000000000 Zn
   0.7644599999999999    0.0145433333333333    0.1092500000000000 Zn
   0.9671700000000000    0.0945933333333333    0.2111850000000000 Zn
   0.9854900000000000    0.2355133333333333    0.1406650000000000 Zn
   0.9064833333333333    0.0327600000000000    0.0388350000000000 Zn
   0.9540066666666667    0.0459600000000000    0.3749300000000000 Zn
   0.7126666666666667    0.2873666666666667    0.1250750000000000 Zn
   0.9022133333333333    0.3187833333333333    0.3907400000000000 Zn
   0.0328366666666667    0.5720666666666666    0.2888200000000000 Zn
   0.0145200000000000    0.4311433333333333    0.3593350000000000 Zn
   0.0935300000000000    0.6338999999999999    0.4611700000000000 Zn
   0.0977933333333333    0.3478766666666667    0.1092500000000000 Zn
   0.3005033333333333    0.4279266666666666    0.2111850000000000 Zn
   0.3188233333333333    0.5688466666666666    0.1406650000000000 Zn
   0.2398166666666667    0.3660933333333333    0.0388350000000000 Zn
   0.2873400000000000    0.3792933333333333    0.3749300000000000 Zn
   0.0460000000000000    0.6207000000000000    0.1250750000000000 Zn
   0.2355466666666667    0.6521166666666667    0.3907400000000000 Zn
   0.3661700000000000    0.5720666666666666    0.2888200000000000 Zn
   0.3478533333333333    0.4311433333333333    0.3593350000000000 Zn
   0.4268633333333333    0.6338999999999999    0.4611700000000000 Zn
   0.4311266666666667    0.3478766666666667    0.1092500000000000 Zn
   0.6338366666666666    0.4279266666666666    0.2111850000000000 Zn
   0.6521566666666667    0.5688466666666666    0.1406650000000000 Zn
   0.5731500000000000    0.3660933333333333    0.0388350000000000 Zn
   0.6206733333333333    0.3792933333333333    0.3749300000000000 Zn
   0.3793333333333333    0.6207000000000000    0.1250750000000000 Zn
   0.5688800000000001    0.6521166666666667    0.3907400000000000 Zn
   0.6995033333333333    0.5720666666666666    0.2888200000000000 Zn
   0.6811866666666666    0.4311433333333333    0.3593350000000000 Zn
   0.7601966666666666    0.6338999999999999    0.4611700000000000 Zn
   0.7644599999999999    0.3478766666666667    0.1092500000000000 Zn
   0.9671700000000000    0.4279266666666666    0.2111850000000000 Zn
   0.9854900000000000    0.5688466666666666    0.1406650000000000 Zn
   0.9064833333333333    0.3660933333333333    0.0388350000000000 Zn
   0.9540066666666667    0.3792933333333333    0.3749300000000000 Zn
   0.7126666666666667    0.6207000000000000    0.1250750000000000 Zn
   0.9022133333333333    0.6521166666666667    0.3907400000000000 Zn
   0.0328366666666667    0.9054000000000000    0.2888200000000000 Zn
   0.0145200000000000    0.7644766666666667    0.3593350000000000 Zn
   0.0935300000000000    0.9672333333333333    0.4611700000000000 Zn
   0.0977933333333333    0.6812100000000000    0.1092500000000000 Zn
   0.3005033333333333    0.7612599999999999    0.2111850000000000 Zn
   0.3188233333333333    0.9021800000000000    0.1406650000000000 Zn
   0.2398166666666667    0.6994266666666666    0.0388350000000000 Zn
   0.2873400000000000    0.7126266666666666    0.3749300000000000 Zn
   0.0460000000000000    0.9540333333333333    0.1250750000000000 Zn
   0.2355466666666667    0.9854499999999999    0.3907400000000000 Zn
   0.3661700000000000    0.9054000000000000    0.2888200000000000 Zn
   0.3478533333333333    0.7644766666666667    0.3593350000000000 Zn
   0.4268633333333333    0.9672333333333333    0.4611700000000000 Zn
   0.4311266666666667    0.6812100000000000    0.1092500000000000 Zn
   0.6338366666666666    0.7612599999999999    0.2111850000000000 Zn
   0.6521566666666667    0.9021800000000000    0.1406650000000000 Zn
   0.5731500000000000    0.6994266666666666    0.0388350000000000 Zn
   0.6206733333333333    0.7126266666666666    0.3749300000000000 Zn
   0.3793333333333333    0.9540333333333333    0.1250750000000000 Zn
   0.5688800000000001    0.9854499999999999    0.3907400000000000 Zn
   0.6995033333333333    0.9054000000000000    0.2888200000000000 Zn
   0.6811866666666666    0.7644766666666667    0.3593350000000000 Zn
   0.7601966666666666    0.9672333333333333    0.4611700000000000 Zn
   0.7644599999999999    0.6812100000000000    0.1092500000000000 Zn
   0.9671700000000000    0.7612599999999999    0.2111850000000000 Zn
   0.9854900000000000    0.9021800000000000    0.1406650000000000 Zn
   0.9064833333333333    0.6994266666666666    0.0388350000000000 Zn
   0.9540066666666667    0.7126266666666666    0.3749300000000000 Zn
   0.7126666666666667    0.9540333333333333    0.1250750000000000 Zn
   0.9022133333333333    0.9854499999999999    0.3907400000000000 Zn
   0.0328366666666667    0.2387333333333333    0.7888200000000001 Zn
   0.0145200000000000    0.0978100000000000    0.8593350000000000 Zn
   0.0935300000000000    0.3005666666666666    0.9611700000000001 Zn
   0.0977933333333333    0.0145433333333333    0.6092500000000000 Zn
   0.3005033333333333    0.0945933333333333    0.7111850000000000 Zn
   0.3188233333333333    0.2355133333333333    0.6406650000000000 Zn
   0.2398166666666667    0.0327600000000000    0.5388350000000000 Zn
   0.2873400000000000    0.0459600000000000    0.8749300000000000 Zn
   0.0460000000000000    0.2873666666666667    0.6250750000000000 Zn
   0.2355466666666667    0.3187833333333333    0.8907400000000000 Zn
   0.3661700000000000    0.2387333333333333    0.7888200000000001 Zn
   0.3478533333333333    0.0978100000000000    0.8593350000000000 Zn
   0.4268633333333333    0.3005666666666666    0.9611700000000001 Zn
   0.4311266666666667    0.0145433333333333    0.6092500000000000 Zn
   0.6338366666666666    0.0945933333333333    0.7111850000000000 Zn
   0.6521566666666667    0.2355133333333333    0.6406650000000000 Zn
   0.5731500000000000    0.0327600000000000    0.5388350000000000 Zn
   0.6206733333333333    0.0459600000000000    0.8749300000000000 Zn
   0.3793333333333333    0.2873666666666667    0.6250750000000000 Zn
   0.5688800000000001    0.3187833333333333    0.8907400000000000 Zn
   0.6995033333333333    0.2387333333333333    0.7888200000000001 Zn
   0.6811866666666666    0.0978100000000000    0.8593350000000000 Zn
   0.7601966666666666    0.3005666666666666    0.9611700000000001 Zn
   0.7644599999999999    0.0145433333333333    0.6092500000000000 Zn
   0.9671700000000000    0.0945933333333333    0.7111850000000000 Zn
   0.9854900000000000    0.2355133333333333    0.6406650000000000 Zn
   0.9064833333333333    0.0327600000000000    0.5388350000000000 Zn
   0.9540066666666667    0.0459600000000000    0.8749300000000000 Zn
   0.7126666666666667    0.2873666666666667    0.6250750000000000 Zn
   0.9022133333333333    0.3187833333333333    0.8907400000000000 Zn
   0.0328366666666667    0.5720666666666666    0.7888200000000001 Zn
   0.0145200000000000    0.4311433333333333    0.8593350000000000 Zn
   0.0935300000000000    0.6338999999999999    0.9611700000000001 Zn
   0.0977933333333333    0.3478766666666667    0.6092500000000000 Zn
   0.3005033333333333    0.4279266666666666    0.7111850000000000 Zn
   0.3188233333333333    0.5688466666666666    0.6406650000000000 Zn
   0.2398166666666667    0.3660933333333333    0.5388350000000000 Zn
   0.2873400000000000    0.3792933333333333    0.8749300000000000 Zn
   0.0460000000000000    0.6207000000000000    0.6250750000000000 Zn
   0.2355466666666667    0.6521166666666667    0.8907400000000000 Zn
   0.3661700000000000    0.5720666666666666    0.7888200000000001 Zn
   0.3478533333333333    0.4311433333333333    0.8593350000000000 Zn
   0.4268633333333333    0.6338999999999999    0.9611700000000001 Zn
   0.4311266666666667    0.3478766666666667    0.6092500000000000 Zn
   0.6338366666666666    0.4279266666666666    0.7111850000000000 Zn
   0.6521566666666667    0.5688466666666666    0.6406650000000000 Zn
   0.5731500000000000    0.3660933333333333    0.5388350000000000 Zn
   0.6206733333333333    0.3792933333333333    0.8749300000000000 Zn
   0.3793333333333333    0.6207000000000000    0.6250750000000000 Zn
   0.5688800000000001    0.6521166666666667    0.8907400000000000 Zn
   0.6995033333333333    0.5720666666666666    0.7888200000000001 Zn
   0.6811866666666666    0.4311433333333333    0.8593350000000000 Zn
   0.7601966666666666    0.6338999999999999    0.9611700000000001 Zn
   0.7644599999999999    0.3478766666666667    0.6092500000000000 Zn
   0.9671700000000000    0.4279266666666666    0.7111850000000000 Zn
   0.9854900000000000    0.5688466666666666    0.6406650000000000 Zn
   0.9064833333333333    0.3660933333333333    0.5388350000000000 Zn
   0.9540066666666667    0.3792933333333333    0.8749300000000000 Zn
   0.7126666666666667    0.6207000000000000    0.6250750000000000 Zn
   0.9022133333333333    0.6521166666666667    0.8907400000000000 Zn
   0.0328366666666667    0.9054000000000000    0.7888200000000001 Zn
   0.0145200000000000    0.7644766666666667    0.8593350000000000 Zn
   0.0935300000000000    0.9672333333333333    0.9611700000000001 Zn
   0.0977933333333333    0.6812100000000000    0.6092500000000000 Zn
   0.3005033333333333    0.7612599999999999    0.7111850000000000 Zn
   0.3188233333333333    0.9021800000000000    0.6406650000000000 Zn
   0.2398166666666667    0.6994266666666666    0.5388350000000000 Zn
   0.2873400000000000    0.7126266666666666    0.8749300000000000 Zn
   0.0460000000000000    0.9540333333333333    0.6250750000000000 Zn
   0.2355466666666667    0.9854499999999999    0.8907400000000000 Zn
   0.3661700000000000    0.9054000000000000    0.7888200000000001 Zn
   0.3478533333333333    0.7644766666666667    0.8593350000000000 Zn
   0.4268633333333333    0.9672333333333333    0.9611700000000001 Zn
   0.4311266666666667    0.6812100000000000    0.6092500000000000 Zn
   0.6338366666666666    0.7612599999999999    0.7111850000000000 Zn
   0.6521566666666667    0.9021800000000000    0.6406650000000000 Zn
   0.5731500000000000    0.6994266666666666    0.5388350000000000 Zn
   0.6206733333333333    0.7126266666666666    0.8749300000000000 Zn
   0.3793333333333333    0.9540333333333333    0.6250750000000000 Zn
   0.5688800000000001    0.9854499999999999    0.8907400000000000 Zn
   0.6995033333333333    0.9054000000000000    0.7888200000000001 Zn
   0.6811866666666666    0.7644766666666667    0.8593350000000000 Zn
   0.7601966666666666    0.9672333333333333    0.9611700000000001 Zn
   0.7644599999999999    0.6812100000000000    0.6092500000000000 Zn
   0.9671700000000000    0.7612599999999999    0.7111850000000000 Zn
   0.9854900000000000    0.9021800000000000    0.6406650000000000 Zn
   0.9064833333333333    0.6994266666666666    0.5388350000000000 Zn
   0.9540066666666667    0.7126266666666666    0.8749300000000000 Zn
   0.7126666666666667    0.9540333333333333    0.6250750000000000 Zn
   0.9022133333333333    0.9854499999999999    0.8907400000000000 Zn
   0.2039233333333333    0.1268000000000000    0.3336500000000000 H
   0.1500900000000000    0.1812466666666667    0.3130450000000000 H
   0.1367066666666666    0.0623300000000000    0.3509500000000000 H
   0.2730066666666666    0.0638666666666667    0.4628750000000000 H
   0.2300666666666667    0.3131866666666666    0.4809400000000000 H
   0.0240233333333333    0.3150233333333333    0.3239800000000000 H
   0.2879933333333333    0.2551666666666667    0.3363150000000000 H
   0.2065133333333333    0.1294133333333333    0.4162850000000000 H
   0.1518133333333333    0.1832366666666667    0.4367700000000000 H
   0.2705100000000000    0.1970933333333333    0.3992600000000000 H
   0.2694000000000000    0.0608800000000000    0.2868950000000000 H
   0.0201366666666667    0.1036733333333333    0.2692650000000000 H
   0.0176700000000000    0.3093633333333333    0.4255950000000000 H
   0.0776733333333333    0.0452466666666667    0.4139100000000000 H
   0.1294166666666667    0.2065300000000000    0.1663550000000000 H
   0.1832500000000000    0.1520833333333333    0.1869600000000000 H
   0.1966333333333333    0.2709966666666667    0.1490150000000000 H
   0.0603366666666667    0.2694600000000000    0.0371250000000000 H
   0.1032833333333333    0.0201333333333333    0.0190650000000000 H
   0.3093200000000000    0.0183033333333333    0.1760000000000000 H
   0.0453433333333333    0.0781633333333333    0.1636850000000000 H
   0.1268266666666666    0.2039133333333333    0.0837100000000000 H
   0.1815266666666666    0.1500933333333333    0.0632300000000000 H
   0.0628366666666667    0.1362300000000000    0.1007350000000000 H
   0.0639366666666667    0.2724500000000000    0.2131100000000000 H
   0.3132100000000000    0.2296433333333333    0.2307350000000000 H
   0.3156833333333333    0.0239600000000000    0.0744100000000000 H
   0.2556700000000000    0.2880833333333333    0.0860900000000000 H
   0.5372566666666667    0.1268000000000000    0.3336500000000000 H
   0.4834233333333333    0.1812466666666667    0.3130450000000000 H
   0.4700400000000000    0.0623300000000000    0.3509500000000000 H
   0.6063399999999999    0.0638666666666667    0.4628750000000000 H
   0.5634000000000000    0.3131866666666666    0.4809400000000000 H
   0.3573566666666667    0.3150233333333333    0.3239800000000000 H
   0.6213266666666666    0.2551666666666667    0.3363150000000000 H
   0.5398466666666666    0.1294133333333333    0.4162850000000000 H
   0.4851466666666666    0.1832366666666667    0.4367700000000000 H
   0.6038433333333333    0.1970933333333333    0.3992600000000000 H
   0.6027333333333333    0.0608800000000000    0.2868950000000000 H
   0.3534700000000000    0.1036733333333333    0.2692650000000000 H
   0.3510033333333333    0.3093633333333333    0.4255950000000000 H
   0.4110066666666666    0.0452466666666667    0.4139100000000000 H
   0.4627500000000000    0.2065300000000000    0.1663550000000000 H
   0.5165833333333333    0.1520833333333333    0.1869600000000000 H
   0.5299666666666667    0.2709966666666667    0.1490150000000000 H
   0.3936700000000000    0.2694600000000000    0.0371250000000000 H
   0.4366166666666667    0.0201333333333333    0.0190650000000000 H
   0.6426533333333333    0.0183033333333333    0.1760000000000000 H
   0.3786766666666667    0.0781633333333333    0.1636850000000000 H
   0.4601600000000000    0.2039133333333333    0.0837100000000000 H
   0.5148600000000000    0.1500933333333333    0.0632300000000000 H
   0.3961700000000000    0.1362300000000000    0.1007350000000000 H
   0.3972700000000000    0.2724500000000000    0.2131100000000000 H
   0.6465433333333332    0.2296433333333333    0.2307350000000000 H
   0.6490166666666666    0.0239600000000000    0.0744100000000000 H
   0.5890033333333333    0.2880833333333333    0.0860900000000000 H
   0.8705900000000000    0.1268000000000000    0.3336500000000000 H
   0.8167566666666666    0.1812466666666667    0.3130450000000000 H
   0.8033733333333333    0.0623300000000000    0.3509500000000000 H
   0.9396733333333332    0.0638666666666667    0.4628750000000000 H
   0.8967333333333333    0.3131866666666666    0.4809400000000000 H
   0.6906899999999999    0.3150233333333333    0.3239800000000000 H
   0.9546600000000000    0.2551666666666667    0.3363150000000000 H
   0.8731800000000000    0.1294133333333333    0.4162850000000000 H
   0.8184800000000000    0.1832366666666667    0.4367700000000000 H
   0.9371766666666665    0.1970933333333333    0.3992600000000000 H
   0.9360666666666666    0.0608800000000000    0.2868950000000000 H
   0.6868033333333333    0.1036733333333333    0.2692650000000000 H
   0.6843366666666666    0.3093633333333333    0.4255950000000000 H
   0.7443400000000000    0.0452466666666667    0.4139100000000000 H
   0.7960833333333333    0.2065300000000000    0.1663550000000000 H
   0.8499166666666667    0.1520833333333333    0.1869600000000000 H
   0.8633000000000000    0.2709966666666667    0.1490150000000000 H
   0.7270033333333333    0.2694600000000000    0.0371250000000000 H
   0.7699499999999999    0.0201333333333333    0.0190650000000000 H
   0.9759866666666666    0.0183033333333333    0.1760000000000000 H
   0.7120099999999999    0.0781633333333333    0.1636850000000000 H
   0.7934933333333333    0.2039133333333333    0.0837100000000000 H
   0.8481933333333332    0.1500933333333333    0.0632300000000000 H
   0.7295033333333333    0.1362300000000000    0.1007350000000000 H
   0.7306033333333333    0.2724500000000000    0.2131100000000000 H
   0.9798766666666666    0.2296433333333333    0.2307350000000000 H
   0.9823499999999999    0.0239600000000000    0.0744100000000000 H
   0.9223366666666666    0.2880833333333333    0.0860900000000000 H
   0.2039233333333333    0.4601333333333333    0.3336500000000000 H
   0.1500900000000000    0.5145800000000000    0.3130450000000000 H
   0.1367066666666666    0.3956633333333333    0.3509500000000000 H
   0.2730066666666666    0.3972000000000000    0.4628750000000000 H
   0.2300666666666667    0.6465200000000000    0.4809400000000000 H
   0.0240233333333333    0.6483566666666667    0.3239800000000000 H
   0.2879933333333333    0.5885000000000000    0.3363150000000000 H
   0.2065133333333333    0.4627466666666666    0.4162850000000000 H
   0.1518133333333333    0.5165700000000000    0.4367700000000000 H
   0.2705100000000000    0.5304266666666666    0.3992600000000000 H
   0.2694000000000000    0.3942133333333333    0.2868950000000000 H
   0.0201366666666667    0.4370066666666667    0.2692650000000000 H
   0.0176700000000000    0.6426966666666667    0.4255950000000000 H
   0.0776733333333333    0.3785800000000000    0.4139100000000000 H
   0.1294166666666667    0.5398633333333334    0.1663550000000000 H
   0.1832500000000000    0.4854166666666666    0.1869600000000000 H
   0.1966333333333333    0.6043300000000000    0.1490150000000000 H
   0.0603366666666667    0.6027933333333333    0.0371250000000000 H
   0.1032833333333333    0.3534666666666667    0.0190650000000000 H
   0.3093200000000000    0.3516366666666667    0.1760000000000000 H
   0.0453433333333333    0.4114966666666666    0.1636850000000000 H
   0.1268266666666666    0.5372466666666667    0.0837100000000000 H
   0.1815266666666666    0.4834266666666667    0.0632300000000000 H
   0.0628366666666667    0.4695633333333333    0.1007350000000000 H
   0.0639366666666667    0.6057833333333333    0.2131100000000000 H
   0.3132100000000000    0.5629766666666667    0.2307350000000000 H
   0.3156833333333333    0.3572933333333333    0.0744100000000000 H
   0.2556700000000000    0.6214166666666666    0.0860900000000000 H
   0.5372566666666667    0.4601333333333333    0.3336500000000000 H
   0.4834233333333333    0.5145800000000000    0.3130450000000000 H
   0.4700400000000000    0.3956633333333333    0.3509500000000000 H
   0.6063399999999999    0.3972000000000000    0.4628750000000000 H
   0.5634000000000000    0.6465200000000000    0.4809400000000000 H
   0.3573566666666667    0.6483566666666667    0.3239800000000000 H
   0.6213266666666666    0.5885000000000000    0.3363150000000000 H
   0.5398466666666666    0.4627466666666666    0.4162850000000000 H
   0.4851466666666666    0.5165700000000000    0.4367700000000000 H
   0.6038433333333333    0.5304266666666666    0.3992600000000000 H
   0.6027333333333333    0.3942133333333333    0.2868950000000000 H
   0.3534700000000000    0.4370066666666667    0.2692650000000000 H
   0.3510033333333333    0.6426966666666667    0.4255950000000000 H
   0.4110066666666666    0.3785800000000000    0.4139100000000000 H
   0.4627500000000000    0.5398633333333334    0.1663550000000000 H
   0.5165833333333333    0.4854166666666666    0.1869600000000000 H
   0.5299666666666667    0.6043300000000000    0.1490150000000000 H
   0.3936700000000000    0.6027933333333333    0.0371250000000000 H
   0.4366166666666667    0.3534666666666667    0.0190650000000000 H
   0.6426533333333333    0.3516366666666667    0.1760000000000000 H
   0.3786766666666667    0.4114966666666666    0.1636850000000000 H
   0.4601600000000000    0.5372466666666667    0.0837100000000000 H
   0.5148600000000000    0.4834266666666667    0.0632300000000000 H
   0.3961700000000000    0.4695633333333333    0.1007350000000000 H
   0.3972700000000000    0.6057833333333333    0.2131100000000000 H
   0.6465433333333332    0.5629766666666667    0.2307350000000000 H
   0.6490166666666666    0.3572933333333333    0.0744100000000000 H
   0.5890033333333333    0.6214166666666666    0.0860900000000000 H
   0.8705900000000000    0.4601333333333333    0.3336500000000000 H
   0.8167566666666666    0.5145800000000000    0.3130450000000000 H
   0.8033733333333333    0.3956633333333333    0.3509500000000000 H
   0.9396733333333332    0.3972000000000000    0.4628750000000000 H
   0.8967333333333333    0.6465200000000000    0.4809400000000000 H
   0.6906899999999999    0.6483566666666667    0.3239800000000000 H
   0.9546600000000000    0.5885000000000000    0.3363150000000000 H
   0.8731800000000000    0.4627466666666666    0.4162850000000000 H
   0.8184800000000000    0.5165700000000000    0.4367700000000000 H
   0.9371766666666665    0.5304266666666666    0.3992600000000000 H
   0.9360666666666666    0.3942133333333333    0.2868950000000000 H
   0.6868033333333333    0.4370066666666667    0.2692650000000000 H
   0.6843366666666666    0.6426966666666667    0.4255950000000000 H
   0.7443400000000000    0.3785800000000000    0.4139100000000000 H
   0.7960833333333333    0.5398633333333334    0.1663550000000000 H
   0.8499166666666667    0.4854166666666666    0.1869600000000000 H
   0.8633000000000000    0.6043300000000000    0.1490150000000000 H
   0.7270033333333333    0.6027933333333333    0.0371250000000000 H
   0.7699499999999999    0.3534666666666667    0.0190650000000000 H
   0.9759866666666666    0.3516366666666667    0.1760000000000000 H
   0.7120099999999999    0.4114966666666666    0.1636850000000000 H
   0.7934933333333333    0.5372466666666667    0.0837100000000000 H
   0.8481933333333332    0.4834266666666667    0.0632300000000000 H
   0.7295033333333333    0.4695633333333333    0.1007350000000000 H
   0.7306033333333333    0.6057833333333333    0.2131100000000000 H
   0.9798766666666666    0.5629766666666667    0.2307350000000000 H
   0.9823499999999999    0.3572933333333333    0.0744100000000000 H
   0.9223366666666666    0.6214166666666666    0.0860900000000000 H
   0.2039233333333333    0.7934666666666667    0.3336500000000000 H
   0.1500900000000000    0.8479133333333333    0.3130450000000000 H
   0.1367066666666666    0.7289966666666666    0.3509500000000000 H
   0.2730066666666666    0.7305333333333333    0.4628750000000000 H
   0.2300666666666667    0.9798533333333332    0.4809400000000000 H
   0.0240233333333333    0.9816900000000000    0.3239800000000000 H
   0.2879933333333333    0.9218333333333333    0.3363150000000000 H
   0.2065133333333333    0.7960799999999999    0.4162850000000000 H
   0.1518133333333333    0.8499033333333332    0.4367700000000000 H
   0.2705100000000000    0.8637600000000000    0.3992600000000000 H
   0.2694000000000000    0.7275466666666667    0.2868950000000000 H
   0.0201366666666667    0.7703400000000000    0.2692650000000000 H
   0.0176700000000000    0.9760300000000000    0.4255950000000000 H
   0.0776733333333333    0.7119133333333333    0.4139100000000000 H
   0.1294166666666667    0.8731966666666666    0.1663550000000000 H
   0.1832500000000000    0.8187500000000000    0.1869600000000000 H
   0.1966333333333333    0.9376633333333333    0.1490150000000000 H
   0.0603366666666667    0.9361266666666666    0.0371250000000000 H
   0.1032833333333333    0.6868000000000000    0.0190650000000000 H
   0.3093200000000000    0.6849700000000000    0.1760000000000000 H
   0.0453433333333333    0.7448300000000000    0.1636850000000000 H
   0.1268266666666666    0.8705799999999999    0.0837100000000000 H
   0.1815266666666666    0.8167599999999999    0.0632300000000000 H
   0.0628366666666667    0.8028966666666666    0.1007350000000000 H
   0.0639366666666667    0.9391166666666666    0.2131100000000000 H
   0.3132100000000000    0.8963099999999999    0.2307350000000000 H
   0.3156833333333333    0.6906266666666666    0.0744100000000000 H
   0.2556700000000000    0.9547500000000000    0.0860900000000000 H
   0.5372566666666667    0.7934666666666667    0.3336500000000000 H
   0.4834233333333333    0.8479133333333333    0.3130450000000000 H
   0.4700400000000000    0.7289966666666666    0.3509500000000000 H
   0.6063399999999999    0.7305333333333333    0.4628750000000000 H
   0.5634000000000000    0.9798533333333332    0.4809400000000000 H
   0.3573566666666667    0.9816900000000000    0.3239800000000000 H
   0.6213266666666666    0.9218333333333333    0.3363150000000000 H
   0.5398466666666666    0.7960799999999999    0.4162850000000000 H
   0.4851466666666666    0.8499033333333332    0.4367700000000000 H
   0.6038433333333333    0.8637600000000000    0.3992600000000000 H
   0.6027333333333333    0.7275466666666667    0.2868950000000000 H
   0.3534700000000000    0.7703400000000000    0.2692650000000000 H
   0.3510033333333333    0.9760300000000000    0.4255950000000000 H
   0.4110066666666666    0.7119133333333333    0.4139100000000000 H
   0.4627500000000000    0.8731966666666666    0.1663550000000000 H
   0.5165833333333333    0.8187500000000000    0.1869600000000000 H
   0.5299666666666667    0.9376633333333333    0.1490150000000000 H
   0.3936700000000000    0.9361266666666666    0.0371250000000000 H
   0.4366166666666667    0.6868000000000000    0.0190650000000000 H
   0.6426533333333333    0.6849700000000000    0.1760000000000000 H
   0.3786766666666667    0.7448300000000000    0.1636850000000000 H
   0.4601600000000000    0.8705799999999999    0.0837100000000000 H
   0.5148600000000000    0.8167599999999999    0.0632300000000000 H
   0.3961700000000000    0.8028966666666666    0.1007350000000000 H
   0.3972700000000000    0.9391166666666666    0.2131100000000000 H
   0.6465433333333332    0.8963099999999999    0.2307350000000000 H
   0.6490166666666666    0.6906266666666666    0.0744100000000000 H
   0.5890033333333333    0.9547500000000000    0.0860900000000000 H
   0.8705900000000000    0.7934666666666667    0.3336500000000000 H
   0.8167566666666666    0.8479133333333333    0.3130450000000000 H
   0.8033733333333333    0.7289966666666666    0.3509500000000000 H
   0.9396733333333332    0.7305333333333333    0.4628750000000000 H
   0.8967333333333333    0.9798533333333332    0.4809400000000000 H
   0.6906899999999999    0.9816900000000000    0.3239800000000000 H
   0.9546600000000000    0.9218333333333333    0.3363150000000000 H
   0.8731800000000000    0.7960799999999999    0.4162850000000000 H
   0.8184800000000000    0.8499033333333332    0.4367700000000000 H
   0.9371766666666665    0.8637600000000000    0.3992600000000000 H
   0.9360666666666666    0.7275466666666667    0.2868950000000000 H
   0.6868033333333333    0.7703400000000000    0.2692650000000000 H
   0.6843366666666666    0.9760300000000000    0.4255950000000000 H
   0.7443400000000000    0.7119133333333333    0.4139100000000000 H
   0.7960833333333333    0.8731966666666666    0.1663550000000000 H
   0.8499166666666667    0.8187500000000000    0.1869600000000000 H
   0.8633000000000000    0.9376633333333333    0.1490150000000000 H
   0.7270033333333333    0.9361266666666666    0.0371250000000000 H
   0.7699499999999999    0.6868000000000000    0.0190650000000000 H
   0.9759866666666666    0.6849700000000000    0.1760000000000000 H
   0.7120099999999999    0.7448300000000000    0.1636850000000000 H
   0.7934933333333333    0.8705799999999999    0.0837100000000000 H
   0.8481933333333332    0.8167599999999999    0.0632300000000000 H
   0.7295033333333333    0.8028966666666666    0.1007350000000000 H
   0.7306033333333333    0.9391166666666666    0.2131100000000000 H
   0.9798766666666666    0.8963099999999999    0.2307350000000000 H
   0.9823499999999999    0.6906266666666666    0.0744100000000000 H
   0.9223366666666666    0.9547500000000000    0.0860900000000000 H
   0.2039233333333333    0.1268000000000000    0.8336500000000000 H
   0.1500900000000000    0.1812466666666667    0.8130450000000000 H