H2 O2
1.0
  29.6048034938184195    0.0000000000000000   -2.7036261007019373
   1.1285640948672171   13.0356646981209341   -0.5504588648938127
   0.0000000000000000    0.0000000000000000   26.1999999999999993
H O
2 2
direct
   0.2196202471155515    1.0048553164012159    0.3751364573917493 H
   0.1539939329832348    1.0013362364711242    0.3624030382541150 H
   0.2117800000000000    0.9427200000000000    0.3905200000000000 O
   0.1648950000000000    0.9399100000000000    0.3814050000000000 O
