H5 O4
1.0
  38.7767469802169416    0.0000000000000000   -5.6693575149426412
 -19.5592875552821006   33.3953535402316248   -5.6231927099047017
   0.0000000000000000    0.0000000000000000   35.6719999999999970
H O
5 4
direct
   0.9789853277769528    0.8266282682061245    0.6378190693719814 H
   0.9553357961365717    0.8302664642303749    0.6685599819316030 H
   0.9454846653489578    0.9191484171279716    0.7465878988300904 H
   0.0623809951620318   -0.0131353959918484    0.7265228511389427 H
   0.0516016863122533    0.9189801753420171    0.8047473534510391 H
   0.9530733333333332    0.8132066666666666    0.6443000000000000 O
   0.9226633333333333    0.9090333333333332    0.7584500000000001 O
   0.0679766666666667    0.0071000000000000    0.7114050000000001 O
   0.0763833333333333    0.9227666666666666    0.8203199999999999 O
