H10 C14 N1 O2
1.0
  17.1709591119656757    0.0000000000000000    2.0508564491945518
   2.5734713131759293   11.4702057817674472    5.6807359315646035
   0.0000000000000000    0.0000000000000000   15.0410000000000004
H C N O
10 14 1 2
direct
   0.7102600000000000    0.2514200000000000    0.9445100000000000 H
   0.7564000000000000    0.4368500000000000    0.8791700000000000 H
   0.7588600000000000    0.4074700000000000    0.1762800000000000 H
   0.7124300000000000    0.2230600000000000    0.2394500000000000 H
   0.7959300000000000    0.5816100000000000    0.9001000000000000 H
   0.7911700000000000    0.5725500000000000    0.1088400000000000 H
   0.8443400000000000    0.7282700000000000    0.8329900000000000 H
   0.8832000000000000    0.9192900000000001    0.7651800000000000 H
   0.8534300000000000    0.9328600000000000    0.0378000000000000 H
   0.8145700000000000    0.7427500000000000    0.1182800000000000 H
   0.6832000000000000    0.1115800000000000    0.1380300000000000 C
   0.7083600000000000    0.2255500000000000    0.0960800000000000 C
   0.7208700000000000    0.2864500000000000    0.9945200000000000 C
   0.7463600000000000    0.3905000000000000    0.9583600000000000 C
   0.7604900000000000    0.4369200000000000    0.0223700000000000 C
   0.7477300000000000    0.3748200000000000    0.1245700000000000 C
   0.7219800000000000    0.2712600000000000    0.1605600000000000 C
   0.7871000000000000    0.5460000000000000    0.9801900000000000 C
   0.8005900000000000    0.6059400000000000    0.0289800000000000 C
   0.8254400000000000    0.7163900000000000    0.9830500000000000 C
   0.8453700000000000    0.7696200000000000    0.8818600000000000 C
   0.8671700000000000    0.8758600000000000    0.8431000000000000 C
   0.8515500000000000    0.8838000000000000    0.9954000000000000 C
   0.8298100000000000    0.7768800000000000    0.0397900000000000 C
   0.8701600000000000    0.9336900000000000    0.8983900000000000 N
   0.6771700000000000    1.0657000000000001    0.0786500000000000 O
   0.6702700000000000    1.0619200000000000    0.2296600000000000 O
