H5 O3
1.0
  17.1709591119656757    0.0000000000000000    2.0508564491945518
   2.5734713131759293   11.4702057817674472    5.6807359315646035
   0.0000000000000000    0.0000000000000000   15.0410000000000004
H O
5 3
direct
   0.8566690305374182    0.8975231828861788    0.9687155748288593 H
   0.8680031416834747    0.8919739075435920    0.8585061550766937 H
   0.6857521872126081    1.1100125880849687    0.0086377119828749 H
   0.6726553143708282    1.0959811022466401    0.2748759295072419 H
   0.6806634491002070    1.1155847147574398    0.1448716897629543 H
   0.8701600000000000    0.9336900000000000    0.8983900000000000 O
   0.6771700000000000    1.0657000000000001    0.0786500000000000 O
   0.6702700000000000    1.0619200000000000    0.2296600000000000 O
