H5 C6 N2 O2
1.0
  15.5848103610872908    0.0000000000000000   -7.4339071159751660
  -9.3782823308805749   14.3477043957470780   -2.3559293483789472
   0.0000000000000000    0.0000000000000000   17.2940000000000005
H C N O
5 6 2 2
direct
   0.1680700000000000    0.1390500000000000    0.5513600000000000 H
   0.2762300000000000    0.9622400000000000    0.5901000000000000 H
   0.3994500000000000    0.0395100000000000    0.7854800000000000 H
   0.3919700000000000    0.2002800000000000    0.8757100000000000 H
   0.2882500000000000    0.1962400000000000    0.7269300000000000 H
   0.2089700000000000    0.1088000000000000    0.5857000000000000 C
   0.2658800000000000    0.0181700000000000    0.6077399999999999 C
   0.3083000000000000    0.0811500000000000    0.6953800000000000 C
   0.3754900000000000    0.0885500000000000    0.7855000000000000 C
   0.4117500000000000    0.1487900000000000    0.8693400000000000 C
   0.4830200000000000    0.1488200000000000    0.9564700000000000 C
   0.2041000000000000    0.0358700000000000    0.5403200000000000 N
   0.2700500000000000    0.1374400000000000    0.6783700000000000 N
   0.5133600000000000    0.2105000000000000    0.0340200000000000 O
   0.5127600000000000    0.0946800000000000    0.9564000000000000 O
