H9 O6
1.0
  38.0119999942104414    0.0000000000000000   -0.0006634345552388
   0.0013148488006464   37.6659998336290585    0.0032869785761111
   0.0000000000000000    0.0000000000000000   37.6439999999999984
H O
9 6
direct
   0.4795694115158703    0.4741034913969961    0.3242732681691065 H
   0.4101039985071745    0.4847550317840892    0.3182155721384099 H
   0.2018148979770203    0.3042225952924947    0.1265216672020726 H
   0.2452891212094678    0.2444028261120927    0.2009005355541836 H
   0.2148845993834854    0.2789114983272022    0.1735735628808365 H
   0.4718118961973140    0.2519983878012049    0.4256454533238592 H
   0.4304092127968663    0.2802227760675438    0.3720258324374729 H
   0.2707472519714271    0.3250826811747675    0.3109406889007975 H
   0.3095780732389694    0.2520440812084052    0.3825385660862552 H
   0.4968600000000000    0.4930200000000000    0.3252000000000000 O
   0.4306300000000000    0.5000000000000000    0.3195100000000000 O
   0.2209550000000000    0.2872350000000000    0.1277650000000000 O
   0.2486200000000000    0.2489700000000000    0.1757650000000000 O
   0.4968400000000000    0.2569500000000000    0.4248050000000000 O
   0.4553050000000000    0.2808750000000000    0.3776450000000000 O
