Al384 P381 O1524
1.0
  38.0119999942104414    0.0000000000000000   -0.0006634345552388
   0.0013148488006464   37.6659998336290585    0.0032869785761111
   0.0000000000000000    0.0000000000000000   37.6439999999999984
Al P O
384 381 1524
direct
   0.4790300000000000    0.4678350000000000    0.1673150000000000 Al
   0.2108500000000000    0.4175050000000000    0.2722850000000000 Al
   0.4608550000000000    0.4175050000000000    0.2722850000000000 Al
   0.1664200000000000    0.0255350000000000    0.2830500000000000 Al
   0.4164200000000000    0.0255350000000000    0.2830500000000000 Al
   0.2290300000000000    0.2822000000000000    0.0826650000000000 Al
   0.4790300000000000    0.2822000000000000    0.0826650000000000 Al
   0.2108600000000000    0.3325050000000000    0.4776950000000000 Al
   0.4608650000000000    0.3325050000000000    0.4776950000000000 Al
   0.1664150000000000    0.2244700000000000    0.4669000000000000 Al
   0.4164150000000000    0.2244700000000000    0.4669000000000000 Al
   0.2291000000000000    0.0827500000000000    0.4671000000000000 Al
   0.4791050000000000    0.0827500000000000    0.4671000000000000 Al
   0.2108950000000000    0.4776400000000000    0.4176400000000000 Al
   0.4609000000000000    0.4776400000000000    0.4176400000000000 Al
   0.1663250000000000    0.4669900000000000    0.0254650000000000 Al
   0.4163300000000000    0.4669900000000000    0.0254650000000000 Al
   0.2291000000000000    0.1672450000000000    0.2828700000000000 Al
   0.4791050000000000    0.1672450000000000    0.2828700000000000 Al
   0.2109000000000000    0.2723750000000000    0.3323400000000000 Al
   0.4609050000000000    0.2723750000000000    0.3323400000000000 Al
   0.1663300000000000    0.2830150000000000    0.2245100000000000 Al
   0.4163300000000000    0.2830150000000000    0.2245100000000000 Al
   0.0209800000000000    0.0321700000000000    0.3326750000000000 Al
   0.2709850000000000    0.0321700000000000    0.3326750000000000 Al
   0.0391550000000000    0.0825000000000000    0.2277100000000000 Al
   0.2891600000000000    0.0825000000000000    0.2277100000000000 Al
   0.0835850000000000    0.4744700000000000    0.2169450000000000 Al
   0.3335900000000000    0.4744700000000000    0.2169450000000000 Al
   0.0209750000000000    0.2178050000000000    0.4173300000000000 Al
   0.2709800000000000    0.2178050000000000    0.4173300000000000 Al
   0.0391450000000000    0.1675000000000000    0.0223000000000000 Al
   0.2290250000000000    0.4678350000000000    0.1673150000000000 Al
   0.2891500000000000    0.1675000000000000    0.0223000000000000 Al
   0.0835900000000000    0.2755350000000000    0.0330500000000000 Al
   0.3335950000000000    0.2755350000000000    0.0330500000000000 Al
   0.0209050000000000    0.4172550000000000    0.0328650000000000 Al
   0.2709100000000000    0.4172550000000000    0.0328650000000000 Al
   0.0391100000000000    0.0223650000000000    0.0823500000000000 Al
   0.2891150000000000    0.0223650000000000    0.0823500000000000 Al
   0.0836800000000000    0.0330150000000000    0.4745250000000000 Al
   0.3336850000000000    0.0330150000000000    0.4745250000000000 Al
   0.0209050000000000    0.3327600000000000    0.2171250000000000 Al
   0.2709100000000000    0.3327600000000000    0.2171250000000000 Al
   0.0391050000000000    0.2276300000000000    0.1676500000000000 Al
   0.2891100000000000    0.2276300000000000    0.1676500000000000 Al
   0.0836750000000000    0.2169900000000000    0.2754800000000000 Al
   0.3336800000000000    0.2169900000000000    0.2754800000000000 Al
   0.9790300000000001    0.4678350000000000    0.1673150000000000 Al
   0.7108500000000000    0.4175050000000000    0.2722850000000000 Al
   0.9608550000000000    0.4175050000000000    0.2722850000000000 Al
   0.6664200000000000    0.0255350000000000    0.2830500000000000 Al
   0.9164200000000000    0.0255350000000000    0.2830500000000000 Al
   0.7290300000000001    0.2822000000000000    0.0826650000000000 Al
   0.9790300000000001    0.2822000000000000    0.0826650000000000 Al
   0.7108600000000000    0.3325050000000000    0.4776950000000000 Al
   0.9608650000000001    0.3325050000000000    0.4776950000000000 Al
   0.6664150000000000    0.2244700000000000    0.4669000000000000 Al
   0.9164150000000000    0.2244700000000000    0.4669000000000000 Al
   0.7291000000000000    0.0827500000000000    0.4671000000000000 Al
   0.9791050000000000    0.0827500000000000    0.4671000000000000 Al
   0.7108950000000001    0.4776400000000000    0.4176400000000000 Al
   0.9609000000000000    0.4776400000000000    0.4176400000000000 Al
   0.6663250000000001    0.4669900000000000    0.0254650000000000 Al
   0.9163300000000000    0.4669900000000000    0.0254650000000000 Al
   0.7291000000000000    0.1672450000000000    0.2828700000000000 Al
   0.9791050000000000    0.1672450000000000    0.2828700000000000 Al
   0.7109000000000000    0.2723750000000000    0.3323400000000000 Al
   0.9609050000000000    0.2723750000000000    0.3323400000000000 Al
   0.6663300000000000    0.2830150000000000    0.2245100000000000 Al
   0.9163300000000000    0.2830150000000000    0.2245100000000000 Al
   0.5209800000000000    0.0321700000000000    0.3326750000000000 Al
   0.7709850000000000    0.0321700000000000    0.3326750000000000 Al
   0.5391550000000001    0.0825000000000000    0.2277100000000000 Al
   0.7891600000000000    0.0825000000000000    0.2277100000000000 Al
   0.5835850000000000    0.4744700000000000    0.2169450000000000 Al
   0.8335900000000001    0.4744700000000000    0.2169450000000000 Al
   0.5209750000000000    0.2178050000000000    0.4173300000000000 Al
   0.7709800000000000    0.2178050000000000    0.4173300000000000 Al
   0.5391450000000000    0.1675000000000000    0.0223000000000000 Al
   0.7290250000000000    0.4678350000000000    0.1673150000000000 Al
   0.7891500000000000    0.1675000000000000    0.0223000000000000 Al
   0.5835900000000001    0.2755350000000000    0.0330500000000000 Al
   0.8335950000000000    0.2755350000000000    0.0330500000000000 Al
   0.5209050000000000    0.4172550000000000    0.0328650000000000 Al
   0.7709100000000000    0.4172550000000000    0.0328650000000000 Al
   0.5391100000000000    0.0223650000000000    0.0823500000000000 Al
   0.7891150000000000    0.0223650000000000    0.0823500000000000 Al
   0.5836800000000000    0.0330150000000000    0.4745250000000000 Al
   0.8336850000000000    0.0330150000000000    0.4745250000000000 Al
   0.5209050000000000    0.3327600000000000    0.2171250000000000 Al
   0.7709100000000000    0.3327600000000000    0.2171250000000000 Al
   0.5391049999999999    0.2276300000000000    0.1676500000000000 Al
   0.7891100000000000    0.2276300000000000    0.1676500000000000 Al
   0.5836749999999999    0.2169900000000000    0.2754800000000000 Al
   0.8336800000000000    0.2169900000000000    0.2754800000000000 Al
   0.4790300000000000    0.9678350000000000    0.1673150000000000 Al
   0.2108500000000000    0.9175050000000000    0.2722850000000000 Al
   0.4608550000000000    0.9175050000000000    0.2722850000000000 Al
   0.1664200000000000    0.5255350000000000    0.2830500000000000 Al
   0.4164200000000000    0.5255350000000000    0.2830500000000000 Al
   0.2290300000000000    0.7822000000000000    0.0826650000000000 Al
   0.4790300000000000    0.7822000000000000    0.0826650000000000 Al
   0.2108600000000000    0.8325050000000001    0.4776950000000000 Al
   0.4608650000000000    0.8325050000000001    0.4776950000000000 Al
   0.1664150000000000    0.7244699999999999    0.4669000000000000 Al
   0.4164150000000000    0.7244699999999999    0.4669000000000000 Al
   0.2291000000000000    0.5827500000000000    0.4671000000000000 Al
   0.4791050000000000    0.5827500000000000    0.4671000000000000 Al
   0.2108950000000000    0.9776400000000001    0.4176400000000000 Al
   0.4609000000000000    0.9776400000000001    0.4176400000000000 Al
   0.1663250000000000    0.9669900000000000    0.0254650000000000 Al
   0.4163300000000000    0.9669900000000000    0.0254650000000000 Al
   0.2291000000000000    0.6672450000000000    0.2828700000000000 Al
   0.4791050000000000    0.6672450000000000    0.2828700000000000 Al
   0.2109000000000000    0.7723750000000000    0.3323400000000000 Al
   0.4609050000000000    0.7723750000000000    0.3323400000000000 Al
   0.1663300000000000    0.7830150000000000    0.2245100000000000 Al
   0.4163300000000000    0.7830150000000000    0.2245100000000000 Al
   0.0209800000000000    0.5321700000000000    0.3326750000000000 Al
   0.2709850000000000    0.5321700000000000    0.3326750000000000 Al
   0.0391550000000000    0.5825000000000000    0.2277100000000000 Al
   0.2891600000000000    0.5825000000000000    0.2277100000000000 Al
   0.0835850000000000    0.9744699999999999    0.2169450000000000 Al
   0.3335900000000000    0.9744699999999999    0.2169450000000000 Al
   0.0209750000000000    0.7178050000000000    0.4173300000000000 Al
   0.2709800000000000    0.7178050000000000    0.4173300000000000 Al
   0.0391450000000000    0.6675000000000000    0.0223000000000000 Al
   0.2290250000000000    0.9678350000000000    0.1673150000000000 Al
   0.2891500000000000    0.6675000000000000    0.0223000000000000 Al
   0.0835900000000000    0.7755350000000000    0.0330500000000000 Al
   0.3335950000000000    0.7755350000000000    0.0330500000000000 Al
   0.0209050000000000    0.9172549999999999    0.0328650000000000 Al
   0.2709100000000000    0.9172549999999999    0.0328650000000000 Al
   0.0391100000000000    0.5223650000000000    0.0823500000000000 Al
   0.2891150000000000    0.5223650000000000    0.0823500000000000 Al
   0.0836800000000000    0.5330150000000000    0.4745250000000000 Al
   0.3336850000000000    0.5330150000000000    0.4745250000000000 Al
   0.0209050000000000    0.8327599999999999    0.2171250000000000 Al
   0.2709100000000000    0.8327599999999999    0.2171250000000000 Al
   0.0391050000000000    0.7276300000000000    0.1676500000000000 Al
   0.2891100000000000    0.7276300000000000    0.1676500000000000 Al
   0.0836750000000000    0.7169900000000000    0.2754800000000000 Al
   0.3336800000000000    0.7169900000000000    0.2754800000000000 Al
   0.9790300000000001    0.9678350000000000    0.1673150000000000 Al
   0.7108500000000000    0.9175050000000000    0.2722850000000000 Al
   0.9608550000000000    0.9175050000000000    0.2722850000000000 Al
   0.6664200000000000    0.5255350000000000    0.2830500000000000 Al
   0.9164200000000000    0.5255350000000000    0.2830500000000000 Al
   0.7290300000000001    0.7822000000000000    0.0826650000000000 Al
   0.9790300000000001    0.7822000000000000    0.0826650000000000 Al
   0.7108600000000000    0.8325050000000001    0.4776950000000000 Al
   0.9608650000000001    0.8325050000000001    0.4776950000000000 Al
   0.6664150000000000    0.7244699999999999    0.4669000000000000 Al
   0.9164150000000000    0.7244699999999999    0.4669000000000000 Al
   0.7291000000000000    0.5827500000000000    0.4671000000000000 Al
   0.9791050000000000    0.5827500000000000    0.4671000000000000 Al
   0.7108950000000001    0.9776400000000001    0.4176400000000000 Al
   0.9609000000000000    0.9776400000000001    0.4176400000000000 Al
   0.6663250000000001    0.9669900000000000    0.0254650000000000 Al
   0.9163300000000000    0.9669900000000000    0.0254650000000000 Al
   0.7291000000000000    0.6672450000000000    0.2828700000000000 Al
   0.9791050000000000    0.6672450000000000    0.2828700000000000 Al
   0.7109000000000000    0.7723750000000000    0.3323400000000000 Al
   0.9609050000000000    0.7723750000000000    0.3323400000000000 Al
   0.6663300000000000    0.7830150000000000    0.2245100000000000 Al
   0.9163300000000000    0.7830150000000000    0.2245100000000000 Al
   0.5209800000000000    0.5321700000000000    0.3326750000000000 Al
   0.7709850000000000    0.5321700000000000    0.3326750000000000 Al
   0.5391550000000001    0.5825000000000000    0.2277100000000000 Al
   0.7891600000000000    0.5825000000000000    0.2277100000000000 Al
   0.5835850000000000    0.9744699999999999    0.2169450000000000 Al
   0.8335900000000001    0.9744699999999999    0.2169450000000000 Al
   0.5209750000000000    0.7178050000000000    0.4173300000000000 Al
   0.7709800000000000    0.7178050000000000    0.4173300000000000 Al
   0.5391450000000000    0.6675000000000000    0.0223000000000000 Al
   0.7290250000000000    0.9678350000000000    0.1673150000000000 Al
   0.7891500000000000    0.6675000000000000    0.0223000000000000 Al
   0.5835900000000001    0.7755350000000000    0.0330500000000000 Al
   0.8335950000000000    0.7755350000000000    0.0330500000000000 Al
   0.5209050000000000    0.9172549999999999    0.0328650000000000 Al
   0.7709100000000000    0.9172549999999999    0.0328650000000000 Al
   0.5391100000000000    0.5223650000000000    0.0823500000000000 Al
   0.7891150000000000    0.5223650000000000    0.0823500000000000 Al
   0.5836800000000000    0.5330150000000000    0.4745250000000000 Al
   0.8336850000000000    0.5330150000000000    0.4745250000000000 Al
   0.5209050000000000    0.8327599999999999    0.2171250000000000 Al
   0.7709100000000000    0.8327599999999999    0.2171250000000000 Al
   0.5391049999999999    0.7276300000000000    0.1676500000000000 Al
   0.7891100000000000    0.7276300000000000    0.1676500000000000 Al
   0.5836749999999999    0.7169900000000000    0.2754800000000000 Al
   0.8336800000000000    0.7169900000000000    0.2754800000000000 Al
   0.4790300000000000    0.4678350000000000    0.6673150000000000 Al
   0.2108500000000000    0.4175050000000000    0.7722850000000000 Al
   0.4608550000000000    0.4175050000000000    0.7722850000000000 Al
   0.1664200000000000    0.0255350000000000    0.7830500000000000 Al
   0.4164200000000000    0.0255350000000000    0.7830500000000000 Al
   0.2290300000000000    0.2822000000000000    0.5826650000000000 Al
   0.4790300000000000    0.2822000000000000    0.5826650000000000 Al
   0.2108600000000000    0.3325050000000000    0.9776950000000000 Al
   0.4608650000000000    0.3325050000000000    0.9776950000000000 Al
   0.1664150000000000    0.2244700000000000    0.9669000000000000 Al
   0.4164150000000000    0.2244700000000000    0.9669000000000000 Al
   0.2291000000000000    0.0827500000000000    0.9671000000000001 Al
   0.4791050000000000    0.0827500000000000    0.9671000000000001 Al
   0.2108950000000000    0.4776400000000000    0.9176400000000000 Al
   0.4609000000000000    0.4776400000000000    0.9176400000000000 Al
   0.1663250000000000    0.4669900000000000    0.5254650000000000 Al
   0.4163300000000000    0.4669900000000000    0.5254650000000000 Al
   0.2291000000000000    0.1672450000000000    0.7828700000000000 Al
   0.4791050000000000    0.1672450000000000    0.7828700000000000 Al
   0.2109000000000000    0.2723750000000000    0.8323400000000001 Al
   0.4609050000000000    0.2723750000000000    0.8323400000000001 Al
   0.1663300000000000    0.2830150000000000    0.7245100000000000 Al
   0.4163300000000000    0.2830150000000000    0.7245100000000000 Al
   0.0209800000000000    0.0321700000000000    0.8326750000000001 Al
   0.2709850000000000    0.0321700000000000    0.8326750000000001 Al
   0.0391550000000000    0.0825000000000000    0.7277100000000000 Al
   0.2891600000000000    0.0825000000000000    0.7277100000000000 Al
   0.0835850000000000    0.4744700000000000    0.7169449999999999 Al
   0.3335900000000000    0.4744700000000000    0.7169449999999999 Al
   0.0209750000000000    0.2178050000000000    0.9173300000000000 Al
   0.2709800000000000    0.2178050000000000    0.9173300000000000 Al
   0.0391450000000000    0.1675000000000000    0.5223000000000000 Al
   0.2290250000000000    0.4678350000000000    0.6673150000000000 Al
   0.2891500000000000    0.1675000000000000    0.5223000000000000 Al
   0.0835900000000000    0.2755350000000000    0.5330500000000000 Al
   0.3335950000000000    0.2755350000000000    0.5330500000000000 Al
   0.0209050000000000    0.4172550000000000    0.5328650000000000 Al
   0.2709100000000000    0.4172550000000000    0.5328650000000000 Al
   0.0391100000000000    0.0223650000000000    0.5823500000000000 Al
   0.2891150000000000    0.0223650000000000    0.5823500000000000 Al
   0.0836800000000000    0.0330150000000000    0.9745250000000000 Al
   0.3336850000000000    0.0330150000000000    0.9745250000000000 Al
   0.0209050000000000    0.3327600000000000    0.7171250000000000 Al
   0.2709100000000000    0.3327600000000000    0.7171250000000000 Al
   0.0391050000000000    0.2276300000000000    0.6676500000000000 Al
   0.2891100000000000    0.2276300000000000    0.6676500000000000 Al
   0.0836750000000000    0.2169900000000000    0.7754799999999999 Al
   0.3336800000000000    0.2169900000000000    0.7754799999999999 Al
   0.9790300000000001    0.4678350000000000    0.6673150000000000 Al
   0.7108500000000000    0.4175050000000000    0.7722850000000000 Al
   0.9608550000000000    0.4175050000000000    0.7722850000000000 Al
   0.6664200000000000    0.0255350000000000    0.7830500000000000 Al
   0.9164200000000000    0.0255350000000000    0.7830500000000000 Al
   0.7290300000000001    0.2822000000000000    0.5826650000000000 Al
   0.9790300000000001    0.2822000000000000    0.5826650000000000 Al
   0.7108600000000000    0.3325050000000000    0.9776950000000000 Al
   0.9608650000000001    0.3325050000000000    0.9776950000000000 Al
   0.6664150000000000    0.2244700000000000    0.9669000000000000 Al
   0.9164150000000000    0.2244700000000000    0.9669000000000000 Al
   0.7291000000000000    0.0827500000000000    0.9671000000000001 Al
   0.9791050000000000    0.0827500000000000    0.9671000000000001 Al
   0.7108950000000001    0.4776400000000000    0.9176400000000000 Al
   0.9609000000000000    0.4776400000000000    0.9176400000000000 Al
   0.6663250000000001    0.4669900000000000    0.5254650000000000 Al
   0.9163300000000000    0.4669900000000000    0.5254650000000000 Al
   0.7291000000000000    0.1672450000000000    0.7828700000000000 Al
   0.9791050000000000    0.1672450000000000    0.7828700000000000 Al
   0.7109000000000000    0.2723750000000000    0.8323400000000001 Al
   0.9609050000000000    0.2723750000000000    0.8323400000000001 Al
   0.6663300000000000    0.2830150000000000    0.7245100000000000 Al
   0.9163300000000000    0.2830150000000000    0.7245100000000000 Al
   0.5209800000000000    0.0321700000000000    0.8326750000000001 Al
   0.7709850000000000    0.0321700000000000    0.8326750000000001 Al
   0.5391550000000001    0.0825000000000000    0.7277100000000000 Al
   0.7891600000000000    0.0825000000000000    0.7277100000000000 Al
   0.5835850000000000    0.4744700000000000    0.7169449999999999 Al
   0.8335900000000001    0.4744700000000000    0.7169449999999999 Al
   0.5209750000000000    0.2178050000000000    0.9173300000000000 Al
   0.7709800000000000    0.2178050000000000    0.9173300000000000 Al
   0.5391450000000000    0.1675000000000000    0.5223000000000000 Al
   0.7290250000000000    0.4678350000000000    0.6673150000000000 Al
   0.7891500000000000    0.1675000000000000    0.5223000000000000 Al
   0.5835900000000001    0.2755350000000000    0.5330500000000000 Al
   0.8335950000000000    0.2755350000000000    0.5330500000000000 Al
   0.5209050000000000    0.4172550000000000    0.5328650000000000 Al
   0.7709100000000000    0.4172550000000000    0.5328650000000000 Al
   0.5391100000000000    0.0223650000000000    0.5823500000000000 Al
   0.7891150000000000    0.0223650000000000    0.5823500000000000 Al
   0.5836800000000000    0.0330150000000000    0.9745250000000000 Al
   0.8336850000000000    0.0330150000000000    0.9745250000000000 Al
   0.5209050000000000    0.3327600000000000    0.7171250000000000 Al
   0.7709100000000000    0.3327600000000000    0.7171250000000000 Al
   0.5391049999999999    0.2276300000000000    0.6676500000000000 Al
   0.7891100000000000    0.2276300000000000    0.6676500000000000 Al
   0.5836749999999999    0.2169900000000000    0.7754799999999999 Al
   0.8336800000000000    0.2169900000000000    0.7754799999999999 Al
   0.4790300000000000    0.9678350000000000    0.6673150000000000 Al
   0.2108500000000000    0.9175050000000000    0.7722850000000000 Al
   0.4608550000000000    0.9175050000000000    0.7722850000000000 Al
   0.1664200000000000    0.5255350000000000    0.7830500000000000 Al
   0.4164200000000000    0.5255350000000000    0.7830500000000000 Al
   0.2290300000000000    0.7822000000000000    0.5826650000000000 Al
   0.4790300000000000    0.7822000000000000    0.5826650000000000 Al
   0.2108600000000000    0.8325050000000001    0.9776950000000000 Al
   0.4608650000000000    0.8325050000000001    0.9776950000000000 Al
   0.1664150000000000    0.7244699999999999    0.9669000000000000 Al
   0.4164150000000000    0.7244699999999999    0.9669000000000000 Al
   0.2291000000000000    0.5827500000000000    0.9671000000000001 Al
   0.4791050000000000    0.5827500000000000    0.9671000000000001 Al
   0.2108950000000000    0.9776400000000001    0.9176400000000000 Al
   0.4609000000000000    0.9776400000000001    0.9176400000000000 Al
   0.1663250000000000    0.9669900000000000    0.5254650000000000 Al
   0.4163300000000000    0.9669900000000000    0.5254650000000000 Al
   0.2291000000000000    0.6672450000000000    0.7828700000000000 Al
   0.4791050000000000    0.6672450000000000    0.7828700000000000 Al
   0.2109000000000000    0.7723750000000000    0.8323400000000001 Al
   0.4609050000000000    0.7723750000000000    0.8323400000000001 Al
   0.1663300000000000    0.7830150000000000    0.7245100000000000 Al
   0.4163300000000000    0.7830150000000000    0.7245100000000000 Al
   0.0209800000000000    0.5321700000000000    0.8326750000000001 Al
   0.2709850000000000    0.5321700000000000    0.8326750000000001 Al
   0.0391550000000000    0.5825000000000000    0.7277100000000000 Al
   0.2891600000000000    0.5825000000000000    0.7277100000000000 Al
   0.0835850000000000    0.9744699999999999    0.7169449999999999 Al
   0.3335900000000000    0.9744699999999999    0.7169449999999999 Al
   0.0209750000000000    0.7178050000000000    0.9173300000000000 Al
   0.2709800000000000    0.7178050000000000    0.9173300000000000 Al
   0.0391450000000000    0.6675000000000000    0.5223000000000000 Al
   0.2290250000000000    0.9678350000000000    0.6673150000000000 Al
   0.2891500000000000    0.6675000000000000    0.5223000000000000 Al
   0.0835900000000000    0.7755350000000000    0.5330500000000000 Al
   0.3335950000000000    0.7755350000000000    0.5330500000000000 Al
   0.0209050000000000    0.9172549999999999    0.5328650000000000 Al
   0.2709100000000000    0.9172549999999999    0.5328650000000000 Al
   0.0391100000000000    0.5223650000000000    0.5823500000000000 Al
   0.2891150000000000    0.5223650000000000    0.5823500000000000 Al
   0.0836800000000000    0.5330150000000000    0.9745250000000000 Al
   0.3336850000000000    0.5330150000000000    0.9745250000000000 Al
   0.0209050000000000    0.8327599999999999    0.7171250000000000 Al
   0.2709100000000000    0.8327599999999999    0.7171250000000000 Al
   0.0391050000000000    0.7276300000000000    0.6676500000000000 Al
   0.2891100000000000    0.7276300000000000    0.6676500000000000 Al
   0.0836750000000000    0.7169900000000000    0.7754799999999999 Al
   0.3336800000000000    0.7169900000000000    0.7754799999999999 Al
   0.9790300000000001    0.9678350000000000    0.6673150000000000 Al
   0.7108500000000000    0.9175050000000000    0.7722850000000000 Al
   0.9608550000000000    0.9175050000000000    0.7722850000000000 Al
   0.6664200000000000    0.5255350000000000    0.7830500000000000 Al
   0.9164200000000000    0.5255350000000000    0.7830500000000000 Al
   0.7290300000000001    0.7822000000000000    0.5826650000000000 Al
   0.9790300000000001    0.7822000000000000    0.5826650000000000 Al
   0.7108600000000000    0.8325050000000001    0.9776950000000000 Al
   0.9608650000000001    0.8325050000000001    0.9776950000000000 Al
   0.6664150000000000    0.7244699999999999    0.9669000000000000 Al
   0.9164150000000000    0.7244699999999999    0.9669000000000000 Al
   0.7291000000000000    0.5827500000000000    0.9671000000000001 Al
   0.9791050000000000    0.5827500000000000    0.9671000000000001 Al
   0.7108950000000001    0.9776400000000001    0.9176400000000000 Al
   0.9609000000000000    0.9776400000000001    0.9176400000000000 Al
   0.6663250000000001    0.9669900000000000    0.5254650000000000 Al
   0.9163300000000000    0.9669900000000000    0.5254650000000000 Al
   0.7291000000000000    0.6672450000000000    0.7828700000000000 Al
   0.9791050000000000    0.6672450000000000    0.7828700000000000 Al
   0.7109000000000000    0.7723750000000000    0.8323400000000001 Al
   0.9609050000000000    0.7723750000000000    0.8323400000000001 Al
   0.6663300000000000    0.7830150000000000    0.7245100000000000 Al
   0.9163300000000000    0.7830150000000000    0.7245100000000000 Al
   0.5209800000000000    0.5321700000000000    0.8326750000000001 Al
   0.7709850000000000    0.5321700000000000    0.8326750000000001 Al
   0.5391550000000001    0.5825000000000000    0.7277100000000000 Al
   0.7891600000000000    0.5825000000000000    0.7277100000000000 Al
   0.5835850000000000    0.9744699999999999    0.7169449999999999 Al
   0.8335900000000001    0.9744699999999999    0.7169449999999999 Al
   0.5209750000000000    0.7178050000000000    0.9173300000000000 Al
   0.7709800000000000    0.7178050000000000    0.9173300000000000 Al
   0.5391450000000000    0.6675000000000000    0.5223000000000000 Al
   0.7290250000000000    0.9678350000000000    0.6673150000000000 Al
   0.7891500000000000    0.6675000000000000    0.5223000000000000 Al
   0.5835900000000001    0.7755350000000000    0.5330500000000000 Al
   0.8335950000000000    0.7755350000000000    0.5330500000000000 Al
   0.5209050000000000    0.9172549999999999    0.5328650000000000 Al
   0.7709100000000000    0.9172549999999999    0.5328650000000000 Al
   0.5391100000000000    0.5223650000000000    0.5823500000000000 Al
   0.7891150000000000    0.5223650000000000    0.5823500000000000 Al
   0.5836800000000000    0.5330150000000000    0.9745250000000000 Al
   0.8336850000000000    0.5330150000000000    0.9745250000000000 Al
   0.5209050000000000    0.8327599999999999    0.7171250000000000 Al
   0.7709100000000000    0.8327599999999999    0.7171250000000000 Al
   0.5391049999999999    0.7276300000000000    0.6676500000000000 Al
   0.7891100000000000    0.7276300000000000    0.6676500000000000 Al
   0.5836749999999999    0.7169900000000000    0.7754799999999999 Al
   0.8336800000000000    0.7169900000000000    0.7754799999999999 Al
   0.1664500000000000    0.4665500000000000    0.2224450000000000 P
   0.4164550000000000    0.4665500000000000    0.2220000000000000 P
   0.2106850000000000    0.4757150000000000    0.3324850000000000 P
   0.2271450000000000    0.0823950000000000    0.2833200000000000 P
   0.4771500000000000    0.0823950000000000    0.2833200000000000 P
   0.1664600000000000    0.2834800000000000    0.0275450000000000 P
   0.4164650000000000    0.2834800000000000    0.0275450000000000 P
   0.2106750000000000    0.2742750000000000    0.4175050000000000 P
   0.2271400000000000    0.1675950000000000    0.4667000000000000 P
   0.4771450000000000    0.1675950000000000    0.4667000000000000 P
   0.1665100000000000    0.0275700000000000    0.4664600000000000 P
   0.4165150000000000    0.0275700000000000    0.4664600000000000 P
   0.2106600000000000    0.4174800000000000    0.4759250000000000 P
   0.4606650000000000    0.4174800000000000    0.4759250000000000 P
   0.2271650000000000    0.4671100000000000    0.0823150000000000 P
   0.4771650000000000    0.4671100000000000    0.0823150000000000 P
   0.1665100000000000    0.2224350000000000    0.2835050000000000 P
   0.4165150000000000    0.2224350000000000    0.2835050000000000 P
   0.2106650000000000    0.3325300000000000    0.2740600000000000 P
   0.4606650000000000    0.3325300000000000    0.2740600000000000 P
   0.4771700000000000    0.2829050000000000    0.1676650000000000 P
   0.0835550000000000    0.0334550000000000    0.2775450000000000 P
   0.3335600000000000    0.0334550000000000    0.2775450000000000 P
   0.0393250000000000    0.0242900000000000    0.1675100000000000 P
   0.2893250000000000    0.0242900000000000    0.1675100000000000 P
   0.0228600000000000    0.4176100000000000    0.2166700000000000 P
   0.2728650000000000    0.4176100000000000    0.2166700000000000 P
   0.0835450000000000    0.2165250000000000    0.4724500000000000 P
   0.3335500000000000    0.2165250000000000    0.4724500000000000 P
   0.0393300000000000    0.2257300000000000    0.0824850000000000 P
   0.2893350000000000    0.2257300000000000    0.0824850000000000 P
   0.0228650000000000    0.3324100000000000    0.0332950000000000 P
   0.2728700000000000    0.3324100000000000    0.0332950000000000 P
   0.0834950000000000    0.4724350000000000    0.0335350000000000 P
   0.3335000000000000    0.4724350000000000    0.0335350000000000 P
   0.0393450000000000    0.0825250000000000    0.0240700000000000 P
   0.2893500000000000    0.0825250000000000    0.0240700000000000 P
   0.0228450000000000    0.0328900000000000    0.4176500000000000 P
   0.2728450000000000    0.0328900000000000    0.4176500000000000 P
   0.0834950000000000    0.2775700000000000    0.2164500000000000 P
   0.3335000000000000    0.2775700000000000    0.2164500000000000 P
   0.0393400000000000    0.1674750000000000    0.2259300000000000 P
   0.2893450000000000    0.1674750000000000    0.2259300000000000 P
   0.0228400000000000    0.2170950000000000    0.3323250000000000 P
   0.2728450000000000    0.2170950000000000    0.3323250000000000 P
   0.6664500000000000    0.4665500000000000    0.2224450000000000 P
   0.9164550000000000    0.4665500000000000    0.2220000000000000 P