H3 C9 O6
1.0
  20.7519849518598534    0.0000000000000000    0.0249911540790863
   0.0911913597030649   20.6667231862828302    0.0559095472638920
   0.0000000000000000    0.0000000000000000   28.0859999999999985
H C O
3 9 6
direct
   0.4616100000000000    0.7639200000000000    0.8222650000000000 H
   0.5351700000000000    0.7649700000000000    0.6786850000000000 H
   0.5006900000000000    0.9447300000000000    0.7515849999999999 H
   0.4778800000000000    0.7907000000000000    0.7910699999999999 C
   0.4794400000000000    0.8584800000000000    0.7917200000000000 C
   0.4615100000000000    0.8949900000000000    0.8354600000000000 C
   0.5192900000000000    0.7913000000000000    0.7101550000000000 C
   0.5193000000000000    0.8590500000000000    0.7102999999999999 C
   0.5384900000000000    0.8963100000000001    0.6670950000000000 C
   0.4982900000000000    0.7573200000000000    0.7504250000000000 C
   0.4983900000000000    0.6848600000000000    0.7500599999999999 C
   0.4998100000000000    0.8921900000000000    0.7512350000000000 C
   0.4553000000000000    0.8650800000000000    0.8748000000000000 O
   0.4560200000000000    0.6562900000000000    0.7751800000000000 O
   0.4544800000000000   -0.0433000000000001    0.8330850000000001 O
   0.5442300000000000    0.8673100000000000    0.6274100000000000 O
   0.5411899999999999    0.6572600000000000    0.7245950000000000 O
   0.5470800000000000   -0.0425200000000000    0.6707500000000000 O
