Y96 H294 C855 O576
1.0
  35.0152377587538055    0.0000000000000000   -0.0125281898734082
  -0.0021711130776691   27.0311697927551897   -0.0025476277489206
   0.0000000000000000    0.0000000000000000   29.7979999999999983
Y H C O
96 294 855 576
direct
   0.1247700000000000    0.1667966666666666    0.7432300000000001 Y
   0.2498000000000000    0.1668200000000000    0.8965200000000000 Y
   0.8747700000000000    0.1667966666666666    0.7432300000000001 Y
   0.9998000000000000    0.1668200000000000    0.8965200000000000 Y
   0.3747700000000000    0.1667966666666666    0.7432300000000001 Y
   0.4998000000000000    0.1668200000000000    0.8965200000000000 Y
   0.6247700000000000    0.1667966666666666    0.7432300000000001 Y
   0.7498000000000000    0.1668200000000000    0.8965200000000000 Y
   0.1247700000000000    0.5001300000000000    0.7432300000000001 Y
   0.2498000000000000    0.5001533333333333    0.8965200000000000 Y
   0.8747700000000000    0.5001300000000000    0.7432300000000001 Y
   0.9998000000000000    0.5001533333333333    0.8965200000000000 Y
   0.3747700000000000    0.5001300000000000    0.7432300000000001 Y
   0.4998000000000000    0.5001533333333333    0.8965200000000000 Y
   0.6247700000000000    0.5001300000000000    0.7432300000000001 Y
   0.7498000000000000    0.5001533333333333    0.8965200000000000 Y
   0.0001500000000000    0.3334633333333333    0.9932350000000000 Y
   0.1251725000000000    0.3334766666666666    0.1465150000000000 Y
   0.7501500000000000    0.3334633333333333    0.9932350000000000 Y
   0.8751725000000000    0.3334766666666666    0.1465150000000000 Y
   0.5001500000000000    0.3334633333333333    0.9932350000000000 Y
   0.6251725000000000    0.3334766666666666    0.1465150000000000 Y
   0.2501500000000000    0.3334633333333333    0.9932350000000000 Y
   0.3751725000000000    0.3334766666666666    0.1465150000000000 Y
   0.7501500000000000    0.0001300000000000    0.9932350000000000 Y
   0.8751725000000000    0.0001433333333333    0.1465150000000000 Y
   0.5001500000000000    0.0001300000000000    0.9932350000000000 Y
   0.6251725000000000    0.0001433333333333    0.1465150000000000 Y
   0.0001500000000000    0.0001300000000000    0.9932350000000000 Y
   0.1251725000000000    0.0001433333333333    0.1465150000000000 Y
   0.2501500000000000    0.0001300000000000    0.9932350000000000 Y
   0.3751725000000000    0.0001433333333333    0.1465150000000000 Y
   0.1247700000000000    0.8334633333333332    0.7432300000000001 Y
   0.2498000000000000    0.8334866666666666    0.8965200000000000 Y
   0.7501500000000000    0.6667966666666666    0.9932350000000000 Y
   0.8751725000000000    0.6668100000000000    0.1465150000000000 Y
   0.8747700000000000    0.8334633333333332    0.7432300000000001 Y
   0.9998000000000000    0.8334866666666666    0.8965200000000000 Y
   0.0001500000000000    0.6667966666666666    0.9932350000000000 Y
   0.1251725000000000    0.6668100000000000    0.1465150000000000 Y
   0.5001500000000000    0.6667966666666666    0.9932350000000000 Y
   0.6251725000000000    0.6668100000000000    0.1465150000000000 Y
   0.2501500000000000    0.6667966666666666    0.9932350000000000 Y
   0.3751725000000000    0.6668100000000000    0.1465150000000000 Y
   0.3747700000000000    0.8334633333333332    0.7432300000000001 Y
   0.4998000000000000    0.8334866666666666    0.8965200000000000 Y
   0.6247700000000000    0.8334633333333332    0.7432300000000001 Y
   0.7498000000000000    0.8334866666666666    0.8965200000000000 Y
   0.0001500000000000    0.3334633333333333    0.4932350000000000 Y
   0.1251725000000000    0.3334766666666666    0.6465150000000000 Y
   0.7501500000000000    0.3334633333333333    0.4932350000000000 Y
   0.8751725000000000    0.3334766666666666    0.6465150000000000 Y
   0.5001500000000000    0.3334633333333333    0.4932350000000000 Y
   0.6251725000000000    0.3334766666666666    0.6465150000000000 Y
   0.2501500000000000    0.3334633333333333    0.4932350000000000 Y
   0.3751725000000000    0.3334766666666666    0.6465150000000000 Y
   0.7501500000000000    0.6667966666666666    0.4932350000000000 Y
   0.8751725000000000    0.6668100000000000    0.6465150000000000 Y
   0.0001500000000000    0.6667966666666666    0.4932350000000000 Y
   0.1251725000000000    0.6668100000000000    0.6465150000000000 Y
   0.5001500000000000    0.6667966666666666    0.4932350000000000 Y
   0.6251725000000000    0.6668100000000000    0.6465150000000000 Y
   0.2501500000000000    0.6667966666666666    0.4932350000000000 Y
   0.3751725000000000    0.6668100000000000    0.6465150000000000 Y
   0.7501500000000000    0.0001300000000000    0.4932350000000000 Y
   0.8751725000000000    0.0001433333333333    0.6465150000000000 Y
   0.0001500000000000    0.0001300000000000    0.4932350000000000 Y
   0.1251725000000000    0.0001433333333333    0.6465150000000000 Y
   0.5001500000000000    0.0001300000000000    0.4932350000000000 Y
   0.6251725000000000    0.0001433333333333    0.6465150000000000 Y
   0.2501500000000000    0.0001300000000000    0.4932350000000000 Y
   0.3751725000000000    0.0001433333333333    0.6465150000000000 Y
   0.6247700000000000    0.1667966666666666    0.2432300000000000 Y
   0.7498000000000000    0.1668200000000000    0.3965200000000000 Y
   0.3747700000000000    0.1667966666666666    0.2432300000000000 Y
   0.4998000000000000    0.1668200000000000    0.3965200000000000 Y
   0.1247700000000000    0.1667966666666666    0.2432300000000000 Y
   0.2498000000000000    0.1668200000000000    0.3965200000000000 Y
   0.8747700000000000    0.1667966666666666    0.2432300000000000 Y
   0.9998000000000000    0.1668200000000000    0.3965200000000000 Y
   0.8747700000000000    0.8334633333333332    0.2432300000000000 Y
   0.9998000000000000    0.8334866666666666    0.3965200000000000 Y
   0.6247700000000000    0.8334633333333332    0.2432300000000000 Y
   0.7498000000000000    0.8334866666666666    0.3965200000000000 Y
   0.1247700000000000    0.8334633333333332    0.2432300000000000 Y
   0.2498000000000000    0.8334866666666666    0.3965200000000000 Y
   0.3747700000000000    0.8334633333333332    0.2432300000000000 Y
   0.4998000000000000    0.8334866666666666    0.3965200000000000 Y
   0.6247700000000000    0.5001300000000000    0.2432300000000000 Y
   0.7498000000000000    0.5001533333333333    0.3965200000000000 Y
   0.3747700000000000    0.5001300000000000    0.2432300000000000 Y
   0.4998000000000000    0.5001533333333333    0.3965200000000000 Y
   0.1247700000000000    0.5001300000000000    0.2432300000000000 Y
   0.2498000000000000    0.5001533333333333    0.3965200000000000 Y
   0.8747700000000000    0.5001300000000000    0.2432300000000000 Y
   0.9998000000000000    0.5001533333333333    0.3965200000000000 Y
   0.9216954436346962    0.7765480995845294    0.7699549804502234 H
   0.9269495468043442    0.6636461370447675    0.7017749795312742 H
   0.9324307522233899    0.7144528571597423    0.7421311701694833 H
   0.1703650000000000    0.2838833333333333    0.7503250000000000 H
   0.1874350000000000    0.4216700000000000    0.8199950000000000 H
   0.2042500000000000    0.2837733333333333    0.8895200000000000 H
   0.0793475000000000    0.0498700000000000    0.7502850000000000 H
   0.0453600000000000    0.0497333333333333    0.8894200000000000 H
   0.0624275000000000    0.9119533333333333    0.8197550000000000 H
   0.9203650000000000    0.2838833333333333    0.7503250000000000 H
   0.9374350000000000    0.4216700000000000    0.8199950000000000 H
   0.9542500000000000    0.2837733333333333    0.8895200000000000 H
   0.8293475000000000    0.0498700000000000    0.7502850000000000 H
   0.7953600000000000    0.0497333333333333    0.8894200000000000 H
   0.8124275000000000    0.9119533333333333    0.8197550000000000 H
   0.4203650000000000    0.2838833333333333    0.7503250000000000 H
   0.4374350000000000    0.4216700000000000    0.8199950000000000 H
   0.4542500000000000    0.2837733333333333    0.8895200000000000 H
   0.3293475000000000    0.0498700000000000    0.7502850000000000 H
   0.2953600000000000    0.0497333333333333    0.8894200000000000 H
   0.3124275000000000    0.9119533333333333    0.8197550000000000 H
   0.6703650000000000    0.2838833333333333    0.7503250000000000 H
   0.6874350000000000    0.4216700000000000    0.8199950000000000 H
   0.7042500000000000    0.2837733333333333    0.8895200000000000 H
   0.5793475000000000    0.0498700000000000    0.7502850000000000 H
   0.5453600000000000    0.0497333333333333    0.8894200000000000 H
   0.5624275000000000    0.9119533333333333    0.8197550000000000 H
   0.1703650000000000    0.6172166666666666    0.7503250000000000 H
   0.1874350000000000    0.7550033333333332    0.8199950000000000 H
   0.2042500000000000    0.6171066666666667    0.8895200000000000 H
   0.0793475000000000    0.3832033333333333    0.7502850000000000 H
   0.0453600000000000    0.3830666666666667    0.8894200000000000 H
   0.0624275000000000    0.2452866666666667    0.8197550000000000 H
   0.9685818881258862    0.5633857794695731    0.8608527792451288 H
   0.9056716256576884    0.5634023046875143    0.7792282808329628 H
   0.9370375487622904    0.5977384045803955    0.8201261445397650 H
   0.8293475000000000    0.3832033333333333    0.7502850000000000 H
   0.7953600000000000    0.3830666666666667    0.8894200000000000 H
   0.8124275000000000    0.2452866666666667    0.8197550000000000 H
   0.4203650000000000    0.6172166666666666    0.7503250000000000 H
   0.4374350000000000    0.7550033333333332    0.8199950000000000 H
   0.4542500000000000    0.6171066666666667    0.8895200000000000 H
   0.3293475000000000    0.3832033333333333    0.7502850000000000 H
   0.2953600000000000    0.3830666666666667    0.8894200000000000 H
   0.3124275000000000    0.2452866666666667    0.8197550000000000 H
   0.6703650000000000    0.6172166666666666    0.7503250000000000 H
   0.6874350000000000    0.7550033333333332    0.8199950000000000 H
   0.7042500000000000    0.6171066666666667    0.8895200000000000 H
   0.5793475000000000    0.3832033333333333    0.7502850000000000 H
   0.5453600000000000    0.3830666666666667    0.8894200000000000 H
   0.5624275000000000    0.2452866666666667    0.8197550000000000 H
   0.0456325000000000    0.2165100000000000    0.0002450000000000 H
   0.0795300000000000    0.2163666666666667    0.1394350000000000 H
   0.0624825000000000    0.0785933333333333    0.0697450000000000 H
   0.2045750000000000    0.4505433333333333    0.0003200000000000 H
   0.1705900000000000    0.4504033333333333    0.1394550000000000 H
   0.1875100000000000    0.5883133333333332    0.0700000000000000 H
   0.7956325000000000    0.2165100000000000    0.0002450000000000 H
   0.8295300000000000    0.2163666666666667    0.1394350000000000 H
   0.8124825000000000    0.0785933333333333    0.0697450000000000 H
   0.9545750000000000    0.4505433333333333    0.0003200000000000 H
   0.9205900000000000    0.4504033333333333    0.1394550000000000 H
   0.9375100000000001    0.5883133333333332    0.0700000000000000 H
   0.5456325000000000    0.2165100000000000    0.0002450000000000 H
   0.5795300000000000    0.2163666666666667    0.1394350000000000 H
   0.5624825000000000    0.0785933333333333    0.0697450000000000 H
   0.7045750000000000    0.4505433333333333    0.0003200000000000 H
   0.6705900000000000    0.4504033333333333    0.1394550000000000 H
   0.6875100000000001    0.5883133333333332    0.0700000000000000 H
   0.2956325000000000    0.2165100000000000    0.0002450000000000 H
   0.3295300000000000    0.2163666666666667    0.1394350000000000 H
   0.3124825000000000    0.0785933333333333    0.0697450000000000 H
   0.4545750000000000    0.4505433333333333    0.0003200000000000 H
   0.4205900000000000    0.4504033333333333    0.1394550000000000 H
   0.4375100000000000    0.5883133333333332    0.0700000000000000 H
   0.7956325000000000    0.8831766666666666    0.0002450000000000 H
   0.8295300000000000    0.8830333333333333    0.1394350000000000 H
   0.8124825000000000    0.7452599999999999    0.0697450000000000 H
   0.9545750000000000    0.1172100000000000    0.0003200000000000 H
   0.9205900000000000    0.1170700000000000    0.1394550000000000 H
   0.9375100000000001    0.2549800000000000    0.0700000000000000 H
   0.5456325000000000    0.8831766666666666    0.0002450000000000 H
   0.5795300000000000    0.8830333333333333    0.1394350000000000 H
   0.5624825000000000    0.7452599999999999    0.0697450000000000 H
   0.7045750000000000    0.1172100000000000    0.0003200000000000 H
   0.6705900000000000    0.1170700000000000    0.1394550000000000 H
   0.6875100000000001    0.2549800000000000    0.0700000000000000 H
   0.0456325000000000    0.8831766666666666    0.0002450000000000 H
   0.0795300000000000    0.8830333333333333    0.1394350000000000 H
   0.0624825000000000    0.7452599999999999    0.0697450000000000 H
   0.2045750000000000    0.1172100000000000    0.0003200000000000 H
   0.1705900000000000    0.1170700000000000    0.1394550000000000 H
   0.1875100000000000    0.2549800000000000    0.0700000000000000 H
   0.2956325000000000    0.8831766666666666    0.0002450000000000 H
   0.3295300000000000    0.8830333333333333    0.1394350000000000 H
   0.3124825000000000    0.7452599999999999    0.0697450000000000 H
   0.4545750000000000    0.1172100000000000    0.0003200000000000 H
   0.4205900000000000    0.1170700000000000    0.1394550000000000 H
   0.4375100000000000    0.2549800000000000    0.0700000000000000 H
   0.1703650000000000    0.9505500000000000    0.7503250000000000 H
   0.1874350000000000    0.0883366666666667    0.8199950000000000 H
   0.2042500000000000    0.9504400000000000    0.8895200000000000 H
   0.0793475000000000    0.7165366666666666    0.7502850000000000 H
   0.0453600000000000    0.7163999999999999    0.8894200000000000 H
   0.0624275000000000    0.5786199999999999    0.8197550000000000 H
   0.7956325000000000    0.5498433333333334    0.0002450000000000 H
   0.8295300000000000    0.5497000000000000    0.1394350000000000 H
   0.8124825000000000    0.4119266666666667    0.0697450000000000 H
   0.9545750000000000    0.7838766666666667    0.0003200000000000 H
   0.9205900000000000    0.7837366666666666    0.1394550000000000 H
   0.9375100000000001    0.9216466666666666    0.0700000000000000 H
   0.9203650000000000    0.9505500000000000    0.7503250000000000 H
   0.9374350000000000    0.0883366666666667    0.8199950000000000 H
   0.9542500000000000    0.9504400000000000    0.8895200000000000 H
   0.8293475000000000    0.7165366666666666    0.7502850000000000 H
   0.7953600000000000    0.7163999999999999    0.8894200000000000 H
   0.8124275000000000    0.5786199999999999    0.8197550000000000 H
   0.0456325000000000    0.5498433333333334    0.0002450000000000 H
   0.0795300000000000    0.5497000000000000    0.1394350000000000 H
   0.0624825000000000    0.4119266666666667    0.0697450000000000 H
   0.9540455821725481    0.7923599295340319    0.8849035752833332 H
   0.9484967631424515    0.6712252703002826    0.9557834395200071 H
   0.9464964575772046    0.7325137781433871    0.9221198587827659 H
   0.2045750000000000    0.7838766666666667    0.0003200000000000 H
   0.1705900000000000    0.7837366666666666    0.1394550000000000 H
   0.1875100000000000    0.9216466666666666    0.0700000000000000 H
   0.5456325000000000    0.5498433333333334    0.0002450000000000 H
   0.5795300000000000    0.5497000000000000    0.1394350000000000 H
   0.5624825000000000    0.4119266666666667    0.0697450000000000 H
   0.7045750000000000    0.7838766666666667    0.0003200000000000 H
   0.6705900000000000    0.7837366666666666    0.1394550000000000 H
   0.6875100000000001    0.9216466666666666    0.0700000000000000 H
   0.2956325000000000    0.5498433333333334    0.0002450000000000 H
   0.3295300000000000    0.5497000000000000    0.1394350000000000 H
   0.3124825000000000    0.4119266666666667    0.0697450000000000 H
   0.4545750000000000    0.7838766666666667    0.0003200000000000 H
   0.4205900000000000    0.7837366666666666    0.1394550000000000 H
   0.4375100000000000    0.9216466666666666    0.0700000000000000 H
   0.4203650000000000    0.9505500000000000    0.7503250000000000 H
   0.4374350000000000    0.0883366666666667    0.8199950000000000 H
   0.4542500000000000    0.9504400000000000    0.8895200000000000 H
   0.3293475000000000    0.7165366666666666    0.7502850000000000 H
   0.2953600000000000    0.7163999999999999    0.8894200000000000 H
   0.3124275000000000    0.5786199999999999    0.8197550000000000 H
   0.6703650000000000    0.9505500000000000    0.7503250000000000 H
   0.6874350000000000    0.0883366666666667    0.8199950000000000 H
   0.7042500000000000    0.9504400000000000    0.8895200000000000 H
   0.5793475000000000    0.7165366666666666    0.7502850000000000 H
   0.5453600000000000    0.7163999999999999    0.8894200000000000 H
   0.5624275000000000    0.5786199999999999    0.8197550000000000 H
   0.0456325000000000    0.2165100000000000    0.5002450000000001 H
   0.0795300000000000    0.2163666666666667    0.6394350000000000 H
   0.0624825000000000    0.0785933333333333    0.5697449999999999 H
   0.2045750000000000    0.4505433333333333    0.5003200000000000 H
   0.1705900000000000    0.4504033333333333    0.6394550000000000 H
   0.1875100000000000    0.5883133333333332    0.5700000000000001 H
   0.7956325000000000    0.2165100000000000    0.5002450000000001 H
   0.8295300000000000    0.2163666666666667    0.6394350000000000 H
   0.8124825000000000    0.0785933333333333    0.5697449999999999 H
   0.9545750000000000    0.4505433333333333    0.5003200000000000 H
   0.9205900000000000    0.4504033333333333    0.6394550000000000 H
   0.9375100000000001    0.5883133333333332    0.5700000000000001 H
   0.5456325000000000    0.2165100000000000    0.5002450000000001 H
   0.5795300000000000    0.2163666666666667    0.6394350000000000 H
   0.5624825000000000    0.0785933333333333    0.5697449999999999 H
   0.7045750000000000    0.4505433333333333    0.5003200000000000 H
   0.6705900000000000    0.4504033333333333    0.6394550000000000 H
   0.6875100000000001    0.5883133333333332    0.5700000000000001 H
   0.2956325000000000    0.2165100000000000    0.5002450000000001 H
   0.3295300000000000    0.2163666666666667    0.6394350000000000 H
   0.3124825000000000    0.0785933333333333    0.5697449999999999 H
   0.4545750000000000    0.4505433333333333    0.5003200000000000 H
   0.4205900000000000    0.4504033333333333    0.6394550000000000 H
   0.4375100000000000    0.5883133333333332    0.5700000000000001 H
   0.7956325000000000    0.5498433333333334    0.5002450000000001 H
   0.8295300000000000    0.5497000000000000    0.6394350000000000 H
   0.8124825000000000    0.4119266666666667    0.5697449999999999 H
   0.9545750000000000    0.7838766666666667    0.5003200000000000 H
   0.9205900000000000    0.7837366666666666    0.6394550000000000 H
   0.9375100000000001    0.9216466666666666    0.5700000000000001 H
   0.0456325000000000    0.5498433333333334    0.5002450000000001 H
   0.0795300000000000    0.5497000000000000    0.6394350000000000 H
   0.0624825000000000    0.4119266666666667    0.5697449999999999 H
   0.2045750000000000    0.7838766666666667    0.5003200000000000 H
   0.1705900000000000    0.7837366666666666    0.6394550000000000 H
   0.1875100000000000    0.9216466666666666    0.5700000000000001 H
   0.5456325000000000    0.5498433333333334    0.5002450000000001 H
   0.5795300000000000    0.5497000000000000    0.6394350000000000 H
   0.5624825000000000    0.4119266666666667    0.5697449999999999 H
   0.7045750000000000    0.7838766666666667    0.5003200000000000 H
   0.6705900000000000    0.7837366666666666    0.6394550000000000 H
   0.6875100000000001    0.9216466666666666    0.5700000000000001 H
   0.2956325000000000    0.5498433333333334    0.5002450000000001 H
   0.3295300000000000    0.5497000000000000    0.6394350000000000 H
   0.3124825000000000    0.4119266666666667    0.5697449999999999 H
   0.4545750000000000    0.7838766666666667    0.5003200000000000 H
   0.4205900000000000    0.7837366666666666    0.6394550000000000 H
   0.4375100000000000    0.9216466666666666    0.5700000000000001 H
   0.7956325000000000    0.8831766666666666    0.5002450000000001 H
   0.8295300000000000    0.8830333333333333    0.6394350000000000 H
   0.8124825000000000    0.7452599999999999    0.5697449999999999 H
   0.9545750000000000    0.1172100000000000    0.5003200000000000 H
   0.9205900000000000    0.1170700000000000    0.6394550000000000 H
   0.9375100000000001    0.2549800000000000    0.5700000000000001 H
   0.0456325000000000    0.8831766666666666    0.5002450000000001 H
   0.0795300000000000    0.8830333333333333    0.6394350000000000 H
   0.0624825000000000    0.7452599999999999    0.5697449999999999 H
   0.2045750000000000    0.1172100000000000    0.5003200000000000 H
   0.1705900000000000    0.1170700000000000    0.6394550000000000 H
   0.1875100000000000    0.2549800000000000    0.5700000000000001 H
   0.5456325000000000    0.8831766666666666    0.5002450000000001 H
   0.5795300000000000    0.8830333333333333    0.6394350000000000 H
   0.5624825000000000    0.7452599999999999    0.5697449999999999 H
   0.7045750000000000    0.1172100000000000    0.5003200000000000 H
   0.6705900000000000    0.1170700000000000    0.6394550000000000 H
   0.6875100000000001    0.2549800000000000    0.5700000000000001 H
   0.2956325000000000    0.8831766666666666    0.5002450000000001 H
   0.3295300000000000    0.8830333333333333    0.6394350000000000 H
   0.3124825000000000    0.7452599999999999    0.5697449999999999 H
   0.4545750000000000    0.1172100000000000    0.5003200000000000 H
   0.4205900000000000    0.1170700000000000    0.6394550000000000 H
   0.4375100000000000    0.2549800000000000    0.5700000000000001 H
   0.6703650000000000    0.2838833333333333    0.2503250000000000 H
   0.6874350000000000    0.4216700000000000    0.3199950000000000 H
   0.7042500000000000    0.2837733333333333    0.3895200000000000 H
   0.5793475000000000    0.0498700000000000    0.2502850000000000 H
   0.5453600000000000    0.0497333333333333    0.3894200000000000 H
   0.5624275000000000    0.9119533333333333    0.3197550000000000 H
   0.4203650000000000    0.2838833333333333    0.2503250000000000 H
   0.4374350000000000    0.4216700000000000    0.3199950000000000 H
   0.4542500000000000    0.2837733333333333    0.3895200000000000 H
   0.3293475000000000    0.0498700000000000    0.2502850000000000 H
   0.2953600000000000    0.0497333333333333    0.3894200000000000 H
   0.3124275000000000    0.9119533333333333    0.3197550000000000 H
   0.1703650000000000    0.2838833333333333    0.2503250000000000 H
   0.1874350000000000    0.4216700000000000    0.3199950000000000 H
   0.2042500000000000    0.2837733333333333    0.3895200000000000 H
   0.0793475000000000    0.0498700000000000    0.2502850000000000 H
   0.0453600000000000    0.0497333333333333    0.3894200000000000 H
   0.0624275000000000    0.9119533333333333    0.3197550000000000 H
   0.9203650000000000    0.2838833333333333    0.2503250000000000 H
   0.9374350000000000    0.4216700000000000    0.3199950000000000 H
   0.9542500000000000    0.2837733333333333    0.3895200000000000 H
   0.8293475000000000    0.0498700000000000    0.2502850000000000 H
   0.7953600000000000    0.0497333333333333    0.3894200000000000 H
   0.8124275000000000    0.9119533333333333    0.3197550000000000 H
   0.9203650000000000    0.9505500000000000    0.2503250000000000 H
   0.9374350000000000    0.0883366666666667    0.3199950000000000 H
   0.9542500000000000    0.9504400000000000    0.3895200000000000 H
   0.8293475000000000    0.7165366666666666    0.2502850000000000 H
   0.7953600000000000    0.7163999999999999    0.3894200000000000 H
   0.8124275000000000    0.5786199999999999    0.3197550000000000 H
   0.6703650000000000    0.9505500000000000    0.2503250000000000 H
   0.6874350000000000    0.0883366666666667    0.3199950000000000 H
   0.7042500000000000    0.9504400000000000    0.3895200000000000 H
   0.5793475000000000    0.7165366666666666    0.2502850000000000 H
   0.5453600000000000    0.7163999999999999    0.3894200000000000 H
   0.5624275000000000    0.5786199999999999    0.3197550000000000 H
   0.1703650000000000    0.9505500000000000    0.2503250000000000 H
   0.1874350000000000    0.0883366666666667    0.3199950000000000 H
   0.2042500000000000    0.9504400000000000    0.3895200000000000 H
   0.0793475000000000    0.7165366666666666    0.2502850000000000 H
   0.0453600000000000    0.7163999999999999    0.3894200000000000 H
   0.0624275000000000    0.5786199999999999    0.3197550000000000 H
   0.4203650000000000    0.9505500000000000    0.2503250000000000 H
   0.4374350000000000    0.0883366666666667    0.3199950000000000 H
   0.4542500000000000    0.9504400000000000    0.3895200000000000 H
   0.3293475000000000    0.7165366666666666    0.2502850000000000 H
   0.2953600000000000    0.7163999999999999    0.3894200000000000 H
   0.3124275000000000    0.5786199999999999    0.3197550000000000 H
   0.6703650000000000    0.6172166666666666    0.2503250000000000 H
   0.6874350000000000    0.7550033333333332    0.3199950000000000 H
   0.7042500000000000    0.6171066666666667    0.3895200000000000 H
   0.5793475000000000    0.3832033333333333    0.2502850000000000 H
   0.5453600000000000    0.3830666666666667    0.3894200000000000 H
   0.5624275000000000    0.2452866666666667    0.3197550000000000 H
   0.4203650000000000    0.6172166666666666    0.2503250000000000 H
   0.4374350000000000    0.7550033333333332    0.3199950000000000 H
   0.4542500000000000    0.6171066666666667    0.3895200000000000 H
   0.3293475000000000    0.3832033333333333    0.2502850000000000 H
   0.2953600000000000    0.3830666666666667    0.3894200000000000 H
   0.3124275000000000    0.2452866666666667    0.3197550000000000 H
   0.1703650000000000    0.6172166666666666    0.2503250000000000 H
   0.1874350000000000    0.7550033333333332    0.3199950000000000 H
   0.2042500000000000    0.6171066666666667    0.3895200000000000 H
   0.0793475000000000    0.3832033333333333    0.2502850000000000 H
   0.0453600000000000    0.3830666666666667    0.3894200000000000 H
   0.0624275000000000    0.2452866666666667    0.3197550000000000 H
   0.9203650000000000    0.6172166666666666    0.2503250000000000 H
   0.9374350000000000    0.7550033333333332    0.3199950000000000 H
   0.9542500000000000    0.6171066666666667    0.3895200000000000 H
   0.8293475000000000    0.3832033333333333    0.2502850000000000 H
   0.7953600000000000    0.3830666666666667    0.3894200000000000 H
   0.8124275000000000    0.2452866666666667    0.3197550000000000 H
   0.1872200000000000    0.2222633333333333    0.8199449999999999 C
   0.1651725000000000    0.3837066666666666    0.7400249999999999 C
   0.2097000000000000    0.3834566666666667    0.8999550000000001 C
   0.1775950000000000    0.3038300000000000    0.7809250000000000 C
   0.1873975000000000    0.3813933333333333    0.8199799999999999 C
   0.1993475000000000    0.3068300000000000    0.8589400000000000 C
   0.1973850000000000    0.3555800000000000    0.8589650000000000 C
   0.1773900000000000    0.3556500000000000    0.7809550000000001 C
   0.1872950000000000    0.2777400000000000    0.8199250000000000 C
   0.0622725000000000    0.1113833333333333    0.8198500000000000 C
   0.0847650000000000    0.9501900000000000    0.7398350000000000 C
   0.0401700000000000    0.9499333333333333    0.8997100000000000 C
   0.0721200000000000    0.0298766666666667    0.7808500000000000 C
   0.0526100000000000    0.0297966666666667    0.8588249999999999 C
   0.0624150000000000    0.9522299999999999    0.8197749999999999 C
   0.0724200000000000    0.9780533333333332    0.7808100000000000 C
   0.0523825000000000    0.9779766666666666    0.8587850000000000 C
   0.0623250000000000    0.0559033333333333    0.8198449999999999 C
   0.9372199999999999    0.2222633333333333    0.8199449999999999 C
   0.9151724999999999    0.3837066666666666    0.7400249999999999 C
   0.9597000000000000    0.3834566666666667    0.8999550000000001 C
   0.9275949999999999    0.3038300000000000    0.7809250000000000 C
   0.9373975000000000    0.3813933333333333    0.8199799999999999 C
   0.9493475000000000    0.3068300000000000    0.8589400000000000 C
   0.9473850000000000    0.3555800000000000    0.8589650000000000 C
   0.9273899999999999    0.3556500000000000    0.7809550000000001 C
   0.9372950000000000    0.2777400000000000    0.8199250000000000 C
   0.8122725000000000    0.1113833333333333    0.8198500000000000 C
   0.8347650000000000    0.9501900000000000    0.7398350000000000 C
   0.7901700000000000    0.9499333333333333    0.8997100000000000 C
   0.8221200000000000    0.0298766666666667    0.7808500000000000 C
   0.8026100000000000    0.0297966666666667    0.8588249999999999 C
   0.8124150000000000    0.9522299999999999    0.8197749999999999 C
   0.8224200000000000    0.9780533333333332    0.7808100000000000 C
   0.8023825000000000    0.9779766666666666    0.8587850000000000 C
   0.8123250000000000    0.0559033333333333    0.8198449999999999 C
   0.4372200000000000    0.2222633333333333    0.8199449999999999 C
   0.4151725000000000    0.3837066666666666    0.7400249999999999 C
   0.4597000000000000    0.3834566666666667    0.8999550000000001 C
   0.4275950000000000    0.3038300000000000    0.7809250000000000 C
   0.4373975000000000    0.3813933333333333    0.8199799999999999 C
   0.4493475000000000    0.3068300000000000    0.8589400000000000 C
   0.4473850000000000    0.3555800000000000    0.8589650000000000 C
   0.4273900000000000    0.3556500000000000    0.7809550000000001 C
   0.4372950000000000    0.2777400000000000    0.8199250000000000 C
   0.3122725000000000    0.1113833333333333    0.8198500000000000 C
   0.3347650000000000    0.9501900000000000    0.7398350000000000 C