H2 O2
1.0
  17.5549999973262203    0.0000000000000000    0.0003063925501723
  -0.7965054319384351   17.5269108543659975    0.0000000000000011
   0.0000000000000000    0.0000000000000000   31.8260000000000005
H O
2 2
direct
   0.5213899913176056    0.7527141608867207    0.3588704657174543 H
   0.4495590150537219    0.8278653011461470    0.3745499487297601 H
   0.5518200000000000    0.7969000000000001    0.3692350000000000 O
   0.5003700000000000    0.8506700000000000    0.3803650000000000 O
