H2 C2 N3
1.0
  17.5549999973262203    0.0000000000000000    0.0003063925501723
  -0.7965054319384351   17.5269108543659975    0.0000000000000011
   0.0000000000000000    0.0000000000000000   31.8260000000000005
H C N
2 2 3
direct
   0.3786800000000000    0.8476800000000000    0.3787600000000000 H
   0.5344700000000000    0.6846100000000001    0.3440100000000000 H
   0.4312100000000000    0.8196300000000000    0.3724500000000000 C
   0.5103200000000000    0.7366400000000000    0.3551000000000000 C
   0.5003700000000000    0.8506700000000000    0.3803650000000000 N
   0.5518200000000000    0.7969000000000001    0.3692350000000000 N
   0.4345400000000000    0.7483000000000000    0.3566500000000000 N
