K160 H800 C948 N158 O480
1.0
  39.4932743186763702    0.0000000000000000   -2.2089157045431271
  -0.0011572334745524   32.4659999769525314   -0.0003966470164517
   0.0000000000000000    0.0000000000000000   26.6392999999999986
K H C N O
160 800 948 158 480
direct
   0.0333460000000000    0.8066400000000000    0.2755200000000000 K
   0.0333460000000000    0.0566400000000000    0.2755200000000000 K
   0.0333460000000000    0.5566400000000000    0.2755200000000000 K
   0.0333460000000000    0.3066400000000000    0.2755200000000000 K
   0.8666120000000000    0.1936850000000000    0.7243500000000000 K
   0.8666120000000000    0.4436850000000000    0.7243500000000000 K
   0.8666120000000000    0.6936850000000000    0.7243500000000000 K
   0.8666120000000000    0.9436850000000000    0.7243500000000000 K
   0.8833440000000000    0.5683600000000000    0.7755300000000001 K
   0.8833440000000000    0.8183600000000000    0.7755300000000001 K
   0.8833440000000000    0.0683600000000000    0.7755300000000001 K
   0.8833440000000000    0.3183600000000000    0.7755300000000001 K
   0.7166120000000000    0.1813125000000000    0.2243500000000000 K
   0.7166120000000000    0.6813125000000000    0.2243500000000000 K
   0.7166120000000000    0.4313125000000000    0.2243500000000000 K
   0.7166120000000000    0.9313125000000000    0.2243500000000000 K
   0.7333460000000001    0.5566400000000000    0.2755200000000000 K
   0.7333460000000001    0.8066400000000000    0.2755200000000000 K
   0.7333460000000001    0.3066400000000000    0.2755200000000000 K
   0.7333460000000001    0.0566400000000000    0.2755200000000000 K
   0.5666120000000000    0.1936850000000000    0.7243500000000000 K
   0.5666120000000000    0.4436850000000000    0.7243500000000000 K
   0.5666120000000000    0.9436850000000000    0.7243500000000000 K
   0.5666120000000000    0.6936850000000000    0.7243500000000000 K
   0.5833440000000000    0.5683600000000000    0.7755300000000001 K
   0.5833440000000000    0.8183600000000000    0.7755300000000001 K
   0.5833440000000000    0.0683600000000000    0.7755300000000001 K
   0.5833440000000000    0.3183600000000000    0.7755300000000001 K
   0.4166120000000000    0.1813125000000000    0.2243500000000000 K
   0.4166120000000000    0.6813125000000000    0.2243500000000000 K
   0.4166120000000000    0.4313125000000000    0.2243500000000000 K
   0.4166120000000000    0.9313125000000000    0.2243500000000000 K
   0.4333460000000000    0.0566400000000000    0.2755200000000000 K
   0.4333460000000000    0.5566400000000000    0.2755200000000000 K
   0.4333460000000000    0.8066400000000000    0.2755200000000000 K
   0.4333460000000000    0.3066400000000000    0.2755200000000000 K
   0.2666120000000000    0.1936850000000000    0.7243500000000000 K
   0.2666120000000000    0.4436850000000000    0.7243500000000000 K
   0.2666120000000000    0.6936850000000000    0.7243500000000000 K
   0.2666120000000000    0.9436850000000000    0.7243500000000000 K
   0.2833440000000000    0.5683600000000000    0.7755300000000001 K
   0.2833440000000000    0.8183600000000000    0.7755300000000001 K
   0.2833440000000000    0.0683600000000000    0.7755300000000001 K
   0.2833440000000000    0.3183600000000000    0.7755300000000001 K
   0.1166120000000000    0.4313125000000000    0.2243500000000000 K
   0.1166120000000000    0.1813125000000000    0.2243500000000000 K
   0.1166120000000000    0.6813125000000000    0.2243500000000000 K
   0.1166120000000000    0.9313125000000000    0.2243500000000000 K
   0.6333460000000001    0.5566400000000000    0.2755200000000000 K
   0.6333460000000001    0.8066400000000000    0.2755200000000000 K
   0.6333460000000001    0.3066400000000000    0.2755200000000000 K
   0.6333460000000001    0.0566400000000000    0.2755200000000000 K
   0.4666120000000000    0.1936850000000000    0.7243500000000000 K
   0.4666120000000000    0.4436850000000000    0.7243500000000000 K
   0.4666120000000000    0.9436850000000000    0.7243500000000000 K
   0.4666120000000000    0.6936850000000000    0.7243500000000000 K
   0.4833440000000000    0.5683600000000000    0.7755300000000001 K
   0.4833440000000000    0.8183600000000000    0.7755300000000001 K
   0.4833440000000000    0.0683600000000000    0.7755300000000001 K
   0.4833440000000000    0.3183600000000000    0.7755300000000001 K
   0.3166120000000001    0.4313125000000000    0.2243500000000000 K
   0.3166120000000001    0.6813125000000000    0.2243500000000000 K
   0.3166120000000001    0.1813125000000000    0.2243500000000000 K
   0.3166120000000001    0.9313125000000000    0.2243500000000000 K
   0.5333460000000000    0.5566400000000000    0.2755200000000000 K
   0.5333460000000000    0.8066400000000000    0.2755200000000000 K
   0.5333460000000000    0.3066400000000000    0.2755200000000000 K
   0.5333460000000000    0.0566400000000000    0.2755200000000000 K
   0.3666120000000000    0.4436850000000000    0.7243500000000000 K
   0.3666120000000000    0.9436850000000000    0.7243500000000000 K
   0.3666120000000000    0.1936850000000000    0.7243500000000000 K
   0.3666120000000000    0.6936850000000000    0.7243500000000000 K
   0.3833440000000000    0.5683600000000000    0.7755300000000001 K
   0.3833440000000000    0.8183600000000000    0.7755300000000001 K
   0.3833440000000000    0.0683600000000000    0.7755300000000001 K
   0.3833440000000000    0.3183600000000000    0.7755300000000001 K
   0.2166120000000000    0.4313125000000000    0.2243500000000000 K
   0.2166120000000000    0.6813125000000000    0.2243500000000000 K
   0.2166120000000000    0.1813125000000000    0.2243500000000000 K
   0.2166120000000000    0.9313125000000000    0.2243500000000000 K
   0.8333460000000000    0.3066400000000000    0.2755200000000000 K
   0.8333460000000000    0.5566400000000000    0.2755200000000000 K
   0.8333460000000000    0.8066400000000000    0.2755200000000000 K
   0.8333460000000000    0.0566400000000000    0.2755200000000000 K
   0.6666120000000001    0.1936850000000000    0.7243500000000000 K
   0.6666120000000001    0.4436850000000000    0.7243500000000000 K
   0.6666120000000001    0.9436850000000000    0.7243500000000000 K
   0.6666120000000001    0.6936850000000000    0.7243500000000000 K
   0.6833440000000001    0.5683600000000000    0.7755300000000001 K
   0.6833440000000001    0.8183600000000000    0.7755300000000001 K
   0.6833440000000001    0.0683600000000000    0.7755300000000001 K
   0.6833440000000001    0.3183600000000000    0.7755300000000001 K
   0.5166120000000000    0.1813125000000000    0.2243500000000000 K
   0.5166120000000000    0.6813125000000000    0.2243500000000000 K
   0.5166120000000000    0.4313125000000000    0.2243500000000000 K
   0.5166120000000000    0.9313125000000000    0.2243500000000000 K
   0.9333460000000000    0.5566400000000000    0.2755200000000000 K
   0.9333460000000000    0.8066400000000000    0.2755200000000000 K
   0.9333460000000000    0.3066400000000000    0.2755200000000000 K
   0.9333460000000000    0.0566400000000000    0.2755200000000000 K
   0.7666120000000001    0.1936850000000000    0.7243500000000000 K
   0.7666120000000001    0.6936850000000000    0.7243500000000000 K
   0.7666120000000001    0.9436850000000000    0.7243500000000000 K
   0.7666120000000001    0.4436850000000000    0.7243500000000000 K
   0.7833440000000000    0.5683600000000000    0.7755300000000001 K
   0.7833440000000000    0.8183600000000000    0.7755300000000001 K
   0.7833440000000000    0.0683600000000000    0.7755300000000001 K
   0.7833440000000000    0.3183600000000000    0.7755300000000001 K
   0.6166120000000000    0.1813125000000000    0.2243500000000000 K
   0.6166120000000000    0.6813125000000000    0.2243500000000000 K
   0.6166120000000000    0.4313125000000000    0.2243500000000000 K
   0.6166120000000000    0.9313125000000000    0.2243500000000000 K
   0.2333460000000000    0.8066400000000000    0.2755200000000000 K
   0.2333460000000000    0.3066400000000000    0.2755200000000000 K
   0.2333460000000000    0.5566400000000000    0.2755200000000000 K
   0.2333460000000000    0.0566400000000000    0.2755200000000000 K
   0.0666120000000000    0.1936850000000000    0.7243500000000000 K
   0.0666120000000000    0.6936850000000000    0.7243500000000000 K
   0.0666120000000000    0.4436850000000000    0.7243500000000000 K
   0.0666120000000000    0.9436850000000000    0.7243500000000000 K
   0.1333460000000000    0.5566400000000000    0.2755200000000000 K
   0.1333460000000000    0.8066400000000000    0.2755200000000000 K
   0.1333460000000000    0.0566400000000000    0.2755200000000000 K
   0.1333460000000000    0.3066400000000000    0.2755200000000000 K
   0.9666120000000000    0.1936850000000000    0.7243500000000000 K
   0.9666120000000000    0.9436850000000000    0.7243500000000000 K
   0.9666120000000000    0.4436850000000000    0.7243500000000000 K
   0.9666120000000000    0.6936850000000000    0.7243500000000000 K
   0.3333460000000000    0.8066400000000000    0.2755200000000000 K
   0.3333460000000000    0.0566400000000000    0.2755200000000000 K
   0.3333460000000000    0.3066400000000000    0.2755200000000000 K
   0.3333460000000000    0.5566400000000000    0.2755200000000000 K
   0.1666120000000000    0.1936850000000000    0.7243500000000000 K
   0.1666120000000000    0.6936850000000000    0.7243500000000000 K
   0.1666120000000000    0.4436850000000000    0.7243500000000000 K
   0.1666120000000000    0.9436850000000000    0.7243500000000000 K
   0.0833440000000000    0.8183600000000000    0.7755300000000001 K
   0.9166120000000000    0.6813125000000000    0.2243500000000000 K
   0.0166120000000000    0.6813125000000000    0.2243500000000000 K
   0.0833440000000000    0.5683600000000000    0.7755300000000001 K
   0.0833440000000000    0.0683600000000000    0.7755300000000001 K
   0.0833440000000000    0.3183600000000000    0.7755300000000001 K
   0.9833440000000000    0.8183600000000000    0.7755300000000001 K
   0.9833440000000000    0.5683600000000000    0.7755300000000001 K
   0.9833440000000000    0.0683600000000000    0.7755300000000001 K
   0.9833440000000000    0.3183600000000000    0.7755300000000001 K
   0.8166120000000000    0.4313125000000000    0.2243500000000000 K
   0.9166120000000000    0.4313125000000000    0.2243500000000000 K
   0.1833440000000000    0.5683600000000000    0.7755300000000001 K
   0.1833440000000000    0.8183600000000000    0.7755300000000001 K
   0.1833440000000000    0.3183600000000000    0.7755300000000001 K
   0.1833440000000000    0.0683600000000000    0.7755300000000001 K
   0.0166120000000000    0.4313125000000000    0.2243500000000000 K
   0.0166120000000000    0.1813125000000000    0.2243500000000000 K
   0.0166120000000000    0.9313125000000000    0.2243500000000000 K
   0.8166120000000000    0.1813125000000000    0.2243500000000000 K
   0.8166120000000000    0.6813125000000000    0.2243500000000000 K
   0.9166120000000000    0.1813125000000000    0.2243500000000000 K
   0.8166120000000000    0.9313125000000000    0.2243500000000000 K
   0.9166120000000000    0.9313125000000000    0.2243500000000000 K
   0.9860100000000001    0.5106250000000000    0.3676100000000000 H
   0.9796080000000000    0.4809300000000000    0.3218600000000000 H
   0.9132600000000001    0.2393375000000000    0.6321800000000000 H
   0.9198140000000000    0.2691250000000000    0.6778200000000000 H
   0.9921970000000000    0.3338325000000000    0.3823900000000000 H
   0.9414790000000001    0.4505525000000000    0.3803000000000000 H
   0.9292870000000000    0.4385375000000000    0.4716100000000000 H
   0.9082650000000000    0.4162950000000000    0.6176400000000000 H
   0.9581790000000000    0.2990650000000000    0.6192600000000000 H
   0.9711010000000000    0.3116225000000000    0.5284600000000000 H
   0.9860100000000001    0.7606250000000000    0.3676100000000000 H
   0.9796080000000000    0.7309300000000000    0.3218600000000000 H
   0.9132600000000001    0.4893375000000000    0.6321800000000000 H
   0.9198140000000000    0.5191249999999999    0.6778200000000000 H
   0.9921970000000000    0.5838325000000000    0.3823900000000000 H
   0.9414790000000001    0.7005525000000000    0.3803000000000000 H
   0.9292870000000000    0.6885375000000000    0.4716100000000000 H
   0.9082650000000000    0.6662950000000000    0.6176400000000000 H
   0.9581790000000000    0.5490650000000000    0.6192600000000000 H
   0.9711010000000000    0.5616225000000000    0.5284600000000000 H
   0.9860100000000001    0.0106250000000000    0.3676100000000000 H
   0.9796080000000000    0.9809300000000000    0.3218600000000000 H
   0.9132600000000001    0.7393375000000000    0.6321800000000000 H
   0.9198140000000000    0.7691249999999999    0.6778200000000000 H
   0.9921970000000000    0.8338325000000000    0.3823900000000000 H
   0.9414790000000001    0.9505525000000000    0.3803000000000000 H
   0.9292870000000000    0.9385375000000000    0.4716100000000000 H
   0.9082650000000000    0.9162950000000000    0.6176400000000000 H
   0.9581790000000000    0.7990650000000000    0.6192600000000000 H
   0.9711010000000000    0.8116225000000000    0.5284600000000000 H
   0.9860100000000001    0.2606250000000000    0.3676100000000000 H
   0.9796080000000000    0.2309300000000000    0.3218600000000000 H
   0.9132600000000001    0.9893375000000000    0.6321800000000000 H
   0.9198140000000000    0.0191250000000000    0.6778200000000000 H
   0.9921970000000000    0.0838325000000000    0.3823900000000000 H
   0.9414790000000001    0.2005525000000000    0.3803000000000000 H
   0.9292870000000000    0.1885375000000000    0.4716100000000000 H
   0.9082650000000000    0.1662950000000000    0.6176400000000000 H
   0.9581790000000000    0.0490650000000000    0.6192600000000000 H
   0.9711010000000000    0.0616225000000000    0.5284600000000000 H
   0.8360000000000001    0.6143825000000001    0.8676199999999999 H
   0.8296060000000001    0.6440800000000000    0.8218600000000000 H
   0.7632610000000001    0.8856700000000000    0.1321700000000000 H
   0.7698160000000001    0.8558725000000000    0.1778100000000000 H
   0.7582610000000001    0.7087125000000000    0.1176300000000000 H
   0.8081900000000001    0.8259275000000000    0.1192600000000000 H
   0.8211080000000001    0.8133450000000000    0.0284500000000000 H
   0.8421960000000001    0.7911550000000001    0.8824100000000000 H
   0.7914670000000000    0.6744500000000000    0.8802800000000000 H
   0.7792710000000000    0.6864725000000000    0.9716100000000000 H
   0.8360000000000001    0.8643825000000001    0.8676199999999999 H
   0.8296060000000001    0.8940800000000000    0.8218600000000000 H
   0.7632610000000001    0.1356700000000000    0.1321700000000000 H
   0.7698160000000001    0.1058725000000000    0.1778100000000000 H
   0.7582610000000001    0.9587125000000000    0.1176300000000000 H
   0.8081900000000001    0.0759275000000000    0.1192600000000000 H
   0.8211080000000001    0.0633450000000000    0.0284500000000000 H
   0.8421960000000001    0.0411550000000000    0.8824100000000000 H
   0.7914670000000000    0.9244500000000000    0.8802800000000000 H
   0.7792710000000000    0.9364725000000000    0.9716100000000000 H
   0.8360000000000001    0.1143825000000000    0.8676199999999999 H
   0.8296060000000001    0.1440800000000000    0.8218600000000000 H
   0.7632610000000001    0.3856700000000000    0.1321700000000000 H
   0.7698160000000001    0.3558725000000000    0.1778100000000000 H
   0.7582610000000001    0.2087125000000000    0.1176300000000000 H
   0.8081900000000001    0.3259275000000000    0.1192600000000000 H
   0.8211080000000001    0.3133450000000000    0.0284500000000000 H
   0.8421960000000001    0.2911550000000000    0.8824100000000000 H
   0.7914670000000000    0.1744500000000000    0.8802800000000000 H
   0.7792710000000000    0.1864725000000000    0.9716100000000000 H
   0.8360000000000001    0.3643825000000000    0.8676199999999999 H
   0.8296060000000001    0.3940800000000000    0.8218600000000000 H
   0.7632610000000001    0.6356700000000000    0.1321700000000000 H
   0.7698160000000001    0.6058725000000000    0.1778100000000000 H
   0.7582610000000001    0.4587125000000000    0.1176300000000000 H
   0.8081900000000001    0.5759275000000000    0.1192600000000000 H
   0.8211080000000001    0.5633450000000000    0.0284500000000000 H
   0.8421960000000001    0.5411550000000001    0.8824100000000000 H
   0.7914670000000000    0.4244500000000000    0.8802800000000000 H
   0.7792710000000000    0.4364725000000000    0.9716100000000000 H
   0.6860100000000001    0.5106250000000000    0.3676100000000000 H
   0.6796080000000001    0.4809300000000000    0.3218600000000000 H
   0.6132600000000001    0.2393375000000000    0.6321800000000000 H
   0.6198140000000001    0.2691250000000000    0.6778200000000000 H
   0.6921970000000001    0.3338325000000000    0.3823900000000000 H
   0.6414790000000001    0.4505525000000000    0.3803000000000000 H
   0.6292870000000000    0.4385375000000000    0.4716100000000000 H
   0.6082650000000001    0.4162950000000000    0.6176400000000000 H
   0.6581790000000001    0.2990650000000000    0.6192600000000000 H
   0.6711010000000001    0.3116225000000000    0.5284600000000000 H
   0.6860100000000001    0.7606250000000000    0.3676100000000000 H
   0.6796080000000001    0.7309300000000000    0.3218600000000000 H
   0.6132600000000001    0.4893375000000000    0.6321800000000000 H
   0.6198140000000001    0.5191249999999999    0.6778200000000000 H
   0.6921970000000001    0.5838325000000000    0.3823900000000000 H
   0.6414790000000001    0.7005525000000000    0.3803000000000000 H
   0.6292870000000000    0.6885375000000000    0.4716100000000000 H
   0.6082650000000001    0.6662950000000000    0.6176400000000000 H
   0.6581790000000001    0.5490650000000000    0.6192600000000000 H
   0.6711010000000001    0.5616225000000000    0.5284600000000000 H
   0.6860100000000001    0.0106250000000000    0.3676100000000000 H
   0.6796080000000001    0.9809300000000000    0.3218600000000000 H
   0.6132600000000001    0.7393375000000000    0.6321800000000000 H
   0.6198140000000001    0.7691249999999999    0.6778200000000000 H
   0.6921970000000001    0.8338325000000000    0.3823900000000000 H
   0.6414790000000001    0.9505525000000000    0.3803000000000000 H
   0.6292870000000000    0.9385375000000000    0.4716100000000000 H
   0.6082650000000001    0.9162950000000000    0.6176400000000000 H
   0.6581790000000001    0.7990650000000000    0.6192600000000000 H
   0.6711010000000001    0.8116225000000000    0.5284600000000000 H
   0.6860100000000001    0.2606250000000000    0.3676100000000000 H
   0.6796080000000001    0.2309300000000000    0.3218600000000000 H
   0.6132600000000001    0.9893375000000000    0.6321800000000000 H
   0.6198140000000001    0.0191250000000000    0.6778200000000000 H
   0.6921970000000001    0.0838325000000000    0.3823900000000000 H
   0.6414790000000001    0.2005525000000000    0.3803000000000000 H
   0.6292870000000000    0.1885375000000000    0.4716100000000000 H
   0.6082650000000001    0.1662950000000000    0.6176400000000000 H
   0.6581790000000001    0.0490650000000000    0.6192600000000000 H
   0.6711010000000001    0.0616225000000000    0.5284600000000000 H
   0.5360000000000000    0.6143825000000001    0.8676199999999999 H
   0.5296060000000000    0.6440800000000000    0.8218600000000000 H
   0.4632610000000000    0.8856700000000000    0.1321700000000000 H
   0.4698160000000000    0.8558725000000000    0.1778100000000000 H
   0.4582610000000000    0.7087125000000000    0.1176300000000000 H
   0.5081900000000000    0.8259275000000000    0.1192600000000000 H
   0.5211080000000000    0.8133450000000000    0.0284500000000000 H
   0.5421960000000000    0.7911550000000001    0.8824100000000000 H
   0.4914670000000000    0.6744500000000000    0.8802800000000000 H
   0.4792710000000000    0.6864725000000000    0.9716100000000000 H
   0.5360000000000000    0.8643825000000001    0.8676199999999999 H
   0.5296060000000000    0.8940800000000000    0.8218600000000000 H
   0.4632610000000000    0.1356700000000000    0.1321700000000000 H
   0.4698160000000000    0.1058725000000000    0.1778100000000000 H
   0.4582610000000000    0.9587125000000000    0.1176300000000000 H
   0.5081900000000000    0.0759275000000000    0.1192600000000000 H
   0.5211080000000000    0.0633450000000000    0.0284500000000000 H
   0.5421960000000000    0.0411550000000000    0.8824100000000000 H
   0.4914670000000000    0.9244500000000000    0.8802800000000000 H
   0.4792710000000000    0.9364725000000000    0.9716100000000000 H
   0.5360000000000000    0.1143825000000000    0.8676199999999999 H
   0.5296060000000000    0.1440800000000000    0.8218600000000000 H
   0.4632610000000000    0.3856700000000000    0.1321700000000000 H
   0.4698160000000000    0.3558725000000000    0.1778100000000000 H
   0.4582610000000000    0.2087125000000000    0.1176300000000000 H
   0.5081900000000000    0.3259275000000000    0.1192600000000000 H
   0.5211080000000000    0.3133450000000000    0.0284500000000000 H
   0.5421960000000000    0.2911550000000000    0.8824100000000000 H
   0.4914670000000000    0.1744500000000000    0.8802800000000000 H
   0.4792710000000000    0.1864725000000000    0.9716100000000000 H
   0.5360000000000000    0.3643825000000000    0.8676199999999999 H
   0.5296060000000000    0.3940800000000000    0.8218600000000000 H
   0.4632610000000000    0.6356700000000000    0.1321700000000000 H
   0.4698160000000000    0.6058725000000000    0.1778100000000000 H
   0.4582610000000000    0.4587125000000000    0.1176300000000000 H
   0.5081900000000000    0.5759275000000000    0.1192600000000000 H
   0.5211080000000000    0.5633450000000000    0.0284500000000000 H
   0.5421960000000000    0.5411550000000001    0.8824100000000000 H
   0.4914670000000000    0.4244500000000000    0.8802800000000000 H
   0.4792710000000000    0.4364725000000000    0.9716100000000000 H
   0.3860100000000001    0.5106250000000000    0.3676100000000000 H
   0.3796080000000001    0.4809300000000000    0.3218600000000000 H
   0.3132600000000000    0.2393375000000000    0.6321800000000000 H
   0.3198140000000000    0.2691250000000000    0.6778200000000000 H
   0.3921970000000000    0.3338325000000000    0.3823900000000000 H
   0.3414790000000000    0.4505525000000000    0.3803000000000000 H
   0.3292870000000001    0.4385375000000000    0.4716100000000000 H
   0.3082650000000001    0.4162950000000000    0.6176400000000000 H
   0.3581790000000000    0.2990650000000000    0.6192600000000000 H
   0.3711010000000001    0.3116225000000000    0.5284600000000000 H
   0.3860100000000001    0.7606250000000000    0.3676100000000000 H
   0.3796080000000001    0.7309300000000000    0.3218600000000000 H
   0.3132600000000000    0.4893375000000000    0.6321800000000000 H
   0.3198140000000000    0.5191249999999999    0.6778200000000000 H
   0.3921970000000000    0.5838325000000000    0.3823900000000000 H
   0.3414790000000000    0.7005525000000000    0.3803000000000000 H
   0.3292870000000001    0.6885375000000000    0.4716100000000000 H
   0.3082650000000001    0.6662950000000000    0.6176400000000000 H
   0.3581790000000000    0.5490650000000000    0.6192600000000000 H
   0.3711010000000001    0.5616225000000000    0.5284600000000000 H
   0.3860100000000001    0.0106250000000000    0.3676100000000000 H
   0.3796080000000001    0.9809300000000000    0.3218600000000000 H
   0.3132600000000000    0.7393375000000000    0.6321800000000000 H
   0.3198140000000000    0.7691249999999999    0.6778200000000000 H
   0.3921970000000000    0.8338325000000000    0.3823900000000000 H
   0.3414790000000000    0.9505525000000000    0.3803000000000000 H
   0.3292870000000001    0.9385375000000000    0.4716100000000000 H
   0.3082650000000001    0.9162950000000000    0.6176400000000000 H
   0.3581790000000000    0.7990650000000000    0.6192600000000000 H
   0.3711010000000001    0.8116225000000000    0.5284600000000000 H
   0.3860100000000001    0.2606250000000000    0.3676100000000000 H
   0.3796080000000001    0.2309300000000000    0.3218600000000000 H
   0.3132600000000000    0.9893375000000000    0.6321800000000000 H
   0.3198140000000000    0.0191250000000000    0.6778200000000000 H
   0.3921970000000000    0.0838325000000000    0.3823900000000000 H
   0.3414790000000000    0.2005525000000000    0.3803000000000000 H
   0.3292870000000001    0.1885375000000000    0.4716100000000000 H
   0.3082650000000001    0.1662950000000000    0.6176400000000000 H
   0.3581790000000000    0.0490650000000000    0.6192600000000000 H
   0.3711010000000001    0.0616225000000000    0.5284600000000000 H
   0.2360000000000000    0.6143825000000001    0.8676199999999999 H
   0.2296060000000000    0.6440800000000000    0.8218600000000000 H
   0.1632610000000000    0.8856700000000000    0.1321700000000000 H
   0.1698160000000000    0.8558725000000000    0.1778100000000000 H
   0.1582610000000000    0.7087125000000000    0.1176300000000000 H
   0.2081900000000000    0.8259275000000000    0.1192600000000000 H
   0.2211080000000000    0.8133450000000000    0.0284500000000000 H
   0.2421960000000000    0.7911550000000001    0.8824100000000000 H
   0.1914670000000000    0.6744500000000000    0.8802800000000000 H
   0.1792710000000000    0.6864725000000000    0.9716100000000000 H
   0.2360000000000000    0.8643825000000001    0.8676199999999999 H
   0.2296060000000000    0.8940800000000000    0.8218600000000000 H
   0.1632610000000000    0.1356700000000000    0.1321700000000000 H
   0.1698160000000000    0.1058725000000000    0.1778100000000000 H
   0.1582610000000000    0.9587125000000000    0.1176300000000000 H
   0.2081900000000000    0.0759275000000000    0.1192600000000000 H
   0.2211080000000000    0.0633450000000000    0.0284500000000000 H
   0.2421960000000000    0.0411550000000000    0.8824100000000000 H
   0.1914670000000000    0.9244500000000000    0.8802800000000000 H
   0.1792710000000000    0.9364725000000000    0.9716100000000000 H
   0.2360000000000000    0.1143825000000000    0.8676199999999999 H
   0.2296060000000000    0.1440800000000000    0.8218600000000000 H
   0.1632610000000000    0.3856700000000000    0.1321700000000000 H
   0.1698160000000000    0.3558725000000000    0.1778100000000000 H
   0.1582610000000000    0.2087125000000000    0.1176300000000000 H
   0.2081900000000000    0.3259275000000000    0.1192600000000000 H
   0.2211080000000000    0.3133450000000000    0.0284500000000000 H
   0.2421960000000000    0.2911550000000000    0.8824100000000000 H
   0.1914670000000000    0.1744500000000000    0.8802800000000000 H
   0.1792710000000000    0.1864725000000000    0.9716100000000000 H
   0.2360000000000000    0.3643825000000000    0.8676199999999999 H
   0.2296060000000000    0.3940800000000000    0.8218600000000000 H
   0.1632610000000000    0.6356700000000000    0.1321700000000000 H
   0.1698160000000000    0.6058725000000000    0.1778100000000000 H
   0.1582610000000000    0.4587125000000000    0.1176300000000000 H
   0.2081900000000000    0.5759275000000000    0.1192600000000000 H
   0.2211080000000000    0.5633450000000000    0.0284500000000000 H
   0.2421960000000000    0.5411550000000001    0.8824100000000000 H
   0.1914670000000000    0.4244500000000000    0.8802800000000000 H
   0.1792710000000000    0.4364725000000000    0.9716100000000000 H
   0.5860100000000000    0.5106250000000000    0.3676100000000000 H
   0.5796080000000000    0.4809300000000000    0.3218600000000000 H
   0.5132600000000000    0.2393375000000000    0.6321800000000000 H
   0.5198140000000000    0.2691250000000000    0.6778200000000000 H
   0.5921970000000000    0.3338325000000000    0.3823900000000000 H
   0.5414790000000000    0.4505525000000000    0.3803000000000000 H
   0.5292870000000000    0.4385375000000000    0.4716100000000000 H
   0.5082650000000000    0.4162950000000000    0.6176400000000000 H
   0.5581790000000000    0.2990650000000000    0.6192600000000000 H
   0.5711010000000000    0.3116225000000000    0.5284600000000000 H
   0.5860100000000000    0.7606250000000000    0.3676100000000000 H
   0.5796080000000000    0.7309300000000000    0.3218600000000000 H
   0.5132600000000000    0.4893375000000000    0.6321800000000000 H
   0.5198140000000000    0.5191249999999999    0.6778200000000000 H
   0.5921970000000000    0.5838325000000000    0.3823900000000000 H
   0.5414790000000000    0.7005525000000000    0.3803000000000000 H
   0.5292870000000000    0.6885375000000000    0.4716100000000000 H
   0.5082650000000000    0.6662950000000000    0.6176400000000000 H
   0.5581790000000000    0.5490650000000000    0.6192600000000000 H
   0.5711010000000000    0.5616225000000000    0.5284600000000000 H
   0.5860100000000000    0.0106250000000000    0.3676100000000000 H
   0.5796080000000000    0.9809300000000000    0.3218600000000000 H
   0.5132600000000000    0.7393375000000000    0.6321800000000000 H
   0.5198140000000000    0.7691249999999999    0.6778200000000000 H
   0.5921970000000000    0.8338325000000000    0.3823900000000000 H
   0.5414790000000000    0.9505525000000000    0.3803000000000000 H
   0.5292870000000000    0.9385375000000000    0.4716100000000000 H
   0.5082650000000000    0.9162950000000000    0.6176400000000000 H
   0.5581790000000000    0.7990650000000000    0.6192600000000000 H
   0.5711010000000000    0.8116225000000000    0.5284600000000000 H
   0.5860100000000000    0.2606250000000000    0.3676100000000000 H
   0.5796080000000000    0.2309300000000000    0.3218600000000000 H
   0.5132600000000000    0.9893375000000000    0.6321800000000000 H
   0.5198140000000000    0.0191250000000000    0.6778200000000000 H
   0.5921970000000000    0.0838325000000000    0.3823900000000000 H
   0.5414790000000000    0.2005525000000000    0.3803000000000000 H
   0.5292870000000000    0.1885375000000000    0.4716100000000000 H