H6 O4
1.0
  39.4932743186763702    0.0000000000000000   -2.2089157045431271
  -0.0011572334745524   32.4659999769525314   -0.0003966470164517
   0.0000000000000000    0.0000000000000000   26.6392999999999986
H O
6 4
direct
   0.9550108579416468    0.7141582186745948    0.2000965225630573 H
   0.9879370973853395    0.8364406073770955    0.1965425098407249 H
   0.9724750545992714    0.7779150503427726    0.1978481207406579 H
   0.0460930446127484    0.7854331427483546    0.8001078345768278 H
   0.0111579753840907    0.6639342860107880    0.8031360200944719 H
   0.0275561411145223    0.7219979310716957    0.8020938684094577 H
   0.9608980000000000    0.7431475000000000    0.2018100000000000 O
   0.9787690000000000    0.8089075000000000    0.1996800000000000 O
   0.0397220000000000    0.7566000000000001    0.7982100000000000 O
   0.0207620000000000    0.6912500000000000    0.8000699999999999 O
