H6 C12 N2 O4
1.0
  39.4932743186763702    0.0000000000000000   -2.2089157045431271
  -0.0011572334745524   32.4659999769525314   -0.0003966470164517
   0.0000000000000000    0.0000000000000000   26.6392999999999986
H C N O
6 12 2 4
direct
   0.9914670000000000    0.6744500000000000    0.8802800000000000 H
   0.9792710000000000    0.6864725000000000    0.9716100000000000 H
   0.9582610000000000    0.7087125000000000    0.1176300000000000 H
   0.0421960000000000    0.7911550000000001    0.8824100000000000 H
   0.0081900000000000    0.8259275000000000    0.1192600000000000 H
   0.0211080000000000    0.8133450000000000    0.0284500000000000 H
   0.0037810000000000    0.7458050000000001    0.9733800000000000 C
   0.0180240000000000    0.7320250000000000    0.8744700000000000 C
   0.0001100000000000    0.7022375000000000    0.9000899999999999 C
   0.0269580000000000    0.7264150000000000    0.8206100000000000 C
   0.9930300000000001    0.7089500000000000    0.9499400000000000 C
   0.9724400000000000    0.7323550000000000    0.0986600000000000 C
   0.0278200000000000    0.7676275000000000    0.9012700000000000 C
   0.0067770000000000    0.7912825000000000    0.0497200000000000 C
   0.9962340000000001    0.7542975000000000    0.0263900000000000 C
   0.9820360000000000    0.7680875000000000    0.1253400000000000 C
   0.9997090000000001    0.7980100000000000    0.0995700000000000 C
   0.9731240000000000    0.7735925000000000    0.1792400000000000 C
   0.9792120000000000    0.7250025000000000    0.0508000000000000 N
   0.0210120000000000    0.7749775000000000    0.9491100000000000 N
   0.0207620000000000    0.6912500000000000    0.8000699999999999 O
   0.9608980000000000    0.7431475000000000    0.2018100000000000 O
   0.0397220000000000    0.7566000000000001    0.7982100000000000 O
   0.9787690000000000    0.8089075000000000    0.1996800000000000 O
