H6 O4
1.0
  31.9576506467206194    0.0000000000000000   18.2549440191460839
   5.3123087516209866   15.0964615414181118    9.1158624746062813
   0.0000000000000000    0.0000000000000000   36.8239999999999981
H O
6 4
direct
   0.8068014236021057    0.6136278340276246    0.2462204854970696 H
   0.8061592708543122    0.6130139441392579    0.1402909472123431 H
   0.8025915285958837    0.6055570284452892    0.1971361945517325 H
   0.6931996585016073    0.3863656855802723    0.2537843659282193 H
   0.6938402912247875    0.3869765476860711    0.3597142358457612 H
   0.6974093016918679    0.3944365096109681    0.3028708033190605 H
   0.8166200000000000    0.6333700000000000    0.2141250000000000 O
   0.8162450000000000    0.6330100000000000    0.1525050000000000 O
   0.6833800000000000    0.3666200000000000    0.2858800000000000 O
   0.6837550000000000    0.3669800000000000    0.3475000000000000 O
