Zn32 H92 C184 O100
1.0
  31.9576506467206194    0.0000000000000000   18.2549440191460839
   5.3123087516209866   15.0964615414181118    9.1158624746062813
   0.0000000000000000    0.0000000000000000   36.8239999999999981
Zn H C O
32 92 184 100
direct
   0.1465700000000000    0.1198300000000000    0.3966000000000000 Zn
   0.0597800000000000    0.2930900000000000    0.3965950000000000 Zn
   0.3534350000000000    0.8801700000000000    0.1034050000000000 Zn
   0.3533900000000000    0.7068100000000000    0.1901150000000000 Zn
   0.3529600000000000    0.7062800000000000    0.1031350000000000 Zn
   0.1466100000000000    0.2931800000000000    0.3098900000000000 Zn
   0.1470450000000000    0.2937100000000000    0.3968500000000000 Zn
   0.4402250000000000    0.7069000000000000    0.1034100000000000 Zn
   0.6465700000000000    0.1198300000000000    0.3966000000000000 Zn
   0.5597799999999999    0.2930900000000000    0.3965950000000000 Zn
   0.8534349999999999    0.8801700000000000    0.1034050000000000 Zn
   0.8533900000000000    0.7068100000000000    0.1901150000000000 Zn
   0.8529599999999999    0.7062800000000000    0.1031350000000000 Zn
   0.6466100000000000    0.2931800000000000    0.3098900000000000 Zn
   0.6470450000000000    0.2937100000000000    0.3968500000000000 Zn
   0.9402250000000000    0.7069000000000000    0.1034100000000000 Zn
   0.1465700000000000    0.1198300000000000    0.8966000000000001 Zn
   0.0597800000000000    0.2930900000000000    0.8965950000000000 Zn
   0.3534350000000000    0.8801700000000000    0.6034050000000000 Zn
   0.3533900000000000    0.7068100000000000    0.6901150000000000 Zn
   0.3529600000000000    0.7062800000000000    0.6031350000000000 Zn
   0.1466100000000000    0.2931800000000000    0.8098900000000000 Zn
   0.1470450000000000    0.2937100000000000    0.8968499999999999 Zn
   0.4402250000000000    0.7069000000000000    0.6034100000000000 Zn
   0.6465700000000000    0.1198300000000000    0.8966000000000001 Zn
   0.5597799999999999    0.2930900000000000    0.8965950000000000 Zn
   0.8534349999999999    0.8801700000000000    0.6034050000000000 Zn
   0.8533900000000000    0.7068100000000000    0.6901150000000000 Zn
   0.8529599999999999    0.7062800000000000    0.6031350000000000 Zn
   0.6466100000000000    0.2931800000000000    0.8098900000000000 Zn
   0.6470450000000000    0.2937100000000000    0.8968499999999999 Zn
   0.9402250000000000    0.7069000000000000    0.6034100000000000 Zn
   0.2751450000000000    0.0679000000000000    0.1679250000000000 H
   0.2731050000000000    0.8358700000000000    0.2839350000000000 H
   0.2748700000000000    0.0673200000000000    0.0241100000000000 H
   0.2732850000000000    0.8359200000000000    0.0238950000000000 H
   0.0341600000000000    0.8358700000000000    0.0240000000000000 H
   0.4658200000000000    0.4498800000000000    0.3320700000000000 H
   0.0821950000000000    0.4535700000000000    0.2160950000000000 H
   0.4661900000000000    0.4503800000000000    0.4760000000000000 H
   0.0821650000000000    0.4531400000000000    0.4760300000000000 H
   0.0821900000000000    0.9321400000000000    0.4756300000000000 H
   0.2248600000000000    0.9320900000000000    0.3320800000000000 H
   0.2269000000000000    0.1641200000000000    0.2160700000000000 H
   0.2251300000000000    0.9326800000000000    0.4758950000000000 H
   0.2267200000000000    0.1640800000000000    0.4761100000000000 H
   0.4658450000000000    0.1641200000000000    0.4758000000000000 H
   0.0341800000000000    0.5501200000000001    0.1679300000000000 H
   0.4178100000000000    0.5464200000000000    0.2839100000000000 H
   0.0338150000000000    0.5496100000000000    0.0240050000000000 H
   0.4178350000000000    0.5468499999999999    0.0239700000000000 H
   0.4178100000000000    0.0678500000000000    0.0243750000000000 H
   0.2736250000000000    0.5474000000000000    0.1679250000000000 H
   0.2743850000000000    0.5488800000000000    0.2838100000000000 H
   0.2263750000000000    0.4525900000000000    0.3320800000000000 H
   0.2256150000000000    0.4511200000000000    0.2161950000000000 H
   0.7751450000000000    0.0679000000000000    0.1679250000000000 H
   0.7731049999999999    0.8358700000000000    0.2839350000000000 H
   0.7748699999999999    0.0673200000000000    0.0241100000000000 H
   0.7732850000000000    0.8359200000000000    0.0238950000000000 H
   0.5341600000000000    0.8358700000000000    0.0240000000000000 H
   0.9658200000000000    0.4498800000000000    0.3320700000000000 H
   0.5821950000000000    0.4535700000000000    0.2160950000000000 H
   0.9661900000000000    0.4503800000000000    0.4760000000000000 H
   0.5821650000000000    0.4531400000000000    0.4760300000000000 H
   0.5821900000000000    0.9321400000000000    0.4756300000000000 H
   0.7248600000000001    0.9320900000000000    0.3320800000000000 H
   0.7269000000000000    0.1641200000000000    0.2160700000000000 H
   0.7251300000000001    0.9326800000000000    0.4758950000000000 H
   0.7267200000000000    0.1640800000000000    0.4761100000000000 H
   0.9658450000000001    0.1641200000000000    0.4758000000000000 H
   0.5341800000000000    0.5501200000000001    0.1679300000000000 H
   0.9178100000000000    0.5464200000000000    0.2839100000000000 H
   0.5338150000000000    0.5496100000000000    0.0240050000000000 H
   0.9178350000000000    0.5468499999999999    0.0239700000000000 H
   0.9178100000000000    0.0678500000000000    0.0243750000000000 H
   0.2751450000000000    0.0679000000000000    0.6679250000000000 H
   0.2731050000000000    0.8358700000000000    0.7839350000000000 H
   0.2748700000000000    0.0673200000000000    0.5241100000000000 H
   0.2732850000000000    0.8359200000000000    0.5238950000000000 H
   0.0341600000000000    0.8358700000000000    0.5240000000000000 H
   0.4658200000000000    0.4498800000000000    0.8320700000000000 H
   0.0821950000000000    0.4535700000000000    0.7160950000000000 H
   0.4661900000000000    0.4503800000000000    0.9760000000000000 H
   0.0821650000000000    0.4531400000000000    0.9760300000000000 H
   0.0821900000000000    0.9321400000000000    0.9756300000000000 H
   0.2248600000000000    0.9320900000000000    0.8320799999999999 H
   0.2269000000000000    0.1641200000000000    0.7160700000000000 H
   0.2251300000000000    0.9326800000000000    0.9758950000000000 H
   0.2267200000000000    0.1640800000000000    0.9761100000000000 H
   0.4658450000000000    0.1641200000000000    0.9758000000000000 H
   0.0341800000000000    0.5501200000000001    0.6679300000000000 H
   0.4178100000000000    0.5464200000000000    0.7839100000000000 H
   0.0338150000000000    0.5496100000000000    0.5240050000000001 H
   0.4178350000000000    0.5468499999999999    0.5239700000000000 H
   0.4178100000000000    0.0678500000000000    0.5243750000000000 H
   0.2736250000000000    0.5474000000000000    0.6679250000000000 H
   0.2743850000000000    0.5488800000000000    0.7838100000000000 H
   0.2263750000000000    0.4525900000000000    0.8320799999999999 H
   0.2256150000000000    0.4511200000000000    0.7161950000000000 H
   0.7751450000000000    0.0679000000000000    0.6679250000000000 H
   0.7731049999999999    0.8358700000000000    0.7839350000000000 H
   0.7748699999999999    0.0673200000000000    0.5241100000000000 H
   0.7732850000000000    0.8359200000000000    0.5238950000000000 H
   0.5341600000000000    0.8358700000000000    0.5240000000000000 H
   0.9658200000000000    0.4498800000000000    0.8320700000000000 H
   0.5821950000000000    0.4535700000000000    0.7160950000000000 H
   0.9661900000000000    0.4503800000000000    0.9760000000000000 H
   0.5821650000000000    0.4531400000000000    0.9760300000000000 H
   0.5821900000000000    0.9321400000000000    0.9756300000000000 H
   0.7248600000000001    0.9320900000000000    0.8320799999999999 H
   0.7269000000000000    0.1641200000000000    0.7160700000000000 H
   0.7251300000000001    0.9326800000000000    0.9758950000000000 H
   0.7267200000000000    0.1640800000000000    0.9761100000000000 H
   0.9658450000000001    0.1641200000000000    0.9758000000000000 H
   0.5341800000000000    0.5501200000000001    0.6679300000000000 H
   0.9178100000000000    0.5464200000000000    0.7839100000000000 H
   0.5338150000000000    0.5496100000000000    0.5240050000000001 H
   0.9178350000000000    0.5468499999999999    0.5239700000000000 H
   0.9178100000000000    0.0678500000000000    0.5243750000000000 H
   0.7736250000000000    0.5474000000000000    0.6679250000000000 H
   0.7743850000000000    0.5488800000000000    0.7838100000000000 H
   0.7263750000000000    0.4525900000000000    0.8320799999999999 H
   0.7256150000000000    0.4511200000000000    0.7161950000000000 H
   0.3056600000000000    0.8890700000000000    0.1945150000000000 C
   0.2768800000000000    0.9463800000000000    0.2231800000000000 C
   0.2639300000000000    0.0389400000000000    0.2038800000000000 C
   0.2627850000000000    0.9077700000000000    0.2694650000000000 C
   0.3055200000000000    0.8885300000000000    0.0554300000000000 C
   0.2768650000000000    0.9460499999999999    0.0267650000000000 C
   0.2637750000000000    0.0386000000000000    0.0133500000000000 C
   0.2628900000000000    0.9077900000000000    0.0132500000000000 C
   0.0195800000000000    0.9077700000000000    0.0134000000000000 C
   0.0553900000000000    0.3886000000000000    0.3055200000000000 C
   0.0267600000000000    0.4461500000000000    0.2768450000000000 C
   0.4804100000000000    0.4722400000000000    0.2961200000000000 C
   0.0461850000000000    0.4743200000000000    0.2305600000000000 C
   0.0557200000000000    0.3887700000000000    0.4445950000000000 C
   0.0269550000000000    0.4461700000000000    0.4732600000000000 C
   0.4806150000000000    0.4725200000000000    0.4867050000000000 C
   0.0461700000000000    0.4740600000000000    0.4867100000000000 C
   0.0461800000000000    0.9610800000000000    0.4865100000000000 C
   0.1943450000000000    0.1109200000000000    0.3054900000000000 C
   0.2231250000000000    0.0536100000000000    0.2768250000000000 C
   0.2360750000000000    0.9610500000000000    0.2961250000000000 C
   0.2372200000000000    0.0922200000000000    0.2305400000000000 C
   0.1944850000000000    0.1114700000000000    0.4445750000000000 C
   0.2231400000000000    0.0539500000000000    0.4732400000000000 C
   0.2362250000000000    0.9613900000000000    0.4866450000000000 C
   0.2371100000000000    0.0922000000000000    0.4867550000000000 C
   0.4804200000000000    0.0922300000000000    0.4866050000000000 C
   0.4446150000000000    0.6114000000000001    0.1944850000000000 C
   0.4732400000000000    0.5538400000000000    0.2231600000000000 C
   0.0195900000000000    0.5277500000000001    0.2038850000000000 C
   0.4538200000000000    0.5256700000000000    0.2694450000000000 C
   0.4442850000000000    0.6112200000000000    0.0554100000000000 C
   0.4730500000000000    0.5538300000000000    0.0267450000000000 C
   0.0193850000000000    0.5274700000000000    0.0133000000000000 C
   0.4538350000000000    0.5259400000000000    0.0132950000000000 C
   0.4538200000000000    0.0389100000000000    0.0134950000000000 C
   0.3054000000000000    0.6110700000000000    0.1943650000000000 C
   0.2767700000000000    0.5537100000000000    0.2230900000000000 C
   0.2631000000000000    0.5262500000000000    0.2038800000000000 C
   0.2635200000000000    0.5270600000000000    0.2693850000000000 C
   0.4446000000000000    0.8890300000000000    0.0559350000000000 C
   0.4732350000000000    0.9463400000000000    0.0270850000000000 C
   0.1946050000000000    0.3889200000000000    0.3056400000000000 C
   0.2232350000000000    0.4462900000000000    0.2769150000000000 C
   0.2369050000000000    0.4737500000000000    0.2961250000000000 C
   0.2364850000000000    0.4729300000000000    0.2306200000000000 C
   0.0554000000000000    0.1109600000000000    0.4440650000000000 C
   0.0267700000000000    0.0536500000000000    0.4729200000000000 C
   0.8056600000000000    0.8890700000000000    0.1945150000000000 C
   0.7768800000000000    0.9463800000000000    0.2231800000000000 C
   0.7639300000000000    0.0389400000000000    0.2038800000000000 C
   0.7627850000000000    0.9077700000000000    0.2694650000000000 C
   0.8055200000000000    0.8885300000000000    0.0554300000000000 C
   0.7768650000000000    0.9460499999999999    0.0267650000000000 C
   0.7637750000000000    0.0386000000000000    0.0133500000000000 C
   0.7628900000000001    0.9077900000000000    0.0132500000000000 C
   0.5195800000000000    0.9077700000000000    0.0134000000000000 C
   0.5553900000000001    0.3886000000000000    0.3055200000000000 C
   0.5267600000000000    0.4461500000000000    0.2768450000000000 C
   0.9804100000000000    0.4722400000000000    0.2961200000000000 C
   0.5461850000000000    0.4743200000000000    0.2305600000000000 C
   0.5557200000000000    0.3887700000000000    0.4445950000000000 C
   0.5269550000000000    0.4461700000000000    0.4732600000000000 C
   0.9806150000000000    0.4725200000000000    0.4867050000000000 C
   0.5461700000000000    0.4740600000000000    0.4867100000000000 C
   0.5461800000000000    0.9610800000000000    0.4865100000000000 C
   0.6943450000000000    0.1109200000000000    0.3054900000000000 C
   0.7231250000000000    0.0536100000000000    0.2768250000000000 C
   0.7360750000000000    0.9610500000000000    0.2961250000000000 C
   0.7372200000000000    0.0922200000000000    0.2305400000000000 C
   0.6944850000000000    0.1114700000000000    0.4445750000000000 C
   0.7231400000000000    0.0539500000000000    0.4732400000000000 C
   0.7362250000000000    0.9613900000000000    0.4866450000000000 C
   0.7371099999999999    0.0922000000000000    0.4867550000000000 C
   0.9804200000000001    0.0922300000000000    0.4866050000000000 C
   0.9446150000000000    0.6114000000000001    0.1944850000000000 C
   0.9732400000000000    0.5538400000000000    0.2231600000000000 C
   0.5195900000000000    0.5277500000000001    0.2038850000000000 C
   0.9538200000000000    0.5256700000000000    0.2694450000000000 C
   0.9442850000000000    0.6112200000000000    0.0554100000000000 C
   0.9730500000000000    0.5538300000000000    0.0267450000000000 C
   0.5193850000000000    0.5274700000000000    0.0133000000000000 C
   0.9538350000000000    0.5259400000000000    0.0132950000000000 C
   0.9538200000000000    0.0389100000000000    0.0134950000000000 C
   0.9446000000000000    0.8890300000000000    0.0559350000000000 C
   0.9732350000000001    0.9463400000000000    0.0270850000000000 C
   0.5554000000000000    0.1109600000000000    0.4440650000000000 C
   0.5267700000000000    0.0536500000000000    0.4729200000000000 C
   0.3056600000000000    0.8890700000000000    0.6945150000000000 C
   0.2768800000000000    0.9463800000000000    0.7231799999999999 C
   0.2639300000000000    0.0389400000000000    0.7038800000000001 C
   0.2627850000000000    0.9077700000000000    0.7694650000000001 C
   0.3055200000000000    0.8885300000000000    0.5554300000000000 C
   0.2768650000000000    0.9460499999999999    0.5267650000000000 C
   0.2637750000000000    0.0386000000000000    0.5133500000000000 C
   0.2628900000000000    0.9077900000000000    0.5132500000000000 C
   0.0195800000000000    0.9077700000000000    0.5134000000000000 C
   0.0553900000000000    0.3886000000000000    0.8055200000000000 C
   0.0267600000000000    0.4461500000000000    0.7768450000000000 C
   0.4804100000000000    0.4722400000000000    0.7961199999999999 C
   0.0461850000000000    0.4743200000000000    0.7305600000000000 C
   0.0557200000000000    0.3887700000000000    0.9445950000000001 C
   0.0269550000000000    0.4461700000000000    0.9732600000000000 C
   0.4806150000000000    0.4725200000000000    0.9867049999999999 C
   0.0461700000000000    0.4740600000000000    0.9867100000000000 C
   0.0461800000000000    0.9610800000000000    0.9865100000000000 C
   0.1943450000000000    0.1109200000000000    0.8054900000000000 C
   0.2231250000000000    0.0536100000000000    0.7768250000000000 C
   0.2360750000000000    0.9610500000000000    0.7961250000000000 C
   0.2372200000000000    0.0922200000000000    0.7305400000000000 C
   0.1944850000000000    0.1114700000000000    0.9445749999999999 C
   0.2231400000000000    0.0539500000000000    0.9732400000000000 C
   0.2362250000000000    0.9613900000000000    0.9866450000000000 C
   0.2371100000000000    0.0922000000000000    0.9867550000000000 C
   0.4804200000000000    0.0922300000000000    0.9866050000000000 C
   0.4446150000000000    0.6114000000000001    0.6944850000000000 C
   0.4732400000000000    0.5538400000000000    0.7231600000000000 C
   0.0195900000000000    0.5277500000000001    0.7038850000000000 C
   0.4538200000000000    0.5256700000000000    0.7694449999999999 C
   0.4442850000000000    0.6112200000000000    0.5554100000000000 C
   0.4730500000000000    0.5538300000000000    0.5267450000000000 C
   0.0193850000000000    0.5274700000000000    0.5133000000000000 C
   0.4538350000000000    0.5259400000000000    0.5132949999999999 C
   0.4538200000000000    0.0389100000000000    0.5134950000000000 C
   0.3054000000000000    0.6110700000000000    0.6943650000000000 C
   0.2767700000000000    0.5537100000000000    0.7230900000000000 C
   0.2631000000000000    0.5262500000000000    0.7038800000000001 C
   0.2635200000000000    0.5270600000000000    0.7693850000000000 C
   0.4446000000000000    0.8890300000000000    0.5559350000000000 C
   0.4732350000000000    0.9463400000000000    0.5270850000000000 C
   0.1946050000000000    0.3889200000000000    0.8056400000000000 C
   0.2232350000000000    0.4462900000000000    0.7769150000000000 C
   0.2369050000000000    0.4737500000000000    0.7961250000000000 C
   0.2364850000000000    0.4729300000000000    0.7306200000000000 C
   0.0554000000000000    0.1109600000000000    0.9440649999999999 C
   0.0267700000000000    0.0536500000000000    0.9729200000000000 C
   0.8056600000000000    0.8890700000000000    0.6945150000000000 C
   0.7768800000000000    0.9463800000000000    0.7231799999999999 C
   0.7639300000000000    0.0389400000000000    0.7038800000000001 C
   0.7627850000000000    0.9077700000000000    0.7694650000000001 C
   0.8055200000000000    0.8885300000000000    0.5554300000000000 C
   0.7768650000000000    0.9460499999999999    0.5267650000000000 C
   0.7637750000000000    0.0386000000000000    0.5133500000000000 C
   0.7628900000000001    0.9077900000000000    0.5132500000000000 C
   0.5195800000000000    0.9077700000000000    0.5134000000000000 C
   0.5553900000000001    0.3886000000000000    0.8055200000000000 C
   0.5267600000000000    0.4461500000000000    0.7768450000000000 C
   0.9804100000000000    0.4722400000000000    0.7961199999999999 C
   0.5461850000000000    0.4743200000000000    0.7305600000000000 C
   0.5557200000000000    0.3887700000000000    0.9445950000000001 C
   0.5269550000000000    0.4461700000000000    0.9732600000000000 C
   0.9806150000000000    0.4725200000000000    0.9867049999999999 C
   0.5461700000000000    0.4740600000000000    0.9867100000000000 C
   0.5461800000000000    0.9610800000000000    0.9865100000000000 C
   0.6943450000000000    0.1109200000000000    0.8054900000000000 C
   0.7231250000000000    0.0536100000000000    0.7768250000000000 C
   0.7360750000000000    0.9610500000000000    0.7961250000000000 C
   0.7372200000000000    0.0922200000000000    0.7305400000000000 C
   0.6944850000000000    0.1114700000000000    0.9445749999999999 C
   0.7231400000000000    0.0539500000000000    0.9732400000000000 C
   0.7362250000000000    0.9613900000000000    0.9866450000000000 C
   0.7371099999999999    0.0922000000000000    0.9867550000000000 C
   0.9804200000000001    0.0922300000000000    0.9866050000000000 C
   0.9446150000000000    0.6114000000000001    0.6944850000000000 C
   0.9732400000000000    0.5538400000000000    0.7231600000000000 C
   0.5195900000000000    0.5277500000000001    0.7038850000000000 C
   0.9538200000000000    0.5256700000000000    0.7694449999999999 C
   0.9442850000000000    0.6112200000000000    0.5554100000000000 C
   0.9730500000000000    0.5538300000000000    0.5267450000000000 C
   0.5193850000000000    0.5274700000000000    0.5133000000000000 C
   0.9538350000000000    0.5259400000000000    0.5132949999999999 C
   0.9538200000000000    0.0389100000000000    0.5134950000000000 C
   0.8054000000000000    0.6110700000000000    0.6943650000000000 C
   0.7767700000000000    0.5537100000000000    0.7230900000000000 C
   0.7631000000000000    0.5262500000000000    0.7038800000000001 C
   0.7635200000000000    0.5270600000000000    0.7693850000000000 C
   0.9446000000000000    0.8890300000000000    0.5559350000000000 C
   0.9732350000000001    0.9463400000000000    0.5270850000000000 C
   0.6946050000000000    0.3889200000000000    0.8056400000000000 C
   0.7232350000000000    0.4462900000000000    0.7769150000000000 C
   0.7369050000000000    0.4737500000000000    0.7961250000000000 C
   0.7364850000000001    0.4729300000000000    0.7306200000000000 C
   0.5554000000000000    0.1109600000000000    0.9440649999999999 C
   0.5267700000000000    0.0536500000000000    0.9729200000000000 C
   0.3167150000000000    0.8054100000000000    0.2142500000000000 O
   0.3167400000000000    0.9285500000000000    0.1526700000000000 O
   0.3162350000000000    0.8048500000000000    0.0664850000000000 O
   0.3169250000000000    0.9279500000000001    0.0664500000000000 O
   0.4644000000000000    0.8053700000000000    0.0670850000000000 O
   0.0972950000000000    0.3664900000000000    0.2857750000000000 O
   0.0355750000000000    0.3663300000000000    0.3473700000000000 O
   0.0976250000000000    0.3671400000000000    0.4335650000000000 O
   0.0359450000000000    0.3661000000000000    0.4335500000000000 O
   0.0973050000000000    0.0714800000000000    0.4329550000000000 O
   0.1832850000000000    0.1945800000000000    0.2857550000000000 O
   0.1832600000000000    0.0714500000000000    0.3473350000000000 O
   0.1837700000000000    0.1951400000000000    0.4335200000000000 O
   0.1830800000000000    0.0720400000000000    0.4335550000000000 O
   0.0356000000000000    0.1946300000000000    0.4329200000000000 O
   0.4027050000000000    0.6335000000000000    0.2142300000000000 O
   0.4644300000000000    0.6336600000000000    0.1526350000000000 O
   0.4023800000000000    0.6328500000000000    0.0664400000000000 O
   0.4640600000000000    0.6338900000000000    0.0664300000000000 O
   0.4027000000000000    0.9285200000000000    0.0670500000000000 O
   0.3166200000000000    0.6333700000000000    0.2141250000000000 O
   0.3162450000000000    0.6330100000000000    0.1525050000000000 O
   0.1833800000000000    0.3666200000000000    0.2858800000000000 O
   0.1837550000000000    0.3669800000000000    0.3475000000000000 O
   0.3749750000000000    0.7499000000000000    0.1249550000000000 O
   0.1250300000000000    0.2500900000000000    0.3750500000000000 O
   0.8167150000000001    0.8054100000000000    0.2142500000000000 O
   0.8167400000000000    0.9285500000000000    0.1526700000000000 O
   0.8162350000000000    0.8048500000000000    0.0664850000000000 O
   0.8169250000000000    0.9279500000000001    0.0664500000000000 O
   0.9643999999999999    0.8053700000000000    0.0670850000000000 O
   0.5972950000000000    0.3664900000000000    0.2857750000000000 O
   0.5355750000000000    0.3663300000000000    0.3473700000000000 O
   0.5976250000000000    0.3671400000000000    0.4335650000000000 O
   0.5359450000000000    0.3661000000000000    0.4335500000000000 O
   0.5973050000000000    0.0714800000000000    0.4329550000000000 O
   0.6832850000000000    0.1945800000000000    0.2857550000000000 O
   0.6832600000000000    0.0714500000000000    0.3473350000000000 O
   0.6837700000000000    0.1951400000000000    0.4335200000000000 O
   0.6830800000000000    0.0720400000000000    0.4335550000000000 O
   0.5356000000000000    0.1946300000000000    0.4329200000000000 O
   0.9027050000000000    0.6335000000000000    0.2142300000000000 O
   0.9644300000000000    0.6336600000000000    0.1526350000000000 O
   0.9023800000000000    0.6328500000000000    0.0664400000000000 O
   0.9640599999999999    0.6338900000000000    0.0664300000000000 O
   0.9027000000000001    0.9285200000000000    0.0670500000000000 O
   0.8749750000000001    0.7499000000000000    0.1249550000000000 O
   0.6250300000000000    0.2500900000000000    0.3750500000000000 O
   0.3167150000000000    0.8054100000000000    0.7142500000000001 O
   0.3167400000000000    0.9285500000000000    0.6526700000000000 O
   0.3162350000000000    0.8048500000000000    0.5664850000000000 O
   0.3169250000000000    0.9279500000000001    0.5664500000000000 O
   0.4644000000000000    0.8053700000000000    0.5670850000000001 O
   0.0972950000000000    0.3664900000000000    0.7857750000000000 O
   0.0355750000000000    0.3663300000000000    0.8473700000000000 O
   0.0976250000000000    0.3671400000000000    0.9335650000000000 O
   0.0359450000000000    0.3661000000000000    0.9335500000000000 O
   0.0973050000000000    0.0714800000000000    0.9329550000000000 O
   0.1832850000000000    0.1945800000000000    0.7857550000000000 O
   0.1832600000000000    0.0714500000000000    0.8473349999999999 O
   0.1837700000000000    0.1951400000000000    0.9335200000000000 O
   0.1830800000000000    0.0720400000000000    0.9335550000000000 O
   0.0356000000000000    0.1946300000000000    0.9329200000000000 O
   0.4027050000000000    0.6335000000000000    0.7142300000000000 O
   0.4644300000000000    0.6336600000000000    0.6526350000000000 O
   0.4023800000000000    0.6328500000000000    0.5664400000000001 O
   0.4640600000000000    0.6338900000000000    0.5664300000000000 O
   0.4027000000000000    0.9285200000000000    0.5670500000000001 O
   0.3166200000000000    0.6333700000000000    0.7141250000000000 O
   0.3162450000000000    0.6330100000000000    0.6525050000000000 O
   0.1833800000000000    0.3666200000000000    0.7858800000000000 O
   0.1837550000000000    0.3669800000000000    0.8474999999999999 O
   0.3749750000000000    0.7499000000000000    0.6249550000000000 O
   0.1250300000000000    0.2500900000000000    0.8750500000000000 O
   0.8167150000000001    0.8054100000000000    0.7142500000000001 O
   0.8167400000000000    0.9285500000000000    0.6526700000000000 O
   0.8162350000000000    0.8048500000000000    0.5664850000000000 O
   0.8169250000000000    0.9279500000000001    0.5664500000000000 O
   0.9643999999999999    0.8053700000000000    0.5670850000000001 O
   0.5972950000000000    0.3664900000000000    0.7857750000000000 O
   0.5355750000000000    0.3663300000000000    0.8473700000000000 O
   0.5976250000000000    0.3671400000000000    0.9335650000000000 O
   0.5359450000000000    0.3661000000000000    0.9335500000000000 O
   0.5973050000000000    0.0714800000000000    0.9329550000000000 O
   0.6832850000000000    0.1945800000000000    0.7857550000000000 O
   0.6832600000000000    0.0714500000000000    0.8473349999999999 O
   0.6837700000000000    0.1951400000000000    0.9335200000000000 O
   0.6830800000000000    0.0720400000000000    0.9335550000000000 O
   0.5356000000000000    0.1946300000000000    0.9329200000000000 O
   0.9027050000000000    0.6335000000000000    0.7142300000000000 O
   0.9644300000000000    0.6336600000000000    0.6526350000000000 O
   0.9023800000000000    0.6328500000000000    0.5664400000000001 O
   0.9640599999999999    0.6338900000000000    0.5664300000000000 O
   0.9027000000000001    0.9285200000000000    0.5670500000000001 O
   0.8166200000000000    0.6333700000000000    0.7141250000000000 O
   0.8162450000000000    0.6330100000000000    0.6525050000000000 O
   0.6833800000000000    0.3666200000000000    0.7858800000000000 O
   0.6837550000000000    0.3669800000000000    0.8474999999999999 O
   0.8749750000000001    0.7499000000000000    0.6249550000000000 O
   0.6250300000000000    0.2500900000000000    0.8750500000000000 O
