Cd16 H360 C375 N60 O60
1.0
  25.1260000000000012    0.0000000000000000    0.0000000000000015
   0.0035076929060912   25.1219997551168390    0.0000000000000015
   0.0000000000000000    0.0000000000000000   25.8279999999999994
Cd H C N O
16 360 375 60 60
direct
   0.1250000000000000    0.1250000000000000    0.4162400000000000 Cd
   0.1250000000000000    0.1250050000000000    0.0837600000000000 Cd
   0.3750050000000000    0.3750100000000000    0.5837700000000000 Cd
   0.3750050000000000    0.3750100000000000    0.9162500000000000 Cd
   0.6250000000000000    0.1250000000000000    0.4162400000000000 Cd
   0.6250000000000000    0.1250050000000000    0.0837600000000000 Cd
   0.8750050000000000    0.3750100000000000    0.5837700000000000 Cd
   0.8750050000000000    0.3750100000000000    0.9162500000000000 Cd
   0.1250000000000000    0.6250000000000000    0.4162400000000000 Cd
   0.1250000000000000    0.6250050000000000    0.0837600000000000 Cd
   0.3750050000000000    0.8750100000000001    0.5837700000000000 Cd
   0.3750050000000000    0.8750100000000001    0.9162500000000000 Cd
   0.6250000000000000    0.6250000000000000    0.4162400000000000 Cd
   0.6250000000000000    0.6250050000000000    0.0837600000000000 Cd
   0.8750050000000000    0.8750100000000001    0.5837700000000000 Cd
   0.8750050000000000    0.8750100000000001    0.9162500000000000 Cd
   0.4582250000000000    0.2791950000000000    0.8718100000000000 H
   0.4676800000000000    0.2043900000000000    0.8079400000000000 H
   0.3184450000000000    0.2563150000000000    0.7408300000000000 H
   0.3145550000000000    0.3258350000000000    0.8090100000000000 H
   0.3213250000000000    0.1638650000000000    0.7198400000000000 H
   0.3529150000000000    0.2081000000000000    0.6741100000000000 H
   0.2975950000000000    0.0872050000000000    0.6550000000000000 H
   0.3429800000000000    0.0783100000000000    0.6028200000000000 H
   0.2100650000000000    0.0557500000000000    0.4872700000000000 H
   0.2772450000000000    0.0583850000000000    0.5584000000000000 H
   0.2488850000000000    0.2284250000000000    0.5677400000000000 H
   0.1816900000000000    0.2173500000000000    0.4972700000000000 H
   0.2917900000000000    0.4708400000000000    0.8718200000000000 H
   0.2823350000000000    0.0456250000000000    0.8079000000000000 H
   0.4315600000000000    0.4937050000000000    0.7408200000000000 H
   0.4354450000000000    0.4241850000000000    0.8090000000000001 H
   0.4286900000000000    0.0861400000000000    0.7198400000000000 H
   0.3970950000000000    0.0419050000000000    0.6741100000000000 H
   0.4524200000000000    0.1628000000000000    0.6550000000000000 H
   0.4070350000000000    0.1717000000000000    0.6028200000000000 H
   0.0399350000000000    0.1942550000000000    0.4872700000000000 H
   0.4727700000000000    0.1916200000000000    0.5584000000000000 H
   0.0011200000000000    0.0215800000000000    0.5677400000000000 H
   0.0683100000000000    0.0326550000000000    0.4972700000000000 H
   0.2208800000000000    0.2081900000000000    0.3718300000000000 H
   0.2956600000000000    0.2176550000000000    0.3079600000000000 H
   0.2436800000000000    0.0684850000000000    0.2407300000000000 H
   0.1741750000000000    0.0645850000000000    0.3089100000000000 H
   0.3361550000000000    0.0713150000000000    0.2197900000000000 H
   0.2919250000000000    0.1029250000000000    0.1740700000000000 H
   0.4128100000000000    0.0475750000000000    0.1549600000000000 H
   0.4216800000000000    0.0929550000000000    0.1027700000000000 H
   0.4442250000000000    0.4600550000000000    0.9872300000000001 H
   0.4416000000000000    0.0272100000000000    0.0583600000000000 H
   0.2715850000000000    0.4988800000000000    0.0677300000000000 H
   0.2826600000000000    0.4316900000000000    0.9972700000000000 H
   0.0291300000000000    0.0418150000000000    0.3718300000000000 H
   0.4543550000000000    0.0323500000000000    0.3079500000000000 H
   0.0063200000000000    0.1815200000000000    0.2407300000000000 H
   0.0758300000000000    0.1854200000000000    0.3089100000000000 H
   0.4138550000000000    0.1786900000000000    0.2197900000000000 H
   0.4580850000000000    0.1470850000000000    0.1740700000000000 H
   0.3372050000000000    0.2024350000000000    0.1549000000000000 H
   0.3283300000000000    0.1570500000000000    0.1027700000000000 H
   0.3057850000000000    0.2899750000000000    0.9872400000000000 H
   0.3084100000000000    0.2228050000000000    0.0583600000000000 H
   0.4784200000000000    0.2511400000000000    0.0677000000000000 H
   0.4673500000000000    0.3183250000000000    0.9972600000000000 H
   0.0417850000000000    0.2208300000000000    0.1281900000000000 H
   0.0323300000000000    0.2956300000000000    0.1920000000000000 H
   0.1815550000000000    0.2436950000000000    0.2591900000000000 H
   0.1854450000000000    0.1741750000000000    0.1910000000000000 H
   0.1786800000000000    0.3361450000000000    0.2801700000000000 H
   0.1470900000000000    0.2919150000000000    0.3259000000000000 H
   0.2024150000000000    0.4128100000000000    0.3450000000000000 H
   0.1570250000000000    0.4217100000000000    0.3971900000000000 H
   0.2899400000000000    0.4442650000000000    0.5127400000000000 H
   0.2227650000000000    0.4416300000000000    0.4416100000000000 H
   0.2511200000000000    0.2715900000000000    0.4322700000000000 H
   0.3183100000000000    0.2826650000000000    0.5027400000000000 H
   0.2176750000000000    0.4544000000000000    0.1920700000000000 H
   0.0713200000000000    0.4138800000000000    0.2801700000000000 H
   0.1029100000000000    0.4581100000000000    0.3259000000000000 H
   0.0475850000000000    0.3372150000000000    0.3450000000000000 H
   0.0929750000000000    0.3283200000000000    0.3971900000000000 H
   0.4600650000000000    0.3057600000000000    0.5127400000000000 H
   0.0272350000000000    0.3083950000000000    0.4416100000000000 H
   0.4988850000000000    0.4784350000000000    0.4322700000000000 H
   0.4316950000000000    0.4673600000000000    0.5027400000000000 H
   0.2791300000000000    0.2918250000000000    0.6281800000000000 H
   0.2043450000000000    0.2823600000000000    0.6920600000000000 H
   0.2563250000000000    0.4315300000000000    0.7592800000000000 H
   0.3258350000000000    0.4354300000000000    0.6911000000000000 H
   0.1638500000000000    0.4287000000000000    0.7802200000000000 H
   0.2080800000000000    0.3970900000000000    0.8259400000000000 H
   0.0872000000000000    0.4524450000000000    0.8450400000000000 H
   0.0783250000000000    0.4070600000000000    0.8972000000000000 H
   0.0557800000000000    0.0399700000000000    0.0127700000000000 H
   0.0584050000000000    0.4728100000000000    0.9416500000000000 H
   0.2284200000000000    0.0011250000000000    0.9322000000000000 H
   0.2173450000000000    0.0683200000000000    0.0027500000000000 H
   0.4708800000000000    0.4581950000000000    0.6281800000000000 H
   0.0456550000000000    0.4676650000000000    0.6920500000000001 H
   0.4936850000000000    0.3184950000000000    0.7592800000000000 H
   0.4241800000000000    0.3145900000000000    0.6910900000000000 H
   0.0861500000000000    0.3213250000000000    0.7802200000000000 H
   0.0419200000000000    0.3529350000000000    0.8259400000000000 H
   0.1628000000000000    0.2975850000000000    0.8450400000000000 H
   0.1716750000000000    0.3429650000000000    0.8972400000000000 H
   0.1942200000000000    0.2100500000000000    0.0127800000000000 H
   0.1915950000000000    0.2772200000000000    0.9416500000000000 H
   0.0215850000000000    0.2488750000000000    0.9322800000000000 H
   0.0326550000000000    0.1816850000000000    0.0027400000000000 H
   0.9582250000000000    0.2791950000000000    0.8718100000000000 H
   0.9676800000000000    0.2043900000000000    0.8079400000000000 H
   0.8184450000000000    0.2563150000000000    0.7408300000000000 H
   0.8145549999999999    0.3258350000000000    0.8090100000000000 H
   0.8213250000000001    0.1638650000000000    0.7198400000000000 H
   0.8529150000000000    0.2081000000000000    0.6741100000000000 H
   0.7975950000000001    0.0872050000000000    0.6550000000000000 H
   0.8429800000000001    0.0783100000000000    0.6028200000000000 H
   0.7100649999999999    0.0557500000000000    0.4872700000000000 H
   0.7772450000000000    0.0583850000000000    0.5584000000000000 H
   0.7488850000000000    0.2284250000000000    0.5677400000000000 H
   0.6816900000000000    0.2173500000000000    0.4972700000000000 H
   0.7917900000000000    0.4708400000000000    0.8718200000000000 H
   0.7823350000000000    0.0456250000000000    0.8079000000000000 H
   0.9315599999999999    0.4937050000000000    0.7408200000000000 H
   0.9354450000000001    0.4241850000000000    0.8090000000000001 H
   0.9286900000000000    0.0861400000000000    0.7198400000000000 H
   0.8970950000000000    0.0419050000000000    0.6741100000000000 H
   0.9524200000000000    0.1628000000000000    0.6550000000000000 H
   0.9070350000000000    0.1717000000000000    0.6028200000000000 H
   0.5399350000000001    0.1942550000000000    0.4872700000000000 H
   0.9727700000000000    0.1916200000000000    0.5584000000000000 H
   0.5011200000000000    0.0215800000000000    0.5677400000000000 H
   0.5683100000000000    0.0326550000000000    0.4972700000000000 H
   0.7208800000000000    0.2081900000000000    0.3718300000000000 H
   0.7956600000000000    0.2176550000000000    0.3079600000000000 H
   0.7436800000000000    0.0684850000000000    0.2407300000000000 H
   0.6741750000000000    0.0645850000000000    0.3089100000000000 H
   0.8361550000000000    0.0713150000000000    0.2197900000000000 H
   0.7919250000000000    0.1029250000000000    0.1740700000000000 H
   0.9128100000000000    0.0475750000000000    0.1549600000000000 H
   0.9216800000000001    0.0929550000000000    0.1027700000000000 H
   0.9442250000000000    0.4600550000000000    0.9872300000000001 H
   0.9416000000000000    0.0272100000000000    0.0583600000000000 H
   0.7715850000000000    0.4988800000000000    0.0677300000000000 H
   0.7826600000000000    0.4316900000000000    0.9972700000000000 H
   0.5291300000000000    0.0418150000000000    0.3718300000000000 H
   0.9543550000000001    0.0323500000000000    0.3079500000000000 H
   0.5063200000000000    0.1815200000000000    0.2407300000000000 H
   0.5758300000000000    0.1854200000000000    0.3089100000000000 H
   0.9138550000000000    0.1786900000000000    0.2197900000000000 H
   0.9580850000000001    0.1470850000000000    0.1740700000000000 H
   0.8372050000000000    0.2024350000000000    0.1549000000000000 H
   0.8283300000000000    0.1570500000000000    0.1027700000000000 H
   0.8057850000000000    0.2899750000000000    0.9872400000000000 H
   0.8084100000000001    0.2228050000000000    0.0583600000000000 H
   0.9784200000000001    0.2511400000000000    0.0677000000000000 H
   0.9673499999999999    0.3183250000000000    0.9972600000000000 H
   0.5417850000000000    0.2208300000000000    0.1281900000000000 H
   0.5323300000000000    0.2956300000000000    0.1920000000000000 H
   0.6815550000000000    0.2436950000000000    0.2591900000000000 H
   0.6854450000000000    0.1741750000000000    0.1910000000000000 H
   0.6786799999999999    0.3361450000000000    0.2801700000000000 H
   0.6470899999999999    0.2919150000000000    0.3259000000000000 H
   0.7024150000000000    0.4128100000000000    0.3450000000000000 H
   0.6570250000000000    0.4217100000000000    0.3971900000000000 H
   0.7899400000000000    0.4442650000000000    0.5127400000000000 H
   0.7227650000000000    0.4416300000000000    0.4416100000000000 H
   0.7511200000000000    0.2715900000000000    0.4322700000000000 H
   0.8183100000000000    0.2826650000000000    0.5027400000000000 H
   0.7082200000000000    0.0291850000000000    0.1282000000000000 H
   0.7176750000000001    0.4544000000000000    0.1920700000000000 H
   0.5684400000000001    0.0063050000000000    0.2591800000000000 H
   0.5645550000000000    0.0758300000000000    0.1910000000000000 H
   0.5713200000000001    0.4138800000000000    0.2801700000000000 H
   0.6029100000000001    0.4581100000000000    0.3259000000000000 H
   0.5475850000000000    0.3372150000000000    0.3450000000000000 H
   0.5929750000000000    0.3283200000000000    0.3971900000000000 H
   0.9600649999999999    0.3057600000000000    0.5127400000000000 H
   0.5272350000000000    0.3083950000000000    0.4416100000000000 H
   0.9988850000000000    0.4784350000000000    0.4322700000000000 H
   0.9316949999999999    0.4673600000000000    0.5027400000000000 H
   0.7791300000000000    0.2918250000000000    0.6281800000000000 H
   0.7043450000000000    0.2823600000000000    0.6920600000000000 H
   0.7563250000000000    0.4315300000000000    0.7592800000000000 H
   0.8258350000000000    0.4354300000000000    0.6911000000000000 H
   0.6638500000000001    0.4287000000000000    0.7802200000000000 H
   0.7080800000000000    0.3970900000000000    0.8259400000000000 H
   0.5871999999999999    0.4524450000000000    0.8450400000000000 H
   0.5783250000000000    0.4070600000000000    0.8972000000000000 H
   0.5557800000000001    0.0399700000000000    0.0127700000000000 H
   0.5584050000000000    0.4728100000000000    0.9416500000000000 H
   0.7284200000000001    0.0011250000000000    0.9322000000000000 H
   0.7173450000000000    0.0683200000000000    0.0027500000000000 H
   0.9708800000000000    0.4581950000000000    0.6281800000000000 H
   0.5456550000000000    0.4676650000000000    0.6920500000000001 H
   0.9936849999999999    0.3184950000000000    0.7592800000000000 H
   0.9241800000000000    0.3145900000000000    0.6910900000000000 H
   0.5861499999999999    0.3213250000000000    0.7802200000000000 H
   0.5419200000000000    0.3529350000000000    0.8259400000000000 H
   0.6628000000000001    0.2975850000000000    0.8450400000000000 H
   0.6716750000000000    0.3429650000000000    0.8972400000000000 H
   0.6942200000000001    0.2100500000000000    0.0127800000000000 H
   0.6915950000000000    0.2772200000000000    0.9416500000000000 H
   0.5215850000000000    0.2488750000000000    0.9322800000000000 H
   0.5326550000000000    0.1816850000000000    0.0027400000000000 H
   0.4582250000000000    0.7791950000000001    0.8718100000000000 H
   0.4676800000000000    0.7043900000000000    0.8079400000000000 H
   0.3184450000000000    0.7563150000000001    0.7408300000000000 H
   0.3145550000000000    0.8258350000000000    0.8090100000000000 H
   0.3213250000000000    0.6638650000000000    0.7198400000000000 H
   0.3529150000000000    0.7081000000000000    0.6741100000000000 H
   0.2975950000000000    0.5872050000000000    0.6550000000000000 H
   0.3429800000000000    0.5783100000000000    0.6028200000000000 H
   0.2100650000000000    0.5557500000000000    0.4872700000000000 H
   0.2772450000000000    0.5583850000000000    0.5584000000000000 H
   0.2488850000000000    0.7284250000000000    0.5677400000000000 H
   0.1816900000000000    0.7173499999999999    0.4972700000000000 H
   0.2917900000000000    0.9708399999999999    0.8718200000000000 H
   0.2823350000000000    0.5456250000000000    0.8079000000000000 H
   0.4315600000000000    0.9937050000000001    0.7408200000000000 H
   0.4354450000000000    0.9241850000000000    0.8090000000000001 H
   0.4286900000000000    0.5861400000000000    0.7198400000000000 H
   0.3970950000000000    0.5419050000000000    0.6741100000000000 H
   0.4524200000000000    0.6628000000000001    0.6550000000000000 H
   0.4070350000000000    0.6717000000000000    0.6028200000000000 H
   0.0399350000000000    0.6942550000000001    0.4872700000000000 H
   0.4727700000000000    0.6916200000000000    0.5584000000000000 H
   0.0011200000000000    0.5215800000000000    0.5677400000000000 H
   0.0683100000000000    0.5326550000000000    0.4972700000000000 H
   0.2208800000000000    0.7081900000000000    0.3718300000000000 H
   0.2956600000000000    0.7176549999999999    0.3079600000000000 H
   0.2436800000000000    0.5684850000000000    0.2407300000000000 H
   0.1741750000000000    0.5645850000000000    0.3089100000000000 H
   0.3361550000000000    0.5713150000000000    0.2197900000000000 H
   0.2919250000000000    0.6029250000000000    0.1740700000000000 H
   0.4128100000000000    0.5475750000000000    0.1549600000000000 H
   0.4216800000000000    0.5929550000000000    0.1027700000000000 H
   0.4442250000000000    0.9600550000000000    0.9872300000000001 H
   0.4416000000000000    0.5272100000000000    0.0583600000000000 H
   0.2715850000000000    0.9988800000000000    0.0677300000000000 H
   0.2826600000000000    0.9316900000000000    0.9972700000000000 H
   0.0291300000000000    0.5418150000000000    0.3718300000000000 H
   0.4543550000000000    0.5323500000000000    0.3079500000000000 H
   0.0063200000000000    0.6815200000000000    0.2407300000000000 H
   0.0758300000000000    0.6854200000000000    0.3089100000000000 H
   0.4138550000000000    0.6786900000000000    0.2197900000000000 H
   0.4580850000000000    0.6470850000000000    0.1740700000000000 H
   0.3372050000000000    0.7024350000000000    0.1549000000000000 H
   0.3283300000000000    0.6570500000000000    0.1027700000000000 H
   0.3057850000000000    0.7899750000000000    0.9872400000000000 H
   0.3084100000000000    0.7228050000000000    0.0583600000000000 H
   0.4784200000000000    0.7511399999999999    0.0677000000000000 H
   0.4673500000000000    0.8183250000000000    0.9972600000000000 H
   0.2082200000000000    0.5291850000000000    0.1282000000000000 H
   0.0684400000000000    0.5063050000000000    0.2591800000000000 H
   0.0645550000000000    0.5758300000000000    0.1910000000000000 H
   0.4600650000000000    0.8057600000000000    0.5127400000000000 H
   0.4988850000000000    0.9784349999999999    0.4322700000000000 H
   0.4316950000000000    0.9673600000000000    0.5027400000000000 H
   0.2791300000000000    0.7918250000000000    0.6281800000000000 H
   0.2043450000000000    0.7823599999999999    0.6920600000000000 H
   0.2563250000000000    0.9315300000000000    0.7592800000000000 H
   0.3258350000000000    0.9354300000000000    0.6911000000000000 H
   0.1638500000000000    0.9287000000000001    0.7802200000000000 H
   0.2080800000000000    0.8970899999999999    0.8259400000000000 H
   0.0872000000000000    0.9524450000000000    0.8450400000000000 H
   0.0783250000000000    0.9070600000000000    0.8972000000000000 H
   0.0557800000000000    0.5399700000000000    0.0127700000000000 H
   0.0584050000000000    0.9728100000000000    0.9416500000000000 H
   0.2284200000000000    0.5011250000000000    0.9322000000000000 H
   0.2173450000000000    0.5683200000000000    0.0027500000000000 H
   0.4708800000000000    0.9581950000000000    0.6281800000000000 H
   0.0456550000000000    0.9676650000000000    0.6920500000000001 H
   0.4936850000000000    0.8184950000000000    0.7592800000000000 H
   0.4241800000000000    0.8145899999999999    0.6910900000000000 H
   0.0861500000000000    0.8213250000000001    0.7802200000000000 H
   0.0419200000000000    0.8529350000000000    0.8259400000000000 H
   0.1628000000000000    0.7975850000000000    0.8450400000000000 H
   0.1716750000000000    0.8429650000000000    0.8972400000000000 H
   0.1942200000000000    0.7100500000000000    0.0127800000000000 H
   0.1915950000000000    0.7772200000000000    0.9416500000000000 H
   0.0215850000000000    0.7488750000000000    0.9322800000000000 H
   0.0326550000000000    0.6816850000000000    0.0027400000000000 H
   0.9582250000000000    0.7791950000000001    0.8718100000000000 H
   0.9676800000000000    0.7043900000000000    0.8079400000000000 H
   0.8184450000000000    0.7563150000000001    0.7408300000000000 H
   0.8145549999999999    0.8258350000000000    0.8090100000000000 H
   0.8213250000000001    0.6638650000000000    0.7198400000000000 H
   0.8529150000000000    0.7081000000000000    0.6741100000000000 H
   0.7975950000000001    0.5872050000000000    0.6550000000000000 H
   0.8429800000000001    0.5783100000000000    0.6028200000000000 H
   0.7100649999999999    0.5557500000000000    0.4872700000000000 H
   0.7772450000000000    0.5583850000000000    0.5584000000000000 H
   0.7488850000000000    0.7284250000000000    0.5677400000000000 H
   0.6816900000000000    0.7173499999999999    0.4972700000000000 H
   0.7917900000000000    0.9708399999999999    0.8718200000000000 H
   0.7823350000000000    0.5456250000000000    0.8079000000000000 H
   0.9315599999999999    0.9937050000000001    0.7408200000000000 H
   0.9354450000000001    0.9241850000000000    0.8090000000000001 H
   0.9286900000000000    0.5861400000000000    0.7198400000000000 H
   0.8970950000000000    0.5419050000000000    0.6741100000000000 H
   0.9524200000000000    0.6628000000000001    0.6550000000000000 H
   0.9070350000000000    0.6717000000000000    0.6028200000000000 H
   0.5399350000000001    0.6942550000000001    0.4872700000000000 H
   0.9727700000000000    0.6916200000000000    0.5584000000000000 H
   0.5011200000000000    0.5215800000000000    0.5677400000000000 H
   0.5683100000000000    0.5326550000000000    0.4972700000000000 H
   0.7208800000000000    0.7081900000000000    0.3718300000000000 H
   0.7956600000000000    0.7176549999999999    0.3079600000000000 H
   0.7436800000000000    0.5684850000000000    0.2407300000000000 H
   0.6741750000000000    0.5645850000000000    0.3089100000000000 H
   0.8361550000000000    0.5713150000000000    0.2197900000000000 H
   0.7919250000000000    0.6029250000000000    0.1740700000000000 H
   0.9128100000000000    0.5475750000000000    0.1549600000000000 H
   0.9216800000000001    0.5929550000000000    0.1027700000000000 H
   0.9442250000000000    0.9600550000000000    0.9872300000000001 H
   0.9416000000000000    0.5272100000000000    0.0583600000000000 H
   0.7715850000000000    0.9988800000000000    0.0677300000000000 H
   0.7826600000000000    0.9316900000000000    0.9972700000000000 H
   0.5291300000000000    0.5418150000000000    0.3718300000000000 H
   0.9543550000000001    0.5323500000000000    0.3079500000000000 H
   0.5063200000000000    0.6815200000000000    0.2407300000000000 H
   0.5758300000000000    0.6854200000000000    0.3089100000000000 H
   0.9138550000000000    0.6786900000000000    0.2197900000000000 H
   0.9580850000000001    0.6470850000000000    0.1740700000000000 H
   0.8372050000000000    0.7024350000000000    0.1549000000000000 H
   0.8283300000000000    0.6570500000000000    0.1027700000000000 H
   0.8057850000000000    0.7899750000000000    0.9872400000000000 H
   0.8084100000000001    0.7228050000000000    0.0583600000000000 H
   0.9784200000000001    0.7511399999999999    0.0677000000000000 H
   0.9673499999999999    0.8183250000000000    0.9972600000000000 H
   0.5417850000000000    0.7208300000000000    0.1281900000000000 H
   0.5323300000000000    0.7956300000000001    0.1920000000000000 H
   0.6815550000000000    0.7436950000000000    0.2591900000000000 H
   0.6854450000000000    0.6741750000000000    0.1910000000000000 H
   0.6786799999999999    0.8361450000000000    0.2801700000000000 H
   0.6470899999999999    0.7919149999999999    0.3259000000000000 H
   0.7024150000000000    0.9128100000000000    0.3450000000000000 H
   0.6570250000000000    0.9217100000000000    0.3971900000000000 H
   0.7899400000000000    0.9442650000000000    0.5127400000000000 H
   0.7227650000000000    0.9416300000000000    0.4416100000000000 H
   0.7511200000000000    0.7715900000000000    0.4322700000000000 H
   0.8183100000000000    0.7826649999999999    0.5027400000000000 H
   0.7082200000000000    0.5291850000000000    0.1282000000000000 H
   0.7176750000000001    0.9544000000000000    0.1920700000000000 H
   0.5684400000000001    0.5063050000000000    0.2591800000000000 H
   0.5645550000000000    0.5758300000000000    0.1910000000000000 H
   0.5713200000000001    0.9138800000000000    0.2801700000000000 H
   0.6029100000000001    0.9581100000000000    0.3259000000000000 H
   0.5475850000000000    0.8372150000000000    0.3450000000000000 H
   0.5929750000000000    0.8283199999999999    0.3971900000000000 H
   0.5272350000000000    0.8083950000000000    0.4416100000000000 H
   0.7791300000000000    0.7918250000000000    0.6281800000000000 H
   0.7043450000000000    0.7823599999999999    0.6920600000000000 H
   0.7563250000000000    0.9315300000000000    0.7592800000000000 H
   0.8258350000000000    0.9354300000000000    0.6911000000000000 H
   0.6638500000000001    0.9287000000000001    0.7802200000000000 H
   0.7080800000000000    0.8970899999999999    0.8259400000000000 H
   0.5871999999999999    0.9524450000000000    0.8450400000000000 H
   0.5783250000000000    0.9070600000000000    0.8972000000000000 H
   0.5557800000000001    0.5399700000000000    0.0127700000000000 H
   0.5584050000000000    0.9728100000000000    0.9416500000000000 H
   0.7284200000000001    0.5011250000000000    0.9322000000000000 H
   0.7173450000000000    0.5683200000000000    0.0027500000000000 H
   0.9708800000000000    0.9581950000000000    0.6281800000000000 H
   0.5456550000000000    0.9676650000000000    0.6920500000000001 H
   0.9936849999999999    0.8184950000000000    0.7592800000000000 H
   0.9241800000000000    0.8145899999999999    0.6910900000000000 H
   0.5861499999999999    0.8213250000000001    0.7802200000000000 H
   0.5419200000000000    0.8529350000000000    0.8259400000000000 H
   0.6628000000000001    0.7975850000000000    0.8450400000000000 H
   0.6716750000000000    0.8429650000000000    0.8972400000000000 H
   0.6942200000000001    0.7100500000000000    0.0127800000000000 H
   0.6915950000000000    0.7772200000000000    0.9416500000000000 H
   0.5215850000000000    0.7488750000000000    0.9322800000000000 H
   0.5326550000000000    0.6816850000000000    0.0027400000000000 H
   0.0771700000000000    0.3583750000000000    0.8011900000000000 C
   0.1429550000000000    0.3283000000000000    0.8685200000000000 C
   0.1567050000000000    0.2201450000000000    0.9936900000000000 C
   0.1549900000000000    0.2575250000000000    0.9538200000000000 C
   0.4277300000000000    0.2718250000000000    0.8425000000000000 C
   0.4334200000000000    0.2309600000000000    0.8069499999999999 C
   0.3935550000000000    0.2237950000000000    0.7694100000000000 C
   0.3501350000000000    0.2588150000000000    0.7693600000000000 C
   0.3481150000000000    0.2982950000000000    0.8072500000000000 C
   0.3583650000000000    0.1728500000000000    0.6988600000000000 C
   0.3283100000000000    0.1070450000000000    0.6315300000000000 C
   0.2201600000000000    0.0932750000000000    0.5063600000000000 C
   0.2575400000000000    0.0950000000000000    0.5462200000000000 C
   0.2689750000000000    0.1445400000000000    0.5686400000000000 C
   0.2414300000000000    0.1895150000000000    0.5506400000000000 C
   0.2044750000000000    0.1832900000000000    0.5112900000000000 C
   0.3222850000000000    0.4782000000000000    0.8425900000000000 C
   0.3165950000000000    0.0190500000000000    0.8069499999999999 C
   0.3564550000000000    0.0262100000000000    0.7694100000000000 C
   0.3998750000000000    0.4912050000000000    0.7693600000000000 C
   0.4018900000000000    0.4517300000000000    0.8072400000000000 C
   0.3916450000000000    0.0771550000000000    0.6988600000000000 C
   0.4217050000000000    0.1429600000000000    0.6315300000000000 C
   0.0298450000000000    0.1567300000000000    0.5063600000000000 C
   0.4924700000000000    0.1550100000000000    0.5462200000000000 C
   0.4810400000000000    0.1054650000000000    0.5686400000000000 C
   0.0085700000000000    0.0604900000000000    0.5506400000000000 C
   0.0455300000000000    0.0667150000000000    0.5112900000000000 C
   0.2282200000000000    0.1777100000000000    0.3425800000000000 C
   0.2690850000000000    0.1834050000000000    0.3069400000000000 C
   0.2762300000000000    0.1435600000000000    0.2693700000000000 C
   0.2412000000000000    0.1001550000000000    0.2693000000000000 C
   0.2017250000000000    0.0981300000000000    0.3071800000000000 C
   0.3271700000000000    0.1083650000000000    0.1988200000000000 C
   0.3929600000000000    0.0782950000000000    0.1314900000000000 C
   0.4067050000000000    0.4701550000000000    0.0063200000000000 C
   0.4049950000000000    0.0075150000000000    0.0461900000000000 C
   0.3554600000000000    0.0189500000000000    0.0686100000000000 C
   0.3104850000000000    0.4914300000000000    0.0506200000000000 C
   0.3167100000000000    0.4544700000000000    0.0112700000000000 C
   0.0217850000000000    0.0722950000000000    0.3425700000000000 C
   0.4809300000000000    0.0666050000000000    0.3069400000000000 C
   0.4737850000000000    0.1064450000000000    0.2693700000000000 C
   0.0088050000000000    0.1498550000000000    0.2690000000000000 C
   0.0482800000000000    0.1518750000000000    0.3071800000000000 C
   0.4228400000000000    0.1416400000000000    0.1988200000000000 C
   0.3570500000000000    0.1717150000000000    0.1314900000000000 C
   0.3433000000000000    0.2798750000000000    0.0063200000000000 C
   0.3450150000000000    0.2424950000000000    0.0461900000000000 C
   0.3945500000000000    0.2310550000000000    0.0686100000000000 C
   0.4395200000000000    0.2585950000000000    0.0506200000000000 C
   0.4332950000000000    0.2955500000000000    0.0112000000000000 C
   0.3750050000000000    0.1250050000000000    0.6655600000000000 C
   0.3750050000000000    0.1250050000000000    0.1655200000000000 C
   0.0722800000000000    0.2281900000000000    0.1574200000000000 C
   0.0665900000000000    0.2690600000000000    0.1930600000000000 C
   0.1064500000000000    0.2762200000000000    0.2306000000000000 C
   0.1498700000000000    0.2412000000000000    0.2306500000000000 C
   0.1518850000000000    0.2017200000000000    0.1927000000000000 C
   0.1416400000000000    0.3271700000000000    0.3011500000000000 C
   0.1717000000000000    0.3929700000000000    0.3684800000000000 C