Zn48 H712 C517 N94 Cl48 O98
1.0
  21.1099999196190780    0.0000000000000000    0.0018421950231430
   0.0252379991332745   30.9294569324822390  -17.8405855538748064
   0.0000000000000000    0.0000000000000000   35.7060000000000031
Zn H C N Cl O
48 712 517 94 48 98
direct
   0.0251500000000000    0.2346900000000000    0.2735900000000000 Zn
   0.9417700000000000    0.2736500000000000    0.5389349999999999 Zn
   0.8584500000000000    0.5389349999999999    0.7653000000000000 Zn
   0.7751500000000000    0.7653700000000000    0.7263750000000000 Zn
   0.6918299999999999    0.7263300000000000    0.4610350000000000 Zn
   0.6084900000000000    0.4611300000000000    0.2347850000000000 Zn
   0.3584700000000000    0.5389250000000000    0.7652950000000001 Zn
   0.4417800000000000    0.2736250000000000    0.5389000000000000 Zn
   0.5251300000000000    0.2346850000000000    0.2735950000000000 Zn
   0.2751600000000000    0.7653400000000000    0.7263500000000001 Zn
   0.1918300000000000    0.7263250000000000    0.4610250000000000 Zn
   0.1085000000000000    0.4611250000000000    0.2347650000000000 Zn
   0.0251500000000000    0.7346900000000001    0.7735900000000000 Zn
   0.9417700000000000    0.7736499999999999    0.0389350000000000 Zn
   0.8584500000000000    0.0389350000000000    0.2653000000000000 Zn
   0.7751500000000000    0.2653700000000000    0.2263750000000000 Zn
   0.6918299999999999    0.2263300000000000    0.9610350000000000 Zn
   0.6084900000000000    0.9611300000000000    0.7347850000000000 Zn
   0.3584700000000000    0.0389250000000000    0.2652950000000000 Zn
   0.4417800000000000    0.7736250000000000    0.0389000000000000 Zn
   0.5251300000000000    0.7346850000000000    0.7735950000000000 Zn
   0.2751600000000000    0.2653400000000000    0.2263500000000000 Zn
   0.1918300000000000    0.2263250000000000    0.9610250000000000 Zn
   0.1085000000000000    0.9611250000000000    0.7347650000000000 Zn
   0.0251500000000000    0.7346900000000001    0.2735900000000000 Zn
   0.9417700000000000    0.7736499999999999    0.5389349999999999 Zn
   0.8584500000000000    0.0389350000000000    0.7653000000000000 Zn
   0.7751500000000000    0.2653700000000000    0.7263750000000000 Zn
   0.6918299999999999    0.2263300000000000    0.4610350000000000 Zn
   0.6084900000000000    0.9611300000000000    0.2347850000000000 Zn
   0.3584700000000000    0.0389250000000000    0.7652950000000001 Zn
   0.4417800000000000    0.7736250000000000    0.5389000000000000 Zn
   0.5251300000000000    0.7346850000000000    0.2735950000000000 Zn
   0.2751600000000000    0.2653400000000000    0.7263500000000001 Zn
   0.1918300000000000    0.2263250000000000    0.4610250000000000 Zn
   0.1085000000000000    0.9611250000000000    0.2347650000000000 Zn
   0.9417700000000000    0.2736500000000000    0.0389350000000000 Zn
   0.0251500000000000    0.2346900000000000    0.7735900000000000 Zn
   0.8584500000000000    0.5389349999999999    0.2653000000000000 Zn
   0.7751500000000000    0.7653700000000000    0.2263750000000000 Zn
   0.6918299999999999    0.7263300000000000    0.9610350000000000 Zn
   0.6084900000000000    0.4611300000000000    0.7347850000000000 Zn
   0.3584700000000000    0.5389250000000000    0.2652950000000000 Zn
   0.4417800000000000    0.2736250000000000    0.0389000000000000 Zn
   0.5251300000000000    0.2346850000000000    0.7735950000000000 Zn
   0.2751600000000000    0.7653400000000000    0.2263500000000000 Zn
   0.1918300000000000    0.7263250000000000    0.9610250000000000 Zn
   0.1085000000000000    0.4611250000000000    0.7347650000000000 Zn
   0.0000000000000000    0.1842850000000000    0.3966550000000000 H
   0.9705800000000000    0.1353600000000000    0.3618950000000000 H
   0.9480700000000000    0.1840950000000000    0.3638000000000000 H
   0.8726300000000000    0.1616150000000000    0.4024850000000000 H
   0.9020700000000000    0.1629150000000000    0.4705800000000000 H
   0.9462000000000000    0.1238050000000000    0.4257050000000000 H
   0.9817900000000001    0.1735350000000000    0.4645700000000000 H
   0.8834000000000000    0.3005550000000000    0.4091200000000000 H
   0.0733800000000000    0.2669750000000000    0.4278450000000000 H
   0.0953700000000000    0.2448700000000000    0.3512450000000000 H
   0.9140200000000001    0.2767500000000000    0.3328300000000000 H
   0.9960000000000000    0.3137950000000000    0.4928500000000000 H
   0.9140200000000001    0.3130400000000000    0.4807600000000000 H
   0.9938800000000000    0.2386400000000000    0.4645650000000000 H
   0.8822900000000000    0.2364450000000000    0.4233600000000000 H
   0.8872600000000000    0.3619050000000000    0.7266150000000000 H
   0.8648200000000000    0.3637950000000000    0.6797750000000000 H
   0.9280500000000000    0.3966600000000000    0.7124200000000001 H
   0.7892900000000000    0.4024750000000000    0.7409000000000000 H
   0.8186400000000000    0.4705550000000000    0.8076650000000001 H
   0.8627800000000000    0.4256800000000000    0.8019149999999999 H
   0.8983800000000000    0.4645600000000000    0.7910450000000000 H
   0.8001100000000000    0.4092550000000000    0.6086850000000000 H
   0.9901000000000000    0.4278050000000000    0.6608050000000000 H
   0.0120200000000000    0.3511950000000000    0.6063050000000000 H
   0.8306500000000000    0.3329500000000000    0.5561850000000000 H
   0.8308200000000000    0.4808550000000000    0.6677750000000000 H
   0.9128100000000000    0.4929150000000000    0.6791300000000000 H
   0.9105700000000000    0.4645650000000000    0.7259400000000000 H
   0.7990000000000000    0.4233950000000000    0.6869600000000000 H
   0.8038500000000000    0.7265800000000000    0.8646750000000001 H
   0.7814300000000000    0.6797350000000000    0.8159500000000000 H
   0.8446800000000000    0.7123600000000000    0.8157200000000000 H
   0.7059000000000000    0.7408500000000000    0.8383849999999999 H
   0.7352200000000000    0.8076099999999999    0.8370050000000000 H
   0.7793600000000001    0.8018850000000000    0.8761300000000001 H
   0.8149700000000000    0.7909999999999999    0.8263700000000000 H
   0.7168500000000000    0.6086850000000000    0.6994199999999999 H
   0.9067700000000000    0.6608700000000001    0.7329950000000001 H
   0.9286799999999999    0.6063650000000000    0.7551200000000000 H
   0.7474000000000000    0.5561850000000000    0.7232499999999999 H
   0.7475400000000000    0.6678400000000000    0.6869350000000000 H
   0.8295200000000000    0.6791850000000000    0.6861900000000000 H
   0.8272600000000000    0.7259400000000000    0.7613449999999999 H
   0.7157600000000000    0.6869050000000000    0.7635500000000000 H
   0.6519200000000001    0.8369949999999999    0.5293150000000000 H
   0.6960300000000000    0.8761000000000000    0.5741450000000000 H
   0.7316500000000000    0.8263250000000000    0.5353000000000000 H
   0.6224499999999999    0.8383750000000000    0.5974000000000000 H
   0.7203700000000000    0.8646250000000000    0.6380049999999999 H
   0.6978900000000000    0.8159300000000000    0.6361650000000000 H
   0.7611900000000000    0.8156550000000000    0.6032800000000000 H
   0.6335700000000000    0.6994700000000000    0.5909150000000000 H
   0.8234500000000000    0.7329650000000000    0.5720700000000000 H
   0.8454500000000000    0.7551099999999999    0.6486750000000000 H
   0.6641899999999999    0.7233300000000000    0.6672000000000000 H
   0.6641899999999999    0.6869300000000000    0.5192450000000000 H
   0.7461600000000000    0.6861699999999999    0.5070750000000001 H
   0.7438600000000000    0.7613250000000000    0.5353900000000000 H
   0.6322800000000000    0.7635449999999999    0.5766400000000000 H
   0.5686900000000000    0.5294650000000000    0.1923700000000000 H
   0.6127899999999999    0.5743199999999999    0.1981200000000000 H
   0.6484000000000000    0.5354449999999999    0.2090350000000000 H
   0.5391300000000000    0.5975600000000000    0.2591050000000000 H
   0.6370300000000000    0.6381200000000000    0.2733950000000000 H
   0.6145100000000000    0.6362700000000000    0.3202500000000000 H
   0.6778400000000000    0.6033800000000000    0.2876450000000000 H
   0.5502000000000000    0.5909700000000000    0.3914850000000000 H
   0.7400900000000000    0.5720950000000000    0.3390700000000000 H
   0.7621500000000000    0.6486499999999999    0.3935700000000000 H
   0.5808800000000000    0.6672150000000000    0.4439600000000000 H
   0.5807700000000000    0.5193300000000000    0.3323550000000000 H
   0.6627400000000000    0.5071150000000000    0.3209250000000000 H
   0.6605100000000000    0.5354750000000000    0.2740500000000000 H
   0.5488600000000000    0.5766950000000000    0.3131000000000000 H
   0.7770279594519972    0.4929154791466453    0.2602301977073665 H
   0.5538200000000000    0.2735250000000000    0.1352900000000000 H
   0.5312800000000000    0.3203500000000000    0.1840000000000000 H
   0.5946100000000000    0.2877050000000000    0.1842350000000000 H
   0.4559000000000000    0.2592100000000000    0.1615600000000000 H
   0.4854300000000000    0.1924250000000000    0.1628900000000000 H
   0.5295400000000000    0.1982050000000000    0.1237800000000000 H
   0.5651400000000000    0.2090600000000000    0.1735250000000000 H
   0.4667600000000000    0.3914550000000000    0.3005600000000000 H
   0.6566500000000000    0.3390050000000000    0.2669150000000000 H
   0.7324612876616234    0.4264085077787373    0.2505588646494070 H
   0.7005156723317963    0.4268836772105282    0.2431355294705650 H
   0.6787200000000000    0.3935650000000000    0.2449000000000000 H
   0.4974600000000000    0.4439950000000000    0.2768300000000000 H
   0.4973000000000000    0.3322200000000000    0.3129500000000000 H
   0.5792800000000000    0.3208250000000000    0.3137750000000000 H
   0.5772100000000000    0.2740700000000000    0.2385900000000000 H
   0.4656100000000000    0.3131250000000000    0.2364000000000000 H
   0.3039100000000000    0.7265800000000000    0.8646600000000000 H
   0.2814800000000000    0.6797299999999999    0.8159799999999999 H
   0.3447200000000000    0.7123550000000000    0.8156900000000000 H
   0.2059300000000000    0.7408399999999999    0.8383750000000000 H
   0.2352400000000000    0.8075950000000001    0.8369800000000001 H
   0.2794100000000000    0.8018799999999999    0.8761050000000000 H
   0.3149900000000000    0.7909850000000000    0.8263350000000000 H
   0.2168500000000000    0.6086700000000000    0.6994199999999999 H
   0.4067800000000000    0.6608450000000000    0.7329550000000000 H
   0.4287000000000000    0.6063450000000000    0.7550950000000001 H
   0.2474100000000000    0.5561750000000000    0.7232600000000000 H
   0.3295200000000000    0.6791600000000000    0.6861650000000000 H
   0.2475300000000000    0.6678150000000000    0.6869200000000000 H
   0.3272700000000000    0.7259150000000000    0.7613200000000000 H
   0.2157800000000000    0.6868850000000000    0.7635449999999999 H
   0.3872800000000000    0.3619050000000000    0.7266150000000000 H
   0.3648600000000000    0.3637950000000000    0.6797700000000000 H
   0.4280800000000000    0.3966650000000000    0.7124300000000000 H
   0.2893000000000000    0.4024650000000000    0.7408750000000000 H
   0.3186200000000000    0.4705450000000000    0.8076500000000000 H
   0.3627600000000000    0.4256750000000000    0.8019100000000000 H
   0.3983700000000000    0.4645600000000000    0.7910500000000000 H
   0.3001400000000000    0.4092450000000000    0.6086500000000000 H
   0.4901500000000000    0.4277900000000000    0.6607950000000000 H
   0.5120200000000000    0.3511800000000000    0.6063000000000001 H
   0.3306600000000000    0.3329350000000000    0.5562000000000000 H
   0.3308800000000000    0.4808550000000000    0.6677649999999999 H
   0.4128700000000000    0.4929050000000000    0.6791300000000000 H
   0.4106000000000000    0.4645600000000000    0.7259450000000001 H
   0.2990400000000000    0.4233850000000000    0.6869450000000000 H
   0.4705500000000000    0.1353450000000000    0.3618800000000000 H
   0.4480400000000000    0.1840900000000000    0.3638000000000000 H
   0.5113400000000000    0.1842600000000000    0.3966350000000000 H
   0.3726100000000000    0.1616100000000000    0.4024850000000000 H
   0.4020700000000000    0.1628950000000000    0.4705700000000000 H
   0.4461800000000000    0.1237800000000000    0.4256850000000000 H
   0.4817900000000000    0.1734950000000000    0.4645450000000000 H
   0.3834100000000000    0.3005550000000000    0.4091350000000000 H
   0.5733700000000000    0.2669450000000000    0.4278400000000000 H
   0.5953500000000000    0.2448500000000000    0.3512400000000000 H
   0.4140300000000000    0.2767500000000000    0.3328450000000000 H
   0.4140400000000000    0.3130250000000000    0.4807700000000000 H
   0.4960200000000000    0.3137700000000000    0.4928950000000000 H
   0.4938900000000000    0.2386150000000000    0.4645650000000000 H
   0.3822900000000000    0.2364450000000000    0.4233700000000000 H
   0.1519600000000000    0.8370050000000000    0.5293050000000000 H
   0.1960600000000000    0.8761000000000000    0.5741400000000000 H
   0.2316800000000000    0.8263250000000000    0.5353000000000000 H
   0.1224600000000000    0.8383849999999999    0.5974300000000000 H
   0.2203600000000000    0.8646250000000000    0.6380100000000000 H
   0.1978600000000000    0.8159300000000000    0.6361600000000001 H
   0.2611800000000000    0.8156500000000000    0.6032850000000000 H
   0.1335600000000000    0.6994600000000000    0.5909000000000000 H
   0.3234300000000000    0.7329650000000000    0.5720550000000000 H
   0.3454400000000000    0.7550950000000001    0.6486550000000000 H
   0.1642000000000000    0.7233000000000001    0.6671950000000000 H
   0.1641500000000000    0.6869400000000000    0.5192400000000000 H
   0.2461200000000000    0.6861600000000000    0.5070650000000000 H
   0.2438500000000000    0.7613200000000000    0.5353900000000000 H
   0.1322500000000000    0.7635550000000000    0.5766249999999999 H
   0.1144900000000000    0.6362700000000000    0.3202450000000000 H
   0.1778300000000000    0.6034000000000000    0.2876350000000000 H
   0.1369900000000000    0.6381350000000000    0.2730000000000000 H
   0.0391100000000000    0.5975600000000000    0.2591000000000000 H
   0.0686900000000000    0.5294700000000000    0.1923550000000000 H
   0.1127600000000000    0.5743400000000000    0.1981150000000000 H
   0.1484000000000000    0.5354700000000000    0.2090200000000000 H
   0.0502100000000000    0.5909650000000000    0.3914750000000000 H
   0.2401000000000000    0.5721050000000000    0.3390450000000000 H
   0.2621500000000000    0.6486600000000000    0.3935550000000000 H
   0.0808900000000000    0.6672050000000000    0.4439500000000000 H
   0.0807900000000000    0.5193250000000000    0.3323350000000000 H
   0.1627600000000000    0.5071150000000000    0.3209050000000000 H
   0.1605100000000000    0.5354750000000000    0.2740700000000000 H
   0.0488600000000000    0.5766850000000000    0.3130850000000000 H
   0.0538400000000000    0.2735250000000000    0.1352900000000000 H
   0.0313300000000000    0.3203550000000000    0.1840050000000000 H
   0.0946400000000000    0.2876950000000000    0.1842300000000000 H
   0.9559000000000000    0.2592350000000000    0.1615750000000000 H
   0.9853900000000000    0.1924450000000000    0.1628950000000000 H
   0.0295200000000000    0.1982100000000000    0.1237800000000000 H
   0.0651300000000000    0.2090600000000000    0.1735200000000000 H
   0.9667700000000000    0.3914500000000000    0.3005500000000000 H
   0.1566900000000000    0.3390150000000000    0.2669150000000000 H
   0.1787500000000000    0.3935700000000000    0.2448900000000000 H
   0.9974800000000000    0.4439800000000000    0.2768100000000000 H
   0.9973600000000000    0.3322300000000000    0.3129700000000000 H
   0.0793400000000000    0.3208300000000000    0.3137700000000000 H
   0.0772400000000000    0.2740700000000000    0.2385900000000000 H
   0.9656300000000000    0.3131450000000000    0.2364150000000000 H
   0.0000000000000000    0.6842850000000000    0.8966550000000000 H
   0.9705800000000000    0.6353600000000000    0.8618950000000001 H
   0.9480700000000000    0.6840950000000000    0.8638000000000000 H
   0.8726300000000000    0.6616150000000001    0.9024850000000000 H
   0.9020700000000000    0.6629150000000000    0.9705800000000000 H
   0.9462000000000000    0.6238049999999999    0.9257050000000000 H
   0.9817900000000001    0.6735350000000000    0.9645699999999999 H
   0.8834000000000000    0.8005550000000000    0.9091199999999999 H
   0.0733800000000000    0.7669750000000000    0.9278450000000000 H
   0.0953700000000000    0.7448700000000000    0.8512450000000000 H
   0.9140200000000001    0.7767500000000001    0.8328300000000000 H
   0.9960000000000000    0.8137950000000000    0.9928500000000000 H
   0.9140200000000001    0.8130400000000000    0.9807600000000001 H
   0.9938800000000000    0.7386400000000000    0.9645650000000000 H
   0.8822900000000000    0.7364450000000000    0.9233600000000000 H
   0.8872600000000000    0.8619049999999999    0.2266150000000000 H
   0.8648200000000000    0.8637950000000000    0.1797750000000000 H
   0.9280500000000000    0.8966600000000000    0.2124200000000000 H
   0.7892900000000000    0.9024750000000000    0.2409000000000000 H
   0.8186400000000000    0.9705550000000001    0.3076650000000000 H
   0.8627800000000000    0.9256800000000001    0.3019150000000000 H
   0.8983800000000000    0.9645600000000000    0.2910450000000000 H
   0.8001100000000000    0.9092549999999999    0.1086850000000000 H
   0.9901000000000000    0.9278050000000000    0.1608050000000000 H
   0.0120200000000000    0.8511949999999999    0.1063050000000000 H
   0.8306500000000000    0.8329500000000001    0.0561850000000000 H
   0.8308200000000000    0.9808550000000000    0.1677750000000000 H
   0.9128100000000000    0.9929150000000000    0.1791300000000000 H
   0.9105700000000000    0.9645650000000000    0.2259400000000000 H
   0.7990000000000000    0.9233950000000000    0.1869600000000000 H
   0.8038500000000000    0.2265800000000000    0.3646750000000000 H
   0.7814300000000000    0.1797350000000000    0.3159500000000000 H
   0.8446800000000000    0.2123600000000000    0.3157200000000000 H
   0.7059000000000000    0.2408500000000000    0.3383850000000000 H
   0.7352200000000000    0.3076100000000000    0.3370050000000000 H
   0.7793600000000001    0.3018850000000000    0.3761300000000000 H
   0.8149700000000000    0.2910000000000000    0.3263700000000000 H
   0.7168500000000000    0.1086850000000000    0.1994200000000000 H
   0.9067700000000000    0.1608700000000000    0.2329950000000000 H
   0.9286799999999999    0.1063650000000000    0.2551200000000000 H
   0.7474000000000000    0.0561850000000000    0.2232500000000000 H
   0.7475400000000000    0.1678400000000000    0.1869350000000000 H
   0.8295200000000000    0.1791850000000000    0.1861900000000000 H
   0.8272600000000000    0.2259400000000000    0.2613450000000000 H
   0.7157600000000000    0.1869050000000000    0.2635500000000000 H
   0.6519200000000001    0.3369950000000000    0.0293150000000000 H
   0.6960300000000000    0.3761000000000000    0.0741450000000000 H
   0.7316500000000000    0.3263250000000000    0.0353000000000000 H
   0.6224499999999999    0.3383750000000000    0.0974000000000000 H
   0.7203700000000000    0.3646250000000000    0.1380050000000000 H
   0.6978900000000000    0.3159300000000000    0.1361650000000000 H
   0.7611900000000000    0.3156550000000000    0.1032800000000000 H
   0.6335700000000000    0.1994700000000000    0.0909150000000000 H
   0.8234500000000000    0.2329650000000000    0.0720700000000000 H
   0.8454500000000000    0.2551100000000000    0.1486750000000000 H
   0.6641899999999999    0.2233300000000000    0.1672000000000000 H
   0.6641899999999999    0.1869300000000000    0.0192450000000000 H
   0.7461600000000000    0.1861700000000000    0.0070750000000000 H
   0.7438600000000000    0.2613250000000000    0.0353900000000000 H
   0.6322800000000000    0.2635450000000000    0.0766400000000000 H
   0.5686900000000000    0.0294650000000000    0.6923700000000000 H
   0.6127899999999999    0.0743200000000000    0.6981200000000000 H
   0.6484000000000000    0.0354450000000000    0.7090350000000000 H
   0.5391300000000000    0.0975600000000000    0.7591049999999999 H
   0.6370300000000000    0.1381200000000000    0.7733950000000001 H
   0.6145100000000000    0.1362700000000000    0.8202499999999999 H
   0.6778400000000000    0.1033800000000000    0.7876449999999999 H
   0.5502000000000000    0.0909700000000000    0.8914850000000001 H
   0.7400900000000000    0.0720950000000000    0.8390700000000000 H
   0.7621500000000000    0.1486500000000000    0.8935700000000000 H
   0.5808800000000000    0.1672150000000000    0.9439600000000000 H
   0.5807700000000000    0.0193300000000000    0.8323550000000000 H
   0.6627400000000000    0.0071150000000000    0.8209250000000000 H
   0.6605100000000000    0.0354750000000000    0.7740500000000000 H
   0.5488600000000000    0.0766950000000000    0.8130999999999999 H
   0.5538200000000000    0.7735250000000000    0.6352900000000000 H
   0.5312800000000000    0.8203500000000000    0.6839999999999999 H
   0.5946100000000000    0.7877050000000000    0.6842350000000000 H
   0.4559000000000000    0.7592099999999999    0.6615600000000000 H
   0.4854300000000000    0.6924250000000001    0.6628900000000000 H
   0.5295400000000000    0.6982050000000000    0.6237800000000000 H
   0.5651400000000000    0.7090600000000000    0.6735250000000000 H
   0.4667600000000000    0.8914550000000000    0.8005599999999999 H
   0.6566500000000000    0.8390050000000000    0.7669150000000000 H
   0.6787200000000000    0.8935649999999999    0.7449000000000000 H
   0.4974600000000000    0.9439949999999999    0.7768300000000000 H
   0.4973000000000000    0.8322200000000000    0.8129500000000001 H
   0.5792800000000000    0.8208250000000000    0.8137750000000000 H
   0.5772100000000000    0.7740700000000000    0.7385900000000000 H
   0.4656100000000000    0.8131250000000000    0.7363999999999999 H
   0.3039100000000000    0.2265800000000000    0.3646600000000000 H
   0.2814800000000000    0.1797300000000000    0.3159800000000000 H
   0.3447200000000000    0.2123550000000000    0.3156900000000000 H
   0.2059300000000000    0.2408400000000000    0.3383750000000000 H
   0.2352400000000000    0.3075950000000000    0.3369800000000000 H
   0.2794100000000000    0.3018800000000000    0.3761050000000000 H
   0.3149900000000000    0.2909850000000000    0.3263350000000000 H
   0.2168500000000000    0.1086700000000000    0.1994200000000000 H
   0.4067800000000000    0.1608450000000000    0.2329550000000000 H
   0.4287000000000000    0.1063450000000000    0.2550950000000000 H
   0.2474100000000000    0.0561750000000000    0.2232600000000000 H
   0.3295200000000000    0.1791600000000000    0.1861650000000000 H
   0.2475300000000000    0.1678150000000000    0.1869200000000000 H
   0.3272700000000000    0.2259150000000000    0.2613200000000000 H
   0.2157800000000000    0.1868850000000000    0.2635450000000000 H
   0.3872800000000000    0.8619049999999999    0.2266150000000000 H
   0.3648600000000000    0.8637950000000000    0.1797700000000000 H
   0.4280800000000000    0.8966650000000000    0.2124300000000000 H
   0.2893000000000000    0.9024650000000001    0.2408750000000000 H
   0.3186200000000000    0.9705450000000000    0.3076500000000000 H
   0.3627600000000000    0.9256750000000000    0.3019100000000000 H
   0.3983700000000000    0.9645600000000000    0.2910500000000000 H
   0.3001400000000000    0.9092450000000001    0.1086500000000000 H
   0.4901500000000000    0.9277900000000000    0.1607950000000000 H
   0.5120200000000000    0.8511800000000000    0.1063000000000000 H
   0.3306600000000000    0.8329350000000000    0.0562000000000000 H
   0.3308800000000000    0.9808550000000000    0.1677650000000000 H
   0.4128700000000000    0.9929049999999999    0.1791300000000000 H
   0.4106000000000000    0.9645600000000000    0.2259450000000000 H
   0.2990400000000000    0.9233850000000000    0.1869450000000000 H
   0.4705500000000000    0.6353450000000000    0.8618800000000000 H
   0.4480400000000000    0.6840900000000000    0.8638000000000000 H
   0.5113400000000000    0.6842600000000000    0.8966350000000001 H
   0.3726100000000000    0.6616100000000000    0.9024850000000000 H
   0.4020700000000000    0.6628950000000000    0.9705699999999999 H
   0.4461800000000000    0.6237800000000000    0.9256850000000000 H
   0.4817900000000000    0.6734950000000000    0.9645450000000000 H
   0.3834100000000000    0.8005550000000000    0.9091350000000000 H
   0.5733700000000000    0.7669450000000000    0.9278400000000000 H
   0.5953500000000000    0.7448500000000000    0.8512400000000000 H
   0.4140300000000000    0.7767500000000001    0.8328450000000001 H
   0.4140400000000000    0.8130250000000000    0.9807699999999999 H
   0.4960200000000000    0.8137700000000000    0.9928950000000001 H
   0.4938900000000000    0.7386150000000000    0.9645650000000000 H
   0.3822900000000000    0.7364450000000000    0.9233700000000000 H
   0.1519600000000000    0.3370050000000000    0.0293050000000000 H
   0.1960600000000000    0.3761000000000000    0.0741400000000000 H
   0.2316800000000000    0.3263250000000000    0.0353000000000000 H
   0.1224600000000000    0.3383850000000000    0.0974300000000000 H
   0.2203600000000000    0.3646250000000000    0.1380100000000000 H
   0.1978600000000000    0.3159300000000000    0.1361600000000000 H
   0.2611800000000000    0.3156500000000000    0.1032850000000000 H
   0.1335600000000000    0.1994600000000000    0.0909000000000000 H
   0.3234300000000000    0.2329650000000000    0.0720550000000000 H
   0.3454400000000000    0.2550950000000000    0.1486550000000000 H
   0.1642000000000000    0.2233000000000000    0.1671950000000000 H
   0.1641500000000000    0.1869400000000000    0.0192400000000000 H
   0.2461200000000000    0.1861600000000000    0.0070650000000000 H
   0.2438500000000000    0.2613200000000000    0.0353900000000000 H
   0.1322500000000000    0.2635550000000000    0.0766250000000000 H
   0.1144900000000000    0.1362700000000000    0.8202450000000000 H
   0.1778300000000000    0.1034000000000000    0.7876350000000000 H
   0.1369900000000000    0.1381350000000000    0.7730000000000000 H
   0.0391100000000000    0.0975600000000000    0.7591000000000000 H
   0.0686900000000000    0.0294700000000000    0.6923550000000001 H
   0.1127600000000000    0.0743400000000000    0.6981150000000000 H
   0.1484000000000000    0.0354700000000000    0.7090200000000000 H
   0.0502100000000000    0.0909650000000000    0.8914750000000000 H
   0.2401000000000000    0.0721050000000000    0.8390450000000000 H
   0.2621500000000000    0.1486600000000000    0.8935550000000000 H
   0.0808900000000000    0.1672050000000000    0.9439500000000001 H
   0.0807900000000000    0.0193250000000000    0.8323350000000000 H
   0.1627600000000000    0.0071150000000000    0.8209050000000000 H
   0.1605100000000000    0.0354750000000000    0.7740700000000000 H
   0.0488600000000000    0.0766850000000000    0.8130850000000001 H
   0.0538400000000000    0.7735250000000000    0.6352900000000000 H
   0.0313300000000000    0.8203549999999999    0.6840050000000000 H
   0.0946400000000000    0.7876950000000000    0.6842300000000000 H
   0.9559000000000000    0.7592350000000000    0.6615750000000000 H
   0.9853900000000000    0.6924450000000000    0.6628950000000000 H
   0.0295200000000000    0.6982100000000000    0.6237800000000000 H
   0.0651300000000000    0.7090600000000000    0.6735200000000000 H
   0.9667700000000000    0.8914500000000001    0.8005500000000000 H
   0.1566900000000000    0.8390150000000001    0.7669150000000000 H
   0.1787500000000000    0.8935700000000000    0.7448900000000001 H
   0.9974800000000000    0.9439800000000000    0.7768100000000000 H
   0.9973600000000000    0.8322300000000000    0.8129700000000000 H
   0.0793400000000000    0.8208299999999999    0.8137700000000000 H
   0.0772400000000000    0.7740700000000000    0.7385900000000000 H
   0.9656300000000000    0.8131450000000000    0.7364150000000000 H
   0.0000000000000000    0.6842850000000000    0.3966550000000000 H
   0.9705800000000000    0.6353600000000000    0.3618950000000000 H
   0.9480700000000000    0.6840950000000000    0.3638000000000000 H
   0.8726300000000000    0.6616150000000001    0.4024850000000000 H
   0.9020700000000000    0.6629150000000000    0.4705800000000000 H
   0.9462000000000000    0.6238049999999999    0.4257050000000000 H
   0.9817900000000001    0.6735350000000000    0.4645700000000000 H
   0.8834000000000000    0.8005550000000000    0.4091200000000000 H
   0.0733800000000000    0.7669750000000000    0.4278450000000000 H
   0.0953700000000000    0.7448700000000000    0.3512450000000000 H
   0.9140200000000001    0.7767500000000001    0.3328300000000000 H
   0.9960000000000000    0.8137950000000000    0.4928500000000000 H
   0.9140200000000001    0.8130400000000000    0.4807600000000000 H
   0.9938800000000000    0.7386400000000000    0.4645650000000000 H
   0.8822900000000000    0.7364450000000000    0.4233600000000000 H
   0.8872600000000000    0.8619049999999999    0.7266150000000000 H
   0.8648200000000000    0.8637950000000000    0.6797750000000000 H
   0.9280500000000000    0.8966600000000000    0.7124200000000001 H
   0.7892900000000000    0.9024750000000000    0.7409000000000000 H
   0.8186400000000000    0.9705550000000001    0.8076650000000001 H
   0.8627800000000000    0.9256800000000001    0.8019149999999999 H
   0.8983800000000000    0.9645600000000000    0.7910450000000000 H
   0.8001100000000000    0.9092549999999999    0.6086850000000000 H
   0.9901000000000000    0.9278050000000000    0.6608050000000000 H
   0.0120200000000000    0.8511949999999999    0.6063050000000000 H