H2 C2 N3
1.0
  38.9629918542025919    0.0000000000000000   -5.4765848637031187
 -10.1421942075962352   21.8791990453570939   -2.5682775918982310
   0.0000000000000000    0.0000000000000000   30.7779999999999987
H C N
2 2 3
direct
   0.0846800000000000    0.7685999999999999    0.3282000000000000 H
   0.9807699999999999    0.6586300000000000    0.2424450000000000 H
   0.0108550000000000    0.6840100000000000    0.2555050000000000 C
   0.0635400000000000    0.7395000000000000    0.2994100000000000 C
   0.0375150000000000    0.6908900000000000    0.2313800000000000 N
   0.0717300000000000    0.7266200000000000    0.2599350000000000 N
   0.0259650000000000    0.7134400000000000    0.2982050000000000 N
