H6 O4
1.0
  38.9629918542025919    0.0000000000000000   -5.4765848637031187
 -10.1421942075962352   21.8791990453570939   -2.5682775918982310
   0.0000000000000000    0.0000000000000000   30.7779999999999987
H O
6 4
direct
   0.8361185120751194    0.0719816795302571    0.4311536785581659 H
   0.9408502438188224    0.1098464456248062    0.4878243605312902 H
   0.8918695721884168    0.0861584411394301    0.4608333117341916 H
   0.8095953367334522    0.8072305294072485    0.3594806025435871 H
   0.7766100111027433    0.9428896081403124    0.3654243542747305 H
   0.7945427404655274    0.8855329569141389    0.3635987408361250 H
   0.8609700000000000    0.1023000000000000    0.4463400000000000 O
   0.9201500000000000    0.1206600000000000    0.4781150000000000 O
   0.7897799999999999    0.8215900000000000    0.3572950000000000 O
   0.7734750000000000    0.9008000000000000    0.3612750000000000 O
