H4 C8 O4
1.0
  12.7539986868394095    0.0000000000000000   -0.0057875814141504
   0.0444596923488098   25.4739611402109247   -0.0017784206931670
   0.0000000000000000    0.0000000000000000   25.6610000000000014
H C O
4 8 4
direct
   0.0722700000000000    0.7782500000000000    0.7665600000000000 H
   0.0687600000000000    0.8412550000000000    0.8411000000000000 H
   0.0722900000000000    0.9706699999999999    0.7335199999999999 H
   0.0688900000000000    0.9076800000000000    0.6589800000000000 H
   0.0704100000000000    0.8390350000000000    0.7081600000000000 C
   0.0714500000000000    0.8204050000000001    0.7596200000000000 C
   0.0697900000000000    0.8555349999999999    0.8011000000000000 C
   0.0709200000000000    0.8010550000000001    0.6637300000000000 C
   0.0703300000000000    0.9098900000000000    0.7919000000000000 C
   0.0714900000000000    0.9285150000000000    0.7403999999999999 C
   0.0698200000000000    0.8933900000000000    0.6989500000000000 C
   0.0708700000000000    0.9478850000000000    0.8363300000000000 C
   0.0486900000000000    0.8199900000000000    0.6182100000000000 O
   0.0937000000000000    0.7532550000000000    0.6712000000000000 O
   0.0488200000000000    0.9290200000000000    0.8818800000000000 O
   0.0936000000000000    0.9956450000000000    0.8288200000000000 O
