H2 O2
1.0
  12.7539986868394095    0.0000000000000000   -0.0057875814141504
   0.0444596923488098   25.4739611402109247   -0.0017784206931670
   0.0000000000000000    0.0000000000000000   25.6610000000000014
H O
2 2
direct
   0.0654815385195448    0.9432748718444994    0.8474612662328677 H
   0.0654892203555398    0.8056808125311676    0.6526094831571827 H
   0.0488200000000000    0.9290200000000000    0.8818800000000000 O
   0.0486900000000000    0.8199900000000000    0.6182100000000000 O
