H3 C9 O6
1.0
  21.5619933497375271    0.0000000000000000    0.0169347534581414
  -0.0067900396241269   35.3319982928024530    0.0086332361524923
   0.0000000000000000    0.0000000000000000   34.3920000000000030
H C O
3 9 6
direct
   0.3723600000000000    0.5480950000000000    0.4303750000000000 H
   0.3544600000000000    0.5989150000000000    0.3816200000000000 H
   0.5386600000000000    0.5156849999999999    0.3696950000000000 H
   0.4698400000000000    0.4987600000000000    0.4330600000000000 C
   0.4576900000000000    0.5292500000000000    0.4039600000000000 C
   0.4051600000000000    0.5524900000000000    0.4067050000000000 C
   0.3952800000000000    0.5808450000000001    0.3792500000000000 C
   0.4368600000000000    0.5862700000000000    0.3483400000000000 C
   0.4882800000000000    0.5618450000000000    0.3446150000000000 C
   0.4984300000000000    0.5340250000000000    0.3727800000000000 C
   0.4204100000000000    0.6174750000000000    0.3201050000000000 C
   0.5328800000000000    0.5641100000000000    0.3112550000000000 C
   0.5251100000000000    0.4862650000000000    0.4349100000000000 O
   0.4237800000000000    0.4877900000000000    0.4534500000000000 O
   0.4453300000000000    0.6500650000000000    0.3248950000000000 O
   0.3788200000000000    0.6094950000000000    0.2953850000000000 O
   0.5689000000000000    0.5366750000000000    0.3047150000000000 O
   0.5310000000000000    0.5949900000000000    0.2915200000000000 O
