Ca2 H4 C9 O6
1.0
   6.7448906442513765    0.0000000000000000    1.0194667464367080
   2.1490496353520196    8.3114708881023294    3.6102029197706895
   0.0000000000000000    0.0000000000000000   10.1820000000000004
Ca H C O
2 4 9 6
direct
   0.7553600000000000    0.5448200000000000    0.8820800000000000 Ca
   0.2447500000000000    0.4551100000000000    0.1179200000000000 Ca
   0.2501400000000000    0.2729300000000000    0.4462200000000000 H
   0.2440500000000000    0.9126100000000000    0.2399300000000000 H
   0.2752500000000000    0.8927400000000000    0.6670300000000000 H
   0.2222200000000000    0.4772900000000000    0.5983900000000000 H
   0.2372000000000000    0.6857700000000000    0.4090500000000000 C
   0.2504500000000000    0.6754599999999999    0.6493300000000000 C
   0.2460600000000000    0.8468900000000000    0.3546900000000000 C
   0.2577800000000000    0.0953100000000000    0.3898900000000000 C
   0.2630900000000000    0.8353800000000000    0.5946600000000000 C
   0.2297500000000000    0.6057500000000000    0.3080000000000000 C
   0.2540700000000000    0.5879200000000000    0.8071400000000000 C
   0.2343600000000000    0.6012700000000000    0.5566700000000000 C
   0.2560800000000000    0.9227000000000000    0.4474300000000000 C
   0.2245400000000000    0.4567200000000000    0.3587400000000000 O
   0.3871000000000000    0.5996800000000000    0.8759600000000000 O
   0.2564000000000000    0.1534300000000000    0.4902100000000000 O
   0.1231200000000000    0.5062500000000000    0.8717400000000000 O
   0.2589600000000000    0.1767800000000000    0.2597900000000000 O
   0.2302000000000000    0.6849000000000000    0.1750600000000000 O
