H1 C1 O2
1.0
  20.2549983680281862    0.0000000000000000   -0.0081308779014316
   0.0170400043840881   18.4209921159226333    0.0003215071014938
   0.0000000000000000    0.0000000000000000   18.5420000000000016
H C O
1 1 2
direct
   0.8298100000000000    0.1362400000000000    0.9792700000000000 H
   0.7994500000000000    0.1401200000000000    0.9300500000000000 C
   0.7637699999999999    0.0835400000000000   -0.0835900000000001 O
   0.8031199999999999    0.1968800000000000    0.8934700000000000 O
