H2 O2
1.0
  15.0148021630188051    0.0000000000000000   -2.9142307742191198
  -1.2654105606784818   18.6376140379089108   -6.4997630792871215
   0.0000000000000000    0.0000000000000000   30.0399999999999991
H O
2 2
direct
   0.0471376221327003    0.1316450439144021    0.1650415855937014 H
   0.2027883676382195   -0.0333306735855611    0.8350340639102309 H
   0.0511400000000000    0.1841400000000000    0.1773750000000000 O
   0.1988600000000000    0.0068300000000000    0.8226800000000001 O
