H1 O1
1.0
  10.4238962343311421    0.0000000000000000   -5.1515840336635330
  -1.7044085306903451   11.4622764985619732   -1.0743616853852616
   0.0000000000000000    0.0000000000000000   23.3014000000000010
H O
1 1
direct
   0.6288714678850277    0.2935734836979856    0.6953439818103556 H
   0.5601500000000000    0.3140500000000000    0.6561399999999999 O
