Ag16 H75 C60 N30
1.0
  10.4238962343311421    0.0000000000000000   -5.1515840336635330
  -1.7044085306903451   11.4622764985619732   -1.0743616853852616
   0.0000000000000000    0.0000000000000000   23.3014000000000010
Ag H C N
16 75 60 30
direct
   0.9399500000000000    0.2479900000000000    0.2801800000000000 Ag
   0.2060700000000000    0.1430700000000000    0.0594600000000000 Ag
   0.0011800000000000    0.5018600000000000    0.2502350000000000 Ag
   0.9994800000000000    0.9981500000000000    0.2493950000000000 Ag
   0.6184700000000000    0.6440900000000001    0.3533250000000000 Ag
   0.0600800000000000    0.7520100000000000    0.2198300000000000 Ag
   0.7939600000000000    0.8569300000000000    0.4405550000000000 Ag
   0.3815600000000000    0.3559100000000000    0.1466850000000000 Ag
   0.9399500000000000    0.2479900000000000    0.7801800000000000 Ag
   0.2060700000000000    0.1430700000000000    0.5594600000000000 Ag
   0.0011800000000000    0.5018600000000000    0.7502350000000000 Ag
   0.9994800000000000    0.9981500000000000    0.7493950000000000 Ag
   0.6184700000000000    0.6440900000000001    0.8533250000000000 Ag
   0.0600800000000000    0.7520100000000000    0.7198300000000000 Ag
   0.7939600000000000    0.8569300000000000    0.9405550000000000 Ag
   0.3815600000000000    0.3559100000000000    0.6466850000000000 Ag
   0.5523200000000000    0.3386200000000000    0.0636700000000000 H
   0.8032800000000000    0.2862000000000000    0.1216400000000000 H
   0.5437000000000000    0.2658900000000000    0.2620000000000000 H
   0.6883500000000000    0.2010500000000000    0.2931350000000000 H
   0.6967400000000000    0.3552000000000000    0.3074300000000000 H
   0.2573200000000000    0.2085900000000000    0.3488900000000000 H
   0.3726900000000000    0.1572200000000000    0.4743450000000000 H
   0.9132000000000000    0.2967900000000000    0.4053600000000000 H
   0.8844500000000000    0.1428800000000000    0.4019500000000000 H
   0.9754300000000000    0.2333800000000000    0.4779800000000000 H
   0.8981900000000000    0.5555500000000000    0.4505400000000000 H
   0.0716700000000000    0.5004300000000000    0.4037150000000000 H
   0.6244600000000000    0.5697100000000000    0.2191150000000000 H
   0.7578000000000000    0.5931400000000000    0.2016350000000000 H
   0.7181600000000000    0.7108000000000000    0.2410350000000000 H
   0.1029500000000000    0.4454000000000000    0.0495750000000000 H
   0.9305500000000000    0.5027900000000000    0.0966850000000000 H
   0.2445500000000000    0.4105300000000000    0.2988650000000000 H
   0.3774900000000000    0.4319300000000000    0.2809350000000000 H
   0.2825600000000000    0.2915400000000000    0.2595450000000000 H
   0.5989100000000001    0.9446400000000000    0.3013100000000000 H
   0.6921300000000000    0.9995500000000000    0.2145450000000000 H
   0.0631500000000000    0.9313700000000000    0.4375400000000000 H
   0.0975900000000000    0.9069900000000000    0.3708400000000000 H
   0.0191200000000000    0.7898900000000000    0.3910800000000000 H
   0.4008600000000000    0.0544500000000000    0.1981600000000000 H
   0.3069700000000000    0.9972800000000001    0.2843500000000000 H
   0.9013600000000001    0.0893700000000000    0.1279400000000000 H
   0.9367300000000000    0.0669300000000000    0.0614450000000000 H
   0.9797100000000000    0.2077600000000000    0.1084850000000000 H
   0.4477000000000000    0.6613800000000000    0.4363400000000000 H
   0.1967500000000000    0.7138000000000000    0.3783750000000000 H
   0.4563200000000000    0.7341100000000000    0.2380150000000000 H
   0.3116800000000000    0.7989500000000000    0.2068800000000000 H
   0.3032900000000000    0.6448000000000000    0.1925850000000000 H
   0.7427100000000000    0.7914099999999999    0.1511250000000000 H
   0.6273300000000001    0.8427900000000000    0.0256700000000000 H
   0.0868300000000000    0.7032100000000000    0.0946550000000000 H
   0.1155800000000000    0.8571200000000000    0.0980650000000000 H
   0.0246000000000000    0.7666200000000000    0.0220350000000000 H
   0.2573200000000000    0.2085900000000000    0.8488899999999999 H
   0.3726900000000000    0.1572200000000000    0.9743450000000000 H
   0.9132000000000000    0.2967900000000000    0.9053599999999999 H
   0.8844500000000000    0.1428800000000000    0.9019500000000000 H
   0.9754300000000000    0.2333800000000000    0.9779800000000001 H
   0.8981900000000000    0.5555500000000000    0.9505399999999999 H
   0.0716700000000000    0.5004300000000000    0.9037150000000000 H
   0.6244600000000000    0.5697100000000000    0.7191149999999999 H
   0.7578000000000000    0.5931400000000000    0.7016350000000000 H
   0.7181600000000000    0.7108000000000000    0.7410350000000000 H
   0.1029500000000000    0.4454000000000000    0.5495750000000000 H
   0.9305500000000000    0.5027900000000000    0.5966850000000000 H
   0.2445500000000000    0.4105300000000000    0.7988649999999999 H
   0.3774900000000000    0.4319300000000000    0.7809349999999999 H
   0.2825600000000000    0.2915400000000000    0.7595450000000000 H
   0.5989100000000001    0.9446400000000000    0.8013100000000000 H
   0.6921300000000000    0.9995500000000000    0.7145450000000000 H
   0.0631500000000000    0.9313700000000000    0.9375400000000000 H
   0.0975900000000000    0.9069900000000000    0.8708400000000001 H
   0.0191200000000000    0.7898900000000000    0.8910800000000000 H
   0.4008600000000000    0.0544500000000000    0.6981600000000000 H
   0.3069700000000000    0.9972800000000001    0.7843500000000000 H
   0.9013600000000001    0.0893700000000000    0.6279399999999999 H
   0.9367300000000000    0.0669300000000000    0.5614450000000000 H
   0.9797100000000000    0.2077600000000000    0.6084849999999999 H
   0.4477000000000000    0.6613800000000000    0.9363400000000000 H
   0.1967500000000000    0.7138000000000000    0.8783750000000000 H
   0.4563200000000000    0.7341100000000000    0.7380150000000000 H
   0.3116800000000000    0.7989500000000000    0.7068800000000000 H
   0.3032900000000000    0.6448000000000000    0.6925850000000000 H
   0.7427100000000000    0.7914099999999999    0.6511250000000000 H
   0.6273300000000001    0.8427900000000000    0.5256700000000000 H
   0.0868300000000000    0.7032100000000000    0.5946550000000000 H
   0.1155800000000000    0.8571200000000000    0.5980650000000000 H
   0.0246000000000000    0.7666200000000000    0.5220350000000000 H
   0.6554300000000000    0.2856600000000000    0.2104950000000000 C
   0.6094200000000000    0.3181800000000000    0.1118600000000000 C
   0.7336600000000000    0.2917900000000000    0.1405350000000000 C
   0.6457300000000000    0.2764300000000000    0.2715500000000000 C
   0.0787400000000000    0.2114800000000000    0.4223800000000000 C
   0.2192000000000000    0.2037400000000000    0.3835650000000000 C
   0.2763100000000000    0.1779400000000000    0.4456800000000000 C
   0.9563700000000001    0.2217100000000000    0.4270700000000000 C
   0.8115100000000000    0.5853300000000000    0.3012450000000000 C
   0.8927800000000000    0.5581100000000000    0.4030200000000000 C
   0.9790700000000000    0.5315299999999999    0.3799900000000000 C
   0.7232700000000000    0.6165800000000000    0.2373950000000000 C
   0.1901800000000000    0.4170300000000000    0.1990850000000000 C
   0.1086300000000000    0.4434700000000000    0.0971850000000000 C
   0.0228800000000000    0.4712000000000000    0.1203650000000000 C
   0.2784000000000000    0.3859200000000000    0.2629700000000000 C
   0.8981000000000000    0.9150199999999999    0.3443100000000000 C
   0.6940700000000000    0.9421000000000000    0.3039100000000000 C
   0.7399200000000000    0.9685800000000000    0.2607550000000000 C
   0.0262400000000000    0.8839900000000001    0.3882900000000000 C
   0.1012000000000000    0.0826300000000000    0.1548250000000000 C
   0.3054900000000000    0.0563400000000000    0.1954000000000000 C
   0.2593100000000000    0.0287300000000000    0.2382700000000000 C
   0.9730000000000000    0.1134900000000000    0.1108300000000000 C
   0.3446000000000000    0.7143400000000000    0.2895200000000000 C
   0.3906100000000000    0.6818200000000000    0.3881550000000000 C
   0.2663700000000000    0.7082100000000000    0.3594800000000000 C
   0.3543000000000000    0.7235700000000000    0.2284650000000000 C
   0.9212900000000001    0.7885200000000000    0.0776350000000000 C
   0.7808300000000000    0.7962600000000000    0.1164500000000000 C
   0.7237200000000000    0.8220700000000000    0.0543350000000000 C
   0.0436600000000000    0.7783000000000000    0.0729450000000000 C
   0.0787400000000000    0.2114800000000000    0.9223800000000000 C
   0.2192000000000000    0.2037400000000000    0.8835649999999999 C
   0.2763100000000000    0.1779400000000000    0.9456800000000001 C
   0.9563700000000001    0.2217100000000000    0.9270700000000001 C
   0.8115100000000000    0.5853300000000000    0.8012450000000000 C
   0.8927800000000000    0.5581100000000000    0.9030199999999999 C
   0.9790700000000000    0.5315299999999999    0.8799900000000000 C
   0.7232700000000000    0.6165800000000000    0.7373950000000000 C
   0.1901800000000000    0.4170300000000000    0.6990850000000000 C
   0.1086300000000000    0.4434700000000000    0.5971850000000000 C
   0.0228800000000000    0.4712000000000000    0.6203650000000001 C
   0.2784000000000000    0.3859200000000000    0.7629699999999999 C
   0.8981000000000000    0.9150199999999999    0.8443100000000000 C
   0.6940700000000000    0.9421000000000000    0.8039100000000000 C
   0.7399200000000000    0.9685800000000000    0.7607550000000001 C
   0.0262400000000000    0.8839900000000001    0.8882900000000000 C
   0.1012000000000000    0.0826300000000000    0.6548250000000000 C
   0.3054900000000000    0.0563400000000000    0.6954000000000000 C
   0.2593100000000000    0.0287300000000000    0.7382700000000000 C
   0.9730000000000000    0.1134900000000000    0.6108300000000000 C
   0.3446000000000000    0.7143400000000000    0.7895200000000000 C
   0.3906100000000000    0.6818200000000000    0.8881550000000000 C
   0.2663700000000000    0.7082100000000000    0.8594800000000000 C
   0.3543000000000000    0.7235700000000000    0.7284650000000000 C
   0.9212900000000001    0.7885200000000000    0.5776350000000000 C
   0.7808300000000000    0.7962600000000000    0.6164499999999999 C
   0.7237200000000000    0.8220700000000000    0.5543350000000000 C
   0.0436600000000000    0.7783000000000000    0.5729450000000000 C
   0.5601500000000000    0.3140500000000000    0.1561400000000000 N
   0.7621500000000000    0.2706300000000000    0.2026750000000000 N
   0.0947400000000000    0.2255500000000000    0.3691300000000000 N
   0.1874000000000000    0.1830800000000000    0.4701250000000000 N
   0.7869699999999999    0.5916900000000000    0.3531050000000000 N
   0.9273400000000001    0.5489000000000001    0.3157400000000000 N
   0.0747900000000000    0.4543300000000000    0.1846950000000000 N
   0.2142700000000000    0.4096600000000000    0.1470850000000000 N
   0.7943300000000000    0.9086600000000000    0.3566600000000000 N
   0.8687200000000000    0.9512900000000000    0.2864700000000000 N
   0.1303400000000000    0.0455000000000000    0.2124450000000000 N
   0.2052800000000000    0.0900000000000000    0.1427150000000000 N
   0.4398800000000000    0.6859499999999999    0.3438750000000000 N
   0.2378800000000000    0.7293700000000000    0.2973400000000000 N
   0.9052800000000000    0.7744500000000000    0.1308800000000000 N
   0.8126300000000000    0.8169300000000000    0.0298900000000000 N
   0.0947400000000000    0.2255500000000000    0.8691300000000000 N
   0.1874000000000000    0.1830800000000000    0.9701250000000000 N
   0.7869699999999999    0.5916900000000000    0.8531050000000000 N
   0.9273400000000001    0.5489000000000001    0.8157400000000000 N
   0.0747900000000000    0.4543300000000000    0.6846950000000001 N
   0.2142700000000000    0.4096600000000000    0.6470850000000000 N
   0.7943300000000000    0.9086600000000000    0.8566600000000000 N
   0.8687200000000000    0.9512900000000000    0.7864700000000000 N
   0.1303400000000000    0.0455000000000000    0.7124450000000000 N
   0.2052800000000000    0.0900000000000000    0.6427150000000000 N
   0.4398800000000000    0.6859499999999999    0.8438749999999999 N
   0.2378800000000000    0.7293700000000000    0.7973399999999999 N
   0.9052800000000000    0.7744500000000000    0.6308800000000000 N
   0.8126300000000000    0.8169300000000000    0.5298900000000000 N
