H14 C14 N4
1.0
  20.6208562319002020    0.0000000000000000    1.1337514115989660
   2.4092232036434060   12.7062177624399659    2.4195707736045446
   0.0000000000000000    0.0000000000000000   35.9879999999999995
H C N
14 14 4
direct
   0.4226500000000000    0.5065200000000000    0.7406000000000000 H
   0.5172500000000000    0.3344700000000000    0.7736350000000001 H
   0.3289700000000000    0.2485900000000000    0.7800650000000000 H
   0.5030400000000000    0.1600600000000000    0.8160250000000000 H
   0.4247700000000000    0.1267100000000000    0.8213100000000000 H
   0.5158800000000000    0.9506900000000000    0.8191349999999999 H
   0.4514900000000000    0.1837100000000000    0.7212900000000000 H
   0.5773300000000000    0.4934800000000000    0.7594050000000000 H
   0.4827400000000000    0.6655300000000000    0.7263500000000001 H
   0.6710199999999999    0.7514100000000000    0.7199400000000000 H
   0.4969500000000000    0.8399400000000000    0.6839500000000001 H
   0.5752200000000000    0.8732900000000000    0.6786950000000000 H
   0.4841100000000000    0.0493100000000000    0.6808650000000001 H
   0.5485000000000000    0.8162900000000000    0.7787100000000000 H
   0.4915500000000000    0.0275900000000000    0.7112450000000000 C
   0.5271800000000000    0.8966100000000000    0.7657499999999999 C
   0.4179500000000000    0.4268100000000000    0.7533449999999999 C
   0.4649300000000000    0.3428900000000000    0.7687800000000000 C
   0.3668500000000000    0.2959500000000000    0.7729550000000001 C
   0.4605700000000000    0.1545900000000000    0.7999499999999999 C
   0.4809700000000000    0.0766500000000000    0.7733500000000000 C
   0.5084400000000000    0.9724100000000000    0.7887600000000000 C
   0.4728100000000000    0.1033900000000000    0.7342150000000001 C
   0.5820400000000000    0.5731900000000000    0.7466600000000000 C
   0.5350600000000000    0.6571200000000000    0.7312250000000000 C
   0.6331300000000000    0.7040500000000000    0.7270500000000000 C
   0.5394099999999999    0.8454199999999999    0.7000500000000001 C
   0.5190200000000000    0.9233600000000000    0.7266250000000000 C
   0.3569100000000000    0.3966200000000000    0.7560750000000001 N
   0.4316700000000000    0.2605600000000000    0.7812600000000001 N
   0.6430800000000000    0.6033800000000000    0.7439300000000000 N
   0.5683200000000000    0.7394400000000000    0.7187000000000000 N
