Zn24 H282 C345 N92 O96
1.0
  26.5109994185487068    0.0000000000000000   -0.0055524508153632
  -0.0399497923069582   15.6769461727753612   -0.0095765337436380
   0.0000000000000000    0.0000000000000000   38.8879999999999981
Zn H C N O
24 282 345 92 96
direct
   0.9537000000000000    0.5530000000000000    0.4624100000000000 Zn
   0.6203666666666666    0.5530000000000000    0.4624100000000000 Zn
   0.2870333333333333    0.5530000000000000    0.4624100000000000 Zn
   0.2144033333333333    0.4471100000000000    0.2123050000000000 Zn
   0.5477366666666666    0.4471100000000000    0.2123050000000000 Zn
   0.8810699999999999    0.4471100000000000    0.2123050000000000 Zn
   0.6203666666666666    0.5530000000000000    0.9624100000000000 Zn
   0.9537000000000000    0.5530000000000000    0.9624100000000000 Zn
   0.2870333333333333    0.5530000000000000    0.9624100000000000 Zn
   0.5477366666666666    0.4471100000000000    0.7123050000000000 Zn
   0.8810699999999999    0.4471100000000000    0.7123050000000000 Zn
   0.2144033333333333    0.4471100000000000    0.7123050000000000 Zn
   0.0460833333333333    0.0527000000000000    0.7862549999999999 Zn
   0.3794166666666666    0.0527000000000000    0.7862549999999999 Zn
   0.7127500000000000    0.0527000000000000    0.7862549999999999 Zn
   0.1204366666666667    0.9473300000000000    0.0362500000000000 Zn
   0.7871033333333333    0.9473300000000000    0.0362500000000000 Zn
   0.4537700000000000    0.9473300000000000    0.0362500000000000 Zn
   0.0460833333333333    0.0527000000000000    0.2862550000000000 Zn
   0.3794166666666666    0.0527000000000000    0.2862550000000000 Zn
   0.7127500000000000    0.0527000000000000    0.2862550000000000 Zn
   0.1204366666666667    0.9473300000000000    0.5362500000000000 Zn
   0.7871033333333333    0.9473300000000000    0.5362500000000000 Zn
   0.4537700000000000    0.9473300000000000    0.5362500000000000 Zn
   0.1604858990267322    0.7924742464733407    0.5514995931319934 H
   0.1142787074596868    0.7773490462120176    0.5229140242012285 H
   0.1780449212615102    0.4955357966790232    0.6512439262406351 H
   0.2401454697333731    0.4789711295495301    0.6478952281028579 H
   0.0132496347466636    0.4953555202650037    0.5096648327815407 H
   0.7382566666666666    0.4885300000000000    0.5565200000000000 H
   0.7194333333333333    0.3886200000000000    0.5395050000000000 H
   0.7662233333333333    0.4206800000000000    0.4835900000000000 H
   0.7913533333333334    0.5321100000000000    0.6011200000000000 H
   0.9519733333333333    0.4880500000000000    0.5919850000000000 H
   0.9538933333333333    0.4665700000000000    0.6557550000000000 H
   0.7996233333333334    0.5054400000000000    0.6638200000000000 H
   0.7576700000000000    0.6341900000000000    0.5011000000000000 H
   0.8776833333333333    0.6742000000000000    0.5751900000000000 H
   0.7440199999999999    0.7910000000000000    0.5017300000000000 H
   0.8588966666666666    0.8280999999999999    0.5725800000000000 H
   0.9041533333333333    0.5274200000000000    0.5425300000000000 H
   0.4049233333333333    0.4885300000000000    0.5565200000000000 H
   0.3861000000000000    0.3886200000000000    0.5395050000000000 H
   0.4328900000000000    0.4206800000000000    0.4835900000000000 H
   0.4580200000000000    0.5321100000000000    0.6011200000000000 H
   0.6186400000000000    0.4880500000000000    0.5919850000000000 H
   0.6205600000000000    0.4665700000000000    0.6557550000000000 H
   0.4662900000000000    0.5054400000000000    0.6638200000000000 H
   0.4243366666666666    0.6341900000000000    0.5011000000000000 H
   0.5443500000000000    0.6742000000000000    0.5751900000000000 H
   0.4106866666666666    0.7910000000000000    0.5017300000000000 H
   0.5255633333333334    0.8280999999999999    0.5725800000000000 H
   0.5708200000000000    0.5274200000000000    0.5425300000000000 H
   0.1952912386431609    0.5147654024723211    0.4824422501402879 H
   0.4295366666666666    0.5113400000000000    0.3063950000000000 H
   0.4483500000000000    0.6112400000000000    0.2894250000000000 H
   0.4014700000000000    0.5790700000000000    0.2334850000000000 H
   0.3763933333333333    0.4685500000000000    0.3510450000000000 H
   0.2157066666666667    0.5121400000000000    0.3421450000000000 H
   0.2139600000000000    0.5333000000000000    0.4059550000000000 H
   0.3683000000000000    0.4949200000000000    0.4137850000000000 H
   0.4096933333333333    0.3654800000000000    0.2511700000000000 H
   0.2895233333333333    0.3266500000000000    0.3251900000000000 H
   0.4228400000000000    0.2085400000000000    0.2517500000000000 H
   0.3078133333333333    0.1725900000000000    0.3225450000000000 H
   0.2634700000000000    0.4729500000000000    0.2926050000000000 H
   0.7628699999999999    0.5113400000000000    0.3063950000000000 H
   0.7816833333333333    0.6112400000000000    0.2894250000000000 H
   0.7348033333333333    0.5790700000000000    0.2334850000000000 H
   0.7097266666666666    0.4685500000000000    0.3510450000000000 H
   0.5490400000000000    0.5121400000000000    0.3421450000000000 H
   0.5472933333333333    0.5333000000000000    0.4059550000000000 H
   0.7016333333333333    0.4949200000000000    0.4137850000000000 H
   0.7430266666666666    0.3654800000000000    0.2511700000000000 H
   0.6228566666666666    0.3266500000000000    0.3251900000000000 H
   0.7561733333333333    0.2085400000000000    0.2517500000000000 H
   0.6411466666666666    0.1725900000000000    0.3225450000000000 H
   0.5968033333333334    0.4729500000000000    0.2926050000000000 H
   0.0962033333333333    0.5113400000000000    0.3063950000000000 H
   0.1150166666666667    0.6112400000000000    0.2894250000000000 H
   0.0681366666666667    0.5790700000000000    0.2334850000000000 H
   0.0430600000000000    0.4685500000000000    0.3510450000000000 H
   0.8823733333333332    0.5121400000000000    0.3421450000000000 H
   0.8806266666666667    0.5333000000000000    0.4059550000000000 H
   0.0349666666666667    0.4949200000000000    0.4137850000000000 H
   0.0763600000000000    0.3654800000000000    0.2511700000000000 H
   0.9561899999999999    0.3266500000000000    0.3251900000000000 H
   0.0895066666666667    0.2085400000000000    0.2517500000000000 H
   0.9744800000000000    0.1725900000000000    0.3225450000000000 H
   0.9301366666666666    0.4729500000000000    0.2926050000000000 H
   0.4049233333333333    0.4885300000000000    0.0565200000000000 H
   0.3861000000000000    0.3886200000000000    0.0395050000000000 H
   0.4328900000000000    0.4206800000000000    0.9835900000000000 H
   0.4580200000000000    0.5321100000000000    0.1011200000000000 H
   0.6186400000000000    0.4880500000000000    0.0919850000000000 H
   0.6205600000000000    0.4665700000000000    0.1557550000000000 H
   0.4662900000000000    0.5054400000000000    0.1638200000000000 H
   0.4243366666666666    0.6341900000000000    0.0011000000000000 H
   0.5443500000000000    0.6742000000000000    0.0751900000000000 H
   0.4106866666666666    0.7910000000000000    0.0017300000000000 H
   0.5255633333333334    0.8280999999999999    0.0725800000000000 H
   0.5708200000000000    0.5274200000000000    0.0425300000000000 H
   0.7382566666666666    0.4885300000000000    0.0565200000000000 H
   0.7194333333333333    0.3886200000000000    0.0395050000000000 H
   0.7662233333333333    0.4206800000000000    0.9835900000000000 H
   0.7913533333333334    0.5321100000000000    0.1011200000000000 H
   0.9519733333333333    0.4880500000000000    0.0919850000000000 H
   0.9538933333333333    0.4665700000000000    0.1557550000000000 H
   0.7996233333333334    0.5054400000000000    0.1638200000000000 H
   0.7576700000000000    0.6341900000000000    0.0011000000000000 H
   0.8776833333333333    0.6742000000000000    0.0751900000000000 H
   0.7440199999999999    0.7910000000000000    0.0017300000000000 H
   0.8588966666666666    0.8280999999999999    0.0725800000000000 H
   0.9041533333333333    0.5274200000000000    0.0425300000000000 H
   0.0715900000000000    0.4885300000000000    0.0565200000000000 H
   0.0527666666666667    0.3886200000000000    0.0395050000000000 H
   0.0995566666666667    0.4206800000000000    0.9835900000000000 H
   0.1246866666666667    0.5321100000000000    0.1011200000000000 H
   0.2853066666666667    0.4880500000000000    0.0919850000000000 H
   0.2872266666666666    0.4665700000000000    0.1557550000000000 H
   0.1329566666666667    0.5054400000000000    0.1638200000000000 H
   0.0910033333333333    0.6341900000000000    0.0011000000000000 H
   0.2110166666666667    0.6742000000000000    0.0751900000000000 H
   0.0773533333333333    0.7910000000000000    0.0017300000000000 H
   0.1922300000000000    0.8280999999999999    0.0725800000000000 H
   0.2374866666666667    0.5274200000000000    0.0425300000000000 H
   0.7628699999999999    0.5113400000000000    0.8063950000000000 H
   0.7816833333333333    0.6112400000000000    0.7894250000000000 H
   0.7348033333333333    0.5790700000000000    0.7334849999999999 H
   0.7097266666666666    0.4685500000000000    0.8510450000000001 H
   0.5490400000000000    0.5121400000000000    0.8421449999999999 H
   0.5472933333333333    0.5333000000000000    0.9059550000000001 H
   0.7016333333333333    0.4949200000000000    0.9137850000000001 H
   0.7430266666666666    0.3654800000000000    0.7511700000000000 H
   0.6228566666666666    0.3266500000000000    0.8251900000000000 H
   0.7561733333333333    0.2085400000000000    0.7517499999999999 H
   0.6411466666666666    0.1725900000000000    0.8225450000000001 H
   0.5968033333333334    0.4729500000000000    0.7926050000000000 H
   0.0962033333333333    0.5113400000000000    0.8063950000000000 H
   0.1150166666666667    0.6112400000000000    0.7894250000000000 H
   0.0681366666666667    0.5790700000000000    0.7334849999999999 H
   0.0430600000000000    0.4685500000000000    0.8510450000000001 H
   0.8823733333333332    0.5121400000000000    0.8421449999999999 H
   0.8806266666666667    0.5333000000000000    0.9059550000000001 H
   0.0349666666666667    0.4949200000000000    0.9137850000000001 H
   0.0763600000000000    0.3654800000000000    0.7511700000000000 H
   0.9561899999999999    0.3266500000000000    0.8251900000000000 H
   0.0895066666666667    0.2085400000000000    0.7517499999999999 H
   0.9744800000000000    0.1725900000000000    0.8225450000000001 H
   0.9301366666666666    0.4729500000000000    0.7926050000000000 H
   0.4295366666666666    0.5113400000000000    0.8063950000000000 H
   0.4483500000000000    0.6112400000000000    0.7894250000000000 H
   0.4014700000000000    0.5790700000000000    0.7334849999999999 H
   0.3763933333333333    0.4685500000000000    0.8510450000000001 H
   0.2157066666666667    0.5121400000000000    0.8421449999999999 H
   0.2139600000000000    0.5333000000000000    0.9059550000000001 H
   0.3683000000000000    0.4949200000000000    0.9137850000000001 H
   0.4096933333333333    0.3654800000000000    0.7511700000000000 H
   0.2895233333333333    0.3266500000000000    0.8251900000000000 H
   0.4228400000000000    0.2085400000000000    0.7517499999999999 H
   0.3078133333333333    0.1725900000000000    0.8225450000000001 H
   0.2634700000000000    0.4729500000000000    0.7926050000000000 H
   0.2613066666666666    0.9888000000000000    0.6923800000000000 H
   0.2793400000000000    0.8882700000000000    0.7089250000000000 H
   0.2327533333333333    0.9197500000000000    0.7650300000000000 H
   0.2088366666666667    0.0328400000000000    0.6480000000000000 H
   0.0482000000000000    0.9866100000000000    0.6562900000000000 H
   0.0470166666666667    0.9652900000000000    0.5925000000000000 H
   0.2013133333333333    0.0061600000000000    0.5852450000000000 H
   0.2422433333333333    0.1341500000000000    0.7478450000000000 H
   0.1226100000000000    0.1740200000000000    0.6735650000000000 H
   0.2566100000000000    0.2909300000000000    0.7470749999999999 H
   0.1421266666666667    0.3278600000000000    0.6760050000000000 H
   0.0955566666666667    0.0265800000000000    0.7060800000000000 H
   0.5946399999999999    0.9888000000000000    0.6923800000000000 H
   0.6126733333333333    0.8882700000000000    0.7089250000000000 H
   0.5660866666666666    0.9197500000000000    0.7650300000000000 H
   0.5421700000000000    0.0328400000000000    0.6480000000000000 H
   0.3815333333333333    0.9866100000000000    0.6562900000000000 H
   0.3803500000000000    0.9652900000000000    0.5925000000000000 H
   0.5346466666666667    0.0061600000000000    0.5852450000000000 H
   0.5755766666666666    0.1341500000000000    0.7478450000000000 H
   0.4559433333333333    0.1740200000000000    0.6735650000000000 H
   0.5899433333333333    0.2909300000000000    0.7470749999999999 H
   0.4754600000000000    0.3278600000000000    0.6760050000000000 H
   0.4288900000000000    0.0265800000000000    0.7060800000000000 H
   0.9279733333333333    0.9888000000000000    0.6923800000000000 H
   0.9460066666666667    0.8882700000000000    0.7089250000000000 H
   0.8994199999999999    0.9197500000000000    0.7650300000000000 H
   0.8755033333333333    0.0328400000000000    0.6480000000000000 H
   0.7148666666666667    0.9866100000000000    0.6562900000000000 H
   0.7136833333333333    0.9652900000000000    0.5925000000000000 H
   0.8679800000000000    0.0061600000000000    0.5852450000000000 H
   0.9089099999999999    0.1341500000000000    0.7478450000000000 H
   0.7892766666666666    0.1740200000000000    0.6735650000000000 H
   0.9232766666666666    0.2909300000000000    0.7470749999999999 H
   0.8087933333333333    0.3278600000000000    0.6760050000000000 H
   0.7622233333333333    0.0265800000000000    0.7060800000000000 H
   0.9051799999999999    0.0120700000000000    0.9424200000000000 H
   0.8870733333333333    0.1123000000000000    0.9592600000000000 H
   0.9337366666666667    0.0803400000000000    0.0152200000000000 H
   0.9576166666666666    0.9675300000000000    0.8979699999999999 H
   0.1182166666666667    0.0141100000000000    0.9063399999999999 H
   0.1194233333333333    0.0351500000000000    0.8425450000000000 H
   0.9651633333333333    0.9939300000000000    0.8352100000000000 H
   0.9245300000000000    0.8657600000000000    0.9978050000000001 H
   0.0442566666666667    0.8268300000000000    0.9235350000000000 H
   0.9108399999999999    0.7088100000000001    0.0000000000000000 H
   0.0254133333333333    0.6728000000000000    0.9260800000000000 H
   0.0709033333333333    0.9740100000000000    0.9560649999999999 H
   0.5718466666666666    0.0120700000000000    0.9424200000000000 H
   0.5537400000000000    0.1123000000000000    0.9592600000000000 H
   0.6004033333333333    0.0803400000000000    0.0152200000000000 H
   0.6242833333333333    0.9675300000000000    0.8979699999999999 H
   0.7848833333333333    0.0141100000000000    0.9063399999999999 H
   0.7860900000000000    0.0351500000000000    0.8425450000000000 H
   0.6318299999999999    0.9939300000000000    0.8352100000000000 H
   0.5911966666666666    0.8657600000000000    0.9978050000000001 H
   0.7109233333333334    0.8268300000000000    0.9235350000000000 H
   0.5775066666666666    0.7088100000000001    0.0000000000000000 H
   0.6920799999999999    0.6728000000000000    0.9260800000000000 H
   0.7375699999999999    0.9740100000000000    0.9560649999999999 H
   0.2385133333333333    0.0120700000000000    0.9424200000000000 H
   0.2204066666666667    0.1123000000000000    0.9592600000000000 H
   0.2670700000000000    0.0803400000000000    0.0152200000000000 H
   0.2909500000000000    0.9675300000000000    0.8979699999999999 H
   0.4515500000000000    0.0141100000000000    0.9063399999999999 H
   0.4527566666666666    0.0351500000000000    0.8425450000000000 H
   0.2984966666666666    0.9939300000000000    0.8352100000000000 H
   0.2578633333333333    0.8657600000000000    0.9978050000000001 H
   0.3775900000000000    0.8268300000000000    0.9235350000000000 H
   0.2441733333333333    0.7088100000000001    0.0000000000000000 H
   0.3587466666666667    0.6728000000000000    0.9260800000000000 H
   0.4042366666666666    0.9740100000000000    0.9560649999999999 H
   0.2613066666666666    0.9888000000000000    0.1923800000000000 H
   0.2793400000000000    0.8882700000000000    0.2089250000000000 H
   0.2327533333333333    0.9197500000000000    0.2650300000000000 H
   0.2088366666666667    0.0328400000000000    0.1480000000000000 H
   0.0482000000000000    0.9866100000000000    0.1562900000000000 H
   0.0470166666666667    0.9652900000000000    0.0925000000000000 H
   0.2013133333333333    0.0061600000000000    0.0852450000000000 H
   0.2422433333333333    0.1341500000000000    0.2478450000000000 H
   0.1226100000000000    0.1740200000000000    0.1735650000000000 H
   0.2566100000000000    0.2909300000000000    0.2470750000000000 H
   0.1421266666666667    0.3278600000000000    0.1760050000000000 H
   0.0955566666666667    0.0265800000000000    0.2060800000000000 H
   0.5946399999999999    0.9888000000000000    0.1923800000000000 H
   0.6126733333333333    0.8882700000000000    0.2089250000000000 H
   0.5660866666666666    0.9197500000000000    0.2650300000000000 H
   0.5421700000000000    0.0328400000000000    0.1480000000000000 H
   0.3815333333333333    0.9866100000000000    0.1562900000000000 H
   0.3803500000000000    0.9652900000000000    0.0925000000000000 H
   0.5346466666666667    0.0061600000000000    0.0852450000000000 H
   0.5755766666666666    0.1341500000000000    0.2478450000000000 H
   0.4559433333333333    0.1740200000000000    0.1735650000000000 H
   0.5899433333333333    0.2909300000000000    0.2470750000000000 H
   0.4754600000000000    0.3278600000000000    0.1760050000000000 H
   0.4288900000000000    0.0265800000000000    0.2060800000000000 H
   0.9279733333333333    0.9888000000000000    0.1923800000000000 H
   0.9460066666666667    0.8882700000000000    0.2089250000000000 H
   0.8994199999999999    0.9197500000000000    0.2650300000000000 H
   0.8755033333333333    0.0328400000000000    0.1480000000000000 H
   0.7148666666666667    0.9866100000000000    0.1562900000000000 H
   0.7136833333333333    0.9652900000000000    0.0925000000000000 H
   0.8679800000000000    0.0061600000000000    0.0852450000000000 H
   0.9089099999999999    0.1341500000000000    0.2478450000000000 H
   0.7892766666666666    0.1740200000000000    0.1735650000000000 H
   0.9232766666666666    0.2909300000000000    0.2470750000000000 H
   0.8087933333333333    0.3278600000000000    0.1760050000000000 H
   0.7622233333333333    0.0265800000000000    0.2060800000000000 H
   0.9051799999999999    0.0120700000000000    0.4424200000000000 H
   0.8870733333333333    0.1123000000000000    0.4592600000000000 H
   0.9337366666666667    0.0803400000000000    0.5152200000000000 H
   0.9576166666666666    0.9675300000000000    0.3979700000000000 H
   0.1182166666666667    0.0141100000000000    0.4063400000000000 H
   0.1194233333333333    0.0351500000000000    0.3425450000000000 H
   0.9651633333333333    0.9939300000000000    0.3352100000000000 H
   0.9245300000000000    0.8657600000000000    0.4978050000000000 H
   0.0442566666666667    0.8268300000000000    0.4235350000000000 H
   0.9108399999999999    0.7088100000000001    0.5000000000000000 H
   0.0254133333333333    0.6728000000000000    0.4260800000000000 H
   0.0709033333333333    0.9740100000000000    0.4560650000000000 H
   0.5718466666666666    0.0120700000000000    0.4424200000000000 H
   0.5537400000000000    0.1123000000000000    0.4592600000000000 H
   0.6004033333333333    0.0803400000000000    0.5152200000000000 H
   0.6242833333333333    0.9675300000000000    0.3979700000000000 H
   0.7848833333333333    0.0141100000000000    0.4063400000000000 H
   0.7860900000000000    0.0351500000000000    0.3425450000000000 H
   0.6318299999999999    0.9939300000000000    0.3352100000000000 H
   0.5911966666666666    0.8657600000000000    0.4978050000000000 H
   0.7109233333333334    0.8268300000000000    0.4235350000000000 H
   0.5775066666666666    0.7088100000000001    0.5000000000000000 H
   0.6920799999999999    0.6728000000000000    0.4260800000000000 H
   0.7375699999999999    0.9740100000000000    0.4560650000000000 H
   0.2385133333333333    0.0120700000000000    0.4424200000000000 H
   0.2204066666666667    0.1123000000000000    0.4592600000000000 H
   0.2670700000000000    0.0803400000000000    0.5152200000000000 H
   0.2909500000000000    0.9675300000000000    0.3979700000000000 H
   0.4515500000000000    0.0141100000000000    0.4063400000000000 H
   0.4527566666666666    0.0351500000000000    0.3425450000000000 H
   0.2984966666666666    0.9939300000000000    0.3352100000000000 H
   0.2578633333333333    0.8657600000000000    0.4978050000000000 H
   0.3775900000000000    0.8268300000000000    0.4235350000000000 H
   0.2441733333333333    0.7088100000000001    0.5000000000000000 H
   0.3587466666666667    0.6728000000000000    0.4260800000000000 H
   0.4042366666666666    0.9740100000000000    0.4560650000000000 H
   0.6801233333333333    0.4937500000000000    0.5178250000000000 C
   0.8522999999999999    0.5019200000000000    0.4807400000000000 C
   0.7289966666666666    0.4549700000000000    0.5325650000000000 C
   0.7712500000000000    0.4561800000000000    0.5074850000000000 C
   0.8144266666666666    0.5005500000000001    0.5097699999999999 C
   0.8278266666666666    0.5156200000000000    0.6120099999999999 C
   0.9175199999999999    0.4908000000000000    0.6072250000000000 C
   0.9185566666666666    0.4778900000000000    0.6422200000000000 C
   0.8323766666666667    0.5008500000000000    0.6469350000000000 C
   0.7809733333333333    0.6748700000000000    0.5173400000000000 C
   0.8475900000000000    0.6968500000000000    0.5585950000000000 C
   0.7733000000000000    0.7621000000000000    0.5175149999999999 C
   0.8372133333333333    0.7831300000000000    0.5570600000000000 C
   0.8711433333333333    0.5101100000000000    0.5909600000000000 C
   0.8191633333333332    0.6397600000000000    0.5382600000000000 C
   0.3467900000000000    0.4937500000000000    0.5178250000000000 C
   0.5189666666666666    0.5019200000000000    0.4807400000000000 C
   0.3956633333333333    0.4549700000000000    0.5325650000000000 C
   0.4379166666666666    0.4561800000000000    0.5074850000000000 C
   0.4810933333333333    0.5005500000000001    0.5097699999999999 C
   0.4944933333333333    0.5156200000000000    0.6120099999999999 C
   0.5841866666666666    0.4908000000000000    0.6072250000000000 C
   0.5852233333333332    0.4778900000000000    0.6422200000000000 C
   0.4990433333333333    0.5008500000000000    0.6469350000000000 C
   0.4476400000000000    0.6748700000000000    0.5173400000000000 C
   0.5142566666666666    0.6968500000000000    0.5585950000000000 C
   0.4399666666666666    0.7621000000000000    0.5175149999999999 C
   0.5038800000000000    0.7831300000000000    0.5570600000000000 C
   0.5378100000000000    0.5101100000000000    0.5909600000000000 C
   0.4858300000000000    0.6397600000000000    0.5382600000000000 C
   0.4876466666666667    0.5061300000000000    0.2677050000000000 C
   0.3152433333333333    0.4981100000000000    0.2308300000000000 C
   0.4387700000000000    0.5449000000000001    0.2824550000000000 C
   0.3964633333333333    0.5437200000000000    0.2574150000000000 C
   0.3532300000000000    0.4995600000000000    0.2597850000000000 C
   0.3399433333333333    0.4848800000000000    0.3620000000000000 C
   0.2502133333333333    0.5094600000000000    0.3573450000000000 C
   0.2492700000000000    0.5222000000000000    0.3923600000000000 C
   0.3354900000000000    0.4994800000000000    0.3969450000000000 C
   0.3862566666666666    0.3250400000000000    0.2673900000000000 C
   0.3195600000000000    0.3037300000000000    0.3086050000000000 C
   0.3936466666666666    0.2377400000000000    0.2675400000000000 C
   0.3296533333333333    0.2173500000000000    0.3070500000000000 C
   0.2965633333333333    0.4903800000000000    0.3410100000000000 C
   0.3481800000000000    0.3605300000000000    0.2883000000000000 C
   0.8209799999999999    0.5061300000000000    0.2677050000000000 C
   0.6485766666666666    0.4981100000000000    0.2308300000000000 C
   0.7721033333333333    0.5449000000000001    0.2824550000000000 C
   0.7297966666666666    0.5437200000000000    0.2574150000000000 C
   0.6865633333333333    0.4995600000000000    0.2597850000000000 C
   0.6732766666666666    0.4848800000000000    0.3620000000000000 C
   0.5835466666666667    0.5094600000000000    0.3573450000000000 C
   0.5826033333333334    0.5222000000000000    0.3923600000000000 C
   0.6688233333333333    0.4994800000000000    0.3969450000000000 C
   0.7195900000000000    0.3250400000000000    0.2673900000000000 C
   0.6528933333333333    0.3037300000000000    0.3086050000000000 C
   0.7269800000000000    0.2377400000000000    0.2675400000000000 C
   0.6629866666666666    0.2173500000000000    0.3070500000000000 C
   0.6298966666666665    0.4903800000000000    0.3410100000000000 C
   0.6815133333333333    0.3605300000000000    0.2883000000000000 C
   0.1543133333333333    0.5061300000000000    0.2677050000000000 C
   0.9819099999999999    0.4981100000000000    0.2308300000000000 C
   0.1054366666666667    0.5449000000000001    0.2824550000000000 C
   0.0631300000000000    0.5437200000000000    0.2574150000000000 C
   0.0198966666666667    0.4995600000000000    0.2597850000000000 C
   0.0066100000000000    0.4848800000000000    0.3620000000000000 C
   0.9168799999999999    0.5094600000000000    0.3573450000000000 C
   0.9159366666666666    0.5222000000000000    0.3923600000000000 C
   0.0021566666666667    0.4994800000000000    0.3969450000000000 C
   0.0529233333333333    0.3250400000000000    0.2673900000000000 C
   0.9862266666666666    0.3037300000000000    0.3086050000000000 C
   0.0603133333333333    0.2377400000000000    0.2675400000000000 C
   0.9963199999999999    0.2173500000000000    0.3070500000000000 C
   0.9632299999999999    0.4903800000000000    0.3410100000000000 C
   0.0148466666666667    0.3605300000000000    0.2883000000000000 C
   0.3467900000000000    0.4937500000000000    0.0178250000000000 C
   0.5189666666666666    0.5019200000000000    0.9807399999999999 C
   0.3956633333333333    0.4549700000000000    0.0325650000000000 C
   0.4379166666666666    0.4561800000000000    0.0074850000000000 C
   0.4810933333333333    0.5005500000000001    0.0097700000000000 C
   0.4944933333333333    0.5156200000000000    0.1120100000000000 C
   0.5841866666666666    0.4908000000000000    0.1072250000000000 C
   0.5852233333333332    0.4778900000000000    0.1422200000000000 C
   0.4990433333333333    0.5008500000000000    0.1469350000000000 C
   0.4476400000000000    0.6748700000000000    0.0173400000000000 C
   0.5142566666666666    0.6968500000000000    0.0585950000000000 C
   0.4399666666666666    0.7621000000000000    0.0175150000000000 C
   0.5038800000000000    0.7831300000000000    0.0570600000000000 C
   0.5378100000000000    0.5101100000000000    0.0909600000000000 C
   0.4858300000000000    0.6397600000000000    0.0382600000000000 C
   0.6801233333333333    0.4937500000000000    0.0178250000000000 C
   0.8522999999999999    0.5019200000000000    0.9807399999999999 C
   0.7289966666666666    0.4549700000000000    0.0325650000000000 C
   0.7712500000000000    0.4561800000000000    0.0074850000000000 C
   0.8144266666666666    0.5005500000000001    0.0097700000000000 C
   0.8278266666666666    0.5156200000000000    0.1120100000000000 C
   0.9175199999999999    0.4908000000000000    0.1072250000000000 C
   0.9185566666666666    0.4778900000000000    0.1422200000000000 C
   0.8323766666666667    0.5008500000000000    0.1469350000000000 C
   0.7809733333333333    0.6748700000000000    0.0173400000000000 C
   0.8475900000000000    0.6968500000000000    0.0585950000000000 C
   0.7733000000000000    0.7621000000000000    0.0175150000000000 C
   0.8372133333333333    0.7831300000000000    0.0570600000000000 C
   0.8711433333333333    0.5101100000000000    0.0909600000000000 C
   0.8191633333333332    0.6397600000000000    0.0382600000000000 C
   0.0134566666666667    0.4937500000000000    0.0178250000000000 C
   0.1856333333333333    0.5019200000000000    0.9807399999999999 C
   0.0623300000000000    0.4549700000000000    0.0325650000000000 C
   0.1045833333333333    0.4561800000000000    0.0074850000000000 C
   0.1477600000000000    0.5005500000000001    0.0097700000000000 C
   0.1611600000000000    0.5156200000000000    0.1120100000000000 C
   0.2508533333333333    0.4908000000000000    0.1072250000000000 C
   0.2518899999999999    0.4778900000000000    0.1422200000000000 C
   0.1657100000000000    0.5008500000000000    0.1469350000000000 C
   0.1143066666666667    0.6748700000000000    0.0173400000000000 C
   0.1809233333333333    0.6968500000000000    0.0585950000000000 C
   0.1066333333333333    0.7621000000000000    0.0175150000000000 C
   0.1705466666666667    0.7831300000000000    0.0570600000000000 C
   0.2044766666666667    0.5101100000000000    0.0909600000000000 C
   0.1524966666666667    0.6397600000000000    0.0382600000000000 C
   0.8209799999999999    0.5061300000000000    0.7677050000000001 C
   0.6485766666666666    0.4981100000000000    0.7308300000000000 C
   0.7721033333333333    0.5449000000000001    0.7824550000000000 C
   0.7297966666666666    0.5437200000000000    0.7574149999999999 C
   0.6865633333333333    0.4995600000000000    0.7597849999999999 C
   0.6732766666666666    0.4848800000000000    0.8620000000000000 C
   0.5835466666666667    0.5094600000000000    0.8573450000000000 C
   0.5826033333333334    0.5222000000000000    0.8923600000000000 C
   0.6688233333333333    0.4994800000000000    0.8969450000000000 C
   0.7195900000000000    0.3250400000000000    0.7673900000000000 C
   0.6528933333333333    0.3037300000000000    0.8086050000000000 C