H4 O2
1.0
  38.1487380993852767    0.0000000000000000  -10.4305887860901620
  -1.7713841604652190   12.5656600921010249   -3.5347296368792565
   0.0000000000000000    0.0000000000000000   27.9600000000000009
H O
4 2
direct
   0.6302353397714143    0.1228798103867584    0.7668558005248622 H
   0.6159542700937718    0.2423982850086127    0.7806434664448583 H
   0.6259205506017094    0.1097510181196496    0.9831093617803233 H
   0.5861316467417607    0.1524657694991085    0.9696264975734350 H
   0.6239433333333333    0.1865900000000000    0.7568850000000000 O
   0.6046833333333332    0.1284100000000000    0.9932000000000001 O
