Zn24 H288 C420 N24 O96
1.0
  38.1487380993852767    0.0000000000000000  -10.4305887860901620
  -1.7713841604652190   12.5656600921010249   -3.5347296368792565
   0.0000000000000000    0.0000000000000000   27.9600000000000009
Zn H C N O
24 288 420 24 96
direct
   0.0605466666666667    0.8669000000000000    0.4312000000000000 Zn
   0.0444166666666667    0.8181300000000000    0.3188100000000000 Zn
   0.7272133333333333    0.8669000000000000    0.4312000000000000 Zn
   0.7110833333333333    0.8181300000000000    0.3188100000000000 Zn
   0.3938800000000000    0.8669000000000000    0.4312000000000000 Zn
   0.3777500000000000    0.8181300000000000    0.3188100000000000 Zn
   0.7272133333333333    0.8669000000000000    0.9312000000000000 Zn
   0.7110833333333333    0.8181300000000000    0.8188100000000000 Zn
   0.0605466666666667    0.8669000000000000    0.9312000000000000 Zn
   0.0444166666666667    0.8181300000000000    0.8188100000000000 Zn
   0.3938800000000000    0.8669000000000000    0.9312000000000000 Zn
   0.3777500000000000    0.8181300000000000    0.8188100000000000 Zn
   0.9394600000000000    0.1331200000000000    0.0688100000000000 Zn
   0.9555933333333333    0.1818900000000000    0.1812000000000000 Zn
   0.2727933333333333    0.1331200000000000    0.0688100000000000 Zn
   0.2889266666666667    0.1818900000000000    0.1812000000000000 Zn
   0.6061266666666667    0.1331200000000000    0.0688100000000000 Zn
   0.6222600000000000    0.1818900000000000    0.1812000000000000 Zn
   0.2727933333333333    0.1331200000000000    0.5688100000000000 Zn
   0.2889266666666667    0.1818900000000000    0.6812000000000000 Zn
   0.6061266666666667    0.1331200000000000    0.5688100000000000 Zn
   0.6222600000000000    0.1818900000000000    0.6812000000000000 Zn
   0.9394600000000000    0.1331200000000000    0.5688100000000000 Zn
   0.9555933333333333    0.1818900000000000    0.6812000000000000 Zn
   0.0723733333333333    0.5838400000000000    0.6961850000000001 H
   0.0819400000000000    0.6576900000000000    0.7632800000000000 H
   0.0384133333333333    0.5953800000000000    0.7277400000000001 H
   0.1384333333333333    0.7830300000000000    0.5532000000000000 H
   0.1345100000000000    0.8850200000000000    0.5218450000000000 H
   0.1139366666666667    0.7540000000000000    0.4861500000000000 H
   0.1045033333333333    0.8018200000000000    0.6118050000000000 H
   0.0027700000000000    0.9128300000000000    0.5752000000000000 H
   0.0128100000000000    0.9216700000000000    0.4924700000000000 H
   0.0658500000000000    0.6854200000000000    0.6376150000000000 H
   0.0287433333333333    0.9910200000000000    0.6749600000000000 H
   0.0259533333333333    0.9611000000000000    0.7578350000000000 H
   0.4057066666666667    0.5838400000000000    0.6961850000000001 H
   0.4152733333333333    0.6576900000000000    0.7632800000000000 H
   0.3717466666666667    0.5953800000000000    0.7277400000000001 H
   0.4717666666666667    0.7830300000000000    0.5532000000000000 H
   0.4678433333333333    0.8850200000000000    0.5218450000000000 H
   0.4472699999999999    0.7540000000000000    0.4861500000000000 H
   0.4378366666666667    0.8018200000000000    0.6118050000000000 H
   0.3361033333333333    0.9128300000000000    0.5752000000000000 H
   0.3461433333333333    0.9216700000000000    0.4924700000000000 H
   0.3991833333333333    0.6854200000000000    0.6376150000000000 H
   0.3620766666666667    0.9910200000000000    0.6749600000000000 H
   0.3592866666666666    0.9611000000000000    0.7578350000000000 H
   0.7390399999999999    0.5838400000000000    0.6961850000000001 H
   0.7486066666666666    0.6576900000000000    0.7632800000000000 H
   0.7050799999999999    0.5953800000000000    0.7277400000000001 H
   0.8050999999999999    0.7830300000000000    0.5532000000000000 H
   0.8011766666666666    0.8850200000000000    0.5218450000000000 H
   0.7806033333333333    0.7540000000000000    0.4861500000000000 H
   0.7711699999999999    0.8018200000000000    0.6118050000000000 H
   0.6694366666666667    0.9128300000000000    0.5752000000000000 H
   0.6794766666666666    0.9216700000000000    0.4924700000000000 H
   0.7325166666666666    0.6854200000000000    0.6376150000000000 H
   0.6954100000000000    0.9910200000000000    0.6749600000000000 H
   0.6926200000000000    0.9611000000000000    0.7578350000000000 H
   0.0327333333333333    0.4723600000000000    0.2758150000000000 H
   0.0337800000000000    0.2813900000000000    0.2689500000000000 H
   0.0586966666666667    0.5523500000000000    0.4418700000000000 H
   0.0653266666666667    0.2159800000000000    0.4780000000000000 H
   0.0644800000000000    0.4074900000000000    0.4847100000000000 H
   0.0451833333333333    0.1386400000000000    0.3128300000000000 H
   0.2619266666666666    0.8043100000000000    0.2723750000000000 H
   0.1981166666666667    0.8064600000000000    0.2653450000000000 H
   0.2867499999999999    0.8643800000000000    0.4374350000000000 H
   0.1752233333333333    0.9009000000000000    0.4737650000000000 H
   0.2388766666666667    0.8979200000000001    0.4809850000000000 H
   0.1495533333333333    0.8234700000000000    0.3078250000000000 H
   0.6993999999999999    0.4723600000000000    0.2758150000000000 H
   0.7004466666666667    0.2813900000000000    0.2689500000000000 H
   0.7253633333333332    0.5523500000000000    0.4418700000000000 H
   0.7319933333333333    0.2159800000000000    0.4780000000000000 H
   0.7311466666666666    0.4074900000000000    0.4847100000000000 H
   0.7118500000000000    0.1386400000000000    0.3128300000000000 H
   0.9285933333333333    0.8043100000000000    0.2723750000000000 H
   0.8647833333333332    0.8064600000000000    0.2653450000000000 H
   0.9534166666666666    0.8643800000000000    0.4374350000000000 H
   0.8418899999999999    0.9009000000000000    0.4737650000000000 H
   0.9055433333333333    0.8979200000000001    0.4809850000000000 H
   0.8162199999999999    0.8234700000000000    0.3078250000000000 H
   0.3660666666666667    0.4723600000000000    0.2758150000000000 H
   0.3671133333333333    0.2813900000000000    0.2689500000000000 H
   0.3920300000000000    0.5523500000000000    0.4418700000000000 H
   0.3986600000000000    0.2159800000000000    0.4780000000000000 H
   0.3978133333333333    0.4074900000000000    0.4847100000000000 H
   0.3785166666666667    0.1386400000000000    0.3128300000000000 H
   0.5952599999999999    0.8043100000000000    0.2723750000000000 H
   0.5314500000000000    0.8064600000000000    0.2653450000000000 H
   0.6200833333333333    0.8643800000000000    0.4374350000000000 H
   0.5085566666666667    0.9009000000000000    0.4737650000000000 H
   0.5722100000000000    0.8979200000000001    0.4809850000000000 H
   0.4828866666666666    0.8234700000000000    0.3078250000000000 H
   0.4057066666666667    0.5838400000000000    0.1961850000000000 H
   0.4152733333333333    0.6576900000000000    0.2632800000000000 H
   0.3717466666666667    0.5953800000000000    0.2277400000000000 H
   0.4717666666666667    0.7830300000000000    0.0532000000000000 H
   0.4678433333333333    0.8850200000000000    0.0218450000000000 H
   0.4472699999999999    0.7540000000000000    0.9861500000000001 H
   0.4378366666666667    0.8018200000000000    0.1118050000000000 H
   0.3361033333333333    0.9128300000000000    0.0752000000000000 H
   0.3461433333333333    0.9216700000000000    0.9924700000000000 H
   0.3991833333333333    0.6854200000000000    0.1376150000000000 H
   0.3620766666666667    0.9910200000000000    0.1749600000000000 H
   0.3592866666666666    0.9611000000000000    0.2578350000000000 H
   0.0723733333333333    0.5838400000000000    0.1961850000000000 H
   0.0819400000000000    0.6576900000000000    0.2632800000000000 H
   0.0384133333333333    0.5953800000000000    0.2277400000000000 H
   0.1384333333333333    0.7830300000000000    0.0532000000000000 H
   0.1345100000000000    0.8850200000000000    0.0218450000000000 H
   0.1139366666666667    0.7540000000000000    0.9861500000000001 H
   0.1045033333333333    0.8018200000000000    0.1118050000000000 H
   0.0027700000000000    0.9128300000000000    0.0752000000000000 H
   0.0128100000000000    0.9216700000000000    0.9924700000000000 H
   0.0658500000000000    0.6854200000000000    0.1376150000000000 H
   0.0287433333333333    0.9910200000000000    0.1749600000000000 H
   0.0259533333333333    0.9611000000000000    0.2578350000000000 H
   0.7390399999999999    0.5838400000000000    0.1961850000000000 H
   0.7486066666666666    0.6576900000000000    0.2632800000000000 H
   0.7050799999999999    0.5953800000000000    0.2277400000000000 H
   0.8050999999999999    0.7830300000000000    0.0532000000000000 H
   0.8011766666666666    0.8850200000000000    0.0218450000000000 H
   0.7806033333333333    0.7540000000000000    0.9861500000000001 H
   0.7711699999999999    0.8018200000000000    0.1118050000000000 H
   0.6694366666666667    0.9128300000000000    0.0752000000000000 H
   0.6794766666666666    0.9216700000000000    0.9924700000000000 H
   0.7325166666666666    0.6854200000000000    0.1376150000000000 H
   0.6954100000000000    0.9910200000000000    0.1749600000000000 H
   0.6926200000000000    0.9611000000000000    0.2578350000000000 H
   0.6993999999999999    0.4723600000000000    0.7758149999999999 H
   0.7004466666666667    0.2813900000000000    0.7689500000000000 H
   0.7253633333333332    0.5523500000000000    0.9418700000000000 H
   0.7319933333333333    0.2159800000000000    0.9780000000000000 H
   0.7311466666666666    0.4074900000000000    0.9847100000000000 H
   0.7118500000000000    0.1386400000000000    0.8128299999999999 H
   0.9285933333333333    0.8043100000000000    0.7723750000000000 H
   0.8647833333333332    0.8064600000000000    0.7653449999999999 H
   0.9534166666666666    0.8643800000000000    0.9374350000000000 H
   0.8418899999999999    0.9009000000000000    0.9737650000000000 H
   0.9055433333333333    0.8979200000000001    0.9809850000000000 H
   0.8162199999999999    0.8234700000000000    0.8078250000000000 H
   0.0327333333333333    0.4723600000000000    0.7758149999999999 H
   0.0337800000000000    0.2813900000000000    0.7689500000000000 H
   0.0586966666666667    0.5523500000000000    0.9418700000000000 H
   0.0653266666666667    0.2159800000000000    0.9780000000000000 H
   0.0644800000000000    0.4074900000000000    0.9847100000000000 H
   0.0451833333333333    0.1386400000000000    0.8128299999999999 H
   0.2619266666666666    0.8043100000000000    0.7723750000000000 H
   0.1981166666666667    0.8064600000000000    0.7653449999999999 H
   0.2867499999999999    0.8643800000000000    0.9374350000000000 H
   0.1752233333333333    0.9009000000000000    0.9737650000000000 H
   0.2388766666666667    0.8979200000000001    0.9809850000000000 H
   0.1495533333333333    0.8234700000000000    0.8078250000000000 H
   0.3660666666666667    0.4723600000000000    0.7758149999999999 H
   0.3671133333333333    0.2813900000000000    0.7689500000000000 H
   0.3920300000000000    0.5523500000000000    0.9418700000000000 H
   0.3986600000000000    0.2159800000000000    0.9780000000000000 H
   0.3978133333333333    0.4074900000000000    0.9847100000000000 H
   0.3785166666666667    0.1386400000000000    0.8128299999999999 H
   0.5952599999999999    0.8043100000000000    0.7723750000000000 H
   0.5314500000000000    0.8064600000000000    0.7653449999999999 H
   0.6200833333333333    0.8643800000000000    0.9374350000000000 H
   0.5085566666666667    0.9009000000000000    0.9737650000000000 H
   0.5722100000000000    0.8979200000000001    0.9809850000000000 H
   0.4828866666666666    0.8234700000000000    0.8078250000000000 H
   0.9276399999999999    0.4161900000000000    0.3038250000000000 H
   0.9180699999999999    0.3423400000000000    0.2367350000000000 H
   0.9615966666666667    0.4046500000000000    0.2722750000000000 H
   0.8615733333333333    0.2169800000000000    0.4468100000000000 H
   0.8860733333333333    0.2460200000000000    0.5138250000000000 H
   0.8654999999999999    0.1150000000000000    0.4781650000000000 H
   0.8955066666666667    0.1982000000000000    0.3882050000000000 H
   0.9972399999999999    0.0871900000000000    0.4247800000000000 H
   0.9872000000000000    0.0783500000000000    0.5075450000000000 H
   0.9341633333333332    0.3146000000000000    0.3623950000000000 H
   0.9712666666666666    0.0090000000000000    0.3250500000000000 H
   0.9740566666666666    0.0389300000000000    0.2421750000000000 H
   0.5943066666666665    0.4161900000000000    0.3038250000000000 H
   0.5847366666666667    0.3423400000000000    0.2367350000000000 H
   0.6282633333333333    0.4046500000000000    0.2722750000000000 H
   0.5282400000000000    0.2169800000000000    0.4468100000000000 H
   0.5527400000000000    0.2460200000000000    0.5138250000000000 H
   0.5321666666666667    0.1150000000000000    0.4781650000000000 H
   0.5621733333333333    0.1982000000000000    0.3882050000000000 H
   0.6639066666666666    0.0871900000000000    0.4247800000000000 H
   0.6538666666666666    0.0783500000000000    0.5075450000000000 H
   0.6008300000000000    0.3146000000000000    0.3623950000000000 H
   0.6379333333333332    0.0090000000000000    0.3250500000000000 H
   0.6407233333333333    0.0389300000000000    0.2421750000000000 H
   0.9276399999999999    0.4161900000000000    0.8038250000000000 H
   0.9180699999999999    0.3423400000000000    0.7367350000000000 H
   0.9615966666666667    0.4046500000000000    0.7722750000000000 H
   0.8615733333333333    0.2169800000000000    0.9468099999999999 H
   0.8860733333333333    0.2460200000000000    0.0138250000000000 H
   0.8654999999999999    0.1150000000000000    0.9781650000000000 H
   0.8955066666666667    0.1982000000000000    0.8882050000000000 H
   0.9972399999999999    0.0871900000000000    0.9247799999999999 H
   0.9872000000000000    0.0783500000000000    0.0075450000000000 H
   0.9341633333333332    0.3146000000000000    0.8623950000000000 H
   0.9712666666666666    0.0090000000000000    0.8250500000000001 H
   0.9740566666666666    0.0389300000000000    0.7421750000000000 H
   1.0125097431466448    0.1633515824427045    0.0776266953289103 H
   1.0492935898285336    0.1615447376537912    0.1331363037307955 H
   0.0322466127797778    0.1631069334219209    0.1976687350610510 H
   0.9672733333333332    0.5276700000000000    0.2241950000000000 H
   0.9662299999999999    0.7186399999999999    0.2310600000000000 H
   0.9413166666666666    0.4476700000000000    0.0581400000000000 H
   0.9346866666666667    0.7840500000000000    0.0219750000000000 H
   0.9355333333333333    0.5925400000000000    0.0153000000000000 H
   0.9548266666666666    0.8613800000000000    0.1871800000000000 H
   0.7132600000000000    0.1356400000000000    0.0625800000000000 H
   0.7380833333333333    0.1957100000000000    0.2276400000000000 H
   0.8018933333333333    0.1935600000000000    0.2346650000000000 H
   0.8247866666666666    0.0991300000000000    0.0262500000000000 H
   0.7611333333333333    0.1021000000000000    0.0190300000000000 H
   0.8504566666666666    0.1765500000000000    0.1921900000000000 H
   0.3006066666666666    0.5276700000000000    0.2241950000000000 H
   0.2995633333333333    0.7186399999999999    0.2310600000000000 H
   0.2746499999999999    0.4476700000000000    0.0581400000000000 H
   0.2680200000000000    0.7840500000000000    0.0219750000000000 H
   0.2688666666666666    0.5925400000000000    0.0153000000000000 H
   0.2881600000000000    0.8613800000000000    0.1871800000000000 H
   0.2609733333333333    0.4161900000000000    0.8038250000000000 H
   0.2514033333333333    0.3423400000000000    0.7367350000000000 H
   0.2949300000000000    0.4046500000000000    0.7722750000000000 H
   0.1949066666666667    0.2169800000000000    0.9468099999999999 H
   0.2194066666666667    0.2460200000000000    0.0138250000000000 H
   0.1988333333333333    0.1150000000000000    0.9781650000000000 H
   0.2288400000000000    0.1982000000000000    0.8882050000000000 H
   0.3305733333333333    0.0871900000000000    0.9247799999999999 H
   0.3205333333333333    0.0783500000000000    0.0075450000000000 H
   0.2674966666666667    0.3146000000000000    0.8623950000000000 H
   0.3046000000000000    0.0090000000000000    0.8250500000000001 H
   0.3073900000000000    0.0389300000000000    0.7421750000000000 H
   0.2276585135977641    0.2137684633192997    0.1903719995524188 H
   0.2050850444889063    0.0735468111741916    0.0389830025111917 H
   0.2121845049762887    0.1422607849245339    0.1134636073901538 H
   0.2609733333333333    0.4161900000000000    0.3038250000000000 H
   0.2514033333333333    0.3423400000000000    0.2367350000000000 H
   0.2949300000000000    0.4046500000000000    0.2722750000000000 H
   0.1949066666666667    0.2169800000000000    0.4468100000000000 H
   0.2194066666666667    0.2460200000000000    0.5138250000000000 H
   0.1988333333333333    0.1150000000000000    0.4781650000000000 H
   0.2288400000000000    0.1982000000000000    0.3882050000000000 H
   0.3305733333333333    0.0871900000000000    0.4247800000000000 H
   0.3205333333333333    0.0783500000000000    0.5075450000000000 H
   0.2674966666666667    0.3146000000000000    0.3623950000000000 H
   0.3046000000000000    0.0090000000000000    0.3250500000000000 H
   0.3073900000000000    0.0389300000000000    0.2421750000000000 H
   0.6339399999999999    0.5276700000000000    0.2241950000000000 H
   0.6328966666666667    0.7186399999999999    0.2310600000000000 H
   0.6079833333333333    0.4476700000000000    0.0581400000000000 H
   0.6013533333333333    0.7840500000000000    0.0219750000000000 H
   0.6022000000000000    0.5925400000000000    0.0153000000000000 H
   0.6214933333333332    0.8613800000000000    0.1871800000000000 H
   0.3799266666666666    0.1356400000000000    0.0625800000000000 H
   0.4047499999999999    0.1957100000000000    0.2276400000000000 H
   0.4685600000000000    0.1935600000000000    0.2346650000000000 H
   0.4914533333333333    0.0991300000000000    0.0262500000000000 H
   0.4278000000000000    0.1021000000000000    0.0190300000000000 H
   0.5171233333333334    0.1765500000000000    0.1921900000000000 H
   0.5943066666666665    0.4161900000000000    0.8038250000000000 H
   0.5847366666666667    0.3423400000000000    0.7367350000000000 H
   0.6282633333333333    0.4046500000000000    0.7722750000000000 H
   0.5282400000000000    0.2169800000000000    0.9468099999999999 H
   0.5527400000000000    0.2460200000000000    0.0138250000000000 H
   0.5321666666666667    0.1150000000000000    0.9781650000000000 H
   0.5621733333333333    0.1982000000000000    0.8882050000000000 H
   0.6639066666666666    0.0871900000000000    0.9247799999999999 H
   0.6538666666666666    0.0783500000000000    0.0075450000000000 H
   0.6008300000000000    0.3146000000000000    0.8623950000000000 H
   0.6379333333333332    0.0090000000000000    0.8250500000000001 H
   0.6407233333333333    0.0389300000000000    0.7421750000000000 H
   0.3006066666666666    0.5276700000000000    0.7241950000000000 H
   0.2995633333333333    0.7186399999999999    0.7310600000000000 H
   0.2746499999999999    0.4476700000000000    0.5581400000000000 H
   0.2680200000000000    0.7840500000000000    0.5219750000000000 H
   0.2688666666666666    0.5925400000000000    0.5153000000000000 H
   0.2881600000000000    0.8613800000000000    0.6871800000000000 H
   0.0465933333333333    0.1356400000000000    0.5625800000000000 H
   0.0714166666666667    0.1957100000000000    0.7276400000000001 H
   0.1352266666666667    0.1935600000000000    0.7346650000000000 H
   0.1581200000000000    0.0991300000000000    0.5262500000000000 H
   0.0944666666666667    0.1021000000000000    0.5190300000000000 H
   0.1837900000000000    0.1765500000000000    0.6921900000000000 H
   0.6339399999999999    0.5276700000000000    0.7241950000000000 H
   0.6328966666666667    0.7186399999999999    0.7310600000000000 H
   0.6079833333333333    0.4476700000000000    0.5581400000000000 H
   0.6013533333333333    0.7840500000000000    0.5219750000000000 H
   0.6022000000000000    0.5925400000000000    0.5153000000000000 H
   0.6214933333333332    0.8613800000000000    0.6871800000000000 H
   0.3799266666666666    0.1356400000000000    0.5625800000000000 H
   0.4047499999999999    0.1957100000000000    0.7276400000000001 H
   0.4685600000000000    0.1935600000000000    0.7346650000000000 H
   0.4914533333333333    0.0991300000000000    0.5262500000000000 H
   0.4278000000000000    0.1021000000000000    0.5190300000000000 H
   0.5171233333333334    0.1765500000000000    0.6921900000000000 H
   0.9672733333333332    0.5276700000000000    0.7241950000000000 H
   0.9662299999999999    0.7186399999999999    0.7310600000000000 H
   0.9413166666666666    0.4476700000000000    0.5581400000000000 H
   0.9346866666666667    0.7840500000000000    0.5219750000000000 H
   0.9355333333333333    0.5925400000000000    0.5153000000000000 H
   0.9548266666666666    0.8613800000000000    0.6871800000000000 H
   0.7132600000000000    0.1356400000000000    0.5625800000000000 H
   0.7380833333333333    0.1957100000000000    0.7276400000000001 H
   0.8018933333333333    0.1935600000000000    0.7346650000000000 H
   0.8247866666666666    0.0991300000000000    0.5262500000000000 H
   0.7611333333333333    0.1021000000000000    0.5190300000000000 H
   0.8504566666666666    0.1765500000000000    0.6921900000000000 H
   0.0623033333333333    0.6374600000000000    0.7249400000000000 C
   0.1205766666666667    0.8130800000000000    0.5245700000000000 C
   0.0833933333333333    0.8283400000000000    0.5861000000000000 C
   0.0271933333333333    0.8912500000000000    0.5668900000000000 C
   0.0326966666666667    0.8973500000000000    0.5207300000000000 C
   0.0877666666666667    0.8381999999999999    0.5395600000000000 C
   0.0528966666666667    0.8538700000000000    0.6004650000000000 C
   0.0570166666666667    0.7488899999999999    0.6634850000000000 C
   0.0359933333333333    0.9177200000000000    0.6831700000000001 C
   0.0340533333333333    0.9013300000000000    0.7293700000000000 C
   0.0538333333333333    0.7359000000000000    0.7101150000000001 C
   0.0484366666666667    0.8404400000000000    0.6493000000000000 C
   0.3956366666666666    0.6374600000000000    0.7249400000000000 C
   0.4539100000000000    0.8130800000000000    0.5245700000000000 C
   0.4167266666666666    0.8283400000000000    0.5861000000000000 C
   0.3605266666666667    0.8912500000000000    0.5668900000000000 C
   0.3660300000000000    0.8973500000000000    0.5207300000000000 C
   0.4211000000000000    0.8381999999999999    0.5395600000000000 C
   0.3862300000000000    0.8538700000000000    0.6004650000000000 C
   0.3903500000000000    0.7488899999999999    0.6634850000000000 C
   0.3693266666666666    0.9177200000000000    0.6831700000000001 C
   0.3673866666666666    0.9013300000000000    0.7293700000000000 C
   0.3871666666666667    0.7359000000000000    0.7101150000000001 C
   0.3817700000000000    0.8404400000000000    0.6493000000000000 C
   0.7289700000000000    0.6374600000000000    0.7249400000000000 C
   0.7872433333333333    0.8130800000000000    0.5245700000000000 C
   0.7500599999999999    0.8283400000000000    0.5861000000000000 C
   0.6938599999999999    0.8912500000000000    0.5668900000000000 C
   0.6993633333333333    0.8973500000000000    0.5207300000000000 C
   0.7544333333333333    0.8381999999999999    0.5395600000000000 C
   0.7195633333333333    0.8538700000000000    0.6004650000000000 C
   0.7236833333333333    0.7488899999999999    0.6634850000000000 C
   0.7026600000000000    0.9177200000000000    0.6831700000000001 C
   0.7007200000000000    0.9013300000000000    0.7293700000000000 C
   0.7204999999999999    0.7359000000000000    0.7101150000000001 C
   0.7151033333333333    0.8404400000000000    0.6493000000000000 C
   0.0552933333333333    0.0496900000000000    0.3907850000000000 C
   0.0477666666666667    0.6401700000000000    0.3640500000000000 C
   0.0388366666666667    0.4464100000000000    0.3105900000000000 C
   0.0395500000000000    0.3402500000000000    0.3069250000000000 C
   0.0531766666666667    0.4920700000000000    0.4043950000000000 C
   0.0463733333333333    0.5239100000000000    0.3598000000000000 C
   0.0533900000000000    0.3834900000000000    0.4019450000000000 C
   0.0605633333333333    0.2424600000000000    0.4434700000000000 C
   0.0599300000000000    0.3485200000000000    0.4470050000000000 C
   0.0490100000000000    0.1978700000000000    0.3501400000000000 C
   0.0552933333333333    0.1655500000000000    0.3945950000000000 C
   0.0472433333333333    0.3058600000000000    0.3522250000000000 C
   0.3168433333333333    0.8343300000000000    0.3595650000000000 C
   0.1198100000000000    0.8562800000000000    0.3855100000000000 C
   0.2528866666666666    0.8184399999999999    0.3068250000000000 C
   0.2175400000000000    0.8200900000000000    0.3031050000000000 C
   0.2672300000000000    0.8528700000000000    0.4000700000000000 C
   0.2782533333333333    0.8342000000000001    0.3557300000000000 C
   0.2312200000000000    0.8578900000000000    0.3977950000000000 C
   0.1840966666666666    0.8827500000000000    0.4391000000000000 C
   0.2194766666666667    0.8807300000000000    0.4429600000000000 C
   0.1694133333333333    0.8399600000000000    0.3453500000000000 C
   0.1585366666666667    0.8603100000000000    0.3898250000000000 C
   0.2056133333333333    0.8395000000000000    0.3480250000000000 C
   0.7219599999999999    0.0496900000000000    0.3907850000000000 C
   0.7144333333333333    0.6401700000000000    0.3640500000000000 C
   0.7055033333333333    0.4464100000000000    0.3105900000000000 C
   0.7062166666666666    0.3402500000000000    0.3069250000000000 C
   0.7198433333333333    0.4920700000000000    0.4043950000000000 C
   0.7130400000000000    0.5239100000000000    0.3598000000000000 C
   0.7200566666666667    0.3834900000000000    0.4019450000000000 C
   0.7272299999999999    0.2424600000000000    0.4434700000000000 C
   0.7265966666666667    0.3485200000000000    0.4470050000000000 C
   0.7156766666666666    0.1978700000000000    0.3501400000000000 C
   0.7219599999999999    0.1655500000000000    0.3945950000000000 C
   0.7139099999999999    0.3058600000000000    0.3522250000000000 C
   0.9835099999999999    0.8343300000000000    0.3595650000000000 C
   0.7864766666666666    0.8562800000000000    0.3855100000000000 C
   0.9195533333333332    0.8184399999999999    0.3068250000000000 C
   0.8842066666666666    0.8200900000000000    0.3031050000000000 C
   0.9338966666666666    0.8528700000000000    0.4000700000000000 C
   0.9449200000000000    0.8342000000000001    0.3557300000000000 C
   0.8978866666666666    0.8578900000000000    0.3977950000000000 C
   0.8507633333333333    0.8827500000000000    0.4391000000000000 C
   0.8861433333333333    0.8807300000000000    0.4429600000000000 C
   0.8360799999999999    0.8399600000000000    0.3453500000000000 C
   0.8252033333333333    0.8603100000000000    0.3898250000000000 C
   0.8722799999999999    0.8395000000000000    0.3480250000000000 C
   0.3886266666666667    0.0496900000000000    0.3907850000000000 C
   0.3811000000000000    0.6401700000000000    0.3640500000000000 C
   0.3721700000000000    0.4464100000000000    0.3105900000000000 C
   0.3728833333333333    0.3402500000000000    0.3069250000000000 C
   0.3865100000000000    0.4920700000000000    0.4043950000000000 C
   0.3797066666666666    0.5239100000000000    0.3598000000000000 C
   0.3867233333333333    0.3834900000000000    0.4019450000000000 C
   0.3938966666666667    0.2424600000000000    0.4434700000000000 C
   0.3932633333333333    0.3485200000000000    0.4470050000000000 C
   0.3823433333333333    0.1978700000000000    0.3501400000000000 C
   0.3886266666666667    0.1655500000000000    0.3945950000000000 C
   0.3805766666666667    0.3058600000000000    0.3522250000000000 C
   0.6501766666666666    0.8343300000000000    0.3595650000000000 C
   0.4531433333333333    0.8562800000000000    0.3855100000000000 C
   0.5862200000000000    0.8184399999999999    0.3068250000000000 C
   0.5508733333333333    0.8200900000000000    0.3031050000000000 C
   0.6005633333333333    0.8528700000000000    0.4000700000000000 C
   0.6115866666666666    0.8342000000000001    0.3557300000000000 C
   0.5645533333333334    0.8578900000000000    0.3977950000000000 C
   0.5174299999999999    0.8827500000000000    0.4391000000000000 C
   0.5528100000000000    0.8807300000000000    0.4429600000000000 C
   0.5027466666666667    0.8399600000000000    0.3453500000000000 C
   0.4918700000000000    0.8603100000000000    0.3898250000000000 C
   0.5389466666666667    0.8395000000000000    0.3480250000000000 C
   0.3956366666666666    0.6374600000000000    0.2249400000000000 C
   0.4539100000000000    0.8130800000000000    0.0245700000000000 C
   0.4167266666666666    0.8283400000000000    0.0861000000000000 C
   0.3605266666666667    0.8912500000000000    0.0668900000000000 C
   0.3660300000000000    0.8973500000000000    0.0207300000000000 C
   0.4211000000000000    0.8381999999999999    0.0395600000000000 C
   0.3862300000000000    0.8538700000000000    0.1004650000000000 C
   0.3903500000000000    0.7488899999999999    0.1634850000000000 C
   0.3693266666666666    0.9177200000000000    0.1831700000000000 C
   0.3673866666666666    0.9013300000000000    0.2293700000000000 C
   0.3871666666666667    0.7359000000000000    0.2101150000000000 C
   0.3817700000000000    0.8404400000000000    0.1493000000000000 C
   0.0623033333333333    0.6374600000000000    0.2249400000000000 C
   0.1205766666666667    0.8130800000000000    0.0245700000000000 C
   0.0833933333333333    0.8283400000000000    0.0861000000000000 C
   0.0271933333333333    0.8912500000000000    0.0668900000000000 C
   0.0326966666666667    0.8973500000000000    0.0207300000000000 C