H6 C12 O4
1.0
  38.1487380993852767    0.0000000000000000  -10.4305887860901620
  -1.7713841604652190   12.5656600921010249   -3.5347296368792565
   0.0000000000000000    0.0000000000000000   27.9600000000000009
H C O
6 12 4
direct
   0.1581200000000000    0.0991300000000000    0.0262500000000000 H
   0.0944666666666667    0.1021000000000000    0.0190300000000000 H
   0.1837900000000000    0.1765500000000000    0.1921900000000000 H
   0.0465933333333333    0.1356400000000000    0.0625800000000000 H
   0.0714166666666667    0.1957100000000000    0.2276400000000000 H
   0.1352266666666667    0.1935600000000000    0.2346650000000000 H
   0.2135333333333333    0.1437500000000000    0.1145000000000000 C
   0.1748066666666667    0.1397100000000000    0.1101850000000000 C
   0.1492433333333333    0.1172800000000000    0.0609100000000000 C
   0.1138666666666667    0.1193000000000000    0.0570550000000000 C
   0.1639300000000000    0.1600600000000000    0.1546450000000000 C
   0.1021200000000000    0.1421300000000000    0.1022200000000000 C
   0.0661133333333333    0.1471500000000000    0.0999400000000000 C
   0.0550866666666667    0.1658200000000000    0.1442500000000000 C
   0.0165000000000000    0.1656900000000000    0.1400000000000000 C
   0.0804533333333333    0.1815800000000000    0.1931850000000000 C
   0.1158000000000000    0.1799300000000000    0.1969050000000000 C
   0.1277266666666667    0.1605300000000000    0.1519900000000000 C
   0.2219433333333333    0.1057600000000000    0.0728950000000000 O
   0.2350800000000000    0.1860100000000000    0.1595200000000000 O
   0.0074900000000000    0.1644900000000000    0.1811050000000000 O
   0.9954999999999999    0.1645500000000000    0.0971450000000000 O
