H6 O4
1.0
  38.1487380993852767    0.0000000000000000  -10.4305887860901620
  -1.7713841604652190   12.5656600921010249   -3.5347296368792565
   0.0000000000000000    0.0000000000000000   27.9600000000000009
H O
6 4
direct
   0.2276585135977641    0.2137684633192997    0.1903719995524188 H
   0.2050850444889063    0.0735468111741916    0.0389830025111917 H
   0.2121845049762887    0.1422607849245339    0.1134636073901538 H
   0.0322466127797778    0.1631069334219209    0.1976687350610510 H
   1.0125097431466448    0.1633515824427045    0.0776266953289103 H
   1.0492935898285336    0.1615447376537912    0.1331363037307955 H
   0.2350800000000000    0.1860100000000000    0.1595200000000000 O
   0.2219433333333333    0.1057600000000000    0.0728950000000000 O
   0.0074900000000000    0.1644900000000000    0.1811050000000000 O
   0.9954999999999999    0.1645500000000000    0.0971450000000000 O
