Zn24 H180 C315 N15 O90
1.0
  28.9322719673924524    0.0000000000000000   -6.5116798757952434
  -7.3506685522470869   12.4464031996012334   -3.2509345160987055
   0.0000000000000000    0.0000000000000000   33.5499999999999972
Zn H C N O
24 180 315 15 90
direct
   0.0373150000000000    0.4734100000000000    0.2891000000000000 Zn
   0.2370450000000000    0.0750900000000000    0.0393950000000000 Zn
   0.4626850000000000    0.5266100000000000    0.2108900000000000 Zn
   0.1644450000000000    0.6707300000000000    0.3749000000000000 Zn
   0.3355550000000000    0.3292900000000000    0.1250550000000000 Zn
   0.2629500000000000    0.9249300000000000    0.4605950000000000 Zn
   0.5373150000000000    0.4734100000000000    0.2891000000000000 Zn
   0.7370450000000000    0.0750900000000000    0.0393950000000000 Zn
   0.9626850000000000    0.5266100000000000    0.2108900000000000 Zn
   0.6644450000000000    0.6707300000000000    0.3749000000000000 Zn
   0.8355550000000000    0.3292900000000000    0.1250550000000000 Zn
   0.7629500000000000    0.9249300000000000    0.4605950000000000 Zn
   0.0373150000000000    0.4734100000000000    0.7891000000000000 Zn
   0.2370450000000000    0.0750900000000000    0.5393950000000000 Zn
   0.4626850000000000    0.5266100000000000    0.7108900000000000 Zn
   0.1644450000000000    0.6707300000000000    0.8749000000000000 Zn
   0.3355550000000000    0.3292900000000000    0.6250550000000000 Zn
   0.2629500000000000    0.9249300000000000    0.9605950000000000 Zn
   0.5373150000000000    0.4734100000000000    0.7891000000000000 Zn
   0.7370450000000000    0.0750900000000000    0.5393950000000000 Zn
   0.9626850000000000    0.5266100000000000    0.7108900000000000 Zn
   0.6644450000000000    0.6707300000000000    0.8749000000000000 Zn
   0.8355550000000000    0.3292900000000000    0.6250550000000000 Zn
   0.7629500000000000    0.9249300000000000    0.9605950000000000 Zn
   0.2386650000000000    0.5378300000000000    0.4170700000000000 H
   0.2893950000000000    0.4424700000000000    0.4218800000000000 H
   0.4372000000000000    0.7424700000000000    0.4618150000000000 H
   0.3855000000000000    0.8372100000000000    0.4569100000000000 H
   0.0668350000000000    0.6032600000000000    0.4579850000000000 H
   0.4932300000000000    0.5672100000000000    0.4878400000000000 H
   0.3945650000000000    0.5570900000000000    0.3696950000000000 H
   0.4678100000000000    0.5910200000000000    0.3397300000000000 H
   0.3061950000000000    0.3341500000000000    0.0201350000000000 H
   0.3490000000000000    0.5029600000000000    0.0055050000000000 H
   0.4019500000000000    0.3561400000000000    0.4149450000000000 H
   0.3616450000000000    0.1895800000000000    0.4320250000000000 H
   0.2308000000000000    0.5226800000000000    0.3325400000000000 H
   0.2786350000000000    0.4215300000000000    0.3278500000000000 H
   0.1289450000000000    0.1253100000000000    0.2879700000000000 H
   0.0814100000000000    0.2284100000000000    0.2927350000000000 H
   0.1982800000000000    0.8661500000000000    0.2918950000000000 H
   0.2164250000000000    0.0135500000000000    0.2620500000000000 H
   0.2217750000000000    0.2113000000000000    0.3802700000000000 H
   0.2046450000000000    0.0645800000000000    0.4102100000000000 H
   0.3331900000000000    0.3881600000000000    0.2299400000000000 H
   0.2487950000000000    0.3025500000000000    0.2444900000000000 H
   0.3219150000000000    0.1961100000000000    0.3350100000000000 H
   0.4051550000000000    0.2765700000000000    0.3179500000000000 H
   0.2613350000000000    0.4622000000000000    0.0829250000000000 H
   0.2106050000000000    0.5575500000000000    0.0781150000000000 H
   0.0628000000000000    0.2575500000000000    0.0381800000000000 H
   0.1144950000000000    0.1628100000000000    0.0430800000000000 H
   0.0067650000000000    0.4328100000000000    0.0121550000000000 H
   0.1054350000000000    0.4429300000000000    0.1303000000000000 H
   0.0321900000000000    0.4090000000000000    0.1602650000000000 H
   0.1938050000000000    0.6658700000000000    0.4798600000000000 H
   0.1510000000000000    0.4970600000000000    0.4944900000000000 H
   0.0980500000000000    0.6438800000000000    0.0850500000000000 H
   0.1383550000000000    0.8104500000000000    0.0679700000000000 H
   0.2692000000000000    0.4773400000000000    0.1674550000000000 H
   0.2213600000000000    0.5785000000000000    0.1721400000000000 H
   0.3710500000000000    0.8747100000000000    0.2120250000000000 H
   0.4185900000000000    0.7716200000000000    0.2072550000000000 H
   0.3017200000000000    0.1338700000000000    0.2081000000000000 H
   0.2835750000000000    0.9864700000000000    0.2379300000000000 H
   0.2782250000000000    0.7887200000000000    0.1197250000000000 H
   0.2953550000000000    0.9354400000000000    0.0897850000000000 H
   0.1668100000000000    0.6118600000000000    0.2700500000000000 H
   0.2512050000000000    0.6974700000000000    0.2555000000000000 H
   0.1780850000000000    0.8039200000000000    0.1649800000000000 H
   0.0948450000000000    0.7234500000000000    0.1820400000000000 H
   0.7386650000000000    0.5378300000000000    0.4170700000000000 H
   0.7893950000000001    0.4424700000000000    0.4218800000000000 H
   0.9372000000000000    0.7424700000000000    0.4618150000000000 H
   0.8855000000000000    0.8372100000000000    0.4569100000000000 H
   0.5668350000000000    0.6032600000000000    0.4579850000000000 H
   0.9932300000000001    0.5672100000000000    0.4878400000000000 H
   0.8945650000000001    0.5570900000000000    0.3696950000000000 H
   0.9678100000000001    0.5910200000000000    0.3397300000000000 H
   0.8061950000000000    0.3341500000000000    0.0201350000000000 H
   0.8490000000000000    0.5029600000000000    0.0055050000000000 H
   0.9019500000000000    0.3561400000000000    0.4149450000000000 H
   0.8616450000000000    0.1895800000000000    0.4320250000000000 H
   0.7308000000000000    0.5226800000000000    0.3325400000000000 H
   0.7786350000000000    0.4215300000000000    0.3278500000000000 H
   0.6289450000000000    0.1253100000000000    0.2879700000000000 H
   0.5814100000000000    0.2284100000000000    0.2927350000000000 H
   0.6982800000000000    0.8661500000000000    0.2918950000000000 H
   0.7164250000000000    0.0135500000000000    0.2620500000000000 H
   0.7217750000000001    0.2113000000000000    0.3802700000000000 H
   0.7046450000000000    0.0645800000000000    0.4102100000000000 H
   0.8331900000000000    0.3881600000000000    0.2299400000000000 H
   0.7487950000000000    0.3025500000000000    0.2444900000000000 H
   0.8219150000000000    0.1961100000000000    0.3350100000000000 H
   0.9051549999999999    0.2765700000000000    0.3179500000000000 H
   0.9331650000000000    0.3967600000000000    0.0420050000000000 H
   0.6938050000000000    0.6658700000000000    0.4798600000000000 H
   0.6510000000000000    0.4970600000000000    0.4944900000000000 H
   0.7692000000000000    0.4773400000000000    0.1674550000000000 H
   0.7213600000000000    0.5785000000000000    0.1721400000000000 H
   0.8710500000000000    0.8747100000000000    0.2120250000000000 H
   0.9185900000000000    0.7716200000000000    0.2072550000000000 H
   0.8017200000000000    0.1338700000000000    0.2081000000000000 H
   0.7835750000000000    0.9864700000000000    0.2379300000000000 H
   0.7782249999999999    0.7887200000000000    0.1197250000000000 H
   0.7953550000000000    0.9354400000000000    0.0897850000000000 H
   0.6668100000000000    0.6118600000000000    0.2700500000000000 H
   0.7512050000000000    0.6974700000000000    0.2555000000000000 H
   0.6780850000000000    0.8039200000000000    0.1649800000000000 H
   0.5948450000000000    0.7234500000000000    0.1820400000000000 H
   0.2386650000000000    0.5378300000000000    0.9170700000000001 H
   0.2893950000000000    0.4424700000000000    0.9218800000000000 H
   0.4372000000000000    0.7424700000000000    0.9618150000000000 H
   0.3855000000000000    0.8372100000000000    0.9569099999999999 H
   0.0668350000000000    0.6032600000000000    0.9579850000000000 H
   0.4932300000000000    0.5672100000000000    0.9878400000000001 H
   0.3945650000000000    0.5570900000000000    0.8696950000000000 H
   0.4678100000000000    0.5910200000000000    0.8397300000000000 H
   0.3061950000000000    0.3341500000000000    0.5201350000000000 H
   0.3490000000000000    0.5029600000000000    0.5055050000000000 H
   0.4019500000000000    0.3561400000000000    0.9149450000000000 H
   0.3616450000000000    0.1895800000000000    0.9320250000000000 H
   0.2308000000000000    0.5226800000000000    0.8325400000000001 H
   0.2786350000000000    0.4215300000000000    0.8278500000000000 H
   0.1289450000000000    0.1253100000000000    0.7879700000000001 H
   0.0814100000000000    0.2284100000000000    0.7927350000000000 H
   0.1982800000000000    0.8661500000000000    0.7918950000000000 H
   0.2164250000000000    0.0135500000000000    0.7620500000000000 H
   0.2217750000000000    0.2113000000000000    0.8802700000000000 H
   0.2046450000000000    0.0645800000000000    0.9102100000000000 H
   0.3331900000000000    0.3881600000000000    0.7299400000000000 H
   0.2487950000000000    0.3025500000000000    0.7444900000000000 H
   0.3219150000000000    0.1961100000000000    0.8350100000000000 H
   0.4051550000000000    0.2765700000000000    0.8179500000000000 H
   0.2613350000000000    0.4622000000000000    0.5829250000000000 H
   0.2106050000000000    0.5575500000000000    0.5781150000000000 H
   0.0628000000000000    0.2575500000000000    0.5381800000000000 H
   0.1144950000000000    0.1628100000000000    0.5430800000000000 H
   0.4331650000000000    0.3967600000000000    0.5420050000000000 H
   0.0067650000000000    0.4328100000000000    0.5121550000000000 H
   0.1054350000000000    0.4429300000000000    0.6303000000000000 H
   0.0321900000000000    0.4090000000000000    0.6602650000000000 H
   0.1938050000000000    0.6658700000000000    0.9798600000000000 H
   0.1510000000000000    0.4970600000000000    0.9944900000000000 H
   0.0980500000000000    0.6438800000000000    0.5850500000000000 H
   0.1383550000000000    0.8104500000000000    0.5679700000000000 H
   0.2692000000000000    0.4773400000000000    0.6674550000000000 H
   0.2213600000000000    0.5785000000000000    0.6721400000000000 H
   0.3710500000000000    0.8747100000000000    0.7120250000000000 H
   0.4185900000000000    0.7716200000000000    0.7072550000000000 H
   0.3017200000000000    0.1338700000000000    0.7081000000000000 H
   0.2835750000000000    0.9864700000000000    0.7379300000000000 H
   0.2782250000000000    0.7887200000000000    0.6197250000000000 H
   0.2953550000000000    0.9354400000000000    0.5897850000000000 H
   0.1668100000000000    0.6118600000000000    0.7700500000000000 H
   0.2512050000000000    0.6974700000000000    0.7555000000000001 H
   0.1780850000000000    0.8039200000000000    0.6649800000000000 H
   0.0948450000000000    0.7234500000000000    0.6820400000000000 H
   0.7386650000000000    0.5378300000000000    0.9170700000000001 H
   0.7893950000000001    0.4424700000000000    0.9218800000000000 H
   0.9372000000000000    0.7424700000000000    0.9618150000000000 H
   0.8855000000000000    0.8372100000000000    0.9569099999999999 H
   0.5668350000000000    0.6032600000000000    0.9579850000000000 H
   0.9932300000000001    0.5672100000000000    0.9878400000000001 H
   0.8945650000000001    0.5570900000000000    0.8696950000000000 H
   0.9678100000000001    0.5910200000000000    0.8397300000000000 H
   0.8061950000000000    0.3341500000000000    0.5201350000000000 H
   0.8490000000000000    0.5029600000000000    0.5055050000000000 H
   0.9019500000000000    0.3561400000000000    0.9149450000000000 H
   0.8616450000000000    0.1895800000000000    0.9320250000000000 H
   0.7308000000000000    0.5226800000000000    0.8325400000000001 H
   0.7786350000000000    0.4215300000000000    0.8278500000000000 H
   0.6289450000000000    0.1253100000000000    0.7879700000000001 H
   0.5814100000000000    0.2284100000000000    0.7927350000000000 H
   0.6982800000000000    0.8661500000000000    0.7918950000000000 H
   0.7164250000000000    0.0135500000000000    0.7620500000000000 H
   0.7217750000000001    0.2113000000000000    0.8802700000000000 H
   0.7046450000000000    0.0645800000000000    0.9102100000000000 H
   0.8331900000000000    0.3881600000000000    0.7299400000000000 H
   0.7487950000000000    0.3025500000000000    0.7444900000000000 H
   0.8219150000000000    0.1961100000000000    0.8350100000000000 H
   0.9051549999999999    0.2765700000000000    0.8179500000000000 H
   0.7613350000000000    0.4622000000000000    0.5829250000000000 H
   0.7106049999999999    0.5575500000000000    0.5781150000000000 H
   0.5628000000000000    0.2575500000000000    0.5381800000000000 H
   0.6144950000000000    0.1628100000000000    0.5430800000000000 H
   0.9331650000000000    0.3967600000000000    0.5420050000000000 H
   0.5067650000000000    0.4328100000000000    0.5121550000000000 H
   0.6054349999999999    0.4429300000000000    0.6303000000000000 H
   0.5321900000000001    0.4090000000000000    0.6602650000000000 H
   0.5980500000000000    0.6438800000000000    0.5850500000000000 H
   0.6383550000000000    0.8104500000000000    0.5679700000000000 H
   0.7692000000000000    0.4773400000000000    0.6674550000000000 H
   0.7213600000000000    0.5785000000000000    0.6721400000000000 H
   0.8710500000000000    0.8747100000000000    0.7120250000000000 H
   0.9185900000000000    0.7716200000000000    0.7072550000000000 H
   0.8017200000000000    0.1338700000000000    0.7081000000000000 H
   0.7835750000000000    0.9864700000000000    0.7379300000000000 H
   0.7782249999999999    0.7887200000000000    0.6197250000000000 H
   0.7953550000000000    0.9354400000000000    0.5897850000000000 H
   0.6668100000000000    0.6118600000000000    0.7700500000000000 H
   0.7512050000000000    0.6974700000000000    0.7555000000000001 H
   0.6780850000000000    0.8039200000000000    0.6649800000000000 H
   0.5948450000000000    0.7234500000000000    0.6820400000000000 H
   0.2765900000000000    0.7474700000000000    0.4338800000000000 C
   0.3086950000000000    0.6937100000000000    0.4370800000000000 C
   0.2822150000000000    0.5822900000000000    0.4274300000000000 C
   0.3106450000000000    0.5290600000000000    0.4300650000000000 C
   0.3668700000000000    0.5862200000000000    0.4429050000000000 C
   0.3936550000000000    0.6977900000000000    0.4520750000000000 C
   0.3648100000000000    0.7506600000000000    0.4492500000000000 C
   0.0638700000000000    0.6128700000000000    0.3776500000000000 C
   0.0215900000000000    0.5978900000000000    0.3967500000000000 C
   0.0288500000000000    0.5920900000000000    0.4387400000000000 C
   0.4878800000000000    0.5721700000000000    0.4553600000000000 C
   0.4391600000000000    0.5585700000000000    0.4303750000000000 C
   0.4323900000000000    0.5675600000000000    0.3889850000000000 C
   0.4732200000000000    0.5865000000000000    0.3722600000000000 C
   0.3009150000000000    0.1474600000000000    0.4828150000000000 C
   0.3299350000000000    0.2499900000000000    0.4760800000000000 C
   0.3268900000000000    0.3393200000000000    0.4969150000000000 C
   0.3510150000000000    0.4337200000000000    0.4888000000000000 C
   0.3768650000000000    0.4399400000000000    0.4581150000000000 C
   0.3816400000000000    0.3518500000000000    0.4384350000000000 C
   0.3588550000000000    0.2585900000000000    0.4477750000000000 C
   0.1260250000000000    0.4463200000000000    0.3157550000000000 C
   0.1530050000000000    0.3823000000000000    0.3125600000000000 C
   0.2086750000000000    0.4355200000000000    0.3222150000000000 C
   0.2353750000000000    0.3788200000000000    0.3196450000000000 C
   0.2069250000000000    0.2663000000000000    0.3068800000000000 C
   0.1511750000000000    0.2124700000000000    0.2976650000000000 C
   0.1246500000000000    0.2699900000000000    0.3004200000000000 C
   0.1934050000000000    0.8720800000000000    0.3722000000000000 C
   0.2010350000000000    0.9568100000000000    0.3531400000000000 C
   0.2039350000000000    0.9422500000000000    0.3111500000000000 C
   0.2139650000000000    0.0242800000000000    0.2945450000000000 C
   0.2208500000000000    0.1218500000000000    0.3195450000000000 C
   0.2164300000000000    0.1354900000000000    0.3609500000000000 C
   0.2068700000000000    0.0537100000000000    0.3776650000000000 C
   0.4263300000000000    0.3981900000000000    0.2672150000000000 C
   0.3750950000000000    0.3402900000000000    0.2739450000000000 C
   0.3305350000000000    0.3466400000000000    0.2531000000000000 C
   0.2833500000000000    0.2984100000000000    0.2611800000000000 C
   0.2801600000000000    0.2465400000000000    0.2918500000000000 C
   0.3241200000000000    0.2368200000000000    0.3115400000000000 C
   0.3707250000000000    0.2823200000000000    0.3022150000000000 C
   0.2234100000000000    0.2525600000000000    0.0661100000000000 C
   0.1913050000000000    0.3063200000000000    0.0629100000000000 C
   0.2177850000000000    0.4177400000000000    0.0725600000000000 C
   0.1893500000000000    0.4709600000000000    0.0699250000000000 C
   0.1331300000000000    0.4138000000000000    0.0570900000000000 C
   0.1063450000000000    0.3022300000000000    0.0479150000000000 C
   0.1351900000000000    0.2493600000000000    0.0507450000000000 C
   0.0121200000000000    0.4278500000000000    0.0446350000000000 C
   0.0608400000000000    0.4414600000000000    0.0696150000000000 C
   0.0676100000000000    0.4324600000000000    0.1110100000000000 C
   0.0267750000000000    0.4135200000000000    0.1277300000000000 C
   0.1990850000000000    0.8525600000000000    0.0171800000000000 C
   0.1700600000000000    0.7500300000000000    0.0239000000000000 C
   0.1731100000000000    0.6607000000000000    0.0030500000000000 C
   0.1489850000000000    0.5663000000000000    0.0111700000000000 C
   0.1231300000000000    0.5600800000000000    0.0418750000000000 C
   0.1183550000000000    0.6481700000000000    0.0615600000000000 C
   0.1411450000000000    0.7414400000000000    0.0522200000000000 C
   0.3739750000000000    0.5537100000000000    0.1842400000000000 C
   0.3469950000000000    0.6177200000000000    0.1874350000000000 C
   0.2913250000000000    0.5645100000000000    0.1777800000000000 C
   0.2646250000000000    0.6212000000000000    0.1803450000000000 C
   0.2930700000000000    0.7337200000000000    0.1931150000000000 C
   0.3488200000000000    0.7875500000000000    0.2023300000000000 C
   0.3753450000000000    0.7300400000000000    0.1995500000000000 C
   0.3065900000000000    0.1279400000000000    0.1277500000000000 C
   0.2989650000000000    0.0432200000000000    0.1468550000000000 C
   0.2960650000000000    0.0577800000000000    0.1888450000000000 C
   0.2860350000000000    0.9757500000000000    0.2054450000000000 C
   0.2791450000000000    0.8781700000000000    0.1804450000000000 C
   0.2835700000000000    0.8645300000000000    0.1390300000000000 C
   0.2931300000000000    0.9463100000000000    0.1223250000000000 C
   0.0736700000000000    0.6018300000000000    0.2327750000000000 C
   0.1249050000000000    0.6597300000000000    0.2260500000000000 C
   0.1694650000000000    0.6533900000000000    0.2468650000000000 C
   0.2166500000000000    0.7016200000000000    0.2388100000000000 C
   0.2198400000000000    0.7534900000000000    0.2081450000000000 C
   0.1758800000000000    0.7632000000000000    0.1884550000000000 C
   0.1292700000000000    0.7177100000000000    0.1977750000000000 C
   0.7765900000000000    0.7474700000000000    0.4338800000000000 C
   0.8086949999999999    0.6937100000000000    0.4370800000000000 C
   0.7822150000000000    0.5822900000000000    0.4274300000000000 C
   0.8106450000000001    0.5290600000000000    0.4300650000000000 C
   0.8668700000000000    0.5862200000000000    0.4429050000000000 C
   0.8936550000000000    0.6977900000000000    0.4520750000000000 C
   0.8648100000000001    0.7506600000000000    0.4492500000000000 C
   0.5638700000000000    0.6128700000000000    0.3776500000000000 C
   0.5215900000000000    0.5978900000000000    0.3967500000000000 C
   0.5288500000000000    0.5920900000000000    0.4387400000000000 C
   0.9878800000000000    0.5721700000000000    0.4553600000000000 C
   0.9391600000000000    0.5585700000000000    0.4303750000000000 C
   0.9323900000000001    0.5675600000000000    0.3889850000000000 C
   0.9732200000000000    0.5865000000000000    0.3722600000000000 C
   0.8009150000000000    0.1474600000000000    0.4828150000000000 C
   0.8299350000000000    0.2499900000000000    0.4760800000000000 C
   0.8268900000000000    0.3393200000000000    0.4969150000000000 C
   0.8510150000000001    0.4337200000000000    0.4888000000000000 C
   0.8768650000000000    0.4399400000000000    0.4581150000000000 C
   0.8816400000000000    0.3518500000000000    0.4384350000000000 C
   0.8588549999999999    0.2585900000000000    0.4477750000000000 C
   0.6260250000000001    0.4463200000000000    0.3157550000000000 C
   0.6530050000000001    0.3823000000000000    0.3125600000000000 C
   0.7086749999999999    0.4355200000000000    0.3222150000000000 C
   0.7353750000000000    0.3788200000000000    0.3196450000000000 C
   0.7069250000000000    0.2663000000000000    0.3068800000000000 C
   0.6511750000000001    0.2124700000000000    0.2976650000000000 C
   0.6246500000000000    0.2699900000000000    0.3004200000000000 C
   0.6934050000000000    0.8720800000000000    0.3722000000000000 C
   0.7010350000000000    0.9568100000000000    0.3531400000000000 C
   0.7039350000000000    0.9422500000000000    0.3111500000000000 C
   0.7139650000000000    0.0242800000000000    0.2945450000000000 C
   0.7208500000000000    0.1218500000000000    0.3195450000000000 C
   0.7164300000000000    0.1354900000000000    0.3609500000000000 C
   0.7068700000000000    0.0537100000000000    0.3776650000000000 C
   0.9263300000000000    0.3981900000000000    0.2672150000000000 C
   0.8750950000000000    0.3402900000000000    0.2739450000000000 C
   0.8305350000000000    0.3466400000000000    0.2531000000000000 C
   0.7833500000000000    0.2984100000000000    0.2611800000000000 C
   0.7801600000000000    0.2465400000000000    0.2918500000000000 C
   0.8241200000000000    0.2368200000000000    0.3115400000000000 C
   0.8707250000000000    0.2823200000000000    0.3022150000000000 C
   0.9361300000000000    0.3871600000000000    0.1223400000000000 C
   0.9784100000000000    0.4021300000000000    0.1032450000000000 C
   0.9711500000000000    0.4079400000000000    0.0612550000000000 C
   0.8739749999999999    0.5537100000000000    0.1842400000000000 C
   0.8469949999999999    0.6177200000000000    0.1874350000000000 C
   0.7913250000000001    0.5645100000000000    0.1777800000000000 C
   0.7646250000000000    0.6212000000000000    0.1803450000000000 C
   0.7930699999999999    0.7337200000000000    0.1931150000000000 C
   0.8488200000000000    0.7875500000000000    0.2023300000000000 C
   0.8753450000000000    0.7300400000000000    0.1995500000000000 C
   0.8065899999999999    0.1279400000000000    0.1277500000000000 C
   0.7989649999999999    0.0432200000000000    0.1468550000000000 C
   0.7960650000000000    0.0577800000000000    0.1888450000000000 C
   0.7860350000000000    0.9757500000000000    0.2054450000000000 C
   0.7791450000000000    0.8781700000000000    0.1804450000000000 C
   0.7835700000000000    0.8645300000000000    0.1390300000000000 C
   0.7931300000000000    0.9463100000000000    0.1223250000000000 C
   0.5736700000000000    0.6018300000000000    0.2327750000000000 C
   0.6249050000000000    0.6597300000000000    0.2260500000000000 C
   0.6694650000000000    0.6533900000000000    0.2468650000000000 C
   0.7166500000000000    0.7016200000000000    0.2388100000000000 C
   0.7198400000000000    0.7534900000000000    0.2081450000000000 C
   0.6758800000000000    0.7632000000000000    0.1884550000000000 C
   0.6292700000000000    0.7177100000000000    0.1977750000000000 C
   0.2765900000000000    0.7474700000000000    0.9338800000000000 C
   0.3086950000000000    0.6937100000000000    0.9370800000000000 C
   0.2822150000000000    0.5822900000000000    0.9274300000000000 C
   0.3106450000000000    0.5290600000000000    0.9300649999999999 C
   0.3668700000000000    0.5862200000000000    0.9429050000000000 C
   0.3936550000000000    0.6977900000000000    0.9520750000000000 C
   0.3648100000000000    0.7506600000000000    0.9492499999999999 C
   0.0638700000000000    0.6128700000000000    0.8776500000000000 C
   0.0215900000000000    0.5978900000000000    0.8967499999999999 C
   0.0288500000000000    0.5920900000000000    0.9387400000000000 C
   0.4878800000000000    0.5721700000000000    0.9553600000000000 C
   0.4391600000000000    0.5585700000000000    0.9303750000000000 C
   0.4323900000000000    0.5675600000000000    0.8889850000000000 C
   0.4732200000000000    0.5865000000000000    0.8722600000000000 C
   0.3009150000000000    0.1474600000000000    0.9828150000000000 C
   0.3299350000000000    0.2499900000000000    0.9760800000000001 C
   0.3268900000000000    0.3393200000000000    0.9969150000000000 C
   0.3510150000000000    0.4337200000000000    0.9888000000000000 C
   0.3768650000000000    0.4399400000000000    0.9581150000000000 C
   0.3816400000000000    0.3518500000000000    0.9384350000000000 C
   0.3588550000000000    0.2585900000000000    0.9477750000000000 C
   0.1260250000000000    0.4463200000000000    0.8157550000000000 C
   0.1530050000000000    0.3823000000000000    0.8125599999999999 C
   0.2086750000000000    0.4355200000000000    0.8222149999999999 C
   0.2353750000000000    0.3788200000000000    0.8196450000000000 C
   0.2069250000000000    0.2663000000000000    0.8068800000000000 C
   0.1511750000000000    0.2124700000000000    0.7976650000000001 C
   0.1246500000000000    0.2699900000000000    0.8004200000000000 C
   0.1934050000000000    0.8720800000000000    0.8722000000000000 C
   0.2010350000000000    0.9568100000000000    0.8531400000000000 C
   0.2039350000000000    0.9422500000000000    0.8111500000000000 C
   0.2139650000000000    0.0242800000000000    0.7945450000000001 C
   0.2208500000000000    0.1218500000000000    0.8195450000000000 C
   0.2164300000000000    0.1354900000000000    0.8609500000000000 C
   0.2068700000000000    0.0537100000000000    0.8776649999999999 C
   0.4263300000000000    0.3981900000000000    0.7672150000000000 C
   0.3750950000000000    0.3402900000000000    0.7739450000000000 C
   0.3305350000000000    0.3466400000000000    0.7531000000000000 C
   0.2833500000000000    0.2984100000000000    0.7611800000000000 C
   0.2801600000000000    0.2465400000000000    0.7918499999999999 C
   0.3241200000000000    0.2368200000000000    0.8115399999999999 C
   0.3707250000000000    0.2823200000000000    0.8022150000000000 C
   0.2234100000000000    0.2525600000000000    0.5661100000000000 C
   0.1913050000000000    0.3063200000000000    0.5629100000000000 C
   0.2177850000000000    0.4177400000000000    0.5725600000000000 C
   0.1893500000000000    0.4709600000000000    0.5699250000000000 C
   0.1331300000000000    0.4138000000000000    0.5570900000000000 C
   0.1063450000000000    0.3022300000000000    0.5479150000000000 C
   0.1351900000000000    0.2493600000000000    0.5507450000000000 C
   0.4361300000000000    0.3871600000000000    0.6223400000000000 C
   0.4784100000000000    0.4021300000000000    0.6032450000000000 C
   0.4711500000000000    0.4079400000000000    0.5612549999999999 C
   0.0121200000000000    0.4278500000000000    0.5446350000000000 C
   0.0608400000000000    0.4414600000000000    0.5696150000000000 C
   0.0676100000000000    0.4324600000000000    0.6110100000000001 C
   0.0267750000000000    0.4135200000000000    0.6277300000000000 C
   0.1990850000000000    0.8525600000000000    0.5171800000000000 C
   0.1700600000000000    0.7500300000000000    0.5239000000000000 C
   0.1731100000000000    0.6607000000000000    0.5030500000000000 C
   0.1489850000000000    0.5663000000000000    0.5111700000000000 C
   0.1231300000000000    0.5600800000000000    0.5418750000000000 C
   0.1183550000000000    0.6481700000000000    0.5615599999999999 C
   0.1411450000000000    0.7414400000000000    0.5522200000000000 C
   0.3739750000000000    0.5537100000000000    0.6842400000000000 C
   0.3469950000000000    0.6177200000000000    0.6874350000000000 C
   0.2913250000000000    0.5645100000000000    0.6777800000000000 C
   0.2646250000000000    0.6212000000000000    0.6803450000000000 C
   0.2930700000000000    0.7337200000000000    0.6931150000000000 C
   0.3488200000000000    0.7875500000000000    0.7023300000000000 C
   0.3753450000000000    0.7300400000000000    0.6995500000000000 C
   0.3065900000000000    0.1279400000000000    0.6277500000000000 C
   0.2989650000000000    0.0432200000000000    0.6468550000000000 C
   0.2960650000000000    0.0577800000000000    0.6888450000000000 C
   0.2860350000000000    0.9757500000000000    0.7054450000000000 C
   0.2791450000000000    0.8781700000000000    0.6804450000000000 C
   0.2835700000000000    0.8645300000000000    0.6390300000000000 C
   0.2931300000000000    0.9463100000000000    0.6223250000000000 C
   0.0736700000000000    0.6018300000000000    0.7327750000000000 C
   0.1249050000000000    0.6597300000000000    0.7260500000000000 C
   0.1694650000000000    0.6533900000000000    0.7468650000000000 C
   0.2166500000000000    0.7016200000000000    0.7388100000000000 C
   0.2198400000000000    0.7534900000000000    0.7081450000000000 C
   0.1758800000000000    0.7632000000000000    0.6884550000000000 C
   0.1292700000000000    0.7177100000000000    0.6977750000000000 C
   0.7765900000000000    0.7474700000000000    0.9338800000000000 C
   0.8086949999999999    0.6937100000000000    0.9370800000000000 C