Zn8 H96 C166 N12 O32
1.0
  23.2629749994850314    0.0000000000000000    0.0341053270693241
  -0.0016505836528618   15.8159994417239407   -0.0038645778044796
   0.0000000000000000    0.0000000000000000   15.9930000000000003
Zn H C N O
8 96 166 12 32
direct
   0.5673000000000000    0.9998400000000000    0.5799400000000000 Zn
   0.0741500000000000    0.9997700000000000    0.7569700000000000 Zn
   0.5748100000000000    0.0003100000000000    0.7572400000000000 Zn
   0.3175000000000000    0.0000700000000000    0.4206900000000000 Zn
   0.8175300000000000    0.0000100000000000    0.4200000000000000 Zn
   0.3250700000000000    0.9999300000000000    0.2435000000000000 Zn
   0.8250400000000000    0.9998400000000000    0.2427900000000000 Zn
   0.0674400000000000    0.9997300000000000    0.5797800000000000 Zn
   0.1474200000000000    0.7493500000000000    0.5568000000000000 H
   0.6464200000000000    0.7515600000000000    0.5603600000000000 H
   0.2935900000000000    0.7088100000000001    0.7789100000000000 H
   0.7953600000000000    0.7089100000000000    0.7781000000000000 H
   0.2295100000000000    0.8348200000000000    0.7812800000000000 H
   0.7323900000000000    0.8360400000000000    0.7822200000000000 H
   0.4304700000000000    0.6268800000000000    0.7947400000000000 H
   0.9323300000000000    0.6260400000000000    0.7905500000000000 H
   0.4913900000000000    0.7568600000000000    0.7910900000000000 H
   0.9926199999999999    0.7566000000000001    0.7867800000000000 H
   0.2087700000000000    0.6207800000000000    0.5559300000000000 H
   0.7072200000000000    0.6223700000000000    0.5572800000000000 H
   0.4140000000000000    0.8290000000000000    0.5583300000000000 H
   0.9105500000000000    0.8323400000000000    0.5584600000000000 H
   0.3492100000000000    0.7041200000000000    0.5654400000000001 H
   0.8466600000000000    0.7065200000000000    0.5657600000000000 H
   0.1477200000000000    0.2465300000000000    0.5609600000000000 H
   0.6484600000000000    0.2479000000000000    0.5562000000000000 H
   0.2959900000000000    0.2903100000000000    0.7794000000000000 H
   0.7950199999999999    0.2913600000000000    0.7772600000000000 H
   0.2334600000000000    0.1627500000000000    0.7832600000000000 H
   0.7315600000000000    0.1646800000000000    0.7806700000000000 H
   0.4333300000000000    0.3741300000000000    0.7914099999999999 H
   0.9314300000000000    0.3739300000000000    0.7917300000000000 H
   0.4937900000000000    0.2438000000000000    0.7868200000000000 H
   0.9923200000000000    0.2438900000000000    0.7879699999999999 H
   0.2080600000000000    0.3761300000000000    0.5582400000000000 H
   0.7092300000000000    0.3771400000000000    0.5542700000000000 H
   0.4113000000000000    0.1686200000000000    0.5586000000000000 H
   0.9145700000000000    0.1715500000000000    0.5554600000000000 H
   0.3473000000000000    0.2942200000000000    0.5666700000000000 H
   0.8497300000000000    0.2963700000000000    0.5628400000000000 H
   0.1696200000000000    0.0035800000000000    0.2954800000000000 H
   0.6699600000000000    0.9963100000000000    0.2961600000000000 H
   0.4820700000000000    0.0047200000000000    0.4372600000000000 H
   0.9820900000000000    0.9965100000000000    0.4377500000000000 H
   0.1606200000000000    0.0027100000000000    0.4518300000000000 H
   0.6604900000000000    0.9962800000000001    0.4523800000000000 H
   0.4847300000000000    0.0059600000000000    0.2806700000000000 H
   0.9842700000000000    0.9964200000000000    0.2810700000000000 H
   0.4641900000000000    0.0349100000000000    0.0343500000000000 H
   0.9646800000000000    0.9550600000000000    0.0341600000000000 H
   0.4783200000000000    0.0236800000000000    0.8777000000000000 H
   0.9787900000000000    0.9630300000000001    0.8771400000000000 H
   0.1508300000000000    0.0235000000000000    0.9043400000000000 H
   0.6543800000000000    0.9976600000000000    0.9045800000000001 H
   0.1439700000000000    0.0172200000000000    0.0622000000000000 H
   0.6474299999999999    0.0066400000000000    0.0621800000000000 H
   0.4263700000000000    0.5000300000000000    0.6904500000000000 H
   0.9264500000000000    0.5009000000000000    0.6882500000000000 H
   0.2154700000000000    0.4990900000000000    0.6592700000000000 H
   0.7154800000000000    0.4995500000000000    0.6576800000000000 H
   0.3976500000000000    0.2493700000000000    0.4445000000000000 H
   0.8971300000000000    0.2476600000000000    0.4379500000000000 H
   0.0466000000000000    0.2924000000000000    0.2207100000000000 H
   0.5445800000000000    0.2898600000000000    0.2228500000000000 H
   0.4811600000000000    0.1632900000000000    0.2207600000000000 H
   0.9835400000000000    0.1655200000000000    0.2152900000000000 H
   0.1831400000000000    0.3751300000000000    0.2092300000000000 H
   0.6818500000000000    0.3729600000000000    0.2074800000000000 H
   0.2442200000000000    0.2456100000000000    0.2139300000000000 H
   0.7427500000000000    0.2430600000000000    0.2106600000000000 H
   0.4588100000000000    0.3781400000000000    0.4453800000000000 H
   0.9578600000000000    0.3768700000000000    0.4422100000000000 H
   0.1628500000000000    0.1709300000000000    0.4434500000000000 H
   0.6629600000000000    0.1679300000000000    0.4411000000000000 H
   0.0983800000000000    0.2961700000000000    0.4356200000000000 H
   0.5984200000000000    0.2929900000000000    0.4345700000000000 H
   0.3979800000000000    0.7525800000000000    0.4404100000000000 H
   0.8974500000000000    0.7505600000000000    0.4439800000000000 H
   0.0451900000000000    0.7106400000000000    0.2233300000000000 H
   0.5464000000000000    0.7077700000000000    0.2216700000000000 H
   0.4833700000000000    0.8346100000000000    0.2168800000000000 H
   0.9817800000000000    0.8372700000000000    0.2211800000000000 H
   0.1831100000000000    0.6264800000000000    0.2097400000000000 H
   0.6838300000000000    0.6240500000000000    0.2098000000000000 H
   0.2438600000000000    0.7565100000000000    0.2137300000000000 H
   0.7448600000000000    0.7536400000000000    0.2143800000000000 H
   0.4586800000000000    0.6233700000000000    0.4400000000000000 H
   0.9584800000000000    0.6216699999999999    0.4447900000000000 H
   0.1619600000000000    0.8321600000000000    0.4426000000000000 H
   0.6627100000000000    0.8293000000000000    0.4430000000000000 H
   0.0975700000000000    0.7070800000000000    0.4349900000000000 H
   0.5982700000000000    0.7041300000000000    0.4352300000000000 H
   0.9197100000000000    0.0051300000000000    0.7037000000000000 H
   0.7321200000000000    0.9988500000000000    0.5624600000000000 H
   0.9106500000000000    0.0048600000000000    0.5474400000000000 H
   0.7343300000000000    0.9971900000000000    0.7189500000000000 H
   0.7371300000000000    0.8943400000000000    0.9659400000000000 H
   0.7526900000000000    0.9033600000000001    0.1227500000000000 H
   0.8786100000000000    0.0856300000000000    0.0947400000000000 H
   0.8699100000000000    0.0824900000000000    0.9368000000000000 H
   0.1769000000000000    0.5011200000000000    0.3120400000000000 H
   0.6768800000000000    0.4985500000000000    0.3110000000000000 H
   0.4659600000000000    0.4997500000000000    0.3427000000000000 H
   0.9658099999999999    0.5004500000000000    0.3414800000000000 H
   0.7622700000000000    0.4999000000000000    0.6620800000000000 C
   0.2070500000000000    0.1999500000000000    0.3286000000000000 C
   0.7067300000000000    0.1975200000000000    0.3260800000000000 C
   0.2451800000000000    0.1239800000000000    0.3329900000000000 C
   0.4564700000000000    0.8010000000000000    0.6746000000000000 C
   0.9552300000000000    0.8025600000000001    0.6726100000000000 C
   0.4950600000000000    0.8767000000000000    0.6703800000000000 C
   0.9935400000000000    0.8783700000000000    0.6685800000000000 C
   0.1850900000000000    0.8006900000000000    0.6682200000000000 C
   0.6857799999999999    0.8020200000000000    0.6709000000000001 C
   0.1466900000000000    0.8765900000000000    0.6694099999999999 C
   0.6476700000000000    0.8781300000000000    0.6732600000000000 C
   0.2555900000000000    0.6556100000000000    0.6674800000000000 C
   0.7555200000000000    0.6562900000000000    0.6677700000000000 C
   0.3857300000000000    0.6562400000000000    0.6801300000000000 C
   0.8854700000000000    0.6570400000000000    0.6781000000000000 C
   0.3509600000000000    0.5775800000000000    0.6801700000000001 C
   0.8509100000000001    0.5782800000000000    0.6783700000000000 C
   0.2905800000000000    0.5772900000000000    0.6691000000000000 C
   0.7904800000000000    0.5779400000000000    0.6679900000000000 C
   0.2121200000000000    0.7444200000000000    0.2624200000000000 C
   0.7127900000000000    0.7419500000000000    0.2627500000000000 C
   0.4644100000000000    0.6695900000000000    0.3940400000000000 C
   0.9639000000000000    0.6688700000000000    0.3956700000000000 C
   0.1656000000000000    0.7878300000000000    0.3907600000000000 C
   0.1795000000000000    0.7398600000000000    0.6052300000000000 C
   0.6790600000000000    0.7414900000000000    0.6078600000000000 C
   0.2614900000000000    0.7175200000000000    0.7301000000000000 C
   0.7625300000000000    0.7179500000000000    0.7303900000000000 C
   0.2261000000000000    0.7883200000000000    0.7312600000000000 C
   0.7275800000000000    0.7891899999999999    0.7327399999999999 C
   0.4263300000000000    0.6717800000000000    0.7433100000000000 C
   0.9270900000000000    0.6717700000000000    0.7400700000000000 C
   0.4604900000000000    0.7441300000000000    0.7415200000000000 C
   0.9608400000000000    0.7444700000000000    0.7382600000000000 C
   0.2137800000000000    0.6677600000000000    0.6053400000000000 C
   0.7129900000000000    0.6690400000000000    0.6068000000000000 C
   0.4165000000000000    0.7854400000000000    0.6109000000000000 C
   0.9142400000000001    0.7878700000000000    0.6101000000000000 C
   0.3808100000000000    0.7150000000000000    0.6145699999999999 C
   0.8790700000000000    0.7169000000000000    0.6138000000000000 C
   0.4561800000000000    0.1980800000000000    0.6726000000000000 C
   0.9571200000000000    0.1996300000000000    0.6716800000000001 C
   0.4943200000000000    0.1220900000000000    0.6683200000000000 C
   0.9955200000000000    0.1238000000000000    0.6677100000000000 C
   0.1868900000000000    0.1963800000000000    0.6717700000000000 C
   0.6866500000000000    0.1977200000000000    0.6677000000000000 C
   0.1487100000000000    0.1202800000000000    0.6742100000000000 C
   0.6483600000000000    0.1217400000000000    0.6698800000000000 C
   0.2562100000000000    0.3427100000000000    0.6690100000000000 C
   0.7564500000000000    0.3434700000000000    0.6657800000000000 C
   0.3861900000000000    0.3433800000000000    0.6791800000000000 C
   0.8864600000000000    0.3442800000000000    0.6773000000000000 C
   0.3512600000000000    0.4218000000000000    0.6799800000000000 C
   0.8514000000000000    0.4225900000000000    0.6778100000000000 C
   0.2908200000000000    0.4214700000000000    0.6695600000000000 C
   0.7910100000000000    0.4222100000000000    0.6670000000000000 C
   0.1802100000000000    0.2568000000000000    0.6086400000000000 C
   0.6806500000000000    0.2580300000000000    0.6043500000000001 C
   0.2632900000000000    0.2810500000000000    0.7316000000000000 C
   0.7628400000000000    0.2819900000000000    0.7286700000000000 C
   0.2285600000000000    0.2095300000000000    0.7337500000000000 C
   0.7278000000000000    0.2108300000000000    0.7304100000000000 C
   0.4280400000000000    0.3285900000000000    0.7407500000000000 C
   0.9272200000000000    0.3289500000000000    0.7403600000000000 C
   0.4619100000000000    0.2560100000000000    0.7384700000000000 C
   0.9613600000000000    0.2566200000000000    0.7384900000000000 C
   0.2139000000000000    0.3295400000000000    0.6077900000000001 C
   0.7145899999999999    0.3305000000000000    0.6038900000000000 C
   0.4150700000000000    0.2129500000000000    0.6104100000000000 C
   0.9171500000000000    0.2151400000000000    0.6080100000000001 C
   0.3798100000000000    0.2837900000000000    0.6146000000000000 C
   0.8814500000000000    0.2855400000000000    0.6118100000000000 C
   0.0532900000000000    0.9867100000000000    0.0590400000000000 C
   0.5547500000000000    0.0192300000000000    0.0592000000000000 C
   0.1277400000000000    0.0016900000000000    0.3257700000000000 C
   0.6280100000000000    0.9986600000000000    0.3261600000000000 C
   0.0227000000000000    0.9977000000000000    0.4038900000000000 C
   0.5227800000000000    0.0034100000000000    0.4036800000000000 C
   0.1226400000000000    0.0011900000000000    0.4122800000000000 C
   0.6226400000000000    0.9986400000000000    0.4126300000000000 C
   0.0777600000000000    0.9991300000000000    0.2774100000000000 C
   0.5782100000000000    0.0025300000000000    0.2775000000000000 C
   0.0239200000000000    0.9972600000000000    0.3171800000000000 C
   0.5242800000000000    0.0045800000000000    0.3169600000000000 C
   0.0062800000000000    0.9707800000000000    0.0068700000000000 C
   0.5066800000000000    0.0257400000000000    0.0071200000000000 C
   0.0138400000000000    0.9753500000000001    0.9206600000000000 C
   0.5143100000000000    0.0194800000000000    0.9210600000000000 C
   0.1106000000000000    0.0089500000000000    0.9363000000000000 C
   0.6132200000000000    0.0048600000000000    0.9364000000000000 C
   0.1067500000000000    0.0057400000000000    0.0226000000000000 C
   0.6093600000000000    0.0097900000000000    0.0228500000000000 C
   0.3795700000000000    0.4998100000000000    0.6859000000000000 C
   0.8796500000000000    0.5006100000000000    0.6838200000000000 C
   0.2622500000000000    0.4992400000000000    0.6638400000000000 C
   0.7454600000000000    0.1220900000000000    0.3300700000000000 C
   0.4358400000000000    0.1979900000000000    0.3333333333333333 C
   0.9367100000000000    0.1981900000000000    0.3269900000000000 C
   0.3975800000000000    0.1220400000000000    0.3321000000000000 C
   0.8985700000000000    0.1220600000000000    0.3238800000000000 C
   0.0065100000000000    0.3440500000000000    0.3315000000000000 C
   0.5060000000000000    0.3432200000000000    0.3339700000000000 C
   0.1366000000000000    0.3447100000000000    0.3222200000000000 C
   0.6361200000000000    0.3423600000000000    0.3211400000000000 C
   0.1016600000000000    0.4230800000000000    0.3215700000000000 C
   0.6014100000000000    0.4210600000000000    0.3213900000000000 C
   0.0411900000000000    0.4227400000000000    0.3315900000000000 C
   0.5410199999999999    0.4214900000000000    0.3324700000000000 C
   0.4298700000000000    0.2588800000000000    0.3961900000000000 C
   0.9298999999999999    0.2581600000000000    0.3905800000000000 C
   0.0137200000000000    0.2828900000000000    0.2684100000000000 C
   0.5122500000000000    0.2812300000000000    0.2714900000000000 C
   0.4770500000000000    0.2102100000000000    0.2703200000000000 C
   0.9787400000000001    0.2116500000000000    0.2654400000000000 C
   0.1782100000000000    0.3298200000000000    0.2601700000000000 C
   0.6772800000000000    0.3275500000000000    0.2584100000000000 C
   0.2123200000000000    0.2575100000000000    0.2624800000000000 C
   0.7114400000000000    0.2552300000000000    0.2599300000000000 C
   0.4640100000000000    0.3311200000000000    0.3960000000000000 C
   0.9638200000000000    0.3306300000000000    0.3923200000000000 C
   0.1661900000000000    0.2150100000000000    0.3913900000000000 C
   0.6660800000000000    0.2121900000000000    0.3892300000000000 C
   0.1306800000000000    0.2855600000000000    0.3872800000000000 C
   0.6304999999999999    0.2827400000000000    0.3858000000000000 C
   0.2067600000000000    0.8023800000000000    0.3282800000000000 C
   0.7072800000000000    0.7998400000000000    0.3286300000000000 C
   0.2453000000000000    0.8779900000000000    0.3325000000000000 C
   0.7452299999999999    0.8759900000000000    0.3328700000000000 C
   0.4369700000000000    0.8020000000000000    0.3289500000000000 C
   0.9360400000000000    0.8022500000000000    0.3332500000000000 C
   0.3986600000000000    0.8779800000000000    0.3258300000000000 C
   0.8976499999999999    0.8780500000000000    0.3320100000000000 C
   0.0061200000000000    0.6568900000000000    0.3338800000000000 C
   0.5067700000000001    0.6560800000000000    0.3327000000000000 C
   0.1362900000000000    0.6574200000000000    0.3223900000000000 C
   0.6368500000000000    0.6550500000000000    0.3223100000000000 C
   0.1015000000000000    0.5788200000000000    0.3219800000000000 C
   0.6018000000000000    0.5768000000000000    0.3216700000000000 C
   0.0410400000000000    0.5785300000000000    0.3323000000000000 C
   0.5413700000000000    0.5773000000000000    0.3323300000000000 C
   0.4304900000000000    0.7420800000000000    0.3926500000000000 C
   0.9298200000000000    0.7411600000000000    0.3958500000000000 C
   0.0126600000000000    0.7191100000000000    0.2717100000000000 C
   0.5137300000000000    0.7172700000000000    0.2696700000000000 C
   0.4787700000000000    0.7885000000000000    0.2670500000000000 C
   0.9774800000000000    0.7901800000000000    0.2705300000000000 C
   0.1780500000000000    0.6720400000000000    0.2604500000000000 C
   0.6787000000000000    0.6696100000000000    0.2605200000000000 C
   0.6662400000000001    0.7850500000000000    0.3911700000000000 C
   0.1300900000000000    0.7172100000000000    0.3868600000000000 C
   0.6307400000000000    0.7145000000000000    0.3870900000000000 C
   0.8031500000000000    0.9870700000000000    0.9403700000000000 C
   0.8778300000000000    0.0032100000000000    0.6736600000000000 C
   0.7727300000000000    0.9996500000000000    0.5961000000000000 C
   0.8726800000000000    0.0033000000000000    0.5871499999999999 C
   0.8278799999999999    0.0000300000000000    0.7222100000000000 C
   0.7740100000000000    0.9984200000000000    0.6828000000000000 C
   0.7689900000000000    0.9369300000000000    0.9927000000000000 C
   0.7773099999999999    0.9415200000000000    0.0786300000000000 C
   0.8484800000000000    0.0437700000000000    0.0628000000000000 C
   0.8435800000000000    0.0419600000000000    0.9764000000000000 C
   0.1300800000000000    0.5010200000000000    0.3161800000000000 C
   0.6300800000000000    0.4987900000000000    0.3156600000000000 C
   0.0126400000000000    0.5005300000000000    0.3373000000000000 C
   0.5127400000000000    0.4995600000000000    0.3380300000000000 C
   0.0710900000000000    0.9995600000000000    0.4508500000000000 N
   0.5709900000000000    0.0005600000000000    0.4509500000000000 N
   0.0866800000000000    0.0012500000000000    0.1899600000000000 N
   0.5872700000000000    0.0007900000000000    0.1900400000000000 N
   0.0650500000000000    0.9943700000000000    0.8859200000000000 N
   0.5666000000000000    0.0087500000000000    0.8862700000000000 N
   0.0427000000000000    0.9818700000000000    0.1460000000000000 N
   0.5441100000000000    0.0238400000000000    0.1467400000000000 N
   0.8211100000000000    0.0017000000000000    0.5489200000000000 N
   0.8369799999999999    0.0006300000000000    0.8097299999999999 N
   0.8162900000000000    0.9940900000000000    0.1132800000000000 N
   0.7929500000000000    0.9812700000000000    0.8531700000000000 N
   0.1255200000000000    0.9010000000000000    0.5998400000000000 O
   0.6278300000000000    0.9048700000000000    0.6037100000000000 O
   0.0023900000000000    0.9112400000000000    0.5971000000000000 O
   0.5048899999999999    0.9077100000000000    0.5982800000000000 O
   0.1380700000000000    0.9110600000000000    0.7403500000000000 O
   0.6379300000000000    0.9102800000000000    0.7450000000000000 O
   0.0145200000000000    0.9045000000000000    0.7377500000000000 O
   0.5148900000000000    0.9045299999999999    0.7395000000000000 O
   0.1296900000000000    0.0924200000000000    0.6045500000000000 O
   0.6273000000000000    0.0961900000000000    0.6006000000000000 O
   0.0054700000000000    0.0925400000000000    0.5957200000000000 O
   0.5028600000000000    0.0891500000000000    0.5967000000000000 O
   0.1378700000000000    0.0895000000000000    0.7462000000000000 O
   0.6394900000000000    0.0886500000000000    0.7413800000000000 O
   0.0149600000000000    0.0958100000000000    0.7370200000000000 O
   0.5153100000000000    0.0957200000000000    0.7373200000000000 O
   0.3777700000000000    0.0958200000000000    0.4020700000000000 O
   0.8775800000000000    0.0957600000000000    0.3929400000000000 O
   0.2547100000000000    0.0924800000000000    0.4047600000000000 O
   0.7538700000000000    0.0891000000000000    0.4016000000000000 O
   0.3876400000000000    0.0893900000000000    0.2607800000000000 O
   0.8897800000000000    0.0894200000000000    0.2520200000000000 O
   0.2650100000000000    0.0959600000000000    0.2636000000000000 O
   0.7669899999999999    0.0962800000000000    0.2611300000000000 O
   0.3775700000000000    0.9042200000000000    0.3948800000000000 O
   0.8778100000000000    0.9043000000000000    0.4018900000000000 O
   0.2533500000000000    0.9112200000000000    0.4041100000000000 O
   0.7547000000000000    0.9076400000000000    0.4046300000000000 O
   0.3898900000000000    0.9105600000000000    0.2539400000000000 O
   0.8877400000000000    0.9106600000000000    0.2606300000000000 O
   0.2671800000000000    0.9036300000000000    0.2637600000000000 O
   0.7650400000000001    0.9039800000000000    0.2635700000000000 O
