H7 O5
1.0
  21.5619933497375271    0.0000000000000000    0.0169347534581414
  -0.0033950198120634   17.6659991464012265    0.0043166180762462
   0.0000000000000000    0.0000000000000000   17.1960000000000015
H O
7 5
direct
   0.4468796556944519    0.5001659173712597    0.6635918185740043 H
   0.6154525472553866    0.5018031057178556    0.5980411859345400 H
   0.5382764718172010    0.5139436305873354    0.6383922095293064 H
   0.4683948247041843    0.6418013693708867    0.8879630029940531 H
   0.6384863064744301    0.6708369603953787    0.9131629243523786 H
   0.5178841850985734    0.8099611541561672    0.8150899626356266 H
   0.5738856679716611    0.7349488152984442    0.8582043631229774 H
   0.4747300000000000    0.4720500000000000    0.6299900000000000 O
   0.5760400000000000    0.4758200000000000    0.5928300000000000 O
   0.4716100000000000    0.6875300000000000    0.9198100000000000 O
   0.6217400000000000    0.7214200000000000    0.9068300000000000 O
   0.5522700000000000    0.8002400000000000    0.8500300000000000 O
