Zn32 H45 C135 O90
1.0
  21.5619933497375271    0.0000000000000000    0.0169347534581414
  -0.0033950198120634   17.6659991464012265    0.0043166180762462
   0.0000000000000000    0.0000000000000000   17.1960000000000015
Zn H C O
32 45 135 90
direct
   0.5811400000000000    0.2126000000000000    0.4864800000000000 Zn
   0.2877800000000000    0.6598200000000000    0.9196400000000000 Zn
   0.7887900000000000    0.6599000000000000    0.9198600000000000 Zn
   0.3361500000000000    0.6027600000000000    0.1005800000000000 Zn
   0.8369300000000000    0.6027900000000000    0.1006700000000000 Zn
   0.1627500000000000    0.6036100000000000    0.0163900000000000 Zn
   0.6638700000000000    0.6037400000000001    0.0162100000000000 Zn
   0.1701800000000000    0.7869500000000000    0.9857800000000000 Zn
   0.6694500000000000    0.7866500000000000    0.9859000000000000 Zn
   0.4616400000000000    0.3375500000000000    0.4198500000000000 Zn
   0.9617599999999999    0.3376600000000000    0.4190800000000000 Zn
   0.4134500000000000    0.3965800000000000    0.6003500000000001 Zn
   0.9143200000000000    0.3968500000000000    0.6001500000000000 Zn
   0.0858400000000000    0.3941800000000000    0.5165000000000000 Zn
   0.5866900000000000    0.3941600000000000    0.5165000000000000 Zn
   0.4189800000000000    0.7127700000000000    0.0134900000000000 Zn
   0.9199500000000000    0.7128000000000000    0.0135900000000000 Zn
   0.2108100000000000    0.1596000000000000    0.5794800000000000 Zn
   0.7121900000000000    0.1598200000000000    0.5800300000000000 Zn
   0.1630900000000000    0.1026400000000000    0.3969300000000000 Zn
   0.6641000000000000    0.1026700000000000    0.3991900000000000 Zn
   0.3361800000000000    0.1033800000000000    0.4831700000000000 Zn
   0.8372700000000000    0.1040000000000000    0.4830000000000000 Zn
   0.3305400000000000    0.2848600000000000    0.5133200000000000 Zn
   0.8297500000000000    0.2868700000000000    0.5133000000000000 Zn
   0.0391900000000000    0.8382200000000000    0.0800000000000000 Zn
   0.5386000000000000    0.8376200000000000    0.0798900000000000 Zn
   0.0857400000000000    0.8967100000000000    0.8970800000000000 Zn
   0.5864000000000000    0.8964600000000000    0.8971300000000000 Zn
   0.4134000000000000    0.8940300000000000    0.9833300000000000 Zn
   0.9143300000000000    0.8944299999999999    0.9829500000000000 Zn
   0.0800800000000000    0.2125100000000000    0.4841300000000000 Zn
   0.1229400000000000    0.4021100000000000    0.1388300000000000 H
   0.6235000000000001    0.4014200000000000    0.1380500000000000 H
   0.1053200000000000    0.3002700000000000    0.2362900000000000 H
   0.6053200000000000    0.3003200000000000    0.2360500000000000 H
   0.2889600000000000    0.4678600000000000    0.2600700000000000 H
   0.7891200000000000    0.4675400000000000    0.2598600000000000 H
   0.0964800000000000    0.4504500000000000    0.8387900000000000 H
   0.5968599999999999    0.4513300000000000    0.8387000000000000 H
   0.0845700000000000    0.3515500000000000    0.7366600000000000 H
   0.5850800000000000    0.3519800000000000    0.7369700000000000 H
   0.2812500000000000    0.4965800000000000    0.7571000000000000 H
   0.7817499999999999    0.4971300000000000    0.7574000000000000 H
   0.1272000000000000    0.5968700000000000    0.6381599999999999 H
   0.1456200000000000    0.6981800000000000    0.7358500000000000 H
   0.9611200000000000    0.5321900000000001    0.7601000000000000 H
   0.1534100000000000    0.5481400000000000    0.3395900000000000 H
   0.6528700000000000    0.5468800000000000    0.3388300000000000 H
   0.1652900000000000    0.6472900000000000    0.2376200000000000 H
   0.6649800000000000    0.6457500000000000    0.2365900000000000 H
   0.4680900000000000    0.5010800000000000    0.2574600000000000 H
   0.9687200000000000    0.5018899999999999    0.2581500000000000 H
   0.3760600000000000    0.9013200000000000    0.3610400000000000 H
   0.8775900000000000    0.9021000000000000    0.3595300000000000 H
   0.3941000000000000    0.8000600000000000    0.2630900000000000 H
   0.8951300000000000    0.8010400000000000    0.2614100000000000 H
   0.2109300000000000    0.9682700000000000    0.2386500000000000 H
   0.7107100000000000    0.9673900000000000    0.2399600000000000 H
   0.4031500000000000    0.9503800000000000    0.6594900000000000 H
   0.9038700000000000    0.9507200000000000    0.6601100000000000 H
   0.4150900000000000    0.8513400000000000    0.7615700000000000 H
   0.9158500000000001    0.8516400000000000    0.7621200000000000 H
   0.2186300000000000    0.9969000000000000    0.7415800000000000 H
   0.7193400000000000    0.9970400000000000    0.7423000000000000 H
   0.3723600000000000    0.0961900000000000    0.8607500000000000 H
   0.8731700000000000    0.0981900000000000    0.8605600000000000 H
   0.3544600000000000    0.1978300000000000    0.7632400000000000 H
   0.8553200000000000    0.1994600000000000    0.7626100000000000 H
   0.0378600000000000    0.0305200000000000    0.7373600000000000 H
   0.5386600000000000    0.0313700000000000    0.7393900000000000 H
   0.3474900000000000    0.0470000000000000    0.1607300000000000 H
   0.8462700000000000    0.0474800000000000    0.1594500000000000 H
   0.3353500000000000    0.1457400000000000    0.2630900000000000 H
   0.8343100000000000    0.1471000000000000    0.2609000000000000 H
   0.0308700000000000    0.0016500000000000    0.2413100000000000 H
   0.5323500000000000    0.0014200000000000    0.2419100000000000 H
   0.2080700000000000    0.4402200000000000    0.1916900000000000 C
   0.7085100000000000    0.4397600000000000    0.1910800000000000 C
   0.1557400000000000    0.3934200000000000    0.1861200000000000 C
   0.6561100000000000    0.3930300000000000    0.1850000000000000 C
   0.8019200000000000    0.0398900000000000    0.6335499999999999 C
   0.3303200000000000    0.8045500000000000    0.8667000000000000 C
   0.8310600000000000    0.8048400000000000    0.8673999999999999 C
   0.2139400000000000    0.8922800000000000    0.8551200000000000 C
   0.1460300000000000    0.3366300000000000    0.2408500000000000 C
   0.6460600000000000    0.3366000000000000    0.2407000000000000 C
   0.1876400000000000    0.3260200000000000    0.3026600000000000 C
   0.6874100000000000    0.3261500000000000    0.3028400000000000 C
   0.2389000000000000    0.3750900000000000    0.3101900000000000 C
   0.7387300000000000    0.3751900000000000    0.3101900000000000 C
   0.2488800000000000    0.4309000000000000    0.2539500000000000 C
   0.7490000000000000    0.4306700000000000    0.2536900000000000 C
   0.2196200000000000    0.5013400000000000    0.1335100000000000 C
   0.7206100000000000    0.5006300000000000    0.1326900000000000 C
   0.1712200000000000    0.2634300000000000    0.3588100000000000 C
   0.6710900000000000    0.2637000000000000    0.3594100000000000 C
   0.2832400000000000    0.3705100000000000    0.3771400000000000 C
   0.7831399999999999    0.3709200000000000    0.3770400000000000 C
   0.1894700000000000    0.4802700000000000    0.8044000000000000 C
   0.6898500000000000    0.4810800000000000    0.8043200000000000 C
   0.1342400000000000    0.4387500000000000    0.7984000000000000 C
   0.6346500000000000    0.4394900000000000    0.7984500000000000 C
   0.1277500000000000    0.3834300000000000    0.7411000000000000 C
   0.6282200000000000    0.3839300000000000    0.7413000000000000 C
   0.1765100000000000    0.3678500000000000    0.6897400000000000 C
   0.6770200000000000    0.3683000000000000    0.6900500000000001 C
   0.2324200000000000    0.4090200000000000    0.6958900000000000 C
   0.7329200000000000    0.4094500000000000    0.6963400000000000 C
   0.2380200000000000    0.4651400000000000    0.7526800000000000 C
   0.7385200000000000    0.4657000000000000    0.7529100000000000 C
   0.1984900000000000    0.5392500000000000    0.8660099999999999 C
   0.6988400000000000    0.5402600000000000    0.8656600000000000 C
   0.1693200000000000    0.3046100000000000    0.6316700000000000 C
   0.6701500000000000    0.3049600000000000    0.6320100000000000 C
   0.2862000000000000    0.3915500000000000    0.6438600000000000 C
   0.7865700000000000    0.3919400000000000    0.6443000000000000 C
   0.0419200000000000    0.5593300000000000    0.6913300000000000 C
   0.0945700000000000    0.6055900000000000    0.6856900000000000 C
   0.1047600000000000    0.6621100000000000    0.7406300000000000 C
   0.0633800000000000    0.6729200000000000    0.8027500000000000 C
   0.0119100000000000    0.6241400000000000    0.8103600000000000 C
   0.0014200000000000    0.5687700000000000    0.7539200000000000 C
   0.0292800000000000    0.4984600000000000    0.6332800000000000 C
   0.0797500000000000    0.7357000000000000    0.8587700000000000 C
   0.9676300000000000    0.6283700000000000    0.8774100000000000 C
   0.0605600000000000    0.5180399999999999    0.3050800000000000 C
   0.5598900000000000    0.5172099999999999    0.3045000000000000 C
   0.1156900000000000    0.5598000000000000    0.2992500000000000 C
   0.6151600000000000    0.5586400000000000    0.2985100000000000 C
   0.1221700000000000    0.6152600000000000    0.2420600000000000 C
   0.6217600000000000    0.6139400000000000    0.2411900000000000 C
   0.0734900000000000    0.6306900000000000    0.1905800000000000 C
   0.5730200000000000    0.6297000000000000    0.1899000000000000 C
   0.0175300000000000    0.5896400000000001    0.1969700000000000 C
   0.5169800000000000    0.5887200000000000    0.1962300000000000 C
   0.0119400000000000    0.5333500000000000    0.2536100000000000 C
   0.5113500000000000    0.5324600000000000    0.2528900000000000 C
   0.0517100000000000    0.4586000000000000    0.3663000000000000 C
   0.5508400000000000    0.4582300000000000    0.3661200000000000 C
   0.0804900000000000    0.6936800000000000    0.1321700000000000 C
   0.5804300000000000    0.6928900000000000    0.1317900000000000 C
   0.4630700000000000    0.6068000000000000    0.1447600000000000 C
   0.9637500000000000    0.6074500000000000    0.1452400000000000 C
   0.2913200000000000    0.9399400000000000    0.3076200000000000 C
   0.7920199999999999    0.9400500000000001    0.3076600000000000 C
   0.3435700000000000    0.8930700000000000    0.3133400000000000 C
   0.8445400000000000    0.8935000000000000    0.3125000000000000 C
   0.3535300000000000    0.8366100000000000    0.2583100000000000 C
   0.8542100000000000    0.8370600000000000    0.2573500000000000 C
   0.3122900000000000    0.8265400000000001    0.1960400000000000 C
   0.8123300000000000    0.8263000000000000    0.1958200000000000 C
   0.2611900000000000    0.8758400000000000    0.1883500000000000 C
   0.7607699999999999    0.8750700000000000    0.1891200000000000 C
   0.2509400000000000    0.9312300000000000    0.2448600000000000 C
   0.7509500000000000    0.9306400000000000    0.2456700000000000 C
   0.2792100000000000    0.0005500000000000    0.3661200000000000 C
   0.7804700000000000    0.0010400000000000    0.3661000000000000 C
   0.3286800000000000    0.7642200000000000    0.1395300000000000 C
   0.8287800000000000    0.7639000000000000    0.1392600000000000 C
   0.2169400000000000    0.8715100000000000    0.1213500000000000 C
   0.7158600000000001    0.8707100000000000    0.1227100000000000 C
   0.3102800000000000    0.9803400000000000    0.6941600000000000 C
   0.8110300000000000    0.9807200000000000    0.6949100000000000 C
   0.3654700000000000    0.9387200000000000    0.6999700000000000 C
   0.8661900000000000    0.9390500000000001    0.7005800000000000 C
   0.3719800000000000    0.8833600000000000    0.7572100000000000 C
   0.8727300000000000    0.8836400000000000    0.7578000000000000 C
   0.3232800000000000    0.8679400000000000    0.8087000000000000 C
   0.8240499999999999    0.8681300000000000    0.8093000000000000 C
   0.2674900000000000    0.9093200000000000    0.8027600000000000 C
   0.7681600000000000    0.9093000000000000    0.8032899999999999 C
   0.2618100000000000    0.9653700000000000    0.7459700000000000 C
   0.7625200000000000    0.9655300000000000    0.7466500000000000 C
   0.3012500000000000    0.0391100000000000    0.6324700000000000 C
   0.7144700000000000    0.8917400000000000    0.8553300000000000 C
   0.4576900000000000    0.0585000000000000    0.8079200000000000 C
   0.9576700000000000    0.0590600000000000    0.8067000000000000 C
   0.4051600000000000    0.1049800000000000    0.8134100000000000 C
   0.9056300000000000    0.1062500000000000    0.8127200000000000 C
   0.3952800000000000    0.1616900000000000    0.7585000000000000 C
   0.8957900000000000    0.1627700000000000    0.7576500000000000 C
   0.4368600000000000    0.1725400000000000    0.6966800000000000 C
   0.9369499999999999    0.1727500000000000    0.6951600000000000 C
   0.4882800000000000    0.1236900000000000    0.6892300000000000 C
   0.9878900000000000    0.1231900000000000    0.6873000000000000 C
   0.4984300000000000    0.0680500000000000    0.7455600000000000 C
   0.9979800000000000    0.0677400000000000    0.7438100000000000 C
   0.4698400000000000    0.9975200000000000    0.8661200000000000 C
   0.9699300000000000    0.9981700000000000    0.8650000000000000 C
   0.4204100000000000    0.2349500000000000    0.6402099999999999 C
   0.9206299999999999    0.2353100000000000    0.6388000000000000 C
   0.0320500000000000    0.1269900000000000    0.6200100000000000 C
   0.5328800000000000    0.1282200000000000    0.6225100000000000 C
   0.4404600000000000    0.0173900000000000    0.1950900000000000 C
   0.9391200000000000    0.0176600000000000    0.1942000000000000 C
   0.3851800000000000    0.0587600000000000    0.2010800000000000 C
   0.8839700000000000    0.0593800000000000    0.1997400000000000 C
   0.3785600000000000    0.1139500000000000    0.2584600000000000 C
   0.8774500000000000    0.1151300000000000    0.2566000000000000 C
   0.4272800000000000    0.1295400000000000    0.3098200000000000 C
   0.9261700000000000    0.1309400000000000    0.3078900000000000 C
   0.4833700000000000    0.0888200000000000    0.3033900000000000 C
   0.9820900000000000    0.0897800000000000    0.3018000000000000 C
   0.4890700000000000    0.0327100000000000    0.2465900000000000 C
   0.9876800000000000    0.0331700000000000    0.2456200000000000 C
   0.4493700000000000    0.9582700000000000    0.1336200000000000 C
   0.9482200000000000    0.9582400000000000    0.1331500000000000 C
   0.4199600000000000    0.1927000000000000    0.3678400000000000 C
   0.9191800000000000    0.1942200000000000    0.3659400000000000 C
   0.0359000000000000    0.1077600000000000    0.3532900000000000 C
   0.5371700000000000    0.1066800000000000    0.3551600000000000 C
   0.1893200000000000    0.2401400000000000    0.6535300000000001 O
   0.6906900000000000    0.2407400000000000    0.6537600000000000 O
   0.1416100000000000    0.3153300000000000    0.5669999999999999 O
   0.6423000000000000    0.3153500000000000    0.5673600000000000 O
   0.3376500000000000    0.4253200000000000    0.6575000000000000 O
   0.2744100000000000    0.5277500000000001    0.1300100000000000 O
   0.7754000000000000    0.5272100000000000    0.1300600000000000 O
   0.1733200000000000    0.5220500000000000    0.0924900000000000 O
   0.6747800000000000    0.5210300000000000    0.0906500000000000 O
   0.1970400000000000    0.1986200000000000    0.3498700000000000 O
   0.6964600000000000    0.1987500000000000    0.3500200000000000 O
   0.1284600000000000    0.2785100000000000    0.4069900000000000 O
   0.6291200000000000    0.2790100000000000    0.4086300000000000 O
   0.3198400000000000    0.4249100000000000    0.3899100000000000 O
   0.8190900000000000    0.4257800000000000    0.3902200000000000 O
   0.2803700000000000    0.3092000000000000    0.4171700000000000 O
   0.7810600000000000    0.3091800000000000    0.4165300000000000 O
   0.2478600000000000    0.5786500000000000    0.8600000000000000 O
   0.7487400000000000    0.5787800000000000    0.8604600000000000 O
   0.1570800000000000    0.5446299999999999    0.9190300000000000 O
   0.6569100000000000    0.5466200000000000    0.9178600000000000 O
   0.8386800000000000    0.4234800000000000    0.6593200000000000 O
   0.2768700000000000    0.3435900000000000    0.5902300000000000 O
   0.7762000000000000    0.3460600000000000    0.5890300000000001 O
   0.9737200000000000    0.4742900000000000    0.6290000000000000 O
   0.0751300000000000    0.4757600000000000    0.5926000000000000 O
   0.0533200000000000    0.8001100000000000    0.8498400000000000 O
   0.1226100000000000    0.7212400000000000    0.9069199999999999 O
   0.9309900000000000    0.5739400000000000    0.8899000000000000 O
   0.9705100000000000    0.6893800000000000    0.9178600000000000 O
   0.5016300000000000    0.4185800000000000    0.3601400000000000 O
   0.0000000000000000    0.4187200000000000    0.3600600000000000 O
   0.0929800000000000    0.4532800000000000    0.4194500000000000 O
   0.5920900000000000    0.4531500000000000    0.4192800000000000 O
   0.0612100000000000    0.7584000000000000    0.1542900000000000 O
   0.5612800000000000    0.7576400000000000    0.1538900000000000 O
   0.1071100000000000    0.6826100000000001    0.0668000000000000 O
   0.6075199999999999    0.6817800000000001    0.0667200000000000 O
   0.4117800000000000    0.5721700000000000    0.1572900000000000 O
   0.9119100000000000    0.5748900000000000    0.1598300000000000 O
   0.4720800000000000    0.6564300000000000    0.0926600000000000 O
   0.9734400000000000    0.6545600000000000    0.0908700000000000 O
   0.2240100000000000    0.0257200000000000    0.3699800000000000 O
   0.7255800000000000    0.0271700000000000    0.3699000000000000 O
   0.3253300000000000    0.0219500000000000    0.4070100000000000 O
   0.8267700000000000    0.0219800000000000    0.4070300000000000 O
   0.3040700000000000    0.6989000000000000    0.1497000000000000 O
   0.8028800000000000    0.6990800000000000    0.1476800000000000 O
   0.3700300000000000    0.7800800000000000    0.0896800000000000 O
   0.8715700000000000    0.7790400000000000    0.0911000000000000 O
   0.1816100000000000    0.9266900000000000    0.1070700000000000 O
   0.6798400000000000    0.9255300000000000    0.1097000000000000 O
   0.2184900000000000    0.8090500000000000    0.0829900000000000 O
   0.7177100000000000    0.8089300000000000    0.0833000000000000 O
   0.2514100000000000    0.0777400000000000    0.6371900000000000 O
   0.7525800000000000    0.0792800000000000    0.6396900000000000 O
   0.3432500000000000    0.0449600000000000    0.5802600000000000 O
   0.8432100000000000    0.0454000000000000    0.5804300000000000 O
   0.3091600000000000    0.7404800000000000    0.8453600000000000 O
   0.8105300000000000    0.7405800000000000    0.8458700000000000 O
   0.3591200000000000    0.8147000000000000    0.9306900000000000 O
   0.8590600000000000    0.8153700000000000    0.9319400000000000 O
   0.1620300000000000    0.9243600000000000    0.8401300000000000 O
   0.6624700000000000    0.9235900000000000    0.8400000000000000 O
   0.2240900000000000    0.8463800000000000    0.9104300000000000 O
   0.7244600000000000    0.8457000000000000    0.9105200000000000 O
   0.0248900000000000    0.9719900000000000    0.8668000000000000 O
   0.5251100000000000    0.9725300000000000    0.8698200000000000 O
   0.4237800000000000    0.9755800000000000    0.9069000000000000 O
   0.9245300000000000    0.9773600000000000    0.9075600000000000 O
   0.4453300000000000    0.3001300000000000    0.6497900000000000 O
   0.9469000000000000    0.2999000000000000    0.6472000000000000 O
   0.3788200000000000    0.2189900000000000    0.5907700000000000 O
   0.8777500000000000    0.2204000000000000    0.5907700000000000 O
   0.0683700000000000    0.0723500000000000    0.6072100000000000 O
   0.5689000000000000    0.0733500000000000    0.6094300000000000 O
   0.0294000000000000    0.1881600000000000    0.5797300000000000 O
   0.5310000000000000    0.1899800000000000    0.5830400000000000 O
   0.9973600000000000    0.9185100000000000    0.1394300000000000 O
   0.4984600000000000    0.9184400000000000    0.1397500000000000 O
   0.4080600000000000    0.9531900000000000    0.0805200000000000 O
   0.9069500000000000    0.9529800000000000    0.0800300000000000 O
   0.4401600000000000    0.2570600000000000    0.3400000000000000 O
   0.9387400000000000    0.2588400000000000    0.3437300000000000 O
   0.3920200000000000    0.1820900000000000    0.4324200000000000 O
   0.8923600000000000    0.1833100000000000    0.4312000000000000 O
   0.0875300000000000    0.0744400000000000    0.3394800000000000 O
   0.5890800000000000    0.0745000000000000    0.3402000000000000 O
   0.0264300000000000    0.1558600000000000    0.4067300000000000 O
   0.5274799999999999    0.1533700000000000    0.4099100000000000 O
