H5 C4 N2
1.0
  13.9773617707039080    0.0000000000000000   -4.9139814744120613
  -6.9389354307086180   12.1336189574789852   -4.9313436387219136
   0.0000000000000000    0.0000000000000000   14.8089999999999993
H C N
5 4 2
direct
   0.8759400000000001    0.3488000000000000    0.7639000000000000 H
   0.7601400000000000    0.3486400000000000    0.8779000000000000 H
   0.4788400000000000    0.0961100000000000    0.4666000000000000 H
   0.5199300000000000    0.2150000000000000    0.4528000000000000 H
   0.4442300000000000    0.1966000000000000    0.5232000000000000 H
   0.7887800000000000    0.3195400000000000    0.7344900000000000 C
   0.7315500000000000    0.3193200000000000    0.7908600000000000 C
   0.5088700000000000    0.1852900000000000    0.5092700000000000 C
   0.6139800000000000    0.2441000000000000    0.6155200000000000 C
   0.7143900000000000    0.2723700000000000    0.6238000000000000 N
   0.6211700000000000    0.2718900000000000    0.7155800000000000 N
