Zn6 H55 C44 N22
1.0
  13.9773617707039080    0.0000000000000000   -4.9139814744120613
  -6.9389354307086180   12.1336189574789852   -4.9313436387219136
   0.0000000000000000    0.0000000000000000   14.8089999999999993
Zn H C N
6 55 44 22
direct
   0.2486100000000000    0.5002600000000000    0.7502300000000000 Zn
   0.2502000000000000    0.7505100000000000    0.4991800000000000 Zn
   0.7502200000000000    0.2498800000000000    0.5015800000000000 Zn
   0.5011200000000000    0.7514000000000000    0.2493200000000000 Zn
   0.4989200000000000    0.2494800000000000    0.7510300000000000 Zn
   0.7516699999999999    0.5008600000000000    0.2532100000000000 Zn
   0.6598000000000001    0.5360500000000000    0.4240200000000000 H
   0.1155600000000000    0.2373000000000000    0.5928099999999999 H
   0.8853400000000000    0.4655400000000000    0.1259100000000000 H
   0.3427600000000000    0.7605300000000000    0.8749300000000000 H
   0.1247800000000000    0.8869300000000000    0.4669200000000000 H
   0.8759400000000001    0.3488000000000000    0.7639000000000000 H
   0.4153800000000000    0.6526999999999999    0.5283300000000000 H
   0.5926300000000000    0.1175900000000000    0.2392200000000000 H
   0.2391600000000000    0.5935700000000000    0.1173300000000000 H
   0.5251000000000000    0.4104400000000000    0.6493800000000000 H
   0.7614500000000000    0.8754500000000000    0.3429000000000000 H
   0.2384800000000000    0.1157400000000000    0.5855399999999999 H
   0.5313800000000000    0.6550000000000000    0.4146100000000000 H
   0.7601400000000000    0.3486400000000000    0.8779000000000000 H
   0.4796100000000000    0.8888400000000000    0.1227400000000000 H
   0.6612000000000000    0.4209300000000000    0.5386300000000001 H
   0.1142400000000000    0.5816100000000000    0.2377800000000000 H
   0.8866400000000000    0.1221400000000000    0.4790400000000000 H
   0.3442200000000000    0.8756800000000000    0.7604600000000000 H
   0.1227600000000000    0.4779600000000000    0.8882400000000000 H
   0.8763300000000001    0.7604800000000000    0.3446800000000000 H
   0.4114500000000000    0.5265200000000000    0.6502500000000000 H
   0.7466900000000000    0.2613300000000000    0.2255400000000000 H
   0.8270700000000000    0.2669200000000000    0.3494000000000000 H
   0.8784000000000000    0.3778300000000000    0.3246000000000000 H
   0.9264200000000000    0.4790900000000000    0.6857700000000000 H
   0.9942600000000000    0.5235000000000000    0.6178600000000000 H
   0.0732700000000000    0.5534100000000000    0.7542700000000000 H
   0.9195900000000000    0.6658600000000000    0.4777600000000000 H
   0.0578600000000000    0.7724700000000000    0.5399800000000000 H
   0.0321400000000000    0.6498400000000000    0.5454300000000000 H
   0.2043500000000000    0.4472200000000000    0.5213400000000000 H
   0.2086400000000000    0.5212700000000000    0.4480400000000000 H
   0.0952700000000000    0.4730600000000000    0.4692400000000000 H
   0.5316500000000000    0.0063400000000000    0.6303000000000000 H
   0.4761800000000000    0.9228000000000000    0.6812700000000000 H
   0.5483900000000000    0.0693000000000000    0.7635900000000000 H
   0.4788400000000000    0.0961100000000000    0.4666000000000000 H
   0.5199300000000000    0.2150000000000000    0.4528000000000000 H
   0.4442300000000000    0.1966000000000000    0.5232000000000000 H
   0.2319700000000000    0.7615000000000000    0.2666100000000000 H
   0.3584000000000000    0.8379799999999999    0.2745500000000000 H
   0.3350500000000000    0.8887800000000000    0.3868100000000000 H
   0.7509400000000001    0.0763300000000000    0.5558900000000000 H
   0.6931300000000000    0.9306300000000000    0.4802700000000000 H
   0.6153800000000000    0.9865500000000000    0.5202300000000000 H
   0.4800700000000000    0.6958500000000000    0.9313500000000000 H
   0.5184200000000000    0.6146500000000000    0.9826000000000000 H
   0.5556000000000000    0.7495700000000000    0.0763500000000000 H
   0.3084400000000000    0.2401500000000000    0.7917700000000000 H
   0.2460400000000000    0.3245900000000000    0.8037700000000000 H
   0.3813800000000000    0.3742700000000000    0.9069100000000000 H
   0.5238200000000000    0.4478000000000000    0.2065600000000000 H
   0.4692000000000000    0.4741800000000000    0.0983900000000000 H
   0.4511200000000000    0.5223600000000000    0.2139200000000000 H
   0.6860500000000000    0.4754600000000000    0.4209800000000000 C
   0.0572200000000000    0.2664500000000000    0.5913200000000000 C
   0.9436300000000000    0.5264400000000000    0.2120900000000000 C
   0.3153000000000000    0.7318200000000000    0.7880500000000000 C
   0.2111600000000000    0.9443600000000000    0.5274700000000000 C
   0.7887800000000000    0.3195400000000000    0.7344900000000000 C
   0.4149300000000000    0.6818300000000000    0.4701000000000000 C
   0.5912900000000000    0.0589900000000000    0.2679100000000000 C
   0.2676600000000000    0.5915700000000000    0.0584500000000000 C
   0.4678900000000000    0.4115700000000000    0.6796100000000000 C
   0.7327200000000000    0.7887300000000000    0.3158800000000000 C
   0.2674000000000000    0.0574900000000000    0.5859600000000000 C
   0.4722600000000000    0.6829200000000000    0.4138400000000000 C
   0.7315500000000000    0.3193200000000000    0.7908600000000000 C
   0.5354300000000000    0.9458500000000000    0.2102800000000000 C
   0.6865500000000000    0.4184200000000000    0.4774600000000000 C
   0.0568000000000000    0.5838400000000000    0.2674600000000000 C
   0.9440400000000000    0.2095000000000000    0.5350400000000000 C
   0.3159500000000000    0.7887300000000000    0.7314400000000000 C
   0.2101100000000000    0.5345500000000000    0.9452199999999999 C
   0.7894800000000000    0.7319400000000000    0.3166400000000000 C
   0.4116100000000000    0.4688500000000000    0.6799600000000000 C
   0.8041500000000000    0.3159400000000000    0.3148400000000000 C
   0.7542700000000000    0.3697000000000000    0.3706600000000000 C
   0.9983800000000000    0.4905700000000000    0.6748000000000000 C
   0.9994000000000000    0.3848700000000000    0.6308600000000000 C
   0.0025600000000000    0.6827900000000000    0.4925900000000000 C
   0.0013200000000000    0.6319100000000000    0.3864400000000000 C
   0.1853400000000000    0.5086500000000000    0.5070000000000000 C
   0.2432700000000000    0.6141799999999999    0.6133900000000000 C
   0.4905400000000000    0.9995300000000000    0.6794300000000000 C
   0.3850400000000000    0.0000100000000000    0.6313900000000000 C
   0.5088700000000000    0.1852900000000000    0.5092700000000000 C
   0.6139800000000000    0.2441000000000000    0.6155200000000000 C
   0.3216500000000000    0.8141500000000000    0.3218200000000000 C
   0.3713500000000000    0.7575499999999999    0.3704500000000000 C
   0.6752899999999999    0.9985100000000000    0.4908300000000000 C
   0.6311800000000000    0.0003300000000000    0.3855400000000000 C
   0.4901300000000000    0.6753300000000000    0.9974600000000000 C
   0.3850200000000000    0.6309000000000000    0.9994400000000000 C
   0.3234700000000000    0.3246400000000000    0.8174100000000000 C
   0.3689900000000000    0.3700800000000000    0.7566800000000000 C
   0.5095300000000000    0.5094400000000000    0.1885600000000000 C
   0.6149700000000000    0.6146500000000000    0.2451800000000000 C
   0.7286899999999999    0.4443700000000000    0.3534000000000000 N
   0.0920200000000000    0.3772100000000000    0.6520800000000000 N
   0.9087300000000000    0.5572000000000000    0.2873900000000000 N
   0.2697200000000000    0.6216200000000000    0.7133800000000000 N
   0.2855400000000000    0.9081800000000000    0.5566500000000000 N
   0.7143900000000000    0.2723700000000000    0.6238000000000000 N
   0.3509900000000000    0.7287200000000000    0.4423300000000000 N
   0.6519900000000000    0.0932200000000000    0.3785900000000000 N
   0.3781300000000000    0.6526000000000000    0.0925700000000000 N
   0.4405800000000000    0.3489200000000000    0.7278300000000000 N
   0.6226100000000000    0.7145500000000000    0.2710700000000000 N
   0.3771900000000000    0.0924800000000000    0.6518800000000000 N
   0.4443500000000000    0.7304900000000000    0.3506600000000000 N
   0.6211700000000000    0.2718900000000000    0.7155800000000000 N
   0.5609900000000000    0.9089200000000000    0.2847100000000000 N
   0.7294900000000000    0.3514600000000000    0.4453400000000000 N
   0.0930500000000000    0.6507200000000000    0.3774600000000000 N
   0.9076800000000000    0.2844600000000000    0.5604100000000000 N
   0.2707800000000000    0.7143400000000000    0.6211600000000000 N
   0.2843900000000000    0.5598200000000000    0.9080000000000000 N
   0.7149799999999999    0.6220100000000000    0.2722400000000000 N
   0.3489000000000000    0.4422300000000000    0.7283300000000000 N
