H2 C6 S1 O4
1.0
  36.2676803755508885    0.0000000000000000   -0.4101952911490870
  -0.0016478529453706   28.0819955718676795   -0.0156839467220587
   0.0000000000000000    0.0000000000000000   31.2669999999999995
H C S O
2 6 1 4
direct
   0.9745799999999999    0.6504099999999999    0.8395100000000000 H
   0.9705183333333333    0.5916700000000000    0.9044650000000001 H
   0.0380833333333333    0.5662500000000000    0.9485300000000000 C
   0.0300400000000000    0.5983100000000000    0.9123350000000000 C
   0.0340100000000000    0.6550700000000000    0.8518749999999999 C
   0.0479400000000000    0.6886650000000000    0.8191800000000000 C
   0.9960283333333333    0.6073900000000000    0.8932850000000000 C
   0.9982733333333332    0.6393200000000000    0.8586849999999999 C
   0.0647050000000000    0.6300749999999999    0.8880300000000000 S
   0.0714783333333333    0.5580200000000000    0.9592800000000000 O
   0.0107016666666667    0.5479550000000000    0.9684400000000000 O
   0.0823916666666667    0.6973600000000000    0.8197850000000000 O
   0.0245600000000000    0.7064500000000000    0.7926200000000000 O
