H4 C8 O4
1.0
  32.6337766086899066    0.0000000000000000   -0.1207487230729446
  -0.2697091076911886   36.1308029629879215   -0.1172955539305106
   0.0000000000000000    0.0000000000000000   36.1340000000000003
H C O
4 8 4
direct
   0.7852833333333333    0.8032400000000000    0.7852200000000000 H
   0.7807566666666667    0.8722350000000000    0.7872450000000000 H
   0.8145866666666666    0.9072750000000001    0.8379850000000000 H
   0.8572566666666666    0.8051400000000000    0.8850250000000000 H
   0.8231400000000000    0.7587300000000000    0.8351500000000001 C
   0.8640966666666666    0.8786650000000000    0.8929650000000000 C
   0.8206466666666666    0.7999600000000000    0.8355399999999999 C
   0.7997533333333333    0.8189700000000000    0.8075200000000000 C
   0.7976200000000000    0.8574900000000000    0.8086150000000000 C
   0.8171800000000000    0.8772800000000001    0.8368750000000000 C
   0.8394733333333333    0.8585350000000000    0.8642550000000000 C
   0.8404066666666666    0.8198550000000000    0.8637049999999999 C
   0.8054733333333333    0.7407450000000000    0.8092550000000001 O
   0.8438933333333333    0.7428100000000000    0.8606849999999999 O
   0.8713066666666667    0.9135650000000000    0.8878250000000000 O
   0.8781766666666666    0.8611000000000000    0.9203550000000000 O
