H4 C7 O2
1.0
  32.6337766086899066    0.0000000000000000   -0.1207487230729446
  -0.2697091076911886   36.1308029629879215   -0.1172955539305106
   0.0000000000000000    0.0000000000000000   36.1340000000000003
H C O
4 7 2
direct
   0.2992466666666667    0.5553750000000000    0.4634300000000000 H
   0.3042100000000000    0.6243650000000001    0.4608750000000000 H
   0.2704933333333333    0.6584150000000000    0.4099350000000000 H
   0.2269566666666666    0.5553150000000000    0.3637700000000000 H
   0.2205266666666666    0.6287199999999999    0.3554150000000000 C
   0.2637533333333333    0.5511100000000000    0.4131850000000000 C
   0.2848400000000000    0.5706650000000000    0.4410250000000000 C
   0.2872266666666666    0.6091800000000001    0.4396350000000000 C
   0.2677233333333333    0.6284149999999999    0.4112700000000000 C
   0.2452133333333333    0.6091150000000000    0.3840800000000000 C
   0.2440066666666666    0.5704450000000000    0.3849250000000000 C
   0.2132733333333333    0.6635350000000000    0.3607250000000000 O
   0.2063900000000000    0.6108950000000000    0.3279900000000000 O
