H2 O2
1.0
  14.0389992280874321    0.0000000000000000    0.0046555086147381
   0.0034386009284066   14.0679991597912259   -0.0034374608341818
   0.0000000000000000    0.0000000000000000   29.5820000000000007
H O
2 2
direct
   0.4127141299673488    0.1857877966004247    0.1938587047077963 H
   0.3138265060662316    0.0873797735340343    0.1939931738190132 H
   0.3571300000000000    0.2119700000000000    0.1782650000000000 O
   0.2877200000000000    0.1429000000000000    0.1783900000000000 O
