Ga96 P95 H3 O382
1.0
  25.8101481327093758    0.0000000000000000    8.4879416449218628
 -12.8640325230685537   23.7683280994808293   10.2199061933495372
   0.0000000000000000    0.0000000000000000   28.9020000000000010
Ga P H O
96 95 3 382
direct
   0.2390200000000000    0.8114250000000001    0.7732950000000001 Ga
   0.2609750000000000    0.6885900000000000    0.7267049999999999 Ga
   0.2390200000000000    0.3114250000000000    0.2732950000000000 Ga
   0.2609750000000000    0.1885900000000000    0.2267050000000000 Ga
   0.4876000000000000    0.7268000000000000    0.0847500000000000 Ga
   0.5123950000000000    0.7732200000000000    0.9152500000000000 Ga
   0.5723750000000000    0.0846200000000000    0.6885900000000000 Ga
   0.4276200000000000    0.9153950000000000    0.8114000000000000 Ga
   0.4876000000000000    0.2268000000000000    0.5847500000000000 Ga
   0.5123950000000000    0.2732200000000000    0.4152500000000000 Ga
   0.5723750000000000    0.5846200000000000    0.1885900000000000 Ga
   0.4276200000000000    0.4153950000000000    0.3114000000000000 Ga
   0.7390200000000000    0.3114250000000000    0.7732950000000001 Ga
   0.7609750000000000    0.1885900000000000    0.7267049999999999 Ga
   0.7390200000000000    0.8114250000000001    0.2732950000000000 Ga
   0.7609750000000000    0.6885900000000000    0.2267050000000000 Ga
   0.9876000000000000    0.2268000000000000    0.0847500000000000 Ga
   0.0123950000000000    0.2732200000000000    0.9152500000000000 Ga
   0.0723750000000000    0.5846200000000000    0.6885900000000000 Ga
   0.9276200000000000    0.4153950000000000    0.8114000000000000 Ga
   0.9876000000000000    0.7268000000000000    0.5847500000000000 Ga
   0.0123950000000000    0.7732200000000000    0.4152500000000000 Ga
   0.0723750000000000    0.0846200000000000    0.1885900000000000 Ga
   0.9276200000000000    0.9153950000000000    0.3114000000000000 Ga
   0.7390200000000000    0.8114250000000001    0.7732950000000001 Ga
   0.7609750000000000    0.6885900000000000    0.7267049999999999 Ga
   0.7609750000000000    0.1885900000000000    0.2267050000000000 Ga
   0.7390200000000000    0.3114250000000000    0.2732950000000000 Ga
   0.9876000000000000    0.7268000000000000    0.0847500000000000 Ga
   0.0123950000000000    0.7732200000000000    0.9152500000000000 Ga
   0.0723750000000000    0.0846200000000000    0.6885900000000000 Ga
   0.9276200000000000    0.9153950000000000    0.8114000000000000 Ga
   0.9876000000000000    0.2268000000000000    0.5847500000000000 Ga
   0.0123950000000000    0.2732200000000000    0.4152500000000000 Ga
   0.0723750000000000    0.5846200000000000    0.1885900000000000 Ga
   0.9276200000000000    0.4153950000000000    0.3114000000000000 Ga
   0.2390200000000000    0.8114250000000001    0.2732950000000000 Ga
   0.2609750000000000    0.6885900000000000    0.2267050000000000 Ga
   0.2390200000000000    0.3114250000000000    0.7732950000000001 Ga
   0.2609750000000000    0.1885900000000000    0.7267049999999999 Ga
   0.4876000000000000    0.2268000000000000    0.0847500000000000 Ga
   0.5123950000000000    0.2732200000000000    0.9152500000000000 Ga
   0.5723750000000000    0.5846200000000000    0.6885900000000000 Ga
   0.4276200000000000    0.4153950000000000    0.8114000000000000 Ga
   0.4876000000000000    0.7268000000000000    0.5847500000000000 Ga
   0.5123950000000000    0.7732200000000000    0.4152500000000000 Ga
   0.5723750000000000    0.0846200000000000    0.1885900000000000 Ga
   0.4276200000000000    0.9153950000000000    0.3114000000000000 Ga
   0.1600500000000000    0.7939200000000000    0.4334700000000000 Ga
   0.6600500000000000    0.2939200000000000    0.9334700000000000 Ga
   0.6600500000000000    0.7939200000000000    0.4334700000000000 Ga
   0.1600500000000000    0.2939200000000000    0.9334700000000000 Ga
   0.6600500000000000    0.2939200000000000    0.4334700000000000 Ga
   0.1600500000000000    0.7939200000000000    0.9334700000000000 Ga
   0.6600500000000000    0.7939200000000000    0.9334700000000000 Ga
   0.1600500000000000    0.2939200000000000    0.4334700000000000 Ga
   0.3399500000000000    0.2060950000000000    0.0665300000000000 Ga
   0.8399500000000000    0.2060950000000000    0.0665300000000000 Ga
   0.8399500000000000    0.7060950000000000    0.0665300000000000 Ga
   0.3399500000000000    0.2060950000000000    0.5665300000000000 Ga
   0.8399500000000000    0.2060950000000000    0.5665300000000000 Ga
   0.3399500000000000    0.7060950000000000    0.5665300000000000 Ga
   0.3399500000000000    0.7060950000000000    0.0665300000000000 Ga
   0.8399500000000000    0.7060950000000000    0.5665300000000000 Ga
   0.0933300000000000    0.4335500000000000    0.7726100000000000 Ga
   0.5933300000000000    0.4335500000000000    0.7726100000000000 Ga
   0.5933300000000000    0.9335500000000000    0.2726100000000000 Ga
   0.0933300000000000    0.9335500000000000    0.2726100000000000 Ga
   0.0933300000000000    0.4335500000000000    0.2726100000000000 Ga
   0.5933300000000000    0.4335500000000000    0.2726100000000000 Ga
   0.0933300000000000    0.9335500000000000    0.7726100000000000 Ga
   0.5933300000000000    0.9335500000000000    0.7726100000000000 Ga
   0.4066700000000000    0.5664650000000000    0.7273900000000000 Ga
   0.9066700000000000    0.0664650000000000    0.2273900000000000 Ga
   0.9066700000000000    0.5664650000000000    0.7273900000000000 Ga
   0.4066700000000000    0.0664650000000000    0.2273900000000000 Ga
   0.9066700000000000    0.5664650000000000    0.2273900000000000 Ga
   0.4066700000000000    0.0664650000000000    0.7273900000000000 Ga
   0.9066700000000000    0.0664650000000000    0.7273900000000000 Ga
   0.4066700000000000    0.5664650000000000    0.2273900000000000 Ga
   0.3661600000000000    0.2725950000000000    0.7940150000000000 Ga
   0.3661600000000000    0.2725950000000000    0.2940150000000000 Ga
   0.8661600000000000    0.2725950000000000    0.7940150000000000 Ga
   0.8661600000000000    0.2725950000000000    0.2940150000000000 Ga
   0.3661600000000000    0.7725949999999999    0.7940150000000000 Ga
   0.3661600000000000    0.7725949999999999    0.2940150000000000 Ga
   0.8661600000000000    0.7725949999999999    0.2940150000000000 Ga
   0.8661600000000000    0.7725949999999999    0.7940150000000000 Ga
   0.1338400000000000    0.7274200000000000    0.2059850000000000 Ga
   0.6338400000000000    0.7274200000000000    0.7059850000000000 Ga
   0.6338400000000000    0.2274200000000000    0.7059850000000000 Ga
   0.1338400000000000    0.2274200000000000    0.2059850000000000 Ga
   0.1338400000000000    0.2274200000000000    0.7059850000000000 Ga
   0.1338400000000000    0.7274200000000000    0.7059850000000000 Ga
   0.6338400000000000    0.7274200000000000    0.2059850000000000 Ga
   0.6338400000000000    0.2274200000000000    0.2059850000000000 Ga
   0.1989300000000000    0.6663800000000000    0.6565200000000000 P
   0.3010700000000000    0.8336399999999999    0.8434850000000000 P
   0.2691900000000000    0.8019950000000000    0.6711400000000000 P
   0.2308050000000000    0.6980200000000000    0.8288599999999999 P
   0.1989300000000000    0.1663800000000000    0.1565200000000000 P
   0.3010700000000000    0.3336400000000000    0.3434850000000000 P
   0.2691900000000000    0.3019950000000000    0.1711400000000000 P
   0.2308050000000000    0.1980200000000000    0.3288600000000000 P
   0.6444250000000000    0.8433800000000000    0.8229750000000000 P
   0.3555750000000000    0.6566350000000000    0.1770250000000000 P
   0.5594350000000000    0.8288550000000000    0.9730000000000000 P
   0.4405600000000000    0.6711650000000000    0.0270000000000000 P
   0.4674650000000000    0.8229649999999999    0.8335000000000000 P
   0.5325350000000000    0.1770500000000000    0.6664800000000000 P
   0.5323500000000000    0.9731950000000000    0.6979450000000000 P
   0.4676500000000000    0.0268200000000000    0.8020550000000000 P
   0.6444250000000000    0.3433800000000000    0.3229750000000000 P
   0.3555750000000000    0.1566350000000000    0.6770250000000000 P
   0.5594350000000000    0.3288550000000000    0.4730000000000000 P
   0.4405600000000000    0.1711650000000000    0.5270000000000000 P
   0.4674650000000000    0.3229650000000000    0.3335000000000000 P
   0.5325350000000000    0.6770500000000000    0.1664800000000000 P
   0.5323500000000000    0.4731950000000000    0.1979450000000000 P
   0.4676500000000000    0.5268200000000000    0.3020550000000000 P
   0.6989300000000001    0.1663800000000000    0.6565200000000000 P
   0.8010699999999999    0.3336400000000000    0.8434850000000000 P
   0.7691900000000000    0.3019950000000000    0.6711400000000000 P
   0.7308050000000000    0.1980200000000000    0.8288599999999999 P
   0.6989300000000001    0.6663800000000000    0.1565200000000000 P
   0.8010699999999999    0.8336399999999999    0.3434850000000000 P
   0.7691900000000000    0.8019950000000000    0.1711400000000000 P
   0.7308050000000000    0.6980200000000000    0.3288600000000000 P
   0.1444250000000000    0.3433800000000000    0.8229750000000000 P
   0.8555750000000000    0.1566350000000000    0.1770250000000000 P
   0.0594350000000000    0.3288550000000000    0.9730000000000000 P
   0.9405600000000001    0.1711650000000000    0.0270000000000000 P
   0.9674650000000000    0.3229650000000000    0.8335000000000000 P
   0.0325350000000000    0.6770500000000000    0.6664800000000000 P
   0.0323500000000000    0.4731950000000000    0.6979450000000000 P
   0.9676500000000000    0.5268200000000000    0.8020550000000000 P
   0.1444250000000000    0.8433800000000000    0.3229750000000000 P
   0.8555750000000000    0.6566350000000000    0.6770250000000000 P
   0.0594350000000000    0.8288550000000000    0.4730000000000000 P
   0.9405600000000001    0.6711650000000000    0.5270000000000000 P
   0.9674650000000000    0.8229649999999999    0.3335000000000000 P
   0.0325350000000000    0.1770500000000000    0.1664800000000000 P
   0.0323500000000000    0.9731950000000000    0.1979450000000000 P
   0.9676500000000000    0.0268200000000000    0.3020550000000000 P
   0.6989300000000001    0.6663800000000000    0.6565200000000000 P
   0.8010699999999999    0.8336399999999999    0.8434850000000000 P
   0.7691900000000000    0.8019950000000000    0.6711400000000000 P
   0.7308050000000000    0.6980200000000000    0.8288599999999999 P
   0.6989300000000001    0.1663800000000000    0.1565200000000000 P
   0.8010699999999999    0.3336400000000000    0.3434850000000000 P
   0.7308050000000000    0.1980200000000000    0.3288600000000000 P
   0.1444250000000000    0.8433800000000000    0.8229750000000000 P
   0.8555750000000000    0.6566350000000000    0.1770250000000000 P
   0.0594350000000000    0.8288550000000000    0.9730000000000000 P
   0.9405600000000001    0.6711650000000000    0.0270000000000000 P
   0.9674650000000000    0.8229649999999999    0.8335000000000000 P
   0.0325350000000000    0.1770500000000000    0.6664800000000000 P
   0.0323500000000000    0.9731950000000000    0.6979450000000000 P
   0.9676500000000000    0.0268200000000000    0.8020550000000000 P
   0.1444250000000000    0.3433800000000000    0.3229750000000000 P
   0.8555750000000000    0.1566350000000000    0.6770250000000000 P
   0.0594350000000000    0.3288550000000000    0.4730000000000000 P
   0.9405600000000001    0.1711650000000000    0.5270000000000000 P
   0.9674650000000000    0.3229650000000000    0.3335000000000000 P
   0.0325350000000000    0.6770500000000000    0.1664800000000000 P
   0.0323500000000000    0.4731950000000000    0.1979450000000000 P
   0.9676500000000000    0.5268200000000000    0.3020550000000000 P
   0.1989300000000000    0.6663800000000000    0.1565200000000000 P
   0.3010700000000000    0.8336399999999999    0.3434850000000000 P
   0.2691900000000000    0.8019950000000000    0.1711400000000000 P
   0.2308050000000000    0.6980200000000000    0.3288600000000000 P
   0.1989300000000000    0.1663800000000000    0.6565200000000000 P
   0.3010700000000000    0.3336400000000000    0.8434850000000000 P
   0.2691900000000000    0.3019950000000000    0.6711400000000000 P
   0.2308050000000000    0.1980200000000000    0.8288599999999999 P
   0.6444250000000000    0.3433800000000000    0.8229750000000000 P
   0.3555750000000000    0.1566350000000000    0.1770250000000000 P
   0.5594350000000000    0.3288550000000000    0.9730000000000000 P
   0.4405600000000000    0.1711650000000000    0.0270000000000000 P
   0.4674650000000000    0.3229650000000000    0.8335000000000000 P
   0.5325350000000000    0.6770500000000000    0.6664800000000000 P
   0.5323500000000000    0.4731950000000000    0.6979450000000000 P
   0.4676500000000000    0.5268200000000000    0.8020550000000000 P
   0.6444250000000000    0.8433800000000000    0.3229750000000000 P
   0.3555750000000000    0.6566350000000000    0.6770250000000000 P
   0.5594350000000000    0.8288550000000000    0.4730000000000000 P
   0.4405600000000000    0.6711650000000000    0.5270000000000000 P
   0.4674650000000000    0.8229649999999999    0.3335000000000000 P
   0.5325350000000000    0.1770500000000000    0.1664800000000000 P
   0.5323500000000000    0.9731950000000000    0.1979450000000000 P
   0.4676500000000000    0.0268200000000000    0.3020550000000000 P
   0.6962786375714647    0.2886599848533726    0.2207626444751608 H
   0.8451425630514012    0.2848575630571755    0.1518539727675844 H
   0.7934707949371427    0.3015896049745641    0.1765172539520749 H
   0.7034199999999999    0.2593550000000000    0.2160500000000000 O
   0.2558550000000000    0.6951250000000000    0.6017000000000000 O
   0.1707900000000000    0.7054000000000000    0.6543850000000000 O
   0.2074250000000000    0.6465850000000000    0.7101300000000000 O
   0.1539100000000000    0.6100800000000000    0.6641800000000000 O
   0.2441400000000000    0.8048900000000000    0.8982850000000000 O
   0.3292050000000000    0.7946150000000001    0.8456000000000000 O
   0.2925700000000000    0.8534300000000000    0.7898499999999999 O
   0.3460850000000000    0.8899349999999999    0.8358200000000000 O
   0.2808950000000000    0.8385050000000001    0.6129150000000000 O
   0.2034200000000000    0.7593550000000000    0.7160500000000000 O
   0.2913950000000000    0.8372450000000000    0.6989350000000000 O
   0.3024300000000000    0.7648250000000000    0.6706050000000000 O
   0.2191050000000000    0.6615100000000000    0.8870899999999999 O
   0.2965750000000000    0.7406600000000000    0.7839499999999999 O
   0.2086050000000000    0.6627700000000000    0.8010699999999999 O
   0.1975650000000000    0.7351900000000000    0.8293950000000000 O
   0.2558550000000000    0.1951250000000000    0.1017000000000000 O
   0.1707900000000000    0.2054000000000000    0.1543850000000000 O
   0.2074250000000000    0.1465850000000000    0.2101300000000000 O
   0.1539100000000000    0.1100800000000000    0.1641800000000000 O
   0.2441400000000000    0.3048900000000000    0.3982850000000000 O
   0.3292050000000000    0.2946150000000000    0.3456000000000000 O
   0.2925700000000000    0.3534300000000000    0.2898500000000000 O
   0.3460850000000000    0.3899350000000000    0.3358200000000000 O
   0.2808950000000000    0.3385050000000000    0.1129150000000000 O
   0.2034200000000000    0.2593550000000000    0.2160500000000000 O
   0.2913950000000000    0.3372450000000000    0.1989350000000000 O
   0.3024300000000000    0.2648250000000000    0.1706050000000000 O
   0.2191050000000000    0.1615100000000000    0.3870900000000000 O
   0.2965750000000000    0.2406600000000000    0.2839500000000000 O
   0.2086050000000000    0.1627700000000000    0.3010700000000000 O
   0.1975650000000000    0.2351900000000000    0.3293950000000000 O
   0.6420200000000000    0.8981500000000000    0.7970400000000000 O
   0.6747799999999999    0.8455450000000000    0.8597800000000000 O
   0.5825250000000000    0.7897050000000000    0.8568350000000000 O
   0.6818050000000000    0.8358200000000000    0.7742899999999999 O
   0.3579800000000000    0.6018700000000000    0.2029650000000000 O
   0.3252200000000000    0.6544700000000000    0.1402250000000000 O
   0.4174750000000000    0.7103100000000000    0.1431650000000000 O
   0.3181900000000000    0.6641950000000000    0.2257100000000000 O
   0.6058200000000000    0.8870950000000000    0.9512300000000000 O
   0.5804150000000000    0.7839050000000001    0.9753100000000000 O
   0.5095450000000000    0.8011650000000000    0.0359950000000000 O
   0.5267350000000000    0.8293699999999999    0.9353050000000001 O
   0.3941800000000000    0.6129200000000000    0.0487700000000000 O
   0.4195800000000000    0.7161100000000000    0.0246900000000000 O
   0.4904500000000000    0.6988550000000000    0.9640050000000000 O
   0.4732600000000000    0.6706449999999999    0.0647000000000000 O
   0.4393550000000000    0.7970600000000000    0.8045900000000000 O
   0.5344900000000000    0.8599300000000001    0.7945800000000001 O
   0.4391250000000000    0.8566549999999999    0.8534150000000000 O
   0.4562900000000000    0.7741800000000000    0.8897200000000001 O
   0.5606400000000000    0.2029550000000000    0.6954100000000000 O
   0.4655050000000000    0.1400900000000000    0.7054199999999999 O
   0.5608700000000000    0.1433600000000000    0.6465850000000000 O
   0.5437050000000000    0.2258350000000000    0.6102850000000000 O
   0.5569550000000000    0.9514100000000000    0.6614800000000001 O
   0.5557900000000000    0.9756650000000000    0.7404450000000000 O
   0.5453550000000000    0.0362700000000000    0.6626650000000001 O
   0.4620950000000000    0.9355000000000000    0.7351900000000000 O
   0.4430400000000000    0.0486050000000000    0.8385199999999999 O
   0.4442050000000000    0.0243500000000000    0.7595600000000000 O
   0.4546450000000000    0.9637450000000001    0.8373349999999999 O
   0.5379050000000000    0.0645200000000000    0.7648100000000000 O
   0.6420200000000000    0.3981500000000000    0.2970400000000000 O
   0.6747799999999999    0.3455450000000000    0.3597800000000000 O
   0.5825250000000000    0.2897050000000000    0.3568350000000000 O
   0.6818050000000000    0.3358200000000000    0.2742900000000000 O
   0.3579800000000000    0.1018700000000000    0.7029650000000001 O
   0.3252200000000000    0.1544700000000000    0.6402250000000000 O
   0.4174750000000000    0.2103100000000000    0.6431650000000000 O
   0.3181900000000000    0.1641950000000000    0.7257100000000000 O
   0.6058200000000000    0.3870950000000000    0.4512300000000000 O
   0.5804150000000000    0.2839050000000000    0.4753100000000000 O
   0.5095450000000000    0.3011650000000000    0.5359950000000000 O
   0.5267350000000000    0.3293700000000000    0.4353050000000000 O
   0.3941800000000000    0.1129200000000000    0.5487700000000000 O
   0.4195800000000000    0.2161100000000000    0.5246900000000000 O
   0.4904500000000000    0.1988550000000000    0.4640050000000000 O
   0.4732600000000000    0.1706450000000000    0.5647000000000000 O
   0.4393550000000000    0.2970600000000000    0.3045900000000000 O
   0.5344900000000000    0.3599300000000000    0.2945800000000000 O
   0.4391250000000000    0.3566550000000000    0.3534150000000000 O
   0.4562900000000000    0.2741800000000000    0.3897200000000000 O
   0.5606400000000000    0.7029550000000000    0.1954100000000000 O
   0.4655050000000000    0.6400900000000000    0.2054200000000000 O
   0.5608700000000000    0.6433599999999999    0.1465850000000000 O
   0.5437050000000000    0.7258350000000000    0.1102850000000000 O
   0.5569550000000000    0.4514100000000000    0.1614800000000000 O
   0.5557900000000000    0.4756650000000000    0.2404450000000000 O
   0.5453550000000000    0.5362700000000000    0.1626650000000000 O
   0.4620950000000000    0.4355000000000000    0.2351900000000000 O
   0.4430400000000000    0.5486050000000000    0.3385200000000000 O
   0.4442050000000000    0.5243500000000000    0.2595600000000000 O
   0.4546450000000000    0.4637450000000000    0.3373350000000000 O
   0.5379050000000000    0.5645200000000000    0.2648100000000000 O
   0.7558549999999999    0.1951250000000000    0.6017000000000000 O
   0.6707900000000000    0.2054000000000000    0.6543850000000000 O
   0.7074250000000000    0.1465850000000000    0.7101300000000000 O
   0.6539100000000000    0.1100800000000000    0.6641800000000000 O
   0.7441400000000000    0.3048900000000000    0.8982850000000000 O
   0.8292050000000000    0.2946150000000000    0.8456000000000000 O
   0.7925700000000000    0.3534300000000000    0.7898499999999999 O
   0.8460850000000000    0.3899350000000000    0.8358200000000000 O
   0.7808950000000000    0.3385050000000000    0.6129150000000000 O
   0.7034199999999999    0.2593550000000000    0.7160500000000000 O
   0.7913950000000001    0.3372450000000000    0.6989350000000000 O
   0.8024300000000000    0.2648250000000000    0.6706050000000000 O
   0.7191050000000000    0.1615100000000000    0.8870899999999999 O
   0.7965750000000000    0.2406600000000000    0.7839499999999999 O
   0.7086050000000000    0.1627700000000000    0.8010699999999999 O
   0.6975650000000000    0.2351900000000000    0.8293950000000000 O
   0.7558549999999999    0.6951250000000000    0.1017000000000000 O
   0.6707900000000000    0.7054000000000000    0.1543850000000000 O
   0.7074250000000000    0.6465850000000000    0.2101300000000000 O
   0.6539100000000000    0.6100800000000000    0.1641800000000000 O
   0.7441400000000000    0.8048900000000000    0.3982850000000000 O
   0.8292050000000000    0.7946150000000001    0.3456000000000000 O
   0.7925700000000000    0.8534300000000000    0.2898500000000000 O
   0.8460850000000000    0.8899349999999999    0.3358200000000000 O
   0.7808950000000000    0.8385050000000001    0.1129150000000000 O
   0.7034199999999999    0.7593550000000000    0.2160500000000000 O
   0.7913950000000001    0.8372450000000000    0.1989350000000000 O
   0.8024300000000000    0.7648250000000000    0.1706050000000000 O
   0.7191050000000000    0.6615100000000000    0.3870900000000000 O
   0.7965750000000000    0.7406600000000000    0.2839500000000000 O
   0.7086050000000000    0.6627700000000000    0.3010700000000000 O
   0.6975650000000000    0.7351900000000000    0.3293950000000000 O
   0.1420200000000000    0.3981500000000000    0.7970400000000000 O
   0.1747800000000000    0.3455450000000000    0.8597800000000000 O
   0.0825250000000000    0.2897050000000000    0.8568350000000000 O
   0.1818050000000000    0.3358200000000000    0.7742899999999999 O
   0.8579800000000000    0.1018700000000000    0.2029650000000000 O
   0.8252200000000001    0.1544700000000000    0.1402250000000000 O
   0.9174750000000000    0.2103100000000000    0.1431650000000000 O
   0.8181900000000000    0.1641950000000000    0.2257100000000000 O
   0.1058200000000000    0.3870950000000000    0.9512300000000000 O
   0.0804150000000000    0.2839050000000000    0.9753100000000000 O
   0.0095450000000000    0.3011650000000000    0.0359950000000000 O
   0.0267350000000000    0.3293700000000000    0.9353050000000001 O
   0.8941800000000000    0.1129200000000000    0.0487700000000000 O
   0.9195800000000001    0.2161100000000000    0.0246900000000000 O
   0.9904500000000001    0.1988550000000000    0.9640050000000000 O
   0.9732600000000000    0.1706450000000000    0.0647000000000000 O
   0.9393549999999999    0.2970600000000000    0.8045900000000000 O
   0.0344900000000000    0.3599300000000000    0.7945800000000001 O
   0.9391250000000000    0.3566550000000000    0.8534150000000000 O
   0.9562900000000000    0.2741800000000000    0.8897200000000001 O
   0.0606400000000000    0.7029550000000000    0.6954100000000000 O
   0.9655050000000001    0.6400900000000000    0.7054199999999999 O
   0.0608700000000000    0.6433599999999999    0.6465850000000000 O
   0.0437050000000000    0.7258350000000000    0.6102850000000000 O
   0.0569550000000000    0.4514100000000000    0.6614800000000001 O
   0.0557900000000000    0.4756650000000000    0.7404450000000000 O
   0.0453550000000000    0.5362700000000000    0.6626650000000001 O
   0.9620949999999999    0.4355000000000000    0.7351900000000000 O
   0.9430400000000000    0.5486050000000000    0.8385199999999999 O
   0.9442050000000000    0.5243500000000000    0.7595600000000000 O
   0.9546450000000000    0.4637450000000000    0.8373349999999999 O
   0.0379050000000000    0.5645200000000000    0.7648100000000000 O
   0.1420200000000000    0.8981500000000000    0.2970400000000000 O
   0.1747800000000000    0.8455450000000000    0.3597800000000000 O
   0.0825250000000000    0.7897050000000000    0.3568350000000000 O
   0.1818050000000000    0.8358200000000000    0.2742900000000000 O
   0.8579800000000000    0.6018700000000000    0.7029650000000001 O
   0.8252200000000001    0.6544700000000000    0.6402250000000000 O
   0.9174750000000000    0.7103100000000000    0.6431650000000000 O
   0.8181900000000000    0.6641950000000000    0.7257100000000000 O
   0.1058200000000000    0.8870950000000000    0.4512300000000000 O
   0.0804150000000000    0.7839050000000001    0.4753100000000000 O
   0.0095450000000000    0.8011650000000000    0.5359950000000000 O
   0.0267350000000000    0.8293699999999999    0.4353050000000000 O
   0.8941800000000000    0.6129200000000000    0.5487700000000000 O
   0.9195800000000001    0.7161100000000000    0.5246900000000000 O
   0.9904500000000001    0.6988550000000000    0.4640050000000000 O
   0.9732600000000000    0.6706449999999999    0.5647000000000000 O
   0.9393549999999999    0.7970600000000000    0.3045900000000000 O
   0.0344900000000000    0.8599300000000001    0.2945800000000000 O
   0.9391250000000000    0.8566549999999999    0.3534150000000000 O
   0.9562900000000000    0.7741800000000000    0.3897200000000000 O
   0.0606400000000000    0.2029550000000000    0.1954100000000000 O
   0.9655050000000001    0.1400900000000000    0.2054200000000000 O
   0.0608700000000000    0.1433600000000000    0.1465850000000000 O
   0.0437050000000000    0.2258350000000000    0.1102850000000000 O
   0.0569550000000000    0.9514100000000000    0.1614800000000000 O
   0.0557900000000000    0.9756650000000000    0.2404450000000000 O
   0.0453550000000000    0.0362700000000000    0.1626650000000000 O
   0.9620949999999999    0.9355000000000000    0.2351900000000000 O
   0.9430400000000000    0.0486050000000000    0.3385200000000000 O
   0.9442050000000000    0.0243500000000000    0.2595600000000000 O
   0.9546450000000000    0.9637450000000001    0.3373350000000000 O
   0.0379050000000000    0.0645200000000000    0.2648100000000000 O
   0.7558549999999999    0.6951250000000000    0.6017000000000000 O
   0.6707900000000000    0.7054000000000000    0.6543850000000000 O
   0.7074250000000000    0.6465850000000000    0.7101300000000000 O
   0.6539100000000000    0.6100800000000000    0.6641800000000000 O
   0.7441400000000000    0.8048900000000000    0.8982850000000000 O
   0.8292050000000000    0.7946150000000001    0.8456000000000000 O
   0.7925700000000000    0.8534300000000000    0.7898499999999999 O
   0.8460850000000000    0.8899349999999999    0.8358200000000000 O
   0.7808950000000000    0.8385050000000001    0.6129150000000000 O
   0.7034199999999999    0.7593550000000000    0.7160500000000000 O
   0.7913950000000001    0.8372450000000000    0.6989350000000000 O
   0.8024300000000000    0.7648250000000000    0.6706050000000000 O
   0.7191050000000000    0.6615100000000000    0.8870899999999999 O
   0.7965750000000000    0.7406600000000000    0.7839499999999999 O
   0.7086050000000000    0.6627700000000000    0.8010699999999999 O
   0.6975650000000000    0.7351900000000000    0.8293950000000000 O
   0.7558549999999999    0.1951250000000000    0.1017000000000000 O
   0.6707900000000000    0.2054000000000000    0.1543850000000000 O
   0.7074250000000000    0.1465850000000000    0.2101300000000000 O
   0.6539100000000000    0.1100800000000000    0.1641800000000000 O
   0.7441400000000000    0.3048900000000000    0.3982850000000000 O
   0.8292050000000000    0.2946150000000000    0.3456000000000000 O
   0.7925700000000000    0.3534300000000000    0.2898500000000000 O
   0.8460850000000000    0.3899350000000000    0.3358200000000000 O
   0.8024300000000000    0.2648250000000000    0.1706050000000000 O
   0.7191050000000000    0.1615100000000000    0.3870900000000000 O
   0.7965750000000000    0.2406600000000000    0.2839500000000000 O
   0.7086050000000000    0.1627700000000000    0.3010700000000000 O
   0.6975650000000000    0.2351900000000000    0.3293950000000000 O
   0.1420200000000000    0.8981500000000000    0.7970400000000000 O
   0.1747800000000000    0.8455450000000000    0.8597800000000000 O
   0.0825250000000000    0.7897050000000000    0.8568350000000000 O
   0.1818050000000000    0.8358200000000000    0.7742899999999999 O
   0.8579800000000000    0.6018700000000000    0.2029650000000000 O
   0.8252200000000001    0.6544700000000000    0.1402250000000000 O
   0.9174750000000000    0.7103100000000000    0.1431650000000000 O
   0.8181900000000000    0.6641950000000000    0.2257100000000000 O
   0.1058200000000000    0.8870950000000000    0.9512300000000000 O
   0.0804150000000000    0.7839050000000001    0.9753100000000000 O
   0.0095450000000000    0.8011650000000000    0.0359950000000000 O
   0.0267350000000000    0.8293699999999999    0.9353050000000001 O
   0.8941800000000000    0.6129200000000000    0.0487700000000000 O
   0.9195800000000001    0.7161100000000000    0.0246900000000000 O
   0.9904500000000001    0.6988550000000000    0.9640050000000000 O
   0.9732600000000000    0.6706449999999999    0.0647000000000000 O
   0.9393549999999999    0.7970600000000000    0.8045900000000000 O
   0.0344900000000000    0.8599300000000001    0.7945800000000001 O
   0.9391250000000000    0.8566549999999999    0.8534150000000000 O
   0.9562900000000000    0.7741800000000000    0.8897200000000001 O