H20 C20 N6
1.0
  32.1439940026315014    0.0000000000000000   -0.0196356509954392
   0.0384607703282853   18.8627208343520465   -0.0951445975710272
   0.0000000000000000    0.0000000000000000   36.7580000000000027
H C N
20 20 6
direct
   0.4922200000000000    0.5392700000000000    0.1659000000000000 H
   0.4622750000000000    0.4393600000000000    0.1282050000000000 H
   0.5846900000000000    0.3062800000000000    0.2418250000000000 H
   0.5887100000000000    0.2133300000000000    0.2384950000000000 H
   0.6494000000000000    0.2324200000000000    0.1928150000000000 H
   0.6341100000000000    0.3216800000000000    0.1903900000000000 H
   0.6293250000000000    0.1483500000000000    0.3402300000000000 H
   0.5994100000000000    0.2362400000000000    0.3066350000000000 H
   0.6159000000000000    0.3248800000000000    0.3082450000000000 H
   0.5882950000000000    0.3934900000000000    0.2001300000000000 H
   0.6651800000000000    0.3041400000000000    0.2569750000000000 H
   0.6594250000000000    0.2117000000000000    0.2609850000000000 H
   0.5482700000000000    0.1315000000000000    0.1146050000000000 H
   0.6629550000000000    0.3939300000000000    0.2971000000000000 H
   0.6189050000000000    0.1445000000000000    0.1596850000000000 H
   0.6955050000000000    0.5125800000000000    0.2936250000000000 H
   0.5564550000000000    0.5130200000000000    0.2033000000000000 H
   0.6996550000000000    0.1355200000000000    0.3856650000000000 H
   0.7870250000000000    0.4408900000000000    0.3714850000000000 H
   0.7587200000000001    0.5394800000000000    0.3320000000000000 H
   0.4896700000000000    0.4320300000000000    0.1452800000000000 C
   0.6919000000000000    0.2829300000000000    0.3425300000000000 C
   0.6065900000000000    0.2627300000000000    0.2358300000000000 C
   0.6228899999999999    0.2682800000000000    0.1968500000000000 C
   0.5573600000000000    0.2807100000000000    0.1565950000000000 C
   0.6552600000000000    0.1834600000000000    0.3460150000000000 C
   0.6263799999999999    0.2706500000000000    0.3022400000000000 C
   0.5417600000000000    0.3524500000000000    0.1629700000000000 C
   0.5600900000000000    0.4045800000000000    0.1849200000000000 C
   0.6424750000000000    0.2622700000000000    0.2632900000000000 C
   0.7080350000000000    0.3539800000000000    0.3358000000000000 C
   0.5590600000000000    0.1753000000000000    0.1310000000000000 C
   0.5065550000000000    0.4867300000000000    0.1662400000000000 C
   0.6906950000000001    0.4052700000000000    0.3129250000000000 C
   0.5932500000000001    0.1801000000000000    0.1536800000000000 C
   0.7090450000000000    0.4721300000000000    0.3111400000000000 C
   0.5421650000000000    0.4719300000000000    0.1865000000000000 C
   0.6892900000000000    0.1788000000000000    0.3686000000000000 C
   0.7600750000000001    0.4333400000000000    0.3538850000000000 C
   0.7441050000000000    0.4872700000000000    0.3320900000000000 C
   0.5920150000000000    0.2464800000000000    0.1695550000000000 N
   0.6570750000000000    0.2490400000000000    0.3296650000000000 N
   0.5063650000000000    0.3668800000000000    0.1438850000000000 N
   0.7429700000000000    0.3686900000000000    0.3550000000000000 N
   0.7114450000000000    0.2404500000000000    0.3664050000000000 N
   0.5373650000000000    0.2376800000000000    0.1331200000000000 N
