Zn32 H574 C754 N96 O159
1.0
  32.1439940026315014    0.0000000000000000   -0.0196356509954392
   0.0384607703282853   18.8627208343520465   -0.0951445975710272
   0.0000000000000000    0.0000000000000000   36.7580000000000027
Zn H C N O
32 574 754 96 159
direct
   0.5157350000000001    0.7192000000000000    0.8890850000000000 Zn
   0.7342350000000000    0.2164100000000000    0.6390400000000001 Zn
   0.5157350000000001    0.7192000000000000    0.3890850000000000 Zn
   0.7342350000000000    0.2164100000000000    0.1390400000000000 Zn
   0.4842650000000000    0.2808000000000000    0.6109200000000000 Zn
   0.2657550000000000    0.7835800000000001    0.3609650000000000 Zn
   0.4842650000000000    0.2808000000000000    0.1109200000000000 Zn
   0.2657550000000000    0.7835800000000001    0.8609650000000000 Zn
   0.9842649999999999    0.2808000000000000    0.6109200000000000 Zn
   0.7657550000000000    0.7835800000000001    0.3609650000000000 Zn
   0.9842649999999999    0.2808000000000000    0.1109200000000000 Zn
   0.7657550000000000    0.7835800000000001    0.8609650000000000 Zn
   0.2642850000000000    0.2836300000000000    0.8890250000000000 Zn
   0.4858150000000000    0.7810100000000000    0.1391350000000000 Zn
   0.2642850000000000    0.2836300000000000    0.3890250000000000 Zn
   0.4858150000000000    0.7810100000000000    0.6391350000000000 Zn
   0.7642850000000000    0.2836300000000000    0.8890250000000000 Zn
   0.9858150000000000    0.7810100000000000    0.1391350000000000 Zn
   0.7642850000000000    0.2836300000000000    0.3890250000000000 Zn
   0.9858150000000000    0.7810100000000000    0.6391350000000000 Zn
   0.2357250000000000    0.7163200000000000    0.1109750000000000 Zn
   0.0141650000000000    0.2189800000000000    0.8608750000000001 Zn
   0.2357250000000000    0.7163200000000000    0.6109750000000000 Zn
   0.0141650000000000    0.2189800000000000    0.3608750000000000 Zn
   0.0157350000000000    0.7192000000000000    0.8890850000000000 Zn
   0.2342350000000000    0.2164100000000000    0.6390400000000001 Zn
   0.0157350000000000    0.7192000000000000    0.3890850000000000 Zn
   0.2342350000000000    0.2164100000000000    0.1390400000000000 Zn
   0.7357250000000000    0.7163200000000000    0.1109750000000000 Zn
   0.5141650000000000    0.2189800000000000    0.8608750000000001 Zn
   0.7357250000000000    0.7163200000000000    0.6109750000000000 Zn
   0.5141650000000000    0.2189800000000000    0.3608750000000000 Zn
   0.7619150000000000    0.1582900000000000    0.7559100000000001 H
   0.7551749999999999    0.0952300000000000    0.8154049999999999 H
   0.6539349999999999    0.9724600000000000    0.7716499999999999 H
   0.6609250000000000    0.0359700000000000    0.7125450000000000 H
   0.6390950000000000    0.0439200000000000    0.8699000000000000 H
   0.5802550000000000    0.9686300000000000    0.8919699999999999 H
   0.6300100000000000    0.7901200000000000    0.8339500000000000 H
   0.6903049999999999    0.8640300000000000    0.8130850000000001 H
   0.4954300000000000    0.5955400000000000    0.5649150000000001 H
   0.4889950000000000    0.6597400000000000    0.5056950000000000 H
   0.6116450000000000    0.5425800000000000    0.6186600000000000 H
   0.6701900000000001    0.4665400000000000    0.6410200000000000 H
   0.6194750000000000    0.2880100000000000    0.5839100000000000 H
   0.5594350000000000    0.3626800000000000    0.5627950000000000 H
   0.5961850000000000    0.4715000000000000    0.5208550000000000 H
   0.5893950000000000    0.5360500000000000    0.4619250000000000 H
   0.7619150000000000    0.1582900000000000    0.2559100000000000 H
   0.7551749999999999    0.0952300000000000    0.3154050000000000 H
   0.6539349999999999    0.9724600000000000    0.2716500000000000 H
   0.6609250000000000    0.0359700000000000    0.2125450000000000 H
   0.6390950000000000    0.0439200000000000    0.3699000000000000 H
   0.5802550000000000    0.9686300000000000    0.3919700000000000 H
   0.6300100000000000    0.7901200000000000    0.3339500000000000 H
   0.6903049999999999    0.8640300000000000    0.3130850000000000 H
   0.4954300000000000    0.5955400000000000    0.0649150000000000 H
   0.4889950000000000    0.6597400000000000    0.0056950000000000 H
   0.6116450000000000    0.5425800000000000    0.1186600000000000 H
   0.6701900000000001    0.4665400000000000    0.1410200000000000 H
   0.6194750000000000    0.2880100000000000    0.0839100000000000 H
   0.5594350000000000    0.3626800000000000    0.0627950000000000 H
   0.5961850000000000    0.4715000000000000    0.0208550000000000 H
   0.5893950000000000    0.5360500000000000    0.9619249999999999 H
   0.2380800000000000    0.8417200000000000    0.7441050000000000 H
   0.2448200000000000    0.9048000000000000    0.6846150000000000 H
   0.3460950000000000    0.0275100000000000    0.7283200000000000 H
   0.3391000000000000    0.9639900000000000    0.7874650000000001 H
   0.3609150000000000    0.9560800000000000    0.6301300000000000 H
   0.4197500000000000    0.0313600000000000    0.6080500000000000 H
   0.3699900000000000    0.2098900000000000    0.6660500000000000 H
   0.3096950000000000    0.1359800000000000    0.6869250000000000 H
   0.5000000000000000    0.4044400000000000    0.4350900000000000 H
   0.5109850000000000    0.3402400000000000    0.4943100000000000 H
   0.3883600000000000    0.4574100000000000    0.3813400000000000 H
   0.3298050000000000    0.5334400000000000    0.3589850000000000 H
   0.3805100000000000    0.7119799999999999    0.4160950000000000 H
   0.4405550000000000    0.6373200000000000    0.4372100000000000 H
   0.4105950000000000    0.4639600000000000    0.5380500000000000 H
   0.4038150000000000    0.5285100000000000    0.4791450000000000 H
   0.2380800000000000    0.8417200000000000    0.2441050000000000 H
   0.2448200000000000    0.9048000000000000    0.1846150000000000 H
   0.3460950000000000    0.0275100000000000    0.2283200000000000 H
   0.3391000000000000    0.9639900000000000    0.2874650000000000 H
   0.3609150000000000    0.9560800000000000    0.1301300000000000 H
   0.4197500000000000    0.0313600000000000    0.1080500000000000 H
   0.3699900000000000    0.2098900000000000    0.1660500000000000 H
   0.3096950000000000    0.1359800000000000    0.1869250000000000 H
   0.5000000000000000    0.4044400000000000    0.9350900000000000 H
   0.5109850000000000    0.3402400000000000    0.9943100000000000 H
   0.3883600000000000    0.4574100000000000    0.8813400000000000 H
   0.3298050000000000    0.5334400000000000    0.8589850000000000 H
   0.3805100000000000    0.7119799999999999    0.9160950000000000 H
   0.4405550000000000    0.6373200000000000    0.9372100000000000 H
   0.4105950000000000    0.4639600000000000    0.0380500000000000 H
   0.4038150000000000    0.5285100000000000    0.9791449999999999 H
   0.7380800000000001    0.8417200000000000    0.7441050000000000 H
   0.7448200000000000    0.9048000000000000    0.6846150000000000 H
   0.8460950000000000    0.0275100000000000    0.7283200000000000 H
   0.8391000000000000    0.9639900000000000    0.7874650000000001 H
   0.8609150000000000    0.9560800000000000    0.6301300000000000 H
   0.9197500000000001    0.0313600000000000    0.6080500000000000 H
   0.8699900000000000    0.2098900000000000    0.6660500000000000 H
   0.8096950000000001    0.1359800000000000    0.6869250000000000 H
   0.0000000000000000    0.4044400000000000    0.4350900000000000 H
   0.0109850000000000    0.3402400000000000    0.4943100000000000 H
   0.8883600000000000    0.4574100000000000    0.3813400000000000 H
   0.8298050000000000    0.5334400000000000    0.3589850000000000 H
   0.8805100000000000    0.7119799999999999    0.4160950000000000 H
   0.9405550000000000    0.6373200000000000    0.4372100000000000 H
   0.9105950000000000    0.4639600000000000    0.5380500000000000 H
   0.9038150000000000    0.5285100000000000    0.4791450000000000 H
   0.7380800000000001    0.8417200000000000    0.2441050000000000 H
   0.7448200000000000    0.9048000000000000    0.1846150000000000 H
   0.8460950000000000    0.0275100000000000    0.2283200000000000 H
   0.8391000000000000    0.9639900000000000    0.2874650000000000 H
   0.8609150000000000    0.9560800000000000    0.1301300000000000 H
   0.9197500000000001    0.0313600000000000    0.1080500000000000 H
   0.8699900000000000    0.2098900000000000    0.1660500000000000 H
   0.8096950000000001    0.1359800000000000    0.1869250000000000 H
   0.0000000000000000    0.4044400000000000    0.9350900000000000 H
   0.0109850000000000    0.3402400000000000    0.9943100000000000 H
   0.8883600000000000    0.4574100000000000    0.8813400000000000 H
   0.8298050000000000    0.5334400000000000    0.8589850000000000 H
   0.8805100000000000    0.7119799999999999    0.9160950000000000 H
   0.9405550000000000    0.6373200000000000    0.9372100000000000 H
   0.9105950000000000    0.4639600000000000    0.0380500000000000 H
   0.9038150000000000    0.5285100000000000    0.9791449999999999 H
   0.0909650000000000    0.7118300000000000    0.5109450000000000 H
   0.0849650000000000    0.8043400000000001    0.5073850000000000 H
   0.1509600000000000    0.7356200000000001    0.5567600000000000 H
   0.1341900000000000    0.8241700000000000    0.5588000000000000 H
   0.1214850000000000    0.6472300000000000    0.5901500000000000 H
   0.0512400000000000    0.6334500000000000    0.6354500000000000 H
   0.9623850000000000    0.9384700000000000    0.6218399999999999 H
   0.0870500000000000    0.8931900000000000    0.5479300000000000 H
   0.0540550000000000    0.0117500000000000    0.5447600000000000 H
   0.9905550000000001    0.0378000000000000    0.5832600000000000 H
   0.1616500000000000    0.7138900000000000    0.4885150000000000 H
   0.1654900000000000    0.8067500000000000    0.4923600000000000 H
   0.1008900000000000    0.7341800000000001    0.4428600000000000 H
   0.1162100000000000    0.8233500000000000    0.4408850000000000 H
   0.1316000000000000    0.6463900000000000    0.4095000000000000 H
   0.2021800000000000    0.6339500000000000    0.3644000000000000 H
   0.2873650000000000    0.9415600000000000    0.3785800000000000 H
   0.1622100000000000    0.8947500000000000    0.4512050000000000 H
   0.1938350000000000    0.0142000000000000    0.4546000000000000 H
   0.2576350000000000    0.0409200000000000    0.4167800000000000 H
   0.0909650000000000    0.7118300000000000    0.0109450000000000 H
   0.0849650000000000    0.8043400000000001    0.0073850000000000 H
   0.1509600000000000    0.7356200000000001    0.0567600000000000 H
   0.1341900000000000    0.8241700000000000    0.0588000000000000 H
   0.1214850000000000    0.6472300000000000    0.0901500000000000 H
   0.0512400000000000    0.6334500000000000    0.1354500000000000 H
   0.9623850000000000    0.9384700000000000    0.1218400000000000 H
   0.0870500000000000    0.8931900000000000    0.0479300000000000 H
   0.0540550000000000    0.0117500000000000    0.0447600000000000 H
   0.9905550000000001    0.0378000000000000    0.0832600000000000 H
   0.1616500000000000    0.7138900000000000    0.9885150000000000 H
   0.1654900000000000    0.8067500000000000    0.9923600000000000 H
   0.1008900000000000    0.7341800000000001    0.9428600000000000 H
   0.1162100000000000    0.8233500000000000    0.9408850000000000 H
   0.1316000000000000    0.6463900000000000    0.9095000000000000 H
   0.2021800000000000    0.6339500000000000    0.8644000000000001 H
   0.2873650000000000    0.9415600000000000    0.8785800000000000 H
   0.1622100000000000    0.8947500000000000    0.9512050000000001 H
   0.1938350000000000    0.0142000000000000    0.9546000000000000 H
   0.2576350000000000    0.0409200000000000    0.9167799999999999 H
   0.5909650000000000    0.7118300000000000    0.5109450000000000 H
   0.5849650000000000    0.8043400000000001    0.5073850000000000 H
   0.6509600000000000    0.7356200000000001    0.5567600000000000 H
   0.6341900000000000    0.8241700000000000    0.5588000000000000 H
   0.6214850000000000    0.6472300000000000    0.5901500000000000 H
   0.5512400000000000    0.6334500000000000    0.6354500000000000 H
   0.4623850000000000    0.9384700000000000    0.6218399999999999 H
   0.5870500000000000    0.8931900000000000    0.5479300000000000 H
   0.5540550000000000    0.0117500000000000    0.5447600000000000 H
   0.4905550000000000    0.0378000000000000    0.5832600000000000 H
   0.6616500000000000    0.7138900000000000    0.4885150000000000 H
   0.6654900000000000    0.8067500000000000    0.4923600000000000 H
   0.6008900000000000    0.7341800000000001    0.4428600000000000 H
   0.6162100000000000    0.8233500000000000    0.4408850000000000 H
   0.6315999999999999    0.6463900000000000    0.4095000000000000 H
   0.7021800000000000    0.6339500000000000    0.3644000000000000 H
   0.7873650000000000    0.9415600000000000    0.3785800000000000 H
   0.6622100000000000    0.8947500000000000    0.4512050000000000 H
   0.6938350000000000    0.0142000000000000    0.4546000000000000 H
   0.7576350000000001    0.0409200000000000    0.4167800000000000 H
   0.5909650000000000    0.7118300000000000    0.0109450000000000 H
   0.5849650000000000    0.8043400000000001    0.0073850000000000 H
   0.6509600000000000    0.7356200000000001    0.0567600000000000 H
   0.6341900000000000    0.8241700000000000    0.0588000000000000 H
   0.6214850000000000    0.6472300000000000    0.0901500000000000 H
   0.5512400000000000    0.6334500000000000    0.1354500000000000 H
   0.4623850000000000    0.9384700000000000    0.1218400000000000 H
   0.5870500000000000    0.8931900000000000    0.0479300000000000 H
   0.5540550000000000    0.0117500000000000    0.0447600000000000 H
   0.4905550000000000    0.0378000000000000    0.0832600000000000 H
   0.6616500000000000    0.7138900000000000    0.9885150000000000 H
   0.6654900000000000    0.8067500000000000    0.9923600000000000 H
   0.6008900000000000    0.7341800000000001    0.9428600000000000 H
   0.6162100000000000    0.8233500000000000    0.9408850000000000 H
   0.6315999999999999    0.6463900000000000    0.9095000000000000 H
   0.7021800000000000    0.6339500000000000    0.8644000000000001 H
   0.7873650000000000    0.9415600000000000    0.8785800000000000 H
   0.6622100000000000    0.8947500000000000    0.9512050000000001 H
   0.6938350000000000    0.0142000000000000    0.9546000000000000 H
   0.7576350000000001    0.0409200000000000    0.9167799999999999 H
   0.6594250000000000    0.2117000000000000    0.7609850000000000 H
   0.6651800000000000    0.3041400000000000    0.7569750000000000 H
   0.5994100000000000    0.2362400000000000    0.8066350000000000 H
   0.6159000000000000    0.3248800000000000    0.8082450000000000 H
   0.6293250000000000    0.1483500000000000    0.8402300000000000 H
   0.6996550000000000    0.1355200000000000    0.8856649999999999 H
   0.6629550000000000    0.3939300000000000    0.7970999999999999 H
   0.7870250000000000    0.4408900000000000    0.8714850000000001 H
   0.6955050000000000    0.5125800000000000    0.7936250000000000 H
   0.7587200000000001    0.5394800000000000    0.8320000000000001 H
   0.5887100000000000    0.2133300000000000    0.7384950000000000 H
   0.5846900000000000    0.3062800000000000    0.7418250000000000 H
   0.6494000000000000    0.2324200000000000    0.6928150000000000 H
   0.6341100000000000    0.3216800000000000    0.6903900000000001 H
   0.6189050000000000    0.1445000000000000    0.6596850000000000 H
   0.5482700000000000    0.1315000000000000    0.6146050000000000 H
   0.4622750000000000    0.4393600000000000    0.6282050000000000 H
   0.5882950000000000    0.3934900000000000    0.7001300000000000 H
   0.5564550000000000    0.5130200000000000    0.7033000000000000 H
   0.4922200000000000    0.5392700000000000    0.6658999999999999 H
   0.6594250000000000    0.2117000000000000    0.2609850000000000 H
   0.6651800000000000    0.3041400000000000    0.2569750000000000 H
   0.5994100000000000    0.2362400000000000    0.3066350000000000 H
   0.6159000000000000    0.3248800000000000    0.3082450000000000 H
   0.6293250000000000    0.1483500000000000    0.3402300000000000 H
   0.6996550000000000    0.1355200000000000    0.3856650000000000 H
   0.6629550000000000    0.3939300000000000    0.2971000000000000 H
   0.7870250000000000    0.4408900000000000    0.3714850000000000 H
   0.6955050000000000    0.5125800000000000    0.2936250000000000 H
   0.7587200000000001    0.5394800000000000    0.3320000000000000 H
   0.5887100000000000    0.2133300000000000    0.2384950000000000 H
   0.5846900000000000    0.3062800000000000    0.2418250000000000 H
   0.6494000000000000    0.2324200000000000    0.1928150000000000 H
   0.6341100000000000    0.3216800000000000    0.1903900000000000 H
   0.6189050000000000    0.1445000000000000    0.1596850000000000 H
   0.5482700000000000    0.1315000000000000    0.1146050000000000 H
   0.4622750000000000    0.4393600000000000    0.1282050000000000 H
   0.5882950000000000    0.3934900000000000    0.2001300000000000 H
   0.5564550000000000    0.5130200000000000    0.2033000000000000 H
   0.4922200000000000    0.5392700000000000    0.1659000000000000 H
   0.1594250000000000    0.2117000000000000    0.7609850000000000 H
   0.1651800000000000    0.3041400000000000    0.7569750000000000 H
   0.0994100000000000    0.2362400000000000    0.8066350000000000 H
   0.1159000000000000    0.3248800000000000    0.8082450000000000 H
   0.1293250000000000    0.1483500000000000    0.8402300000000000 H
   0.1996550000000000    0.1355200000000000    0.8856649999999999 H
   0.1629550000000000    0.3939300000000000    0.7970999999999999 H
   0.2870250000000000    0.4408900000000000    0.8714850000000001 H
   0.1955050000000000    0.5125800000000000    0.7936250000000000 H
   0.2587200000000000    0.5394800000000000    0.8320000000000001 H
   0.0887100000000000    0.2133300000000000    0.7384950000000000 H
   0.0846900000000000    0.3062800000000000    0.7418250000000000 H
   0.1494000000000000    0.2324200000000000    0.6928150000000000 H
   0.1341100000000000    0.3216800000000000    0.6903900000000001 H
   0.1189050000000000    0.1445000000000000    0.6596850000000000 H
   0.0482700000000000    0.1315000000000000    0.6146050000000000 H
   0.9622750000000000    0.4393600000000000    0.6282050000000000 H
   0.0882950000000000    0.3934900000000000    0.7001300000000000 H
   0.0564550000000000    0.5130200000000000    0.7033000000000000 H
   0.9922200000000000    0.5392700000000000    0.6658999999999999 H
   0.3890700000000000    0.9586900000000000    0.8715800000000000 H
   0.3300650000000000    0.0347200000000000    0.8933550000000000 H
   0.3783450000000000    0.2103300000000000    0.8333333333333333 H
   0.4387150000000000    0.1356700000000000    0.8125599999999999 H
   0.5000000000000000    0.9085000000000000    0.8149000000000000 H
   0.5133250000000000    0.8449600000000000    0.7552550000000000 H
   0.4017800000000000    0.0000000000000000    0.7726500000000001 H
   0.4091650000000000    0.9613100000000000    0.7133300000000000 H
   0.2368650000000000    0.3449200000000000    0.0054850000000000 H
   0.2444100000000000    0.4065000000000000    0.0656150000000000 H
   0.3716050000000000    0.7076400000000000    0.0836450000000000 H
   0.3116050000000000    0.6323000000000000    0.0631450000000000 H
   0.3483050000000000    0.5241400000000001    0.0235000000000000 H
   0.3404350000000000    0.4624000000000000    0.9639300000000000 H
   0.3617200000000000    0.4568600000000000    0.1234300000000000 H
   0.4202350000000000    0.5337800000000000    0.1451300000000000 H
   0.3890700000000000    0.9586900000000000    0.3715800000000000 H
   0.3300650000000000    0.0347200000000000    0.3933550000000000 H
   0.3783450000000000    0.2103300000000000    0.3333333333333333 H
   0.4387150000000000    0.1356700000000000    0.3125600000000000 H
   0.5000000000000000    0.9085000000000000    0.3149000000000000 H
   0.5133250000000000    0.8449600000000000    0.2552550000000000 H
   0.4017800000000000    0.0000000000000000    0.2726500000000000 H
   0.4091650000000000    0.9613100000000000    0.2133300000000000 H
   0.2368650000000000    0.3449200000000000    0.5054850000000000 H
   0.2444100000000000    0.4065000000000000    0.5656150000000000 H
   0.3716050000000000    0.7076400000000000    0.5836450000000000 H
   0.3116050000000000    0.6323000000000000    0.5631450000000000 H
   0.3483050000000000    0.5241400000000001    0.5235000000000000 H
   0.3404350000000000    0.4624000000000000    0.4639300000000000 H
   0.3617200000000000    0.4568600000000000    0.6234300000000000 H
   0.4202350000000000    0.5337800000000000    0.6451300000000000 H
   0.7382112153010140    0.3050714181779002    0.9605646705025188 H
   0.8348290958432455    0.4095967151563222    0.9219032264349483 H
   0.7906281333388947    0.3645664329338050    0.9430217405798109 H
   0.9089900000000000    0.2881300000000000    0.9890550000000000 H
   0.9150150000000000    0.1956200000000000    0.9925999999999999 H
   0.8490100000000000    0.2643300000000000    0.9432000000000000 H
   0.8657850000000000    0.1757900000000000    0.9411849999999999 H
   0.8784700000000000    0.3527200000000000    0.9098300000000000 H
   0.9487200000000000    0.3665000000000000    0.8645200000000000 H
   0.0376300000000000    0.0615400000000000    0.8782099999999999 H
   0.9129350000000001    0.1067900000000000    0.9520800000000000 H
   0.9459550000000000    0.9882600000000000    0.9552800000000000 H
   0.0094700000000000    0.9622200000000000    0.9167950000000000 H
   0.8383050000000001    0.2860000000000000    0.0114900000000000 H
   0.8344900000000000    0.1931400000000000    0.0076200000000000 H
   0.8990950000000000    0.2656800000000000    0.0571250000000000 H
   0.8837500000000000    0.1765200000000000    0.0591000000000000 H
   0.8683900000000000    0.3535100000000000    0.0904750000000000 H
   0.7978149999999999    0.3659900000000000    0.1355750000000000 H
   0.7423550000000000    0.9589800000000001    0.0832900000000000 H
   0.7126250000000001    0.0583800000000000    0.1214650000000000 H
   0.8061400000000001    0.9856700000000000    0.0454450000000000 H
   0.8377550000000000    0.1051400000000000    0.0485000000000000 H
   0.8890700000000000    0.9586900000000000    0.8715800000000000 H
   0.8300650000000001    0.0347200000000000    0.8933550000000000 H
   0.8783449999999999    0.2103300000000000    0.8333333333333333 H
   0.9387150000000000    0.1356700000000000    0.8125599999999999 H
   0.0000000000000000    0.9085000000000000    0.8149000000000000 H
   0.0133250000000000    0.8449600000000000    0.7552550000000000 H
   0.9017800000000000    0.0000000000000000    0.7726500000000001 H
   0.9091650000000000    0.9613100000000000    0.7133300000000000 H
   0.1594250000000000    0.2117000000000000    0.2609850000000000 H
   0.1651800000000000    0.3041400000000000    0.2569750000000000 H
   0.0994100000000000    0.2362400000000000    0.3066350000000000 H
   0.1159000000000000    0.3248800000000000    0.3082450000000000 H
   0.1293250000000000    0.1483500000000000    0.3402300000000000 H
   0.1996550000000000    0.1355200000000000    0.3856650000000000 H
   0.1629550000000000    0.3939300000000000    0.2971000000000000 H
   0.2870250000000000    0.4408900000000000    0.3714850000000000 H
   0.1955050000000000    0.5125800000000000    0.2936250000000000 H
   0.2587200000000000    0.5394800000000000    0.3320000000000000 H
   0.0887100000000000    0.2133300000000000    0.2384950000000000 H
   0.0846900000000000    0.3062800000000000    0.2418250000000000 H
   0.1494000000000000    0.2324200000000000    0.1928150000000000 H
   0.1341100000000000    0.3216800000000000    0.1903900000000000 H
   0.1189050000000000    0.1445000000000000    0.1596850000000000 H
   0.0482700000000000    0.1315000000000000    0.1146050000000000 H
   0.9622750000000000    0.4393600000000000    0.1282050000000000 H
   0.0882950000000000    0.3934900000000000    0.2001300000000000 H
   0.0564550000000000    0.5130200000000000    0.2033000000000000 H
   0.9922200000000000    0.5392700000000000    0.1659000000000000 H
   0.9161166186726717    0.7544678948666743    0.1005496207396598 H
   0.9635697606502358    0.5980315201390187    0.1616390515398761 H
   0.9394516245822687    0.6663547105405977    0.1328221437075166 H
   0.8890700000000000    0.9586900000000000    0.3715800000000000 H
   0.8300650000000001    0.0347200000000000    0.3933550000000000 H
   0.8783449999999999    0.2103300000000000    0.3333333333333333 H
   0.9387150000000000    0.1356700000000000    0.3125600000000000 H
   0.0000000000000000    0.9085000000000000    0.3149000000000000 H
   0.0133250000000000    0.8449600000000000    0.2552550000000000 H
   0.9017800000000000    0.0000000000000000    0.2726500000000000 H
   0.9091650000000000    0.9613100000000000    0.2133300000000000 H
   0.7368650000000000    0.3449200000000000    0.5054850000000000 H
   0.7444100000000000    0.4065000000000000    0.5656150000000000 H
   0.8716050000000000    0.7076400000000000    0.5836450000000000 H
   0.8116050000000000    0.6323000000000000    0.5631450000000000 H
   0.8483050000000000    0.5241400000000001    0.5235000000000000 H
   0.8404350000000000    0.4624000000000000    0.4639300000000000 H
   0.8617200000000000    0.4568600000000000    0.6234300000000000 H
   0.9202350000000000    0.5337800000000000    0.6451300000000000 H
   0.9089900000000000    0.2881300000000000    0.4890550000000000 H
   0.9150150000000000    0.1956200000000000    0.4926000000000000 H
   0.8490100000000000    0.2643300000000000    0.4432000000000000 H
   0.8657850000000000    0.1757900000000000    0.4411850000000000 H
   0.8784700000000000    0.3527200000000000    0.4098300000000000 H
   0.9487200000000000    0.3665000000000000    0.3645200000000000 H
   0.0376300000000000    0.0615400000000000    0.3782100000000000 H
   0.9129350000000001    0.1067900000000000    0.4520800000000000 H
   0.9459550000000000    0.9882600000000000    0.4552800000000000 H
   0.0094700000000000    0.9622200000000000    0.4167950000000000 H
   0.8383050000000001    0.2860000000000000    0.5114900000000000 H
   0.8344900000000000    0.1931400000000000    0.5076200000000000 H
   0.8990950000000000    0.2656800000000000    0.5571250000000000 H
   0.8837500000000000    0.1765200000000000    0.5591000000000000 H
   0.8683900000000000    0.3535100000000000    0.5904750000000000 H
   0.7978149999999999    0.3659900000000000    0.6355750000000000 H
   0.7423550000000000    0.9589800000000001    0.5832900000000000 H
   0.7126250000000001    0.0583800000000000    0.6214650000000000 H
   0.8061400000000001    0.9856700000000000    0.5454450000000000 H
   0.8377550000000000    0.1051400000000000    0.5485000000000000 H
   0.4112850000000000    0.7866300000000001    0.2615100000000000 H
   0.4153050000000000    0.6936800000000000    0.2581850000000000 H
   0.3505950000000000    0.7675400000000000    0.3071950000000000 H
   0.3658950000000000    0.6782899999999999    0.3096250000000000 H
   0.3811000000000000    0.8554900000000000    0.3403150000000000 H
   0.4517450000000000    0.8685000000000000    0.3853500000000000 H
   0.5377250000000000    0.5606200000000000    0.3718050000000000 H
   0.4117100000000000    0.6064800000000000    0.2998700000000000 H
   0.5000000000000000    0.4607200000000000    0.3341050000000000 H
   0.4435550000000000    0.4869600000000000    0.2967000000000000 H
   0.3405700000000000    0.7882700000000000    0.2390250000000000 H
   0.3348050000000000    0.6958299999999999    0.2430500000000000 H
   0.4005800000000000    0.7636800000000000    0.1933700000000000 H
   0.3840750000000000    0.6750400000000000    0.1917700000000000 H
   0.3706300000000000    0.8516200000000000    0.1598000000000000 H
   0.3002950000000000    0.8644300000000000    0.1143500000000000 H
   0.3370000000000000    0.6060400000000000    0.2029500000000000 H
   0.2130200000000000    0.5589700000000000    0.1284800000000000 H
   0.3044650000000000    0.4873800000000000    0.2064350000000000 H
   0.2413000000000000    0.4604200000000000    0.1676550000000000 H
   0.4112850000000000    0.7866300000000001    0.7615100000000000 H
   0.4153050000000000    0.6936800000000000    0.7581850000000000 H
   0.3505950000000000    0.7675400000000000    0.8071950000000000 H
   0.3658950000000000    0.6782899999999999    0.8096250000000000 H
   0.3811000000000000    0.8554900000000000    0.8403149999999999 H
   0.4517450000000000    0.8685000000000000    0.8853500000000001 H
   0.5377250000000000    0.5606200000000000    0.8718049999999999 H
   0.4117100000000000    0.6064800000000000    0.7998700000000001 H
   0.5000000000000000    0.4607200000000000    0.8341050000000000 H
   0.4435550000000000    0.4869600000000000    0.7967000000000000 H
   0.3405700000000000    0.7882700000000000    0.7390250000000000 H
   0.3348050000000000    0.6958299999999999    0.7430500000000000 H
   0.4005800000000000    0.7636800000000000    0.6933700000000000 H
   0.3840750000000000    0.6750400000000000    0.6917700000000000 H
   0.3706300000000000    0.8516200000000000    0.6597999999999999 H
   0.3002950000000000    0.8644300000000000    0.6143500000000000 H
   0.3370000000000000    0.6060400000000000    0.7029500000000000 H
   0.2130200000000000    0.5589700000000000    0.6284800000000000 H
   0.3044650000000000    0.4873800000000000    0.7064350000000000 H
   0.2413000000000000    0.4604200000000000    0.6676550000000000 H
   0.9939750000000001    0.0917100000000000    0.1850700000000000 H
   0.9868250000000001    0.1551900000000000    0.2447300000000000 H
   0.0982550000000000    0.9748100000000000    0.2274000000000000 H
   0.0908150000000000    0.0385600000000000    0.2867650000000000 H
   0.1111350000000000    0.0413500000000000    0.1284950000000000 H
   0.1700800000000000    0.9651999999999999    0.1067000000000000 H