H3 O2
1.0
  20.2159987683708628    0.0000000000000000    0.0070567150883577
   0.0191467372091755   23.1456400670251341   -0.4488644452113709
   0.0000000000000000    0.0000000000000000   29.7319999999999993
H O
3 2
direct
   0.4939748724469543    0.6655196958015841    0.4583969600069056 H
   0.4444777350266516    0.5670360713176924    0.4857924205736836 H
   0.4879092759485328    0.6218447327056347    0.3382711526687263 H
   0.4863200000000000    0.6572500000000000    0.4898300000000000 O
   0.4441400000000000    0.5745600000000000    0.5180000000000000 O
