H1 C1 O2
1.0
  20.2159987683708628    0.0000000000000000    0.0070567150883577
   0.0191467372091755   23.1456400670251341   -0.4488644452113709
   0.0000000000000000    0.0000000000000000   29.7319999999999993
H C O
1 1 2
direct
   0.4191500000000000    0.6547200000000000    0.5402100000000000 H
   0.4492200000000000    0.6282200000000000    0.5167000000000000 C
   0.4863200000000000    0.6572500000000000    0.4898300000000000 O
   0.4441400000000000    0.5745600000000000    0.5180000000000000 O
