Zn96 H191 C191 O382
1.0
  20.2159987683708628    0.0000000000000000    0.0070567150883577
   0.0191467372091755   23.1456400670251341   -0.4488644452113709
   0.0000000000000000    0.0000000000000000   29.7319999999999993
Zn H C O
96 191 191 382
direct
   0.4640500000000000    0.8774600000000000    0.0648000000000000 Zn
   0.9640300000000001    0.3774500000000000    0.0648100000000000 Zn
   0.9640400000000000    0.8774600000000000    0.0648100000000000 Zn
   0.0586900000000000    0.3702000000000000    0.1544000000000000 Zn
   0.0587000000000000    0.8702100000000000    0.1544250000000000 Zn
   0.5586800000000000    0.3702000000000000    0.1544250000000000 Zn
   0.5586900000000000    0.8702100000000000    0.1544200000000000 Zn
   0.2140200000000000    0.3725500000000000    0.1852400000000000 Zn
   0.2140300000000000    0.8725600000000000    0.1852400000000000 Zn
   0.7140100000000000    0.3725600000000000    0.1852400000000000 Zn
   0.7140200000000000    0.8725600000000000    0.1852400000000000 Zn
   0.3086800000000000    0.3798000000000000    0.0956050000000000 Zn
   0.3086900000000000    0.8798100000000000    0.0956050000000000 Zn
   0.8086700000000000    0.3798000000000000    0.0956050000000000 Zn
   0.8086800000000000    0.8798100000000000    0.0956100000000000 Zn
   0.0359500000000000    0.1225600000000000    0.4351700000000000 Zn
   0.0359600000000000    0.6225700000000000    0.4351650000000000 Zn
   0.5359400000000000    0.1225600000000000    0.4351700000000000 Zn
   0.5359500000000000    0.6225700000000000    0.4351700000000000 Zn
   0.4413000000000000    0.1298100000000000    0.3455550000000000 Zn
   0.4413000000000000    0.6298200000000000    0.3455550000000000 Zn
   0.9412900000000000    0.1298100000000000    0.3455550000000000 Zn
   0.9412900000000000    0.6298200000000000    0.3455550000000000 Zn
   0.2859700000000000    0.1274600000000000    0.3147400000000000 Zn
   0.2859700000000000    0.6274600000000000    0.3147350000000000 Zn
   0.7859600000000000    0.1274600000000000    0.3147400000000000 Zn
   0.7859600000000000    0.6274700000000000    0.3147400000000000 Zn
   0.1913100000000000    0.1202100000000000    0.4043700000000000 Zn
   0.1913100000000000    0.6202200000000000    0.4043700000000000 Zn
   0.6913000000000000    0.1202100000000000    0.4043750000000000 Zn
   0.6913000000000000    0.6202200000000000    0.4043750000000000 Zn
   0.0000000000000000    0.2500000000000000    0.0000000000000000 Zn
   0.4640400000000000    0.3774500000000000    0.0648100000000000 Zn
   0.0000100000000000    0.7500100000000000    0.4999950000000000 Zn
   0.4999900000000000    0.2500000000000000    0.0000000000000000 Zn
   0.5000000000000000    0.7500100000000000    0.0000000000000000 Zn
   0.2499900000000000    0.0000000000000000    0.2499850000000000 Zn
   0.2500000000000000    0.5000100000000000    0.2499850000000000 Zn
   0.7499800000000000    0.0000000000000000    0.2499850000000000 Zn
   0.7499900000000000    0.5000100000000000    0.2499900000000000 Zn
   0.0000000000000000    0.0000000000000000    0.0000000000000000 Zn
   0.0000100000000000    0.5000100000000000    0.4999950000000000 Zn
   0.4999900000000000    0.0000000000000000    0.4999950000000000 Zn
   0.4999900000000000    0.5000100000000000    0.0000000000000000 Zn
   0.2500000000000000    0.2500100000000000    0.2499900000000000 Zn
   0.2500000000000000    0.7500100000000000    0.2499900000000000 Zn
   0.7499800000000000    0.2500000000000000    0.2499900000000000 Zn
   0.7499900000000000    0.7500100000000000    0.2499900000000000 Zn
   0.4640500000000000    0.8774600000000000    0.5648000000000000 Zn
   0.9640300000000001    0.3774500000000000    0.5648100000000000 Zn
   0.9640400000000000    0.8774600000000000    0.5648100000000000 Zn
   0.0586900000000000    0.3702000000000000    0.6544000000000000 Zn
   0.0587000000000000    0.8702100000000000    0.6544250000000000 Zn
   0.5586800000000000    0.3702000000000000    0.6544250000000000 Zn
   0.5586900000000000    0.8702100000000000    0.6544200000000000 Zn
   0.2140200000000000    0.3725500000000000    0.6852400000000000 Zn
   0.2140300000000000    0.8725600000000000    0.6852400000000000 Zn
   0.7140100000000000    0.3725600000000000    0.6852400000000000 Zn
   0.7140200000000000    0.8725600000000000    0.6852400000000000 Zn
   0.3086800000000000    0.3798000000000000    0.5956049999999999 Zn
   0.3086900000000000    0.8798100000000000    0.5956049999999999 Zn
   0.8086700000000000    0.3798000000000000    0.5956049999999999 Zn
   0.8086800000000000    0.8798100000000000    0.5956100000000000 Zn
   0.0359500000000000    0.1225600000000000    0.9351700000000001 Zn
   0.0359600000000000    0.6225700000000000    0.9351650000000000 Zn
   0.5359400000000000    0.1225600000000000    0.9351700000000001 Zn
   0.5359500000000000    0.6225700000000000    0.9351700000000001 Zn
   0.4413000000000000    0.1298100000000000    0.8455550000000001 Zn
   0.4413000000000000    0.6298200000000000    0.8455550000000001 Zn
   0.9412900000000000    0.1298100000000000    0.8455550000000001 Zn
   0.9412900000000000    0.6298200000000000    0.8455550000000001 Zn
   0.2859700000000000    0.1274600000000000    0.8147400000000000 Zn
   0.2859700000000000    0.6274600000000000    0.8147350000000000 Zn
   0.7859600000000000    0.1274600000000000    0.8147400000000000 Zn
   0.7859600000000000    0.6274700000000000    0.8147400000000000 Zn
   0.1913100000000000    0.1202100000000000    0.9043700000000000 Zn
   0.1913100000000000    0.6202200000000000    0.9043700000000000 Zn
   0.6913000000000000    0.1202100000000000    0.9043749999999999 Zn
   0.6913000000000000    0.6202200000000000    0.9043749999999999 Zn
   0.0000000000000000    0.2500000000000000    0.5000000000000000 Zn
   0.4640400000000000    0.3774500000000000    0.5648100000000000 Zn
   0.0000100000000000    0.7500100000000000    0.9999950000000000 Zn
   0.4999900000000000    0.2500000000000000    0.5000000000000000 Zn
   0.5000000000000000    0.7500100000000000    0.5000000000000000 Zn
   0.2499900000000000    0.0000000000000000    0.7499850000000000 Zn
   0.2500000000000000    0.5000100000000000    0.7499850000000000 Zn
   0.7499800000000000    0.0000000000000000    0.7499850000000000 Zn
   0.7499900000000000    0.5000100000000000    0.7499899999999999 Zn
   0.0000000000000000    0.0000000000000000    0.5000000000000000 Zn
   0.0000100000000000    0.5000100000000000    0.9999950000000000 Zn
   0.4999900000000000    0.0000000000000000    0.9999950000000000 Zn
   0.4999900000000000    0.5000100000000000    0.5000000000000000 Zn
   0.2500000000000000    0.2500100000000000    0.7499899999999999 Zn
   0.2500000000000000    0.7500100000000000    0.7499899999999999 Zn
   0.7499800000000000    0.2500000000000000    0.7499899999999999 Zn
   0.7499900000000000    0.7500100000000000    0.7499899999999999 Zn
   0.3787800000000000    0.4283200000000000    0.1856600000000000 H
   0.3787800000000000    0.9283100000000000    0.1856600000000000 H
   0.8787700000000001    0.4282900000000000    0.1856650000000000 H
   0.8787700000000001    0.9283000000000000    0.1856650000000000 H
   0.0250300000000000    0.2372200000000000    0.1351350000000000 H
   0.0249900000000000    0.7372300000000001    0.1351400000000000 H
   0.5250000000000000    0.2372300000000000    0.1351450000000000 H
   0.5250400000000000    0.7372300000000001    0.1351300000000000 H
   0.3048000000000000    0.2810200000000000    0.0222750000000000 H
   0.3048100000000000    0.7810300000000000    0.0222650000000000 H
   0.8047900000000000    0.2810200000000000    0.0222900000000000 H
   0.8047900000000000    0.7810100000000000    0.0223100000000000 H
   0.1027200000000000    0.4908200000000000    0.1165500000000000 H
   0.1027100000000000    0.9908400000000001    0.1165700000000000 H
   0.6027400000000001    0.4908100000000000    0.1165500000000000 H
   0.6027500000000000    0.9908200000000000    0.1165450000000000 H
   0.0808400000000000    0.3453000000000000    0.4597750000000000 H
   0.0808000000000000    0.8453100000000000    0.4597400000000000 H
   0.5808300000000000    0.3453000000000000    0.4597750000000000 H
   0.5808600000000000    0.8453100000000000    0.4597800000000000 H
   0.3540600000000000    0.0014400000000000    0.0061100000000000 H
   0.3540600000000000    0.5014300000000000    0.0061000000000000 H
   0.8540500000000000    0.0014200000000000    0.0061000000000000 H
   0.8540500000000000    0.5014300000000000    0.0060950000000000 H
   0.1288200000000000    0.3218500000000000    0.0643500000000000 H
   0.1288200000000000    0.8218800000000001    0.0643750000000000 H
   0.6288100000000000    0.3218600000000000    0.0643800000000000 H
   0.6288200000000000    0.8218600000000000    0.0643750000000000 H
   0.2751200000000000    0.0127700000000000    0.1149150000000000 H
   0.2750500000000000    0.5127800000000000    0.1149000000000000 H
   0.7750400000000000    0.0127700000000000    0.1149050000000000 H
   0.7751200000000000    0.5127800000000000    0.1149200000000000 H
   0.0547600000000000    0.4690500000000000    0.2280250000000000 H
   0.0547700000000000    0.9690700000000000    0.2280250000000000 H
   0.5547500000000000    0.4690700000000000    0.2280200000000000 H
   0.5547600000000000    0.9690800000000001    0.2280050000000000 H
   0.3528400000000000    0.2591700000000000    0.1334250000000000 H
   0.3528300000000000    0.7591700000000000    0.1334150000000000 H
   0.8528100000000000    0.2591600000000000    0.1334200000000000 H
   0.8528400000000000    0.7591800000000000    0.1334300000000000 H
   0.3310000000000000    0.4046300000000000    0.2900800000000000 H
   0.3310100000000000    0.9046400000000000    0.2900800000000000 H
   0.8309700000000000    0.4046300000000000    0.2901000000000000 H
   0.8309900000000000    0.9046400000000000    0.2900900000000000 H
   0.1041400000000000    0.2485000000000000    0.2438550000000000 H
   0.1041400000000000    0.7485000000000001    0.2438500000000000 H
   0.6041299999999999    0.2484900000000000    0.2438500000000000 H
   0.6041299999999999    0.7485100000000000    0.2438500000000000 H
   0.1212100000000000    0.0717200000000000    0.3143150000000000 H
   0.1212100000000000    0.5717200000000000    0.3143100000000000 H
   0.6212000000000000    0.0717200000000000    0.3143000000000000 H
   0.6212100000000000    0.5717400000000000    0.3143150000000000 H
   0.4749100000000000    0.2627900000000000    0.3648600000000000 H
   0.4749500000000000    0.7628000000000000    0.3648500000000000 H
   0.9748900000000000    0.2627900000000000    0.3648600000000000 H
   0.9749100000000001    0.7627900000000000    0.3645000000000000 H
   0.1951900000000000    0.2190100000000000    0.4776900000000000 H
   0.1952000000000000    0.7190000000000000    0.4776800000000000 H
   0.6951800000000000    0.2189800000000000    0.4777250000000000 H
   0.6951900000000000    0.7190000000000000    0.4777100000000000 H
   0.3973000000000000    0.0091800000000000    0.3833950000000000 H
   0.3972600000000000    0.5092000000000000    0.3834200000000000 H
   0.8972400000000000    0.0092000000000000    0.3834250000000000 H
   0.8972599999999999    0.5092000000000000    0.3834150000000000 H
   0.4191800000000000    0.1547100000000000    0.0402300000000000 H
   0.4191500000000000    0.6547200000000000    0.0402100000000000 H
   0.9191200000000000    0.1547100000000000    0.0402000000000000 H
   0.9191300000000000    0.6547200000000000    0.0401950000000000 H
   0.1459300000000000    0.4985900000000000    0.4938800000000000 H
   0.1459400000000000    0.9985900000000000    0.4938750000000000 H
   0.6459200000000000    0.4985900000000000    0.4938800000000000 H
   0.6459300000000000    0.9985900000000000    0.4938500000000000 H
   0.3711700000000000    0.1781400000000000    0.4356000000000000 H
   0.3711700000000000    0.6781600000000000    0.4356000000000000 H
   0.8711600000000000    0.1781500000000000    0.4356000000000000 H
   0.8711600000000000    0.6781600000000000    0.4356000000000000 H
   0.2248500000000000    0.4872300000000000    0.3850450000000000 H
   0.2248800000000000    0.9872400000000000    0.3850500000000000 H
   0.7248800000000000    0.4872400000000000    0.3850600000000000 H
   0.7248700000000000    0.9872400000000000    0.3850550000000000 H
   0.4452300000000000    0.0310000000000000    0.2719050000000000 H
   0.4452300000000000    0.5309500000000000    0.2719550000000000 H
   0.9452199999999999    0.0309400000000000    0.2719600000000000 H
   0.9452199999999999    0.5309500000000000    0.2719600000000000 H
   0.1471800000000000    0.2408500000000000    0.3665650000000000 H
   0.1471400000000000    0.7408400000000001    0.3665450000000000 H
   0.6471300000000000    0.2408400000000000    0.3665500000000000 H
   0.6471500000000000    0.7408500000000000    0.3665550000000000 H
   0.1689900000000000    0.0953900000000000    0.2098900000000000 H
   0.1690000000000000    0.5953900000000000    0.2098900000000000 H
   0.6689800000000000    0.0953800000000000    0.2098950000000000 H
   0.6690000000000000    0.5953900000000000    0.2098800000000000 H
   0.3958500000000000    0.2515100000000000    0.2561250000000000 H
   0.3958600000000000    0.7515200000000000    0.2561250000000000 H
   0.8958400000000000    0.2515100000000000    0.2561200000000000 H
   0.8958500000000000    0.7515300000000000    0.2561300000000000 H
   0.3787800000000000    0.4283200000000000    0.6856599999999999 H
   0.3787800000000000    0.9283100000000000    0.6856599999999999 H
   0.8787700000000001    0.4282900000000000    0.6856650000000000 H
   0.8787700000000001    0.9283000000000000    0.6856650000000000 H
   0.0250300000000000    0.2372200000000000    0.6351350000000000 H
   0.0249900000000000    0.7372300000000001    0.6351400000000000 H
   0.5250000000000000    0.2372300000000000    0.6351450000000000 H
   0.5250400000000000    0.7372300000000001    0.6351300000000000 H
   0.3048000000000000    0.2810200000000000    0.5222750000000000 H
   0.3048100000000000    0.7810300000000000    0.5222650000000000 H
   0.8047900000000000    0.2810200000000000    0.5222900000000000 H
   0.8047900000000000    0.7810100000000000    0.5223100000000001 H
   0.1027200000000000    0.4908200000000000    0.6165500000000000 H
   0.1027100000000000    0.9908400000000001    0.6165700000000000 H
   0.6027400000000001    0.4908100000000000    0.6165500000000000 H
   0.6027500000000000    0.9908200000000000    0.6165450000000000 H
   0.0808400000000000    0.3453000000000000    0.9597750000000000 H
   0.0808000000000000    0.8453100000000000    0.9597400000000000 H
   0.5808300000000000    0.3453000000000000    0.9597750000000000 H
   0.5808600000000000    0.8453100000000000    0.9597800000000001 H
   0.3540600000000000    0.0014400000000000    0.5061099999999999 H
   0.3540600000000000    0.5014300000000000    0.5061000000000000 H
   0.8540500000000000    0.0014200000000000    0.5061000000000000 H
   0.8540500000000000    0.5014300000000000    0.5060950000000000 H
   0.1288200000000000    0.3218500000000000    0.5643500000000000 H
   0.1288200000000000    0.8218800000000001    0.5643750000000000 H
   0.6288100000000000    0.3218600000000000    0.5643800000000000 H
   0.6288200000000000    0.8218600000000000    0.5643750000000000 H
   0.2751200000000000    0.0127700000000000    0.6149150000000000 H
   0.2750500000000000    0.5127800000000000    0.6149000000000000 H
   0.7750400000000000    0.0127700000000000    0.6149050000000000 H
   0.7751200000000000    0.5127800000000000    0.6149200000000000 H
   0.0547600000000000    0.4690500000000000    0.7280250000000000 H
   0.0547700000000000    0.9690700000000000    0.7280250000000000 H
   0.5547500000000000    0.4690700000000000    0.7280200000000000 H
   0.5547600000000000    0.9690800000000001    0.7280050000000000 H
   0.3528400000000000    0.2591700000000000    0.6334250000000000 H
   0.3528300000000000    0.7591700000000000    0.6334150000000001 H
   0.8528100000000000    0.2591600000000000    0.6334200000000000 H
   0.8528400000000000    0.7591800000000000    0.6334299999999999 H
   0.3310000000000000    0.4046300000000000    0.7900800000000000 H
   0.3310100000000000    0.9046400000000000    0.7900800000000000 H
   0.8309700000000000    0.4046300000000000    0.7901000000000000 H
   0.8309900000000000    0.9046400000000000    0.7900900000000000 H
   0.1041400000000000    0.2485000000000000    0.7438549999999999 H
   0.1041400000000000    0.7485000000000001    0.7438500000000000 H
   0.6041299999999999    0.2484900000000000    0.7438500000000000 H
   0.6041299999999999    0.7485100000000000    0.7438500000000000 H
   0.1212100000000000    0.0717200000000000    0.8143150000000000 H
   0.1212100000000000    0.5717200000000000    0.8143100000000000 H
   0.6212000000000000    0.0717200000000000    0.8143000000000000 H
   0.6212100000000000    0.5717400000000000    0.8143150000000000 H
   0.4749100000000000    0.2627900000000000    0.8648600000000000 H
   0.4749500000000000    0.7628000000000000    0.8648500000000000 H
   0.9748900000000000    0.2627900000000000    0.8648600000000000 H
   0.9749100000000001    0.7627900000000000    0.8645000000000000 H
   0.1951900000000000    0.2190100000000000    0.9776899999999999 H
   0.1952000000000000    0.7190000000000000    0.9776800000000000 H
   0.6951800000000000    0.2189800000000000    0.9777250000000000 H
   0.6951900000000000    0.7190000000000000    0.9777100000000001 H
   0.3973000000000000    0.0091800000000000    0.8833949999999999 H
   0.3972600000000000    0.5092000000000000    0.8834200000000000 H
   0.8972400000000000    0.0092000000000000    0.8834250000000000 H
   0.8972599999999999    0.5092000000000000    0.8834150000000001 H
   0.4191800000000000    0.1547100000000000    0.5402300000000000 H
   0.9191200000000000    0.1547100000000000    0.5402000000000000 H
   0.9191300000000000    0.6547200000000000    0.5401950000000000 H
   0.1459300000000000    0.4985900000000000    0.9938800000000000 H
   0.1459400000000000    0.9985900000000000    0.9938750000000001 H
   0.6459200000000000    0.4985900000000000    0.9938800000000000 H
   0.6459300000000000    0.9985900000000000    0.9938500000000000 H
   0.3711700000000000    0.1781400000000000    0.9356000000000000 H
   0.3711700000000000    0.6781600000000000    0.9356000000000000 H
   0.8711600000000000    0.1781500000000000    0.9356000000000000 H
   0.8711600000000000    0.6781600000000000    0.9356000000000000 H
   0.2248500000000000    0.4872300000000000    0.8850450000000001 H
   0.2248800000000000    0.9872400000000000    0.8850500000000000 H
   0.7248800000000000    0.4872400000000000    0.8850600000000000 H
   0.7248700000000000    0.9872400000000000    0.8850549999999999 H
   0.4452300000000000    0.0310000000000000    0.7719050000000001 H
   0.4452300000000000    0.5309500000000000    0.7719549999999999 H
   0.9452199999999999    0.0309400000000000    0.7719600000000000 H
   0.9452199999999999    0.5309500000000000    0.7719600000000000 H
   0.1471800000000000    0.2408500000000000    0.8665650000000000 H
   0.1471400000000000    0.7408400000000001    0.8665450000000000 H
   0.6471300000000000    0.2408400000000000    0.8665499999999999 H
   0.6471500000000000    0.7408500000000000    0.8665550000000000 H
   0.1689900000000000    0.0953900000000000    0.7098900000000000 H
   0.1690000000000000    0.5953900000000000    0.7098900000000000 H
   0.6689800000000000    0.0953800000000000    0.7098949999999999 H
   0.6690000000000000    0.5953900000000000    0.7098800000000001 H
   0.3958500000000000    0.2515100000000000    0.7561249999999999 H
   0.3958600000000000    0.7515200000000000    0.7561249999999999 H
   0.8958400000000000    0.2515100000000000    0.7561200000000000 H
   0.8958500000000000    0.7515300000000000    0.7561300000000000 H
   0.9879700000000000    0.7402700000000000    0.3960800000000000 C
   0.1413700000000000    0.2115700000000000    0.4744000000000000 C
   0.1413700000000000    0.7115800000000000    0.4744050000000000 C
   0.6413500000000000    0.2115500000000000    0.4744400000000000 C
   0.4195300000000000    0.4121600000000000    0.1641500000000000 C
   0.4195300000000000    0.9121600000000000    0.1641450000000000 C
   0.9195200000000000    0.4121500000000000    0.1641500000000000 C
   0.9195300000000000    0.9121600000000000    0.1641550000000000 C
   0.0120000000000000    0.2597500000000000    0.1039000000000000 C
   0.0119800000000000    0.7597600000000000    0.1039000000000000 C
   0.5119700000000000    0.2597500000000000    0.1039100000000000 C
   0.5119899999999999    0.7597600000000000    0.1039000000000000 C
   0.3586300000000000    0.2884500000000000    0.0255550000000000 C
   0.3586300000000000    0.7884600000000000    0.0255400000000000 C
   0.8586100000000000    0.2884500000000000    0.0255600000000000 C
   0.8586200000000000    0.7884400000000000    0.0255800000000000 C
   0.0668100000000000    0.4761300000000000    0.0906600000000000 C
   0.0668100000000000    0.9761400000000000    0.0906650000000000 C
   0.5668100000000000    0.4761300000000000    0.0906550000000000 C
   0.5668200000000000    0.9761300000000001    0.0906550000000000 C
   0.0507800000000000    0.3718000000000000    0.4832500000000000 C
   0.0507500000000000    0.8718100000000000    0.4832350000000000 C
   0.5507700000000000    0.3718000000000000    0.4832600000000000 C
   0.5507800000000000    0.8718100000000000    0.4832600000000000 C
   0.3630900000000000    0.4650400000000000    0.0286650000000000 C
   0.3631000000000000    0.9650600000000000    0.0286500000000000 C
   0.8630800000000000    0.4650400000000000    0.0286600000000000 C
   0.8630800000000000    0.9650400000000000    0.0286650000000000 C
   0.1695600000000000    0.3379400000000000    0.0858500000000000 C
   0.1695700000000000    0.8379600000000000    0.0858500000000000 C
   0.6695500000000000    0.3379400000000000    0.0858800000000000 C
   0.6695600000000000    0.8379500000000000    0.0858500000000000 C
   0.2619000000000000    0.4902600000000000    0.1461150000000000 C
   0.2619300000000000    0.9902700000000000    0.1461200000000000 C
   0.7619200000000000    0.4902600000000000    0.1461250000000000 C
   0.7619100000000000    0.9902700000000000    0.1461200000000000 C
   0.1085800000000000    0.4615000000000000    0.2247000000000000 C
   0.1085800000000000    0.9615200000000000    0.2247000000000000 C
   0.6085700000000001    0.4615100000000000    0.2247000000000000 C
   0.6085700000000001    0.9615300000000000    0.2246850000000000 C
   0.3168700000000000    0.2738600000000000    0.1593250000000000 C
   0.3168700000000000    0.7738699999999999    0.1593000000000000 C
   0.8168600000000000    0.2738600000000000    0.1593250000000000 C
   0.8168800000000001    0.7738699999999999    0.1593300000000000 C
   0.3008400000000000    0.3781700000000000    0.2666700000000000 C
   0.3008500000000000    0.8781700000000000    0.2666700000000000 C
   0.8008200000000000    0.3781600000000000    0.2666800000000000 C
   0.8008300000000000    0.8781700000000000    0.2666800000000000 C
   0.1131200000000000    0.2849100000000000    0.2213100000000000 C
   0.1131200000000000    0.7849200000000000    0.2213050000000000 C
   0.6131100000000000    0.2849100000000000    0.2213100000000000 C
   0.6131100000000000    0.7849200000000000    0.2213100000000000 C
   0.0804600000000000    0.0878600000000000    0.3358000000000000 C
   0.0804600000000000    0.5878700000000000    0.3358250000000000 C
   0.5804500000000000    0.0878600000000000    0.3358300000000000 C
   0.5804600000000000    0.5878700000000000    0.3358300000000000 C
   0.4879800000000000    0.2402600000000000    0.3960500000000000 C
   0.4880000000000000    0.7402700000000000    0.3960800000000000 C
   0.9879500000000000    0.2402600000000000    0.3960900000000000 C
   0.6413600000000000    0.7115700000000000    0.4744350000000000 C
   0.4332000000000000    0.0238700000000000    0.4093050000000000 C
   0.4331800000000000    0.5238900000000000    0.4093200000000000 C
   0.9331700000000001    0.0238800000000000    0.4093200000000000 C
   0.9331800000000000    0.5238900000000000    0.4093150000000000 C
   0.4492200000000000    0.1282100000000000    0.0167300000000000 C
   0.4492200000000000    0.6282200000000000    0.0167000000000000 C
   0.9492000000000000    0.1282100000000000    0.0167200000000000 C
   0.9492000000000000    0.6282200000000000    0.0167150000000000 C
   0.1369000000000000    0.0349700000000000    0.4713150000000000 C
   0.1369100000000000    0.5349800000000000    0.4713150000000000 C
   0.6368900000000000    0.0349700000000000    0.4713150000000000 C
   0.6369000000000000    0.5349800000000000    0.4713150000000000 C
   0.3304300000000000    0.1620600000000000    0.4141000000000000 C
   0.3304300000000000    0.6620700000000000    0.4141000000000000 C
   0.8304200000000000    0.1620600000000000    0.4141000000000000 C
   0.8304200000000000    0.6620700000000000    0.4141000000000000 C
   0.2380600000000000    0.0097400000000000    0.3538450000000000 C
   0.2380500000000000    0.5097500000000000    0.3538400000000000 C
   0.7380500000000000    0.0097400000000000    0.3538500000000000 C
   0.7380600000000000    0.5097500000000000    0.3538550000000000 C
   0.3914100000000000    0.0385300000000000    0.2752550000000000 C
   0.3914200000000000    0.5385100000000000    0.2752750000000000 C
   0.8914000000000000    0.0385000000000000    0.2752800000000000 C
   0.8914000000000000    0.5385100000000000    0.2752800000000000 C
   0.1831200000000000    0.2261500000000000    0.3406550000000000 C
   0.1831100000000000    0.7261500000000000    0.3406000000000000 C
   0.6830900000000000    0.2261400000000000    0.3406450000000000 C
   0.6831000000000000    0.7261500000000000    0.3406450000000000 C
   0.1991500000000000    0.1218500000000000    0.2333000000000000 C
   0.1991600000000000    0.6218600000000000    0.2333000000000000 C
   0.6991400000000000    0.1218500000000000    0.2333050000000000 C
   0.6991600000000000    0.6218600000000000    0.2332950000000000 C
   0.3868700000000000    0.2151000000000000    0.2786500000000000 C
   0.3868800000000000    0.7151100000000000    0.2786700000000000 C
   0.8868600000000000    0.2151000000000000    0.2786700000000000 C
   0.8868700000000000    0.7151100000000000    0.2786700000000000 C
   0.9879700000000000    0.7402700000000000    0.8960800000000000 C
   0.1413700000000000    0.2115700000000000    0.9743999999999999 C
   0.1413700000000000    0.7115800000000000    0.9744050000000000 C
   0.6413500000000000    0.2115500000000000    0.9744400000000000 C
   0.4195300000000000    0.4121600000000000    0.6641500000000000 C
   0.4195300000000000    0.9121600000000000    0.6641450000000000 C
   0.9195200000000000    0.4121500000000000    0.6641500000000000 C
   0.9195300000000000    0.9121600000000000    0.6641550000000001 C
   0.0120000000000000    0.2597500000000000    0.6039000000000000 C
   0.0119800000000000    0.7597600000000000    0.6039000000000000 C
   0.5119700000000000    0.2597500000000000    0.6039099999999999 C
   0.5119899999999999    0.7597600000000000    0.6039000000000000 C
   0.3586300000000000    0.2884500000000000    0.5255550000000000 C
   0.3586300000000000    0.7884600000000000    0.5255400000000000 C
   0.8586100000000000    0.2884500000000000    0.5255600000000000 C
   0.8586200000000000    0.7884400000000000    0.5255800000000000 C
   0.0668100000000000    0.4761300000000000    0.5906600000000000 C
   0.0668100000000000    0.9761400000000000    0.5906650000000000 C
   0.5668100000000000    0.4761300000000000    0.5906550000000000 C
   0.5668200000000000    0.9761300000000001    0.5906550000000000 C
   0.0507800000000000    0.3718000000000000    0.9832500000000000 C
   0.0507500000000000    0.8718100000000000    0.9832350000000001 C
   0.5507700000000000    0.3718000000000000    0.9832600000000000 C
   0.5507800000000000    0.8718100000000000    0.9832600000000000 C
   0.3630900000000000    0.4650400000000000    0.5286650000000001 C
   0.3631000000000000    0.9650600000000000    0.5286500000000000 C
   0.8630800000000000    0.4650400000000000    0.5286600000000000 C
   0.8630800000000000    0.9650400000000000    0.5286650000000001 C
   0.1695600000000000    0.3379400000000000    0.5858500000000000 C
   0.1695700000000000    0.8379600000000000    0.5858500000000000 C
   0.6695500000000000    0.3379400000000000    0.5858800000000000 C
   0.6695600000000000    0.8379500000000000    0.5858500000000000 C
   0.2619000000000000    0.4902600000000000    0.6461150000000000 C
   0.2619300000000000    0.9902700000000000    0.6461200000000000 C
   0.7619200000000000    0.4902600000000000    0.6461250000000001 C
   0.7619100000000000    0.9902700000000000    0.6461200000000000 C
   0.1085800000000000    0.4615000000000000    0.7247000000000000 C
   0.1085800000000000    0.9615200000000000    0.7247000000000000 C
   0.6085700000000001    0.4615100000000000    0.7247000000000000 C
   0.6085700000000001    0.9615300000000000    0.7246850000000000 C
   0.3168700000000000    0.2738600000000000    0.6593249999999999 C
   0.3168700000000000    0.7738699999999999    0.6593000000000000 C
   0.8168600000000000    0.2738600000000000    0.6593249999999999 C
   0.8168800000000001    0.7738699999999999    0.6593300000000000 C
   0.3008400000000000    0.3781700000000000    0.7666700000000000 C
   0.3008500000000000    0.8781700000000000    0.7666700000000000 C
   0.8008200000000000    0.3781600000000000    0.7666800000000000 C
   0.8008300000000000    0.8781700000000000    0.7666800000000000 C
   0.1131200000000000    0.2849100000000000    0.7213100000000000 C
   0.1131200000000000    0.7849200000000000    0.7213050000000000 C
   0.6131100000000000    0.2849100000000000    0.7213100000000000 C
   0.6131100000000000    0.7849200000000000    0.7213100000000000 C
   0.0804600000000000    0.0878600000000000    0.8358000000000000 C