H6 O4
1.0
  24.6611206442229616    0.0000000000000000   -6.7756736617903934
  -0.0825326939154021   38.3094437830532186    0.1892231157129573
   0.0000000000000000    0.0000000000000000   17.7149999999999999
H O
6 4
direct
   0.3456284144976892    0.2885449510987591    0.3711081047262897 H
   0.4561667664215164    0.2174786841258987    0.3736752491533761 H
   0.4065068549703640    0.2558723764211416    0.3803105608786900 H
   0.5715293509695567    0.3623716529108152    0.6804804805739224 H
   0.5889577155261895    0.3039004941440533    0.7259565616606013 H
   0.6041868868194485    0.4133796825659256    0.7504753984815837 H
   0.3545400000000000    0.2663633333333333    0.3515000000000000 O
   0.4189100000000000    0.2250000000000000    0.3530200000000000 O
   0.5665500000000000    0.3374833333333333    0.6714300000000000 O
   0.5777700000000000    0.2813400000000000    0.7024600000000000 O
