C8 O4 F4
1.0
  24.6611206442229616    0.0000000000000000   -6.7756736617903934
  -0.0825326939154021   38.3094437830532186    0.1892231157129573
   0.0000000000000000    0.0000000000000000   17.7149999999999999
C O F
8 4 4
direct
   0.4389400000000000    0.2693366666666667    0.4465200000000000 C
   0.4223000000000000    0.2768766666666667    0.5137000000000000 C
   0.4591500000000000    0.2890366666666667    0.5811900000000000 C
   0.5129600000000000    0.2955800000000000    0.5822600000000000 C
   0.5290200000000000    0.2895166666666666    0.5140300000000000 C
   0.4930300000000000    0.2758566666666666    0.4477000000000000 C
   0.4008700000000000    0.2524200000000000    0.3773000000000000 C
   0.5539500000000001    0.3067400000000000    0.6554500000000000 C
   0.5777700000000000    0.2813400000000000    0.7024600000000000 O
   0.4189100000000000    0.2250000000000000    0.3530200000000000 O
   0.3545400000000000    0.2663633333333333    0.3515000000000000 O
   0.5665500000000000    0.3374833333333333    0.6714300000000000 O
   0.3708600000000000    0.2710500000000000    0.5157500000000000 F
   0.4424900000000000    0.2934233333333333    0.6467800000000000 F
   0.5805100000000000    0.2962966666666667    0.5126600000000000 F
   0.5110900000000000    0.2696000000000000    0.3844800000000000 F
