Zn32 H192 C300 O158
1.0
  26.5156954339779389    0.0000000000000000    1.2680739933148257
  -0.2324132518546174   12.9797903730025084    5.7468108506608893
   0.0000000000000000    0.0000000000000000   34.5700000000000003
Zn H C O
32 192 300 158
direct
   0.8905149999999999    0.5886300000000000    0.0822600000000000 Zn
   0.8905149999999999    0.5886300000000000    0.5822600000000000 Zn
   0.1332950000000000    0.8436200000000000    0.6957250000000000 Zn
   0.1332950000000000    0.8436200000000000    0.1957250000000000 Zn
   0.3905150000000000    0.5886300000000000    0.0822600000000000 Zn
   0.3905150000000000    0.5886300000000000    0.5822600000000000 Zn
   0.6332949999999999    0.8436200000000000    0.6957250000000000 Zn
   0.6332949999999999    0.8436200000000000    0.1957250000000000 Zn
   0.2022850000000000    0.9843499999999999    0.1290200000000000 Zn
   0.2022850000000000    0.9843499999999999    0.6290200000000000 Zn
   0.7022850000000000    0.9843499999999999    0.1290200000000000 Zn
   0.7022850000000000    0.9843499999999999    0.6290200000000000 Zn
   0.4489150000000000    0.4437800000000000    0.6471450000000000 Zn
   0.9489150000000000    0.4437800000000000    0.6471450000000000 Zn
   0.4489150000000000    0.4437800000000000    0.1471450000000000 Zn
   0.9489150000000000    0.4437800000000000    0.1471450000000000 Zn
   0.7977850000000000    0.0155800000000000    0.3716650000000000 Zn
   0.1108900000000000    0.4112800000000000    0.4179400000000000 Zn
   0.1108900000000000    0.4112800000000000    0.9179400000000000 Zn
   0.8668000000000000    0.1561300000000000    0.3048400000000000 Zn
   0.8668000000000000    0.1561300000000000    0.8048400000000000 Zn
   0.6108900000000000    0.4112800000000000    0.4179400000000000 Zn
   0.6108900000000000    0.4112800000000000    0.9179400000000000 Zn
   0.3668000000000000    0.1561300000000000    0.3048400000000000 Zn
   0.3668000000000000    0.1561300000000000    0.8048400000000000 Zn
   0.7977850000000000    0.0155800000000000    0.8716650000000000 Zn
   0.2977850000000000    0.0155800000000000    0.8716650000000000 Zn
   0.2977850000000000    0.0155800000000000    0.3716650000000000 Zn
   0.5510349999999999    0.5561300000000000    0.3530400000000000 Zn
   0.0510350000000000    0.5561300000000000    0.3530400000000000 Zn
   0.5510349999999999    0.5561300000000000    0.8530400000000000 Zn
   0.0510350000000000    0.5561300000000000    0.8530400000000000 Zn
   0.8513900000000000    0.3724500000000000    0.8158950000000000 H
   0.8891100000000001    0.4809300000000000    0.8114850000000000 H
   0.7460599999999999    0.6402700000000000    0.7790450000000000 H
   0.7843200000000000    0.7005100000000000    0.6482500000000000 H
   0.8642050000000000    0.4702200000000000    0.7471850000000000 H
   0.8252500000000000    0.3383100000000000    0.8915550000000000 H
   0.9122000000000000    0.4964100000000000    0.8733800000000000 H
   0.9271650000000000    0.3954500000000000    0.9473549999999999 H
   0.8741800000000000    0.4736700000000000    0.9452900000000000 H
   0.8340000000000001    0.2089300000000000    0.1282750000000000 H
   0.8996050000000000    0.4166100000000000    0.0074650000000000 H
   0.8017799999999999    0.1667600000000000    0.0152000000000000 H
   0.8513900000000000    0.3724500000000000    0.3158950000000000 H
   0.8891100000000001    0.4809300000000000    0.3114850000000000 H
   0.7460599999999999    0.6402700000000000    0.2790450000000000 H
   0.7843200000000000    0.7005100000000000    0.1482500000000000 H
   0.8642050000000000    0.4702200000000000    0.2471850000000000 H
   0.8252500000000000    0.3383100000000000    0.3915550000000000 H
   0.9122000000000000    0.4964100000000000    0.3733800000000000 H
   0.9271650000000000    0.3954500000000000    0.4473550000000000 H
   0.8741800000000000    0.4736700000000000    0.4452900000000000 H
   0.8340000000000001    0.2089300000000000    0.6282750000000000 H
   0.8996050000000000    0.4166100000000000    0.5074650000000001 H
   0.8017799999999999    0.1667600000000000    0.5152000000000000 H
   0.1020850000000000    0.2838000000000000    0.8127750000000000 H
   0.0521600000000000    0.1895200000000000    0.8267000000000000 H
   0.0760250000000000    0.2151500000000000    0.6476600000000000 H
   0.1501000000000000    0.0449500000000000    0.7641150000000000 H
   0.0524450000000000    0.2957400000000000    0.7543700000000000 H
   0.0382050000000000    0.1103700000000000    0.9009250000000000 H
   0.1515550000000000    0.1459900000000000    0.8743000000000001 H
   0.1341500000000000    0.0391100000000000    0.9519350000000000 H
   0.0829150000000000    0.1004100000000000    0.9681150000000001 H
   0.1170850000000000    0.9807200000000000    0.0302400000000000 H
   0.0000000000000000    0.8124300000000000    0.9990300000000000 H
   0.0401900000000000    0.7221100000000000    0.1290500000000000 H
   0.1020850000000000    0.2838000000000000    0.3127750000000000 H
   0.0521600000000000    0.1895200000000000    0.3267000000000000 H
   0.0760250000000000    0.2151500000000000    0.1476600000000000 H
   0.1501000000000000    0.0449500000000000    0.2641150000000000 H
   0.0524450000000000    0.2957400000000000    0.2543700000000000 H
   0.0382050000000000    0.1103700000000000    0.4009250000000000 H
   0.1515550000000000    0.1459900000000000    0.3743000000000000 H
   0.1341500000000000    0.0391100000000000    0.4519350000000000 H
   0.0829150000000000    0.1004100000000000    0.4681150000000000 H
   0.1170850000000000    0.9807200000000000    0.5302400000000000 H
   0.0000000000000000    0.8124300000000000    0.4990300000000000 H
   0.0401900000000000    0.7221100000000000    0.6290500000000000 H
   0.3513900000000000    0.3724500000000000    0.8158950000000000 H
   0.3891100000000000    0.4809300000000000    0.8114850000000000 H
   0.2460600000000000    0.6402700000000000    0.7790450000000000 H
   0.2843200000000000    0.7005100000000000    0.6482500000000000 H
   0.3642050000000000    0.4702200000000000    0.7471850000000000 H
   0.3252500000000000    0.3383100000000000    0.8915550000000000 H
   0.4122000000000000    0.4964100000000000    0.8733800000000000 H
   0.4271650000000000    0.3954500000000000    0.9473549999999999 H
   0.3741800000000000    0.4736700000000000    0.9452900000000000 H
   0.3340000000000000    0.2089300000000000    0.1282750000000000 H
   0.3996050000000000    0.4166100000000000    0.0074650000000000 H
   0.3017800000000000    0.1667600000000000    0.0152000000000000 H
   0.3513900000000000    0.3724500000000000    0.3158950000000000 H
   0.3891100000000000    0.4809300000000000    0.3114850000000000 H
   0.2460600000000000    0.6402700000000000    0.2790450000000000 H
   0.2843200000000000    0.7005100000000000    0.1482500000000000 H
   0.3642050000000000    0.4702200000000000    0.2471850000000000 H
   0.3252500000000000    0.3383100000000000    0.3915550000000000 H
   0.4122000000000000    0.4964100000000000    0.3733800000000000 H
   0.4271650000000000    0.3954500000000000    0.4473550000000000 H
   0.3741800000000000    0.4736700000000000    0.4452900000000000 H
   0.3340000000000000    0.2089300000000000    0.6282750000000000 H
   0.3996050000000000    0.4166100000000000    0.5074650000000001 H
   0.3017800000000000    0.1667600000000000    0.5152000000000000 H
   0.6020850000000000    0.2838000000000000    0.8127750000000000 H
   0.5521600000000000    0.1895200000000000    0.8267000000000000 H
   0.5760250000000000    0.2151500000000000    0.6476600000000000 H
   0.6501000000000000    0.0449500000000000    0.7641150000000000 H
   0.5524450000000000    0.2957400000000000    0.7543700000000000 H
   0.5382050000000000    0.1103700000000000    0.9009250000000000 H
   0.6515550000000000    0.1459900000000000    0.8743000000000001 H
   0.6341500000000000    0.0391100000000000    0.9519350000000000 H
   0.5829150000000000    0.1004100000000000    0.9681150000000001 H
   0.6170850000000000    0.9807200000000000    0.0302400000000000 H
   0.5000000000000000    0.8124300000000000    0.9990300000000000 H
   0.5401899999999999    0.7221100000000000    0.1290500000000000 H
   0.6020850000000000    0.2838000000000000    0.3127750000000000 H
   0.5521600000000000    0.1895200000000000    0.3267000000000000 H
   0.5760250000000000    0.2151500000000000    0.1476600000000000 H
   0.6501000000000000    0.0449500000000000    0.2641150000000000 H
   0.5524450000000000    0.2957400000000000    0.2543700000000000 H
   0.5382050000000000    0.1103700000000000    0.4009250000000000 H
   0.6515550000000000    0.1459900000000000    0.3743000000000000 H
   0.6341500000000000    0.0391100000000000    0.4519350000000000 H
   0.5829150000000000    0.1004100000000000    0.4681150000000000 H
   0.6170850000000000    0.9807200000000000    0.5302400000000000 H
   0.5000000000000000    0.8124300000000000    0.4990300000000000 H
   0.5401899999999999    0.7221100000000000    0.6290500000000000 H
   0.7400524366634026   -0.0865256298445541    0.4523271319203330 H
   0.7073405903709121   -0.0941168596041945    0.3481416746570146 H
   0.7158743884265496   -0.1009896925028869    0.4017226456990593 H
   0.7427155052542115    0.1618364452413925    0.8541436079219673 H
   0.8239930828096775    0.3169328784997899    0.7491045364411714 H
   0.7828386327511578    0.2549314938663739    0.7956039952028485 H
   0.1488350000000000    0.6264800000000000    0.6840700000000000 H
   0.1109050000000000    0.5180800000000000    0.6886900000000000 H
   0.1361000000000000    0.5298700000000000    0.7527699999999999 H
   0.2538500000000000    0.3582900000000000    0.7213450000000000 H
   0.2162300000000000    0.3009200000000000    0.8519099999999999 H
   0.1746800000000000    0.6602000000000000    0.6084950000000000 H
   0.0880650000000000    0.5013000000000000    0.6268600000000000 H
   0.0730650000000000    0.6021600000000000    0.5528450000000000 H
   0.1262150000000000    0.5244100000000000    0.5548050000000000 H
   0.1656250000000000    0.7914000000000000    0.3718550000000000 H
   0.1000050000000000    0.5829100000000000    0.4925000000000000 H
   0.1984150000000000    0.8314700000000000    0.4852700000000000 H
   0.1488350000000000    0.6264800000000000    0.1840700000000000 H
   0.1109050000000000    0.5180800000000000    0.1886900000000000 H
   0.1361000000000000    0.5298700000000000    0.2527700000000000 H
   0.2538500000000000    0.3582900000000000    0.2213450000000000 H
   0.2162300000000000    0.3009200000000000    0.3519100000000000 H
   0.1746800000000000    0.6602000000000000    0.1084950000000000 H
   0.0880650000000000    0.5013000000000000    0.1268600000000000 H
   0.0730650000000000    0.6021600000000000    0.0528450000000000 H
   0.1262150000000000    0.5244100000000000    0.0548050000000000 H
   0.1656250000000000    0.7914000000000000    0.8718550000000000 H
   0.1000050000000000    0.5829100000000000    0.9924999999999999 H
   0.1984150000000000    0.8314700000000000    0.9852700000000000 H
   0.9627700000000000    0.8870800000000000    0.0998050000000000 H
   0.8491550000000000    0.8557399999999999    0.1257800000000000 H
   0.8674400000000000    0.9609400000000000    0.0481750000000000 H
   0.9181900000000001    0.8977000000000001    0.0324000000000000 H
   0.8839900000000001    0.0186900000000000    0.9702900000000000 H
   0.0002300000000000    0.1849800000000000    0.0000000000000000 H
   0.9607650000000000    0.2771800000000000    0.8713050000000000 H
   0.8978650000000000    0.7165200000000000    0.1876350000000000 H
   0.9480200000000000    0.8101699999999999    0.1740800000000000 H
   0.9229149999999999    0.7838100000000000    0.3530850000000000 H
   0.8500900000000000    0.9557900000000000    0.2361650000000000 H
   0.9468850000000000    0.7034899999999999    0.2463400000000000 H
   0.9627700000000000    0.8870800000000000    0.5998050000000000 H
   0.8491550000000000    0.8557399999999999    0.6257800000000000 H
   0.8674400000000000    0.9609400000000000    0.5481750000000000 H
   0.9181900000000001    0.8977000000000001    0.5324000000000000 H
   0.8839900000000001    0.0186900000000000    0.4702900000000000 H
   0.0002300000000000    0.1849800000000000    0.5000000000000000 H
   0.9607650000000000    0.2771800000000000    0.3713050000000000 H
   0.8978650000000000    0.7165200000000000    0.6876350000000000 H
   0.9480200000000000    0.8101699999999999    0.6740800000000000 H
   0.9229149999999999    0.7838100000000000    0.8530850000000000 H
   0.8500900000000000    0.9557900000000000    0.7361650000000000 H
   0.9468850000000000    0.7034899999999999    0.7463400000000000 H
   0.5973302526938326    0.7155272618359307    0.3581903258574909 H
   0.6174247104612123    0.4968646863463092    0.4682219820301034 H
   0.6098354106223444    0.6164172337318691    0.4161207582614006 H
   0.6017783374757212    0.5384909982548467    0.7936212642543795 H
   0.6844617117391475    0.3551118062047365    0.8845451093813200 H
   0.6489861614232022    0.4413487936530317    0.8369427507125404 H
   0.6488350000000001    0.6264800000000000    0.1840700000000000 H
   0.6109050000000000    0.5180800000000000    0.1886900000000000 H
   0.6361000000000000    0.5298700000000000    0.2527700000000000 H
   0.7538500000000000    0.3582900000000000    0.2213450000000000 H
   0.7162300000000000    0.3009200000000000    0.3519100000000000 H
   0.6746799999999999    0.6602000000000000    0.1084950000000000 H
   0.5880650000000001    0.5013000000000000    0.1268600000000000 H
   0.5730650000000000    0.6021600000000000    0.0528450000000000 H
   0.6262150000000000    0.5244100000000000    0.0548050000000000 H
   0.6656250000000000    0.7914000000000000    0.8718550000000000 H
   0.6000050000000000    0.5829100000000000    0.9924999999999999 H
   0.6984150000000000    0.8314700000000000    0.9852700000000000 H
   0.4627700000000000    0.8870800000000000    0.0998050000000000 H
   0.3491550000000000    0.8557399999999999    0.1257800000000000 H
   0.3674400000000000    0.9609400000000000    0.0481750000000000 H
   0.4181900000000000    0.8977000000000001    0.0324000000000000 H
   0.3839900000000000    0.0186900000000000    0.9702900000000000 H
   0.5002300000000000    0.1849800000000000    0.0000000000000000 H
   0.4607650000000000    0.2771800000000000    0.8713050000000000 H
   0.3978650000000000    0.7165200000000000    0.1876350000000000 H
   0.4480200000000000    0.8101699999999999    0.1740800000000000 H
   0.4229150000000000    0.7838100000000000    0.3530850000000000 H
   0.3500900000000000    0.9557900000000000    0.2361650000000000 H
   0.4468850000000000    0.7034899999999999    0.2463400000000000 H
   0.4627700000000000    0.8870800000000000    0.5998050000000000 H
   0.3491550000000000    0.8557399999999999    0.6257800000000000 H
   0.3674400000000000    0.9609400000000000    0.5481750000000000 H
   0.4181900000000000    0.8977000000000001    0.5324000000000000 H
   0.3839900000000000    0.0186900000000000    0.4702900000000000 H
   0.5002300000000000    0.1849800000000000    0.5000000000000000 H
   0.4607650000000000    0.2771800000000000    0.3713050000000000 H
   0.3978650000000000    0.7165200000000000    0.6876350000000000 H
   0.4480200000000000    0.8101699999999999    0.6740800000000000 H
   0.4229150000000000    0.7838100000000000    0.8530850000000000 H
   0.3500900000000000    0.9557900000000000    0.7361650000000000 H
   0.4468850000000000    0.7034899999999999    0.7463400000000000 H
   0.7765150000000001    0.0971400000000000    0.0986000000000000 C
   0.8577150000000000    0.5575500000000000    0.6635000000000000 C
   0.7216700000000000    0.7579600000000000    0.6989950000000000 C
   0.8541400000000000    0.4363700000000000    0.8260449999999999 C
   0.8065350000000000    0.5503700000000000    0.7685500000000001 C
   0.7689699999999999    0.6248400000000000    0.7553650000000001 C
   0.7616900000000000    0.6794600000000000    0.7122900000000000 C
   0.7904900000000000    0.6586800000000000    0.6817700000000000 C
   0.8354150000000000    0.5286700000000000    0.7380000000000000 C
   0.8266750000000000    0.5820200000000000    0.6951200000000000 C
   0.8901550000000000    0.3896900000000000    0.0870450000000000 C
   0.8530550000000000    0.3980800000000000    0.8731249999999999 C
   0.8847750000000000    0.4360900000000000    0.8922550000000000 C
   0.8875000000000000    0.4078200000000000    0.9384550000000000 C
   0.8403400000000000    0.2316900000000000    0.0943000000000000 C
   0.8700800000000000    0.3179400000000000    0.0695350000000000 C
   0.8769750000000001    0.3479100000000000    0.0255400000000000 C
   0.8537100000000000    0.2919700000000000    0.0059850000000000 C
   0.8222400000000001    0.2075900000000000    0.0304500000000000 C
   0.8152450000000000    0.1784000000000000    0.0741600000000000 C
   0.7765150000000001    0.0971400000000000    0.5986000000000000 C
   0.8577150000000000    0.5575500000000000    0.1635000000000000 C
   0.7216700000000000    0.7579600000000000    0.1989950000000000 C
   0.8541400000000000    0.4363700000000000    0.3260450000000000 C
   0.8065350000000000    0.5503700000000000    0.2685500000000000 C
   0.7689699999999999    0.6248400000000000    0.2553650000000000 C
   0.7616900000000000    0.6794600000000000    0.2122900000000000 C
   0.7904900000000000    0.6586800000000000    0.1817700000000000 C
   0.8354150000000000    0.5286700000000000    0.2380000000000000 C
   0.8266750000000000    0.5820200000000000    0.1951200000000000 C
   0.8901550000000000    0.3896900000000000    0.5870450000000000 C
   0.8530550000000000    0.3980800000000000    0.3731250000000000 C
   0.8847750000000000    0.4360900000000000    0.3922550000000000 C
   0.8875000000000000    0.4078200000000000    0.4384550000000000 C
   0.8403400000000000    0.2316900000000000    0.5943000000000001 C
   0.8700800000000000    0.3179400000000000    0.5695350000000000 C
   0.8769750000000001    0.3479100000000000    0.5255400000000000 C
   0.8537100000000000    0.2919700000000000    0.5059850000000000 C
   0.8222400000000001    0.2075900000000000    0.5304500000000000 C
   0.8152450000000000    0.1784000000000000    0.5741600000000000 C
   0.1345400000000000    0.0446700000000000    0.6880650000000000 C
   0.0215100000000000    0.3364600000000000    0.6767000000000000 C
   0.0932250000000000    0.2004500000000000    0.8271200000000001 C
   0.0847700000000000    0.2030700000000000    0.6797500000000000 C
   0.0612600000000000    0.2626300000000000    0.6990200000000000 C
   0.1266150000000000    0.1080600000000000    0.7449550000000000 C
   0.1161900000000000    0.1232500000000000    0.7036850000000000 C
   0.0718250000000000    0.2483800000000000    0.7404850000000001 C
   0.1058450000000000    0.1727900000000000    0.7629550000000000 C
   0.0788550000000000    0.1079600000000000    0.9049800000000000 C
   0.1107200000000000    0.1495700000000000    0.8711500000000000 C
   0.1102450000000000    0.8738800000000000    0.1141200000000000 C
   0.9772900000000000    0.6770400000000000    0.0782450000000000 C
   0.0934300000000000    0.0546400000000000    0.9497500000000000 C
   0.0888350000000000    0.9192500000000000    0.0392450000000000 C
   0.0606800000000000    0.9029300000000000    0.0092500000000000 C
   0.0246000000000000    0.8229000000000000    0.0225800000000000 C
   0.0175800000000000    0.7577800000000000    0.0653900000000000 C
   0.0458800000000000    0.7725000000000000    0.0956950000000000 C
   0.0807200000000000    0.8544100000000000    0.0824100000000000 C
   0.1345400000000000    0.0446700000000000    0.1880650000000000 C
   0.0215100000000000    0.3364600000000000    0.1767000000000000 C
   0.0932250000000000    0.2004500000000000    0.3271200000000000 C
   0.0847700000000000    0.2030700000000000    0.1797500000000000 C
   0.0612600000000000    0.2626300000000000    0.1990200000000000 C
   0.1266150000000000    0.1080600000000000    0.2449550000000000 C
   0.1161900000000000    0.1232500000000000    0.2036850000000000 C
   0.0718250000000000    0.2483800000000000    0.2404850000000000 C
   0.1058450000000000    0.1727900000000000    0.2629550000000000 C
   0.0788550000000000    0.1079600000000000    0.4049800000000000 C
   0.1107200000000000    0.1495700000000000    0.3711500000000000 C
   0.1102450000000000    0.8738800000000000    0.6141200000000000 C
   0.9772900000000000    0.6770400000000000    0.5782450000000000 C
   0.0934300000000000    0.0546400000000000    0.4497500000000000 C
   0.0888350000000000    0.9192500000000000    0.5392450000000000 C
   0.0606800000000000    0.9029300000000000    0.5092500000000000 C
   0.0246000000000000    0.8229000000000000    0.5225800000000000 C
   0.0175800000000000    0.7577800000000000    0.5653900000000001 C
   0.0458800000000000    0.7725000000000000    0.5956950000000000 C
   0.0807200000000000    0.8544100000000000    0.5824100000000000 C
   0.2765150000000000    0.0971400000000000    0.0986000000000000 C
   0.3577150000000000    0.5575500000000000    0.6635000000000000 C
   0.2216700000000000    0.7579600000000000    0.6989950000000000 C
   0.3541400000000000    0.4363700000000000    0.8260449999999999 C
   0.3065350000000000    0.5503700000000000    0.7685500000000001 C
   0.2689700000000000    0.6248400000000000    0.7553650000000001 C
   0.2616900000000000    0.6794600000000000    0.7122900000000000 C
   0.2904900000000000    0.6586800000000000    0.6817700000000000 C
   0.3354150000000000    0.5286700000000000    0.7380000000000000 C
   0.3266750000000000    0.5820200000000000    0.6951200000000000 C
   0.3901550000000000    0.3896900000000000    0.0870450000000000 C
   0.3530550000000000    0.3980800000000000    0.8731249999999999 C
   0.3847750000000000    0.4360900000000000    0.8922550000000000 C
   0.3875000000000000    0.4078200000000000    0.9384550000000000 C
   0.3403400000000000    0.2316900000000000    0.0943000000000000 C
   0.3700800000000000    0.3179400000000000    0.0695350000000000 C
   0.3769750000000000    0.3479100000000000    0.0255400000000000 C
   0.3537100000000000    0.2919700000000000    0.0059850000000000 C
   0.3222400000000000    0.2075900000000000    0.0304500000000000 C
   0.3152450000000000    0.1784000000000000    0.0741600000000000 C
   0.2765150000000000    0.0971400000000000    0.5986000000000000 C
   0.3577150000000000    0.5575500000000000    0.1635000000000000 C
   0.2216700000000000    0.7579600000000000    0.1989950000000000 C
   0.3541400000000000    0.4363700000000000    0.3260450000000000 C
   0.3065350000000000    0.5503700000000000    0.2685500000000000 C
   0.2689700000000000    0.6248400000000000    0.2553650000000000 C
   0.2616900000000000    0.6794600000000000    0.2122900000000000 C
   0.2904900000000000    0.6586800000000000    0.1817700000000000 C
   0.3354150000000000    0.5286700000000000    0.2380000000000000 C
   0.3266750000000000    0.5820200000000000    0.1951200000000000 C
   0.3901550000000000    0.3896900000000000    0.5870450000000000 C
   0.3530550000000000    0.3980800000000000    0.3731250000000000 C
   0.3847750000000000    0.4360900000000000    0.3922550000000000 C
   0.3875000000000000    0.4078200000000000    0.4384550000000000 C
   0.3403400000000000    0.2316900000000000    0.5943000000000001 C
   0.3700800000000000    0.3179400000000000    0.5695350000000000 C
   0.3769750000000000    0.3479100000000000    0.5255400000000000 C
   0.3537100000000000    0.2919700000000000    0.5059850000000000 C
   0.3222400000000000    0.2075900000000000    0.5304500000000000 C
   0.3152450000000000    0.1784000000000000    0.5741600000000000 C
   0.6345400000000000    0.0446700000000000    0.6880650000000000 C
   0.5215100000000000    0.3364600000000000    0.6767000000000000 C
   0.5932250000000000    0.2004500000000000    0.8271200000000001 C
   0.5847700000000000    0.2030700000000000    0.6797500000000000 C
   0.5612600000000000    0.2626300000000000    0.6990200000000000 C
   0.6266150000000000    0.1080600000000000    0.7449550000000000 C
   0.6161900000000000    0.1232500000000000    0.7036850000000000 C
   0.5718250000000000    0.2483800000000000    0.7404850000000001 C
   0.6058450000000000    0.1727900000000000    0.7629550000000000 C
   0.5788550000000000    0.1079600000000000    0.9049800000000000 C
   0.6107200000000000    0.1495700000000000    0.8711500000000000 C
   0.6102450000000000    0.8738800000000000    0.1141200000000000 C
   0.4772900000000000    0.6770400000000000    0.0782450000000000 C
   0.5934300000000000    0.0546400000000000    0.9497500000000000 C
   0.5888350000000000    0.9192500000000000    0.0392450000000000 C
   0.5606800000000000    0.9029300000000000    0.0092500000000000 C
   0.5246000000000000    0.8229000000000000    0.0225800000000000 C
   0.5175800000000000    0.7577800000000000    0.0653900000000000 C
   0.5458800000000000    0.7725000000000000    0.0956950000000000 C
   0.5807200000000000    0.8544100000000000    0.0824100000000000 C
   0.6345400000000000    0.0446700000000000    0.1880650000000000 C
   0.5215100000000000    0.3364600000000000    0.1767000000000000 C
   0.5932250000000000    0.2004500000000000    0.3271200000000000 C
   0.5847700000000000    0.2030700000000000    0.1797500000000000 C
   0.5612600000000000    0.2626300000000000    0.1990200000000000 C
   0.6266150000000000    0.1080600000000000    0.2449550000000000 C
   0.6161900000000000    0.1232500000000000    0.2036850000000000 C
   0.5718250000000000    0.2483800000000000    0.2404850000000000 C
   0.6058450000000000    0.1727900000000000    0.2629550000000000 C
   0.5788550000000000    0.1079600000000000    0.4049800000000000 C
   0.6107200000000000    0.1495700000000000    0.3711500000000000 C
   0.6102450000000000    0.8738800000000000    0.6141200000000000 C
   0.4772900000000000    0.6770400000000000    0.5782450000000000 C
   0.5934300000000000    0.0546400000000000    0.4497500000000000 C
   0.5888350000000000    0.9192500000000000    0.5392450000000000 C
   0.5606800000000000    0.9029300000000000    0.5092500000000000 C
   0.5246000000000000    0.8229000000000000    0.5225800000000000 C
   0.5175800000000000    0.7577800000000000    0.5653900000000001 C
   0.5458800000000000    0.7725000000000000    0.5956950000000000 C
   0.5807200000000000    0.8544100000000000    0.5824100000000000 C
   0.1431200000000000    0.4441300000000000    0.8364600000000000 C
   0.2784000000000000    0.2417400000000000    0.8014700000000000 C
   0.1459300000000000    0.5623400000000000    0.6740650000000000 C
   0.1648550000000000    0.4713600000000000    0.7617000000000000 C
   0.1935500000000000    0.4488300000000000    0.7316100000000000 C
   0.2310700000000000    0.3742800000000000    0.7449399999999999 C
   0.2384550000000000    0.3203400000000000    0.7880000000000000 C
   0.2099200000000000    0.3420700000000000    0.8184150000000000 C
   0.1738250000000000    0.4188700000000000    0.8049150000000000 C
   0.2234800000000000    0.9022500000000000    0.4017950000000000 C
   0.1091000000000000    0.6108100000000000    0.4128550000000000 C
   0.1469950000000000    0.6002400000000000    0.6250000000000000 C
   0.1154150000000000    0.5617500000000000    0.6079450000000000 C
   0.1127350000000000    0.5900300000000001    0.5617350000000000 C
   0.1593850000000000    0.7682000000000000    0.4058300000000000 C
   0.1294950000000000    0.6820200000000000    0.4305000000000000 C
   0.1227450000000000    0.6515000000000000    0.4745400000000000 C
   0.1462600000000000    0.7067600000000001    0.4942500000000000 C
   0.1778150000000000    0.7911100000000000    0.4699000000000000 C
   0.1847050000000000    0.8208900000000000    0.4261500000000000 C
   0.1431200000000000    0.4441300000000000    0.3364600000000000 C
   0.2784000000000000    0.2417400000000000    0.3014700000000000 C
   0.1459300000000000    0.5623400000000000    0.1740650000000000 C
   0.1648550000000000    0.4713600000000000    0.2617000000000000 C
   0.1935500000000000    0.4488300000000000    0.2316100000000000 C
   0.2310700000000000    0.3742800000000000    0.2449400000000000 C
   0.2384550000000000    0.3203400000000000    0.2880000000000000 C
   0.2099200000000000    0.3420700000000000    0.3184150000000000 C
   0.1738250000000000    0.4188700000000000    0.3049150000000000 C
   0.2234800000000000    0.9022500000000000    0.9017950000000000 C
   0.1091000000000000    0.6108100000000000    0.9128550000000000 C
   0.1469950000000000    0.6002400000000000    0.1250000000000000 C
   0.1154150000000000    0.5617500000000000    0.1079450000000000 C
   0.1127350000000000    0.5900300000000001    0.0617350000000000 C
   0.1593850000000000    0.7682000000000000    0.9058300000000000 C
   0.1294950000000000    0.6820200000000000    0.9305000000000000 C
   0.1227450000000000    0.6515000000000000    0.9745400000000000 C
   0.1462600000000000    0.7067600000000001    0.9942500000000001 C
   0.1778150000000000    0.7911100000000000    0.9699000000000000 C
   0.1847050000000000    0.8208900000000000    0.9261500000000000 C
   0.9221550000000001    0.8908700000000001    0.0955050000000000 C
   0.8899450000000000    0.8508599999999999    0.1291600000000000 C
   0.8900749999999999    0.1260500000000000    0.8864700000000000 C
   0.0246950000000000    0.3210100000000000    0.9219649999999999 C
   0.9080250000000001    0.9441300000000000    0.0506050000000000 C
   0.9124200000000000    0.0798700000000000    0.9611900000000000 C
   0.9411250000000000    0.0954100000000000    0.9910650000000000 C
   0.9774250000000000    0.1750600000000000    0.9776350000000000 C
   0.9841900000000000    0.2405600000000000    0.9348400000000000 C
   0.9553250000000000    0.2265300000000000    0.9046550000000000 C
   0.9202000000000000    0.1450300000000000    0.9180300000000000 C
   0.8653750000000000    0.9554600000000000    0.3123900000000000 C