H12 C20 O10
1.0
  26.5156954339779389    0.0000000000000000    1.2680739933148257
  -0.2324132518546174   12.9797903730025084    5.7468108506608893
   0.0000000000000000    0.0000000000000000   34.5700000000000003
H C O
12 20 10
direct
   0.6000050000000000    0.5829100000000000    0.4925000000000000 H
   0.6656250000000000    0.7914000000000000    0.3718550000000000 H
   0.6984150000000000    0.8314700000000000    0.4852700000000000 H
   0.7162300000000000    0.3009200000000000    0.8519099999999999 H
   0.6361000000000000    0.5298700000000000    0.7527699999999999 H
   0.7538500000000000    0.3582900000000000    0.7213450000000000 H
   0.6488350000000001    0.6264800000000000    0.6840700000000000 H
   0.6109050000000000    0.5180800000000000    0.6886900000000000 H
   0.6746799999999999    0.6602000000000000    0.6084950000000000 H
   0.5880650000000001    0.5013000000000000    0.6268600000000000 H
   0.6262150000000000    0.5244100000000000    0.5548050000000000 H
   0.5730650000000000    0.6021600000000000    0.5528450000000000 H
   0.6462600000000001    0.7067600000000001    0.4942500000000000 C
   0.6227450000000000    0.6515000000000000    0.4745400000000000 C
   0.6294950000000000    0.6820200000000000    0.4305000000000000 C
   0.6593850000000000    0.7682000000000000    0.4058300000000000 C
   0.6847050000000000    0.8208900000000000    0.4261500000000000 C
   0.6778150000000001    0.7911100000000000    0.4699000000000000 C
   0.6091000000000000    0.6108100000000000    0.4128550000000000 C
   0.7234800000000000    0.9022500000000000    0.4017950000000000 C
   0.7784000000000000    0.2417400000000000    0.8014700000000000 C
   0.6431200000000000    0.4441300000000000    0.8364600000000000 C
   0.7384550000000000    0.3203400000000000    0.7880000000000000 C
   0.7099200000000000    0.3420700000000000    0.8184150000000000 C
   0.6738250000000000    0.4188700000000000    0.8049150000000000 C
   0.6648550000000000    0.4713600000000000    0.7617000000000000 C
   0.6935500000000000    0.4488300000000000    0.7316100000000000 C
   0.7310700000000000    0.3742800000000000    0.7449399999999999 C
   0.6459300000000000    0.5623400000000000    0.6740650000000000 C
   0.6469950000000000    0.6002400000000000    0.6250000000000000 C
   0.6154150000000000    0.5617500000000000    0.6079450000000000 C
   0.6127350000000000    0.5900300000000001    0.5617350000000000 C
   0.6074600000000000    0.5146800000000000    0.4395050000000000 O
   0.5956100000000000    0.6418500000000000    0.3751250000000000 O
   0.7513600000000000   -0.0619000000000000    0.4227300000000000 O
   0.7309950000000001   -0.0680600000000001    0.3621450000000000 O
   0.7732000000000000    0.1649800000000000    0.8370050000000000 O
   0.8177350000000000    0.2585300000000000    0.7759849999999999 O
   0.6069100000000001    0.5055700000000000    0.8237500000000000 O
   0.6555500000000000    0.3992400000000000    0.8754800000000000 O
   0.6886550000000000    0.4951500000000000    0.6890200000000000 O
   0.6423350000000000    0.6807299999999999    0.5370450000000000 O
