H12 O8
1.0
  26.5156954339779389    0.0000000000000000    1.2680739933148257
  -0.2324132518546174   12.9797903730025084    5.7468108506608893
   0.0000000000000000    0.0000000000000000   34.5700000000000003
H O
12 8
direct
   0.6017783374757212    0.5384909982548467    0.7936212642543795 H
   0.6844617117391475    0.3551118062047365    0.8845451093813200 H
   0.6489861614232022    0.4413487936530317    0.8369427507125404 H
   0.7427155052542115    0.1618364452413925    0.8541436079219673 H
   0.8239930828096775    0.3169328784997899    0.7491045364411714 H
   0.7828386327511578    0.2549314938663739    0.7956039952028485 H
   0.5973302526938326    0.7155272618359307    0.3581903258574909 H
   0.6174247104612123    0.4968646863463092    0.4682219820301034 H
   0.6098354106223444    0.6164172337318691    0.4161207582614006 H
   0.7400524366634026   -0.0865256298445541    0.4523271319203330 H
   0.7073405903709121   -0.0941168596041945    0.3481416746570146 H
   0.7158743884265496   -0.1009896925028869    0.4017226456990593 H
   0.6069100000000001    0.5055700000000000    0.8237500000000000 O
   0.6555500000000000    0.3992400000000000    0.8754800000000000 O
   0.7732000000000000    0.1649800000000000    0.8370050000000000 O
   0.8177350000000000    0.2585300000000000    0.7759849999999999 O
   0.5956100000000000    0.6418500000000000    0.3751250000000000 O
   0.6074600000000000    0.5146800000000000    0.4395050000000000 O
   0.7513600000000000   -0.0619000000000000    0.4227300000000000 O
   0.7309950000000001   -0.0680600000000001    0.3621450000000000 O
