H6 O4
1.0
   9.2566991538572712    0.0000000000000000    3.4807658675897892
   4.6244508527886250   13.1492988885270954    1.7370563060311630
   0.0000000000000000    0.0000000000000000   14.0477000000000007
H O
6 4
direct
   0.4710156390063389    0.2248377309811448    0.1292214525507104 H
   0.8049772091567883    0.2248901860613909    0.8709966457025220 H
   0.6451953161880903    0.2106129983331669    0.0000852699536943 H
   0.8245861724806446    0.7751146415722334    0.8710040549313548 H
   0.9012833714909277    0.7751007551594794    0.1289230791838639 H
   0.8558361135812135    0.7893874082734996    0.9999691715790984 H
   0.5222599999999999    0.2627700000000000    0.0748500000000000 O
   0.7156700000000000    0.2627800000000000    0.9253100000000000 O
   0.8595900000000000    0.7371799999999999    0.9252899999999999 O
   0.9040100000000000    0.7371799999999999    0.0746800000000000 O
