Zn16 H21 C63 O42
1.0
  14.2764842763985591    0.0000000000000000   -0.1213495189306141
  -0.0106699152827437   14.8639956609931261   -0.0038913860557935
   0.0000000000000000    0.0000000000000000   30.3039999999999985
Zn H C O
16 21 63 42
direct
   0.0576400000000000    0.5626800000000000    0.4540000000000000 Zn
   0.3166600000000000    0.3120400000000000    0.1502750000000000 Zn
   0.4408000000000000    0.4375400000000000    0.2057600000000000 Zn
   0.8187700000000000    0.1906500000000000    0.3500300000000000 Zn
   0.9421400000000000    0.0626700000000000    0.2959500000000000 Zn
   0.6833000000000000    0.8121200000000000    0.0997250000000000 Zn
   0.5591900000000000    0.9375100000000000    0.0442200000000000 Zn
   0.1811300000000000    0.6906900000000000    0.3999600000000000 Zn
   0.0576400000000000    0.5626800000000000    0.9540000000000000 Zn
   0.3166600000000000    0.3120400000000000    0.6502749999999999 Zn
   0.4408000000000000    0.4375400000000000    0.7057599999999999 Zn
   0.8187700000000000    0.1906500000000000    0.8500300000000001 Zn
   0.9421400000000000    0.0626700000000000    0.7959499999999999 Zn
   0.6833000000000000    0.8121200000000000    0.5997250000000000 Zn
   0.5591900000000000    0.9375100000000000    0.5442200000000000 Zn
   0.1811300000000000    0.6906900000000000    0.8999600000000000 Zn
   0.7677500000000000    0.0186400000000000    0.4684100000000000 H
   0.0000000000000000    0.9239000000000001    0.3920400000000000 H
   0.5905200000000000    0.2268400000000000    0.2554600000000000 H
   0.7318000000000000    0.9829300000000000    0.2178550000000000 H
   0.4961500000000000    0.0782900000000000    0.1414150000000000 H
   0.0910500000000000    0.2731900000000000    0.2449700000000000 H
   0.2321300000000000    0.5188700000000001    0.2814700000000000 H
   0.9988200000000000    0.4239400000000000    0.3579000000000000 H
   0.4093300000000000    0.7266500000000000    0.4945400000000000 H
   0.2680600000000000    0.4825200000000000    0.0320800000000000 H
   0.5038700000000000    0.5780999999999999    0.1084700000000000 H
   0.9087800000000000    0.7732000000000000    0.5000000000000000 H
   0.5905200000000000    0.2268400000000000    0.7554600000000000 H
   0.7318000000000000    0.9829300000000000    0.7178550000000000 H
   0.4961500000000000    0.0782900000000000    0.6414150000000001 H
   0.0910500000000000    0.2731900000000000    0.7449700000000000 H
   0.2321300000000000    0.5188700000000001    0.7814700000000000 H
   0.9988200000000000    0.4239400000000000    0.8579000000000000 H
   0.4093300000000000    0.7266500000000000    0.9945400000000000 H
   0.2680600000000000    0.4825200000000000    0.5320800000000000 H
   0.5038700000000000    0.5780999999999999    0.6084700000000000 H
   0.9624900000000000    0.8410600000000000    0.4475350000000000 C
   0.9017900000000000    0.8311700000000000    0.4832750000000000 C
   0.8321200000000000    0.8954700000000000    0.4909900000000000 C
   0.8225800000000000    0.9693200000000000    0.4626350000000000 C
   0.8834900000000000    0.9796000000000000    0.4270150000000000 C
   0.9537700000000000    0.9157500000000000    0.4196850000000000 C
   0.0355000000000000    0.7715000000000000    0.4390250000000000 C
   0.8734700000000000    0.0569100000000000    0.3963550000000000 C
   0.5356000000000000    0.1599100000000000    0.1975650000000000 C
   0.5972000000000000    0.1693500000000000    0.2334800000000000 C
   0.6674900000000000    0.1052900000000000    0.2409500000000000 C
   0.6765300000000000    0.0320900000000000    0.2122600000000000 C
   0.6147800000000000    0.0223700000000000    0.1764400000000000 C
   0.5440300000000000    0.0860000000000000    0.1692750000000000 C
   0.4621500000000000    0.2292300000000000    0.1891800000000000 C
   0.7341600000000000    0.1150300000000000    0.2788200000000000 C
   0.6247200000000001    0.9460300000000000    0.1452950000000000 C
   0.0374000000000000    0.3410900000000000    0.3024000000000000 C
   0.0980700000000000    0.3312100000000000    0.2666550000000000 C
   0.1677500000000000    0.3955700000000000    0.2589250000000000 C
   0.1772900000000000    0.4694900000000000    0.2872600000000000 C
   0.1164100000000000    0.4797600000000000    0.3228850000000000 C
   0.0461500000000000    0.4158300000000000    0.3302450000000000 C
   0.9644100000000000    0.2714700000000000    0.3109400000000000 C
   0.2330600000000000    0.3856000000000000    0.2211000000000000 C
   0.1265100000000000    0.5570800000000000    0.3535450000000000 C
   0.4643600000000000    0.6597300000000000    0.0523750000000000 C
   0.4026800000000000    0.6691200000000000    0.0164900000000000 C
   0.3323700000000000    0.6049900000000000    0.0090050000000000 C
   0.3233600000000000    0.5317300000000000    0.0376700000000000 C
   0.3851800000000000    0.5220700000000000    0.0734650000000000 C
   0.4559500000000000    0.5857800000000000    0.0806300000000000 C
   0.5378100000000000    0.7291500000000000    0.0607850000000000 C
   0.2655800000000000    0.6147300000000000    0.4711900000000000 C
   0.3752300000000000    0.4457800000000000    0.1046250000000000 C
   0.7668700000000001    0.8855400000000000    0.5288400000000000 C
   0.5356000000000000    0.1599100000000000    0.6975650000000000 C
   0.5972000000000000    0.1693500000000000    0.7334800000000000 C
   0.6674900000000000    0.1052900000000000    0.7409500000000000 C
   0.6765300000000000    0.0320900000000000    0.7122600000000000 C
   0.6147800000000000    0.0223700000000000    0.6764400000000000 C
   0.5440300000000000    0.0860000000000000    0.6692750000000001 C
   0.4621500000000000    0.2292300000000000    0.6891800000000000 C
   0.7341600000000000    0.1150300000000000    0.7788200000000001 C
   0.6247200000000001    0.9460300000000000    0.6452950000000000 C
   0.0374000000000000    0.3410900000000000    0.8024000000000000 C
   0.0980700000000000    0.3312100000000000    0.7666550000000000 C
   0.1677500000000000    0.3955700000000000    0.7589250000000001 C
   0.1772900000000000    0.4694900000000000    0.7872600000000001 C
   0.1164100000000000    0.4797600000000000    0.8228850000000000 C
   0.0461500000000000    0.4158300000000000    0.8302450000000000 C
   0.9644100000000000    0.2714700000000000    0.8109400000000000 C
   0.2330600000000000    0.3856000000000000    0.7211000000000000 C
   0.1265100000000000    0.5570800000000000    0.8535450000000000 C
   0.4643600000000000    0.6597300000000000    0.5523749999999999 C
   0.4026800000000000    0.6691200000000000    0.5164900000000000 C
   0.3323700000000000    0.6049900000000000    0.5090050000000000 C
   0.3233600000000000    0.5317300000000000    0.5376700000000000 C
   0.3851800000000000    0.5220700000000000    0.5734650000000000 C
   0.4559500000000000    0.5857800000000000    0.5806300000000000 C
   0.5378100000000000    0.7291500000000000    0.5607850000000000 C
   0.2655800000000000    0.6147300000000000    0.9711900000000000 C
   0.3752300000000000    0.4457800000000000    0.6046250000000000 C
   0.0897700000000000    0.7855100000000000    0.4057350000000000 O
   0.0411700000000000    0.7036500000000000    0.4643350000000000 O
   0.8023000000000000    0.1096500000000000    0.4005450000000000 O
   0.9347500000000000    0.0702800000000000    0.3665950000000000 O
   0.4072900000000000    0.2158000000000000    0.1556400000000000 O
   0.4566400000000000    0.2965300000000000    0.2148450000000000 O
   0.7243100000000000    0.1849700000000000    0.3035650000000000 O
   0.7961700000000000    0.0548800000000000    0.2849600000000000 O
   0.6962400000000000    0.8935700000000000    0.1499550000000000 O
   0.5635599999999999    0.9335500000000000    0.1149750000000000 O
   0.9102300000000000    0.2854700000000000    0.3442550000000000 O
   0.9587400000000000    0.2035600000000000    0.2856450000000000 O
   0.2223500000000000    0.3158000000000000    0.1962550000000000 O
   0.2951800000000000    0.4455700000000000    0.2149500000000000 O
   0.1976700000000000    0.6099000000000000    0.3493200000000000 O
   0.0653300000000000    0.5703400000000000    0.3833650000000000 O
   0.5926200000000000    0.7158000000000000    0.0943450000000000 O
   0.5433000000000000    0.7964599999999999    0.0351450000000000 O
   0.2756100000000000    0.6845400000000000    0.4463500000000000 O
   0.2032600000000000    0.5547500000000000    0.4651600000000000 O
   0.3037200000000000    0.3932100000000000    0.0999800000000000 O
   0.4363400000000000    0.4335200000000000    0.1349800000000000 O
   0.7775900000000000    0.8158400000000000    0.5537250000000000 O
   0.7048300000000000    0.9455100000000000    0.5350000000000000 O
   0.4072900000000000    0.2158000000000000    0.6556400000000000 O
   0.4566400000000000    0.2965300000000000    0.7148450000000000 O
   0.7243100000000000    0.1849700000000000    0.8035650000000000 O
   0.7961700000000000    0.0548800000000000    0.7849600000000000 O
   0.6962400000000000    0.8935700000000000    0.6499550000000001 O
   0.5635599999999999    0.9335500000000000    0.6149750000000000 O
   0.9102300000000000    0.2854700000000000    0.8442550000000000 O
   0.9587400000000000    0.2035600000000000    0.7856449999999999 O
   0.2223500000000000    0.3158000000000000    0.6962550000000001 O
   0.2951800000000000    0.4455700000000000    0.7149500000000000 O
   0.1976700000000000    0.6099000000000000    0.8493200000000001 O
   0.0653300000000000    0.5703400000000000    0.8833650000000000 O
   0.5926200000000000    0.7158000000000000    0.5943450000000000 O
   0.5433000000000000    0.7964599999999999    0.5351450000000000 O
   0.2756100000000000    0.6845400000000000    0.9463500000000000 O
   0.2032600000000000    0.5547500000000000    0.9651600000000000 O
   0.3037200000000000    0.3932100000000000    0.5999800000000000 O
   0.4363400000000000    0.4335200000000000    0.6349800000000000 O
