H3 C9 O6
1.0
  14.2764842763985591    0.0000000000000000   -0.1213495189306141
  -0.0106699152827437   14.8639956609931261   -0.0038913860557935
   0.0000000000000000    0.0000000000000000   15.1519999999999992
H C O
3 9 6
direct
   0.4093300000000000    0.7266500000000000    0.9890800000000000 H
   0.2680600000000000    0.4825200000000000    0.0641600000000000 H
   0.5038700000000000    0.5780999999999999    0.2169400000000000 H
   0.4643600000000000    0.6597300000000000    0.1047500000000000 C
   0.4026800000000000    0.6691200000000000    0.0329800000000000 C
   0.3323700000000000    0.6049900000000000    0.0180100000000000 C
   0.3233600000000000    0.5317300000000000    0.0753400000000000 C
   0.3851800000000000    0.5220700000000000    0.1469300000000000 C
   0.4559500000000000    0.5857800000000000    0.1612600000000000 C
   0.5378100000000000    0.7291500000000000    0.1215700000000000 C
   0.2655800000000000    0.6147300000000000    0.9423800000000000 C
   0.3752300000000000    0.4457800000000000    0.2092500000000000 C
   0.5926200000000000    0.7158000000000000    0.1886900000000000 O
   0.5433000000000000    0.7964599999999999    0.0702900000000000 O
   0.2756100000000000    0.6845400000000000    0.8927000000000000 O
   0.2032600000000000    0.5547500000000000    0.9303200000000000 O
   0.3037200000000000    0.3932100000000000    0.1999600000000000 O
   0.4363400000000000    0.4335200000000000    0.2699600000000000 O
