H2 C6 S1 O4
1.0
  30.0269866640434770    0.0000000000000000    0.0282997765931892
   0.0192834807730643   39.4619952644301577    0.0013774836585631
   0.0000000000000000    0.0000000000000000   15.5470000000000006
H C S O
2 6 1 4
direct
   0.8867866666666666    0.5926499999999999    0.4667800000000000 H
   0.8348700000000000    0.6209766666666666    0.5848900000000000 H
   0.9322066666666666    0.6349733333333333    0.4845300000000000 C
   0.8939966666666666    0.6160966666666666    0.5007800000000000 C
   0.8665566666666666    0.6311800000000000    0.5632300000000000 C
   0.8843166666666666    0.6612466666666665    0.5946500000000000 C
   0.9652066666666665    0.6277100000000000    0.4169800000000000 C
   0.8648166666666666    0.6832666666666666    0.6612900000000000 C
   0.9345599999999999    0.6711966666666667    0.5467500000000000 S
   0.9940766666666666    0.6507200000000000    0.3999800000000000 O
   0.9615799999999999    0.5992833333333333    0.3786200000000000 O
   0.8275999999999999    0.6738533333333333    0.6930800000000000 O
   0.8867466666666666    0.7098566666666666    0.6819000000000000 O
