H6 C12 N2 O4
1.0
   3.9493274318676370    0.0000000000000000   -0.2208915704543127
  -0.0002893083686381    8.1164999942381328   -0.0000991617541129
   0.0000000000000000    0.0000000000000000   26.6392999999999986
H C N O
6 12 2 4
direct
   0.4219600000000000    0.1646200000000000    0.8824100000000000 H
   0.9146700000000000    0.6978000000000000    0.8802800000000000 H
   0.7927100000000000    0.7458900000000001    0.9716100000000000 H
   0.5826100000000000    0.8348500000000000    0.1176300000000000 H
   0.0819000000000000    0.3037100000000000    0.1192600000000000 H
   0.2110800000000000    0.2533800000000000    0.0284500000000000 H
   0.0378100000000000    0.9832200000000000    0.9733800000000000 C
   0.2782000000000000    0.0705100000000000    0.9012700000000000 C
   0.1802400000000000    0.9281000000000000    0.8744700000000000 C
   0.0011000000000000    0.8089499999999999    0.9000899999999999 C
   0.9303000000000000    0.8358000000000000    0.9499400000000000 C
   0.2695800000000000    0.9056600000000000    0.8206100000000000 C
   0.9623400000000000    0.0171900000000000    0.0263900000000000 C
   0.7244000000000000    0.9294200000000000    0.0986600000000000 C
   0.8203600000000000    0.0723500000000000    0.1253400000000000 C
   0.9970900000000000    0.1920400000000000    0.0995700000000000 C
   0.0677700000000000    0.1651300000000000    0.0497200000000000 C
   0.7312400000000000    0.0943700000000000    0.1792400000000000 C
   0.2101200000000000    0.0999100000000000    0.9491100000000000 N
   0.7921200000000000    0.9000100000000000    0.0508000000000000 N
   0.2076200000000000    0.7650000000000000    0.8000699999999999 O
   0.3972200000000000    0.0264000000000000    0.7982100000000000 O
   0.7876900000000000    0.2356300000000000    0.1996800000000000 O
   0.6089800000000000    0.9725900000000000    0.2018100000000000 O
