H4 O2
1.0
  18.3529284976848359    0.0000000000000000   -4.9509692544862185
  -3.3693085421426936   11.6717853880320455   -4.7829197989895134
   0.0000000000000000    0.0000000000000000   38.6460000000000008
H O
4 2
direct
   0.3970638440273982    0.1873737514163376    0.4528709606486051 H
   0.3491480447619799    0.2703802893594196    0.4682438378224094 H
   0.1315385026140412    0.5928478283149818    0.2613443906289464 H
   0.1765776969452181    0.5158759438826145    0.2396132655773705 H
   0.4007900000000000    0.2628100000000000    0.4726333333333333 O
   0.1255100000000000    0.5216200000000000    0.2388266666666667 O
