H2 O2
1.0
  24.6728241960810912    0.0000000000000000   -2.2805767229530640
  -0.1869577015092009    7.5098767057774802   -1.9946315278434690
   0.0000000000000000    0.0000000000000000   26.7020000000000017
H O
2 2
direct
   0.1146968811153642    0.7868300467325740    0.1270063119652785 H
   0.9822752447814934    0.6343164496236404    0.0235287890054427 H
   0.1125400000000000    0.9061800000000000    0.1501700000000000 O
   0.9770025000000000    0.7194100000000000    0.0022250000000000 O
