H1 O1
1.0
  33.7824997478769191    0.0000000000000000   -0.0041273109716195
  -0.0001248826360984    7.1534999945517654   -0.0002497042560310
   0.0000000000000000    0.0000000000000000   21.5594999999999999
H O
1 1
direct
   0.4000186763541116    0.7834323723863016    0.0719418886353685 H
   0.4000120000000000    0.6876100000000001    0.1043333333333333 O
