H7 Cl1 O5
1.0
  23.0369999999999990    0.0000000000000000    0.0000000000000014
   0.0261044580147587   15.2619769220156023    0.0047946986290411
   0.0000000000000000    0.0000000000000000   36.3280000000000030
H Cl O
7 1 5
direct
   0.7500100000000000    0.1283812931721921    0.1398983569792578 H
   0.7499632995802133    0.6933735893181602    0.0209214067534968 H
   0.7499127542565236    0.5935475966353410    0.9225492809422470 H
   0.7499307779546566    0.6559852834875095    0.9686699731473301 H
   0.7500688546134029    0.3066001953332691    0.9790611116057684 H
   0.7501023527702894    0.4064702371051221    0.0774385522363262 H
   0.7500921806409083    0.3440380068337178    1.0313218730525937 H
   0.7500100000000000    0.9334300000000000    0.8529650000000000 Cl
   0.7500100000000000    0.0665400000000000    0.1470200000000000 O
   0.7499700000000000    0.6398800000000000    0.0065100000000000 O
   0.7499400000000001    0.5823600000000000    0.9488350000000000 O
   0.7500599999999999    0.3600900000000000    0.9934750000000000 O
   0.7500800000000000    0.4176200000000000    0.0511500000000000 O
