Zn16 H177 C286 N32 Cl1 O61
1.0
  23.0369999999999990    0.0000000000000000    0.0000000000000014
   0.0261044580147587   15.2619769220156023    0.0047946986290411
   0.0000000000000000    0.0000000000000000   36.3280000000000030
Zn H C N Cl O
16 177 286 32 1 61
direct
   0.2500000000000000    0.4480500000000000    0.9514000000000000 Zn
   0.2500100000000000    0.5519200000000000    0.5485449999999999 Zn
   0.2500000000000000    0.0519600000000000    0.7014500000000000 Zn
   0.2500100000000000    0.9480100000000000    0.2985250000000000 Zn
   0.2500000000000000    0.4480500000000000    0.4514000000000000 Zn
   0.2500100000000000    0.5519200000000000    0.0485450000000000 Zn
   0.2500000000000000    0.0519600000000000    0.2014500000000000 Zn
   0.2500100000000000    0.9480100000000000    0.7985249999999999 Zn
   0.7500100000000000    0.0519600000000000    0.2014500000000000 Zn
   0.7500100000000000    0.4480500000000000    0.4514000000000000 Zn
   0.7500200000000000    0.5519200000000000    0.0485450000000000 Zn
   0.7500100000000000    0.9480100000000000    0.7985249999999999 Zn
   0.7500100000000000    0.4480500000000000    0.9514000000000000 Zn
   0.7500200000000000    0.5519200000000000    0.5485449999999999 Zn
   0.7500100000000000    0.0519600000000000    0.7014500000000000 Zn
   0.7500100000000000    0.9480100000000000    0.2985250000000000 Zn
   0.9562200000000000    0.1860200000000000    0.7258750000000000 H
   0.9570500000000000    0.9265400000000000    0.6774150000000000 H
   0.8498599999999999    0.9307500000000000    0.6798649999999999 H
   0.8489200000000000    0.1777700000000000    0.7261450000000000 H
   0.0434700000000000    0.1860100000000000    0.7255000000000000 H
   0.0432800000000000    0.9265900000000000    0.6773899999999999 H
   0.1504500000000000    0.9308300000000000    0.6798000000000000 H
   0.1507900000000000    0.1777900000000000    0.7261700000000000 H
   0.9562200000000000    0.1860200000000000    0.2258750000000000 H
   0.9570500000000000    0.9265400000000000    0.1774150000000000 H
   0.8498599999999999    0.9307500000000000    0.1798650000000000 H
   0.8489200000000000    0.1777700000000000    0.2261450000000000 H
   0.0434700000000000    0.1860100000000000    0.2255000000000000 H
   0.0432800000000000    0.9265900000000000    0.1773900000000000 H
   0.1504500000000000    0.9308300000000000    0.1798000000000000 H
   0.1507900000000000    0.1777900000000000    0.2261700000000000 H
   0.4562100000000000    0.1860200000000000    0.7258750000000000 H
   0.4570400000000000    0.9265400000000000    0.6774150000000000 H
   0.3498500000000000    0.9307500000000000    0.6798649999999999 H
   0.3489100000000000    0.1777700000000000    0.7261450000000000 H
   0.5434800000000000    0.1860100000000000    0.7255000000000000 H
   0.5432900000000001    0.9265900000000000    0.6773899999999999 H
   0.6504600000000000    0.9308300000000000    0.6798350000000000 H
   0.6508000000000000    0.1777900000000000    0.7261700000000000 H
   0.4562100000000000    0.1860200000000000    0.2258750000000000 H
   0.4570400000000000    0.9265400000000000    0.1774150000000000 H
   0.3498500000000000    0.9307500000000000    0.1798650000000000 H
   0.3489100000000000    0.1777700000000000    0.2261450000000000 H
   0.5434800000000000    0.1860100000000000    0.2255000000000000 H
   0.5432900000000001    0.9265900000000000    0.1773900000000000 H
   0.6504600000000000    0.9308300000000000    0.1798350000000000 H
   0.6508000000000000    0.1777900000000000    0.2261700000000000 H
   0.0438000000000000    0.8139600000000000    0.7741100000000001 H
   0.0429700000000000    0.0734300000000000    0.8225700000000000 H
   0.1510900000000000    0.8222100000000000    0.7738400000000000 H
   0.1501600000000000    0.0692300000000000    0.8201200000000000 H
   0.9565500000000000    0.8139600000000000    0.7740850000000000 H
   0.9567400000000000    0.0733900000000000    0.8225950000000000 H
   0.8495700000000000    0.0691400000000000    0.8201499999999999 H
   0.8492300000000000    0.8221800000000000    0.7738149999999999 H
   0.0438000000000000    0.8139600000000000    0.2741100000000000 H
   0.0429700000000000    0.0734300000000000    0.3225700000000000 H
   0.1510900000000000    0.8222100000000000    0.2738400000000000 H
   0.1501600000000000    0.0692300000000000    0.3201200000000000 H
   0.9565500000000000    0.8139600000000000    0.2740850000000000 H
   0.9567400000000000    0.0733900000000000    0.3225950000000000 H
   0.8495700000000000    0.0691400000000000    0.3201500000000000 H
   0.8492300000000000    0.8221800000000000    0.2738150000000000 H
   0.5438100000000000    0.3140000000000000    0.4758550000000000 H
   0.5429700000000000    0.5735400000000000    0.4274050000000000 H
   0.6501600000000000    0.5693300000000000    0.4298500000000000 H
   0.6511100000000000    0.3222500000000000    0.4761100000000000 H
   0.4565300000000000    0.3140100000000000    0.4758800000000000 H
   0.4567400000000000    0.5734900000000001    0.4273850000000000 H
   0.3495700000000000    0.5692400000000000    0.4298150000000000 H
   0.3492100000000000    0.3222200000000000    0.4761350000000000 H
   0.0438000000000000    0.3140000000000000    0.4758550000000000 H
   0.0429600000000000    0.5735400000000000    0.4274050000000000 H
   0.1501500000000000    0.5693300000000000    0.4298500000000000 H
   0.1511000000000000    0.3222500000000000    0.4761100000000000 H
   0.9565399999999999    0.3140100000000000    0.4758800000000000 H
   0.9567500000000000    0.5734900000000001    0.4273850000000000 H
   0.8495800000000000    0.5692400000000000    0.4298150000000000 H
   0.8492200000000000    0.3222200000000000    0.4761350000000000 H
   0.5438100000000000    0.3140000000000000    0.9758549999999999 H
   0.5429700000000000    0.5735400000000000    0.9274050000000000 H
   0.6501600000000000    0.5693300000000000    0.9298500000000001 H
   0.6511100000000000    0.3222500000000000    0.9761100000000000 H
   0.4565300000000000    0.3140100000000000    0.9758800000000001 H
   0.4567400000000000    0.5734900000000001    0.9273850000000000 H
   0.3495700000000000    0.5692400000000000    0.9298150000000001 H
   0.3492100000000000    0.3222200000000000    0.9761350000000000 H
   0.0438000000000000    0.3140000000000000    0.9758549999999999 H
   0.0429600000000000    0.5735400000000000    0.9274050000000000 H
   0.1501500000000000    0.5693300000000000    0.9298500000000001 H
   0.1511000000000000    0.3222500000000000    0.9761100000000000 H
   0.9565399999999999    0.3140100000000000    0.9758800000000001 H
   0.9567500000000000    0.5734900000000001    0.9273850000000000 H
   0.8495800000000000    0.5692400000000000    0.9298150000000001 H
   0.8492200000000000    0.3222200000000000    0.9761350000000000 H
   0.5434900000000000    0.6859700000000000    0.5241050000000000 H
   0.5432800000000000    0.4264800000000000    0.5726000000000000 H
   0.6504500000000000    0.4307300000000000    0.5701700000000000 H
   0.6508100000000000    0.6777500000000000    0.5238500000000000 H
   0.4562100000000000    0.6859700000000000    0.5241300000000000 H
   0.4570400000000000    0.4264400000000000    0.5725750000000001 H
   0.3498600000000000    0.4306500000000000    0.5701350000000001 H
   0.3489100000000000    0.6777300000000001    0.5238750000000000 H
   0.5434900000000000    0.6859700000000000    0.0241050000000000 H
   0.5432800000000000    0.4264800000000000    0.0726000000000000 H
   0.6504500000000000    0.4307300000000000    0.0701700000000000 H
   0.6508100000000000    0.6777500000000000    0.0238500000000000 H
   0.4562100000000000    0.6859700000000000    0.0241300000000000 H
   0.4570400000000000    0.4264400000000000    0.0725750000000000 H
   0.3498600000000000    0.4306500000000000    0.0701350000000000 H
   0.3489100000000000    0.6777300000000001    0.0238750000000000 H
   0.5438100000000000    0.8139600000000000    0.7741100000000001 H
   0.5429800000000000    0.0734300000000000    0.8225700000000000 H
   0.6501700000000000    0.0692300000000000    0.8201200000000000 H
   0.6511100000000000    0.8222100000000000    0.7738400000000000 H
   0.4565400000000000    0.8139600000000000    0.7740850000000000 H
   0.4567300000000000    0.0733900000000000    0.8225950000000000 H
   0.3495600000000000    0.0691400000000000    0.8201499999999999 H
   0.3492200000000000    0.8221800000000000    0.7738149999999999 H
   0.5438100000000000    0.8139600000000000    0.2741100000000000 H
   0.5429800000000000    0.0734300000000000    0.3225700000000000 H
   0.6501700000000000    0.0692300000000000    0.3201200000000000 H
   0.6511100000000000    0.8222100000000000    0.2738400000000000 H
   0.4565400000000000    0.8139600000000000    0.2740850000000000 H
   0.4567300000000000    0.0733900000000000    0.3225950000000000 H
   0.3495600000000000    0.0691400000000000    0.3201500000000000 H
   0.3492200000000000    0.8221800000000000    0.2738150000000000 H
   0.2500400000000000    0.8049300000000000    0.6487950000000000 H
   0.2499900000000000    0.5269000000000000    0.6662100000000000 H
   0.2500400000000000    0.7030100000000000    0.7596100000000000 H
   0.2499700000000000    0.1950400000000000    0.8511900000000000 H
   0.2500200000000000    0.4730700000000000    0.8337749999999999 H
   0.2499600000000000    0.2969600000000000    0.7403750000000000 H
   0.2499700000000000    0.6951200000000000    0.3988150000000000 H
   0.2500100000000000    0.9731300000000001    0.4162050000000000 H
   0.2499600000000000    0.7969300000000000    0.5096300000000000 H
   0.2500500000000000    0.3048600000000000    0.6011500000000000 H
   0.2499900000000000    0.0268500000000000    0.5837800000000000 H
   0.2500400000000000    0.2030400000000000    0.4903500000000000 H
   0.2500400000000000    0.8049300000000000    0.1487950000000000 H
   0.2499900000000000    0.5269000000000000    0.1662100000000000 H
   0.2500400000000000    0.7030100000000000    0.2596100000000000 H
   0.2499700000000000    0.1950400000000000    0.3511900000000000 H
   0.2500200000000000    0.4730700000000000    0.3337750000000000 H
   0.2499600000000000    0.2969600000000000    0.2403750000000000 H
   0.2499700000000000    0.6951200000000000    0.8988149999999999 H
   0.2500100000000000    0.9731300000000001    0.9162049999999999 H
   0.2499600000000000    0.7969300000000000    0.0096300000000000 H
   0.2500500000000000    0.3048600000000000    0.1011500000000000 H
   0.2499900000000000    0.0268500000000000    0.0837800000000000 H
   0.2500400000000000    0.2030400000000000    0.9903500000000001 H
   0.0434800000000000    0.6859700000000000    0.5241050000000000 H
   0.0432700000000000    0.4264800000000000    0.5726000000000000 H
   0.1504400000000000    0.4307300000000000    0.5701700000000000 H
   0.1508000000000000    0.6777500000000000    0.5238500000000000 H
   0.9562200000000000    0.6859700000000000    0.5241300000000000 H
   0.9570500000000000    0.4264400000000000    0.5725750000000001 H
   0.8498599999999999    0.4306500000000000    0.5701350000000001 H
   0.8489200000000000    0.6777300000000001    0.5238750000000000 H
   0.0434800000000000    0.6859700000000000    0.0241050000000000 H
   0.0432700000000000    0.4264800000000000    0.0726000000000000 H
   0.1504400000000000    0.4307300000000000    0.0701700000000000 H
   0.1508000000000000    0.6777500000000000    0.0238500000000000 H
   0.9562200000000000    0.6859700000000000    0.0241300000000000 H
   0.9570500000000000    0.4264400000000000    0.0725750000000000 H
   0.8498599999999999    0.4306500000000000    0.0701350000000000 H
   0.8489200000000000    0.6777300000000001    0.0238750000000000 H
   0.7500688546134029    0.3066001953332691    0.9790611116057684 H
   0.7501023527702894    0.4064702371051221    0.0774385522363262 H
   0.7500921806409083    0.3440380068337178    1.0313218730525937 H
   0.7500100000000000    0.1283812931721921    0.1398983569792578 H
   0.7499632995802133    0.6933735893181602    0.0209214067534968 H
   0.7499127542565236    0.5935475966353410    0.9225492809422470 H
   0.7499307779546566    0.6559852834875095    0.9686699731473301 H
   0.7500500000000000    0.8049300000000000    0.1487950000000000 H
   0.7500000000000000    0.5269000000000000    0.1662100000000000 H
   0.7500500000000000    0.7030100000000000    0.2596100000000000 H
   0.7499800000000000    0.1950400000000000    0.3511900000000000 H
   0.7500300000000000    0.4730700000000000    0.3337750000000000 H
   0.7499800000000000    0.2969600000000000    0.2403750000000000 H
   0.7500500000000000    0.8049300000000000    0.6487950000000000 H
   0.7500000000000000    0.5269000000000000    0.6662100000000000 H
   0.7500500000000000    0.7030100000000000    0.7596100000000000 H
   0.7499800000000000    0.1950400000000000    0.8511900000000000 H
   0.7500300000000000    0.4730700000000000    0.8337749999999999 H
   0.7499800000000000    0.2969600000000000    0.7403750000000000 H
   0.7499800000000000    0.6951200000000000    0.3988150000000000 H
   0.7500300000000000    0.9731300000000001    0.4162050000000000 H
   0.7499800000000000    0.7969300000000000    0.5096300000000000 H
   0.7500500000000000    0.3048600000000000    0.6011500000000000 H
   0.7500000000000000    0.0268500000000000    0.5837800000000000 H
   0.7500500000000000    0.2030400000000000    0.4903500000000000 H
   0.9353399999999999    0.1271500000000000    0.7154450000000000 C
   0.9358200000000000    0.9842500000000000    0.6887449999999999 C
   0.8755900000000000    0.9855400000000000    0.6899900000000000 C
   0.8750700000000000    0.1235000000000000    0.7158400000000000 C
   0.9678000000000000    0.0560000000000000    0.7019850000000000 C
   0.0645000000000000    0.1271700000000000    0.7154550000000000 C
   0.0643700000000000    0.9843000000000000    0.6887300000000001 C
   0.1245900000000000    0.9856100000000000    0.6899700000000000 C
   0.1247800000000000    0.1235400000000000    0.7158500000000000 C
   0.0322100000000000    0.0560200000000000    0.7019800000000000 C
   0.9353399999999999    0.1271500000000000    0.2154450000000000 C
   0.9358200000000000    0.9842500000000000    0.1887450000000000 C
   0.8755900000000000    0.9855400000000000    0.1899900000000000 C
   0.8750700000000000    0.1235000000000000    0.2158400000000000 C
   0.9678000000000000    0.0560000000000000    0.2019850000000000 C
   0.0645000000000000    0.1271700000000000    0.2154550000000000 C
   0.0643700000000000    0.9843000000000000    0.1887300000000000 C
   0.1245900000000000    0.9856100000000000    0.1899700000000000 C
   0.1247800000000000    0.1235400000000000    0.2158500000000000 C
   0.0322100000000000    0.0560200000000000    0.2019800000000000 C
   0.4353300000000000    0.1271500000000000    0.7154450000000000 C
   0.4358100000000000    0.9842500000000000    0.6887449999999999 C
   0.3755800000000000    0.9855400000000000    0.6899900000000000 C
   0.3750600000000000    0.1235000000000000    0.7158400000000000 C
   0.4677900000000000    0.0560000000000000    0.7019850000000000 C
   0.5645100000000000    0.1271700000000000    0.7154550000000000 C
   0.5643800000000000    0.9843000000000000    0.6887300000000001 C
   0.6246000000000000    0.9856000000000000    0.6899700000000000 C
   0.6247900000000000    0.1235300000000000    0.7158500000000000 C
   0.5322200000000000    0.0560200000000000    0.7019800000000000 C
   0.4353300000000000    0.1271500000000000    0.2154450000000000 C
   0.4358100000000000    0.9842500000000000    0.1887450000000000 C
   0.3755800000000000    0.9855400000000000    0.1899900000000000 C
   0.3750600000000000    0.1235000000000000    0.2158400000000000 C
   0.4677900000000000    0.0560000000000000    0.2019850000000000 C
   0.5645100000000000    0.1271700000000000    0.2154550000000000 C
   0.5643800000000000    0.9843000000000000    0.1887300000000000 C
   0.6246000000000000    0.9856000000000000    0.1899700000000000 C
   0.6247900000000000    0.1235300000000000    0.2158500000000000 C
   0.5322200000000000    0.0560200000000000    0.2019800000000000 C
   0.0646800000000000    0.8728200000000000    0.7845400000000000 C
   0.0642000000000000    0.0157200000000000    0.8112400000000000 C
   0.1249500000000000    0.8764700000000000    0.7841000000000000 C
   0.1244300000000000    0.0144400000000000    0.8099499999999999 C
   0.0322200000000000    0.9439700000000000    0.7980000000000000 C
   0.9355200000000000    0.8728100000000000    0.7845299999999999 C
   0.9356500000000000    0.0156800000000000    0.8112550000000001 C
   0.8754300000000000    0.0143700000000000    0.8100149999999999 C
   0.8752400000000000    0.8764400000000000    0.7841350000000000 C
   0.9678099999999999    0.9439600000000000    0.7980000000000000 C
   0.0646800000000000    0.8728200000000000    0.2845400000000000 C
   0.0642000000000000    0.0157200000000000    0.3112400000000000 C
   0.1249500000000000    0.8764700000000000    0.2841000000000000 C
   0.1244300000000000    0.0144400000000000    0.3099500000000000 C
   0.0322200000000000    0.9439700000000000    0.2980000000000000 C
   0.9355200000000000    0.8728100000000000    0.2845300000000000 C
   0.9356500000000000    0.0156800000000000    0.3112550000000000 C
   0.8754300000000000    0.0143700000000000    0.3100150000000000 C
   0.8752400000000000    0.8764400000000000    0.2841350000000000 C
   0.9678099999999999    0.9439600000000000    0.2980000000000000 C
   0.5646900000000000    0.3728900000000000    0.4654250000000000 C
   0.5642100000000000    0.5158000000000000    0.4387000000000000 C
   0.6244400000000000    0.5145100000000000    0.4399750000000000 C
   0.6249600000000000    0.3765300000000000    0.4658150000000000 C
   0.5322300000000000    0.4440600000000000    0.4519700000000000 C
   0.4355100000000000    0.3728700000000000    0.4654350000000000 C
   0.4356500000000000    0.5157600000000000    0.4387200000000000 C
   0.3754200000000000    0.5144500000000000    0.4399550000000000 C
   0.3752300000000000    0.3765000000000000    0.4658250000000000 C
   0.4678000000000000    0.4440500000000000    0.4519700000000000 C
   0.0646800000000000    0.3728900000000000    0.4654250000000000 C
   0.0642000000000000    0.5158000000000000    0.4387000000000000 C
   0.1244300000000000    0.5145100000000000    0.4399750000000000 C
   0.1249500000000000    0.3765300000000000    0.4658150000000000 C
   0.0322200000000000    0.4440600000000000    0.4519700000000000 C
   0.9355200000000000    0.3728700000000000    0.4654350000000000 C
   0.9356500000000000    0.5157600000000000    0.4387000000000000 C
   0.8754300000000000    0.5144500000000000    0.4399550000000000 C
   0.8752400000000000    0.3765000000000000    0.4658250000000000 C
   0.9678099999999999    0.4440500000000000    0.4519700000000000 C
   0.5646900000000000    0.3728900000000000    0.9654250000000000 C
   0.5642100000000000    0.5158000000000000    0.9387000000000000 C
   0.6244400000000000    0.5145100000000000    0.9399750000000000 C
   0.6249600000000000    0.3765300000000000    0.9658150000000000 C
   0.5322300000000000    0.4440600000000000    0.9519700000000000 C
   0.4355100000000000    0.3728700000000000    0.9654350000000000 C
   0.4356500000000000    0.5157600000000000    0.9387200000000000 C
   0.3754200000000000    0.5144500000000000    0.9399550000000000 C
   0.3752300000000000    0.3765000000000000    0.9658249999999999 C
   0.4678000000000000    0.4440500000000000    0.9519700000000000 C
   0.0646800000000000    0.3728900000000000    0.9654250000000000 C
   0.0642000000000000    0.5158000000000000    0.9387000000000000 C
   0.1244300000000000    0.5145100000000000    0.9399750000000000 C
   0.1249500000000000    0.3765300000000000    0.9658150000000000 C
   0.0322200000000000    0.4440600000000000    0.9519700000000000 C
   0.9355200000000000    0.3728700000000000    0.9654350000000000 C
   0.9356500000000000    0.5157600000000000    0.9387000000000000 C
   0.8754300000000000    0.5144500000000000    0.9399550000000000 C
   0.8752400000000000    0.3765000000000000    0.9658249999999999 C
   0.9678099999999999    0.4440500000000000    0.9519700000000000 C
   0.5645100000000000    0.6271000000000000    0.5345500000000000 C
   0.5643700000000000    0.4842100000000000    0.5612650000000000 C
   0.6246000000000000    0.4855200000000000    0.5600300000000000 C
   0.6247900000000000    0.6234700000000000    0.5341600000000000 C
   0.5322200000000000    0.5559300000000000    0.5480150000000000 C
   0.4353300000000000    0.6270900000000000    0.5345600000000000 C
   0.4358100000000000    0.4841700000000000    0.5612500000000000 C
   0.3755800000000000    0.4854600000000000    0.5600100000000000 C
   0.3750600000000000    0.6234400000000000    0.5341700000000000 C
   0.4677900000000000    0.5559100000000000    0.5480150000000000 C
   0.5645100000000000    0.6271000000000000    0.0345500000000000 C
   0.5643700000000000    0.4842100000000000    0.0612650000000000 C
   0.6246000000000000    0.4855200000000000    0.0600300000000000 C
   0.6247900000000000    0.6234700000000000    0.0341600000000000 C
   0.5322200000000000    0.5559300000000000    0.0480150000000000 C
   0.4353300000000000    0.6270900000000000    0.0345600000000000 C
   0.4358100000000000    0.4841700000000000    0.0612500000000000 C
   0.3755800000000000    0.4854600000000000    0.0600100000000000 C
   0.3750600000000000    0.6234400000000000    0.0341700000000000 C
   0.4677900000000000    0.5559100000000000    0.0480150000000000 C
   0.5646900000000000    0.8728200000000000    0.7845400000000000 C
   0.5642100000000000    0.0157200000000000    0.8112400000000000 C
   0.6244400000000000    0.0144400000000000    0.8099950000000000 C
   0.6249600000000000    0.8764700000000000    0.7841450000000000 C
   0.5322300000000000    0.9439700000000000    0.7980000000000000 C
   0.4355100000000000    0.8728100000000000    0.7845299999999999 C
   0.4356400000000000    0.0156800000000000    0.8112550000000001 C
   0.3754200000000000    0.0143700000000000    0.8100149999999999 C
   0.3752300000000000    0.8764400000000000    0.7841350000000000 C
   0.4678000000000000    0.9439600000000000    0.7980000000000000 C
   0.5646900000000000    0.8728200000000000    0.2845400000000000 C
   0.5642100000000000    0.0157200000000000    0.3112400000000000 C
   0.6244400000000000    0.0144400000000000    0.3099950000000000 C
   0.6249600000000000    0.8764700000000000    0.2841450000000000 C
   0.5322300000000000    0.9439700000000000    0.2980000000000000 C
   0.4355100000000000    0.8728100000000000    0.2845300000000000 C
   0.4356400000000000    0.0156800000000000    0.3112550000000000 C
   0.3754200000000000    0.0143700000000000    0.3100150000000000 C
   0.3752300000000000    0.8764400000000000    0.2841350000000000 C
   0.4678000000000000    0.9439600000000000    0.2980000000000000 C
   0.2500000000000000    0.3511900000000000    0.8875649999999999 C
   0.2500100000000000    0.6487900000000000    0.6124200000000000 C
   0.2500600000000000    0.8541800000000001    0.7215600000000000 C
   0.2499500000000000    0.1458000000000000    0.7784249999999999 C
   0.2500300000000000    0.7495200000000000    0.6676950000000000 C
   0.2500000000000000    0.5928500000000000    0.6776050000000000 C
   0.2500100000000000    0.6642200000000000    0.6535000000000000 C
   0.2500300000000000    0.6915000000000000    0.7300050000000000 C
   0.2500400000000000    0.7631300000000000    0.7058500000000000 C
   0.2500100000000000    0.6054300000000000    0.7160550000000000 C
   0.2500000000000000    0.5321200000000000    0.7400100000000001 C
   0.2500000000000000    0.4678500000000000    0.7599750000000001 C
   0.2499800000000000    0.2504500000000000    0.8322499999999999 C
   0.2500100000000000    0.4071300000000000    0.8223500000000000 C
   0.2500000000000000    0.3357500000000000    0.8464550000000000 C
   0.2499800000000000    0.3084700000000000    0.7699800000000000 C
   0.2499700000000000    0.2368400000000000    0.7940900000000000 C
   0.2500000000000000    0.3945500000000000    0.7839300000000000 C
   0.2500000000000000    0.1487300000000000    0.6375550000000000 C
   0.2500000000000000    0.8512400000000000    0.3624250000000000 C
   0.2500500000000000    0.3541800000000000    0.5284100000000000 C
   0.2499500000000000    0.6458000000000000    0.4715750000000000 C
   0.2499800000000000    0.7505100000000000    0.4177150000000000 C
   0.2500000000000000    0.9071700000000000    0.4276050000000000 C
   0.2499800000000000    0.8358100000000001    0.4035350000000000 C
   0.2499700000000000    0.8084700000000000    0.4800150000000000 C
   0.2499700000000000    0.7368600000000000    0.4559100000000000 C
   0.2499900000000000    0.8945600000000000    0.4660500000000000 C
   0.2499900000000000    0.9678500000000000    0.4900000000000000 C
   0.2500000000000000    0.0321300000000000    0.5099750000000000 C
   0.2500400000000000    0.2494700000000000    0.5822700000000000 C
   0.2500000000000000    0.0928000000000000    0.5723800000000000 C
   0.2500100000000000    0.1641600000000000    0.5960000000000000 C
   0.2500300000000000    0.1915000000000000    0.5199700000000000 C
   0.2500400000000000    0.2631100000000000    0.5440750000000000 C
   0.2500100000000000    0.1054100000000000    0.5339250000000000 C
   0.2500000000000000    0.3511900000000000    0.3875650000000000 C
   0.2500100000000000    0.6487900000000000    0.1124200000000000 C
   0.2500600000000000    0.8541800000000001    0.2215600000000000 C
   0.2499500000000000    0.1458000000000000    0.2784250000000000 C
   0.2500300000000000    0.7495200000000000    0.1676950000000000 C
   0.2500000000000000    0.5928500000000000    0.1776050000000000 C
   0.2500100000000000    0.6642200000000000    0.1535000000000000 C
   0.2500300000000000    0.6915000000000000    0.2300050000000000 C
   0.2500400000000000    0.7631300000000000    0.2058500000000000 C
   0.2500100000000000    0.6054300000000000    0.2160550000000000 C
   0.2500000000000000    0.5321200000000000    0.2400100000000000 C
   0.2500000000000000    0.4678500000000000    0.2599750000000000 C
   0.2499800000000000    0.2504500000000000    0.3322500000000000 C
   0.2500100000000000    0.4071300000000000    0.3223500000000000 C
   0.2500000000000000    0.3357500000000000    0.3464550000000000 C
   0.2499800000000000    0.3084700000000000    0.2699800000000000 C
   0.2499700000000000    0.2368400000000000    0.2940900000000000 C
   0.2500000000000000    0.3945500000000000    0.2839300000000000 C
   0.2500000000000000    0.1487300000000000    0.1375550000000000 C
   0.2500000000000000    0.8512400000000000    0.8624250000000000 C
   0.2500500000000000    0.3541800000000000    0.0284100000000000 C
   0.2499500000000000    0.6458000000000000    0.9715750000000001 C
   0.2499800000000000    0.7505100000000000    0.9177150000000001 C
   0.2500000000000000    0.9071700000000000    0.9276050000000000 C
   0.2499800000000000    0.8358100000000001    0.9035350000000000 C
   0.2499700000000000    0.8084700000000000    0.9800150000000001 C
   0.2499700000000000    0.7368600000000000    0.9559100000000000 C
   0.2499900000000000    0.8945600000000000    0.9660500000000001 C
   0.2500000000000000    0.0321300000000000    0.0099750000000000 C
   0.2499900000000000    0.9678500000000000    0.9900000000000000 C
   0.2500400000000000    0.2494700000000000    0.0822700000000000 C
   0.2500000000000000    0.0928000000000000    0.0723800000000000 C
   0.2500100000000000    0.1641600000000000    0.0960000000000000 C
   0.2500300000000000    0.1915000000000000    0.0199700000000000 C
   0.2500400000000000    0.2631100000000000    0.0440750000000000 C
   0.2500100000000000    0.1054100000000000    0.0339250000000000 C
   0.0645000000000000    0.6271000000000000    0.5345500000000000 C
   0.0643600000000000    0.4842100000000000    0.5612650000000000 C
   0.1245900000000000    0.4855300000000000    0.5600300000000000 C
   0.1247800000000000    0.6234700000000000    0.5341600000000000 C
   0.0322100000000000    0.5559300000000000    0.5480150000000000 C
   0.9353399999999999    0.6270900000000000    0.5345600000000000 C
   0.9358200000000000    0.4841700000000000    0.5612500000000000 C
   0.8755900000000000    0.4854600000000000    0.5600100000000000 C
   0.8750700000000000    0.6234400000000000    0.5341700000000000 C
   0.9678000000000000    0.5559100000000000    0.5480150000000000 C
   0.0645000000000000    0.6271000000000000    0.0345500000000000 C
   0.0643600000000000    0.4842100000000000    0.0612650000000000 C
   0.1245900000000000    0.4855300000000000    0.0600300000000000 C
   0.1247800000000000    0.6234700000000000    0.0341600000000000 C
   0.0322100000000000    0.5559300000000000    0.0480150000000000 C
   0.9353399999999999    0.6270900000000000    0.0345600000000000 C
   0.9358200000000000    0.4841700000000000    0.0612500000000000 C
   0.8755900000000000    0.4854600000000000    0.0600100000000000 C
   0.8750700000000000    0.6234400000000000    0.0341700000000000 C
   0.9678000000000000    0.5559100000000000    0.0480150000000000 C
   0.7500100000000000    0.3511900000000000    0.3875650000000000 C
   0.7500200000000000    0.6487900000000000    0.1124200000000000 C
   0.7500700000000000    0.8541800000000001    0.2215600000000000 C
   0.7499600000000000    0.1458000000000000    0.2784250000000000 C
   0.7500400000000000    0.7495200000000000    0.1676950000000000 C
   0.7500100000000000    0.5928500000000000    0.1776050000000000 C
   0.7500200000000000    0.6642200000000000    0.1535000000000000 C
   0.7500400000000000    0.6915000000000000    0.2300050000000000 C
   0.7500500000000000    0.7631300000000000    0.2058500000000000 C
   0.7500200000000000    0.6054300000000000    0.2160550000000000 C
   0.7500200000000000    0.5321200000000000    0.2400100000000000 C