Zn16 H84 C98 O56
1.0
  15.6139999976218515    0.0000000000000000   -0.0002725157093944
  -0.0018038285489767   17.2279922540576109    0.0162370050670218
   0.0000000000000000    0.0000000000000000   18.4050000000000011
Zn H C O
16 84 98 56
direct
   0.4811300000000000    0.6702000000000000    0.5872400000000000 Zn
   0.0663600000000000    0.1765100000000000    0.1410000000000000 Zn
   0.0188400000000000    0.3297800000000000    0.0871500000000000 Zn
   0.5663700000000000    0.3234900000000000    0.8589300000000000 Zn
   0.5188500000000000    0.1702100000000000    0.9128200000000000 Zn
   0.9336300000000000    0.6764600000000000    0.3589900000000000 Zn
   0.9811299999999999    0.8297800000000000    0.4127400000000000 Zn
   0.5663300000000000    0.1764800000000000    0.3589700000000000 Zn
   0.5188400000000000    0.3297900000000000    0.4127300000000000 Zn
   0.9336100000000001    0.8234800000000000    0.8589400000000000 Zn
   0.9811299999999999    0.6702000000000000    0.9128200000000000 Zn
   0.4336100000000000    0.6765000000000000    0.1410400000000000 Zn
   0.4811300000000000    0.8297700000000000    0.0871600000000000 Zn
   0.0663500000000000    0.3235200000000000    0.6409800000000000 Zn
   0.0188500000000000    0.1702000000000000    0.5872300000000000 Zn
   0.4336400000000000    0.8235100000000000    0.6410000000000000 Zn
   0.0355400000000000    0.1982900000000000    0.8593300000000000 H
   0.9608600000000000    0.2753800000000000    0.8574200000000000 H
   0.8990500000000000    0.0563100000000000    0.7556500000000000 H
   0.9985000000000001    0.0679300000000000    0.7995800000000000 H
   0.7610700000000000    0.0484400000000000    0.8303600000000000 H
   0.7667000000000000    0.0549000000000000    0.9261800000000000 H
   0.8238500000000000    0.2675800000000000    0.9313000000000000 H
   0.8029200000000000    0.1843200000000000    0.9861799999999999 H
   0.9086100000000000    0.0723800000000000    0.9894900000000000 H
   0.0000000000000000    0.0773800000000000    0.9394900000000000 H
   0.7919200000000000    0.1678500000000000    0.7516300000000000 H
   0.8165800000000000    0.2579700000000000    0.7939800000000000 H
   0.5354800000000000    0.3016500000000000    0.1406600000000000 H
   0.4607500000000000    0.2245900000000000    0.1425300000000000 H
   0.3989400000000000    0.4436500000000000    0.2443000000000000 H
   0.4984400000000000    0.4320600000000000    0.2004500000000000 H
   0.2610400000000000    0.4515900000000000    0.1694500000000000 H
   0.2668000000000000    0.4450600000000000    0.0736400000000000 H
   0.3238200000000000    0.2324300000000000    0.0685200000000000 H
   0.3029600000000000    0.3157200000000000    0.0137000000000000 H
   0.4087600000000000    0.4276300000000000    0.0104600000000000 H
   0.5050800000000000    0.4225800000000000    0.0605500000000000 H
   0.2918200000000000    0.3321500000000000    0.2482500000000000 H
   0.3164700000000000    0.2420300000000000    0.2059000000000000 H
   0.9644800000000000    0.6984200000000000    0.6408199999999999 H
   0.0392300000000000    0.7754600000000000    0.6425000000000000 H
   0.1011000000000000    0.5563700000000000    0.7446800000000000 H
   0.0015500000000000    0.5679300000000000    0.7008600000000000 H
   0.2388600000000000    0.5485000000000000    0.6699400000000000 H
   0.2332300000000000    0.5549600000000000    0.5741000000000001 H
   0.1761400000000000    0.7676400000000000    0.5685800000000000 H
   0.1970000000000000    0.6843700000000000    0.5138900000000000 H
   0.0911200000000000    0.5724500000000000    0.5108300000000000 H
   0.9948600000000000    0.5775400000000001    0.5609800000000000 H
   0.2081500000000000    0.6678700000000000    0.7484600000000000 H
   0.1835000000000000    0.7580100000000000    0.7059900000000000 H
   0.5355300000000000    0.1983000000000000    0.6408300000000000 H
   0.4608900000000000    0.2754200000000000    0.6425800000000000 H
   0.3987000000000000    0.0563800000000000    0.7446700000000001 H
   0.4983100000000000    0.0678600000000000    0.7009300000000001 H
   0.2610200000000000    0.0485300000000000    0.6698600000000000 H
   0.2667200000000000    0.0550200000000000    0.5740000000000000 H
   0.3239300000000000    0.2676600000000000    0.5685400000000000 H
   0.3030400000000000    0.1844000000000000    0.5138500000000000 H
   0.4088600000000000    0.0724300000000000    0.5108300000000000 H
   0.5051000000000000    0.0775000000000000    0.5610100000000000 H
   0.2918000000000000    0.1679700000000000    0.7484200000000000 H
   0.3165400000000000    0.2580600000000000    0.7059100000000000 H
   0.9644400000000000    0.8017000000000000    0.1406400000000000 H
   0.0391200000000000    0.7246100000000000    0.1425500000000000 H
   0.1009200000000000    0.9436800000000000    0.2443200000000000 H
   0.0014700000000000    0.9320500000000000    0.2003900000000000 H
   0.2389000000000000    0.9515500000000000    0.1696200000000000 H
   0.2332800000000000    0.9450800000000000    0.0737900000000000 H
   0.1761200000000000    0.7324100000000000    0.0686300000000000 H
   0.1970500000000000    0.8156700000000000    0.0137900000000000 H
   0.0913600000000000    0.9276100000000000    0.0104900000000000 H
   0.9949800000000000    0.9226100000000000    0.0604000000000000 H
   0.2080600000000000    0.8321400000000000    0.2483400000000000 H
   0.1834000000000000    0.7420200000000000    0.2059900000000000 H
   0.4644900000000000    0.6983300000000000    0.8593100000000000 H
   0.5392200000000000    0.7754000000000000    0.8574400000000000 H
   0.6010400000000000    0.5563399999999999    0.7556800000000000 H
   0.5015400000000000    0.5679300000000000    0.7995200000000000 H
   0.7389400000000000    0.5484000000000000    0.8305200000000000 H
   0.7331800000000001    0.5549300000000000    0.9263400000000001 H
   0.6761600000000000    0.7675600000000000    0.9314500000000000 H
   0.6970100000000000    0.6842800000000000    0.9862700000000000 H
   0.5912200000000000    0.5723600000000000    0.9895100000000000 H
   0.4949000000000000    0.5774000000000000    0.9394300000000000 H
   0.7081600000000000    0.6678500000000001    0.7517200000000001 H
   0.6835100000000000    0.7579600000000000    0.7940700000000001 H
   0.0355000000000000    0.3015700000000000    0.3591500000000000 H
   0.9607400000000000    0.2245200000000000    0.3573900000000000 H
   0.8988800000000000    0.4436200000000000    0.2550000000000000 H
   0.9984300000000000    0.4320600000000000    0.2991100000000000 H
   0.7611200000000000    0.4514900000000000    0.3300300000000000 H
   0.7667500000000000    0.4450200000000000    0.4258700000000000 H
   0.8238400000000000    0.2323400000000000    0.4313900000000000 H
   0.8029700000000000    0.3156100000000000    0.4860800000000000 H
   0.9088600000000000    0.4275400000000000    0.4891400000000000 H
   0.0000000000000000    0.4224400000000000    0.4389900000000000 H
   0.7918300000000000    0.3321100000000000    0.2515100000000000 H
   0.8164700000000000    0.2419800000000000    0.2939800000000000 H
   0.5788800000000000    0.6731700000000000    0.7963900000000000 C
   0.5695900000000000    0.5841900000000000    0.8020699999999999 C
   0.6088400000000000    0.5548700000000000    0.8733900000000000 C
   0.7048700000000000    0.5766700000000000    0.8756800000000000 C
   0.9686000000000000    0.2233200000000000    0.9972900000000000 C
   0.9277300000000001    0.1823200000000000    0.9328300000000000 C
   0.9667300000000000    0.2120600000000000    0.8608900000000000 C
   0.9211600000000000    0.1731500000000000    0.7963700000000000 C
   0.9304400000000000    0.0841800000000000    0.8020699999999999 C
   0.8911100000000000    0.0548700000000000    0.8733600000000000 C
   0.7950900000000000    0.0766800000000000    0.8755700000000000 C
   0.7848500000000000    0.1652300000000000    0.8700000000000000 C
   0.8314500000000000    0.2042700000000000    0.9347299999999999 C
   0.9367900000000000    0.0934400000000000    0.9385000000000000 C
   0.8247400000000000    0.1947700000000000    0.7981400000000000 C
   0.9597100000000000    0.2002500000000000    0.7242600000000000 C
   0.8983300000000000    0.9662600000000000    0.8796800000000000 C
   0.6913400000000000    0.1906600000000000    0.8757600000000000 C
   0.4686100000000000    0.2766700000000000    0.0000000000000000 C
   0.4277500000000000    0.3176700000000000    0.0671200000000000 C
   0.4666800000000000    0.2879100000000000    0.1390700000000000 C
   0.4211000000000000    0.3268200000000000    0.2035800000000000 C
   0.4303900000000000    0.4158000000000000    0.1979000000000000 C
   0.3911400000000000    0.4451200000000000    0.1265800000000000 C
   0.2951100000000000    0.4233200000000000    0.1243000000000000 C
   0.2848400000000000    0.3347700000000000    0.1298000000000000 C
   0.3314600000000000    0.2957400000000000    0.0651600000000000 C
   0.4368700000000000    0.4065500000000000    0.0614000000000000 C
   0.3246800000000000    0.3052200000000000    0.2017700000000000 C
   0.4596500000000000    0.2997100000000000    0.2757000000000000 C
   0.3983800000000000    0.5337000000000000    0.1202800000000000 C
   0.1913300000000000    0.3093500000000000    0.1241400000000000 C
   0.0313400000000000    0.7233800000000000    0.5027700000000001 C
   0.0722200000000000    0.6824000000000000    0.5672900000000000 C
   0.0333000000000000    0.7121499999999999    0.6390000000000000 C
   0.0788800000000000    0.6732000000000000    0.7037600000000001 C
   0.0696000000000000    0.5842100000000000    0.6982400000000000 C
   0.1088400000000000    0.5549400000000000    0.6269600000000000 C
   0.2048700000000000    0.5767500000000000    0.6246800000000000 C
   0.2151400000000000    0.6652800000000000    0.6301000000000000 C
   0.1685100000000000    0.7043300000000000    0.5653200000000000 C
   0.0630900000000000    0.5935500000000000    0.5618000000000000 C
   0.1753000000000000    0.6948200000000000    0.7019300000000001 C
   0.0403400000000000    0.7003100000000000    0.7758100000000000 C
   0.1015500000000000    0.4664100000000000    0.6205000000000001 C
   0.3086500000000000    0.6907000000000000    0.6242500000000000 C
   0.4686700000000000    0.2233700000000000    0.5027600000000000 C
   0.4277900000000000    0.1823800000000000    0.5672000000000000 C
   0.4667400000000000    0.2121000000000000    0.6391900000000000 C
   0.4210900000000000    0.1731900000000000    0.7037500000000000 C
   0.4302800000000000    0.0841900000000000    0.6982500000000000 C
   0.3910700000000000    0.0549400000000000    0.6269500000000000 C
   0.2950600000000000    0.0767700000000000    0.6246300000000000 C
   0.2848400000000000    0.1653100000000000    0.6300500000000000 C
   0.3315100000000000    0.2043500000000000    0.5652000000000000 C
   0.4368800000000000    0.0935300000000000    0.5618000000000000 C
   0.3246900000000000    0.1948600000000000    0.7018799999999999 C
   0.4596300000000000    0.2003100000000000    0.7758000000000000 C
   0.3983500000000000    0.9663800000000000    0.6205400000000000 C
   0.1913400000000000    0.1907400000000000    0.6242100000000000 C
   0.0313700000000000    0.7766700000000000    0.0000000000000000 C
   0.0722500000000000    0.8176700000000000    0.0671400000000000 C
   0.0332400000000000    0.7879300000000000    0.1390800000000000 C
   0.0788100000000000    0.8268400000000000    0.2036000000000000 C
   0.0695300000000000    0.9158100000000000    0.1979000000000000 C
   0.1088600000000000    0.9451200000000000    0.1266100000000000 C
   0.2048900000000000    0.9233100000000000    0.1244100000000000 C
   0.2151300000000000    0.8347599999999999    0.1299700000000000 C
   0.1685300000000000    0.7957200000000000    0.0652400000000000 C
   0.0631800000000000    0.9065500000000000    0.0614600000000000 C
   0.1752300000000000    0.8052200000000000    0.2018400000000000 C
   0.0402700000000000    0.7997400000000000    0.2757100000000000 C
   0.1016500000000000    0.0337200000000000    0.1202900000000000 C
   0.3086400000000000    0.8093200000000000    0.1242100000000000 C
   0.5313600000000001    0.7233200000000000    0.9973100000000000 C
   0.5722300000000000    0.6823200000000000    0.9328600000000000 C
   0.5333000000000000    0.7120800000000000    0.8609000000000000 C
   0.7151300000000000    0.6652200000000000    0.8701000000000000 C
   0.6685200000000000    0.7042500000000000    0.9348200000000000 C
   0.5631200000000000    0.5934400000000000    0.9385200000000000 C
   0.6753000000000000    0.6947700000000000    0.7982100000000000 C
   0.5403300000000000    0.7002800000000000    0.7242800000000000 C
   0.6016000000000000    0.4662800000000000    0.8796900000000000 C
   0.8086500000000000    0.6906400000000000    0.8758300000000000 C
   0.9686300000000000    0.2766100000000000    0.4972000000000000 C
   0.9277600000000000    0.3175900000000000    0.4326800000000000 C
   0.9666800000000000    0.2878400000000000    0.3607800000000000 C
   0.9211000000000000    0.3267900000000000    0.2962100000000000 C
   0.9303800000000000    0.4157800000000000    0.3017300000000000 C
   0.8911400000000000    0.4450400000000000    0.3730200000000000 C
   0.7951100000000000    0.4232400000000000    0.3752900000000000 C
   0.7848400000000000    0.3347000000000000    0.3698800000000000 C
   0.8314700000000000    0.2956500000000000    0.4346600000000000 C
   0.9368900000000000    0.4064300000000000    0.4381700000000000 C
   0.8246800000000000    0.3051700000000000    0.2980400000000000 C
   0.9596300000000000    0.2996700000000000    0.2241700000000000 C
   0.8984300000000000    0.5335800000000001    0.3794300000000000 C
   0.6913300000000000    0.3092900000000000    0.3757200000000000 C
   0.4812100000000000    0.1865500000000000    0.4440200000000000 O
   0.4850000000000000    0.2965800000000000    0.5091200000000000 O
   0.5041400000000000    0.2615600000000000    0.7779000000000000 O
   0.4443100000000000    0.1563700000000000    0.8313700000000001 O
   0.4341200000000000    0.9301500000000000    0.6751000000000000 O
   0.9811400000000000    0.1864900000000000    0.0560900000000000 O
   0.9849599999999999    0.2965300000000000    0.9908200000000000 O
   0.0042200000000000    0.2615000000000000    0.7220800000000001 O
   0.9443200000000000    0.1563800000000000    0.6687400000000000 O
   0.9340000000000001    0.9302200000000000    0.8250100000000000 O
   0.8707800000000000    0.9307800000000001    0.9341200000000000 O
   0.6365800000000000    0.1397100000000000    0.8968800000000000 O
   0.6743800000000000    0.2611900000000000    0.8622200000000000 O
   0.4811500000000000    0.3135000000000000    0.9438700000000000 O
   0.4849700000000000    0.2034600000000000    0.0000000000000000 O
   0.5041099999999999    0.2384300000000000    0.2778000000000000 O
   0.4443200000000000    0.3436000000000000    0.3312200000000000 O
   0.4340200000000000    0.5697400000000000    0.1749600000000000 O
   0.3708000000000000    0.5691900000000000    0.0658000000000000 O
   0.1365700000000000    0.3603100000000000    0.1030700000000000 O
   0.1743600000000000    0.2388300000000000    0.1377000000000000 O
   0.0187900000000000    0.6865500000000000    0.4440300000000000 O
   0.0150100000000000    0.7965800000000000    0.5091300000000000 O
   0.9958300000000000    0.7615700000000000    0.7779000000000000 O
   0.0556700000000000    0.6563700000000000    0.8313700000000001 O
   0.0658000000000000    0.4301600000000000    0.6751000000000000 O
   0.1291200000000000    0.4311600000000000    0.5660400000000000 O
   0.3633600000000000    0.6397500000000000    0.6031000000000000 O
   0.3256400000000000    0.7612000000000000    0.6377300000000000 O
   0.3708000000000000    0.9311100000000000    0.5660400000000000 O
   0.1366200000000000    0.1397800000000000    0.6031300000000001 O
   0.1743700000000000    0.2612500000000000    0.6375999999999999 O
   0.0188300000000000    0.8135000000000000    0.9438800000000001 O
   0.0150100000000000    0.7034500000000000    0.0000000000000000 O
   0.9957500000000000    0.7384900000000000    0.2778900000000000 O
   0.0556600000000000    0.8436100000000000    0.3312400000000000 O
   0.0659800000000000    0.0697600000000000    0.1749600000000000 O
   0.1292000000000000    0.0692000000000000    0.0658600000000000 O
   0.3634000000000000    0.8602800000000000    0.1031000000000000 O
   0.3255900000000000    0.7388000000000000    0.1377600000000000 O
   0.5188300000000000    0.6864900000000000    0.0561000000000000 O
   0.5150100000000000    0.7965300000000000    0.9908300000000000 O
   0.4958700000000000    0.7615600000000000    0.7220900000000000 O
   0.5556500000000000    0.6563800000000000    0.6687500000000000 O
   0.5659500000000000    0.4302500000000000    0.8250000000000000 O
   0.6291800000000000    0.4307900000000000    0.9341200000000000 O
   0.8633999999999999    0.6396800000000000    0.8969000000000000 O
   0.8256100000000000    0.7611599999999999    0.8622700000000000 O
   0.9811800000000001    0.3134400000000000    0.5558999999999999 O
   0.9849700000000000    0.2034000000000000    0.4908500000000000 O
   0.0041400000000000    0.2384200000000000    0.2220700000000000 O
   0.9443100000000000    0.3436100000000000    0.1686000000000000 O
   0.9341800000000000    0.5698299999999999    0.3248700000000000 O
   0.8708600000000000    0.5688299999999999    0.4339300000000000 O
   0.6366200000000000    0.3602400000000000    0.3968300000000000 O
   0.6743300000000000    0.2387800000000000    0.3622400000000000 O
