H4 C8 O4
1.0
  31.9891992506546572    0.0000000000000000   18.1672253055307102
  10.5737633691295372   30.1924748584302591   18.1649919938520981
   0.0000000000000000    0.0000000000000000   36.7879999999999967
H C O
4 8 4
direct
   0.1679300000000000    0.2839650000000000    0.0241950000000000 H
   0.2839600000000000    0.1679450000000000    0.0241900000000000 H
   0.2160350000000000    0.3320650000000000    0.9758100000000001 H
   0.3320650000000000    0.2160450000000000    0.9758050000000000 H
   0.2038800000000000    0.2694800000000000    0.0134000000000000 C
   0.2694750000000000    0.2038900000000000    0.0134000000000000 C
   0.1945500000000000    0.1945600000000000    0.0557850000000000 C
   0.2231950000000000    0.2232050000000000    0.0269750000000000 C
   0.2305200000000000    0.2961200000000000    0.9865999999999999 C
   0.2961150000000000    0.2305300000000000    0.9865950000000000 C
   0.3054450000000000    0.3054500000000000    0.9442050000000000 C
   0.2767950000000000    0.2768050000000000    0.9730400000000000 C
   0.2142850000000000    0.1527300000000000    0.0669400000000000 O
   0.1527150000000000    0.2142900000000000    0.0665000000000000 O
   0.3472750000000000    0.2857200000000000    0.9331000000000000 O
   0.2857100000000000    0.3472800000000000    0.9330650000000000 O
