Cd24 H191 C270 N15 O112
1.0
  26.9161193845364259    0.0000000000000000   -3.3678469795081964
  -0.5169591732029039   13.8748987413747749   -0.5130049998177872
   0.0000000000000000    0.0000000000000000   32.1799999999999997
Cd H C N O
24 191 270 15 112
direct
   0.8273300000000000    0.3304700000000000    0.6254050000000000 Cd
   0.7181000000000000    0.5547100000000000    0.6285050000000000 Cd
   0.6725800000000000    0.6691300000000000    0.3728150000000000 Cd
   0.7819400000000001    0.4452600000000000    0.3697500000000000 Cd
   0.1244250000000000    0.7587100000000000    0.6197250000000000 Cd
   0.3755800000000000    0.2412400000000000    0.3785200000000000 Cd
   0.8755800000000000    0.2412400000000000    0.3785200000000000 Cd
   0.3273300000000000    0.3304700000000000    0.6254050000000000 Cd
   0.2181000000000000    0.5547100000000000    0.6285050000000000 Cd
   0.1725800000000000    0.6691300000000000    0.3728150000000000 Cd
   0.2819400000000000    0.4452600000000000    0.3697500000000000 Cd
   0.6244250000000000    0.7587100000000000    0.6197250000000000 Cd
   0.8273300000000000    0.3304700000000000    0.1254050000000000 Cd
   0.7181000000000000    0.5547100000000000    0.1285050000000000 Cd
   0.6725800000000000    0.6691300000000000    0.8728150000000000 Cd
   0.7819400000000001    0.4452600000000000    0.8697500000000000 Cd
   0.1244250000000000    0.7587100000000000    0.1197250000000000 Cd
   0.3755800000000000    0.2412400000000000    0.8785200000000000 Cd
   0.3273300000000000    0.3304700000000000    0.1254050000000000 Cd
   0.2181000000000000    0.5547100000000000    0.1285050000000000 Cd
   0.1725800000000000    0.6691300000000000    0.8728150000000000 Cd
   0.2819400000000000    0.4452600000000000    0.8697500000000000 Cd
   0.6244250000000000    0.7587100000000000    0.1197250000000000 Cd
   0.8755800000000000    0.2412400000000000    0.8785200000000000 Cd
   0.7036952676080920    0.9029232250461890    0.1718514468826421 H
   0.6066993617169674    0.9606549646630592    0.0731209573062426 H
   0.6563997067743705    0.9404463383161951    0.1223113985035269 H
   0.8382050000000000    0.0272600000000000    0.5806600000000000 H
   0.8674850000000001    0.9277600000000000    0.6065550000000000 H
   0.8014399999999999    0.9265600000000001    0.5944350000000000 H
   0.8237850000000000    0.9972100000000000    0.7081100000000000 H
   0.8607600000000000    0.9133300000000000    0.6836150000000000 H
   0.7946350000000000    0.9065500000000000    0.6713000000000000 H
   0.8898650000000000    0.2551100000000000    0.7795200000000000 H
   0.8987050000000000    0.1595400000000000    0.7138350000000000 H
   0.7341299999999999    0.2802600000000000    0.7389700000000000 H
   0.6413600000000000    0.2720500000000000    0.5962800000000000 H
   0.6154100000000000    0.0962600000000000    0.5830250000000000 H
   0.7315550000000000    0.0217400000000000    0.6772700000000000 H
   0.0000000000000000    0.3387700000000000    0.6858150000000001 H
   0.0361700000000000    0.4088000000000000    0.6731250000000000 H
   0.0354850000000000    0.2806000000000000    0.6673100000000000 H
   0.0018150000000000    0.3635800000000000    0.5588500000000000 H
   0.0463800000000000    0.2971200000000000    0.5906050000000000 H
   0.0463650000000000    0.4251500000000000    0.5973400000000000 H
   0.8648650000000000    0.6965900000000000    0.6497800000000000 H
   0.9540649999999999    0.7604600000000000    0.6591400000000001 H
   0.9885800000000000    0.5461400000000000    0.5695200000000000 H
   0.8686550000000000    0.2217900000000000    0.4813250000000000 H
   0.8626100000000000    0.5270100000000000    0.5045400000000000 H
   0.9148100000000000    0.2060500000000000    0.5527850000000000 H
   0.6618900000000000    0.0000000000000000    0.4177250000000000 H
   0.6326000000000001    0.0717800000000000    0.3919000000000000 H
   0.6986550000000000    0.0729300000000000    0.4039700000000000 H
   0.6762000000000000    0.0025900000000000    0.2902700000000000 H
   0.6392700000000000    0.0864200000000000    0.3148400000000000 H
   0.7054000000000000    0.0931300000000000    0.3271150000000000 H
   0.6101350000000000    0.7446400000000000    0.2187700000000000 H
   0.6012649999999999    0.8400400000000000    0.2845000000000000 H
   0.7659150000000000    0.7198700000000000    0.2592350000000000 H
   0.8585950000000000    0.7279000000000000    0.4020250000000000 H
   0.8845550000000000    0.9036900000000000    0.4152750000000000 H
   0.7684750000000000    0.9782200000000000    0.3209800000000000 H
   0.4981750000000000    0.6361000000000000    0.4394900000000000 H
   0.4535200000000000    0.7023100000000000    0.4077150000000000 H
   0.4536550000000000    0.5742800000000000    0.4010550000000000 H
   0.5161600000000000    0.6605300000000000    0.3124800000000000 H
   0.4637400000000000    0.5904700000000001    0.3252600000000000 H
   0.4643500000000000    0.7186800000000000    0.3309700000000000 H
   0.6313200000000000    0.7781700000000000    0.5169049999999999 H
   0.5851100000000000    0.7937700000000000    0.4454550000000000 H
   0.6374700000000000    0.4729600000000000    0.4937600000000000 H
   0.6351900000000000    0.3030600000000000    0.3486100000000000 H
   0.5459750000000000    0.2392300000000000    0.3392400000000000 H
   0.5114550000000000    0.4537300000000000    0.4287850000000000 H
   0.7324481110885872    0.3588335689351387    0.2841393998192305 H
   0.8757220934800709    0.3292971462430394    0.3311687878971204 H
   0.8062181062197573    0.3402263286001175    0.3059140721554785 H
   0.3382050000000000    0.0272600000000000    0.5806600000000000 H
   0.3674850000000000    0.9277600000000000    0.6065550000000000 H
   0.3014400000000000    0.9265600000000001    0.5944350000000000 H
   0.3237850000000000    0.9972100000000000    0.7081100000000000 H
   0.3607600000000000    0.9133300000000000    0.6836150000000000 H
   0.2946350000000000    0.9065500000000000    0.6713000000000000 H
   0.3898650000000000    0.2551100000000000    0.7795200000000000 H
   0.3987050000000000    0.1595400000000000    0.7138350000000000 H
   0.2341300000000000    0.2802600000000000    0.7389700000000000 H
   0.1413600000000000    0.2720500000000000    0.5962800000000000 H
   0.1154100000000000    0.0962600000000000    0.5830250000000000 H
   0.2315550000000000    0.0217400000000000    0.6772700000000000 H
   0.5000000000000000    0.3387700000000000    0.6858150000000001 H
   0.5361700000000000    0.4088000000000000    0.6731250000000000 H
   0.5354850000000000    0.2806000000000000    0.6673100000000000 H
   0.5018150000000000    0.3635800000000000    0.5588500000000000 H
   0.5463800000000000    0.2971200000000000    0.5906050000000000 H
   0.5463650000000000    0.4251500000000000    0.5973400000000000 H
   0.3648650000000000    0.6965900000000000    0.6497800000000000 H
   0.4540650000000000    0.7604600000000000    0.6591400000000001 H
   0.4885800000000000    0.5461400000000000    0.5695200000000000 H
   0.3686550000000000    0.2217900000000000    0.4813250000000000 H
   0.3626100000000000    0.5270100000000000    0.5045400000000000 H
   0.4148100000000000    0.2060500000000000    0.5527850000000000 H
   0.1618900000000000    0.0000000000000000    0.4177250000000000 H
   0.1326000000000000    0.0717800000000000    0.3919000000000000 H
   0.1986550000000000    0.0729300000000000    0.4039700000000000 H
   0.1762000000000000    0.0025900000000000    0.2902700000000000 H
   0.1392700000000000    0.0864200000000000    0.3148400000000000 H
   0.2054000000000000    0.0931300000000000    0.3271150000000000 H
   0.1101350000000000    0.7446400000000000    0.2187700000000000 H
   0.1012650000000000    0.8400400000000000    0.2845000000000000 H
   0.2659150000000000    0.7198700000000000    0.2592350000000000 H
   0.3585950000000000    0.7279000000000000    0.4020250000000000 H
   0.3845550000000000    0.9036900000000000    0.4152750000000000 H
   0.2684750000000000    0.9782200000000000    0.3209800000000000 H
   0.9981750000000000    0.6361000000000000    0.4394900000000000 H
   0.9535199999999999    0.7023100000000000    0.4077150000000000 H
   0.9536549999999999    0.5742800000000000    0.4010550000000000 H
   0.0161600000000000    0.6605300000000000    0.3124800000000000 H
   0.9637400000000000    0.5904700000000001    0.3252600000000000 H
   0.9643500000000000    0.7186800000000000    0.3309700000000000 H
   0.1313200000000000    0.7781700000000000    0.5169049999999999 H
   0.0851100000000000    0.7937700000000000    0.4454550000000000 H
   0.1374700000000000    0.4729600000000000    0.4937600000000000 H
   0.1351900000000000    0.3030600000000000    0.3486100000000000 H
   0.0459750000000000    0.2392300000000000    0.3392400000000000 H
   0.0114550000000000    0.4537300000000000    0.4287850000000000 H
   0.8266067114126728    0.1286361641060919    0.1407358815041872 H
   0.8273366513799324    0.1316295020767184    0.0875247580907193 H
   0.0000000000000000    0.3387700000000000    0.1858150000000000 H
   0.0361700000000000    0.4088000000000000    0.1731250000000000 H
   0.0354850000000000    0.2806000000000000    0.1673100000000000 H
   0.0018150000000000    0.3635800000000000    0.0588500000000000 H
   0.0463800000000000    0.2971200000000000    0.0906050000000000 H
   0.0463650000000000    0.4251500000000000    0.0973400000000000 H
   0.8648650000000000    0.6965900000000000    0.1497800000000000 H
   0.9540649999999999    0.7604600000000000    0.1591400000000000 H
   0.9885800000000000    0.5461400000000000    0.0695200000000000 H
   0.8686550000000000    0.2217900000000000    0.9813250000000000 H
   0.8626100000000000    0.5270100000000000    0.0045400000000000 H
   0.9148100000000000    0.2060500000000000    0.0527850000000000 H
   0.7787283236297071    0.3342313445238937    0.1737718500187552 H
   0.6961450800916572    0.3684881267721521    0.1595876417142323 H
   0.6464833270522919    0.4026775532971538    0.1451809703102297 H
   0.6618900000000000    0.0000000000000000    0.9177250000000000 H
   0.6326000000000001    0.0717800000000000    0.8919000000000000 H
   0.6986550000000000    0.0729300000000000    0.9039699999999999 H
   0.6762000000000000    0.0025900000000000    0.7902700000000000 H
   0.6392700000000000    0.0864200000000000    0.8148400000000000 H
   0.7054000000000000    0.0931300000000000    0.8271150000000000 H
   0.6101350000000000    0.7446400000000000    0.7187700000000000 H
   0.6012649999999999    0.8400400000000000    0.7845000000000000 H
   0.7659150000000000    0.7198700000000000    0.7592350000000000 H
   0.8585950000000000    0.7279000000000000    0.9020250000000001 H
   0.8845550000000000    0.9036900000000000    0.9152750000000001 H
   0.7684750000000000    0.9782200000000000    0.8209800000000000 H
   0.4981750000000000    0.6361000000000000    0.9394899999999999 H
   0.4535200000000000    0.7023100000000000    0.9077150000000000 H
   0.4536550000000000    0.5742800000000000    0.9010549999999999 H
   0.5161600000000000    0.6605300000000000    0.8124800000000000 H
   0.4637400000000000    0.5904700000000001    0.8252600000000000 H
   0.4643500000000000    0.7186800000000000    0.8309700000000000 H
   0.6313200000000000    0.7781700000000000    0.0169050000000000 H
   0.5851100000000000    0.7937700000000000    0.9454549999999999 H
   0.6374700000000000    0.4729600000000000    0.9937600000000000 H
   0.6351900000000000    0.3030600000000000    0.8486100000000000 H
   0.5459750000000000    0.2392300000000000    0.8392400000000000 H
   0.5114550000000000    0.4537300000000000    0.9287850000000000 H
   0.3382050000000000    0.0272600000000000    0.0806600000000000 H
   0.3674850000000000    0.9277600000000000    0.1065550000000000 H
   0.3014400000000000    0.9265600000000001    0.0944350000000000 H
   0.3237850000000000    0.9972100000000000    0.2081100000000000 H
   0.3607600000000000    0.9133300000000000    0.1836150000000000 H
   0.2946350000000000    0.9065500000000000    0.1713000000000000 H
   0.3898650000000000    0.2551100000000000    0.2795200000000000 H
   0.3987050000000000    0.1595400000000000    0.2138350000000000 H
   0.2341300000000000    0.2802600000000000    0.2389700000000000 H
   0.1413600000000000    0.2720500000000000    0.0962800000000000 H
   0.1154100000000000    0.0962600000000000    0.0830250000000000 H
   0.2315550000000000    0.0217400000000000    0.1772700000000000 H
   0.5000000000000000    0.3387700000000000    0.1858150000000000 H
   0.5361700000000000    0.4088000000000000    0.1731250000000000 H
   0.5354850000000000    0.2806000000000000    0.1673100000000000 H
   0.5018150000000000    0.3635800000000000    0.0588500000000000 H
   0.5463800000000000    0.2971200000000000    0.0906050000000000 H
   0.5463650000000000    0.4251500000000000    0.0973400000000000 H
   0.3648650000000000    0.6965900000000000    0.1497800000000000 H
   0.4540650000000000    0.7604600000000000    0.1591400000000000 H
   0.4885800000000000    0.5461400000000000    0.0695200000000000 H
   0.3686550000000000    0.2217900000000000    0.9813250000000000 H
   0.3626100000000000    0.5270100000000000    0.0045400000000000 H
   0.4148100000000000    0.2060500000000000    0.0527850000000000 H
   0.1618900000000000    0.0000000000000000    0.9177250000000000 H
   0.1326000000000000    0.0717800000000000    0.8919000000000000 H
   0.1986550000000000    0.0729300000000000    0.9039699999999999 H
   0.1762000000000000    0.0025900000000000    0.7902700000000000 H
   0.1392700000000000    0.0864200000000000    0.8148400000000000 H
   0.2054000000000000    0.0931300000000000    0.8271150000000000 H
   0.1101350000000000    0.7446400000000000    0.7187700000000000 H
   0.1012650000000000    0.8400400000000000    0.7845000000000000 H
   0.2659150000000000    0.7198700000000000    0.7592350000000000 H
   0.3585950000000000    0.7279000000000000    0.9020250000000001 H
   0.3845550000000000    0.9036900000000000    0.9152750000000001 H
   0.2684750000000000    0.9782200000000000    0.8209800000000000 H
   0.9981750000000000    0.6361000000000000    0.9394899999999999 H
   0.9535199999999999    0.7023100000000000    0.9077150000000000 H
   0.9536549999999999    0.5742800000000000    0.9010549999999999 H
   0.0161600000000000    0.6605300000000000    0.8124800000000000 H
   0.9637400000000000    0.5904700000000001    0.8252600000000000 H
   0.9643500000000000    0.7186800000000000    0.8309700000000000 H
   0.1313200000000000    0.7781700000000000    0.0169050000000000 H
   0.0851100000000000    0.7937700000000000    0.9454549999999999 H
   0.1374700000000000    0.4729600000000000    0.9937600000000000 H
   0.1351900000000000    0.3030600000000000    0.8486100000000000 H
   0.0459750000000000    0.2392300000000000    0.8392400000000000 H
   0.0114550000000000    0.4537300000000000    0.9287850000000000 H
   0.6562950000000000    0.9447600000000000    0.6236250000000000 C
   0.8045650000000000    0.3331600000000000    0.8013700000000000 C
   0.7164050000000000    0.3498000000000000    0.6471250000000000 C
   0.8348350000000000    0.9729500000000000    0.6039400000000000 C
   0.8272400000000000    0.9560200000000000    0.6790800000000000 C
   0.8264750000000001    0.1165700000000000    0.6481700000000000 C
   0.8577049999999999    0.2389700000000000    0.7561599999999999 C
   0.8624450000000000    0.1849700000000000    0.7195950000000000 C
   0.7698050000000001    0.2523600000000000    0.7331050000000000 C
   0.7737300000000000    0.1979000000000000    0.6964100000000000 C
   0.8111699999999999    0.2731400000000000    0.7628900000000001 C
   0.8208050000000000    0.1642000000000000    0.6897150000000000 C
   0.6611600000000000    0.2159600000000000    0.6134700000000000 C
   0.6467450000000000    0.1193000000000000    0.6061650000000000 C
   0.7131900000000000    0.0773000000000000    0.6587499999999999 C
   0.6725300000000000    0.0491700000000000    0.6293100000000000 C
   0.7293950000000000    0.1739100000000000    0.6652750000000001 C
   0.7024550000000001    0.2444100000000000    0.6426250000000000 C
   0.0122200000000000    0.3439400000000000    0.6647550000000000 C
   0.0225450000000000    0.3596700000000000    0.5900750000000000 C
   0.8243199999999999    0.5478400000000000    0.6034500000000000 C
   0.8352299999999999    0.3870900000000000    0.4460650000000000 C
   0.0290100000000000    0.6952000000000000    0.6186650000000000 C
   0.9386900000000000    0.3483400000000000    0.6128550000000000 C
   0.8927900000000000    0.6636800000000000    0.6328400000000001 C
   0.9417100000000000    0.6992100000000000    0.6378550000000001 C
   0.9613300000000000    0.5767500000000000    0.5878350000000000 C
   0.9763100000000000    0.6563900000000000    0.6148100000000000 C
   0.9127050000000000    0.5376500000000000    0.5837600000000001 C
   0.8776750000000000    0.5828400000000000    0.6062149999999999 C
   0.8777950000000000    0.2850600000000000    0.5000000000000000 C
   0.8633750000000000    0.3758600000000000    0.4887350000000000 C
   0.8748100000000000    0.4573400000000000    0.5154350000000000 C
   0.9003500000000000    0.4503000000000000    0.5555750000000000 C
   0.9036200000000000    0.2765800000000000    0.5420700000000001 C
   0.9152500000000000    0.3587100000000000    0.5686850000000000 C
   0.6652450000000000    0.0265600000000000    0.3944700000000000 C
   0.6727799999999999    0.0436900000000000    0.3193300000000000 C
   0.8437200000000000    0.0551600000000000    0.3746550000000000 C
   0.6954500000000000    0.6668400000000000    0.1968700000000000 C
   0.7835850000000000    0.6501700000000000    0.3511300000000000 C
   0.6735150000000000    0.8830400000000000    0.3501450000000000 C
   0.6422950000000001    0.7608300000000000    0.2421200000000000 C
   0.6375400000000000    0.8147400000000000    0.2787100000000000 C
   0.7302250000000000    0.7476600000000000    0.2651300000000000 C
   0.7262850000000000    0.8020400000000000    0.3018400000000000 C
   0.6888500000000000    0.7268300000000000    0.2353550000000000 C
   0.6791900000000000    0.8355600000000000    0.3085750000000000 C
   0.8388150000000000    0.7839900000000000    0.3848200000000000 C
   0.8532350000000000    0.8806400000000000    0.3921200000000000 C
   0.7868200000000001    0.9226600000000000    0.3395050000000000 C
   0.8274699999999999    0.9507700000000000    0.3689600000000000 C
   0.7706150000000000    0.8260500000000000    0.3329800000000000 C
   0.7975350000000000    0.7555600000000000    0.3556500000000000 C
   0.6757100000000000    0.4519700000000000    0.3948300000000000 C
   0.6648050000000000    0.6129300000000000    0.5522000000000000 C
   0.4710050000000000    0.3047300000000000    0.3796200000000000 C
   0.4774150000000000    0.6398500000000000    0.4082700000000000 C
   0.4876600000000000    0.6553900000000000    0.3335650000000000 C
   0.5612350000000000    0.6513300000000000    0.3854300000000000 C
   0.6221900000000000    0.7148800000000000    0.4960350000000000 C
   0.5963400000000000    0.7232700000000000    0.4561850000000000 C
   0.6252400000000000    0.5425900000000000    0.4828550000000000 C
   0.5996800000000000    0.5495500000000000    0.4427200000000000 C
   0.6366499999999999    0.6241100000000001    0.5095300000000000 C
   0.5847249999999999    0.6411000000000000    0.4295950000000000 C
   0.6072550000000000    0.3360200000000000    0.3655250000000000 C
   0.5583350000000000    0.3005100000000000    0.3605150000000000 C
   0.5387150000000001    0.4230700000000000    0.4104850000000000 C
   0.5237250000000000    0.3434300000000000    0.3835100000000000 C
   0.5873349999999999    0.4621600000000000    0.4145500000000000 C
   0.6223700000000000    0.4169000000000000    0.3921250000000000 C
   0.1562950000000000    0.9447600000000000    0.6236250000000000 C
   0.3045650000000000    0.3331600000000000    0.8013700000000000 C
   0.2164050000000000    0.3498000000000000    0.6471250000000000 C
   0.3348350000000000    0.9729500000000000    0.6039400000000000 C
   0.3272400000000000    0.9560200000000000    0.6790800000000000 C
   0.3264750000000000    0.1165700000000000    0.6481700000000000 C
   0.3577050000000000    0.2389700000000000    0.7561599999999999 C
   0.3624450000000000    0.1849700000000000    0.7195950000000000 C
   0.2698050000000000    0.2523600000000000    0.7331050000000000 C
   0.2737300000000000    0.1979000000000000    0.6964100000000000 C
   0.3111700000000000    0.2731400000000000    0.7628900000000001 C
   0.3208050000000000    0.1642000000000000    0.6897150000000000 C
   0.1611600000000000    0.2159600000000000    0.6134700000000000 C
   0.1467450000000000    0.1193000000000000    0.6061650000000000 C
   0.2131900000000000    0.0773000000000000    0.6587499999999999 C
   0.1725300000000000    0.0491700000000000    0.6293100000000000 C
   0.2293950000000000    0.1739100000000000    0.6652750000000001 C
   0.2024550000000000    0.2444100000000000    0.6426250000000000 C
   0.5122200000000000    0.3439400000000000    0.6647550000000000 C
   0.5225450000000000    0.3596700000000000    0.5900750000000000 C
   0.3243200000000000    0.5478400000000000    0.6034500000000000 C
   0.3352300000000000    0.3870900000000000    0.4460650000000000 C
   0.5290100000000000    0.6952000000000000    0.6186650000000000 C
   0.4386900000000000    0.3483400000000000    0.6128550000000000 C
   0.3927900000000000    0.6636800000000000    0.6328400000000001 C
   0.4417100000000000    0.6992100000000000    0.6378550000000001 C
   0.4613300000000000    0.5767500000000000    0.5878350000000000 C
   0.4763100000000000    0.6563900000000000    0.6148100000000000 C
   0.4127050000000000    0.5376500000000000    0.5837600000000001 C
   0.3776750000000000    0.5828400000000000    0.6062149999999999 C
   0.3777950000000000    0.2850600000000000    0.5000000000000000 C
   0.3633750000000000    0.3758600000000000    0.4887350000000000 C
   0.3748100000000000    0.4573400000000000    0.5154350000000000 C
   0.4003500000000000    0.4503000000000000    0.5555750000000000 C
   0.4036200000000000    0.2765800000000000    0.5420700000000001 C
   0.4152500000000000    0.3587100000000000    0.5686850000000000 C
   0.1652450000000000    0.0265600000000000    0.3944700000000000 C
   0.1727800000000000    0.0436900000000000    0.3193300000000000 C
   0.3437200000000000    0.0551600000000000    0.3746550000000000 C
   0.1954500000000000    0.6668400000000000    0.1968700000000000 C
   0.2835850000000000    0.6501700000000000    0.3511300000000000 C
   0.1735150000000000    0.8830400000000000    0.3501450000000000 C
   0.1422950000000000    0.7608300000000000    0.2421200000000000 C
   0.1375400000000000    0.8147400000000000    0.2787100000000000 C
   0.2302250000000000    0.7476600000000000    0.2651300000000000 C
   0.2262850000000000    0.8020400000000000    0.3018400000000000 C
   0.1888500000000000    0.7268300000000000    0.2353550000000000 C
   0.1791900000000000    0.8355600000000000    0.3085750000000000 C
   0.3388150000000000    0.7839900000000000    0.3848200000000000 C
   0.3532350000000000    0.8806400000000000    0.3921200000000000 C
   0.2868200000000000    0.9226600000000000    0.3395050000000000 C
   0.3274700000000000    0.9507700000000000    0.3689600000000000 C
   0.2706150000000000    0.8260500000000000    0.3329800000000000 C
   0.2975350000000000    0.7555600000000000    0.3556500000000000 C
   0.1757100000000000    0.4519700000000000    0.3948300000000000 C
   0.1648050000000000    0.6129300000000000    0.5522000000000000 C
   0.9710050000000000    0.3047300000000000    0.3796200000000000 C
   0.9774149999999999    0.6398500000000000    0.4082700000000000 C
   0.9876600000000000    0.6553900000000000    0.3335650000000000 C
   0.0612350000000000    0.6513300000000000    0.3854300000000000 C
   0.1221900000000000    0.7148800000000000    0.4960350000000000 C
   0.0963400000000000    0.7232700000000000    0.4561850000000000 C
   0.1252400000000000    0.5425900000000000    0.4828550000000000 C
   0.0996800000000000    0.5495500000000000    0.4427200000000000 C
   0.1366500000000000    0.6241100000000001    0.5095300000000000 C
   0.0847250000000000    0.6411000000000000    0.4295950000000000 C
   0.1072550000000000    0.3360200000000000    0.3655250000000000 C
   0.0583350000000000    0.3005100000000000    0.3605150000000000 C
   0.0387150000000000    0.4230700000000000    0.4104850000000000 C
   0.0237250000000000    0.3434300000000000    0.3835100000000000 C
   0.0873350000000000    0.4621600000000000    0.4145500000000000 C
   0.1223700000000000    0.4169000000000000    0.3921250000000000 C
   0.0122200000000000    0.3439400000000000    0.1647550000000000 C
   0.0225450000000000    0.3596700000000000    0.0900750000000000 C
   0.8243199999999999    0.5478400000000000    0.1034500000000000 C
   0.8352299999999999    0.3870900000000000    0.9460649999999999 C
   0.0290100000000000    0.6952000000000000    0.1186650000000000 C
   0.9386900000000000    0.3483400000000000    0.1128550000000000 C
   0.8927900000000000    0.6636800000000000    0.1328400000000000 C
   0.9417100000000000    0.6992100000000000    0.1378550000000000 C
   0.9613300000000000    0.5767500000000000    0.0878350000000000 C
   0.9763100000000000    0.6563900000000000    0.1148100000000000 C
   0.9127050000000000    0.5376500000000000    0.0837600000000000 C
   0.8776750000000000    0.5828400000000000    0.1062150000000000 C
   0.8777950000000000    0.2850600000000000    0.0000000000000000 C
   0.8633750000000000    0.3758600000000000    0.9887349999999999 C
   0.8748100000000000    0.4573400000000000    0.0154350000000000 C
   0.9003500000000000    0.4503000000000000    0.0555750000000000 C
   0.9036200000000000    0.2765800000000000    0.0420700000000000 C
   0.9152500000000000    0.3587100000000000    0.0686850000000000 C
   0.6652450000000000    0.0265600000000000    0.8944700000000000 C
   0.6727799999999999    0.0436900000000000    0.8193300000000000 C
   0.8437200000000000    0.0551600000000000    0.8746550000000000 C
   0.6954500000000000    0.6668400000000000    0.6968700000000000 C
   0.7835850000000000    0.6501700000000000    0.8511299999999999 C
   0.6735150000000000    0.8830400000000000    0.8501449999999999 C
   0.6422950000000001    0.7608300000000000    0.7421200000000000 C
   0.6375400000000000    0.8147400000000000    0.7787100000000000 C
   0.7302250000000000    0.7476600000000000    0.7651300000000000 C
   0.7262850000000000    0.8020400000000000    0.8018400000000000 C
   0.6888500000000000    0.7268300000000000    0.7353550000000000 C
   0.6791900000000000    0.8355600000000000    0.8085750000000000 C
   0.8388150000000000    0.7839900000000000    0.8848199999999999 C
   0.8532350000000000    0.8806400000000000    0.8921200000000000 C
   0.7868200000000001    0.9226600000000000    0.8395049999999999 C
   0.8274699999999999    0.9507700000000000    0.8689600000000000 C
   0.7706150000000000    0.8260500000000000    0.8329800000000001 C
   0.7975350000000000    0.7555600000000000    0.8556500000000000 C
   0.6757100000000000    0.4519700000000000    0.8948300000000000 C
   0.6648050000000000    0.6129300000000000    0.0522000000000000 C
   0.4710050000000000    0.3047300000000000    0.8796200000000001 C
   0.4774150000000000    0.6398500000000000    0.9082700000000000 C
   0.4876600000000000    0.6553900000000000    0.8335650000000000 C
   0.5612350000000000    0.6513300000000000    0.8854299999999999 C
   0.6221900000000000    0.7148800000000000    0.9960350000000000 C
   0.5963400000000000    0.7232700000000000    0.9561850000000001 C
   0.6252400000000000    0.5425900000000000    0.9828550000000000 C
   0.5996800000000000    0.5495500000000000    0.9427200000000000 C
   0.6366499999999999    0.6241100000000001    0.0095300000000000 C
   0.5847249999999999    0.6411000000000000    0.9295949999999999 C
   0.6072550000000000    0.3360200000000000    0.8655250000000000 C
   0.5583350000000000    0.3005100000000000    0.8605149999999999 C
   0.5387150000000001    0.4230700000000000    0.9104850000000000 C
   0.5237250000000000    0.3434300000000000    0.8835100000000000 C
   0.5873349999999999    0.4621600000000000    0.9145500000000000 C
   0.6223700000000000    0.4169000000000000    0.8921250000000001 C
   0.1562950000000000    0.9447600000000000    0.1236250000000000 C
   0.3045650000000000    0.3331600000000000    0.3013700000000000 C
   0.2164050000000000    0.3498000000000000    0.1471250000000000 C
   0.3348350000000000    0.9729500000000000    0.1039400000000000 C
   0.3272400000000000    0.9560200000000000    0.1790800000000000 C
   0.3264750000000000    0.1165700000000000    0.1481700000000000 C
   0.3577050000000000    0.2389700000000000    0.2561600000000000 C
   0.3624450000000000    0.1849700000000000    0.2195950000000000 C
   0.2698050000000000    0.2523600000000000    0.2331050000000000 C
   0.2737300000000000    0.1979000000000000    0.1964100000000000 C
   0.3111700000000000    0.2731400000000000    0.2628900000000000 C
   0.3208050000000000    0.1642000000000000    0.1897150000000000 C
   0.1611600000000000    0.2159600000000000    0.1134700000000000 C
   0.1467450000000000    0.1193000000000000    0.1061650000000000 C
   0.2131900000000000    0.0773000000000000    0.1587500000000000 C
   0.1725300000000000    0.0491700000000000    0.1293100000000000 C
   0.2293950000000000    0.1739100000000000    0.1652750000000000 C
   0.2024550000000000    0.2444100000000000    0.1426250000000000 C
   0.5122200000000000    0.3439400000000000    0.1647550000000000 C
   0.5225450000000000    0.3596700000000000    0.0900750000000000 C
   0.3243200000000000    0.5478400000000000    0.1034500000000000 C
   0.3352300000000000    0.3870900000000000    0.9460649999999999 C
   0.5290100000000000    0.6952000000000000    0.1186650000000000 C