H11 O7
1.0
  26.9161193845364259    0.0000000000000000   -3.3678469795081964
  -0.5169591732029039   13.8748987413747749   -0.5130049998177872
   0.0000000000000000    0.0000000000000000   32.1799999999999997
H O
11 7
direct
   0.7036952676080920    0.9029232250461890    0.1718514468826421 H
   0.6066993617169674    0.9606549646630592    0.0731209573062426 H
   0.6563997067743705    0.9404463383161951    0.1223113985035269 H
   0.7324481110885872    0.3588335689351387    0.2841393998192305 H
   0.8757220934800709    0.3292971462430394    0.3311687878971204 H
   0.8062181062197573    0.3402263286001175    0.3059140721554785 H
   0.8266067114126728    0.1286361641060919    0.1407358815041872 H
   0.8273366513799324    0.1316295020767184    0.0875247580907193 H
   0.7787283236297071    0.3342313445238937    0.1737718500187552 H
   0.6961450800916572    0.3684881267721521    0.1595876417142323 H
   0.6464833270522919    0.4026775532971538    0.1451809703102297 H
   0.6770050000000000    0.8861000000000000    0.1495650000000000 O
   0.6224700000000000    0.9190600000000000    0.0939800000000000 O
   0.7622350000000000    0.3669900000000000    0.3041800000000000 O
   0.8417650000000000    0.3499600000000000    0.3298300000000000 O
   0.8270400000000000    0.1683300000000000    0.1162800000000000 O
   0.7624550000000000    0.3789300000000000    0.1545650000000000 O
   0.6816800000000001    0.4082200000000000    0.1425150000000000 O
