H4 C8 O4
1.0
  15.5829999976265725    0.0000000000000000    0.0002719746573247
   0.0168736030562138   16.4366889622754364   -6.7743822772953042
   0.0000000000000000    0.0000000000000000   18.3069999999999986
H C O
4 8 4
direct
   0.1067800000000000    0.7729700000000000    0.8698900000000001 H
   0.2973400000000000    0.8400500000000000    0.0530500000000000 H
   0.2041000000000000    0.6640500000000000    0.7818300000000000 H
   0.3946200000000000    0.7309300000000000    0.9650500000000000 H
   0.1379000000000000    0.8789200000000000    0.0190600000000000 C
   0.1961200000000000    0.8132500000000000    0.9668000000000000 C
   0.1700700000000000    0.7636100000000000    0.8901900000000000 C
   0.2774200000000000    0.8011700000000000    0.9936400000000000 C
   0.2240800000000000    0.7029500000000000    0.8412400000000000 C
   0.3313800000000000    0.7404200000000000    0.9447300000000000 C
   0.3053600000000000    0.6908500000000000    0.8680700000000000 C
   0.3636100000000000    0.6251800000000000    0.8157700000000000 C
   0.0666700000000000    0.8909500000000000   -0.0078500000000000 O
   0.1656100000000000   -0.0814600000000000    0.0898600000000000 O
   0.4333900000000000    0.6113900000000000    0.8436900000000001 O
   0.3372700000000000    0.5875800000000000    0.7441000000000000 O
