H4 O3
1.0
  13.0869280432324224    0.0000000000000000    0.0433980559103606
  -0.0238076758920970   16.1953918993124404   -4.6072723407948928
   0.0000000000000000    0.0000000000000000   13.9600000000000009
H O
4 3
direct
   0.1638292306584915    0.1851286090203401    0.7880428972446568 H
   0.3985497048063753    0.9474376628902901    0.8462434700386855 H
   0.3897515568111820    0.1904500622713417    0.0142690404932580 H
   0.3976834472916100    0.2929857618360681    0.0508360920537424 H
   0.1239300000000000    0.1422300000000000    0.7417100000000000 O
   0.4305600000000000    0.9196200000000000    0.8914500000000000 O
   0.4230100000000000    0.2246100000000000    0.0741700000000000 O
