H8 C16 N4 O4
1.0
  31.2321035574010324    0.0000000000000000    0.4933592806241456
   0.0019774482745346   18.7819998844602978   -0.0006556154800831
   0.0000000000000000    0.0000000000000000   27.6690000000000005
H C N O
8 16 4 4
direct
   0.1680066666666667    0.3295300000000000    0.8356600000000000 H
   0.1255233333333333    0.3903800000000000    0.6941200000000000 H
   0.0683033333333333    0.4653200000000000    0.7317000000000000 H
   0.0592433333333333    0.4677400000000000    0.8215900000000000 H
   0.2334466666666666    0.1671400000000000    0.6105200000000000 H
   0.3048366666666666    0.1557700000000000    0.7421000000000000 H
   0.3541366666666667    0.0667600000000000    0.7037500000000000 H
   0.3427866666666666    0.0287600000000000    0.6185000000000000 H
   0.3216000000000000    0.0675800000000000    0.6356600000000000 C
   0.1082966666666667    0.4030400000000000    0.8880900000000000 C
   0.1131166666666667    0.3991100000000000    0.8340500000000000 C
   0.1458666666666666    0.3584000000000000    0.8128800000000000 C
   0.1500333333333333    0.3541300000000000    0.7623000000000000 C
   0.1220666666666667    0.3935500000000000    0.7332500000000000 C
   0.0899933333333333    0.4351300000000000    0.7544900000000000 C
   0.0849033333333333    0.4369800000000000    0.8046700000000000 C
   0.1833100000000000    0.3089300000000000    0.7399200000000000 C
   0.2382300000000000    0.2224800000000000    0.7002900000000000 C
   0.2772933333333333    0.0666800000000000    0.5603900000000001 C
   0.2869766666666667    0.0945100000000000    0.6096500000000000 C
   0.2600866666666666    0.1457600000000000    0.6307900000000000 C
   0.2668533333333333    0.1689300000000000    0.6782000000000000 C
   0.3004800000000000    0.1390500000000000    0.7047900000000000 C
   0.3278200000000000    0.0892200000000000    0.6833100000000000 C
   0.2095566666666666    0.2719700000000000    0.7694299999999999 N
   0.2377000000000000    0.2281200000000000    0.7491600000000000 N
   0.2152300000000000    0.2647900000000000    0.6707100000000000 N
   0.1872766666666667    0.3091700000000000    0.6910600000000000 N
   0.0718966666666667    0.4200700000000000    0.9057100000000000 O
   0.1413600000000000    0.3903500000000000    0.9130100000000000 O
   0.2400800000000000    0.0749900000000000    0.5444900000000000 O
   0.3075133333333333    0.0338800000000000    0.5364100000000001 O
