H6 O4
1.0
  31.2321035574010324    0.0000000000000000    0.4933592806241456
   0.0019774482745346   18.7819998844602978   -0.0006556154800831
   0.0000000000000000    0.0000000000000000   27.6690000000000005
H O
6 4
direct
   0.1657758391552971    0.8813522824778169    0.6052630099400298 H
   0.2852494731778735    0.9319025612548414    0.6151795900417841 H
   0.2276527203049469    0.9083230434057599    0.6180044105300834 H
   0.0519029391594756    0.5362891945089127   -0.0177704201385783 H
   0.1227433388537950    0.5862592775981639   -0.0372442939946640 H
   0.1460057746793831    0.5798111481911179   -0.0070934290858719 H
   0.1920200000000000    0.8903400000000000    0.5870700000000000 O
   0.2614866666666666    0.9199100000000000    0.5945500000000000 O
   0.0257933333333333    0.5339000000000000   -0.0362200000000000 O
   0.0932100000000000    0.5749800000000000   -0.0444000000000000 O
