H6 O4
1.0
  31.2321035574010324    0.0000000000000000    0.4933592806241456
   0.0019774482745346   18.7819998844602978   -0.0006556154800831
   0.0000000000000000    0.0000000000000000   27.6690000000000005
H O
6 4
direct
   0.1675782326374893    0.3813401637713831    0.8947712215052194 H
   0.0481270529207395    0.4321434214524574    0.8851100165538685 H
   0.1057572474601497    0.4084338881471017    0.8821548030751740 H
   0.2814001209032507    0.0362565038114695    0.5179656742678488 H
   0.2105490175471932    0.0862677696539352    0.5373152535779810 H
   0.1872849654616916    0.0797947554908418    0.5071997272435563 H
   0.1413600000000000    0.3903500000000000    0.9130100000000000 O
   0.0718966666666667    0.4200700000000000    0.9057100000000000 O
   0.3075133333333333    0.0338800000000000    0.5364100000000001 O
   0.2400800000000000    0.0749900000000000    0.5444900000000000 O
