La24 H287 C560 N140 O144
1.0
  31.2321035574010324    0.0000000000000000    0.4933592806241456
   0.0019774482745346   18.7819998844602978   -0.0006556154800831
   0.0000000000000000    0.0000000000000000   27.6690000000000005
La H C N O
24 287 560 140 144
direct
   0.3078400000000000    0.6028400000000000    0.0230500000000000 La
   0.6921333333333333    0.3971900000000000    0.9770799999999999 La
   0.5254533333333333    0.1028100000000000    0.4770300000000000 La
   0.9745066666666666    0.6028400000000000    0.0230500000000000 La
   0.3588000000000000    0.3971900000000000    0.9770799999999999 La
   0.8078466666666666    0.8971600000000000    0.5230800000000000 La
   0.1921200000000000    0.1028100000000000    0.4770300000000000 La
   0.6411733333333334    0.6028400000000000    0.0230500000000000 La
   0.0254666666666667    0.3971900000000000    0.9770799999999999 La
   0.4745133333333333    0.8971600000000000    0.5230800000000000 La
   0.8587866666666666    0.1028100000000000    0.4770300000000000 La
   0.4745066666666666    0.6028300000000000    0.0230500000000000 La
   0.8587933333333333    0.3971800000000000    0.9770799999999999 La
   0.1411733333333333    0.6028300000000000    0.0230500000000000 La
   0.5254600000000000    0.3971800000000000    0.9770799999999999 La
   0.3078466666666667    0.8971600000000000    0.5230800000000000 La
   0.6921233333333333    0.1028000000000000    0.4770300000000000 La
   0.1411800000000000    0.8971600000000000    0.5230800000000000 La
   0.9745133333333333    0.8971600000000000    0.5230800000000000 La
   0.3587900000000000    0.1028000000000000    0.4770300000000000 La
   0.8078399999999999    0.6028300000000000    0.0230500000000000 La
   0.1921266666666667    0.3971800000000000    0.9770799999999999 La
   0.6411800000000000    0.8971600000000000    0.5230800000000000 La
   0.0254566666666667    0.1028000000000000    0.4770300000000000 La
   0.8427866666666666    0.0287600000000000    0.6185800000000000 H
   0.8048433333333334    0.1557600000000000    0.7421000000000000 H
   0.8541399999999999    0.0667600000000000    0.7037500000000000 H
   0.7334466666666666    0.1671300000000000    0.6105200000000000 H
   0.5592433333333333    0.4677300000000000    0.8215900000000000 H
   0.6255233333333332    0.3903800000000000    0.6941200000000000 H
   0.5683033333333334    0.4653100000000000    0.7317700000000000 H
   0.6666666666666666    0.3295200000000000    0.8356600000000000 H
   0.6544399999999999    0.2842000000000000    0.5760100000000000 H
   0.5859699999999999    0.4833700000000000    0.5862800000000000 H
   0.6441533333333334    0.4024400000000000    0.6143999999999999 H
   0.5477300000000001    0.3245600000000000    0.4833600000000000 H
   0.3454900000000000    0.7158300000000000    0.4240100000000000 H
   0.4138933333333333    0.5165999999999999    0.4137400000000000 H
   0.3557233333333333    0.5975700000000000    0.3856400000000000 H
   0.4522033333333333    0.6753900000000000    0.5166400000000000 H
   0.1571433333333333    0.9712700000000000    0.3815700000000000 H
   0.1950600000000000    0.8443100000000000    0.2580200000000000 H
   0.1457766666666667    0.9333000000000000    0.2964000000000000 H
   0.2664933333333333    0.8328900000000000    0.3895700000000000 H
   0.4406900000000000    0.5323000000000000    0.1785400000000000 H
   0.3743766666666666    0.6096900000000000    0.3059700000000000 H
   0.4316033333333333    0.5347400000000000    0.2683500000000000 H
   0.3319299999999999    0.6705000000000000    0.1644100000000000 H
   0.4877700000000000    0.2157100000000000    0.0760000000000000 H
   0.4192899999999999    0.0165700000000000    0.0862000000000000 H
   0.4774833333333333    0.0974600000000000    0.1143600000000000 H
   0.3810700000000000    0.1754400000000000    0.9833200000000000 H
   0.1788166666666667    0.7841700000000000    0.9239900000000000 H
   0.2472200000000000    0.9833700000000000    0.9136900000000000 H
   0.1890466666666666    0.9024100000000000    0.8856100000000000 H
   0.2855333333333333    0.8246000000000000    0.0166100000000000 H
   0.6761300000000000    0.4712300000000000    0.1186300000000000 H
   0.6381833333333333    0.3442000000000000    0.2421300000000000 H
   0.6874800000000000    0.4332100000000000    0.2037900000000000 H
   0.5668066666666667    0.3328600000000000    0.1105300000000000 H
   0.3925966666666666    0.0322400000000000    0.3215000000000000 H
   0.4588900000000000    0.1096300000000000    0.1940600000000000 H
   0.4016800000000000    0.0346700000000000    0.2316900000000000 H
   0.5013333333333333    0.1704600000000000    0.3356200000000000 H
   0.5094533333333333    0.0287600000000000    0.6185800000000000 H
   0.4715100000000000    0.1557600000000000    0.7421000000000000 H
   0.5208066666666666    0.0667600000000000    0.7037500000000000 H
   0.4001133333333333    0.1671300000000000    0.6105200000000000 H
   0.2259100000000000    0.4677300000000000    0.8215900000000000 H
   0.2921899999999999    0.3903800000000000    0.6941200000000000 H
   0.2349700000000000    0.4653100000000000    0.7317700000000000 H
   0.3333333333333333    0.3295200000000000    0.8356600000000000 H
   0.3211066666666667    0.2842000000000000    0.5760100000000000 H
   0.2526366666666666    0.4833700000000000    0.5862800000000000 H
   0.3108200000000000    0.4024400000000000    0.6143999999999999 H
   0.2143966666666667    0.3245600000000000    0.4833600000000000 H
   0.0121566666666667    0.7158300000000000    0.4240100000000000 H
   0.0805600000000000    0.5165999999999999    0.4137400000000000 H
   0.0223900000000000    0.5975700000000000    0.3856400000000000 H
   0.1188700000000000    0.6753900000000000    0.5166400000000000 H
   0.8238099999999999    0.9712700000000000    0.3815700000000000 H
   0.8617266666666666    0.8443100000000000    0.2580200000000000 H
   0.8124433333333333    0.9333000000000000    0.2964000000000000 H
   0.9331600000000000    0.8328900000000000    0.3895700000000000 H
   0.1073566666666667    0.5323000000000000    0.1785400000000000 H
   0.0410433333333333    0.6096900000000000    0.3059700000000000 H
   0.0982700000000000    0.5347400000000000    0.2683500000000000 H
   0.9985966666666666    0.6705000000000000    0.1644100000000000 H
   0.3427966666666666    0.4712300000000000    0.1186300000000000 H
   0.3048500000000000    0.3442000000000000    0.2421300000000000 H
   0.3541466666666667    0.4332100000000000    0.2037900000000000 H
   0.2334733333333333    0.3328600000000000    0.1105300000000000 H
   0.0592633333333333    0.0322400000000000    0.3215000000000000 H
   0.1255566666666666    0.1096300000000000    0.1940600000000000 H
   0.0683466666666667    0.0346700000000000    0.2316900000000000 H
   0.1680000000000000    0.1704600000000000    0.3356200000000000 H
   0.1544366666666667    0.2157100000000000    0.0760000000000000 H
   0.0859566666666667    0.0165700000000000    0.0862000000000000 H
   0.1441500000000000    0.0974600000000000    0.1143600000000000 H
   0.0477366666666667    0.1754400000000000    0.9833200000000000 H
   0.8454833333333333    0.7841700000000000    0.9239900000000000 H
   0.9138866666666666    0.9833700000000000    0.9136900000000000 H
   0.8557133333333333    0.9024100000000000    0.8856100000000000 H
   0.9521999999999999    0.8246000000000000    0.0166100000000000 H
   0.6571333333333333    0.5287200000000000    0.8815400000000000 H
   0.6457700000000000    0.5666900000000000    0.7963700000000000 H
   0.6950566666666667    0.6556700000000000    0.7500000000000000 H
   0.7664733333333333    0.6670800000000000    0.8895600000000000 H
   0.9406699999999999    0.9676800000000000    0.6786100000000000 H
   0.8743466666666666    0.8902500000000000    0.8060100000000000 H
   0.9315700000000000    0.9652200000000000    0.7684200000000000 H
   0.8319233333333333    0.8294899999999999    0.6644300000000000 H
   0.1761200000000000    0.0287600000000000    0.6185800000000000 H
   0.1381766666666667    0.1557600000000000    0.7421000000000000 H
   0.1874733333333333    0.0667600000000000    0.7037500000000000 H
   0.0667800000000000    0.1671300000000000    0.6105200000000000 H
   0.8925766666666666    0.4677300000000000    0.8215900000000000 H
   0.9588566666666666    0.3903800000000000    0.6941200000000000 H
   0.9016366666666666    0.4653100000000000    0.7317700000000000 H
   0.0000000000000000    0.3295200000000000    0.8356600000000000 H
   0.9877733333333333    0.2842000000000000    0.5760100000000000 H
   0.9193033333333333    0.4833700000000000    0.5862800000000000 H
   0.9774866666666666    0.4024400000000000    0.6143999999999999 H
   0.8810633333333333    0.3245600000000000    0.4833600000000000 H
   0.6788233333333333    0.7158300000000000    0.4240100000000000 H
   0.7472266666666666    0.5165999999999999    0.4137400000000000 H
   0.6890566666666667    0.5975700000000000    0.3856400000000000 H
   0.7855366666666667    0.6753900000000000    0.5166400000000000 H
   0.4904766666666667    0.9712700000000000    0.3815700000000000 H
   0.5283933333333333    0.8443100000000000    0.2580200000000000 H
   0.4791100000000000    0.9333000000000000    0.2964000000000000 H
   0.5998266666666666    0.8328900000000000    0.3895700000000000 H
   0.7740233333333333    0.5323000000000000    0.1785400000000000 H
   0.7077100000000000    0.6096900000000000    0.3059700000000000 H
   0.7649366666666666    0.5347400000000000    0.2683500000000000 H
   0.6652633333333333    0.6705000000000000    0.1644100000000000 H
   0.0094633333333333    0.4712300000000000    0.1186300000000000 H
   0.9715166666666666    0.3442000000000000    0.2421300000000000 H
   0.0208133333333333    0.4332100000000000    0.2037900000000000 H
   0.9001399999999999    0.3328600000000000    0.1105300000000000 H
   0.7259300000000000    0.0322400000000000    0.3215000000000000 H
   0.7922233333333333    0.1096300000000000    0.1940600000000000 H
   0.7350133333333333    0.0346700000000000    0.2316900000000000 H
   0.8346666666666667    0.1704600000000000    0.3356200000000000 H
   0.8211033333333333    0.2157100000000000    0.0760000000000000 H
   0.7526233333333333    0.0165700000000000    0.0862000000000000 H
   0.8108166666666666    0.0974600000000000    0.1143600000000000 H
   0.7144033333333333    0.1754400000000000    0.9833200000000000 H
   0.5121500000000000    0.7841700000000000    0.9239900000000000 H
   0.5805533333333333    0.9833700000000000    0.9136900000000000 H
   0.5223800000000000    0.9024100000000000    0.8856100000000000 H
   0.6188666666666667    0.8246000000000000    0.0166100000000000 H
   0.3238000000000000    0.5287200000000000    0.8815400000000000 H
   0.3124366666666666    0.5666900000000000    0.7963700000000000 H
   0.3617233333333333    0.6556700000000000    0.7500000000000000 H
   0.4331400000000000    0.6670800000000000    0.8895600000000000 H
   0.6073366666666666    0.9676800000000000    0.6786100000000000 H
   0.5410133333333333    0.8902500000000000    0.8060100000000000 H
   0.5982366666666666    0.9652200000000000    0.7684200000000000 H
   0.4985900000000000    0.8294899999999999    0.6644300000000000 H
   0.0094533333333333    0.0287600000000000    0.6185000000000000 H
   0.9715033333333333    0.1557700000000000    0.7421000000000000 H
   0.0208033333333333    0.0667600000000000    0.7037500000000000 H
   0.9001133333333333    0.1671400000000000    0.6105200000000000 H
   0.7259099999999999    0.4677400000000000    0.8215900000000000 H
   0.7921899999999999    0.3903800000000000    0.6941200000000000 H
   0.7349699999999999    0.4653200000000000    0.7317000000000000 H
   0.8346733333333333    0.3295300000000000    0.8356600000000000 H
   0.3238066666666666    0.9712700000000000    0.3815000000000000 H
   0.3617233333333333    0.8443200000000000    0.2580100000000000 H
   0.3124366666666666    0.9333100000000000    0.2964000000000000 H
   0.4331566666666666    0.8328900000000000    0.3895600000000000 H
   0.6073566666666665    0.5323099999999999    0.1785400000000000 H
   0.5410433333333333    0.6097100000000000    0.3059700000000000 H
   0.5982733333333332    0.5347499999999999    0.2683500000000000 H
   0.4985933333333333    0.6705100000000001    0.1644000000000000 H
   0.8210999999999999    0.2842100000000000    0.5760200000000000 H
   0.7526333333333333    0.4833800000000000    0.5862700000000000 H
   0.8108133333333333    0.4024500000000000    0.6143999999999999 H
   0.7144033333333333    0.3245600000000000    0.4833000000000000 H
   0.5121500000000000    0.7158300000000000    0.4240100000000000 H
   0.5805600000000000    0.5166100000000000    0.4137200000000000 H
   0.5223833333333333    0.5975800000000000    0.3856300000000000 H
   0.6188766666666666    0.6754000000000000    0.5165999999999999 H
   0.8048500000000000    0.3442100000000000    0.2421300000000000 H
   0.8541466666666666    0.4332100000000000    0.2037900000000000 H
   0.7334700000000000    0.3328700000000000    0.1105400000000000 H
   0.8427966666666666    0.4712200000000000    0.1186300000000000 H
   0.5592633333333333    0.0322400000000000    0.3215000000000000 H
   0.6255566666666665    0.1096300000000000    0.1940700000000000 H
   0.5683433333333333    0.0346800000000000    0.2316900000000000 H
   0.6666666666666666    0.1704600000000000    0.3356300000000000 H
   0.3454900000000000    0.7842300000000000    0.9240200000000000 H
   0.4139133333333333    0.9834200000000000    0.9137600000000000 H
   0.3557333333333333    0.9024799999999999    0.8856600000000000 H
   0.4522133333333333    0.8245900000000000    0.0166500000000000 H
   0.6544433333333333    0.2157600000000000    0.0760300000000000 H
   0.5859833333333333    0.0166100000000000    0.0862900000000000 H
   0.6441666666666666    0.0975300000000000    0.1144100000000000 H
   0.5477500000000000    0.1754200000000000    0.9833499999999999 H
   0.1571366666666666    0.5287200000000000    0.8815400000000000 H
   0.1950566666666667    0.6556900000000000    0.7580000000000000 H
   0.1457733333333333    0.5667000000000000    0.7963800000000000 H
   0.2664766666666666    0.6670800000000000    0.8895600000000000 H
   0.4406633333333333    0.9677000000000000    0.6786000000000000 H
   0.4315633333333333    0.9652400000000000    0.7684299999999999 H
   0.3743466666666667    0.8902700000000000    0.8060200000000000 H
   0.3319299999999999    0.8294899999999999    0.6644400000000000 H
   0.0519029391594756    0.5362891945089127   -0.0177704201385783 H
   0.1460057746793831    0.5798111481911179   -0.0070934290858719 H
   0.1227433388537950    0.5862592775981639   -0.0372442939946640 H
   0.6761199999999999    0.0287600000000000    0.6185000000000000 H
   0.6381699999999999    0.1557700000000000    0.7421000000000000 H
   0.6874699999999999    0.0667600000000000    0.7037500000000000 H
   0.5667800000000000    0.1671400000000000    0.6105200000000000 H
   0.3925766666666666    0.4677400000000000    0.8215900000000000 H
   0.4588566666666666    0.3903800000000000    0.6941200000000000 H
   0.4016366666666666    0.4653200000000000    0.7317000000000000 H
   0.5013400000000000    0.3295300000000000    0.8356600000000000 H
   0.9904733333333333    0.9712700000000000    0.3815000000000000 H
   0.0283900000000000    0.8443200000000000    0.2580100000000000 H
   0.9791033333333332    0.9333100000000000    0.2964000000000000 H
   0.0998233333333333    0.8328900000000000    0.3895600000000000 H
   0.2740233333333333    0.5323099999999999    0.1785400000000000 H
   0.2077100000000000    0.6097100000000000    0.3059700000000000 H
   0.2649400000000000    0.5347499999999999    0.2683500000000000 H
   0.1652600000000000    0.6705100000000001    0.1644000000000000 H
   0.4877666666666666    0.2842100000000000    0.5760200000000000 H
   0.4193000000000000    0.4833800000000000    0.5862700000000000 H
   0.4774800000000000    0.4024500000000000    0.6143999999999999 H
   0.3810700000000000    0.3245600000000000    0.4833000000000000 H
   0.1788166666666667    0.7158300000000000    0.4240100000000000 H
   0.2472266666666667    0.5166100000000000    0.4137200000000000 H
   0.1890500000000000    0.5975800000000000    0.3856300000000000 H
   0.2855433333333333    0.6754000000000000    0.5165999999999999 H
   0.1657758391552971    0.8813522824778169    0.6052630099400298 H
   0.2852494731778735    0.9319025612548414    0.6151795900417841 H
   0.2276527203049469    0.9083230434057599    0.6180044105300834 H
   0.4715166666666666    0.3442100000000000    0.2421300000000000 H
   0.5208133333333334    0.4332100000000000    0.2037900000000000 H
   0.4001366666666666    0.3328700000000000    0.1105400000000000 H
   0.5094633333333334    0.4712200000000000    0.1186300000000000 H
   0.2259300000000000    0.0322400000000000    0.3215000000000000 H
   0.2922233333333333    0.1096300000000000    0.1940700000000000 H
   0.2350100000000000    0.0346800000000000    0.2316900000000000 H
   0.3333333333333333    0.1704600000000000    0.3356300000000000 H
   0.0121566666666667    0.7842300000000000    0.9240200000000000 H
   0.0805800000000000    0.9834200000000000    0.9137600000000000 H
   0.0224000000000000    0.9024799999999999    0.8856600000000000 H
   0.1188800000000000    0.8245900000000000    0.0166500000000000 H
   0.3211100000000000    0.2157600000000000    0.0760300000000000 H
   0.2526500000000000    0.0166100000000000    0.0862900000000000 H
   0.3108333333333333    0.0975300000000000    0.1144100000000000 H
   0.2144166666666666    0.1754200000000000    0.9833499999999999 H
   0.8238033333333332    0.5287200000000000    0.8815400000000000 H
   0.8617233333333333    0.6556900000000000    0.7580000000000000 H
   0.8124399999999999    0.5667000000000000    0.7963800000000000 H
   0.9331433333333332    0.6670800000000000    0.8895600000000000 H
   0.1073300000000000    0.9677000000000000    0.6786000000000000 H
   0.0982300000000000    0.9652400000000000    0.7684299999999999 H
   0.0410133333333333    0.8902700000000000    0.8060200000000000 H
   0.9985966666666666    0.8294899999999999    0.6644400000000000 H
   0.3427866666666666    0.0287600000000000    0.6185000000000000 H
   0.3048366666666666    0.1557700000000000    0.7421000000000000 H
   0.3541366666666667    0.0667600000000000    0.7037500000000000 H
   0.2334466666666666    0.1671400000000000    0.6105200000000000 H
   0.0592433333333333    0.4677400000000000    0.8215900000000000 H
   0.1255233333333333    0.3903800000000000    0.6941200000000000 H
   0.0683033333333333    0.4653200000000000    0.7317000000000000 H
   0.1680066666666667    0.3295300000000000    0.8356600000000000 H
   0.6571399999999999    0.9712700000000000    0.3815000000000000 H
   0.6950566666666667    0.8443200000000000    0.2580100000000000 H
   0.6457700000000000    0.9333100000000000    0.2964000000000000 H
   0.7664900000000000    0.8328900000000000    0.3895600000000000 H
   0.9406899999999999    0.5323099999999999    0.1785400000000000 H
   0.8743766666666666    0.6097100000000000    0.3059700000000000 H
   0.9316066666666666    0.5347499999999999    0.2683500000000000 H
   0.8319266666666666    0.6705100000000001    0.1644000000000000 H
   0.1544333333333333    0.2842100000000000    0.5760200000000000 H
   0.0859666666666667    0.4833800000000000    0.5862700000000000 H
   0.1441466666666666    0.4024500000000000    0.6143999999999999 H
   0.0477366666666667    0.3245600000000000    0.4833000000000000 H
   0.8454833333333333    0.7158300000000000    0.4240100000000000 H
   0.9138933333333332    0.5166100000000000    0.4137200000000000 H
   0.8557166666666667    0.5975800000000000    0.3856300000000000 H
   0.9522100000000000    0.6754000000000000    0.5165999999999999 H
   0.1381833333333333    0.3442100000000000    0.2421300000000000 H
   0.1874800000000000    0.4332100000000000    0.2037900000000000 H
   0.0668033333333333    0.3328700000000000    0.1105400000000000 H
   0.1761300000000000    0.4712200000000000    0.1186300000000000 H
   0.8925966666666666    0.0322400000000000    0.3215000000000000 H
   0.9588899999999999    0.1096300000000000    0.1940700000000000 H
   0.9016766666666667    0.0346800000000000    0.2316900000000000 H
   0.0000000000000000    0.1704600000000000    0.3356300000000000 H
   0.6788233333333333    0.7842300000000000    0.9240200000000000 H
   0.7472466666666666    0.9834200000000000    0.9137600000000000 H
   0.6890666666666666    0.9024799999999999    0.8856600000000000 H
   0.7855466666666666    0.8245900000000000    0.0166500000000000 H
   0.9877766666666666    0.2157600000000000    0.0760300000000000 H
   0.9193166666666666    0.0166100000000000    0.0862900000000000 H
   0.9774999999999999    0.0975300000000000    0.1144100000000000 H
   0.8810833333333332    0.1754200000000000    0.9833499999999999 H
   0.4904700000000000    0.5287200000000000    0.8815400000000000 H
   0.5283899999999999    0.6556900000000000    0.7580000000000000 H
   0.4791066666666666    0.5667000000000000    0.7963800000000000 H
   0.5998100000000000    0.6670800000000000    0.8895600000000000 H
   0.7739966666666667    0.9677000000000000    0.6786000000000000 H
   0.7648966666666667    0.9652400000000000    0.7684299999999999 H
   0.7076800000000000    0.8902700000000000    0.8060200000000000 H
   0.6652633333333333    0.8294899999999999    0.6644400000000000 H
   0.0283900000000000    0.6556700000000000    0.7500000000000000 H
   0.6082933333333334    0.4030300000000000    0.8880000000000000 C
   0.7772933333333333    0.0666700000000000    0.5603900000000001 C
   0.8216066666666666    0.0675800000000000    0.6356600000000000 C
   0.8004866666666666    0.1390500000000000    0.7048000000000000 C
   0.8278233333333334    0.0892200000000000    0.6833100000000000 C
   0.7600899999999999    0.1457500000000000    0.6307900000000000 C
   0.7869766666666667    0.0945100000000000    0.6096000000000000 C
   0.7668566666666666    0.1689200000000000    0.6782100000000000 C
   0.7382333333333333    0.2224700000000000    0.7002900000000000 C
   0.6833133333333333    0.3089300000000000    0.7399200000000000 C
   0.5849033333333333    0.4369700000000000    0.8046700000000000 C
   0.6220699999999999    0.3935500000000000    0.7332500000000000 C
   0.5899933333333334    0.4351200000000000    0.7544900000000000 C
   0.6458666666666666    0.3583900000000000    0.8128900000000000 C
   0.6131133333333333    0.3991000000000000    0.8340500000000000 C
   0.6500366666666666    0.3541300000000000    0.7623600000000000 C
   0.3927500000000000    0.7747700000000000    0.4954200000000000 C
   0.6072133333333334    0.2252200000000000    0.5046000000000000 C
   0.6287600000000000    0.3191200000000000    0.5643700000000000 C
   0.5904033333333333    0.4308900000000000    0.5702300000000000 C
   0.6227266666666667    0.3856500000000000    0.5858600000000000 C
   0.5688400000000000    0.3419700000000000    0.5119100000000000 C
   0.6015900000000000    0.2969900000000000    0.5270000000000000 C
   0.5633266666666666    0.4095500000000000    0.5326600000000000 C
   0.5296666666666666    0.4576200000000000    0.5152000000000000 C
   0.4702266666666666    0.5423200000000000    0.4847800000000000 C
   0.3711566666666666    0.6808800000000000    0.4356600000000000 C
   0.4094933333333333    0.5691000000000001    0.4297700000000000 C
   0.3771600000000000    0.6143400000000000    0.4141700000000000 C
   0.4310900000000000    0.6580000000000000    0.4880800000000000 C
   0.3983433333333333    0.7029900000000000    0.4726200000000000 C
   0.4365766666666666    0.5904100000000000    0.4673400000000000 C
   0.3916866666666666    0.5970100000000000    0.1120200000000000 C
   0.2226633333333333    0.9333100000000000    0.4397000000000000 C
   0.1783266666666667    0.9324500000000000    0.3644900000000000 C
   0.1994300000000000    0.8610200000000000    0.2953200000000000 C
   0.1720966666666667    0.9108400000000000    0.3168000000000000 C
   0.2398433333333333    0.8542900000000000    0.3693100000000000 C
   0.2129566666666667    0.9055200000000000    0.3904900000000000 C
   0.2330666666666667    0.8311400000000000    0.3219000000000000 C
   0.2616833333333333    0.7775800000000000    0.2997900000000000 C
   0.3165966666666666    0.6911200000000000    0.2601500000000000 C
   0.4150233333333333    0.5630600000000000    0.1954000000000000 C
   0.3778433333333333    0.6065100000000000    0.2668400000000000 C
   0.4099166666666667    0.5649100000000000    0.2456200000000000 C
   0.3540633333333333    0.6416500000000001    0.1872000000000000 C
   0.3868200000000000    0.6009200000000000    0.1660500000000000 C
   0.3498766666666667    0.6459100000000000    0.2377300000000000 C
   0.2260800000000000    0.7252300000000000    0.9953900000000000 C
   0.4405500000000000    0.2747400000000000    0.0046000000000000 C
   0.4620933333333333    0.1808000000000000    0.0643400000000000 C
   0.4237233333333333    0.0690600000000000    0.0701900000000000 C
   0.4560600000000000    0.1142700000000000    0.0858200000000000 C
   0.4021666666666667    0.1580100000000000    0.0118000000000000 C
   0.4349266666666666    0.2029600000000000    0.0273700000000000 C
   0.3966533333333333    0.0904200000000000    0.0326200000000000 C
   0.3035500000000000    0.9576600000000000    0.9847000000000000 C
   0.3629900000000000    0.0423700000000000    0.0151800000000000 C
   0.2044866666666666    0.8191100000000000    0.9356300000000000 C
   0.2428133333333333    0.9308800000000000    0.9297400000000000 C
   0.2104933333333333    0.8856300000000000    0.9141300000000000 C
   0.2644233333333333    0.8419900000000000    0.9880500000000000 C
   0.2316766666666667    0.7970000000000000    0.9725900000000000 C
   0.2699033333333333    0.9095700000000000    0.9673000000000000 C
   0.4416099999999999    0.0969500000000000    0.3880300000000000 C
   0.6106366666666667    0.4333300000000000    0.0604300000000000 C
   0.6549499999999999    0.4324100000000000    0.1356900000000000 C
   0.6338299999999999    0.3609300000000000    0.2048200000000000 C
   0.6611633333333333    0.4107600000000000    0.1833400000000000 C
   0.5934433333333333    0.3542400000000000    0.1308100000000000 C
   0.6203266666666667    0.4054900000000000    0.1096900000000000 C
   0.6002099999999999    0.3310600000000000    0.1782200000000000 C
   0.5715866666666667    0.2775100000000000    0.2002900000000000 C
   0.5166600000000000    0.1910600000000000    0.2398900000000000 C
   0.4182566666666666    0.0630100000000000    0.3045900000000000 C
   0.4554300000000000    0.1064400000000000    0.2331900000000000 C
   0.4233566666666666    0.0648600000000000    0.2544100000000000 C
   0.4792066666666667    0.1415900000000000    0.3128400000000000 C
   0.4464500000000000    0.1008700000000000    0.3339900000000000 C
   0.4833833333333333    0.1458600000000000    0.2623100000000000 C
   0.2749600000000000    0.4030300000000000    0.8880000000000000 C
   0.4439600000000000    0.0666700000000000    0.5603900000000001 C
   0.4882733333333333    0.0675800000000000    0.6356600000000000 C
   0.4671533333333333    0.1390500000000000    0.7048000000000000 C
   0.4944900000000000    0.0892200000000000    0.6833100000000000 C
   0.4267566666666667    0.1457500000000000    0.6307900000000000 C
   0.4536433333333333    0.0945100000000000    0.6096000000000000 C
   0.4335233333333333    0.1689200000000000    0.6782100000000000 C
   0.4049000000000000    0.2224700000000000    0.7002900000000000 C
   0.3499800000000000    0.3089300000000000    0.7399200000000000 C
   0.2515700000000000    0.4369700000000000    0.8046700000000000 C
   0.2887366666666666    0.3935500000000000    0.7332500000000000 C
   0.2566600000000000    0.4351200000000000    0.7544900000000000 C
   0.3125333333333333    0.3583900000000000    0.8128900000000000 C
   0.2797800000000000    0.3991000000000000    0.8340500000000000 C
   0.3167033333333333    0.3541300000000000    0.7623600000000000 C
   0.0594166666666667    0.7747700000000000    0.4954200000000000 C
   0.2738800000000000    0.2252200000000000    0.5046000000000000 C
   0.2954266666666666    0.3191200000000000    0.5643700000000000 C
   0.2570700000000000    0.4308900000000000    0.5702300000000000 C
   0.2893933333333333    0.3856500000000000    0.5858600000000000 C
   0.2355066666666667    0.3419700000000000    0.5119100000000000 C
   0.2682566666666666    0.2969900000000000    0.5270000000000000 C
   0.2299933333333333    0.4095500000000000    0.5326600000000000 C
   0.1963333333333333    0.4576200000000000    0.5152000000000000 C
   0.1368933333333333    0.5423200000000000    0.4847800000000000 C
   0.0378233333333333    0.6808800000000000    0.4356600000000000 C
   0.0761600000000000    0.5691000000000001    0.4297700000000000 C
   0.0438266666666667    0.6143400000000000    0.4141700000000000 C
   0.0977566666666667    0.6580000000000000    0.4880800000000000 C
   0.0650100000000000    0.7029900000000000    0.4726200000000000 C
   0.1032433333333333    0.5904100000000000    0.4673400000000000 C
   0.0583533333333333    0.5970100000000000    0.1120200000000000 C
   0.8893300000000000    0.9333100000000000    0.4397000000000000 C
   0.8449933333333333    0.9324500000000000    0.3644900000000000 C
   0.8660966666666666    0.8610200000000000    0.2953200000000000 C
   0.8387633333333333    0.9108400000000000    0.3168000000000000 C
   0.9065099999999999    0.8542900000000000    0.3693100000000000 C
   0.8796233333333333    0.9055200000000000    0.3904900000000000 C
   0.8997333333333333    0.8311400000000000    0.3219000000000000 C
   0.9283500000000000    0.7775800000000000    0.2997900000000000 C
   0.9832633333333333    0.6911200000000000    0.2601500000000000 C
   0.0816900000000000    0.5630600000000000    0.1954000000000000 C
   0.0445100000000000    0.6065100000000000    0.2668400000000000 C
   0.0765833333333333    0.5649100000000000    0.2456200000000000 C