H7 O4
1.0
  17.1689974869963606    0.0000000000000000    0.0092893225043037
   0.4506610103132906   10.5543815573691742    0.0055312972126813
   0.0000000000000000    0.0000000000000000   32.5300000000000011
H O
7 4
direct
   0.1569650911644233    0.6837902156826927    0.8201711815251091 H
   0.0898037086483339    0.6380208442294120    0.8536239092257116 H
   0.2047212229033101    0.9050155218028445    0.9617351344616688 H
   0.2660791356956892    0.9371950831170514    0.9698050195590523 H
   0.2949441976376441    0.9324549168829487    0.9588849804409477 H
   0.2991337750102766    0.8903104936048952    0.9261108307757527 H
   0.2095723871551510    0.8625120698181440    0.9297529177826135 H
   0.1117000000000000    0.6333200000000000    0.8258600000000000 O
   0.1878233333333333    0.8915300000000000    0.9560900000000000 O
   0.2486333333333333    0.9400600000000000    0.9764050000000000 O
   0.3123899999999999    0.9295900000000000    0.9522850000000000 O
