H4 O2
1.0
  23.4419613823394783    0.0000000000000000    0.0425505452927404
 -11.4757943052027418   18.9732630224001433   -9.1145000602062485
   0.0000000000000000    0.0000000000000000   28.1179999999999986
H O
4 2
direct
   0.7290689022033985    0.3497333731217131    0.7950278678903880 H
   0.7596561062684671    0.4302764804276388    0.8321623238461208 H
   0.1281662327530553    0.3680835684618304    0.7107321004106588 H
   0.0984139833526686    0.2881988973715593    0.6722021473023724 H
   0.7260100000000000    0.3827300000000000    0.8271500000000001 O
   0.1322000000000000    0.3362600000000000    0.6784399999999999 O
