H5 C8 N1 O4
1.0
  23.4419613823394783    0.0000000000000000    0.0425505452927404
 -11.4757943052027418   18.9732630224001433   -9.1145000602062485
   0.0000000000000000    0.0000000000000000   28.1179999999999986
H C N O
5 8 1 4
direct
   0.4521800000000000    0.7205300000000000    0.8343300000000000 H
   0.5239800000000000    0.6009900000000000    0.7250200000000000 H
   0.4053500000000000    0.5048899999999999    0.6779050000000000 H
   0.2771400000000000    0.5904300000000000    0.7686150000000000 H
   0.3335200000000000    0.6747500000000000    0.8199750000000000 H
   0.3744800000000000    0.6195100000000000    0.7743200000000000 C
   0.2927500000000000    0.4987800000000000    0.7001999999999999 C
   0.3619200000000000    0.5576800000000000    0.7293700000000000 C
   0.4414000000000000    0.6729100000000000    0.7998499999999999 C
   0.4944400000000000    0.6663200000000000    0.7823500000000000 C
   0.4819300000000000    0.6051900000000000    0.7382050000000000 C
   0.4164900000000000    0.5524600000000000    0.7125200000000000 C
   0.5653200000000000    0.7245700000000000    0.8097950000000000 C
   0.3232900000000000    0.6263900000000000    0.7936400000000000 N
   0.5725800000000000    0.7832600000000000    0.8450599999999999 O
   0.2430800000000000    0.5053299999999999    0.7099700000000000 O
   0.2871200000000000    0.4411600000000000    0.6649550000000000 O
   0.6124500000000000    0.7151800000000000    0.7980050000000001 O
