P1 H9 C7 O9
1.0
   7.8159325685373737    0.0000000000000000    0.0324666610044032
   0.0020953338113997   32.0429817714207985    0.0341146005405028
   0.0000000000000000    0.0000000000000000   17.9549999999999983
P H C O
1 9 7 9
direct
   0.1574600000000000    0.4763766666666667    0.7068500000000000 P
   0.9016100000000000    0.4611266666666666    0.8129800000000000 H
   0.7798700000000000    0.4832700000000000    0.7418600000000000 H
   0.0095400000000000    0.4333666666666666    0.5826400000000000 H
   0.8230300000000000    0.4085566666666667    0.6145400000000000 H
   0.6627600000000000    0.4735199999999999    0.6209400000000000 H
   0.8489900000000000    0.5043233333333333    0.6161100000000000 H
   0.5708400000000000    0.3743200000000000    0.7579000000000000 H
   0.1506900000000000    0.3457133333333333    0.6930800000000000 H
   0.7313100000000000    0.5203700000000000    0.4310100000000000 H
   0.6913000000000000    0.4254766666666666    0.7792000000000000 C
   0.8384800000000000    0.4538433333333333    0.7600300000000000 C
   0.9692300000000000    0.4387166666666666    0.7013900000000000 C
   0.8999900000000000    0.4369666666666666    0.6205100000000000 C
   0.7930600000000000    0.4748466666666666    0.5969800000000000 C
   0.7700100000000000    0.4784533333333333    0.5138100000000000 C
   0.0425300000000000    0.3969866666666667    0.7255400000000000 C
   0.5921000000000000    0.4346099999999999    0.8311900000000000 O
   0.6740400000000000    0.3919100000000000    0.7375500000000000 O
   0.7782600000000000    0.4472166666666667    0.4717500000000000 O
   0.7412500000000000    0.5164066666666667    0.4907500000000000 O
   0.0651600000000000    0.3887733333333333    0.7928300000000000 O
   0.0880900000000000    0.3712833333333333    0.6718100000000000 O
   0.2381000000000000    0.4707433333333333    0.7850000000000000 O
   0.0744800000000000    0.5204233333333333    0.7001600000000000 O
   0.2805800000000000    0.4667900000000000    0.6435400000000000 O
