H6 O5
1.0
   7.8159325685373737    0.0000000000000000    0.0324666610044032
   0.0020953338113997   32.0429817714207985    0.0341146005405028
   0.0000000000000000    0.0000000000000000   17.9549999999999983
H O
6 5
direct
   0.7718322743329675    0.4715537241316204    0.5045197141279252 H
   0.6700023154589304    0.4274375421922893    0.7903619618880061 H
  -0.0342103932494945    0.5291504603541705    0.6794227230748862 H
  -0.0804423450112061    0.4963201982550273    0.7242246120067906 H
   0.1377938611174976    0.4551374992330723    0.8005808919231895 H
   0.0474377310008303    0.3952054545314411    0.7401330719861190 H
   0.7782600000000000    0.4472166666666667    0.4717500000000000 O
   0.5921000000000000    0.4346099999999999    0.8311900000000000 O
   0.0744800000000000    0.5204233333333333    0.7001600000000000 O
   0.2381000000000000    0.4707433333333333    0.7850000000000000 O
   0.0651600000000000    0.3887733333333333    0.7928300000000000 O
