Ca12 P11 H99 C77 O99
1.0
   7.8159325685373737    0.0000000000000000    0.0324666610044032
   0.0020953338113997   32.0429817714207985    0.0341146005405028
   0.0000000000000000    0.0000000000000000   17.9549999999999983
Ca P H C O
12 11 99 77 99
direct
   0.1934800000000000    0.2452433333333333    0.6455000000000000 Ca
   0.6899400000000000    0.2547033333333333    0.1459500000000000 Ca
   0.8063100000000000    0.0877333333333333    0.3544100000000000 Ca
   0.3097200000000000    0.0786633333333333    0.8544400000000000 Ca
   0.1934800000000000    0.5785766666666666    0.6455000000000000 Ca
   0.6899400000000000    0.5880366666666665    0.1459500000000000 Ca
   0.8063100000000000    0.4210666666666666    0.3544100000000000 Ca
   0.3097200000000000    0.4119966666666667    0.8544400000000000 Ca
   0.1934800000000000    0.9119100000000000    0.6455000000000000 Ca
   0.6899400000000000    0.9213699999999999    0.1459500000000000 Ca
   0.8063100000000000    0.7544000000000000    0.3544100000000000 Ca
   0.3097200000000000    0.7453299999999999    0.8544400000000000 Ca
   0.1574600000000000    0.1430433333333333    0.7068500000000000 P
   0.3457800000000000    0.3098000000000000    0.7928400000000000 P
   0.8425400000000000    0.1898833333333333    0.2930400000000000 P
   0.6538200000000000    0.0231966666666667    0.2071000000000000 P
   0.3457800000000000    0.6431333333333333    0.7928400000000000 P
   0.8425400000000000    0.5232166666666667    0.2930400000000000 P
   0.6538200000000000    0.3565300000000000    0.2071000000000000 P
   0.1574600000000000    0.8097099999999999    0.7068500000000000 P
   0.3457800000000000    0.9764666666666666    0.7928400000000000 P
   0.8425400000000000    0.8565499999999999    0.2930400000000000 P
   0.6538200000000000    0.6898633333333333    0.2071000000000000 P
   0.9016100000000000    0.1277933333333333    0.8129800000000000 H
   0.7798700000000000    0.1499366666666667    0.7418600000000000 H
   0.0095400000000000    0.1000333333333333    0.5826400000000000 H
   0.8230300000000000    0.0752233333333333    0.6145400000000000 H
   0.6627600000000000    0.1401866666666667    0.6209400000000000 H
   0.8489900000000000    0.1709900000000000    0.6161100000000000 H
   0.5708400000000000    0.0409866666666667    0.7579000000000000 H
   0.2685900000000000    0.1455866666666666    0.5689300000000000 H
   0.1506900000000000    0.0123800000000000    0.6930800000000000 H
   0.6022600000000000    0.2946166666666666    0.6869900000000000 H
   0.7237700000000000    0.3165666666666667    0.7582800000000000 H
   0.4930600000000000    0.2662066666666666    0.9170900000000000 H
   0.6810200000000000    0.2420433333333333    0.8853000000000000 H
   0.8383000000000000    0.3073900000000000    0.8799200000000000 H
   0.6525800000000000    0.0048533333333333    0.8835499999999999 H
   0.9325599999999999    0.2075733333333333    0.7419200000000000 H
   0.2352400000000000    0.3125433333333333    0.9309200000000000 H
   0.3532700000000000    0.1789400000000000    0.8066500000000000 H
   0.0993400000000000    0.2055200000000000    0.1872400000000000 H
   0.2218300000000000    0.1835833333333333    0.2583100000000000 H
   0.9900700000000000    0.2328733333333333    0.4176400000000000 H
   0.1768700000000000    0.2576433333333333    0.3859200000000000 H
   0.3364400000000000    0.1925466666666667    0.3790800000000000 H
   0.1498800000000000    0.1618800000000000    0.3838900000000000 H
   0.4286200000000000    0.2927666666666666    0.2422400000000000 H
   0.7313100000000000    0.1870366666666667    0.4310100000000000 H
   0.8497600000000000    0.3207833333333333    0.3070100000000000 H
   0.3967300000000000    0.0384833333333333    0.3129600000000000 H
   0.2743900000000000    0.0166766666666667    0.2417800000000000 H
   0.5063200000000000    0.0663866666666667    0.0827100000000000 H
   0.3189500000000000    0.0908633333333333    0.1143900000000000 H
   0.1603900000000000    0.0256266666666667    0.1204700000000000 H
   0.3492700000000000    0.3289566666666667    0.1164400000000000 H
   0.0677900000000000    0.1258700000000000    0.2580000000000000 H
   0.7683500000000000    0.0209666666666667    0.0688700000000000 H
   0.6469500000000000    0.1538500000000000    0.1931400000000000 H
   0.2685900000000000    0.4789200000000000    0.5689300000000000 H
   0.6022600000000000    0.6279500000000000    0.6869900000000000 H
   0.7237700000000000    0.6498999999999999    0.7582800000000000 H
   0.4930600000000000    0.5995400000000000    0.9170900000000000 H
   0.6810200000000000    0.5753766666666666    0.8853000000000000 H
   0.8383000000000000    0.6407233333333333    0.8799200000000000 H
   0.6525800000000000    0.3381866666666666    0.8835499999999999 H
   0.9325599999999999    0.5409066666666666    0.7419200000000000 H
   0.2352400000000000    0.6458766666666667    0.9309200000000000 H
   0.3532700000000000    0.5122733333333334    0.8066500000000000 H
   0.0993400000000000    0.5388533333333333    0.1872400000000000 H
   0.2218300000000000    0.5169166666666667    0.2583100000000000 H
   0.9900700000000000    0.5662066666666666    0.4176400000000000 H
   0.1768700000000000    0.5909766666666667    0.3859200000000000 H
   0.3364400000000000    0.5258800000000000    0.3790800000000000 H
   0.1498800000000000    0.4952133333333333    0.3838900000000000 H
   0.4286200000000000    0.6260999999999999    0.2422400000000000 H
   0.8497600000000000    0.6541166666666667    0.3070100000000000 H
   0.3967300000000000    0.3718166666666666    0.3129600000000000 H
   0.2743900000000000    0.3500100000000000    0.2417800000000000 H
   0.5063200000000000    0.3997200000000000    0.0827100000000000 H
   0.3189500000000000    0.4241966666666667    0.1143900000000000 H
   0.1603900000000000    0.3589600000000000    0.1204700000000000 H
   0.3492700000000000    0.6622900000000000    0.1164400000000000 H
   0.0677900000000000    0.4592033333333333    0.2580000000000000 H
   0.7683500000000000    0.3543000000000000    0.0688700000000000 H
   0.6469500000000000    0.4871833333333333    0.1931400000000000 H
   0.9016100000000000    0.7944599999999999    0.8129800000000000 H
   0.7798700000000000    0.8166033333333333    0.7418600000000000 H
   0.0095400000000000    0.7666999999999999    0.5826400000000000 H
   0.8230300000000000    0.7418899999999999    0.6145400000000000 H
   0.6627600000000000    0.8068533333333333    0.6209400000000000 H
   0.8489900000000000    0.8376566666666666    0.6161100000000000 H
   0.5708400000000000    0.7076533333333332    0.7579000000000000 H
   0.2685900000000000    0.8122533333333333    0.5689300000000000 H
   0.1506900000000000    0.6790466666666666    0.6930800000000000 H
   0.6022600000000000    0.9612833333333333    0.6869900000000000 H
   0.7237700000000000    0.9832333333333333    0.7582800000000000 H
   0.4930600000000000    0.9328733333333332    0.9170900000000000 H
   0.6810200000000000    0.9087099999999999    0.8853000000000000 H
   0.8383000000000000    0.9740566666666666    0.8799200000000000 H
   0.6525800000000000    0.6715200000000000    0.8835499999999999 H
   0.9325599999999999    0.8742399999999999    0.7419200000000000 H
   0.2352400000000000    0.9792099999999999    0.9309200000000000 H
   0.3532700000000000    0.8456066666666666    0.8066500000000000 H
   0.0993400000000000    0.8721866666666667    0.1872400000000000 H
   0.2218300000000000    0.8502500000000000    0.2583100000000000 H
   0.9900700000000000    0.8995400000000000    0.4176400000000000 H
   0.1768700000000000    0.9243100000000000    0.3859200000000000 H
   0.3364400000000000    0.8592133333333333    0.3790800000000000 H
   0.1498800000000000    0.8285466666666667    0.3838900000000000 H
   0.4286200000000000    0.9594333333333332    0.2422400000000000 H
   0.7313100000000000    0.8537033333333333    0.4310100000000000 H
   0.8497600000000000    0.9874499999999999    0.3070100000000000 H
   0.3967300000000000    0.7051499999999999    0.3129600000000000 H
   0.2743900000000000    0.6833433333333333    0.2417800000000000 H
   0.5063200000000000    0.7330533333333333    0.0827100000000000 H
   0.3189500000000000    0.7575299999999999    0.1143900000000000 H
   0.1603900000000000    0.6922933333333333    0.1204700000000000 H
   0.3492700000000000    0.9956233333333333    0.1164400000000000 H
   0.0677900000000000    0.7925366666666667    0.2580000000000000 H
   0.7683500000000000    0.6876333333333333    0.0688700000000000 H
   0.6469500000000000    0.8205166666666666    0.1931400000000000 H
   0.6913000000000000    0.0921433333333333    0.7792000000000000 C
   0.8384800000000000    0.1205100000000000    0.7600300000000000 C
   0.9692300000000000    0.1053833333333333    0.7013900000000000 C
   0.8999900000000000    0.1036333333333333    0.6205100000000000 C
   0.7930600000000000    0.1415133333333333    0.5969800000000000 C
   0.7700100000000000    0.1451200000000000    0.5138100000000000 C
   0.0425300000000000    0.0636533333333333    0.7255400000000000 C
   0.8123700000000000    0.2588766666666666    0.7207900000000000 C
   0.6650800000000000    0.2872000000000000    0.7399800000000000 C
   0.5338800000000000    0.2720433333333333    0.7984700000000000 C
   0.6026500000000000    0.2702400000000000    0.8793900000000000 C
   0.7073199999999999    0.3084000000000000    0.9032100000000000 C
   0.7277400000000001    0.3121466666666667    0.9864400000000000 C
   0.4607500000000000    0.2303500000000000    0.7742800000000000 C
   0.3084100000000000    0.2415900000000000    0.2210300000000000 C
   0.1621400000000000    0.2128966666666667    0.2402100000000000 C
   0.0306600000000000    0.2276800000000000    0.2988600000000000 C
   0.0996600000000000    0.2292833333333333    0.3797800000000000 C
   0.2062100000000000    0.1912900000000000    0.4031300000000000 C
   0.2296400000000000    0.1875366666666667    0.4862600000000000 C
   0.9571300000000000    0.2693733333333333    0.2747200000000000 C
   0.1877500000000000    0.0746233333333333    0.2791300000000000 C
   0.3340300000000000    0.0459566666666667    0.2599700000000000 C
   0.4654800000000000    0.0608666666666667    0.2014000000000000 C
   0.3966900000000000    0.0625733333333333    0.1204700000000000 C
   0.2910800000000000    0.0245066666666667    0.0969200000000000 C
   0.2697800000000000    0.0207400000000000    0.0137200000000000 C
   0.5390500000000000    0.1025000000000000    0.2255300000000000 C
   0.8123700000000000    0.5922099999999999    0.7207900000000000 C
   0.6650800000000000    0.6205333333333334    0.7399800000000000 C
   0.5338800000000000    0.6053766666666667    0.7984700000000000 C
   0.6026500000000000    0.6035733333333333    0.8793900000000000 C
   0.7073199999999999    0.6417333333333333    0.9032100000000000 C
   0.7277400000000001    0.6454800000000001    0.9864400000000000 C
   0.4607500000000000    0.5636833333333333    0.7742800000000000 C
   0.3084100000000000    0.5749233333333333    0.2210300000000000 C
   0.1621400000000000    0.5462300000000000    0.2402100000000000 C
   0.0306600000000000    0.5610133333333334    0.2988600000000000 C
   0.0996600000000000    0.5626166666666667    0.3797800000000000 C
   0.2062100000000000    0.5246233333333333    0.4031300000000000 C
   0.2296400000000000    0.5208699999999999    0.4862600000000000 C
   0.9571300000000000    0.6027066666666666    0.2747200000000000 C
   0.1877500000000000    0.4079566666666666    0.2791300000000000 C
   0.3340300000000000    0.3792900000000000    0.2599700000000000 C
   0.4654800000000000    0.3942000000000000    0.2014000000000000 C
   0.3966900000000000    0.3959066666666666    0.1204700000000000 C
   0.2910800000000000    0.3578400000000000    0.0969200000000000 C
   0.2697800000000000    0.3540733333333333    0.0137200000000000 C
   0.5390500000000000    0.4358333333333333    0.2255300000000000 C
   0.6913000000000000    0.7588100000000000    0.7792000000000000 C
   0.8384800000000000    0.7871766666666666    0.7600300000000000 C
   0.9692300000000000    0.7720499999999999    0.7013900000000000 C
   0.8999900000000000    0.7703000000000000    0.6205100000000000 C
   0.7930600000000000    0.8081799999999999    0.5969800000000000 C
   0.7700100000000000    0.8117866666666667    0.5138100000000000 C
   0.0425300000000000    0.7303200000000000    0.7255400000000000 C
   0.8123700000000000    0.9255433333333333    0.7207900000000000 C
   0.6650800000000000    0.9538666666666666    0.7399800000000000 C
   0.5338800000000000    0.9387099999999999    0.7984700000000000 C
   0.6026500000000000    0.9369066666666666    0.8793900000000000 C
   0.7073199999999999    0.9750666666666666    0.9032100000000000 C
   0.7277400000000001    0.9788133333333333    0.9864400000000000 C
   0.4607500000000000    0.8970166666666666    0.7742800000000000 C
   0.3084100000000000    0.9082566666666666    0.2210300000000000 C
   0.1621400000000000    0.8795633333333333    0.2402100000000000 C
   0.0306600000000000    0.8943466666666666    0.2988600000000000 C
   0.0996600000000000    0.8959499999999999    0.3797800000000000 C
   0.2062100000000000    0.8579566666666666    0.4031300000000000 C
   0.2296400000000000    0.8542033333333333    0.4862600000000000 C
   0.9571300000000000    0.9360400000000000    0.2747200000000000 C
   0.1877500000000000    0.7412900000000000    0.2791300000000000 C
   0.3340300000000000    0.7126233333333333    0.2599700000000000 C
   0.4654800000000000    0.7275333333333333    0.2014000000000000 C
   0.3966900000000000    0.7292400000000000    0.1204700000000000 C
   0.2910800000000000    0.6911733333333333    0.0969200000000000 C
   0.2697800000000000    0.6874066666666666    0.0137200000000000 C
   0.5390500000000000    0.7691666666666667    0.2255300000000000 C
   0.5921000000000000    0.1012766666666667    0.8311900000000000 O
   0.6740400000000000    0.0585766666666667    0.7375500000000000 O
   0.7782600000000000    0.1138833333333333    0.4717500000000000 O
   0.7412500000000000    0.1830733333333333    0.4907500000000000 O
   0.0651600000000000    0.0554400000000000    0.7928300000000000 O
   0.0880900000000000    0.0379500000000000    0.6718100000000000 O
   0.2381000000000000    0.1374100000000000    0.7850000000000000 O
   0.0744800000000000    0.1870900000000000    0.7001600000000000 O
   0.2805800000000000    0.1334566666666667    0.6435400000000000 O
   0.9116200000000000    0.2681700000000000    0.6688800000000000 O
   0.8297400000000000    0.2252066666666667    0.7623200000000000 O
   0.7184600000000000    0.2809500000000000    0.0286300000000000 O
   0.7613100000000000    0.0171233333333333    0.0091200000000000 O
   0.4382800000000000    0.2222633333333333    0.7069800000000001 O
   0.4152100000000000    0.2045266666666667    0.8279700000000000 O
   0.2650700000000000    0.3041533333333333    0.7147500000000000 O
   0.4290700000000000    0.0208400000000000    0.7995700000000000 O
   0.2228900000000000    0.3003933333333333    0.8563400000000000 O
   0.4075300000000000    0.2326533333333333    0.1689000000000000 O
   0.3253700000000000    0.2751900000000000    0.2626400000000000 O
   0.2216100000000000    0.2187233333333333    0.5284300000000000 O
   0.2585300000000000    0.1495600000000000    0.5091700000000000 O
   0.9346700000000000    0.2774799999999999    0.2074000000000000 O
   0.9114200000000000    0.2951400000000000    0.3283400000000000 O
   0.7619200000000000    0.1955733333333333    0.2149100000000000 O
   0.9256799999999999    0.1458533333333333    0.2996400000000000 O
   0.7192800000000000    0.1992233333333333    0.3564100000000000 O
   0.0885900000000000    0.0656166666666667    0.3312400000000000 O
   0.1709000000000000    0.1082733333333333    0.2375200000000000 O
   0.2817600000000000    0.0517933333333333    0.9713500000000000 O
   0.2447200000000000    0.3165200000000000    0.9906600000000000 O
   0.5616200000000000    0.1105233333333333    0.2928500000000000 O
   0.5849700000000000    0.1282766666666666    0.1718500000000000 O
   0.7342800000000000    0.0287366666666667    0.2852900000000000 O
   0.5710499999999999    0.3128433333333333    0.2006800000000000 O
   0.7768500000000000    0.0328666666666667    0.1438100000000000 O
   0.9116200000000000    0.6015033333333333    0.6688800000000000 O
   0.8297400000000000    0.5585400000000000    0.7623200000000000 O
   0.7184600000000000    0.6142833333333333    0.0286300000000000 O
   0.7613100000000000    0.3504566666666666    0.0091200000000000 O
   0.4382800000000000    0.5555966666666666    0.7069800000000001 O
   0.4152100000000000    0.5378600000000000    0.8279700000000000 O
   0.2650700000000000    0.6374866666666666    0.7147500000000000 O
   0.4290700000000000    0.3541733333333333    0.7995700000000000 O
   0.2228900000000000    0.6337266666666665    0.8563400000000000 O
   0.4075300000000000    0.5659866666666666    0.1689000000000000 O
   0.3253700000000000    0.6085233333333333    0.2626400000000000 O
   0.2216100000000000    0.5520566666666666    0.5284300000000000 O
   0.2585300000000000    0.4828933333333333    0.5091700000000000 O
   0.9346700000000000    0.6108133333333332    0.2074000000000000 O
   0.9114200000000000    0.6284733333333332    0.3283400000000000 O
   0.7619200000000000    0.5289066666666666    0.2149100000000000 O
   0.9256799999999999    0.4791866666666666    0.2996400000000000 O
   0.7192800000000000    0.5325566666666667    0.3564100000000000 O
   0.0885900000000000    0.3989500000000000    0.3312400000000000 O
   0.1709000000000000    0.4416066666666666    0.2375200000000000 O
   0.2817600000000000    0.3851266666666666    0.9713500000000000 O
   0.2447200000000000    0.6498533333333333    0.9906600000000000 O
   0.5616200000000000    0.4438566666666666    0.2928500000000000 O
   0.5849700000000000    0.4616100000000000    0.1718500000000000 O
   0.7342800000000000    0.3620700000000000    0.2852900000000000 O
   0.5710499999999999    0.6461766666666666    0.2006800000000000 O
   0.7768500000000000    0.3662000000000000    0.1438100000000000 O
   0.5921000000000000    0.7679433333333333    0.8311900000000000 O
   0.6740400000000000    0.7252433333333332    0.7375500000000000 O
   0.7782600000000000    0.7805500000000000    0.4717500000000000 O
   0.7412500000000000    0.8497399999999999    0.4907500000000000 O
   0.0651600000000000    0.7221066666666667    0.7928300000000000 O
   0.0880900000000000    0.7046166666666667    0.6718100000000000 O
   0.2381000000000000    0.8040766666666666    0.7850000000000000 O
   0.0744800000000000    0.8537566666666666    0.7001600000000000 O
   0.2805800000000000    0.8001233333333333    0.6435400000000000 O
   0.9116200000000000    0.9348366666666665    0.6688800000000000 O
   0.8297400000000000    0.8918733333333333    0.7623200000000000 O
   0.7184600000000000    0.9476166666666666    0.0286300000000000 O
   0.7613100000000000    0.6837900000000000    0.0091200000000000 O
   0.4382800000000000    0.8889300000000000    0.7069800000000001 O
   0.4152100000000000    0.8711933333333333    0.8279700000000000 O
   0.2650700000000000    0.9708200000000000    0.7147500000000000 O
   0.4290700000000000    0.6875066666666666    0.7995700000000000 O
   0.2228900000000000    0.9670599999999999    0.8563400000000000 O
   0.4075300000000000    0.8993199999999999    0.1689000000000000 O
   0.3253700000000000    0.9418566666666666    0.2626400000000000 O
   0.2216100000000000    0.8853899999999999    0.5284300000000000 O
   0.2585300000000000    0.8162266666666667    0.5091700000000000 O
   0.9346700000000000    0.9441466666666666    0.2074000000000000 O
   0.9114200000000000    0.9618066666666666    0.3283400000000000 O
   0.7619200000000000    0.8622399999999999    0.2149100000000000 O
   0.9256799999999999    0.8125199999999999    0.2996400000000000 O
   0.7192800000000000    0.8658899999999999    0.3564100000000000 O
   0.0885900000000000    0.7322833333333333    0.3312400000000000 O
   0.1709000000000000    0.7749400000000000    0.2375200000000000 O
   0.2817600000000000    0.7184600000000000    0.9713500000000000 O
   0.2447200000000000    0.9831866666666667    0.9906600000000000 O
   0.5616200000000000    0.7771899999999999    0.2928500000000000 O
   0.5849700000000000    0.7949433333333333    0.1718500000000000 O
   0.7342800000000000    0.6954033333333333    0.2852900000000000 O
   0.5710499999999999    0.9795099999999999    0.2006800000000000 O
   0.7768500000000000    0.6995333333333333    0.1438100000000000 O
