H4 O2
1.0
   6.6079999838967050    0.0000000000000000    0.0004613254275131
   2.4703262274487576   17.1217081205510908    0.0006038490144819
   0.0000000000000000    0.0000000000000000   36.7620000000000005
H O
4 2
direct
   0.2667315151388819    0.3519476131261490    1.0065960063630757 H
   0.4902065116443381    0.3189384107458782    0.9864166209806143 H
   0.7325504798556066    0.6478670478987291   -0.0065942989113556 H
   0.5090599440858083    0.6807581068797964    0.0136182043372344 H
   0.3574800000000000    0.3086600000000000    0.9955300000000000 O
   0.6416600000000000    0.6911100000000000    0.0044750000000000 O
