H4 C8 N8
1.0
   6.6079999838967050    0.0000000000000000    0.0004613254275131
   2.4703262274487576   17.1217081205510908    0.0006038490144819
   0.0000000000000000    0.0000000000000000   36.7620000000000005
H C N
4 8 8
direct
   0.5979400000000000    0.3428200000000000    0.5678750000000000 H
   0.6854700000000000    0.1229100000000000    0.6242350000000000 H
   0.3550600000000000    0.1599100000000000    0.6565350000000000 H
   0.2699300000000000    0.3808700000000000    0.6011400000000000 H
   0.8542200000000000    0.2056400000000000    0.5742050000000000 C
   0.6632800000000000    0.2302300000000000    0.5937600000000000 C
   0.5436299999999999    0.3027400000000000    0.5872250000000000 C
   0.5939200000000000    0.1794900000000000    0.6193400000000000 C
   0.1039500000000000    0.2973200000000000    0.6520600000000000 C
   0.2917600000000000    0.2734200000000000    0.6314550000000000 C
   0.4105500000000000    0.2005500000000000    0.6376500000000001 C
   0.3608400000000000    0.3240700000000000    0.6058150000000000 C
   0.0890900000000000    0.1930200000000000    0.5349600000000000 N
   0.1385900000000000    0.1367500000000000    0.5599400000000000 N
   0.9921900000000000    0.1436500000000000    0.5847599999999999 N
   0.9119100000000000    0.2378900000000000    0.5431300000000000 N
   0.8779800000000000    0.3066800000000000    0.6935050000000000 N
   0.8194000000000000    0.3639900000000000    0.6693750000000001 N
   0.9601100000000000    0.3589500000000000    0.6431450000000000 N
   0.0568700000000000    0.2637100000000000    0.6835050000000000 N
