H2 O1
1.0
  21.9404993450210704    0.0000000000000000   -0.0053610754501255
  -0.5556570577498248   19.2779936300854011   -0.0016830209955607
   0.0000000000000000    0.0000000000000000   21.7450000000000010
H O
2 1
direct
   0.9536092441393662    0.7462650694891789    0.8908906343000711 H
   0.9268826692467317    0.7488491564567679    0.8050686360178436 H
   0.9403299999999999    0.7471100000000001    0.8479400000000000 O
