H4 C6 Cl1 O1
1.0
  21.9404993450210704    0.0000000000000000   -0.0053610754501255
  -0.5556570577498248   19.2779936300854011   -0.0016830209955607
   0.0000000000000000    0.0000000000000000   21.7450000000000010
H C Cl O
4 6 1 1
direct
   0.0529266666666667    0.7271500000000000    0.8846100000000000 H
   0.0870500000000000    0.7232300000000000    0.9937700000000000 H
   0.9043933333333333    0.7628300000000000    0.0541900000000000 H
   0.8695566666666666    0.7652300000000000    0.9454900000000001 H
   0.0202033333333333    0.7346200000000001    0.9217300000000000 C
   0.0394866666666667    0.7325700000000001    0.9827900000000001 C
   0.9582466666666666    0.7459700000000000    0.9058900000000000 C
   0.9977499999999999    0.7426500000000000    0.0306100000000000 C
   0.9366300000000000    0.7546200000000000    0.0169500000000000 C
   0.9173466666666666    0.7560500000000000    0.9559200000000000 C
   0.0221600000000000    0.7406300000000000    0.1068700000000000 Cl
   0.9403299999999999    0.7471100000000001    0.8479400000000000 O
