H6 O4
1.0
  39.5009978280989884    0.0000000000000000    0.0130990274087021
  -8.6039287107005258   38.8322468097015872    0.0097186214969215
   0.0000000000000000    0.0000000000000000   22.4070000000000000
H O
6 4
direct
   0.9788993950058967    0.6292762072787731    0.4901040080873886 H
   0.9888715898971017    0.6293090484232252    0.3131298171016009 H
   0.9876574843499830    0.6296919530371338    0.4022110262843373 H
   0.1961364295466651    0.6273884258113506    0.2971745203890080 H
   0.1825640956539819    0.6041305291588739    0.4698551472199388 H
   0.1854547490286232    0.6152327792510314    0.3839801753322890 H
   0.9694033333333333    0.6280500000000000    0.4500500000000000 O
   0.9750966666666666    0.6280699999999999    0.3492300000000000 O
   0.2050266666666666    0.6235500000000000    0.3363600000000000 O
   0.1969800000000000    0.6102566666666667    0.4347800000000000 O
