H6 C12 O4
1.0
  39.5009978280989884    0.0000000000000000    0.0130990274087021
  -8.6039287107005258   38.8322468097015872    0.0097186214969215
   0.0000000000000000    0.0000000000000000   22.4070000000000000
H C O
6 12 4
direct
   0.0322533333333333    0.6252433333333334    0.3148500000000000 H
   0.0824300000000000    0.6160233333333334    0.5169500000000000 H
   0.0205500000000000    0.6204933333333333    0.5049200000000000 H
   0.0894566666666667    0.6235266666666666    0.2685500000000000 H
   0.1517466666666666    0.6214400000000000    0.2805500000000000 H
   0.1397033333333333    0.6146133333333332    0.4707500000000000 H
   0.0233433333333333    0.6235566666666666    0.4088300000000000 C
   0.0437200000000000    0.6233700000000000    0.3586500000000000 C
   0.0787500000000000    0.6209100000000000    0.3635800000000000 C
   0.0930633333333333    0.6183200000000000    0.4219500000000000 C
   0.0714500000000000    0.6181633333333333    0.4727000000000000 C
   0.0374366666666667    0.6206866666666666    0.4664300000000000 C
   0.1004333333333333    0.6215666666666666    0.3128000000000000 C
   0.1347366666666667    0.6201666666666666    0.3191000000000000 C
   0.1488900000000000    0.6174833333333334    0.3766000000000000 C
   0.1282566666666667    0.6164433333333332    0.4269000000000000 C
   0.1865200000000000    0.6168400000000001    0.3831900000000000 C
   0.9864533333333333    0.6267533333333333    0.4022400000000000 C
   0.1969800000000000    0.6102566666666667    0.4347800000000000 O
   0.2050266666666666    0.6235500000000000    0.3363600000000000 O
   0.9750966666666666    0.6280699999999999    0.3492300000000000 O
   0.9694033333333333    0.6280500000000000    0.4500500000000000 O
