H12 C16 O6
1.0
  34.5053255542003328    0.0000000000000000    2.2095891922820381
   0.9644035546708477   17.2033421128276025    1.2550386180315514
   0.0000000000000000    0.0000000000000000   34.6700000000000017
H C O
12 16 6
direct
   0.8315750000000000    0.9987600000000000    0.4954500000000000 H
   0.7898450000000000    0.0651000000000000    0.4920950000000000 H
   0.7461050000000000    0.0849800000000000    0.5444300000000000 H
   0.8126150000000000    0.2518600000000000    0.6269300000000000 H
   0.7401050000000000    0.2549900000000000    0.6291100000000001 H
   0.7894800000000000    0.9840100000000001    0.5276900000000000 H
   0.9394800000000000    0.2814800000000000    0.5594749999999999 H
   0.8700600000000001    0.0524000000000000    0.6150750000000000 H
   0.9412950000000000    0.0552300000000000    0.6196699999999999 H
   0.8577600000000001    0.3978700000000000    0.5248750000000000 H
   0.9034700000000000    0.3462300000000000    0.5152300000000000 H
   0.8925900000000000    0.3859700000000000    0.5614100000000000 H
   0.6958700000000000    0.1724300000000000    0.5876250000000000 C
   0.7391200000000000    0.1697800000000000    0.5869000000000000 C
   0.7612700000000000    0.1206100000000000    0.5624400000000001 C
   0.8017799999999999    0.1186900000000000    0.5614100000000000 C
   0.8206800000000001    0.1661300000000000    0.5850400000000000 C
   0.7979250000000000    0.2149800000000000    0.6089750000000000 C
   0.7575750000000000    0.2170800000000000    0.6102950000000000 C
   0.8076400000000000    0.0277400000000000    0.5119950000000000 C
   0.9868749999999999    0.1746700000000000    0.5930650000000000 C
   0.9443150000000000    0.1695800000000000    0.5901500000000000 C
   0.9235350000000000    0.2322800000000000    0.5716150000000000 C
   0.8835350000000000    0.2306600000000000    0.5691150000000000 C
   0.8636699999999999    0.1654100000000000    0.5851050000000000 C
   0.8851700000000000    0.1027400000000000    0.6026549999999999 C
   0.9251350000000000    0.1042000000000000    0.6055500000000000 C
   0.8803099999999999    0.3585900000000000    0.5375600000000000 C
   0.0023000000000000    0.2337100000000000    0.5752500000000000 O
   0.0047650000000000    0.1205300000000000    0.6132850000000000 O
   0.6775550000000000    0.2181500000000000    0.6107150000000000 O
   0.6805150000000000    0.1290500000000000    0.5650850000000001 O
   0.8255300000000000    0.0729400000000000    0.5381899999999999 O
   0.8613250000000000    0.2897000000000000    0.5515350000000000 O
