Zn32 H282 C368 O150
1.0
  34.5053255542003328    0.0000000000000000    2.2095891922820381
   0.9644035546708477   17.2033421128276025    1.2550386180315514
   0.0000000000000000    0.0000000000000000   34.6700000000000017
Zn H C O
32 282 368 150
direct
   0.6252050000000000    0.1195200000000000    0.0566950000000000 Zn
   0.5597799999999999    0.1129600000000000    0.1263750000000000 Zn
   0.6217650000000000    0.2428300000000000    0.1216750000000000 Zn
   0.5568550000000000    0.2502300000000000    0.0585850000000000 Zn
   0.1252050000000000    0.1195200000000000    0.0566950000000000 Zn
   0.0597800000000000    0.1129600000000000    0.1263750000000000 Zn
   0.1217650000000000    0.2428300000000000    0.1216750000000000 Zn
   0.0568550000000000    0.2502300000000000    0.0585850000000000 Zn
   0.3747900000000000    0.8804999999999999    0.4433000000000000 Zn
   0.4402100000000000    0.8870600000000000    0.3736200000000000 Zn
   0.3782250000000000    0.7572100000000000    0.3783200000000000 Zn
   0.4431450000000000    0.7498000000000000    0.4414150000000000 Zn
   0.8747900000000000    0.8804999999999999    0.4433000000000000 Zn
   0.9402100000000000    0.8870600000000000    0.3736200000000000 Zn
   0.8782250000000000    0.7572100000000000    0.3783200000000000 Zn
   0.9431450000000000    0.7498000000000000    0.4414150000000000 Zn
   0.8747900000000000    0.8804999999999999    0.9433000000000000 Zn
   0.9402100000000000    0.8870600000000000    0.8736200000000001 Zn
   0.8782250000000000    0.7572100000000000    0.8783200000000000 Zn
   0.9431450000000000    0.7498000000000000    0.9414150000000000 Zn
   0.1252050000000000    0.1195200000000000    0.5566950000000001 Zn
   0.0597800000000000    0.1129600000000000    0.6263750000000000 Zn
   0.1217650000000000    0.2428300000000000    0.6216750000000000 Zn
   0.0568550000000000    0.2502300000000000    0.5585850000000000 Zn
   0.3747900000000000    0.8804999999999999    0.9433000000000000 Zn
   0.4402100000000000    0.8870600000000000    0.8736200000000001 Zn
   0.3782250000000000    0.7572100000000000    0.8783200000000000 Zn
   0.4431450000000000    0.7498000000000000    0.9414150000000000 Zn
   0.6252050000000000    0.1195200000000000    0.5566950000000001 Zn
   0.5597799999999999    0.1129600000000000    0.6263750000000000 Zn
   0.6217650000000000    0.2428300000000000    0.6216750000000000 Zn
   0.5568550000000000    0.2502300000000000    0.5585850000000000 Zn
   0.3315750000000000    0.9987600000000000    0.9954499999999999 H
   0.2898450000000000    0.0651000000000000    0.9920949999999999 H
   0.2894800000000000    0.9840100000000001    0.0276900000000000 H
   0.2461050000000000    0.0849800000000000    0.0444300000000000 H
   0.2401050000000000    0.2549900000000000    0.1291100000000000 H
   0.3126150000000000    0.2518600000000000    0.1269300000000000 H
   0.3577600000000000    0.3978700000000000    0.0248750000000000 H
   0.4034700000000000    0.3462300000000000    0.0152300000000000 H
   0.3925900000000000    0.3859700000000000    0.0614100000000000 H
   0.4394800000000000    0.2814800000000000    0.0594750000000000 H
   0.4412950000000000    0.0552300000000000    0.1196700000000000 H
   0.3700600000000000    0.0524000000000000    0.1150750000000000 H
   0.4989050000000000    0.9903400000000000    0.3332900000000000 H
   0.5317650000000000    0.9838500000000000    0.2914150000000000 H
   0.4916000000000000    0.0550500000000000    0.2911100000000000 H
   0.5418900000000000    0.0885900000000000    0.2472700000000000 H
   0.6276950000000000    0.2527700000000000    0.3117250000000000 H
   0.6288750000000000    0.2567200000000000    0.2390000000000000 H
   0.6995400000000001    0.0512300000000000    0.3572900000000000 H
   0.6740500000000000    0.0312700000000000    0.4032000000000000 H
   0.6936850000000000    0.1246600000000000    0.3916000000000000 H
   0.6416550000000000    0.1191500000000000    0.4390050000000000 H
   0.5291150000000000    0.2388500000000000    0.4408600000000000 H
   0.5274250000000000    0.2291800000000000    0.3698550000000000 H
   0.4955400000000000    0.6637200000000000    0.9986250000000000 H
   0.4922200000000000    0.5791500000000001    0.0315350000000000 H
   0.5282050000000000    0.5803500000000000    0.9917050000000001 H
   0.5450199999999999    0.4925300000000000    0.0416650000000000 H
   0.6274000000000000    0.4785100000000000    0.1295900000000000 H
   0.6246350000000001    0.6235600000000000    0.1287100000000000 H
   0.5254200000000000    0.7117700000000000    0.2004900000000000 H
   0.5154700000000000    0.8037100000000000    0.1746350000000000 H
   0.5619750000000000    0.7819000000000000    0.1944100000000000 H
   0.5601200000000000    0.8767300000000000    0.1425650000000000 H
   0.6180250000000000    0.8836400000000000    0.0291650000000000 H
   0.6126700000000000    0.7412500000000000    0.0275700000000000 H
   0.8315750000000000    0.9987600000000000    0.9954499999999999 H
   0.7898450000000000    0.0651000000000000    0.9920949999999999 H
   0.7894800000000000    0.9840100000000001    0.0276900000000000 H
   0.7461050000000000    0.0849800000000000    0.0444300000000000 H
   0.7401050000000000    0.2549900000000000    0.1291100000000000 H
   0.8126150000000000    0.2518600000000000    0.1269300000000000 H
   0.8577600000000001    0.3978700000000000    0.0248750000000000 H
   0.9034700000000000    0.3462300000000000    0.0152300000000000 H
   0.8925900000000000    0.3859700000000000    0.0614100000000000 H
   0.9394800000000000    0.2814800000000000    0.0594750000000000 H
   0.9412950000000000    0.0552300000000000    0.1196700000000000 H
   0.8700600000000001    0.0524000000000000    0.1150750000000000 H
   0.9989049999999999    0.9903400000000000    0.3332900000000000 H
   0.0317650000000000    0.9838500000000000    0.2914150000000000 H
   0.9916000000000000    0.0550500000000000    0.2911100000000000 H
   0.0418900000000000    0.0885900000000000    0.2472700000000000 H
   0.1276950000000000    0.2527700000000000    0.3117250000000000 H
   0.1288750000000000    0.2567200000000000    0.2390000000000000 H
   0.1995400000000000    0.0512300000000000    0.3572900000000000 H
   0.1740500000000000    0.0312700000000000    0.4032000000000000 H
   0.1936850000000000    0.1246600000000000    0.3916000000000000 H
   0.1416550000000000    0.1191500000000000    0.4390050000000000 H
   0.0291150000000000    0.2388500000000000    0.4408600000000000 H
   0.0274250000000000    0.2291800000000000    0.3698550000000000 H
   0.9955400000000000    0.6637200000000000    0.9986250000000000 H
   0.9922200000000000    0.5791500000000001    0.0315350000000000 H
   0.0282050000000000    0.5803500000000000    0.9917050000000001 H
   0.0450200000000000    0.4925300000000000    0.0416650000000000 H
   0.1274000000000000    0.4785100000000000    0.1295900000000000 H
   0.1246350000000000    0.6235600000000000    0.1287100000000000 H
   0.0254200000000000    0.7117700000000000    0.2004900000000000 H
   0.0154700000000000    0.8037100000000000    0.1746350000000000 H
   0.0619750000000000    0.7819000000000000    0.1944100000000000 H
   0.0601200000000000    0.8767300000000000    0.1425650000000000 H
   0.1180250000000000    0.8836400000000000    0.0291650000000000 H
   0.1126700000000000    0.7412500000000000    0.0275700000000000 H
   0.6074600000000000    0.6141799999999999    0.4385950000000000 H
   0.6422800000000000    0.6023300000000000    0.4751400000000000 H
   0.5965600000000000    0.6539300000000000    0.4847750000000000 H
   0.5605350000000000    0.7186500000000000    0.4405500000000000 H
   0.5586800000000000    0.9448299999999999    0.3802800000000000 H
   0.6299200000000000    0.9477000000000000    0.3848500000000000 H
   0.6684250000000000    0.0000000000000000    0.5045800000000000 H
   0.7101550000000000    0.9348200000000000    0.5079250000000000 H
   0.7105250000000000    0.0159800000000000    0.4723700000000000 H
   0.7539050000000000    0.9150199999999999    0.4555800000000000 H
   0.7598849999999999    0.7452700000000000    0.3707750000000000 H
   0.6873700000000000    0.7484100000000000    0.3729600000000000 H
   0.3004700000000000    0.9488000000000000    0.1427000000000000 H
   0.3259600000000000    0.9687700000000000    0.0967650000000000 H
   0.3063200000000000    0.8753900000000000    0.1083750000000000 H
   0.3583500000000000    0.8808800000000000    0.0609950000000000 H
   0.4708850000000000    0.7611400000000000    0.0591400000000000 H
   0.4725700000000000    0.7708000000000000    0.1301500000000000 H
   0.5000000000000000    0.0096900000000000    0.1667100000000000 H
   0.4682200000000000    0.0161800000000000    0.2085850000000000 H
   0.5083850000000000    0.9449800000000000    0.2088900000000000 H
   0.4581000000000000    0.9114400000000000    0.2527000000000000 H
   0.3711300000000000    0.7432700000000000    0.2606050000000000 H
   0.3723150000000000    0.7472100000000000    0.1882750000000000 H
   0.5044550000000000    0.3363000000000000    0.5000000000000000 H
   0.5077850000000000    0.4208800000000000    0.4684600000000000 H
   0.4718000000000000    0.4196800000000000    0.5082950000000001 H
   0.4549800000000000    0.5075000000000000    0.4583350000000000 H
   0.3725900000000000    0.5215100000000000    0.3704150000000000 H
   0.3753550000000000    0.3764600000000000    0.3710000000000000 H
   0.4745700000000000    0.2882500000000000    0.2995100000000000 H
   0.4845200000000000    0.1963000000000000    0.3253750000000000 H
   0.4380150000000000    0.2181200000000000    0.3055950000000000 H
   0.4398650000000000    0.1233000000000000    0.3574350000000000 H
   0.3819700000000000    0.1163900000000000    0.4708450000000000 H
   0.3873300000000000    0.2587800000000000    0.4724400000000000 H
   0.1074600000000000    0.6141799999999999    0.4385950000000000 H
   0.1422800000000000    0.6023300000000000    0.4751400000000000 H
   0.0965600000000000    0.6539300000000000    0.4847750000000000 H
   0.0605350000000000    0.7186500000000000    0.4405500000000000 H
   0.0586800000000000    0.9448299999999999    0.3802800000000000 H
   0.1299200000000000    0.9477000000000000    0.3848500000000000 H
   0.1684250000000000    0.0000000000000000    0.5045800000000000 H
   0.2101550000000000    0.9348200000000000    0.5079250000000000 H
   0.2105250000000000    0.0159800000000000    0.4723700000000000 H
   0.2539050000000000    0.9150199999999999    0.4555800000000000 H
   0.2598850000000000    0.7452700000000000    0.3707750000000000 H
   0.1873700000000000    0.7484100000000000    0.3729600000000000 H
   0.8004700000000000    0.9488000000000000    0.1427000000000000 H
   0.8259600000000000    0.9687700000000000    0.0967650000000000 H
   0.8063199999999999    0.8753900000000000    0.1083750000000000 H
   0.8583499999999999    0.8808800000000000    0.0609950000000000 H
   0.9708850000000000    0.7611400000000000    0.0591400000000000 H
   0.9725699999999999    0.7708000000000000    0.1301500000000000 H
   0.0000000000000000    0.0096900000000000    0.1667100000000000 H
   0.9682200000000001    0.0161800000000000    0.2085850000000000 H
   0.0083850000000000    0.9449800000000000    0.2088900000000000 H
   0.9581000000000000    0.9114400000000000    0.2527000000000000 H
   0.8711300000000000    0.7432700000000000    0.2606050000000000 H
   0.8723150000000000    0.7472100000000000    0.1882750000000000 H
   0.0044550000000000    0.3363000000000000    0.5000000000000000 H
   0.0077850000000000    0.4208800000000000    0.4684600000000000 H
   0.9718000000000000    0.4196800000000000    0.5082950000000001 H
   0.9549799999999999    0.5075000000000000    0.4583350000000000 H
   0.8725900000000000    0.5215100000000000    0.3704150000000000 H
   0.8753550000000000    0.3764600000000000    0.3710000000000000 H
   0.9745699999999999    0.2882500000000000    0.2995100000000000 H
   0.9845200000000001    0.1963000000000000    0.3253750000000000 H
   0.9380150000000000    0.2181200000000000    0.3055950000000000 H
   0.9398650000000000    0.1233000000000000    0.3574350000000000 H
   0.8819699999999999    0.1163900000000000    0.4708450000000000 H
   0.8873300000000000    0.2587800000000000    0.4724400000000000 H
   0.1074600000000000    0.6141799999999999    0.9385950000000001 H
   0.1422800000000000    0.6023300000000000    0.9751400000000000 H
   0.0965600000000000    0.6539300000000000    0.9847750000000000 H
   0.0605350000000000    0.7186500000000000    0.9405500000000000 H
   0.0586800000000000    0.9448299999999999    0.8802800000000000 H
   0.1299200000000000    0.9477000000000000    0.8848500000000000 H
   0.1684250000000000    0.0000000000000000    0.0045800000000000 H
   0.2101550000000000    0.9348200000000000    0.0079250000000000 H
   0.2105250000000000    0.0159800000000000    0.9723700000000000 H
   0.2539050000000000    0.9150199999999999    0.9555800000000000 H
   0.2598850000000000    0.7452700000000000    0.8707750000000001 H
   0.1873700000000000    0.7484100000000000    0.8729600000000000 H
  -0.0140584801822477    0.2733657770780944    0.5620034542772334 H
  -0.0094485003777138    0.0793966989911779    0.6271862465541682 H
  -0.0178582823589344    0.1753727379564437    0.5949654286933759 H
   0.8004700000000000    0.9488000000000000    0.6427000000000000 H
   0.8259600000000000    0.9687700000000000    0.5967650000000000 H
   0.8063199999999999    0.8753900000000000    0.6083750000000000 H
   0.8583499999999999    0.8808800000000000    0.5609950000000000 H
   0.9708850000000000    0.7611400000000000    0.5591400000000000 H
   0.9725699999999999    0.7708000000000000    0.6301500000000000 H
   0.0000000000000000    0.0096900000000000    0.6667100000000000 H
   0.9682200000000001    0.0161800000000000    0.7085850000000000 H
   0.0083850000000000    0.9449800000000000    0.7088900000000000 H
   0.9581000000000000    0.9114400000000000    0.7526999999999999 H
   0.8711300000000000    0.7432700000000000    0.7606050000000000 H
   0.8723150000000000    0.7472100000000000    0.6882750000000000 H
   0.0044550000000000    0.3363000000000000    0.0000000000000000 H
   0.0077850000000000    0.4208800000000000    0.9684600000000000 H
   0.9718000000000000    0.4196800000000000    0.0082950000000000 H
   0.9549799999999999    0.5075000000000000    0.9583349999999999 H
   0.8725900000000000    0.5215100000000000    0.8704149999999999 H
   0.8753550000000000    0.3764600000000000    0.8710000000000000 H
   0.9745699999999999    0.2882500000000000    0.7995099999999999 H
   0.9845200000000001    0.1963000000000000    0.8253750000000000 H
   0.9380150000000000    0.2181200000000000    0.8055950000000001 H
   0.9398650000000000    0.1233000000000000    0.8574349999999999 H
   0.8819699999999999    0.1163900000000000    0.9708450000000000 H
   0.8873300000000000    0.2587800000000000    0.9724400000000000 H
   0.9989049999999999    0.9903400000000000    0.8332900000000000 H
   0.0317650000000000    0.9838500000000000    0.7914150000000000 H
   0.9916000000000000    0.0550500000000000    0.7911100000000000 H
   0.0418900000000000    0.0885900000000000    0.7472700000000000 H
   0.1276950000000000    0.2527700000000000    0.8117250000000000 H
   0.1288750000000000    0.2567200000000000    0.7390000000000000 H
   0.1995400000000000    0.0512300000000000    0.8572900000000000 H
   0.1740500000000000    0.0312700000000000    0.9032000000000000 H
   0.1936850000000000    0.1246600000000000    0.8915999999999999 H
   0.1416550000000000    0.1191500000000000    0.9390050000000000 H
   0.0291150000000000    0.2388500000000000    0.9408600000000000 H
   0.0274250000000000    0.2291800000000000    0.8698550000000000 H
   0.9955400000000000    0.6637200000000000    0.4986250000000000 H
   0.9922200000000000    0.5791500000000001    0.5315350000000000 H
   0.0282050000000000    0.5803500000000000    0.4917050000000000 H
   0.0450200000000000    0.4925300000000000    0.5416650000000000 H
   0.1274000000000000    0.4785100000000000    0.6295900000000000 H
   0.1246350000000000    0.6235600000000000    0.6287100000000000 H
   0.0254200000000000    0.7117700000000000    0.7004900000000001 H
   0.0154700000000000    0.8037100000000000    0.6746350000000000 H
   0.0619750000000000    0.7819000000000000    0.6944100000000000 H
   0.0601200000000000    0.8767300000000000    0.6425650000000001 H
   0.1180250000000000    0.8836400000000000    0.5291650000000000 H
   0.1126700000000000    0.7412500000000000    0.5275700000000000 H
   0.6074600000000000    0.6141799999999999    0.9385950000000001 H
   0.6422800000000000    0.6023300000000000    0.9751400000000000 H
   0.5965600000000000    0.6539300000000000    0.9847750000000000 H
   0.5605350000000000    0.7186500000000000    0.9405500000000000 H
   0.5586800000000000    0.9448299999999999    0.8802800000000000 H
   0.6299200000000000    0.9477000000000000    0.8848500000000000 H
   0.6684250000000000    0.0000000000000000    0.0045800000000000 H
   0.7101550000000000    0.9348200000000000    0.0079250000000000 H
   0.7105250000000000    0.0159800000000000    0.9723700000000000 H
   0.7539050000000000    0.9150199999999999    0.9555800000000000 H
   0.7598849999999999    0.7452700000000000    0.8707750000000001 H
   0.6873700000000000    0.7484100000000000    0.8729600000000000 H
   0.3004700000000000    0.9488000000000000    0.6427000000000000 H
   0.3259600000000000    0.9687700000000000    0.5967650000000000 H
   0.3063200000000000    0.8753900000000000    0.6083750000000000 H
   0.3583500000000000    0.8808800000000000    0.5609950000000000 H
   0.4708850000000000    0.7611400000000000    0.5591400000000000 H
   0.4725700000000000    0.7708000000000000    0.6301500000000000 H
   0.5000000000000000    0.0096900000000000    0.6667100000000000 H
   0.4682200000000000    0.0161800000000000    0.7085850000000000 H
   0.5083850000000000    0.9449800000000000    0.7088900000000000 H
   0.4581000000000000    0.9114400000000000    0.7526999999999999 H
   0.3711300000000000    0.7432700000000000    0.7606050000000000 H
   0.3723150000000000    0.7472100000000000    0.6882750000000000 H
   0.5044550000000000    0.3363000000000000    0.0000000000000000 H
   0.5077850000000000    0.4208800000000000    0.9684600000000000 H
   0.4718000000000000    0.4196800000000000    0.0082950000000000 H
   0.4549800000000000    0.5075000000000000    0.9583349999999999 H
   0.3725900000000000    0.5215100000000000    0.8704149999999999 H
   0.3753550000000000    0.3764600000000000    0.8710000000000000 H
   0.4745700000000000    0.2882500000000000    0.7995099999999999 H
   0.4845200000000000    0.1963000000000000    0.8253750000000000 H
   0.4380150000000000    0.2181200000000000    0.8055950000000001 H
   0.4398650000000000    0.1233000000000000    0.8574349999999999 H
   0.3819700000000000    0.1163900000000000    0.9708450000000000 H
   0.3873300000000000    0.2587800000000000    0.9724400000000000 H
   0.6917323015129447    0.2484724365796694    0.6269561495770647 H
   0.6964612151567353    0.0953782541856985    0.5485366206510984 H
   0.7000072896837921    0.1707401423158466    0.5874148624258566 H
   0.3315750000000000    0.9987600000000000    0.4954500000000000 H
   0.2898450000000000    0.0651000000000000    0.4920950000000000 H
   0.2894800000000000    0.9840100000000001    0.5276900000000000 H
   0.2461050000000000    0.0849800000000000    0.5444300000000000 H
   0.2401050000000000    0.2549900000000000    0.6291100000000001 H
   0.3126150000000000    0.2518600000000000    0.6269300000000000 H
   0.3577600000000000    0.3978700000000000    0.5248750000000000 H
   0.4034700000000000    0.3462300000000000    0.5152300000000000 H
   0.3925900000000000    0.3859700000000000    0.5614100000000000 H
   0.4394800000000000    0.2814800000000000    0.5594749999999999 H
   0.4412950000000000    0.0552300000000000    0.6196699999999999 H
   0.3700600000000000    0.0524000000000000    0.6150750000000000 H
   0.4989050000000000    0.9903400000000000    0.8332900000000000 H
   0.5317650000000000    0.9838500000000000    0.7914150000000000 H
   0.4916000000000000    0.0550500000000000    0.7911100000000000 H
   0.5418900000000000    0.0885900000000000    0.7472700000000000 H
   0.6276950000000000    0.2527700000000000    0.8117250000000000 H
   0.6288750000000000    0.2567200000000000    0.7390000000000000 H
   0.6995400000000001    0.0512300000000000    0.8572900000000000 H
   0.6740500000000000    0.0312700000000000    0.9032000000000000 H
   0.6936850000000000    0.1246600000000000    0.8915999999999999 H
   0.6416550000000000    0.1191500000000000    0.9390050000000000 H
   0.5291150000000000    0.2388500000000000    0.9408600000000000 H
   0.5274250000000000    0.2291800000000000    0.8698550000000000 H
   0.4955400000000000    0.6637200000000000    0.4986250000000000 H
   0.4922200000000000    0.5791500000000001    0.5315350000000000 H
   0.5282050000000000    0.5803500000000000    0.4917050000000000 H
   0.5450199999999999    0.4925300000000000    0.5416650000000000 H
   0.6274000000000000    0.4785100000000000    0.6295900000000000 H
   0.6246350000000001    0.6235600000000000    0.6287100000000000 H
   0.5254200000000000    0.7117700000000000    0.7004900000000001 H
   0.5154700000000000    0.8037100000000000    0.6746350000000000 H
   0.5619750000000000    0.7819000000000000    0.6944100000000000 H
   0.5601200000000000    0.8767300000000000    0.6425650000000001 H
   0.6180250000000000    0.8836400000000000    0.5291650000000000 H
   0.6126700000000000    0.7412500000000000    0.5275700000000000 H
   0.1958700000000000    0.1724300000000000    0.0876250000000000 C
   0.4868750000000000    0.1746700000000000    0.0930650000000000 C
   0.3076400000000000    0.0277400000000000    0.0119950000000000 C
   0.2612700000000000    0.1206100000000000    0.0624400000000000 C
   0.3017800000000000    0.1186900000000000    0.0614100000000000 C
   0.2575750000000000    0.2170800000000000    0.1102950000000000 C
   0.2979250000000000    0.2149800000000000    0.1089750000000000 C
   0.3206800000000000    0.1661300000000000    0.0850400000000000 C
   0.2391200000000000    0.1697800000000000    0.0869000000000000 C
   0.3803100000000000    0.3585900000000000    0.0375600000000000 C
   0.4235350000000000    0.2322800000000000    0.0716150000000000 C
   0.3835350000000000    0.2306600000000000    0.0691150000000000 C
   0.4251350000000000    0.1042000000000000    0.1055500000000000 C
   0.3851700000000000    0.1027400000000000    0.1026550000000000 C
   0.4443150000000000    0.1695800000000000    0.0901500000000000 C
   0.3636700000000000    0.1654100000000000    0.0851050000000000 C
   0.5862250000000000    0.1742900000000000    0.1962800000000000 C
   0.5885500000000000    0.1865600000000000    0.4861250000000000 C
   0.5134000000000000    0.0236300000000000    0.3091500000000000 C
   0.5602250000000000    0.1244300000000000    0.2619900000000000 C
   0.5595500000000000    0.1224600000000000    0.3023850000000000 C
   0.6087550000000000    0.2170200000000000    0.2974800000000000 C
   0.6095750000000000    0.2194700000000000    0.2572000000000000 C
   0.5852200000000000    0.1729700000000000    0.2393850000000000 C
   0.5839000000000000    0.1695800000000000    0.3206750000000000 C
   0.6800200000000001    0.0762000000000000    0.3798250000000000 C
   0.6171500000000000    0.1432900000000000    0.4231200000000000 C
   0.6162150000000000    0.1381600000000000    0.3832500000000000 C
   0.5534000000000000    0.2108000000000000    0.4247050000000000 C
   0.5525350000000000    0.2047300000000000    0.3849200000000000 C
   0.5860100000000000    0.1803300000000000    0.4437800000000000 C
   0.5836950000000000    0.1698500000000000    0.3635050000000000 C
   0.5876650000000000    0.3910600000000000    0.0861800000000000 C
   0.5933250000000000    0.9729900000000000    0.0889550000000000 C
   0.5121550000000000    0.6157500000000000    0.0133000000000000 C
   0.5623750000000000    0.5224800000000001    0.0602850000000000 C
   0.5609550000000000    0.6035400000000000    0.0597650000000000 C
   0.6089400000000000    0.5139200000000000    0.1101650000000000 C
   0.6072750000000000    0.5946500000000000    0.1095000000000000 C
   0.5838350000000000    0.6408100000000000    0.0844500000000000 C
   0.5864150000000000    0.4775900000000000    0.0854250000000000 C
   0.5379250000000000    0.7573900000000000    0.1808350000000000 C
   0.5716300000000000    0.8455500000000000    0.1178750000000000 C
   0.5687600000000000    0.7655500000000000    0.1169900000000000 C
   0.6042900000000000    0.8505700000000000    0.0536600000000000 C
   0.6009450000000000    0.7707400000000000    0.0528400000000000 C
   0.5897950000000000    0.8879700000000000    0.0864500000000000 C
   0.5839300000000001    0.7267900000000000    0.0842500000000000 C
   0.6958700000000000    0.1724300000000000    0.0876250000000000 C
   0.9868749999999999    0.1746700000000000    0.0930650000000000 C
   0.8076400000000000    0.0277400000000000    0.0119950000000000 C
   0.7612700000000000    0.1206100000000000    0.0624400000000000 C
   0.8017799999999999    0.1186900000000000    0.0614100000000000 C
   0.7575750000000000    0.2170800000000000    0.1102950000000000 C
   0.7979250000000000    0.2149800000000000    0.1089750000000000 C
   0.8206800000000001    0.1661300000000000    0.0850400000000000 C
   0.7391200000000000    0.1697800000000000    0.0869000000000000 C
   0.8803099999999999    0.3585900000000000    0.0375600000000000 C
   0.9235350000000000    0.2322800000000000    0.0716150000000000 C
   0.8835350000000000    0.2306600000000000    0.0691150000000000 C
   0.9251350000000000    0.1042000000000000    0.1055500000000000 C
   0.8851700000000000    0.1027400000000000    0.1026550000000000 C
   0.9443150000000000    0.1695800000000000    0.0901500000000000 C
   0.8636699999999999    0.1654100000000000    0.0851050000000000 C
   0.0862250000000000    0.1742900000000000    0.1962800000000000 C
   0.0885500000000000    0.1865600000000000    0.4861250000000000 C
   0.0134000000000000    0.0236300000000000    0.3091500000000000 C
   0.0602250000000000    0.1244300000000000    0.2619900000000000 C
   0.0595500000000000    0.1224600000000000    0.3023850000000000 C
   0.1087550000000000    0.2170200000000000    0.2974800000000000 C
   0.1095750000000000    0.2194700000000000    0.2572000000000000 C
   0.0852200000000000    0.1729700000000000    0.2393850000000000 C
   0.0839000000000000    0.1695800000000000    0.3206750000000000 C
   0.1800200000000000    0.0762000000000000    0.3798250000000000 C
   0.1171500000000000    0.1432900000000000    0.4231200000000000 C
   0.1162150000000000    0.1381600000000000    0.3832500000000000 C
   0.0534000000000000    0.2108000000000000    0.4247050000000000 C
   0.0525350000000000    0.2047300000000000    0.3849200000000000 C
   0.0860100000000000    0.1803300000000000    0.4437800000000000 C
   0.0836950000000000    0.1698500000000000    0.3635050000000000 C
   0.0876650000000000    0.3910600000000000    0.0861800000000000 C
   0.0933250000000000    0.9729900000000000    0.0889550000000000 C
   0.0121550000000000    0.6157500000000000    0.0133000000000000 C
   0.0623750000000000    0.5224800000000001    0.0602850000000000 C
   0.0609550000000000    0.6035400000000000    0.0597650000000000 C
   0.1089400000000000    0.5139200000000000    0.1101650000000000 C
   0.1072750000000000    0.5946500000000000    0.1095000000000000 C
   0.0838350000000000    0.6408100000000000    0.0844500000000000 C
   0.0864150000000000    0.4775900000000000    0.0854250000000000 C
   0.0379250000000000    0.7573900000000000    0.1808350000000000 C
   0.0716300000000000    0.8455500000000000    0.1178750000000000 C
   0.0687600000000000    0.7655500000000000    0.1169900000000000 C
   0.1042900000000000    0.8505700000000000    0.0536600000000000 C
   0.1009450000000000    0.7707400000000000    0.0528400000000000 C
   0.0897950000000000    0.8879700000000000    0.0864500000000000 C
   0.0839300000000000    0.7267900000000000    0.0842500000000000 C
   0.8041300000000000    0.8277200000000000    0.4122900000000000 C
   0.5131250000000001    0.8253900000000000    0.4069350000000000 C
   0.6197250000000000    0.6415800000000000    0.4620000000000000 C
   0.5764700000000000    0.7678500000000000    0.4283950000000000 C
   0.6164750000000000    0.7695000000000000    0.4308500000000000 C
   0.5748500000000000    0.8958800000000000    0.3943700000000000 C
   0.6148150000000000    0.8973700000000000    0.3972500000000000 C
   0.5556800000000000    0.8305200000000000    0.4098100000000000 C
   0.6363250000000000    0.8347300000000000    0.4148550000000000 C
   0.6923650000000000    0.9722300000000000    0.4880450000000000 C
   0.7387350000000000    0.8794500000000000    0.4375450000000000 C
   0.6982250000000000    0.8813900000000000    0.4385750000000000 C
   0.7424200000000000    0.7831300000000000    0.3896150000000000 C
   0.7020649999999999    0.7852400000000000    0.3909000000000000 C
   0.7608750000000000    0.8303500000000000    0.4130450000000000 C
   0.6793200000000000    0.8340200000000000    0.4149100000000000 C
   0.4137750000000000    0.8257200000000000    0.3037150000000000 C
   0.4114550000000000    0.8134900000000000    0.0138750000000000 C
   0.3199900000000000    0.9238400000000000    0.1201750000000000 C
   0.3828500000000000    0.8567300000000000    0.0768800000000000 C
   0.3837900000000000    0.8618600000000000    0.1167350000000000 C
   0.4466000000000000    0.7892000000000000    0.0752950000000000 C
   0.4474650000000000    0.7952600000000000    0.1150850000000000 C
   0.4139900000000000    0.8196900000000000    0.0562250000000000 C
   0.4163050000000000    0.8301500000000001    0.1364950000000000 C
   0.4865850000000000    0.9764000000000000    0.1908500000000000 C