H4 O2
1.0
  20.6208562319002020    0.0000000000000000    1.1337514115989660
   7.2276696109302181   38.1186532873199013    7.2587123208136344
   0.0000000000000000    0.0000000000000000   35.9879999999999995
H O
4 2
direct
   0.4580913637993470    0.0880955430319451    0.6344247362670408 H
   0.5321525297374663    0.0926775904708008    0.6332819199795559 H
   0.4256908504832553    0.2999438122422613    0.4806653592467525 H
   0.5030850572213507    0.2899567792993101    0.4796360346943871 H
   0.5028200000000000    0.0779966666666667    0.6268100000000000 O
   0.4641100000000000    0.2960800000000000    0.4637550000000000 O
