H3 C8 S1 O7
1.0
  20.6208562319002020    0.0000000000000000    1.1337514115989660
   7.2276696109302181   38.1186532873199013    7.2587123208136344
   0.0000000000000000    0.0000000000000000   35.9879999999999995
H C S O
3 8 1 7
direct
   0.2100200000000000    0.2673533333333333    0.6528050000000000 H
   0.4175000000000000    0.2713466666666666    0.6475500000000000 H
   0.2766400000000000    0.3619566666666666    0.5996950000000000 H
   0.3151900000000000    0.2655966666666666    0.6525850000000000 C
   0.2500200000000000    0.2816333333333333    0.6442400000000000 C
   0.2357600000000000    0.3165233333333333    0.6251550000000000 C
   0.3528600000000000    0.3187233333333333    0.6222799999999999 C
   0.3666200000000000    0.2838933333333333    0.6413700000000000 C
   0.1656800000000000    0.3344133333333333    0.6166850000000000 C
   0.2873400000000000    0.3348733333333333    0.6143900000000000 C
   0.4075900000000000    0.3392033333333333    0.6110150000000000 C
   0.3345700000000000    0.2214933333333333    0.6785600000000001 S
   0.2722800000000000    0.2161333333333333    0.7000750000000000 O
   0.3529800000000000    0.1980466666666666    0.6508150000000000 O
   0.3885500000000000    0.2221066666666667    0.7037650000000000 O
   0.1206400000000000    0.3156200000000000    0.6218550000000000 O
   0.4660800000000000    0.3233466666666667    0.6218950000000000 O
   0.1531100000000000    0.3673733333333333    0.6048000000000000 O
   0.3948100000000000    0.3698400000000000    0.5922650000000000 O
