Cd36 H730 C850 S24 N188 O168
1.0
  20.6208562319002020    0.0000000000000000    1.1337514115989660
   7.2276696109302181   38.1186532873199013    7.2587123208136344
   0.0000000000000000    0.0000000000000000   35.9879999999999995
Cd H C S N O
36 730 850 24 188 168
direct
   0.9668000000000000    0.3040100000000000    0.3993850000000000 Cd
   0.0331800000000000    0.0293233333333333    0.1006150000000000 Cd
   0.5331700000000000    0.0293266666666667    0.1006000000000000 Cd
   0.2500000000000000    0.1666666666666667    0.2500000000000000 Cd
   0.7499900000000000    0.1666666666666667    0.2500000000000000 Cd
   0.4668100000000000    0.3040100000000000    0.3993850000000000 Cd
   0.9668000000000000    0.6373433333333334    0.3993850000000000 Cd
   0.0331800000000000    0.3626566666666666    0.1006150000000000 Cd
   0.5331700000000000    0.3626600000000000    0.1006000000000000 Cd
   0.2500000000000000    0.5000000000000000    0.2500000000000000 Cd
   0.7499900000000000    0.5000000000000000    0.2500000000000000 Cd
   0.4668100000000000    0.6373433333333334    0.3993850000000000 Cd
   0.9668000000000000    0.9706766666666666    0.3993850000000000 Cd
   0.0331800000000000    0.6959900000000000    0.1006150000000000 Cd
   0.5331700000000000    0.6959933333333332    0.1006000000000000 Cd
   0.2500000000000000    0.8333333333333333    0.2500000000000000 Cd
   0.7499900000000000    0.8333333333333333    0.2500000000000000 Cd
   0.4668100000000000    0.9706766666666666    0.3993850000000000 Cd
   0.9668000000000000    0.3040100000000000    0.8993850000000000 Cd
   0.0331800000000000    0.0293233333333333    0.6006150000000000 Cd
   0.5331700000000000    0.0293266666666667    0.6006000000000000 Cd
   0.2500000000000000    0.1666666666666667    0.7500000000000000 Cd
   0.7499900000000000    0.1666666666666667    0.7500000000000000 Cd
   0.4668100000000000    0.3040100000000000    0.8993850000000000 Cd
   0.9668000000000000    0.6373433333333334    0.8993850000000000 Cd
   0.0331800000000000    0.3626566666666666    0.6006150000000000 Cd
   0.5331700000000000    0.3626600000000000    0.6006000000000000 Cd
   0.2500000000000000    0.5000000000000000    0.7500000000000000 Cd
   0.7499900000000000    0.5000000000000000    0.7500000000000000 Cd
   0.4668100000000000    0.6373433333333334    0.8993850000000000 Cd
   0.9668000000000000    0.9706766666666666    0.8993850000000000 Cd
   0.0331800000000000    0.6959900000000000    0.6006150000000000 Cd
   0.5331700000000000    0.6959933333333332    0.6006000000000000 Cd
   0.2500000000000000    0.8333333333333333    0.7500000000000000 Cd
   0.7499900000000000    0.8333333333333333    0.7500000000000000 Cd
   0.4668100000000000    0.9706766666666666    0.8993850000000000 Cd
   0.2899700000000000    0.0659766666666667    0.3471950000000000 H
   0.7899600000000000    0.0659766666666667    0.3471950000000000 H
   0.2233400000000000    0.3047133333333333    0.4003050000000000 H
   0.7233300000000000    0.3047100000000000    0.4003050000000000 H
   0.0825000000000000    0.0619900000000000    0.3524400000000000 H
   0.5824900000000000    0.0619900000000000    0.3524450000000000 H
   0.1023300000000000    0.2524066666666667    0.3673350000000000 H
   0.6023200000000000    0.2524066666666667    0.3673350000000000 H
   0.0960500000000000    0.1929900000000000    0.3360000000000000 H
   0.5960400000000000    0.1929900000000000    0.3360050000000000 H
   0.4043500000000000    0.2390233333333333    0.3696950000000000 H
   0.9043400000000000    0.2390200000000000    0.3696950000000000 H
   0.4178100000000000    0.1921033333333333    0.3232950000000000 H
   0.9178100000000000    0.1921000000000000    0.3232900000000000 H
   0.4994800000000000    0.1723933333333333    0.3128050000000000 H
   0.9994700000000000    0.1723900000000000    0.3128050000000000 H
   0.0367700000000000    0.1578733333333333    0.4017150000000000 H
   0.5367600000000000    0.1578733333333333    0.4017200000000000 H
   0.0321500000000000    0.1046333333333333    0.4488000000000000 H
   0.5321399999999999    0.1046333333333333    0.4488000000000000 H
   0.3848600000000000    0.0790400000000000    0.3839100000000000 H
   0.8848500000000000    0.0790400000000000    0.3839000000000000 H
   0.3857100000000000    0.1341800000000000    0.3379800000000000 H
   0.8857000000000000    0.1341800000000000    0.3379500000000000 H
   0.4695100000000000    0.0324233333333333    0.4292000000000000 H
   0.9695000000000000    0.0324233333333333    0.4292000000000000 H
   0.4063900000000000    0.0525800000000000    0.4574750000000000 H
   0.9063800000000000    0.0525800000000000    0.4574700000000000 H
   0.0956300000000000    0.0352133333333333    0.4492200000000000 H
   0.5956200000000000    0.0352166666666667    0.4492250000000000 H
   0.1400100000000000    0.0249733333333333    0.0230200000000000 H
   0.6400000000000000    0.0249766666666667    0.0230250000000000 H
   0.4321000000000000    0.0508900000000000    0.0249600000000000 H
   0.9320900000000000    0.0508900000000000    0.0249600000000000 H
   0.2100200000000000    0.2673533333333333    0.1528050000000000 H
   0.7100100000000000    0.2673533333333333    0.1528050000000000 H
   0.2766400000000000    0.0286233333333333    0.0996950000000000 H
   0.7766400000000000    0.0286200000000000    0.0996950000000000 H
   0.4175000000000000    0.2713466666666666    0.1475500000000000 H
   0.9174900000000000    0.2713433333333333    0.1475600000000000 H
   0.3976600000000000    0.0809266666666667    0.1326700000000000 H
   0.8976499999999999    0.0809266666666667    0.1326650000000000 H
   0.4039400000000000    0.1403433333333333    0.1640000000000000 H
   0.9039300000000000    0.1403433333333333    0.1639950000000000 H
   0.0956400000000000    0.0943100000000000    0.1303050000000000 H
   0.5956300000000000    0.0943100000000000    0.1303100000000000 H
   0.0821800000000000    0.1412300000000000    0.1767100000000000 H
   0.5821700000000000    0.1412300000000000    0.1767100000000000 H
   0.0005200000000000    0.1609400000000000    0.1871950000000000 H
   0.5005100000000000    0.1609400000000000    0.1872000000000000 H
   0.4632300000000000    0.1754600000000000    0.0982850000000000 H
   0.9632100000000000    0.1754566666666666    0.0982850000000000 H
   0.4678400000000000    0.2287000000000000    0.0512050000000000 H
   0.9678300000000000    0.2286966666666667    0.0512000000000000 H
   0.1151300000000000    0.2542933333333333    0.1160900000000000 H
   0.6151200000000000    0.2542966666666666    0.1160950000000000 H
   0.1142800000000000    0.1991500000000000    0.1620200000000000 H
   0.6142700000000000    0.1991533333333333    0.1620250000000000 H
   0.0304800000000000    0.3009100000000000    0.0708000000000000 H
   0.5304700000000000    0.3009100000000000    0.0708050000000000 H
   0.0936000000000000    0.2807533333333333    0.0425300000000000 H
   0.5935900000000000    0.2807566666666667    0.0425300000000000 H
   0.4043600000000000    0.2981166666666666    0.0507800000000000 H
   0.9043500000000000    0.2981166666666666    0.0507800000000000 H
   0.8599700000000000    0.3083566666666666    0.4769800000000000 H
   0.0679000000000000    0.2824433333333333    0.4750400000000000 H
   0.4226500000000000    0.1688400000000000    0.2406000000000000 H
   0.9226400000000000    0.1688400000000000    0.2405950000000000 H
   0.0172600000000000    0.1114900000000000    0.2736350000000000 H
   0.5172500000000000    0.1114900000000000    0.2736350000000000 H
   0.3289700000000000    0.0828633333333333    0.2800650000000000 H
   0.8289600000000000    0.0828633333333333    0.2800650000000000 H
   0.0030500000000000    0.0533533333333333    0.3160250000000000 H
   0.5030400000000000    0.0533533333333333    0.3160250000000000 H
   0.4247700000000000    0.0422366666666667    0.3213100000000000 H
   0.9247600000000000    0.0422366666666667    0.3213100000000000 H
   0.0158900000000000    0.3168966666666667    0.3191350000000000 H
   0.5158800000000000    0.3168966666666667    0.3191350000000000 H
   0.4514900000000000    0.0612366666666667    0.2212900000000000 H
   0.9514800000000000    0.0612366666666667    0.2212900000000000 H
   0.3270600000000000    0.2347133333333333    0.2555800000000000 H
   0.8270500000000000    0.2347100000000000    0.2555800000000000 H
   0.2555400000000000    0.2395933333333333    0.3677000000000000 H
   0.7555400000000000    0.2395966666666667    0.3675000000000000 H
   0.2253500000000000    0.1802900000000000    0.3450000000000000 H
   0.7253400000000000    0.1802933333333333    0.3450000000000000 H
   0.3736600000000000    0.2765966666666667    0.3025750000000000 H
   0.8736600000000000    0.2765933333333333    0.3025700000000000 H
   0.3122900000000000    0.2876333333333333    0.3368000000000000 H
   0.8122900000000000    0.2876333333333333    0.3368000000000000 H
   0.1868000000000000    0.3036366666666667    0.3027350000000000 H
   0.6868000000000000    0.3036333333333333    0.3027350000000000 H
   0.3724900000000000    0.3182466666666667    0.2473550000000000 H
   0.8724800000000000    0.3182466666666667    0.2473500000000000 H
   0.0773400000000000    0.1644933333333333    0.2594000000000000 H
   0.5773300000000000    0.1644933333333333    0.2594050000000000 H
   0.4827400000000000    0.2218433333333333    0.2263500000000000 H
   0.9827300000000000    0.2218400000000000    0.2263650000000000 H
   0.1710300000000000    0.2504700000000000    0.2199000000000000 H
   0.6710199999999999    0.2504700000000000    0.2199400000000000 H
   0.4969500000000000    0.2799800000000000    0.1839500000000000 H
   0.9969400000000000    0.2799800000000000    0.1839750000000000 H
   0.0752300000000000    0.2910933333333333    0.1786900000000000 H
   0.5752200000000000    0.2910966666666667    0.1786950000000000 H
   0.4841100000000000    0.0164366666666667    0.1808650000000000 H
   0.9841000000000000    0.0164366666666667    0.1808650000000000 H
   0.0485100000000000    0.2720966666666667    0.2787100000000000 H
   0.5485000000000000    0.2720966666666667    0.2787100000000000 H
   0.1729400000000000    0.0986200000000000    0.2444150000000000 H
   0.6729200000000000    0.0986200000000000    0.2444200000000000 H
   0.2444600000000000    0.0937400000000000    0.1323000000000000 H
   0.7444400000000000    0.0937400000000000    0.1323050000000000 H
   0.2746500000000000    0.1530433333333333    0.1550000000000000 H
   0.7746300000000000    0.1530433333333333    0.1550000000000000 H
   0.1263300000000000    0.0567400000000000    0.1974250000000000 H
   0.6263200000000000    0.0567366666666667    0.1974300000000000 H
   0.1877100000000000    0.0457000000000000    0.1632000000000000 H
   0.6876900000000000    0.0457000000000000    0.1632000000000000 H
   0.3131900000000000    0.0297000000000000    0.1972650000000000 H
   0.8131800000000000    0.0297000000000000    0.1972650000000000 H
   0.1275000000000000    0.0150866666666667    0.2526450000000000 H
   0.6274999999999999    0.0150866666666667    0.2526500000000000 H
   0.2899700000000000    0.3993099999999999    0.3471950000000000 H
   0.7899600000000000    0.3993099999999999    0.3471950000000000 H
   0.2233400000000000    0.6380466666666667    0.4003050000000000 H
   0.7233300000000000    0.6380433333333333    0.4003050000000000 H
   0.0825000000000000    0.3953233333333333    0.3524400000000000 H
   0.5824900000000000    0.3953233333333333    0.3524450000000000 H
   0.1023300000000000    0.5857399999999999    0.3673350000000000 H
   0.6023200000000000    0.5857399999999999    0.3673350000000000 H
   0.0960500000000000    0.5263233333333333    0.3360000000000000 H
   0.5960400000000000    0.5263233333333333    0.3360050000000000 H
   0.4043500000000000    0.5723566666666666    0.3696950000000000 H
   0.9043400000000000    0.5723533333333333    0.3696950000000000 H
   0.4178100000000000    0.5254366666666667    0.3232950000000000 H
   0.9178100000000000    0.5254333333333333    0.3232900000000000 H
   0.4994800000000000    0.5057266666666667    0.3128050000000000 H
   0.9994700000000000    0.5057233333333333    0.3128050000000000 H
   0.0367700000000000    0.4912066666666666    0.4017150000000000 H
   0.5367600000000000    0.4912066666666666    0.4017200000000000 H
   0.0321500000000000    0.4379666666666666    0.4488000000000000 H
   0.5321399999999999    0.4379666666666666    0.4488000000000000 H
   0.3848600000000000    0.4123733333333333    0.3839100000000000 H
   0.8848500000000000    0.4123733333333333    0.3839000000000000 H
   0.3857100000000000    0.4675133333333333    0.3379800000000000 H
   0.8857000000000000    0.4675133333333333    0.3379500000000000 H
   0.4695100000000000    0.3657566666666666    0.4292000000000000 H
   0.9695000000000000    0.3657566666666666    0.4292000000000000 H
   0.4063900000000000    0.3859133333333333    0.4574750000000000 H
   0.9063800000000000    0.3859133333333333    0.4574700000000000 H
   0.0956300000000000    0.3685466666666666    0.4492200000000000 H
   0.5956200000000000    0.3685500000000000    0.4492250000000000 H
   0.1400100000000000    0.3583066666666667    0.0230200000000000 H
   0.6400000000000000    0.3583100000000000    0.0230250000000000 H
   0.4321000000000000    0.3842233333333333    0.0249600000000000 H
   0.9320900000000000    0.3842233333333333    0.0249600000000000 H
   0.2100200000000000    0.6006866666666666    0.1528050000000000 H
   0.7100100000000000    0.6006866666666666    0.1528050000000000 H
   0.2766400000000000    0.3619566666666666    0.0996950000000000 H
   0.7766400000000000    0.3619533333333333    0.0996950000000000 H
   0.4175000000000000    0.6046799999999999    0.1475500000000000 H
   0.9174900000000000    0.6046766666666666    0.1475600000000000 H
   0.3976600000000000    0.4142600000000000    0.1326700000000000 H
   0.8976499999999999    0.4142600000000000    0.1326650000000000 H
   0.4039400000000000    0.4736766666666666    0.1640000000000000 H
   0.9039300000000000    0.4736766666666666    0.1639950000000000 H
   0.0956400000000000    0.4276433333333333    0.1303050000000000 H
   0.5956300000000000    0.4276433333333333    0.1303100000000000 H
   0.0821800000000000    0.4745633333333333    0.1767100000000000 H
   0.5821700000000000    0.4745633333333333    0.1767100000000000 H
   0.0005200000000000    0.4942733333333333    0.1871950000000000 H
   0.5005100000000000    0.4942733333333333    0.1872000000000000 H
   0.4632300000000000    0.5087933333333333    0.0982850000000000 H
   0.9632100000000000    0.5087900000000000    0.0982850000000000 H
   0.4678400000000000    0.5620333333333334    0.0512050000000000 H
   0.9678300000000000    0.5620300000000000    0.0512000000000000 H
   0.1151300000000000    0.5876266666666666    0.1160900000000000 H
   0.6151200000000000    0.5876299999999999    0.1160950000000000 H
   0.1142800000000000    0.5324833333333333    0.1620200000000000 H
   0.6142700000000000    0.5324866666666667    0.1620250000000000 H
   0.0304800000000000    0.6342433333333333    0.0708000000000000 H
   0.5304700000000000    0.6342433333333333    0.0708050000000000 H
   0.0936000000000000    0.6140866666666667    0.0425300000000000 H
   0.5935900000000000    0.6140900000000000    0.0425300000000000 H
   0.4043600000000000    0.6314500000000000    0.0507800000000000 H
   0.9043500000000000    0.6314500000000000    0.0507800000000000 H
   0.3599800000000000    0.6416933333333332    0.4769800000000000 H
   0.8599700000000000    0.6416899999999999    0.4769800000000000 H
   0.0679000000000000    0.6157766666666666    0.4750400000000000 H
   0.5678800000000001    0.6157766666666666    0.4750450000000000 H
   0.4226500000000000    0.5021733333333334    0.2406000000000000 H
   0.9226400000000000    0.5021733333333334    0.2405950000000000 H
   0.0172600000000000    0.4448233333333333    0.2736350000000000 H
   0.5172500000000000    0.4448233333333333    0.2736350000000000 H
   0.3289700000000000    0.4161966666666667    0.2800650000000000 H
   0.8289600000000000    0.4161966666666667    0.2800650000000000 H
   0.0030500000000000    0.3866866666666666    0.3160250000000000 H
   0.5030400000000000    0.3866866666666666    0.3160250000000000 H
   0.4247700000000000    0.3755700000000000    0.3213100000000000 H
   0.9247600000000000    0.3755700000000000    0.3213100000000000 H
   0.0158900000000000    0.6502300000000000    0.3191350000000000 H
   0.5158800000000000    0.6502300000000000    0.3191350000000000 H
   0.4514900000000000    0.3945700000000000    0.2212900000000000 H
   0.9514800000000000    0.3945700000000000    0.2212900000000000 H
   0.3270600000000000    0.5680466666666666    0.2555800000000000 H
   0.8270500000000000    0.5680433333333333    0.2555800000000000 H
   0.2555400000000000    0.5729266666666666    0.3677000000000000 H
   0.7555400000000000    0.5729299999999999    0.3675000000000000 H
   0.2253500000000000    0.5136233333333333    0.3450000000000000 H
   0.7253400000000000    0.5136266666666667    0.3450000000000000 H
   0.3736600000000000    0.6099300000000000    0.3025750000000000 H
   0.8736600000000000    0.6099266666666666    0.3025700000000000 H
   0.3122900000000000    0.6209666666666667    0.3368000000000000 H
   0.8122900000000000    0.6209666666666667    0.3368000000000000 H
   0.1868000000000000    0.6369700000000000    0.3027350000000000 H
   0.6868000000000000    0.6369666666666667    0.3027350000000000 H
   0.3724900000000000    0.6515800000000000    0.2473550000000000 H
   0.8724800000000000    0.6515800000000000    0.2473500000000000 H
   0.0773400000000000    0.4978266666666666    0.2594000000000000 H
   0.5773300000000000    0.4978266666666666    0.2594050000000000 H
   0.4827400000000000    0.5551766666666667    0.2263500000000000 H
   0.9827300000000000    0.5551733333333333    0.2263650000000000 H
   0.1710300000000000    0.5838033333333332    0.2199000000000000 H
   0.6710199999999999    0.5838033333333332    0.2199400000000000 H
   0.4969500000000000    0.6133133333333334    0.1839500000000000 H
   0.9969400000000000    0.6133133333333334    0.1839750000000000 H
   0.0752300000000000    0.6244266666666667    0.1786900000000000 H
   0.5752200000000000    0.6244300000000000    0.1786950000000000 H
   0.4841100000000000    0.3497700000000000    0.1808650000000000 H
   0.9841000000000000    0.3497700000000000    0.1808650000000000 H
   0.0485100000000000    0.6054299999999999    0.2787100000000000 H
   0.5485000000000000    0.6054299999999999    0.2787100000000000 H
   0.1729400000000000    0.4319533333333333    0.2444150000000000 H
   0.6729200000000000    0.4319533333333333    0.2444200000000000 H
   0.2444600000000000    0.4270733333333333    0.1323000000000000 H
   0.7444400000000000    0.4270733333333333    0.1323050000000000 H
   0.2746500000000000    0.4863766666666666    0.1550000000000000 H
   0.7746300000000000    0.4863766666666666    0.1550000000000000 H
   0.1263300000000000    0.3900733333333333    0.1974250000000000 H
   0.6263200000000000    0.3900700000000000    0.1974300000000000 H
   0.1877100000000000    0.3790333333333333    0.1632000000000000 H
   0.6876900000000000    0.3790333333333333    0.1632000000000000 H
   0.3131900000000000    0.3630333333333333    0.1972650000000000 H
   0.8131800000000000    0.3630333333333333    0.1972650000000000 H
   0.1275000000000000    0.3484200000000000    0.2526450000000000 H
   0.6274999999999999    0.3484200000000000    0.2526500000000000 H
   0.2899700000000000    0.7326433333333333    0.3471950000000000 H
   0.7899600000000000    0.7326433333333333    0.3471950000000000 H
   0.2233400000000000    0.9713799999999999    0.4003050000000000 H
   0.7233300000000000    0.9713766666666666    0.4003050000000000 H
   0.0825000000000000    0.7286566666666666    0.3524400000000000 H
   0.5824900000000000    0.7286566666666666    0.3524450000000000 H
   0.1023300000000000    0.9190733333333333    0.3673350000000000 H
   0.6023200000000000    0.9190733333333333    0.3673350000000000 H
   0.0960500000000000    0.8596566666666666    0.3360000000000000 H
   0.5960400000000000    0.8596566666666666    0.3360050000000000 H
   0.4043500000000000    0.9056899999999999    0.3696950000000000 H
   0.9043400000000000    0.9056866666666666    0.3696950000000000 H
   0.4178100000000000    0.8587699999999999    0.3232950000000000 H
   0.9178100000000000    0.8587666666666667    0.3232900000000000 H
   0.4994800000000000    0.8390599999999999    0.3128050000000000 H
   0.9994700000000000    0.8390566666666666    0.3128050000000000 H
   0.0367700000000000    0.8245399999999999    0.4017150000000000 H
   0.5367600000000000    0.8245399999999999    0.4017200000000000 H
   0.0321500000000000    0.7713000000000000    0.4488000000000000 H
   0.5321399999999999    0.7713000000000000    0.4488000000000000 H
   0.3848600000000000    0.7457066666666666    0.3839100000000000 H
   0.8848500000000000    0.7457066666666666    0.3839000000000000 H
   0.3857100000000000    0.8008466666666666    0.3379800000000000 H
   0.8857000000000000    0.8008466666666666    0.3379500000000000 H
   0.4695100000000000    0.6990900000000000    0.4292000000000000 H
   0.9695000000000000    0.6990900000000000    0.4292000000000000 H
   0.4063900000000000    0.7192466666666666    0.4574750000000000 H
   0.9063800000000000    0.7192466666666666    0.4574700000000000 H
   0.0956300000000000    0.7018799999999999    0.4492200000000000 H
   0.5956200000000000    0.7018833333333333    0.4492250000000000 H
   0.1400100000000000    0.6916399999999999    0.0230200000000000 H
   0.6400000000000000    0.6916433333333333    0.0230250000000000 H
   0.4321000000000000    0.7175566666666666    0.0249600000000000 H
   0.9320900000000000    0.7175566666666666    0.0249600000000000 H
   0.2100200000000000    0.9340200000000000    0.1528050000000000 H
   0.7100100000000000    0.9340200000000000    0.1528050000000000 H
   0.2766400000000000    0.6952900000000000    0.0996950000000000 H
   0.7766400000000000    0.6952866666666666    0.0996950000000000 H
   0.4175000000000000    0.9380133333333333    0.1475500000000000 H
   0.9174900000000000    0.9380100000000000    0.1475600000000000 H
   0.3976600000000000    0.7475933333333333    0.1326700000000000 H
   0.8976499999999999    0.7475933333333333    0.1326650000000000 H
   0.4039400000000000    0.8070100000000000    0.1640000000000000 H
   0.9039300000000000    0.8070100000000000    0.1639950000000000 H
   0.0956400000000000    0.7609766666666666    0.1303050000000000 H
   0.5956300000000000    0.7609766666666666    0.1303100000000000 H
   0.0821800000000000    0.8078966666666666    0.1767100000000000 H
   0.5821700000000000    0.8078966666666666    0.1767100000000000 H
   0.0005200000000000    0.8276066666666666    0.1871950000000000 H
   0.5005100000000000    0.8276066666666666    0.1872000000000000 H
   0.4632300000000000    0.8421266666666666    0.0982850000000000 H
   0.9632100000000000    0.8421233333333333    0.0982850000000000 H
   0.4678400000000000    0.8953666666666666    0.0512050000000000 H
   0.9678300000000000    0.8953633333333333    0.0512000000000000 H
   0.1151300000000000    0.9209600000000000    0.1160900000000000 H
   0.6151200000000000    0.9209633333333332    0.1160950000000000 H
   0.1142800000000000    0.8658166666666667    0.1620200000000000 H
   0.6142700000000000    0.8658199999999999    0.1620250000000000 H
   0.0304800000000000    0.9675766666666666    0.0708000000000000 H
   0.5304700000000000    0.9675766666666666    0.0708050000000000 H
   0.0936000000000000    0.9474199999999999    0.0425300000000000 H
   0.5935900000000000    0.9474233333333333    0.0425300000000000 H
   0.4043600000000000    0.9647833333333333    0.0507800000000000 H
   0.9043500000000000    0.9647833333333333    0.0507800000000000 H
   0.3599800000000000    0.9750266666666666    0.4769800000000000 H
   0.8599700000000000    0.9750233333333332    0.4769800000000000 H
   0.0679000000000000    0.9491099999999999    0.4750400000000000 H
   0.5678800000000001    0.9491099999999999    0.4750450000000000 H
   0.4226500000000000    0.8355066666666666    0.2406000000000000 H
   0.9226400000000000    0.8355066666666666    0.2405950000000000 H
   0.0172600000000000    0.7781566666666666    0.2736350000000000 H
   0.5172500000000000    0.7781566666666666    0.2736350000000000 H
   0.3289700000000000    0.7495299999999999    0.2800650000000000 H
   0.8289600000000000    0.7495299999999999    0.2800650000000000 H
   0.0030500000000000    0.7200200000000000    0.3160250000000000 H
   0.5030400000000000    0.7200200000000000    0.3160250000000000 H
   0.4247700000000000    0.7089033333333333    0.3213100000000000 H
   0.9247600000000000    0.7089033333333333    0.3213100000000000 H
   0.0158900000000000    0.9835633333333333    0.3191350000000000 H
   0.5158800000000000    0.9835633333333333    0.3191350000000000 H
   0.4514900000000000    0.7279033333333333    0.2212900000000000 H
   0.9514800000000000    0.7279033333333333    0.2212900000000000 H
   0.3270600000000000    0.9013800000000000    0.2555800000000000 H
   0.8270500000000000    0.9013766666666666    0.2555800000000000 H
   0.2555400000000000    0.9062600000000000    0.3677000000000000 H
   0.7555400000000000    0.9062633333333333    0.3675000000000000 H
   0.2253500000000000    0.8469566666666666    0.3450000000000000 H
   0.7253400000000000    0.8469599999999999    0.3450000000000000 H
   0.3736600000000000    0.9432633333333333    0.3025750000000000 H
   0.8736600000000000    0.9432600000000000    0.3025700000000000 H
   0.3122900000000000    0.9542999999999999    0.3368000000000000 H
   0.8122900000000000    0.9542999999999999    0.3368000000000000 H
   0.1868000000000000    0.9703033333333333    0.3027350000000000 H
   0.6868000000000000    0.9702999999999999    0.3027350000000000 H
   0.3724900000000000    0.9849133333333333    0.2473550000000000 H
   0.8724800000000000    0.9849133333333333    0.2473500000000000 H
   0.0773400000000000    0.8311599999999999    0.2594000000000000 H
   0.5773300000000000    0.8311599999999999    0.2594050000000000 H
   0.4827400000000000    0.8885099999999999    0.2263500000000000 H
   0.9827300000000000    0.8885066666666666    0.2263650000000000 H
   0.1710300000000000    0.9171366666666666    0.2199000000000000 H
   0.6710199999999999    0.9171366666666666    0.2199400000000000 H
   0.4969500000000000    0.9466466666666666    0.1839500000000000 H
   0.9969400000000000    0.9466466666666666    0.1839750000000000 H
   0.0752300000000000    0.9577599999999999    0.1786900000000000 H
   0.5752200000000000    0.9577633333333333    0.1786950000000000 H
   0.4841100000000000    0.6831033333333333    0.1808650000000000 H
   0.9841000000000000    0.6831033333333333    0.1808650000000000 H
   0.0485100000000000    0.9387633333333333    0.2787100000000000 H
   0.5485000000000000    0.9387633333333333    0.2787100000000000 H
   0.1729400000000000    0.7652866666666667    0.2444150000000000 H
   0.6729200000000000    0.7652866666666667    0.2444200000000000 H
   0.2444600000000000    0.7604066666666667    0.1323000000000000 H
   0.7444400000000000    0.7604066666666667    0.1323050000000000 H
   0.2746500000000000    0.8197099999999999    0.1550000000000000 H
   0.7746300000000000    0.8197099999999999    0.1550000000000000 H
   0.1263300000000000    0.7234066666666666    0.1974250000000000 H
   0.6263200000000000    0.7234033333333333    0.1974300000000000 H
   0.1877100000000000    0.7123666666666666    0.1632000000000000 H
   0.6876900000000000    0.7123666666666666    0.1632000000000000 H
   0.3131900000000000    0.6963666666666666    0.1972650000000000 H
   0.8131800000000000    0.6963666666666666    0.1972650000000000 H
   0.1275000000000000    0.6817533333333333    0.2526450000000000 H
   0.6274999999999999    0.6817533333333333    0.2526500000000000 H
   0.2899700000000000    0.0659766666666667    0.8471949999999999 H
   0.7899600000000000    0.0659766666666667    0.8471949999999999 H
   0.2233400000000000    0.3047133333333333    0.9003050000000000 H
   0.7233300000000000    0.3047100000000000    0.9003050000000000 H
   0.0825000000000000    0.0619900000000000    0.8524400000000000 H
   0.5824900000000000    0.0619900000000000    0.8524450000000000 H
   0.1023300000000000    0.2524066666666667    0.8673350000000000 H
   0.6023200000000000    0.2524066666666667    0.8673350000000000 H
   0.0960500000000000    0.1929900000000000    0.8360000000000001 H
   0.5960400000000000    0.1929900000000000    0.8360050000000000 H
   0.4043500000000000    0.2390233333333333    0.8696950000000000 H
   0.9043400000000000    0.2390200000000000    0.8696950000000000 H
   0.4178100000000000    0.1921033333333333    0.8232950000000000 H
   0.9178100000000000    0.1921000000000000    0.8232900000000001 H
   0.4994800000000000    0.1723933333333333    0.8128050000000000 H
   0.9994700000000000    0.1723900000000000    0.8128050000000000 H
   0.0367700000000000    0.1578733333333333    0.9017150000000000 H
   0.5367600000000000    0.1578733333333333    0.9017200000000001 H
   0.0321500000000000    0.1046333333333333    0.9488000000000000 H
   0.5321399999999999    0.1046333333333333    0.9488000000000000 H
   0.3848600000000000    0.0790400000000000    0.8839100000000000 H
   0.8848500000000000    0.0790400000000000    0.8839000000000000 H
   0.3857100000000000    0.1341800000000000    0.8379799999999999 H
   0.8857000000000000    0.1341800000000000    0.8379500000000000 H
   0.4695100000000000    0.0324233333333333    0.9292000000000000 H
   0.9695000000000000    0.0324233333333333    0.9292000000000000 H
   0.4063900000000000    0.0525800000000000    0.9574750000000001 H
   0.9063800000000000    0.0525800000000000    0.9574700000000000 H
   0.0956300000000000    0.0352133333333333    0.9492200000000000 H
   0.5956200000000000    0.0352166666666667    0.9492250000000000 H