H6 O4
1.0
  27.6700469274283698    0.0000000000000000    7.2100859241698290
  -6.9182394439017880   15.8408073545099075    7.6480317307230363
   0.0000000000000000    0.0000000000000000   37.8019999999999996
H O
6 4
direct
   0.2135004909146245    0.4495708357082289    0.4367545406861880 H
   0.2687448588512693    0.6127002071406611    0.4081092898144623 H
   0.1172912013797301    0.6133137560246458    0.2005885084567926 H
   0.0822428990503934    0.4915382524119787    0.2909382317097562 H
   0.1648518375237694    0.5289252321761300    0.2481257727619197 H
   0.2464106240976550    0.5118751039358123    0.3177230464893062 H
   0.2163700000000000    0.4657100000000000    0.4576800000000000 O
   0.2626800000000000    0.6033800000000000    0.4363650000000000 O
   0.0813550000000000    0.6083000000000000    0.2115450000000000 O
   0.0585200000000000    0.5140900000000000    0.2805450000000000 O
