H10 C12 N2
1.0
  13.7899990737513445    0.0000000000000000   -0.0050542988676890
   0.0228075294126491   14.3669514277858230   -0.0295886506121277
   0.0000000000000000    0.0000000000000000   21.4559999999999995
H C N
10 12 2
direct
   0.8602700000000000    0.4708400000000000    0.1365700000000000 H
   0.6802900000000000    0.4729400000000000    0.1383700000000000 H
   0.6858400000000000    0.3240400000000000    0.9631200000000000 H
   0.8666800000000000    0.3277500000000000    0.9691900000000000 H
   0.5361800000000000    0.3553500000000000    0.0038600000000000 H
   0.5192500000000000    0.4745900000000000    0.1233900000000000 H
   0.2117000000000000    0.3489700000000000    0.9780000000000000 H
   0.3912100000000000    0.3569600000000000    0.9840800000000000 H
   0.3565200000000000    0.4958900000000000    0.1622500000000000 H
   0.1774600000000000    0.4794000000000000    0.1483300000000000 H
   0.8184800000000000    0.4396200000000000    0.0988500000000000 C
   0.7179400000000000    0.4402000000000000    0.0994200000000000 C
   0.6664600000000001    0.3989600000000000    0.0498000000000000 C
   0.7221700000000000    0.3577300000000000    0.0022400000000000 C
   0.8226000000000000    0.3601000000000000    0.0052600000000000 C
   0.5613700000000000    0.3951300000000000    0.0441400000000000 C
   0.4955800000000000    0.4344400000000000    0.0828300000000000 C
   0.2474000000000000    0.3802200000000000    0.0182500000000000 C
   0.3476100000000000    0.3851000000000000    0.0221000000000000 C
   0.3908800000000000    0.4268000000000000    0.0747700000000000 C
   0.3276600000000000    0.4618400000000000    0.1207400000000000 C
   0.2280100000000000    0.4531900000000000    0.1134500000000000 C
   0.8712400000000000    0.4009800000000000    0.0523500000000000 N
   0.1872400000000000    0.4130200000000000    0.0629400000000000 N
