H4 C6 O4
1.0
  13.7899990737513445    0.0000000000000000   -0.0050542988676890
   0.0228075294126491   14.3669514277858230   -0.0295886506121277
   0.0000000000000000    0.0000000000000000   21.4559999999999995
H C O
4 6 4
direct
   0.5297900000000000    0.8810000000000000    0.6814900000000000 H
   0.4536800000000000    0.7141400000000000    0.7568000000000000 H
   0.5209200000000000    0.9151400000000000    0.7944300000000000 H
   0.4393900000000000    0.7538200000000000    0.8729600000000000 H
   0.4919900000000000    0.7509600000000000    0.6341800000000000 C
   0.5031500000000000    0.8107100000000000    0.6905400000000000 C
   0.4808700000000000    0.7847300000000000    0.7493400000000000 C
   0.4916700000000000    0.8453600000000000    0.8024500000000000 C
   0.4690300000000000    0.8220900000000000    0.8617500000000000 C
   0.4836100000000000    0.8864000000000000    0.9152100000000000 C
   0.4745200000000000    0.6635700000000000    0.6425000000000000 O
   0.5001200000000000    0.7890800000000000    0.5815399999999999 O
   0.5244200000000000   -0.0357800000000001    0.9049100000000000 O
   0.4544800000000000    0.8561299999999999   -0.0319100000000000 O
