Zn8 H104 C132 N14 O34
1.0
  13.7899990737513445    0.0000000000000000   -0.0050542988676890
   0.0228075294126491   14.3669514277858230   -0.0295886506121277
   0.0000000000000000    0.0000000000000000   21.4559999999999995
Zn H C N O
8 104 132 14 34
direct
   0.4707600000000000    0.5978400000000000    0.5575300000000000 Zn
   0.4708500000000000    0.9022900000000000    0.0584300000000000 Zn
   0.5292400000000000    0.4021800000000000    0.4424500000000000 Zn
   0.5291600000000000    0.0977200000000000    0.9415600000000000 Zn
   0.9707700000000000    0.9022100000000000    0.4424600000000000 Zn
   0.9708300000000000    0.5977800000000000    0.9415500000000000 Zn
   0.0292400000000000    0.0978100000000000    0.5575200000000000 Zn
   0.0291700000000000    0.4022300000000000    0.0584300000000000 Zn
   0.2307911640230790    0.3892753494023106    0.0305879135606482 H
   0.6434800000000001    0.5041300000000000    0.8377300000000000 H
   0.6087900000000001    0.6430600000000000    0.0159000000000000 H
   0.7883100000000000    0.6510500000000000    0.0218900000000000 H
   0.8225400000000000    0.5206200000000000    0.8516000000000000 H
   0.4638200000000000    0.6446700000000000    0.9961300000000000 H
   0.4807500000000000    0.5254300000000000    0.8765900000000000 H
   0.3141600000000000    0.6759800000000000    0.0368700000000000 H
   0.3197200000000000    0.5270800000000000    0.8616100000000000 H
   0.1397400000000000    0.5291800000000000    0.8634100000000000 H
   0.1333200000000000    0.6722600000000000    0.0307900000000000 H
   0.6432900000000000    0.9962100000000000    0.3382500000000000 H
   0.6086100000000000    0.8573499999999999    0.5160100000000000 H
   0.7880900000000000    0.8494699999999999    0.5222200000000000 H
   0.8223900000000000    0.9800000000000000    0.3524300000000000 H
   0.4641100000000000    0.8546300000000000    0.4957000000000000 H
   0.4803900000000000    0.9751200000000000    0.3770800000000000 H
   0.3148800000000000    0.8240499999999999    0.5369699999999999 H
   0.3190900000000000    0.9714400000000000    0.3615700000000000 H
   0.1391000000000000    0.9694800000000000    0.3637800000000000 H
   0.1340100000000000    0.8279200000000000    0.5313600000000001 H
   0.3567200000000000    0.0038200000000000    0.6617400000000000 H
   0.3913900000000000    0.1426700000000000    0.4839800000000000 H
   0.2119100000000000    0.1505500000000000    0.4777600000000000 H
   0.1776200000000000    0.0200300000000000    0.6475600000000000 H
   0.5358900000000000    0.1453800000000000    0.5042400000000000 H
   0.5196200000000000    0.0249000000000000    0.6229100000000000 H
   0.6851200000000000    0.1759600000000000    0.4630200000000000 H
   0.6809200000000000    0.0285800000000000    0.6384200000000000 H
   0.8609100000000000    0.0305400000000000    0.6362100000000001 H
   0.8659900000000000    0.1720900000000000    0.4686200000000000 H
   0.5297900000000000    0.8810000000000000    0.6814900000000000 H
   0.4536800000000000    0.7141400000000000    0.7568000000000000 H
   0.4393900000000000    0.7538200000000000    0.8729600000000000 H
   0.5209200000000000    0.9151400000000000    0.7944300000000000 H
   0.5292200000000000    0.6197400000000000    0.1806200000000000 H
   0.4546000000000000    0.7859900000000000    0.2578100000000000 H
   0.4403800000000000    0.7459100000000000    0.3729900000000000 H
   0.5208100000000000    0.5840100000000000    0.2938100000000000 H
   0.4702300000000000    0.1190200000000000    0.3184900000000000 H
   0.5463200000000000    0.2858800000000000    0.2431000000000000 H
   0.5606100000000001    0.2462000000000000    0.1270200000000000 H
   0.4791000000000000    0.0848700000000000    0.2055600000000000 H
   0.4707800000000000    0.3802800000000000    0.8193000000000000 H
   0.5454100000000000    0.2140300000000000    0.7421700000000000 H
   0.5596300000000000    0.2541100000000000    0.6269900000000000 H
   0.4791900000000000    0.4160100000000000    0.7061700000000000 H
   0.8330738995826771    0.4289318218370993    0.0859876737946458 H
   0.1433800000000000    0.9966300000000000    0.1620900000000000 H
   0.1088500000000000    0.8569400000000000    0.9842000000000000 H
   0.2883900000000000    0.8489100000000001    0.9781900000000000 H
   0.3224800000000000    0.9800800000000000    0.1481600000000000 H
   0.9639799999999999    0.8553400000000000    0.0040100000000000 H
   0.9806500000000000    0.9750500000000000    0.1233400000000000 H
   0.8144200000000000    0.8239300000000001    0.9632800000000000 H
   0.8195900000000000    0.9730600000000000    0.1384400000000000 H
   0.6396100000000000    0.9708400000000000    0.1366500000000000 H
   0.6335700000000000    0.8275900000000000    0.9693300000000000 H
   0.8566300000000000    0.0033900000000000    0.8378900000000000 H
   0.8911500000000000    0.1430800000000000    0.0157900000000000 H
   0.7116100000000000    0.1511100000000000    0.0217900000000000 H
   0.6775300000000000    0.0199300000000000    0.8518200000000000 H
   0.0360200000000000    0.1446800000000000    0.9959700000000000 H
   0.0193600000000000    0.0249600000000000    0.8766500000000000 H
   0.1855800000000000    0.1760800000000000    0.0367100000000000 H
   0.1804200000000000    0.0269500000000000    0.8615400000000000 H
   0.3603900000000000    0.0291700000000000    0.8633400000000000 H
   0.3664400000000000    0.1724300000000000    0.0306500000000000 H
   0.8562700000000000    0.4960100000000000    0.3382100000000000 H
   0.8916400000000000    0.3571700000000000    0.5159800000000000 H
   0.7121900000000000    0.3493300000000000    0.5222000000000000 H
   0.6772400000000000    0.4798500000000000    0.3524200000000000 H
   0.0192600000000000    0.4748900000000000    0.3770100000000000 H
   0.0361200000000000    0.3546100000000000    0.4957600000000000 H
   0.1855300000000000    0.3239100000000000    0.5369000000000000 H
   0.1805700000000000    0.4716600000000000    0.3616400000000000 H
   0.3605600000000000    0.4698100000000000    0.3638700000000000 H
   0.3663600000000000    0.3278200000000000    0.5312900000000000 H
   0.1437300000000000    0.5040200000000000    0.6617800000000000 H
   0.1083700000000000    0.6428500000000000    0.4840000000000000 H
   0.3227600000000000    0.5201800000000000    0.6475700000000000 H
   0.2878100000000000    0.6506800000000000    0.4777700000000000 H
   0.9638800000000000    0.6454000000000000    0.5042300000000000 H
   0.9807399999999999    0.5251300000000000    0.6229800000000000 H
   0.8144800000000000    0.6761100000000000    0.4630800000000000 H
   0.8194300000000000    0.5283500000000000    0.6383500000000000 H
   0.6394400000000000    0.5302000000000000    0.6361000000000000 H
   0.6336400000000000    0.6722000000000000    0.4680000000000000 H
   0.0000000000000000    0.6187900000000000    0.3185700000000000 H
   0.9538900000000000    0.7860800000000000    0.2431800000000000 H
   0.0000000000000000    0.5847200000000000    0.2056200000000000 H
   0.9395900000000000    0.7464499999999999    0.1270000000000000 H
   0.0000000000000000    0.8803400000000000    0.8194100000000000 H
   0.9544300000000000    0.7144200000000001    0.7422600000000000 H
   0.0000000000000000    0.9160500000000000    0.7062200000000000 H
   0.9403200000000000    0.7544600000000000    0.6270600000000000 H
   0.0604100000000000    0.2535700000000000    0.8729900000000000 H
   0.9793400000000000    0.4153000000000000    0.7943700000000000 H
   0.9705900000000000    0.3812300000000000    0.6814200000000000 H
   0.0461100000000000    0.2139400000000000    0.7568000000000000 H
   0.9705100000000000    0.1196800000000000    0.1805800000000000 H
   0.0455700000000000    0.2856000000000000    0.2577300000000000 H
   0.0596800000000000    0.2455600000000000    0.3729200000000000 H
   0.9789900000000000    0.0839600000000000    0.2937600000000000 H
   0.6723400000000000    0.5381800000000000    0.8792500000000000 C
   0.6523900000000000    0.6149200000000000    0.9778200000000000 C
   0.7526100000000000    0.6197900000000000    0.9817300000000000 C
   0.7719900000000000    0.5468300000000000    0.8865300000000000 C
   0.6091299999999999    0.5732200000000000    0.9252000000000000 C
   0.4386300000000000    0.6048900000000000    0.9558400000000000 C
   0.5044300000000000    0.5655800000000000    0.9171500000000000 C
   0.2778300000000000    0.6422800000000000    0.9977000000000000 C
   0.2820600000000000    0.5598200000000000    0.9005700000000000 C
   0.1815200000000000    0.5603900000000001    0.9011300000000000 C
   0.1774000000000000    0.6399200000000000    0.9947200000000000 C
   0.3335500000000000    0.6010500000000000    0.9501800000000000 C
   0.6721600000000000    0.9621600000000000    0.3797000000000000 C
   0.6522100000000000    0.8854100000000000    0.4780300000000000 C
   0.7524300000000000    0.8806700000000000    0.4820900000000000 C
   0.7718300000000000    0.9536600000000000    0.3871300000000000 C
   0.6089400000000000    0.9270200000000000    0.4254700000000000 C
   0.4386600000000000    0.8946600000000000    0.4557200000000000 C
   0.5042200000000000    0.9345200000000000    0.4173200000000000 C
   0.2782300000000000    0.8574500000000000    0.4979200000000000 C
   0.2817000000000000    0.9391300000000000    0.4006600000000000 C
   0.1811800000000000    0.9386300000000000    0.4014600000000000 C
   0.1777800000000000    0.8599100000000000    0.4951500000000000 C
   0.3335600000000000    0.8983500000000000    0.4502000000000000 C
   0.3278400000000000    0.0378700000000000    0.6202900000000000 C
   0.3477900000000000    0.1146100000000000    0.5219000000000000 C
   0.2475800000000000    0.1193400000000000    0.5178900000000000 C
   0.2281800000000000    0.0463600000000000    0.6128600000000000 C
   0.3910600000000000    0.0730000000000000    0.5745200000000000 C
   0.5613400000000000    0.1053600000000000    0.5442600000000000 C
   0.4957900000000000    0.0655000000000000    0.5826000000000000 C
   0.7217700000000000    0.1425600000000000    0.5020600000000000 C
   0.7183000000000000    0.0608900000000000    0.5993300000000000 C
   0.8188299999999999    0.0613900000000000    0.5985300000000000 C
   0.8222200000000000    0.1401000000000000    0.5048300000000000 C
   0.6664500000000000    0.1016700000000000    0.5497600000000000 C
   0.4919900000000000    0.7509600000000000    0.6341800000000000 C
   0.4836100000000000    0.8864000000000000    0.9152100000000000 C
   0.5031500000000000    0.8107100000000000    0.6905400000000000 C
   0.4808700000000000    0.7847300000000000    0.7493400000000000 C
   0.4690300000000000    0.8220900000000000    0.8617500000000000 C
   0.4916700000000000    0.8453600000000000    0.8024500000000000 C
   0.4919200000000000    0.7509900000000000    0.1349000000000000 C
   0.4836900000000000    0.6132900000000000    0.4151400000000000 C
   0.5030500000000000    0.6900700000000000    0.1905300000000000 C
   0.4813100000000000    0.7152700000000000    0.2496400000000000 C
   0.4696100000000000    0.6773500000000000    0.3616800000000000 C
   0.4920100000000000    0.6539900000000000    0.3022800000000000 C
   0.5080200000000000    0.2490600000000000    0.3658100000000000 C
   0.5164000000000000    0.1136200000000000    0.0847700000000000 C
   0.4968600000000000    0.1893100000000000    0.3094000000000000 C
   0.5191400000000000    0.2152900000000000    0.2506400000000000 C
   0.5309800000000000    0.1779200000000000    0.1382300000000000 C
   0.5083299999999999    0.1546600000000000    0.1975300000000000 C
   0.5080900000000000    0.2490300000000000    0.8650900000000000 C
   0.5163200000000000    0.3867200000000000    0.5848500000000000 C
   0.4969500000000000    0.3099500000000000    0.8094500000000000 C
   0.5187000000000000    0.2847500000000000    0.7503400000000000 C
   0.5304000000000000    0.3226700000000000    0.6383100000000000 C
   0.5079900000000001    0.3460300000000000    0.6977000000000000 C
   0.1722900000000000    0.9623800000000000    0.1206000000000000 C
   0.1524300000000000    0.8852100000000001    0.0222300000000000 C
   0.2526500000000000    0.8803200000000000    0.0183000000000000 C
   0.2719500000000000    0.9537000000000000    0.1133500000000000 C
   0.1091100000000000    0.9271100000000000    0.0747700000000000 C
   0.9387000000000000    0.8952400000000000    0.0442400000000000 C
   0.0043900000000000    0.9347299999999999    0.0828500000000000 C
   0.7780100000000000    0.8576700000000000    0.0023700000000000 C
   0.7820200000000000    0.9402600000000000    0.0995000000000000 C
   0.6814800000000000    0.9396200000000000    0.0989400000000000 C
   0.6775700000000000    0.8599900000000000    0.0053900000000000 C
   0.8336100000000000    0.8990100000000000    0.0499000000000000 C
   0.8277200000000000    0.0376400000000000    0.8793400000000000 C
   0.8475700000000000    0.1148100000000000    0.9777600000000000 C
   0.7473500000000000    0.1196900000000000    0.9816800000000000 C
   0.7280500000000000    0.0463200000000000    0.8866300000000000 C
   0.8909000000000000    0.0729000000000000    0.9252200000000000 C
   0.0613000000000000    0.1047800000000000    0.9557400000000000 C
   0.9956100000000000    0.0652800000000000    0.9171400000000000 C
   0.2220000000000000    0.1423500000000000    0.9976100000000000 C
   0.2179900000000000    0.0597500000000000    0.9004900000000000 C
   0.3185200000000000    0.0603900000000000    0.9010500000000000 C
   0.3224400000000000    0.1400300000000000    0.9940000000000000 C
   0.1663900000000000    0.1010100000000000    0.9500800000000000 C
   0.8275600000000000    0.4619800000000000    0.3796700000000000 C
   0.8479000000000000    0.3852400000000000    0.4780100000000000 C
   0.7477000000000000    0.3805300000000000    0.4820800000000000 C
   0.7279400000000000    0.4535000000000000    0.3871100000000000 C
   0.8909600000000000    0.4268500000000000    0.4254400000000000 C
   0.9956400000000000    0.4343700000000000    0.4172000000000000 C
   0.0613800000000000    0.3945900000000000    0.4557100000000000 C
   0.2220000000000000    0.3573900000000000    0.4978800000000000 C
   0.2181200000000000    0.4392700000000000    0.4007000000000000 C
   0.3186400000000000    0.4388300000000000    0.4015100000000000 C
   0.3224400000000000    0.3598900000000000    0.4951100000000000 C
   0.1664600000000000    0.3983500000000000    0.4502000000000000 C
   0.1724400000000000    0.5380400000000000    0.6203200000000000 C
   0.1521100000000000    0.6147700000000000    0.5219800000000000 C
   0.2720600000000000    0.5465200000000000    0.6128700000000000 C
   0.2523000000000000    0.6194900000000000    0.5179000000000000 C
   0.1090500000000000    0.5731700000000000    0.5745500000000000 C
   0.9386200000000000    0.6054200000000000    0.5442000000000000 C
   0.0043600000000000    0.5656500000000000    0.5827000000000000 C
   0.7780000000000000    0.6426300000000000    0.5021000000000000 C
   0.7818900000000000    0.5607500000000000    0.5992900000000000 C
   0.6813600000000000    0.5611800000000000    0.5984000000000000 C
   0.6775700000000000    0.6401200000000000    0.5048700000000000 C
   0.8335399999999999    0.6016700000000000    0.5497700000000000 C
   0.9919300000000000    0.7490599999999999    0.3658300000000000 C
   0.9835700000000001    0.6136000000000000    0.0848200000000000 C
   0.0000000000000000    0.6892200000000001    0.3094900000000000 C
   0.9808700000000000    0.7153300000000000    0.2506000000000000 C
   0.9916000000000000    0.6546500000000000    0.1975600000000000 C
   0.9690700000000000    0.6780300000000000    0.1382000000000000 C
   0.9919400000000000    0.7493200000000000    0.8651799999999999 C
   0.9838100000000000    0.8868300000000000    0.5848700000000000 C
   0.0000000000000000    0.8101300000000000    0.8095200000000000 C
   0.9813000000000000    0.7850000000000000    0.7504200000000000 C
   0.9921000000000000    0.8462100000000000    0.6977600000000000 C
   0.9696399999999999    0.8229100000000000    0.6383600000000000 C
   0.0164300000000000    0.3864100000000000    0.9151600000000000 C
   0.0080700000000000    0.2509600000000000    0.6341599999999999 C
   0.0309300000000000    0.3219900000000000    0.8617400000000000 C
   0.0084000000000000    0.3453700000000000    0.8024200000000000 C
   0.9970200000000000    0.3108000000000000    0.6899999999999999 C
   0.0191300000000000    0.2846800000000000    0.7493200000000000 C
   0.0080600000000000    0.2507000000000000    0.1348000000000000 C
   0.0162000000000000    0.1131800000000000    0.4151100000000000 C
   0.9968399999999999    0.1898800000000000    0.1904600000000000 C
   0.0187100000000000    0.2150100000000000    0.2495700000000000 C
   0.0303600000000000    0.1771100000000000    0.3616200000000000 C
   0.0079100000000000    0.1538100000000000    0.3022000000000000 C
   0.8127600000000000    0.5869900000000000    0.9370000000000001 N
   0.1287700000000000    0.5990400000000000    0.9476300000000000 N
   0.8126000000000000    0.9136100000000000    0.4376200000000000 N
   0.1287800000000000    0.9005000000000000    0.4481500000000000 N
   0.1874100000000000    0.0864100000000000    0.5623700000000000 N
   0.8712299999999999    0.0995200000000000    0.5518300000000000 N
   0.3127700000000000    0.9133400000000000    0.0629000000000000 N
   0.6288200000000000    0.9008900000000000    0.0524600000000000 N
   0.6872400000000000    0.0866800000000000    0.9370800000000000 N
   0.3711800000000000    0.0991300000000000    0.9475300000000000 N
   0.6873700000000000    0.4134400000000000    0.4376000000000000 N
   0.3712400000000000    0.4006200000000000    0.4481700000000000 N
   0.3126400000000000    0.5865800000000000    0.5623000000000000 N
   0.6287700000000001    0.5993900000000000    0.5518000000000000 N
   0.1872400000000000    0.4130200000000000    0.0629400000000000 O
   0.5001200000000000    0.7890800000000000    0.5815399999999999 O
   0.4745200000000000    0.6635700000000000    0.6425000000000000 O
   0.5244200000000000    0.9642200000000000    0.9049100000000000 O
   0.4544800000000000    0.8561299999999999    0.9680900000000000 O
   0.4999800000000000    0.7139500000000000    0.0817800000000000 O
   0.4745900000000000    0.8383200000000000    0.1440200000000000 O
   0.5243900000000000    0.5351800000000000    0.4052100000000000 O
   0.4542100000000000    0.6442400000000000    0.4678800000000000 O
   0.4998800000000000    0.2109400000000000    0.4184400000000000 O
   0.5254900000000000    0.3364500000000000    0.3574000000000000 O
   0.4755900000000000    0.0358000000000000    0.0950700000000000 O
   0.5455300000000000    0.1438900000000000    0.0318900000000000 O
   0.5000300000000000    0.2860700000000000    0.9182000000000000 O
   0.5254100000000000    0.1617000000000000    0.8559600000000001 O
   0.4756100000000000    0.4648400000000000    0.5947000000000000 O
   0.5458000000000000    0.3557800000000000    0.5321100000000000 O
   0.8712400000000000    0.4009800000000000    0.0523500000000000 O
   0.0000000000000000    0.7109500000000000    0.4184800000000000 O
   0.9745300000000000    0.8365000000000000    0.3574800000000000 O
   0.0243000000000000    0.5356500000000000    0.0952100000000000 O
   0.9544600000000000    0.6439100000000000    0.0319100000000000 O
   0.0000000000000000    0.7863800000000000    0.9182800000000000 O
   0.9745000000000000    0.6620600000000000    0.8560600000000000 O
   0.0245500000000000    0.9648200000000000    0.5947600000000000 O
   0.9543500000000000    0.8558900000000000    0.5321399999999999 O
   0.9757100000000000    0.4643700000000000    0.9047700000000000 O
   0.0455400000000000    0.3561100000000000    0.9680700000000000 O
   0.9999100000000000    0.2890600000000000    0.5815000000000000 O
   0.0254700000000000    0.1635200000000000    0.6425000000000000 O
   0.0000000000000000    0.2136300000000000    0.0817000000000000 O
   0.0255000000000000    0.3379600000000000    0.1439300000000000 O
   0.9754500000000000    0.0352000000000000    0.4052200000000000 O
   0.0456600000000000    0.1441300000000000    0.4678500000000000 O
