H4 C8 O4
1.0
  27.3879990614280437    0.0000000000000000    0.0071701615511385
   0.0233215219900052   28.4299904171944071   -0.0009923942124781
   0.0000000000000000    0.0000000000000000   31.9379999999999988
H C O
4 8 4
direct
   0.8932500000000000    0.4773850000000000    0.9041000000000000 H
   0.7381550000000000    0.4555350000000000    0.8988800000000000 H
   0.8869750000000001    0.5361500000000000    0.8456450000000000 H
   0.7318850000000000    0.5142900000000000    0.8403800000000000 H
   0.8194750000000000    0.4290350000000000    0.9400450000000000 C
   0.8160400000000000    0.4631200000000000    0.9048000000000000 C
   0.8581850000000000    0.4856200000000000    0.8898349999999999 C
   0.7704200000000000    0.4733900000000000    0.8869150000000000 C
   0.8054850000000000    0.5642199999999999    0.8057400000000000 C
   0.8090649999999999    0.5287100000000000    0.8398250000000000 C
   0.8547300000000000    0.5181850000000000    0.8575300000000000 C
   0.7669650000000000    0.5059600000000000    0.8546000000000000 C
   0.8619150000000000    0.4198300000000000    0.9544500000000000 O
   0.7793850000000000    0.4115350000000000    0.9534750000000001 O
   0.7629750000000000    0.5741750000000000    0.7918650000000000 O
   0.8455400000000000    0.5824250000000000    0.7900000000000000 O
