H6 O4
1.0
  15.4099993991482354    0.0000000000000000    0.0043032837477908
  -0.0000014476116174   18.5645143668886909  -10.7113162273168498
   0.0000000000000000    0.0000000000000000   21.4340000000000011
H O
6 4
direct
   0.7370246395789146    0.7389503886853948    0.5134108748079581 H
   0.9315431771074504    0.6195494039326666    0.3995528706377778 H
   0.8427065048093582    0.6809996019377728    0.4649588723335963 H
   0.2629029775626860    0.5133746123171679    0.7389480568710036 H
   0.0684809944410974    0.3995463896890527    0.6194793144463303 H
   0.1572567152553113    0.4649381285231760    0.6809597317195704 H
   0.7599100000000000    0.7071400000000000    0.4656000000000000 O
   0.8738000000000000    0.6377800000000000    0.4000000000000000 O
   0.2400500000000000    0.4655600000000000    0.7071200000000000 O
   0.1262100000000000    0.3999800000000000    0.6377200000000000 O
