La4 H30 C20 O36
1.0
   6.1682060490202728    0.0000000000000000   -0.5701441807382660
  -0.1869577015092009    7.5098767057774802   -1.9946315278434690
   0.0000000000000000    0.0000000000000000   26.7020000000000017
La H C O
4 30 20 36
direct
   0.5890300000000001    0.0412700000000000    0.7384300000000000 La
   0.7968800000000000    0.6939300000000000    0.9127900000000000 La
   0.7968800000000000    0.6939300000000000    0.4127900000000000 La
   0.5890300000000001    0.0412700000000000    0.2384300000000000 La
   0.7499486191659068    0.9850184257649731    0.7433013991324703 H
   1.1301584693077447   -0.0419827277071234    0.7387678245985487 H
   0.1918169029659642   -0.2405639137635992    0.7566856985058583 H
   0.9707140906227355    0.6642578878307005    0.8007184271786860 H
   0.9415798719985231    0.8411094596511155    0.8802490037294386 H
   0.7735258116065121    0.4603903068910155    0.7257082634708826 H
   0.7091706893626488   -0.2677088828124463    0.7541787296026007 H
   0.6769553575273394    0.6749239877631231    0.6876347828840093 H
   0.8732402319745861    0.7008674521486985    0.7326365995537608 H
   0.7319300000000000    0.4051000000000000    0.4629450000000000 H
   0.3945800000000000    0.2986300000000000    0.4477800000000000 H
   0.5187200000000000    0.3529800000000000    0.3236550000000000 H
   0.2610800000000000    0.1215500000000000    0.3640600000000000 H
   0.4903200000000000    0.4952000000000000    0.5553200000000000 H
   0.3098900000000000    0.8147400000000000    0.5511000000000000 H
   0.9946600000000000    0.4383900000000000    0.5873600000000000 H
   0.0184400000000000    0.7969100000000000    0.6038850000000000 H
   0.7319300000000000    0.4051000000000000    0.9629449999999999 H
   0.3945800000000000    0.2986300000000000    0.9477800000000001 H
   0.6820510696998345    0.3805159980278202    0.8234424448718729 H
   0.5187200000000000    0.3529800000000000    0.8236550000000000 H
   0.2610800000000000    0.1215500000000000    0.8640600000000001 H
   0.9946600000000000    0.4383900000000000    0.0873600000000000 H
   0.0184400000000000    0.7969100000000000    0.1038850000000000 H
   0.8702000000000000    0.8561800000000001    0.3277500000000000 H
   0.1269800000000000    0.5543000000000000    0.2869400000000000 H
   0.4903200000000000    0.4952000000000000    0.0553200000000000 H
   0.3098900000000000    0.8147400000000000    0.0511000000000000 H
   0.6742600000000000    0.6718400000000000    0.1853400000000000 H
   0.9996900000000000    0.5880600000000000    0.2034850000000000 H
   0.3065400000000000    0.5048000000000000    0.4101050000000000 C
   0.4473800000000000    0.3448900000000000    0.4151500000000000 C
   0.5974600000000000    0.0527200000000000    0.3673050000000000 C
   0.4184400000000000    0.1894200000000000    0.3655300000000000 C
   0.4615200000000000    0.7490300000000000    0.6196699999999999 C
   0.3132100000000000    0.7016300000000000    0.5689200000000000 C
   0.9357600000000000    0.6074500000000000    0.5302550000000000 C
   0.0786000000000000    0.6689100000000000    0.5816550000000000 C
   0.3065400000000000    0.5048000000000000    0.9101049999999999 C
   0.4473800000000000    0.3448900000000000    0.9151500000000000 C
   0.5974600000000000    0.0527200000000000    0.8673050000000000 C
   0.4184400000000000    0.1894200000000000    0.8655300000000000 C
   0.9357600000000000    0.6074500000000000    0.0302550000000000 C
   0.0786000000000000    0.6689100000000000    0.0816550000000000 C
   0.0826500000000000    0.8602300000000001    0.2424350000000000 C
   0.7907500000000000    0.4795100000000000    0.2834550000000000 C
   0.9698700000000000    0.6198600000000000    0.2855200000000000 C
   0.3132100000000000    0.7016300000000000    0.0689200000000000 C
   0.4615200000000000    0.7490300000000000    0.1196700000000000 C
   0.9435700000000000    0.6898600000000000    0.2362800000000000 C
   0.9825400000000000   -0.0005400000000000    0.7376650000000000 O
   0.2856900000000000   -0.1488200000000000    0.7510150000000000 O
   0.9725100000000000    0.7587200000000000    0.8330550000000000 O
   0.7581599999999999    0.3471900000000000    0.7447550000000001 O
   0.7205200000000000    0.7247700000000000    0.7247250000000001 O
   0.1030500000000000    0.4817400000000000    0.4040800000000000 O
   0.4057600000000000    0.6506100000000000    0.4122200000000000 O
   0.6708400000000000    0.3995300000000000    0.4252450000000000 O
   0.6302400000000000    0.9886900000000000    0.4060200000000000 O
   0.7037400000000000    0.0082700000000000    0.3268800000000000 O
   0.4160000000000000    0.2461400000000000    0.3183000000000000 O
   0.5836800000000000    0.6285500000000001    0.6285700000000000 O
   0.4501600000000000    0.9061800000000000    0.6501700000000000 O
   0.3878100000000000    0.5489600000000000    0.5337350000000000 O
   0.8578400000000000    0.4509000000000000    0.5184850000000000 O
   0.9080100000000000    0.7194100000000000    0.5022250000000000 O
   0.0749700000000000    0.5410000000000000    0.6110050000000000 O
   0.1030500000000000    0.4817400000000000    0.9040800000000000 O
   0.4057600000000000    0.6506100000000000    0.9122200000000000 O
   0.6708400000000000    0.3995300000000000    0.9252450000000000 O
   0.6302400000000000    0.9886900000000000    0.9060200000000000 O
   0.7037400000000000    0.0082700000000000    0.8268800000000001 O
   0.6848900000000000    0.5057300000000000    0.8239449999999999 O
   0.4160000000000000    0.2461400000000000    0.8183000000000000 O
   0.8578400000000000    0.4509000000000000    0.0184850000000000 O
   0.9080100000000000    0.7194100000000000    0.0022250000000000 O
   0.0749700000000000    0.5410000000000000    0.1110050000000000 O
   0.2856900000000000    0.8511800000000000    0.2510150000000000 O
   0.9825400000000000    0.9994600000000000    0.2376650000000000 O
   0.7581599999999999    0.3471900000000000    0.2447550000000000 O
   0.6848900000000000    0.5057300000000000    0.3239450000000000 O
   0.9725100000000000    0.7587200000000000    0.3330550000000000 O
   0.3878100000000000    0.5489600000000000    0.0337350000000000 O
   0.5836800000000000    0.6285500000000001    0.1285700000000000 O
   0.4501600000000000    0.9061800000000000    0.1501700000000000 O
   0.7205200000000000    0.7247700000000000    0.2247250000000000 O
