H8 O5
1.0
  13.0699631804954794    0.0000000000000000   -0.0310235473878653
  -0.1420016738554337   24.2085795144348204   -0.0139433822634023
   0.0000000000000000    0.0000000000000000   30.0839999999999996
H O
8 5
direct
   0.3609671999870873   -0.0026552044782747    0.0319312518740077 H
   0.2804959323674086    0.9054862083731132    1.0318320742369327 H
   0.5577042533943903    0.8562750002629386    0.9157169832265928 H
   0.4725095819575921    0.8546533083384117    0.9577928850678362 H
   0.6837534497677719    0.8817087253082757    0.8513807572177192 H
   0.5816990768766723    1.0258090925085976    0.8847362695209657 H
   0.6222123128778514    0.9559208122007710    0.8739696398892993 H
   0.2539306026227551    0.9673228837353413    0.3617227654979928 H
   0.3641700000000000   -0.0079200000000000    0.0000000000000000 O
   0.2902200000000000    0.9076700000000000    0.9999250000000000 O
   0.5172600000000001    0.8350600000000000    0.9371450000000000 O
   0.6834100000000000    0.9207000000000000    0.8439800000000000 O
   0.6218000000000000    1.0027300000000001    0.8650850000000000 O
