H3 O2
1.0
  18.4391181994581714    0.0000000000000000   -5.1507227673803690
  -0.6016730061817479   19.0989718659495935   -1.8624887267573376
   0.0000000000000000    0.0000000000000000   17.4200000000000017
H O
3 2
direct
   0.5472048537279680    0.0787668662587074    0.8986061517886674 H
   0.5860196140656631    0.1157988841087129    0.0936057066161992 H
   0.5209494784199427    0.0831765168753894   -0.0036136196827125 H
   0.5944700000000001    0.0974500000000000    0.9301400000000000 O
   0.6203300000000000    0.1224600000000000    0.0626900000000000 O
