C1 O3
1.0
  18.4391181994581714    0.0000000000000000   -5.1507227673803690
  -0.6016730061817479   19.0989718659495935   -1.8624887267573376
   0.0000000000000000    0.0000000000000000   17.4200000000000017
C O
1 3
direct
   0.6419600000000000    0.1201300000000000    0.9976500000000000 C
   0.7072200000000000    0.1382800000000000    0.9998000000000000 O
   0.5944700000000001    0.0974500000000000    0.9301400000000000 O
   0.6203300000000000    0.1224600000000000    0.0626900000000000 O
