H3 C2 N4
1.0
  18.4391181994581714    0.0000000000000000   -5.1507227673803690
  -0.6016730061817479   19.0989718659495935   -1.8624887267573376
   0.0000000000000000    0.0000000000000000   17.4200000000000017
H C N
3 2 4
direct
   0.7482700000000000    0.6786000000000000    0.9306900000000000 H
   0.8088500000000000    0.7433700000000000    0.9201000000000000 H
   0.6481100000000000    0.8315000000000000    0.6941700000000000 H
   0.7142300000000000    0.7340100000000001    0.8338700000000000 C
   0.6600700000000000    0.7931800000000000    0.7373600000000000 C
   0.6478600000000000    0.7036800000000000    0.8010100000000000 N
   0.6134700000000000    0.7421300000000000    0.7378800000000000 N
   0.7233700000000000    0.7908100000000000    0.7956400000000000 N
   0.7660300000000000    0.7094800000000000    0.8937500000000000 N
