H1 O1
1.0
   6.2857153320668733    0.0000000000000000    0.6074600926969949
   0.6145131703135935    7.8870846679350546    3.7376488939351846
   0.0000000000000000    0.0000000000000000   29.3250000000000028
H O
1 1
direct
   0.8778032910081893    0.2594613950105329    0.9472123581489967 H
   0.9436700000000000    0.1877000000000000    0.9791166666666666 O
