Ba12 H1 C22 O45
1.0
   6.2857153320668733    0.0000000000000000    0.6074600926969949
   0.6145131703135935    7.8870846679350546    3.7376488939351846
   0.0000000000000000    0.0000000000000000   29.3250000000000028
Ba H C O
12 1 22 45
direct
   0.2805400000000000    0.0250800000000000    0.6003633333333334 Ba
   0.7863300000000000    0.3613400000000000    0.8112866666666666 Ba
   0.2136300000000000    0.6385900000000000    0.8554166666666666 Ba
   0.7195400000000000    0.9750100000000000    0.0663400000000000 Ba
   0.7195400000000000    0.9750100000000000    0.7330066666666666 Ba
   0.2136300000000000    0.6385900000000000    0.5220833333333333 Ba
   0.2805400000000000    0.0250800000000000    0.2670300000000000 Ba
   0.7863300000000000    0.3613400000000000    0.4779533333333333 Ba
   0.7195400000000000    0.9750100000000000    0.3996733333333333 Ba
   0.2136300000000000    0.6385900000000000    0.1887500000000000 Ba
   0.2805400000000000    0.0250800000000000    0.9336966666666666 Ba
   0.7863300000000000    0.3613400000000000    0.1446200000000000 Ba
   0.8778032910081893    0.2594613950105329    0.9472123581489967 H
   0.3253400000000000    0.1816200000000000    0.7944300000000000 C
   0.1826500000000000    0.0892200000000000    0.7757600000000000 C
   0.3888500000000000    0.7144500000000000    0.7295066666666666 C
   0.1411800000000000    0.7198800000000000    0.7286533333333333 C
   0.6745700000000000    0.8181900000000000    0.8722933333333333 C
   0.8173100000000000    0.9105799999999999    0.8909533333333333 C
   0.6745700000000000    0.8181900000000000    0.5389600000000000 C
   0.8173100000000000    0.9105799999999999    0.5576200000000000 C
   0.6111700000000000    0.2855200000000000    0.6038833333333333 C
   0.8588600000000000    0.2801000000000000    0.6047033333333334 C
   0.3253400000000000    0.1816200000000000    0.4610966666666667 C
   0.1826500000000000    0.0892200000000000    0.4424266666666666 C
   0.3888500000000000    0.7144500000000000    0.3961733333333333 C
   0.1411800000000000    0.7198800000000000    0.3953200000000000 C
   0.6745700000000000    0.8181900000000000    0.2056266666666667 C
   0.8173100000000000    0.9105799999999999    0.2242866666666667 C
   0.6111700000000000    0.2855200000000000    0.2705500000000000 C
   0.8588600000000000    0.2801000000000000    0.2713700000000000 C
   0.3253400000000000    0.1816200000000000    0.1277633333333333 C
   0.1826500000000000    0.0892200000000000    0.1090933333333333 C
   0.3888500000000000    0.7144500000000000    0.0628400000000000 C
   0.1411800000000000    0.7198800000000000    0.0619866666666667 C
   0.5188100000000000    0.1933100000000000    0.7776700000000000 O
   0.2389400000000000    0.2350700000000000    0.8264300000000000 O
   0.9890700000000000    0.1455300000000000    0.7685999999999999 O
   0.2691000000000000    0.9583500000000000    0.7706666666666666 O
   0.4883900000000000    0.8042400000000000    0.6889766666666667 O
   0.4733500000000000    0.6298899999999999    0.7719433333333333 O
   0.0564100000000000    0.8122800000000000    0.6875666666666667 O
   0.0371000000000000    0.6401200000000000    0.7704766666666666 O
   0.4811200000000000    0.8065099999999999    0.8890699999999999 O
   0.7609100000000000    0.7647600000000000    0.8402833333333333 O
   0.0109400000000000    0.8546600000000000    0.8980466666666667 O
   0.7309400000000000    0.0414300000000000    0.8960600000000000 O
   0.9436700000000000    0.1877000000000000    0.9791166666666666 O
   0.4811200000000000    0.8065099999999999    0.5557366666666667 O
   0.7609100000000000    0.7647600000000000    0.5069500000000000 O
   0.0109400000000000    0.8546600000000000    0.5647133333333333 O
   0.7309400000000000    0.0414300000000000    0.5627266666666666 O
   0.5116500000000000    0.1960200000000000    0.6444566666666667 O
   0.5265900000000000    0.3697600000000000    0.5614399999999999 O
   0.9436700000000000    0.1877000000000000    0.6457833333333334 O
   0.9628800000000000    0.3598400000000000    0.5628666666666666 O
   0.5188100000000000    0.1933100000000000    0.4443366666666666 O
   0.2389400000000000    0.2350700000000000    0.4930966666666666 O
   0.9890700000000000    0.1455300000000000    0.4352666666666666 O
   0.2691000000000000    0.9583500000000000    0.4373333333333333 O
   0.4883900000000000    0.8042400000000000    0.3556433333333333 O
   0.4733500000000000    0.6298899999999999    0.4386099999999999 O
   0.0564100000000000    0.8122800000000000    0.3542333333333333 O
   0.0371000000000000    0.6401200000000000    0.4371433333333333 O
   0.4811200000000000    0.8065099999999999    0.2224033333333333 O
   0.7609100000000000    0.7647600000000000    0.1736166666666667 O
   0.0109400000000000    0.8546600000000000    0.2313800000000000 O
   0.7309400000000000    0.0414300000000000    0.2293933333333333 O
   0.5116500000000000    0.1960200000000000    0.3111233333333333 O
   0.5265900000000000    0.3697600000000000    0.2281066666666667 O
   0.9436700000000000    0.1877000000000000    0.3124500000000000 O
   0.9628800000000000    0.3598400000000000    0.2295333333333333 O
   0.5188100000000000    0.1933100000000000    0.1110033333333333 O
   0.2389400000000000    0.2350700000000000    0.1597633333333333 O
   0.9890700000000000    0.1455300000000000    0.1019333333333333 O
   0.2691000000000000    0.9583500000000000    0.1040000000000000 O
   0.4883900000000000    0.8042400000000000    0.0223100000000000 O
   0.4733500000000000    0.6298899999999999    0.1052766666666667 O
   0.0564100000000000    0.8122800000000000    0.0209000000000000 O
   0.0371000000000000    0.6401200000000000    0.1038100000000000 O
