C2 O4
1.0
   6.2857153320668733    0.0000000000000000    0.6074600926969949
   0.6145131703135935    7.8870846679350546    3.7376488939351846
   0.0000000000000000    0.0000000000000000   29.3250000000000028
C O
2 4
direct
   0.8588600000000000    0.2801000000000000    0.9380366666666666 C
   0.6111700000000000    0.2855200000000000    0.9372166666666666 C
   0.9628800000000000    0.3598400000000000    0.8961999999999999 O
   0.9436700000000000    0.1877000000000000    0.9791166666666666 O
   0.5265900000000000    0.3697600000000000    0.8947733333333333 O
   0.5116500000000000    0.1960200000000000    0.9777899999999999 O
