H6 O4
1.0
  15.3770006257444862    0.0000000000000000   -8.7151291875596257
 -10.1774077368776528   14.4322566502633478   -0.2031273941946776
   0.0000000000000000    0.0000000000000000   35.3680000000000021
H O
6 4
direct
   0.1830392760971146    0.6502976253334509    0.9365177246312294 H
   0.7813831571009455    0.3815626439975880    0.9213570378427216 H
   0.7492477337984398    0.3624529287136867    0.9252625092919430 H
  -0.1269583638629219    0.4052807557053197    0.8995946671466144 H
  -0.0376483893050252    0.5119187479516432    0.9333474489069696 H
   0.0793505422552745    0.6071763632279198    0.9461035968435545 H
   0.1723500000000000    0.6023700000000000    0.9163049999999999 O
   0.7828600000000000    0.3554800000000000    0.9118750000000000 O
  -0.1245100000000000    0.3620400000000000    0.8838750000000000 O
   0.0219900000000000    0.5409900000000000    0.9304250000000001 O
