H8 O4
1.0
  15.3770006257444862    0.0000000000000000   -8.7151291875596257
 -10.1774077368776528   14.4322566502633478   -0.2031273941946776
   0.0000000000000000    0.0000000000000000   35.3680000000000021
H O
8 4
direct
   0.6425732089119645    0.8256845013041645    0.8731016194535276 H
   0.5402676259737172    0.7161579538903720    0.8564732795607177 H
   0.4214193895066896    0.8171228670633067    0.0871905972927351 H
   0.4976837157745591    0.8243595434022877    0.1417517186435316 H
   0.9596534845421980    0.6728196888148306    0.0878711323562213 H
   0.8575406040680724    0.6037054788603177    0.0915434086099753 H
   0.0023797639406370    0.2861670321481952    0.1633824087359875 H
   0.0784391940826147    0.2529636354507082    0.1977537764526432 H
   0.5821400000000000    0.7657300000000000    0.8486150000000000 O
   0.4325600000000000    0.8168400000000000    0.1171600000000000 O
   0.9179700000000000    0.6152300000000001    0.0917900000000000 O
   0.0674800000000000    0.3019500000000000    0.1921400000000000 O
