Cd32 H310 C124 Br64 N62
1.0
  14.0717786017916477    0.0000000000000000   -0.2500459600927162
  -0.4140222420149426   15.7199470425885579   -6.3069088752992286
   0.0000000000000000    0.0000000000000000   33.8860000000000028
Cd H C Br N
32 310 124 64 62
direct
   0.3750000000000000    0.4637900000000000    0.2680900000000000 Cd
   0.3750000000000000    0.9637900000000000    0.0180950000000000 Cd
   0.3750000000000000    0.9637900000000000    0.2680900000000000 Cd
   0.8749900000000000    0.4638000000000000    0.0180950000000000 Cd
   0.8749900000000000    0.4638000000000000    0.2680900000000000 Cd
   0.8749800000000000    0.9637900000000000    0.0180950000000000 Cd
   0.8749800000000000    0.9637900000000000    0.2680900000000000 Cd
   0.1250200000000000    0.0361900000000000    0.2318900000000000 Cd
   0.1250200000000000    0.0361900000000000    0.4818850000000000 Cd
   0.1250100000000000    0.5361800000000000    0.2318900000000000 Cd
   0.1250100000000000    0.5361800000000000    0.4818850000000000 Cd
   0.6250000000000000    0.0361900000000000    0.2318900000000000 Cd
   0.6250100000000000    0.0361900000000000    0.4818850000000000 Cd
   0.6250000000000000    0.5361900000000001    0.2318900000000000 Cd
   0.6250000000000000    0.5361800000000000    0.4818850000000000 Cd
   0.3750000000000000    0.4638000000000000    0.0180500000000000 Cd
   0.3750000000000000    0.4637900000000000    0.7680899999999999 Cd
   0.3750000000000000    0.9637900000000000    0.5180950000000000 Cd
   0.3750000000000000    0.9637900000000000    0.7680899999999999 Cd
   0.8749900000000000    0.4638000000000000    0.5180950000000000 Cd
   0.8749900000000000    0.4638000000000000    0.7680899999999999 Cd
   0.8749800000000000    0.9637900000000000    0.5180950000000000 Cd
   0.8749800000000000    0.9637900000000000    0.7680899999999999 Cd
   0.1250200000000000    0.0361900000000000    0.7318900000000000 Cd
   0.1250200000000000    0.0361900000000000    0.9818850000000000 Cd
   0.1250100000000000    0.5361800000000000    0.7318900000000000 Cd
   0.1250100000000000    0.5361800000000000    0.9818850000000000 Cd
   0.6250000000000000    0.0361900000000000    0.7318900000000000 Cd
   0.6250100000000000    0.0361900000000000    0.9818850000000000 Cd
   0.6250000000000000    0.5361900000000001    0.7318900000000000 Cd
   0.6250000000000000    0.5361800000000000    0.9818850000000000 Cd
   0.3750000000000000    0.4638000000000000    0.5180500000000000 Cd
   0.0322400000000000    0.0061500000000000    0.0713900000000000 H
   0.0322400000000000    0.0061500000000000    0.3213850000000000 H
   0.0322400000000000    0.5061400000000000    0.0713900000000000 H
   0.0322400000000000    0.5061400000000000    0.3213850000000000 H
   0.5322300000000000    0.0061400000000000    0.0713900000000000 H
   0.5322300000000000    0.0061400000000000    0.3213850000000000 H
   0.5322300000000000    0.5061300000000000    0.3213850000000000 H
   0.4322100000000000    0.1183000000000000    0.1098350000000000 H
   0.4322200000000000    0.1183000000000000    0.3598300000000000 H
   0.4322100000000000    0.6183000000000000    0.3598300000000000 H
   0.9321800000000000    0.1183000000000000    0.1098400000000000 H
   0.9321800000000000    0.1183000000000000    0.3598350000000000 H
   0.9321700000000001    0.6183000000000000    0.1098400000000000 H
   0.9321800000000000    0.6182900000000000    0.3598350000000000 H
   0.3706600000000000    0.0477700000000000    0.1290350000000000 H
   0.3706600000000000    0.0477700000000000    0.3790300000000000 H
   0.3706600000000000    0.5477600000000000    0.3790300000000000 H
   0.8706400000000000    0.0477500000000000    0.1290350000000000 H
   0.8706400000000000    0.0477500000000000    0.3790000000000000 H
   0.8706300000000000    0.5477400000000000    0.1290350000000000 H
   0.8706300000000000    0.5477400000000000    0.3790000000000000 H
   0.4189900000000000    0.3954600000000000    0.3531250000000000 H
   0.4189900000000000    0.8954500000000000    0.1031300000000000 H
   0.4189900000000000    0.8954500000000000    0.3531250000000000 H
   0.9189900000000000    0.3954500000000000    0.1031000000000000 H
   0.9190000000000000    0.3954500000000000    0.3531000000000000 H
   0.9189900000000000    0.8954400000000000    0.1031250000000000 H
   0.9189900000000000    0.8954400000000000    0.3531200000000000 H
   0.0113900000000000    0.3632300000000000    0.0655500000000000 H
   0.0113900000000000    0.3632300000000000    0.3155900000000000 H
   0.0113800000000000    0.8632200000000000    0.0655950000000000 H
   0.0113900000000000    0.8632200000000000    0.3155900000000000 H
   0.5113500000000000    0.3632200000000000    0.3155900000000000 H
   0.5113500000000000    0.8632100000000000    0.0655950000000000 H
   0.5113500000000000    0.8632100000000000    0.3155900000000000 H
   0.2177700000000000    0.3572000000000000    0.2469200000000000 H
   0.2177800000000000    0.3572000000000000    0.4969150000000000 H
   0.2177700000000000    0.8571900000000000    0.2469200000000000 H
   0.2177700000000000    0.8571900000000000    0.4969150000000000 H
   0.7177700000000000    0.3572000000000000    0.2469200000000000 H
   0.7177700000000000    0.3571900000000000    0.4969000000000000 H
   0.7177600000000000    0.8571900000000000    0.2469200000000000 H
   0.7177600000000000    0.8571900000000000    0.4969200000000000 H
   0.3177900000000000    0.2803200000000000    0.1908350000000000 H
   0.3177900000000000    0.2803100000000000    0.4408000000000000 H
   0.3177900000000000    0.7803099999999999    0.1908350000000000 H
   0.3177900000000000    0.7803099999999999    0.4408000000000000 H
   0.8177900000000000    0.2803200000000000    0.1908000000000000 H
   0.8177900000000000    0.2803100000000000    0.4408350000000000 H
   0.8177900000000000    0.7803099999999999    0.1908400000000000 H
   0.8177900000000000    0.7803099999999999    0.4408350000000000 H
   0.3793500000000000    0.2419200000000000    0.2261000000000000 H
   0.3793500000000000    0.2419200000000000    0.4760000000000000 H
   0.3793500000000000    0.7419100000000000    0.2261000000000000 H
   0.3793500000000000    0.7419100000000000    0.4760000000000000 H
   0.8793500000000000    0.2419200000000000    0.2261050000000000 H
   0.8793500000000000    0.2419200000000000    0.4761000000000000 H
   0.8793400000000000    0.7419200000000000    0.2261050000000000 H
   0.8793400000000000    0.7419100000000000    0.4761000000000000 H
   0.3310100000000000    0.2937300000000000    0.0522600000000000 H
   0.3310100000000000    0.2937200000000000    0.3022550000000000 H
   0.3310000000000000    0.7937200000000000    0.0522600000000000 H
   0.3310000000000000    0.7937200000000000    0.3022550000000000 H
   0.8310000000000000    0.2937300000000000    0.0522600000000000 H
   0.8310000000000000    0.2937200000000000    0.3022550000000000 H
   0.8310000000000000    0.7937200000000000    0.0522600000000000 H
   0.8310000000000000    0.7937200000000000    0.3022550000000000 H
   0.2386400000000000    0.3687800000000000    0.0683800000000000 H
   0.2386400000000000    0.3687800000000000    0.3183750000000000 H
   0.2386300000000000    0.8687700000000000    0.0683800000000000 H
   0.2386300000000000    0.8687700000000000    0.3183750000000000 H
   0.7386400000000000    0.3687800000000000    0.0683800000000000 H
   0.7386400000000000    0.3687800000000000    0.3183750000000000 H
   0.7386300000000000    0.8687700000000000    0.0683800000000000 H
   0.7386300000000000    0.8687700000000000    0.3183750000000000 H
   0.4677800000000000    0.4938500000000000    0.4285900000000000 H
   0.4677700000000000    0.9938399999999999    0.1785950000000000 H
   0.4677700000000000    0.9938399999999999    0.4285900000000000 H
   0.9677600000000000    0.4938400000000000    0.1785900000000000 H
   0.9677600000000000    0.4938400000000000    0.4285850000000000 H
   0.9677600000000000    0.9938300000000000    0.1785900000000000 H
   0.9677600000000000    0.9938300000000000    0.4285850000000000 H
   0.0678300000000000    0.3816900000000000    0.1401400000000000 H
   0.0678300000000000    0.3816900000000000    0.3901350000000000 H
   0.0678200000000000    0.8816800000000000    0.1401400000000000 H
   0.0678200000000000    0.8816800000000000    0.3901000000000000 H
   0.5677900000000000    0.3816800000000000    0.3901400000000000 H
   0.5677800000000000    0.8816800000000000    0.1401450000000000 H
   0.5677900000000000    0.8816800000000000    0.3901400000000000 H
   0.1293700000000000    0.4522400000000000    0.1209500000000000 H
   0.1293700000000000    0.4522400000000000    0.3709450000000000 H
   0.1293600000000000    0.9522300000000000    0.1209500000000000 H
   0.1293700000000000    0.9522300000000000    0.3709450000000000 H
   0.6293500000000000    0.4522200000000000    0.3709000000000000 H
   0.6293400000000000    0.9522100000000000    0.1205000000000000 H
   0.6293400000000000    0.9522100000000000    0.3709450000000000 H
   0.0810100000000000    0.1045400000000000    0.1468600000000000 H
   0.0810200000000000    0.1045400000000000    0.3968550000000000 H
   0.0810000000000000    0.6045300000000000    0.1468600000000000 H
   0.0810100000000000    0.6045300000000000    0.3968550000000000 H
   0.5810100000000000    0.1045300000000000    0.1468550000000000 H
   0.5810100000000000    0.1045300000000000    0.3965000000000000 H
   0.5810100000000000    0.6045199999999999    0.3968500000000000 H
   0.4886500000000000    0.1367700000000000    0.1843850000000000 H
   0.4886600000000000    0.1367700000000000    0.4343800000000000 H
   0.4886500000000000    0.6367600000000000    0.4343800000000000 H
   0.9886100000000000    0.1367600000000000    0.1843900000000000 H
   0.9886200000000001    0.1367600000000000    0.4343850000000000 H
   0.9886100000000000    0.6367500000000000    0.1843900000000000 H
   0.9886100000000000    0.6367500000000000    0.4343850000000000 H
   0.2822400000000000    0.1427900000000000    0.0030600000000000 H
   0.2822400000000000    0.1427900000000000    0.2530550000000000 H
   0.2822400000000000    0.6427800000000000    0.0030600000000000 H
   0.2822300000000000    0.6427800000000000    0.2530550000000000 H
   0.7822300000000000    0.1427900000000000    0.0030600000000000 H
   0.7822300000000000    0.1427900000000000    0.2530550000000000 H
   0.7822300000000000    0.6427800000000000    0.0030600000000000 H
   0.7822300000000000    0.6427800000000000    0.2530550000000000 H
   0.1822200000000000    0.2196700000000000    0.0591450000000000 H
   0.1822200000000000    0.2196700000000000    0.3091400000000000 H
   0.1822100000000000    0.7196700000000000    0.0591450000000000 H
   0.1822100000000000    0.7196600000000000    0.3091400000000000 H
   0.6822100000000000    0.2196700000000000    0.0591450000000000 H
   0.6822100000000000    0.2196700000000000    0.3091400000000000 H
   0.6822100000000000    0.7196700000000000    0.0591450000000000 H
   0.6822100000000000    0.7196600000000000    0.3091400000000000 H
   0.1206600000000000    0.2580700000000000    0.0238750000000000 H
   0.1206600000000000    0.2580600000000000    0.2738700000000000 H
   0.1206500000000000    0.7580600000000000    0.0238750000000000 H
   0.1206600000000000    0.7580500000000000    0.2738700000000000 H
   0.6206600000000000    0.2580700000000000    0.0238800000000000 H
   0.6206500000000000    0.2580600000000000    0.2738750000000000 H
   0.6206500000000000    0.7580600000000000    0.0238800000000000 H
   0.6206500000000000    0.7580600000000000    0.2738750000000000 H
   0.1690000000000000    0.2062600000000000    0.1977200000000000 H
   0.1690000000000000    0.2062600000000000    0.4477150000000000 H
   0.1690000000000000    0.7062600000000000    0.1977200000000000 H
   0.1690000000000000    0.7062500000000000    0.4477000000000000 H
   0.6690000000000000    0.2062600000000000    0.1977200000000000 H
   0.6690000000000000    0.2062600000000000    0.4477200000000000 H
   0.6689900000000000    0.7062500000000000    0.1977200000000000 H
   0.6690000000000000    0.7062500000000000    0.4477200000000000 H
   0.2613700000000000    0.1312100000000000    0.1816000000000000 H
   0.2613700000000000    0.1312000000000000    0.4315950000000000 H
   0.2613700000000000    0.6312000000000000    0.1816000000000000 H
   0.2613700000000000    0.6312000000000000    0.4315950000000000 H
   0.7613700000000000    0.1312100000000000    0.1816050000000000 H
   0.7613700000000000    0.1312100000000000    0.4316000000000000 H
   0.7613600000000000    0.6312000000000000    0.1816000000000000 H
   0.7613600000000000    0.6312000000000000    0.4316000000000000 H
   0.0322400000000000    0.0061500000000000    0.5713900000000000 H
   0.0322400000000000    0.0061500000000000    0.8213850000000000 H
   0.0322400000000000    0.5061400000000000    0.5713900000000000 H
   0.0322400000000000    0.5061400000000000    0.8213850000000000 H
   0.5322300000000000    0.0061400000000000    0.5713900000000000 H
   0.5322300000000000    0.0061400000000000    0.8213850000000000 H
   0.5322200000000000    0.5061300000000000    0.5713900000000000 H
   0.5322300000000000    0.5061300000000000    0.8213850000000000 H
   0.4322100000000000    0.1183000000000000    0.6098350000000000 H
   0.4322200000000000    0.1183000000000000    0.8598300000000000 H
   0.4322100000000000    0.6183000000000000    0.6098350000000000 H
   0.4322100000000000    0.6183000000000000    0.8598300000000000 H
   0.9321800000000000    0.1183000000000000    0.6098399999999999 H
   0.9321800000000000    0.1183000000000000    0.8598350000000000 H
   0.9321700000000001    0.6183000000000000    0.6098399999999999 H
   0.9321800000000000    0.6182900000000000    0.8598350000000000 H
   0.3706600000000000    0.0477700000000000    0.6290350000000000 H
   0.3706600000000000    0.0477700000000000    0.8790300000000000 H
   0.3706600000000000    0.5477600000000000    0.6290350000000000 H
   0.3706600000000000    0.5477600000000000    0.8790300000000000 H
   0.8706400000000000    0.0477500000000000    0.6290350000000000 H
   0.8706400000000000    0.0477500000000000    0.8790000000000000 H
   0.8706300000000000    0.5477400000000000    0.6290350000000000 H
   0.8706300000000000    0.5477400000000000    0.8790000000000000 H
   0.4189900000000000    0.3954600000000000    0.6031299999999999 H
   0.4189900000000000    0.3954600000000000    0.8531250000000000 H
   0.4189900000000000    0.8954500000000000    0.6031299999999999 H
   0.4189900000000000    0.8954500000000000    0.8531250000000000 H
   0.9189900000000000    0.3954500000000000    0.6031000000000000 H
   0.9190000000000000    0.3954500000000000    0.8531000000000000 H
   0.9189900000000000    0.8954400000000000    0.6031250000000000 H
   0.9189900000000000    0.8954400000000000    0.8531200000000000 H
   0.0113900000000000    0.3632300000000000    0.5655500000000000 H
   0.0113900000000000    0.3632300000000000    0.8155900000000000 H
   0.0113800000000000    0.8632200000000000    0.5655950000000000 H
   0.0113900000000000    0.8632200000000000    0.8155900000000000 H
   0.5113500000000000    0.3632200000000000    0.5655000000000000 H
   0.5113500000000000    0.3632200000000000    0.8155900000000000 H
   0.5113500000000000    0.8632100000000000    0.5655950000000000 H
   0.5113500000000000    0.8632100000000000    0.8155900000000000 H
   0.2177700000000000    0.3572000000000000    0.7469200000000000 H
   0.2177800000000000    0.3572000000000000    0.9969150000000000 H
   0.2177700000000000    0.8571900000000000    0.7469200000000000 H
   0.2177700000000000    0.8571900000000000    0.9969150000000000 H
   0.7177700000000000    0.3572000000000000    0.7469200000000000 H
   0.7177700000000000    0.3571900000000000    0.9969000000000000 H
   0.7177600000000000    0.8571900000000000    0.7469200000000000 H
   0.7177600000000000    0.8571900000000000    0.9969200000000000 H
   0.3177900000000000    0.2803200000000000    0.6908350000000000 H
   0.3177900000000000    0.2803100000000000    0.9408000000000001 H
   0.3177900000000000    0.7803099999999999    0.6908350000000000 H
   0.3177900000000000    0.7803099999999999    0.9408000000000001 H
   0.8177900000000000    0.2803200000000000    0.6908000000000000 H
   0.8177900000000000    0.2803100000000000    0.9408350000000000 H
   0.8177900000000000    0.7803099999999999    0.6908400000000000 H
   0.8177900000000000    0.7803099999999999    0.9408350000000000 H
   0.3793500000000000    0.2419200000000000    0.7261000000000000 H
   0.3793500000000000    0.2419200000000000    0.9760000000000000 H
   0.3793500000000000    0.7419100000000000    0.7261000000000000 H
   0.3793500000000000    0.7419100000000000    0.9760000000000000 H
   0.8793500000000000    0.2419200000000000    0.7261050000000000 H
   0.8793500000000000    0.2419200000000000    0.9761000000000000 H
   0.8793400000000000    0.7419200000000000    0.7261050000000000 H
   0.8793400000000000    0.7419100000000000    0.9761000000000000 H
   0.3310100000000000    0.2937300000000000    0.5522600000000000 H
   0.3310100000000000    0.2937200000000000    0.8022549999999999 H
   0.3310000000000000    0.7937200000000000    0.5522600000000000 H
   0.3310000000000000    0.7937200000000000    0.8022549999999999 H
   0.8310000000000000    0.2937300000000000    0.5522600000000000 H
   0.8310000000000000    0.2937200000000000    0.8022549999999999 H
   0.8310000000000000    0.7937200000000000    0.5522600000000000 H
   0.8310000000000000    0.7937200000000000    0.8022549999999999 H
   0.2386400000000000    0.3687800000000000    0.5683800000000000 H
   0.2386400000000000    0.3687800000000000    0.8183750000000001 H
   0.2386300000000000    0.8687700000000000    0.5683800000000000 H
   0.2386300000000000    0.8687700000000000    0.8183750000000001 H
   0.7386400000000000    0.3687800000000000    0.5683800000000000 H
   0.7386400000000000    0.3687800000000000    0.8183750000000001 H
   0.7386300000000000    0.8687700000000000    0.5683800000000000 H
   0.7386300000000000    0.8687700000000000    0.8183750000000001 H
   0.4677700000000000    0.4938500000000000    0.6785950000000001 H
   0.4677800000000000    0.4938500000000000    0.9285900000000000 H
   0.4677700000000000    0.9938399999999999    0.6785950000000001 H
   0.4677700000000000    0.9938399999999999    0.9285900000000000 H
   0.9677600000000000    0.4938400000000000    0.6785900000000000 H
   0.9677600000000000    0.4938400000000000    0.9285850000000000 H
   0.9677600000000000    0.9938300000000000    0.6785900000000000 H
   0.9677600000000000    0.9938300000000000    0.9285850000000000 H
   0.0678300000000000    0.3816900000000000    0.6401399999999999 H
   0.0678300000000000    0.3816900000000000    0.8901350000000000 H
   0.0678200000000000    0.8816800000000000    0.6401399999999999 H
   0.0678200000000000    0.8816800000000000    0.8901000000000000 H
   0.5677900000000000    0.3816800000000000    0.6401450000000000 H
   0.5677900000000000    0.3816800000000000    0.8901399999999999 H
   0.5677800000000000    0.8816800000000000    0.6401450000000000 H
   0.5677900000000000    0.8816800000000000    0.8901399999999999 H
   0.1293700000000000    0.4522400000000000    0.6209500000000000 H
   0.1293700000000000    0.4522400000000000    0.8709450000000001 H
   0.1293600000000000    0.9522300000000000    0.6209500000000000 H
   0.1293700000000000    0.9522300000000000    0.8709450000000001 H
   0.6293500000000000    0.4522200000000000    0.6205000000000001 H
   0.6293500000000000    0.4522200000000000    0.8709000000000000 H
   0.6293400000000000    0.9522100000000000    0.6205000000000001 H
   0.6293400000000000    0.9522100000000000    0.8709450000000001 H
   0.0810100000000000    0.1045400000000000    0.6468600000000000 H
   0.0810200000000000    0.1045400000000000    0.8968550000000000 H
   0.0810000000000000    0.6045300000000000    0.6468600000000000 H
   0.0810100000000000    0.6045300000000000    0.8968550000000000 H
   0.5810100000000000    0.1045300000000000    0.6468550000000000 H
   0.5810100000000000    0.1045300000000000    0.8965000000000001 H
   0.5810100000000000    0.6045300000000000    0.6468550000000000 H
   0.5810100000000000    0.6045199999999999    0.8968499999999999 H
   0.4886500000000000    0.1367700000000000    0.6843850000000000 H
   0.4886600000000000    0.1367700000000000    0.9343800000000000 H
   0.4886500000000000    0.6367600000000000    0.6843850000000000 H
   0.4886500000000000    0.6367600000000000    0.9343800000000000 H
   0.9886100000000000    0.1367600000000000    0.6843900000000001 H
   0.9886200000000001    0.1367600000000000    0.9343850000000000 H
   0.9886100000000000    0.6367500000000000    0.6843900000000001 H
   0.9886100000000000    0.6367500000000000    0.9343850000000000 H
   0.2822400000000000    0.1427900000000000    0.5030600000000000 H
   0.2822400000000000    0.1427900000000000    0.7530550000000000 H
   0.2822400000000000    0.6427800000000000    0.5030600000000000 H
   0.2822300000000000    0.6427800000000000    0.7530550000000000 H
   0.7822300000000000    0.1427900000000000    0.5030600000000000 H
   0.7822300000000000    0.1427900000000000    0.7530550000000000 H
   0.7822300000000000    0.6427800000000000    0.5030600000000000 H
   0.7822300000000000    0.6427800000000000    0.7530550000000000 H
   0.1822200000000000    0.2196700000000000    0.5591450000000000 H
   0.1822200000000000    0.2196700000000000    0.8091400000000000 H
   0.1822100000000000    0.7196700000000000    0.5591450000000000 H
   0.1822100000000000    0.7196600000000000    0.8091400000000000 H
   0.6822100000000000    0.2196700000000000    0.5591450000000000 H
   0.6822100000000000    0.2196700000000000    0.8091400000000000 H
   0.6822100000000000    0.7196700000000000    0.5591450000000000 H
   0.6822100000000000    0.7196600000000000    0.8091400000000000 H
   0.1206600000000000    0.2580700000000000    0.5238750000000000 H
   0.1206600000000000    0.2580600000000000    0.7738700000000001 H
   0.1206500000000000    0.7580600000000000    0.5238750000000000 H
   0.1206600000000000    0.7580500000000000    0.7738700000000001 H
   0.6206600000000000    0.2580700000000000    0.5238800000000000 H
   0.6206500000000000    0.2580600000000000    0.7738750000000000 H
   0.6206500000000000    0.7580600000000000    0.5238800000000000 H
   0.6206500000000000    0.7580600000000000    0.7738750000000000 H
   0.1690000000000000    0.2062600000000000    0.6977200000000000 H
   0.1690000000000000    0.2062600000000000    0.9477150000000000 H
   0.1690000000000000    0.7062600000000000    0.6977200000000000 H
   0.1690000000000000    0.7062500000000000    0.9477000000000000 H
   0.6690000000000000    0.2062600000000000    0.6977200000000000 H
   0.6690000000000000    0.2062600000000000    0.9477200000000000 H
   0.6689900000000000    0.7062500000000000    0.6977200000000000 H
   0.6690000000000000    0.7062500000000000    0.9477200000000000 H
   0.2613700000000000    0.1312100000000000    0.6816000000000000 H
   0.2613700000000000    0.1312000000000000    0.9315950000000000 H
   0.2613700000000000    0.6312000000000000    0.6816000000000000 H
   0.2613700000000000    0.6312000000000000    0.9315950000000000 H
   0.7613700000000000    0.1312100000000000    0.6816050000000000 H
   0.7613700000000000    0.1312100000000000    0.9316000000000000 H
   0.7613600000000000    0.6312000000000000    0.6816000000000000 H
   0.7613600000000000    0.6312000000000000    0.9316000000000000 H
   0.8095000000000000    0.7610300000000000    0.4681750000000000 C
   0.2630500000000000    0.3124100000000000    0.0422000000000000 C
   0.2630500000000000    0.3124100000000000    0.2922350000000000 C
   0.2630400000000000    0.8124000000000000    0.0422400000000000 C
   0.4405000000000000    0.0636200000000000    0.1194750000000000 C
   0.4405000000000000    0.0636200000000000    0.3694700000000000 C
   0.4405000000000000    0.5636100000000001    0.3694700000000000 C
   0.9404800000000000    0.0636100000000000    0.1194750000000000 C
   0.9404800000000000    0.0636100000000000    0.3694700000000000 C
   0.9404700000000000    0.5636100000000001    0.1194750000000000 C
   0.9404700000000000    0.5636000000000000    0.3694700000000000 C
   0.4869500000000000    0.4155000000000000    0.3437800000000000 C
   0.4869400000000000    0.9154900000000000    0.0937850000000000 C
   0.4869500000000000    0.9154900000000000    0.3437800000000000 C
   0.9869500000000000    0.4155000000000000    0.0937800000000000 C
   0.9869500000000000    0.4155000000000000    0.3437750000000000 C
   0.9869400000000000    0.9154900000000000    0.0937800000000000 C
   0.9869500000000000    0.9154900000000000    0.3437750000000000 C
   0.3095100000000000    0.2610400000000000    0.2181800000000000 C
   0.3095000000000000    0.2610400000000000    0.4681750000000000 C
   0.3095000000000000    0.7610300000000000    0.2181800000000000 C
   0.3095000000000000    0.7610300000000000    0.4681750000000000 C
   0.8095000000000000    0.2610400000000000    0.2181800000000000 C
   0.8095000000000000    0.2610400000000000    0.4681750000000000 C
   0.8094900000000000    0.7610300000000000    0.2181800000000000 C
   0.2630400000000000    0.8124000000000000    0.2922350000000000 C
   0.7630400000000001    0.3124100000000000    0.0422400000000000 C
   0.7630400000000001    0.3124100000000000    0.2922350000000000 C
   0.7630400000000001    0.8124000000000000    0.0422400000000000 C
   0.7630400000000001    0.8124000000000000    0.2922350000000000 C
   0.0595200000000000    0.4363800000000000    0.1305050000000000 C
   0.0595300000000000    0.4363700000000000    0.3805000000000000 C
   0.0595200000000000    0.9363700000000000    0.1305050000000000 C
   0.0595300000000000    0.9363700000000000    0.3805000000000000 C
   0.5595000000000000    0.4363700000000000    0.3805050000000000 C
   0.5595000000000000    0.9363600000000000    0.1305100000000000 C
   0.5595000000000000    0.9363600000000000    0.3805050000000000 C
   0.0130500000000000    0.0844900000000000    0.1562000000000000 C
   0.0130600000000000    0.0844900000000000    0.4061950000000000 C
   0.0130500000000000    0.5844800000000000    0.1562000000000000 C
   0.0130500000000000    0.5844800000000000    0.4061950000000000 C
   0.5130500000000000    0.0844900000000000    0.1562000000000000 C
   0.5130500000000000    0.0844900000000000    0.4061900000000000 C
   0.5130500000000000    0.5844800000000000    0.4061950000000000 C
   0.1905000000000000    0.2389500000000000    0.0318000000000000 C
   0.1905100000000000    0.2389500000000000    0.2817950000000000 C
   0.1905000000000000    0.7389400000000000    0.0318000000000000 C
   0.1905000000000000    0.7389400000000000    0.2817950000000000 C
   0.6905000000000000    0.2389500000000000    0.0318000000000000 C
   0.6905000000000000    0.2389500000000000    0.2818000000000000 C
   0.6905000000000000    0.7389400000000000    0.0318000000000000 C
   0.6904900000000000    0.7389400000000000    0.2818000000000000 C
   0.2369600000000000    0.1875800000000000    0.2077400000000000 C
   0.2369600000000000    0.1875800000000000    0.4577350000000000 C
   0.2369600000000000    0.6875700000000000    0.2077400000000000 C
   0.2369600000000000    0.6875700000000000    0.4577350000000000 C
   0.7369599999999999    0.1875800000000000    0.2077400000000000 C
   0.7369599999999999    0.1875800000000000    0.4577400000000000 C
   0.7369500000000000    0.6875700000000000    0.2077400000000000 C
   0.7369500000000000    0.6875700000000000    0.4577400000000000 C
   0.8095000000000000    0.7610300000000000    0.9681750000000000 C
   0.2630500000000000    0.3124100000000000    0.5422000000000000 C
   0.2630500000000000    0.3124100000000000    0.7922350000000000 C
   0.2630400000000000    0.8124000000000000    0.5422400000000001 C
   0.4405000000000000    0.0636200000000000    0.6194750000000000 C
   0.4405000000000000    0.0636200000000000    0.8694700000000000 C
   0.4405000000000000    0.5636100000000001    0.6194750000000000 C
   0.4405000000000000    0.5636100000000001    0.8694700000000000 C
   0.9404800000000000    0.0636100000000000    0.6194750000000000 C
   0.9404800000000000    0.0636100000000000    0.8694700000000000 C
   0.9404700000000000    0.5636100000000001    0.6194750000000000 C
   0.9404700000000000    0.5636000000000000    0.8694700000000000 C
   0.4869500000000000    0.4155000000000000    0.5937850000000000 C
   0.4869500000000000    0.4155000000000000    0.8437800000000000 C
   0.4869400000000000    0.9154900000000000    0.5937850000000000 C
   0.4869500000000000    0.9154900000000000    0.8437800000000000 C
   0.9869500000000000    0.4155000000000000    0.5937800000000000 C
   0.9869500000000000    0.4155000000000000    0.8437749999999999 C
   0.9869400000000000    0.9154900000000000    0.5937800000000000 C
   0.9869500000000000    0.9154900000000000    0.8437749999999999 C
   0.3095100000000000    0.2610400000000000    0.7181800000000000 C
   0.3095000000000000    0.2610400000000000    0.9681750000000000 C
   0.3095000000000000    0.7610300000000000    0.7181800000000000 C
   0.3095000000000000    0.7610300000000000    0.9681750000000000 C
   0.8095000000000000    0.2610400000000000    0.7181800000000000 C
   0.8095000000000000    0.2610400000000000    0.9681750000000000 C
   0.8094900000000000    0.7610300000000000    0.7181800000000000 C
   0.2630400000000000    0.8124000000000000    0.7922350000000000 C
   0.7630400000000001    0.3124100000000000    0.5422400000000001 C
   0.7630400000000001    0.3124100000000000    0.7922350000000000 C
   0.7630400000000001    0.8124000000000000    0.5422400000000001 C
   0.7630400000000001    0.8124000000000000    0.7922350000000000 C
   0.0595200000000000    0.4363800000000000    0.6305050000000000 C
   0.0595300000000000    0.4363700000000000    0.8805000000000001 C