H4 O2
1.0
  23.4159154178677511    0.0000000000000000    0.0629376140574667
  -0.0037498337137816   15.7295673330106780    0.3734346730425808
   0.0000000000000000    0.0000000000000000   36.0919999999999987
H O
4 2
direct
   0.3440733786251596    0.5041267412547580    0.4604801844247078 H
   0.4159915213239289    0.4991762468269187    0.4605288403154680 H
   0.4139349727379522    0.4814820069194920    0.1799580282262728 H
   0.3435631803451263    0.5056856954494967    0.1800895987302611 H
   0.3799500000000000    0.5008000000000000    0.4742800000000000 O
   0.3784800000000000    0.4926200000000000    0.1664000000000000 O
