H8 C12 N6
1.0
  23.4159154178677511    0.0000000000000000    0.0629376140574667
  -0.0037498337137816   15.7295673330106780    0.3734346730425808
   0.0000000000000000    0.0000000000000000   36.0919999999999987
H C N
8 12 6
direct
   0.2878900000000000    0.5103700000000000    0.4025300000000000 H
   0.4728400000000000    0.4989700000000000    0.4027050000000000 H
   0.2912100000000000    0.5063400000000000    0.4714500000000000 H
   0.4687300000000000    0.4961100000000000    0.4715750000000000 H
   0.2894400000000000    0.5279900000000000    0.2378000000000000 H
   0.4696000000000000    0.4683600000000000    0.2379000000000000 H
   0.2923400000000000    0.5231300000000000    0.1686750000000000 H
   0.4647100000000000    0.4625400000000000    0.1688350000000000 H
   0.3304500000000000    0.5053900000000000    0.4552400000000000 C
   0.3287900000000000    0.5071400000000000    0.4167500000000000 C
   0.4317600000000000    0.5006900000000000    0.4168400000000000 C
   0.4296700000000000    0.4985600000000000    0.4553100000000000 C
   0.3803900000000000    0.5046600000000000    0.3970150000000000 C
   0.3806700000000000    0.5057100000000000    0.3562200000000000 C
   0.3802900000000000    0.5026800000000000    0.2844700000000000 C
   0.3796100000000000    0.4987500000000000    0.2436400000000000 C
   0.3291800000000000    0.5139000000000000    0.2236850000000000 C
   0.4294100000000000    0.4800600000000000    0.2237500000000000 C
   0.3303500000000000    0.5106300000000000    0.1852700000000000 C
   0.4271200000000000    0.4773400000000000    0.1850000000000000 C
   0.3799500000000000    0.5008000000000000    0.4742800000000000 N
   0.4293100000000000    0.4816500000000000    0.3388650000000000 N
   0.3327000000000000    0.5320300000000000    0.3383550000000000 N
   0.4291500000000000    0.4805500000000000    0.3021800000000000 N
   0.3324500000000000    0.5298800000000000    0.3016650000000000 N
   0.3784800000000000    0.4926200000000000    0.1664000000000000 N
