H6 O4
1.0
  12.5715815756615843    0.0000000000000000    0.2931922346962398
   0.8671060416900436   12.8340739325728990    0.3071846443386340
   0.0000000000000000    0.0000000000000000   29.0279999999999987
H O
6 4
direct
   0.5039410121170284    0.4320048562297708    0.8961725263494069 H
   0.5694839007264402    0.4933252010102758    0.8535564991685257 H
   0.8206702842940113    0.9786668855430739    0.8646599008684893 H
   0.7815746741173099    0.2504657869941328    0.8759546551176158 H
   0.8951789380689359    0.1934221104691892    0.8775268979243275 H
   0.0381017465465220    0.1736585554979240    0.8848511391080901 H
   0.5081700000000000    0.4917900000000000    0.8748899999999999 O
   0.7641600000000000    0.9319400000000000    0.8593700000000000 O
   0.8573400000000000    0.2624200000000000    0.8779350000000000 O
   0.0741100000000000    0.2369900000000000    0.8906450000000000 O
