H6 O4
1.0
  12.5715815756615843    0.0000000000000000    0.2931922346962398
   0.8671060416900436   12.8340739325728990    0.3071846443386340
   0.0000000000000000    0.0000000000000000   29.0279999999999987
H O
6 4
direct
   0.4968835737604189    0.5688278561109485    0.1042493770952282 H
   0.4303883677085767    0.5067440067706583    0.1463377522327656 H
   0.1720128364211544    0.0308591621746721    0.1352762693077490 H
   0.1046971972555438    0.8065445900281771    0.1222494967983006 H
   0.2183331558501200    0.7495513441660633    0.1236613315994628 H
   0.9745600607572313    0.8175106132080641    0.1142851114985452 H
   0.4922700000000000    0.5087500000000000    0.1253400000000000 O
   0.2357100000000000    0.0678799999999999    0.1409700000000000 O
   0.1425900000000000    0.7375900000000000    0.1215800000000000 O
   0.9257500000000000    0.7630800000000000    0.1091050000000000 O
