Zn12 H56 C110 N33 O44
1.0
  12.5715815756615843    0.0000000000000000    0.2931922346962398
   0.8671060416900436   12.8340739325728990    0.3071846443386340
   0.0000000000000000    0.0000000000000000   29.0279999999999987
Zn H C N O
12 56 110 33 44
direct
   0.6256699999999999    0.0315200000000000    0.3630300000000000 Zn
   0.0276700000000000    0.6312700000000000    0.1115350000000000 Zn
   0.3742600000000000    0.9685100000000000    0.1368950000000000 Zn
   0.3888500000000000    0.6137400000000000    0.3749350000000000 Zn
   0.6113400000000000    0.3864900000000000    0.1250750000000000 Zn
   0.9721900000000000    0.3689000000000000    0.3872100000000000 Zn
   0.6256699999999999    0.0315200000000000    0.8630300000000000 Zn
   0.0276700000000000    0.6312700000000000    0.6115349999999999 Zn
   0.3742600000000000    0.9685100000000000    0.6368950000000000 Zn
   0.3888500000000000    0.6137400000000000    0.8749350000000000 Zn
   0.6113400000000000    0.3864900000000000    0.6250750000000000 Zn
   0.9721900000000000    0.3689000000000000    0.8872100000000001 Zn
   0.1762900000000000    0.4538900000000000    0.2549950000000000 H
   0.2319000000000000    0.5502000000000000    0.0580550000000000 H
   0.2870700000000000    0.5128200000000001    0.4773100000000000 H
   0.9726399999999999    0.6319700000000000    0.4364450000000000 H
   0.9310500000000000    0.6685800000000000    0.0193700000000000 H
   0.5935300000000000    0.5591200000000000    0.3208700000000000 H
   0.7409200000000000    0.4214600000000000    0.3203750000000000 H
   0.5445100000000000    0.8280000000000000    0.4948450000000000 H
   0.4610100000000000    0.7702800000000000    0.1908500000000000 H
   0.4950500000000000    0.7162600000000000    0.2720100000000000 H
   0.3610900000000000    0.0199300000000000    0.3122250000000000 H
   0.3290200000000000    0.0609800000000000    0.2289550000000000 H
   0.4352800000000000    0.4110800000000000    0.4287100000000000 H
   0.5705400000000000    0.2621400000000000    0.4295950000000000 H
   0.8278900000000000    0.5415600000000000    0.2450150000000000 H
   0.7675400000000000    0.4507400000000000    0.4412400000000000 H
   0.7126200000000000    0.4875100000000000    0.0220650000000000 H
   0.0275000000000000    0.3688800000000000    0.0625250000000000 H
   0.0686700000000000    0.3325500000000000    0.4795700000000000 H
   0.4056700000000000    0.4404700000000000    0.1787250000000000 H
   0.2577700000000000    0.5777500000000000    0.1787800000000000 H
   0.4504300000000000    0.1754000000000000    0.0055950000000000 H
   0.5384800000000000    0.2294900000000000    0.3091200000000000 H
   0.5040800000000000    0.2837600000000000    0.2280300000000000 H
   0.6390500000000000    0.9806700000000000    0.1874900000000000 H
   0.6713500000000000    0.9393200000000000    0.2707200000000000 H
   0.5664700000000000    0.5903800000000000    0.0722000000000000 H
   0.4305300000000000    0.7388300000000000    0.0709050000000000 H
   0.0022200000000000    0.0000000000000000    0.3744450000000000 H
   0.0000000000000000    0.0104600000000000    0.1267350000000000 H
   0.1762900000000000    0.4538900000000000    0.7549950000000001 H
   0.2319000000000000    0.5502000000000000    0.5580550000000000 H
   0.2870700000000000    0.5128200000000001    0.9773100000000000 H
   0.9726399999999999    0.6319700000000000    0.9364450000000000 H
   0.9310500000000000    0.6685800000000000    0.5193700000000000 H
   0.5445100000000000    0.8280000000000000    0.9948450000000000 H
   0.4610100000000000    0.7702800000000000    0.6908500000000000 H
   0.4950500000000000    0.7162600000000000    0.7720100000000000 H
   0.3610900000000000    0.0199300000000000    0.8122250000000000 H
   0.3290200000000000    0.0609800000000000    0.7289550000000000 H
   0.8278900000000000    0.5415600000000000    0.7450150000000000 H
   0.7675400000000000    0.4507400000000000    0.9412400000000001 H
   0.7126200000000000    0.4875100000000000    0.5220650000000000 H
   0.0275000000000000    0.3688800000000000    0.5625249999999999 H
   0.0686700000000000    0.3325500000000000    0.9795700000000001 H
   0.4056700000000000    0.4404700000000000    0.6787250000000000 H
   0.2577700000000000    0.5777500000000000    0.6787799999999999 H
   0.4504300000000000    0.1754000000000000    0.5055950000000000 H
   0.5384800000000000    0.2294900000000000    0.8091200000000001 H
   0.5040800000000000    0.2837600000000000    0.7280300000000000 H
   0.6390500000000000    0.9806700000000000    0.6874899999999999 H
   0.6713500000000000    0.9393200000000000    0.7707200000000001 H
   0.5664700000000000    0.5903800000000000    0.5722000000000000 H
   0.4305300000000000    0.7388300000000000    0.5709050000000000 H
   0.0022200000000000    0.0000000000000000    0.8744449999999999 H
   0.0000000000000000    0.0104600000000000    0.6267350000000000 H
   0.1524100000000000    0.5348900000000000    0.4020600000000000 C
   0.1220300000000000    0.4779800000000000    0.3339350000000000 C
   0.2192100000000000    0.5233100000000001    0.3322800000000000 C
   0.0630500000000000    0.4243700000000000    0.2996050000000000 C
   0.2956500000000000    0.5394300000000000    0.2935750000000000 C
   0.1762200000000000    0.5666300000000000    0.0301850000000000 C
   0.2065300000000000    0.5448800000000000    0.4849150000000000 C
   0.1318200000000000    0.5643700000000000    0.4501150000000000 C
   0.0315400000000000    0.6115400000000000    0.4626050000000000 C
   0.0080200000000000    0.6320400000000000    0.0085350000000000 C
   0.9101900000000001    0.1660500000000000    0.3773650000000000 C
   0.0269700000000000    0.1540800000000000    0.3830600000000000 C
   0.5928400000000000    0.4939100000000000    0.3454300000000000 C
   0.6751100000000000    0.4163400000000000    0.3451550000000000 C
   0.4648500000000000    0.8471700000000000    0.3473250000000000 C
   0.5205100000000000    0.8795300000000000    0.4156250000000000 C
   0.4777200000000000    0.7828000000000001    0.4172300000000000 C
   0.5729200000000000    0.9390100000000000    0.4500550000000000 C
   0.4637900000000000    0.7078300000000000    0.4560400000000000 C
   0.4407500000000000    0.8239700000000000    0.2186800000000000 C
   0.4605800000000000    0.7942900000000001    0.2641800000000000 C
   0.4362400000000000    0.8663900000000000    0.2989750000000000 C
   0.3858300000000000    0.9632800000000000    0.2861600000000000 C
   0.3676600000000000    0.9864300000000000    0.2399950000000000 C
   0.8349800000000001    0.0924600000000000    0.3731800000000000 C
   0.8464699999999999    0.0000000000000000    0.3670750000000000 C
   0.5023300000000001    0.4092300000000000    0.4042800000000000 C
   0.5785500000000000    0.3259300000000000    0.4047300000000000 C
   0.8478700000000000    0.4652800000000000    0.0972850000000000 C
   0.8795600000000000    0.5208300000000000    0.1655550000000000 C
   0.7824800000000000    0.4752600000000000    0.1673550000000000 C
   0.9392800000000000    0.5736100000000000    0.1999450000000000 C
   0.7067099999999999    0.4584900000000000    0.2062600000000000 C
   0.8234300000000000    0.4342900000000000    0.4690350000000000 C
   0.7932300000000000    0.4557000000000000    0.0143700000000000 C
   0.8681200000000000    0.4363100000000000    0.0491050000000000 C
   0.9683800000000000    0.3893000000000000    0.0364500000000000 C
   0.9917300000000000    0.3690500000000000    0.4904750000000000 C
   0.0896700000000000    0.8338900000000000    0.1225150000000000 C
   0.0000000000000000    0.8458800000000000    0.1169850000000000 C
   0.4068200000000000    0.5059800000000000    0.1543350000000000 C
   0.3243500000000000    0.5833700000000001    0.1544250000000000 C
   0.5346000000000000    0.1534100000000000    0.1525900000000000 C
   0.4775900000000000    0.1219700000000000    0.0844150000000000 C
   0.5204700000000000    0.2186500000000000    0.0828600000000000 C
   0.4248100000000000    0.0627900000000000    0.0500050000000000 C
   0.5338600000000000    0.2941200000000000    0.0441800000000000 C
   0.5589400000000000    0.1759900000000000    0.2812400000000000 C
   0.5389400000000000    0.2058300000000000    0.2357700000000000 C
   0.5635000000000000    0.1339700000000000    0.2008950000000000 C
   0.6142000000000000    0.0371500000000000    0.2136150000000000 C
   0.6325100000000000    0.0138400000000000    0.2597650000000000 C
   0.1648100000000000    0.9074800000000000    0.1269550000000000 C
   0.1532600000000000    0.0199600000000000    0.1336000000000000 C
   0.4986400000000000    0.5917000000000000    0.0962200000000000 C
   0.4222200000000000    0.6748100000000000    0.0956100000000000 C
   0.7523200000000000    0.2458500000000000    0.3751900000000000 C
   0.6677800000000000    0.3297000000000000    0.3750050000000000 C
   0.2475800000000000    0.7541700000000000    0.1244650000000000 C
   0.3321500000000000    0.6703600000000000    0.1248000000000000 C
   0.1524100000000000    0.5348900000000000    0.9020600000000000 C
   0.1220300000000000    0.4779800000000000    0.8339350000000000 C
   0.2192100000000000    0.5233100000000001    0.8322800000000000 C
   0.0630500000000000    0.4243700000000000    0.7996050000000000 C
   0.2956500000000000    0.5394300000000000    0.7935749999999999 C
   0.1762200000000000    0.5666300000000000    0.5301850000000000 C
   0.2065300000000000    0.5448800000000000    0.9849150000000000 C
   0.1318200000000000    0.5643700000000000    0.9501150000000000 C
   0.0315400000000000    0.6115400000000000    0.9626049999999999 C
   0.0080200000000000    0.6320400000000000    0.5085350000000000 C
   0.4648500000000000    0.8471700000000000    0.8473250000000000 C
   0.5205100000000000    0.8795300000000000    0.9156250000000000 C
   0.4777200000000000    0.7828000000000001    0.9172300000000000 C
   0.5729200000000000    0.9390100000000000    0.9500550000000000 C
   0.4637900000000000    0.7078300000000000    0.9560400000000000 C
   0.4407500000000000    0.8239700000000000    0.7186800000000000 C
   0.4605800000000000    0.7942900000000001    0.7641800000000001 C
   0.4362400000000000    0.8663900000000000    0.7989750000000000 C
   0.3858300000000000    0.9632800000000000    0.7861600000000000 C
   0.3676600000000000    0.9864300000000000    0.7399950000000000 C
   0.8478700000000000    0.4652800000000000    0.5972850000000000 C
   0.8795600000000000    0.5208300000000000    0.6655550000000000 C
   0.7824800000000000    0.4752600000000000    0.6673550000000000 C
   0.9392800000000000    0.5736100000000000    0.6999450000000000 C
   0.7067099999999999    0.4584900000000000    0.7062600000000000 C
   0.8234300000000000    0.4342900000000000    0.9690350000000000 C
   0.7932300000000000    0.4557000000000000    0.5143700000000000 C
   0.8681200000000000    0.4363100000000000    0.5491050000000000 C
   0.9683800000000000    0.3893000000000000    0.5364500000000000 C
   0.9917300000000000    0.3690500000000000    0.9904750000000000 C
   0.0896700000000000    0.8338900000000000    0.6225150000000000 C
   0.0000000000000000    0.8458800000000000    0.6169850000000000 C
   0.4068200000000000    0.5059800000000000    0.6543350000000000 C
   0.3243500000000000    0.5833700000000001    0.6544250000000000 C
   0.5346000000000000    0.1534100000000000    0.6525900000000000 C
   0.4775900000000000    0.1219700000000000    0.5844150000000000 C
   0.5204700000000000    0.2186500000000000    0.5828600000000000 C
   0.4248100000000000    0.0627900000000000    0.5500050000000000 C
   0.5338600000000000    0.2941200000000000    0.5441800000000000 C
   0.5589400000000000    0.1759900000000000    0.7812399999999999 C
   0.5389400000000000    0.2058300000000000    0.7357700000000000 C
   0.5635000000000000    0.1339700000000000    0.7008950000000000 C
   0.6142000000000000    0.0371500000000000    0.7136150000000000 C
   0.6325100000000000    0.0138400000000000    0.7597650000000000 C
   0.1648100000000000    0.9074800000000000    0.6269550000000000 C
   0.1532600000000000    0.0199600000000000    0.6335999999999999 C
   0.4986400000000000    0.5917000000000000    0.5962200000000000 C
   0.4222200000000000    0.6748100000000000    0.5956100000000000 C
   0.2475800000000000    0.7541700000000000    0.6244650000000000 C
   0.3321500000000000    0.6703600000000000    0.6248000000000000 C
   0.0801000000000000    0.4857000000000000    0.3778900000000000 N
   0.2386000000000000    0.5580700000000000    0.3754700000000000 N
   0.0780300000000000    0.6073200000000000    0.0423200000000000 N
   0.8573400000000000    0.2624200000000000    0.3779350000000000 N
   0.5120800000000000    0.9198700000000000    0.3715900000000000 N
   0.4437400000000000    0.7621300000000000    0.3739700000000000 N
   0.3974400000000000    0.9191900000000000    0.2062700000000000 N
   0.7355800000000000    0.1435200000000000    0.3724800000000000 N
   0.9205500000000000    0.5141600000000000    0.1214100000000000 N
   0.7621800000000000    0.4415100000000000    0.1240800000000000 N
   0.9215700000000000    0.3937300000000000    0.4567400000000000 N
   0.1425900000000000    0.7375900000000000    0.1215800000000000 N
   0.4870100000000000    0.0809800000000000    0.1283100000000000 N
   0.5552800000000000    0.2387200000000000    0.1260500000000000 N
   0.6025900000000000    0.0808400000000000    0.2935650000000000 N
   0.2642600000000000    0.8564700000000000    0.1274700000000000 N
   0.5081700000000000    0.4917900000000000    0.3748900000000000 N
   0.4922700000000000    0.5087500000000000    0.1253400000000000 N
   0.0801000000000000    0.4857000000000000    0.8778900000000001 N
   0.2386000000000000    0.5580700000000000    0.8754700000000000 N
   0.0780300000000000    0.6073200000000000    0.5423200000000000 N
   0.5120800000000000    0.9198700000000000    0.8715900000000000 N
   0.4437400000000000    0.7621300000000000    0.8739700000000000 N
   0.3974400000000000    0.9191900000000000    0.7062700000000000 N
   0.9205500000000000    0.5141600000000000    0.6214100000000000 N
   0.7621800000000000    0.4415100000000000    0.6240800000000000 N
   0.9215700000000000    0.3937300000000000    0.9567399999999999 N
   0.1425900000000000    0.7375900000000000    0.6215800000000000 N
   0.4870100000000000    0.0809800000000000    0.6283100000000000 N
   0.5552800000000000    0.2387200000000000    0.6260500000000000 N
   0.6025900000000000    0.0808400000000000    0.7935650000000001 N
   0.2642600000000000    0.8564700000000000    0.6274700000000000 N
   0.4922700000000000    0.5087500000000000    0.6253400000000000 N
   0.9778400000000000    0.3858500000000000    0.3120400000000000 O
   0.1020400000000000    0.4176300000000000    0.2575850000000000 O
   0.3758900000000000    0.5904400000000000    0.3023900000000000 O
   0.2767100000000000    0.5017400000000000    0.2546650000000000 O
   0.0741100000000000    0.2369900000000000    0.3906450000000000 O
   0.0733100000000000    0.0632200000000000    0.3807950000000000 O
   0.6109100000000000    0.0230700000000000    0.4374750000000000 O
   0.5792900000000000    0.9021800000000000    0.4922100000000000 O
   0.4162700000000000    0.6264900000000000    0.4472600000000000 O
   0.5001400000000000    0.7288700000000000    0.4951100000000000 O
   0.7641600000000000    0.9319400000000000    0.3593700000000000 O
   0.9409300000000000    0.9326200000000000    0.3690100000000000 O
   0.0235800000000000    0.6134100000000000    0.1873200000000000 O
   0.9018900000000000    0.5781500000000001    0.2422900000000000 O
   0.6253400000000000    0.4090400000000000    0.1974450000000000 O
   0.7272900000000000    0.4940800000000000    0.2453900000000000 O
   0.9257500000000000    0.7630800000000000    0.1091050000000000 O
   0.9264500000000000    0.9366000000000000    0.1196900000000000 O
   0.3884600000000000    0.9778300000000000    0.0623850000000000 O
   0.4162200000000000    0.1010000000000000    0.0081150000000000 O
   0.5834900000000000    0.3742500000000000    0.0528000000000000 O
   0.4952800000000000    0.2745900000000000    0.0053650000000000 O
   0.2357100000000000    0.0678800000000000    0.1409700000000000 O
   0.0586000000000000    0.0670200000000000    0.1325550000000000 O
   0.9778400000000000    0.3858500000000000    0.8120400000000000 O
   0.1020400000000000    0.4176300000000000    0.7575850000000000 O
   0.3758900000000000    0.5904400000000000    0.8023899999999999 O
   0.2767100000000000    0.5017400000000000    0.7546649999999999 O
   0.6109100000000000    0.0230700000000000    0.9374750000000001 O
   0.5792900000000000    0.9021800000000000    0.9922100000000000 O
   0.4162700000000000    0.6264900000000000    0.9472600000000000 O
   0.5001400000000000    0.7288700000000000    0.9951099999999999 O
   0.0235800000000000    0.6134100000000000    0.6873199999999999 O
   0.9018900000000000    0.5781500000000001    0.7422900000000000 O
   0.6253400000000000    0.4090400000000000    0.6974450000000000 O
   0.7272900000000000    0.4940800000000000    0.7453900000000000 O
   0.9257500000000000    0.7630800000000000    0.6091050000000000 O
   0.9264500000000000    0.9366000000000000    0.6196900000000000 O
   0.3884600000000000    0.9778300000000000    0.5623850000000000 O
   0.4162200000000000    0.1010000000000000    0.5081150000000000 O
   0.5834900000000000    0.3742500000000000    0.5528000000000000 O
   0.4952800000000000    0.2745900000000000    0.5053650000000000 O
   0.2357100000000000    0.0678800000000000    0.6409700000000000 O
   0.0586000000000000    0.0670200000000000    0.6325550000000000 O
