H4 C8 O9
1.0
  18.5909920461169946    0.0000000000000000    0.0171971280931134
  -4.6262587586874133   13.4789878656791959   -2.2670500688209332
   0.0000000000000000    0.0000000000000000   34.9179999999999993
H C O
4 8 9
direct
   0.5969100000000001    0.5210200000000000    0.5874150000000000 H
   0.6563099999999999    0.4027800000000000    0.5228400000000000 H
   0.6670300000000000    0.2892900000000000    0.5629750000000000 H
   0.7464900000000000    0.4337000000000000    0.6221500000000000 H
   0.6438800000000000    0.5125300000000000    0.5697000000000000 C
   0.6226300000000000    0.4047300000000000    0.5487600000000000 C
   0.6538200000000000    0.3541400000000000    0.5778150000000000 C
   0.7280799999999999    0.4380100000000000    0.5928200000000000 C
   0.6611800000000000    0.5868200000000000    0.5415500000000000 C
   0.5396700000000000    0.3547300000000000    0.5339000000000000 C
   0.6057800000000000    0.3228200000000000    0.6123750000000000 C
   0.7938200000000000    0.4391600000000000    0.5657900000000000 C
   0.7096200000000000    0.5288000000000000    0.5955250000000000 O
   0.7280500000000000    0.6453800000000000    0.5397700000000000 O
   0.6031300000000001    0.5828800000000000    0.5212600000000001 O
   0.4899300000000000    0.3905800000000000    0.5497450000000000 O
   0.5249900000000000    0.2813400000000000    0.5068250000000000 O
   0.5580100000000000    0.3672300000000000    0.6226850000000000 O
   0.6189900000000000    0.2562200000000000    0.6283000000000000 O
   0.8094700000000000    0.3577900000000000    0.5599050000000000 O
   0.8270300000000000    0.5154000000000000    0.5515500000000000 O
