H4 O2
1.0
  18.5909920461169946    0.0000000000000000    0.0171971280931134
  -4.6262587586874133   13.4789878656791959   -2.2670500688209332
   0.0000000000000000    0.0000000000000000   34.9179999999999993
H O
4 2
direct
   0.3500839940506238    0.2189813138226590    0.6257914803536272 H
   0.4217263014588593    0.1727077500621062    0.6184789794573160 H
   0.1443427393728417    0.8393351619899703    0.5230138040752899 H
   0.2228735763206344    0.8255217518767721    0.5026328253177810 H
   0.4032000000000000    0.2253500000000000    0.6313350000000000 O
   0.1675400000000000    0.8015400000000000    0.5040800000000000 O
