H8 C10 N2
1.0
  18.5909920461169946    0.0000000000000000    0.0171971280931134
  -4.6262587586874133   13.4789878656791959   -2.2670500688209332
   0.0000000000000000    0.0000000000000000   34.9179999999999993
H C N
8 10 2
direct
   0.2673100000000000    0.7897900000000000    0.4809550000000000 H
   0.3103100000000000    0.2759100000000000    0.6379800000000000 H
   0.2227500000000000    0.1366600000000000    0.5937000000000000 H
   0.4068200000000000    0.0132500000000000    0.5763350000000000 H
   0.4881400000000000    0.1615500000000000    0.6200050000000000 H
   0.0737600000000000    0.8241400000000000    0.5305000000000000 H
   0.1494500000000000    0.9757300000000000    0.5764000000000000 H
   0.3510400000000000    0.9421900000000000    0.5220950000000000 H
   0.3301400000000000    0.2165900000000000    0.6237100000000000 C
   0.2806200000000000    0.1367300000000000    0.5987250000000000 C
   0.3067800000000000    0.0607500000000000    0.5803500000000000 C
   0.3830700000000000    0.0705800000000000    0.5885850000000000 C
   0.4287500000000000    0.1527500000000000    0.6136050000000000 C
   0.1355200000000000    0.8537100000000000    0.5302150000000000 C
   0.1784200000000000    0.9385200000000000    0.5551900000000000 C
   0.2579300000000000    0.9731400000000000    0.5536200000000000 C
   0.2900300000000000    0.9192300000000000    0.5256600000000000 C
   0.2438200000000000    0.8346000000000000    0.5020850000000000 C
   0.4032000000000000    0.2253500000000000    0.6313350000000000 N
   0.1675400000000000    0.8015400000000000    0.5040800000000000 N
