H2 O2
1.0
  37.4639941569603963    0.0000000000000000    0.0209238437431570
  -0.0083282482253984   13.0436916723902385   -3.7498296222493868
   0.0000000000000000    0.0000000000000000   18.2190000000000012
H O
2 2
direct
   0.6244549936042638    0.0972883674291101    0.1440876070021244 H
   0.7088832951409576    0.9026697532088385    0.8559344920131766 H
   0.6343566666666667    0.1652400000000000    0.1683000000000000 O
   0.6989733333333333    0.8347200000000000    0.8317500000000000 O
