H12 C18 S2 N2
1.0
  37.4639941569603963    0.0000000000000000    0.0209238437431570
  -0.0083282482253984   13.0436916723902385   -3.7498296222493868
   0.0000000000000000    0.0000000000000000   18.2190000000000012
H C S N
12 18 2 2
direct
   0.6229100000000000    0.7299400000000000    0.0000000000000000 H
   0.5769033333333333    0.7770800000000000    0.9195500000000000 H
   0.6270366666666667    0.6113700000000000    0.7213100000000000 H
   0.6766866666666667    0.5622600000000000    0.7931900000000000 H
   0.6741499999999999    0.7170100000000000    0.0640000000000000 H
   0.7282333333333333    0.6314500000000000    0.1128200000000000 H
   0.8233100000000000    0.4376900000000000    0.2068500000000000 H
   0.8770899999999999    0.2700400000000000    0.9989800000000000 H
   0.9230933333333333    0.2228800000000000    0.0800000000000000 H
   0.8258433333333333    0.2829600000000000    0.9300000000000000 H
   0.7717600000000000    0.3685200000000000    0.8872300000000000 H
   0.8729533333333332    0.3885700000000000    0.2787300000000000 H
   0.6547766666666666    0.6080800000000000    0.8244400000000000 C
   0.6255299999999999    0.7029200000000000    0.9392400000000000 C
   0.5994866666666666    0.7292900000000000    0.8941600000000000 C
   0.6544766666666666    0.6407700000000000    0.9048100000000000 C
   0.6275233333333332    0.6368200000000001    0.7833200000000000 C
   0.7348300000000000    0.5312400000000000    0.9971500000000000 C
   0.6824333333333333    0.6127400000000000    0.9505300000000000 C
   0.6895266666666666    0.6542700000000000    0.0277600000000000 C
   0.7188366666666667    0.6088100000000000    0.0539000000000000 C
   0.8452200000000000    0.3918800000000000    0.1756000000000000 C
   0.8744666666666666    0.2970600000000000    0.0608000000000000 C
   0.7651666666666667    0.4687400000000000    0.0028900000000000 C
   0.8175666666666666    0.3872400000000000    0.0495100000000000 C
   0.9005099999999999    0.2706800000000000    0.1058800000000000 C
   0.8104700000000000    0.3457000000000000    0.9722900000000000 C
   0.8455199999999999    0.3591900000000000    0.0952300000000000 C
   0.7811600000000000    0.3911600000000000    0.9460600000000000 C
   0.8724700000000000    0.3631300000000000    0.2167200000000000 C
   0.7870833333333334    0.4840800000000000    0.0894100000000000 S
   0.7129166666666666    0.5158900000000000    0.9106300000000001 S
   0.6000666666666666    0.6970100000000000    0.8170200000000000 N
   0.8999299999999999    0.3029500000000000    0.1830200000000000 N
