Zn12 H252 C294 S22 N22 O48
1.0
  37.4639941569603963    0.0000000000000000    0.0209238437431570
  -0.0083282482253984   13.0436916723902385   -3.7498296222493868
   0.0000000000000000    0.0000000000000000   18.2190000000000012
Zn H C S N O
12 252 294 22 22 48
direct
   0.2299166666666667    0.7497700000000000    0.7502000000000000 Zn
   0.1034166666666667    0.2502100000000000    0.2498300000000000 Zn
   0.2700833333333333    0.2502000000000000    0.2498300000000000 Zn
   0.0632500000000000    0.7497800000000000    0.7502000000000000 Zn
   0.5632500000000000    0.7497700000000000    0.7502000000000000 Zn
   0.4367500000000000    0.2502100000000000    0.2498300000000000 Zn
   0.6034166666666667    0.2502000000000000    0.2498300000000000 Zn
   0.3965833333333333    0.7497800000000000    0.7502000000000000 Zn
   0.8965833333333333    0.7497700000000000    0.7502000000000000 Zn
   0.7700833333333333    0.2502100000000000    0.2498300000000000 Zn
   0.9367500000000000    0.2502000000000000    0.2498300000000000 Zn
   0.7299166666666667    0.7497800000000000    0.7502000000000000 Zn
   0.0109233333333333    0.9338500000000000    0.7070200000000000 H
   0.1775800000000000    0.9338600000000000    0.7070100000000000 H
   0.1224166666666667    0.7720200000000000    0.4993800000000000 H
   0.2890833333333333    0.7720399999999999    0.4993900000000000 H
   0.0386366666666667    0.0642800000000000    0.9515600000000000 H
   0.2053066666666667    0.0642100000000000    0.9514899999999999 H
   0.0765133333333333    0.7243800000000000    0.5811300000000000 H
   0.2431766666666667    0.7243900000000000    0.5811400000000000 H
   0.0612200000000000    0.9362500000000000    0.0144500000000000 H
   0.2278933333333333    0.9363200000000000    0.0145000000000000 H
   0.0222466666666667    0.8606900000000000    0.9857000000000000 H
   0.1889266666666666    0.8607000000000000    0.9858600000000000 H
   0.0188166666666667    0.9654100000000000    0.1219800000000000 H
   0.1854833333333333    0.9655400000000000    0.1220100000000000 H
   0.0257666666666667    0.0788500000000000    0.0946900000000000 H
   0.1924200000000000    0.0789300000000000    0.0946700000000000 H
   0.0070933333333333    0.7838700000000000    0.4358500000000000 H
   0.1737633333333333    0.7838600000000000    0.4358400000000000 H
   0.0611266666666667    0.8698000000000000    0.3869200000000000 H
   0.2277966666666667    0.8697900000000000    0.3869200000000000 H
   0.1281133333333333    0.8843600000000000    0.7791900000000000 H
   0.2947866666666666    0.8843299999999999    0.7792000000000000 H
   0.0100200000000000    0.5622600000000000    0.7931900000000000 H
   0.1766833333333333    0.5622700000000000    0.7931900000000000 H
   0.1229066666666667    0.7299200000000000    0.0000000000000000 H
   0.2895766666666666    0.7299400000000000    0.0000000000000000 H
   0.0382066666666667    0.4355500000000000    0.5494000000000000 H
   0.2048733333333334    0.4355400000000000    0.5494000000000000 H
   0.0769066666666667    0.7770800000000000    0.9195500000000000 H
   0.2435700000000000    0.7770800000000000    0.9195500000000000 H
   0.0614466666666667    0.5633100000000000    0.4867200000000000 H
   0.2281133333333333    0.5633100000000000    0.4867000000000000 H
   0.0224966666666667    0.6390600000000000    0.5145300000000000 H
   0.1891633333333333    0.6390600000000000    0.5145200000000000 H
   0.0194966666666667    0.5343599999999999    0.3783800000000000 H
   0.1861600000000000    0.5343500000000000    0.3783800000000000 H
   0.0260500000000000    0.4207600000000000    0.4057000000000000 H
   0.1927166666666667    0.4207600000000000    0.4057100000000000 H
   0.0074833333333333    0.7170100000000000    0.0640000000000000 H
   0.1741500000000000    0.7170000000000000    0.0640400000000000 H
   0.0615666666666667    0.6314500000000000    0.1128200000000000 H
   0.2282366666666667    0.6314500000000000    0.1128100000000000 H
   0.1270400000000000    0.6114000000000001    0.7213100000000000 H
   0.2937033333333333    0.6113700000000000    0.7213100000000000 H
   0.1557533333333333    0.0661100000000000    0.2930000000000000 H
   0.3224100000000000    0.0661100000000000    0.2930100000000000 H
   0.0442400000000000    0.2279400000000000    0.5006400000000000 H
   0.2109066666666666    0.2279600000000000    0.5006600000000000 H
   0.1280433333333333    0.9357200000000000    0.0485400000000000 H
   0.2947100000000000    0.9356800000000000    0.0485000000000000 H
   0.0901500000000000    0.2755900000000000    0.4189000000000000 H
   0.2568166666666666    0.2756200000000000    0.4189100000000000 H
   0.1054533333333333    0.0636300000000000    0.9855600000000000 H
   0.2721266666666666    0.0637100000000000    0.9856200000000001 H
   0.1444166666666667    0.1392500000000000    0.0142000000000000 H
   0.3110966666666666    0.1392800000000000    0.0142900000000000 H
   0.1478666666666666    0.0344300000000000    0.8780400000000000 H
   0.3145300000000000    0.0345600000000000    0.8780900000000000 H
   0.1409200000000000    0.9210300000000000    0.9053800000000000 H
   0.3075800000000000    0.9211200000000000    0.9053700000000000 H
   0.1595633333333333    0.2161200000000000    0.5641900000000000 H
   0.3262333333333333    0.2161000000000000    0.5641800000000000 H
   0.1055300000000000    0.1301900000000000    0.6131100000000000 H
   0.2722000000000000    0.1301700000000000    0.6131000000000000 H
   0.0385500000000000    0.1156200000000000    0.2208400000000000 H
   0.2052200000000000    0.1156200000000000    0.2208500000000000 H
   0.1566433333333333    0.4376900000000000    0.2068500000000000 H
   0.3233133333333333    0.4377100000000000    0.2068000000000000 H
   0.0437566666666667    0.2700300000000000    0.9989000000000000 H
   0.2104233333333333    0.2700400000000000    0.9989800000000000 H
   0.1284600000000000    0.5644300000000000    0.4506400000000000 H
   0.2951266666666666    0.5644300000000000    0.4506400000000000 H
   0.0897600000000000    0.2228800000000000    0.0804900000000000 H
   0.2564266666666666    0.2228800000000000    0.0800000000000000 H
   0.1052200000000000    0.4366700000000000    0.5133200000000000 H
   0.2718866666666667    0.4366700000000000    0.5133300000000000 H
   0.1441700000000000    0.3609200000000000    0.4855200000000000 H
   0.3108366666666667    0.3609200000000000    0.4855200000000000 H
   0.1471733333333333    0.4656200000000000    0.6216600000000000 H
   0.3138366666666667    0.4656200000000000    0.6216600000000000 H
   0.1406166666666667    0.5792100000000000    0.5943200000000000 H
   0.3072833333333333    0.5792200000000000    0.5943300000000000 H
   0.1591766666666667    0.2829600000000000    0.9300000000000000 H
   0.3258500000000000    0.2829500000000000    0.9359900000000000 H
   0.1050933333333333    0.3685200000000000    0.8872300000000000 H
   0.2717633333333333    0.3685100000000000    0.8872200000000000 H
   0.0396300000000000    0.3886000000000000    0.2787300000000000 H
   0.2062866666666666    0.3885700000000000    0.2787300000000000 H
   0.3442566666666667    0.9338500000000000    0.7070200000000000 H
   0.5109133333333333    0.9338600000000000    0.7070100000000000 H
   0.4557500000000000    0.7720200000000000    0.4993800000000000 H
   0.6224166666666666    0.7720399999999999    0.4993900000000000 H
   0.3719700000000000    0.0642800000000000    0.9515600000000000 H
   0.5386400000000000    0.0642100000000000    0.9514899999999999 H
   0.4098466666666666    0.7243800000000000    0.5811300000000000 H
   0.5765100000000000    0.7243900000000000    0.5811400000000000 H
   0.3945533333333333    0.9362500000000000    0.0144500000000000 H
   0.5612266666666667    0.9363200000000000    0.0145000000000000 H
   0.3555800000000000    0.8606900000000000    0.9857000000000000 H
   0.5222599999999999    0.8607000000000000    0.9858600000000000 H
   0.3521500000000000    0.9654100000000000    0.1219800000000000 H
   0.5188166666666667    0.9655400000000000    0.1220100000000000 H
   0.3591000000000000    0.0788500000000000    0.0946900000000000 H
   0.5257533333333333    0.0789300000000000    0.0946700000000000 H
   0.3404266666666667    0.7838700000000000    0.4358500000000000 H
   0.5070966666666666    0.7838600000000000    0.4358400000000000 H
   0.3944600000000000    0.8698000000000000    0.3869200000000000 H
   0.5611300000000000    0.8697900000000000    0.3869200000000000 H
   0.4614466666666667    0.8843600000000000    0.7791900000000000 H
   0.6281200000000000    0.8843299999999999    0.7792000000000000 H
   0.3433533333333333    0.5622600000000000    0.7931900000000000 H
   0.5100166666666667    0.5622700000000000    0.7931900000000000 H
   0.4562400000000000    0.7299200000000000    0.0000000000000000 H
   0.3715400000000000    0.4355500000000000    0.5494000000000000 H
   0.5382066666666667    0.4355400000000000    0.5494000000000000 H
   0.4102400000000000    0.7770800000000000    0.9195500000000000 H
   0.3947800000000000    0.5633100000000000    0.4867200000000000 H
   0.5614466666666666    0.5633100000000000    0.4867000000000000 H
   0.3558300000000000    0.6390600000000000    0.5145300000000000 H
   0.5224966666666666    0.6390600000000000    0.5145200000000000 H
   0.3528300000000000    0.5343599999999999    0.3783800000000000 H
   0.5194933333333334    0.5343500000000000    0.3783800000000000 H
   0.3593833333333333    0.4207600000000000    0.4057000000000000 H
   0.5260500000000000    0.4207600000000000    0.4057100000000000 H
   0.3408166666666667    0.7170100000000000    0.0640000000000000 H
   0.5074833333333333    0.7170000000000000    0.0640400000000000 H
   0.3949000000000000    0.6314500000000000    0.1128200000000000 H
   0.5615700000000000    0.6314500000000000    0.1128100000000000 H
   0.4603733333333333    0.6114000000000001    0.7213100000000000 H
   0.4890866666666667    0.0661100000000000    0.2930000000000000 H
   0.6557433333333333    0.0661100000000000    0.2930100000000000 H
   0.3775733333333333    0.2279400000000000    0.5006400000000000 H
   0.5442399999999999    0.2279600000000000    0.5006600000000000 H
   0.4613766666666667    0.9357200000000000    0.0485400000000000 H
   0.6280433333333333    0.9356800000000000    0.0485000000000000 H
   0.4234833333333333    0.2755900000000000    0.4189000000000000 H
   0.5901500000000000    0.2756200000000000    0.4189100000000000 H
   0.4387866666666667    0.0636300000000000    0.9855600000000000 H
   0.6054599999999999    0.0637100000000000    0.9856200000000001 H
   0.4777500000000000    0.1392500000000000    0.0142000000000000 H
   0.6444299999999999    0.1392800000000000    0.0142900000000000 H
   0.4812000000000000    0.0344300000000000    0.8780400000000000 H
   0.6478633333333332    0.0345600000000000    0.8780900000000000 H
   0.4742533333333333    0.9210300000000000    0.9053800000000000 H
   0.6409133333333332    0.9211200000000000    0.9053700000000000 H
   0.4928966666666666    0.2161200000000000    0.5641900000000000 H
   0.6595666666666666    0.2161000000000000    0.5641800000000000 H
   0.4388633333333333    0.1301900000000000    0.6131100000000000 H
   0.6055333333333333    0.1301700000000000    0.6131000000000000 H
   0.3718833333333333    0.1156200000000000    0.2208400000000000 H
   0.5385533333333333    0.1156200000000000    0.2208500000000000 H
   0.4899766666666666    0.4376900000000000    0.2068500000000000 H
   0.6566466666666666    0.4377100000000000    0.2068000000000000 H
   0.3770900000000000    0.2700300000000000    0.9989000000000000 H
   0.5437566666666667    0.2700400000000000    0.9989800000000000 H
   0.4617933333333333    0.5644300000000000    0.4506400000000000 H
   0.6284600000000000    0.5644300000000000    0.4506400000000000 H
   0.4230933333333333    0.2228800000000000    0.0804900000000000 H
   0.5897600000000000    0.2228800000000000    0.0800000000000000 H
   0.4385533333333333    0.4366700000000000    0.5133200000000000 H
   0.6052200000000000    0.4366700000000000    0.5133300000000000 H
   0.4775033333333333    0.3609200000000000    0.4855200000000000 H
   0.6441699999999999    0.3609200000000000    0.4855200000000000 H
   0.4805066666666666    0.4656200000000000    0.6216600000000000 H
   0.6471700000000000    0.4656200000000000    0.6216600000000000 H
   0.4739500000000000    0.5792100000000000    0.5943200000000000 H
   0.6406166666666666    0.5792200000000000    0.5943300000000000 H
   0.4925100000000000    0.2829600000000000    0.9300000000000000 H
   0.6591833333333332    0.2829500000000000    0.9359900000000000 H
   0.4384266666666666    0.3685200000000000    0.8872300000000000 H
   0.6050966666666666    0.3685100000000000    0.8872200000000000 H
   0.3729633333333333    0.3886000000000000    0.2787300000000000 H
   0.5396200000000000    0.3885700000000000    0.2787300000000000 H
   0.6775899999999999    0.9338500000000000    0.7070200000000000 H
   0.8442466666666666    0.9338600000000000    0.7070100000000000 H
   0.7890833333333334    0.7720200000000000    0.4993800000000000 H
   0.9557499999999999    0.7720399999999999    0.4993900000000000 H
   0.7053033333333333    0.0642800000000000    0.9515600000000000 H
   0.8719733333333333    0.0642100000000000    0.9514899999999999 H
   0.7431800000000000    0.7243800000000000    0.5811300000000000 H
   0.9098433333333333    0.7243900000000000    0.5811400000000000 H
   0.7278866666666666    0.9362500000000000    0.0144500000000000 H
   0.8945599999999999    0.9363200000000000    0.0145000000000000 H
   0.6889133333333333    0.8606900000000000    0.9857000000000000 H
   0.8555933333333332    0.8607000000000000    0.9858600000000000 H
   0.6854833333333333    0.9654100000000000    0.1219800000000000 H
   0.8521500000000000    0.9655400000000000    0.1220100000000000 H
   0.6924333333333333    0.0788500000000000    0.0946900000000000 H
   0.8590866666666666    0.0789300000000000    0.0946700000000000 H
   0.6737599999999999    0.7838700000000000    0.4358500000000000 H
   0.8404300000000000    0.7838600000000000    0.4358400000000000 H
   0.7277933333333333    0.8698000000000000    0.3869200000000000 H
   0.8944633333333333    0.8697900000000000    0.3869200000000000 H
   0.7947799999999999    0.8843600000000000    0.7791900000000000 H
   0.9614533333333333    0.8843299999999999    0.7792000000000000 H
   0.8433499999999999    0.5622700000000000    0.7931900000000000 H
   0.7895733333333332    0.7299200000000000    0.0000000000000000 H
   0.9562433333333333    0.7299400000000000    0.0000000000000000 H
   0.7048733333333332    0.4355500000000000    0.5494000000000000 H
   0.8715400000000000    0.4355400000000000    0.5494000000000000 H
   0.7435733333333333    0.7770800000000000    0.9195500000000000 H
   0.9102366666666666    0.7770800000000000    0.9195500000000000 H
   0.7281133333333333    0.5633100000000000    0.4867200000000000 H
   0.8947799999999999    0.5633100000000000    0.4867000000000000 H
   0.6891633333333333    0.6390600000000000    0.5145300000000000 H
   0.8558300000000000    0.6390600000000000    0.5145200000000000 H
   0.6861633333333333    0.5343599999999999    0.3783800000000000 H
   0.8528266666666666    0.5343500000000000    0.3783800000000000 H
   0.6927166666666666    0.4207600000000000    0.4057000000000000 H
   0.8593833333333333    0.4207600000000000    0.4057100000000000 H
   0.8408166666666665    0.7170000000000000    0.0640400000000000 H
   0.8949033333333333    0.6314500000000000    0.1128100000000000 H
   0.7937066666666666    0.6114000000000001    0.7213100000000000 H
   0.9603699999999999    0.6113700000000000    0.7213100000000000 H
   0.8224199999999999    0.0661100000000000    0.2930000000000000 H
   0.9890766666666666    0.0661100000000000    0.2930100000000000 H
   0.7109066666666666    0.2279400000000000    0.5006400000000000 H
   0.8775733333333333    0.2279600000000000    0.5006600000000000 H
   0.7947100000000000    0.9357200000000000    0.0485400000000000 H
   0.9613766666666665    0.9356800000000000    0.0485000000000000 H
   0.7568166666666667    0.2755900000000000    0.4189000000000000 H
   0.9234833333333332    0.2756200000000000    0.4189100000000000 H
   0.7721199999999999    0.0636300000000000    0.9855600000000000 H
   0.9387933333333333    0.0637100000000000    0.9856200000000001 H
   0.8110833333333333    0.1392500000000000    0.0142000000000000 H
   0.9777633333333333    0.1392800000000000    0.0142900000000000 H
   0.8145333333333333    0.0344300000000000    0.8780400000000000 H
   0.9811966666666666    0.0345600000000000    0.8780900000000000 H
   0.8075866666666667    0.9210300000000000    0.9053800000000000 H
   0.9742466666666666    0.9211200000000000    0.9053700000000000 H
   0.8262300000000000    0.2161200000000000    0.5641900000000000 H
   0.9928999999999999    0.2161000000000000    0.5641800000000000 H
   0.7721966666666666    0.1301900000000000    0.6131100000000000 H
   0.9388666666666666    0.1301700000000000    0.6131000000000000 H
   0.7052166666666666    0.1156200000000000    0.2208400000000000 H
   0.8718866666666666    0.1156200000000000    0.2208500000000000 H
   0.9899800000000000    0.4377100000000000    0.2068000000000000 H
   0.7104233333333333    0.2700300000000000    0.9989000000000000 H
   0.7951266666666666    0.5644300000000000    0.4506400000000000 H
   0.9617933333333333    0.5644300000000000    0.4506400000000000 H
   0.7564266666666666    0.2228800000000000    0.0804900000000000 H
   0.7718866666666666    0.4366700000000000    0.5133200000000000 H
   0.9385533333333334    0.4366700000000000    0.5133300000000000 H
   0.8108366666666667    0.3609200000000000    0.4855200000000000 H
   0.9775033333333333    0.3609200000000000    0.4855200000000000 H
   0.8138399999999999    0.4656200000000000    0.6216600000000000 H
   0.9805033333333333    0.4656200000000000    0.6216600000000000 H
   0.8072833333333334    0.5792100000000000    0.5943200000000000 H
   0.9739499999999999    0.5792200000000000    0.5943300000000000 H
   0.9925166666666666    0.2829500000000000    0.9359900000000000 H
   0.9384299999999999    0.3685100000000000    0.8872200000000000 H
   0.7062966666666666    0.3886000000000000    0.2787300000000000 H
   0.1553766666666667    0.8893700000000000    0.6758000000000000 C
   0.3220466666666666    0.8893600000000000    0.6750000000000000 C
   0.1253600000000000    0.7976400000000000    0.5611800000000000 C
   0.2920300000000000    0.7976400000000000    0.5611900000000000 C
   0.0681366666666667    0.9687800000000000    0.5029100000000000 C
   0.2348000000000000    0.9687800000000000    0.5029000000000000 C
   0.0158000000000000    0.8869500000000000    0.5496600000000000 C
   0.1824600000000000    0.8869500000000000    0.5496500000000000 C
   0.0263233333333333    0.9874500000000000    0.9362000000000000 C
   0.1929833333333333    0.9874000000000001    0.9362100000000000 C
   0.0993833333333333    0.7710300000000000    0.6063700000000000 C
   0.2660500000000000    0.7710300000000000    0.6063700000000000 C
   0.0325000000000000    0.9399700000000000    0.0028500000000000 C
   0.1991766666666667    0.9399900000000000    0.0028600000000000 C
   0.0138833333333333    0.0017700000000000    0.0758700000000000 C
   0.1805566666666666    0.0018300000000000    0.0758600000000000 C
   0.0226333333333333    0.8462000000000000    0.4722100000000000 C
   0.1893000000000000    0.8461900000000000    0.4722100000000000 C
   0.1546266666666667    0.8584600000000000    0.5955100000000000 C
   0.3212933333333333    0.8584700000000000    0.5955200000000000 C
   0.0455666666666667    0.9256400000000000    0.8641100000000000 C
   0.2122300000000000    0.9254900000000000    0.8641200000000000 C
   0.0519166666666667    0.8918500000000000    0.4459100000000000 C
   0.2185833333333334    0.8918400000000000    0.4459000000000000 C
   0.1281933333333333    0.8604100000000000    0.7171500000000000 C
   0.2948666666666667    0.8603900000000000    0.7171600000000000 C
   0.1547766666666667    0.6080800000000000    0.8244400000000000 C
   0.3214433333333333    0.6080800000000000    0.8244400000000000 C
   0.1255300000000000    0.7029100000000000    0.9392400000000000 C
   0.2921966666666667    0.7029200000000000    0.9392400000000000 C
   0.0681633333333333    0.5312400000000000    0.9971500000000000 C
   0.2348333333333333    0.5312300000000000    0.9971400000000000 C
   0.0157666666666667    0.6127400000000000    0.9505300000000000 C
   0.1824333333333333    0.6127300000000000    0.9505300000000000 C
   0.0260166666666667    0.5124700000000000    0.5643600000000000 C
   0.1926766666666667    0.5124600000000000    0.5643600000000000 C
   0.0994866666666667    0.7292900000000000    0.8941600000000000 C
   0.2661533333333333    0.7292900000000000    0.8941600000000000 C
   0.0326566666666667    0.5597100000000000    0.4977400000000000 C
   0.1993233333333333    0.5597000000000000    0.4977500000000000 C
   0.0142833333333333    0.4979700000000000    0.4243800000000000 C
   0.1809500000000000    0.4979800000000000    0.4243800000000000 C
   0.0228600000000000    0.6542700000000000    0.0277600000000000 C
   0.1895266666666666    0.6542600000000000    0.0277500000000000 C
   0.1544766666666667    0.6407700000000000    0.9048100000000000 C
   0.3211433333333333    0.6407700000000000    0.9048100000000000 C
   0.0449333333333333    0.5741700000000000    0.6369800000000000 C
   0.2116000000000000    0.5741700000000000    0.6369700000000000 C
   0.0521700000000000    0.6088100000000000    0.0539000000000000 C
   0.2188366666666667    0.6088000000000000    0.0539800000000000 C
   0.1275266666666666    0.6368400000000000    0.7833200000000000 C
   0.2941900000000000    0.6368200000000001    0.7833200000000000 C
   0.0112866666666667    0.1106000000000000    0.3241400000000000 C
   0.1779566666666667    0.1106100000000000    0.3241500000000000 C
   0.0412966666666667    0.2023400000000000    0.4388400000000000 C
   0.2079666666666667    0.2023500000000000    0.4388000000000000 C
   0.0985300000000000    0.0312000000000000    0.4971300000000000 C
   0.2651933333333333    0.0311900000000000    0.4971200000000000 C
   0.1508666666666666    0.1130300000000000    0.4503000000000000 C
   0.3175300000000000    0.1130300000000000    0.4503700000000000 C
   0.1403600000000000    0.0125400000000000    0.0638400000000000 C
   0.3070233333333333    0.0125100000000000    0.0638300000000000 C
   0.0672766666666667    0.2289500000000000    0.3936600000000000 C
   0.2339466666666667    0.2289600000000000    0.3936000000000000 C
   0.1341700000000000    0.0599600000000000    0.9971900000000000 C
   0.3008433333333334    0.0599900000000000    0.9972200000000000 C
   0.1527900000000000    0.9981200000000000    0.9241900000000000 C
   0.3194600000000000    0.9981900000000000    0.9242000000000000 C
   0.1440300000000000    0.1537800000000000    0.5278300000000000 C
   0.3106933333333333    0.1537700000000000    0.5278200000000000 C
   0.0120333333333333    0.1415100000000000    0.4045100000000000 C
   0.1787033333333333    0.1415100000000000    0.4045200000000000 C
   0.1211066666666667    0.0744100000000000    0.1359300000000000 C
   0.2877733333333333    0.0743100000000000    0.1359000000000000 C
   0.1147466666666667    0.1081300000000000    0.5541300000000000 C
   0.2814133333333333    0.1081200000000000    0.5541199999999999 C
   0.0384700000000000    0.1395700000000000    0.2828700000000000 C
   0.2051400000000000    0.1395700000000000    0.2828900000000000 C
   0.0118900000000000    0.3918900000000000    0.1756000000000000 C
   0.1785533333333333    0.3918800000000000    0.1756000000000000 C
   0.0411366666666667    0.2970500000000000    0.0608000000000000 C
   0.2078000000000000    0.2970600000000000    0.0608000000000000 C
   0.0985000000000000    0.4687400000000000    0.0028900000000000 C
   0.2651666666666667    0.4687300000000000    0.0028000000000000 C
   0.1509000000000000    0.3872400000000000    0.0495100000000000 C
   0.3175633333333333    0.3872300000000000    0.0495000000000000 C
   0.1406533333333333    0.4875100000000000    0.4356700000000000 C
   0.3073166666666667    0.4875100000000000    0.4356800000000000 C
   0.0671800000000000    0.2706800000000000    0.1058000000000000 C
   0.2338433333333333    0.2706800000000000    0.1058800000000000 C
   0.1340100000000000    0.4402700000000000    0.5022900000000000 C
   0.3006766666666666    0.4402700000000000    0.5023000000000000 C
   0.1523833333333333    0.5020000000000000    0.5756500000000000 C
   0.3190499999999999    0.5020100000000000    0.5756599999999999 C
   0.1438033333333333    0.3457000000000000    0.9722900000000000 C
   0.3104700000000000    0.3457000000000000    0.9722800000000000 C
   0.0121900000000000    0.3591900000000000    0.0952200000000000 C
   0.1788533333333333    0.3591900000000000    0.0952300000000000 C
   0.1217333333333333    0.4258000000000000    0.3630600000000000 C
   0.2884000000000000    0.4258000000000000    0.3630600000000000 C
   0.1144933333333333    0.3911600000000000    0.9460600000000000 C
   0.2811633333333333    0.3911500000000000    0.9460499999999999 C
   0.0391400000000000    0.3631400000000000    0.2167200000000000 C
   0.2058033333333333    0.3631300000000000    0.2167200000000000 C
   0.4887100000000000    0.8893700000000000    0.6758000000000000 C
   0.6553800000000000    0.8893600000000000    0.6750000000000000 C
   0.4586933333333333    0.7976400000000000    0.5611800000000000 C
   0.6253633333333333    0.7976400000000000    0.5611900000000000 C
   0.4014700000000000    0.9687800000000000    0.5029100000000000 C
   0.5681333333333334    0.9687800000000000    0.5029000000000000 C
   0.3491333333333333    0.8869500000000000    0.5496600000000000 C
   0.5157933333333333    0.8869500000000000    0.5496500000000000 C
   0.3596566666666666    0.9874500000000000    0.9362000000000000 C
   0.5263166666666667    0.9874000000000001    0.9362100000000000 C
   0.4327166666666666    0.7710300000000000    0.6063700000000000 C
   0.5993833333333334    0.7710300000000000    0.6063700000000000 C
   0.3658333333333333    0.9399700000000000    0.0028500000000000 C
   0.5325100000000000    0.9399900000000000    0.0028600000000000 C
   0.3472166666666667    0.0017700000000000    0.0758700000000000 C
   0.5138900000000000    0.0018300000000000    0.0758600000000000 C
   0.3559666666666667    0.8462000000000000    0.4722100000000000 C
   0.5226333333333333    0.8461900000000000    0.4722100000000000 C
   0.4879599999999999    0.8584600000000000    0.5955100000000000 C
   0.6546266666666667    0.8584700000000000    0.5955200000000000 C
   0.3789000000000000    0.9256400000000000    0.8641100000000000 C
   0.5455633333333333    0.9254900000000000    0.8641200000000000 C
   0.3852500000000000    0.8918500000000000    0.4459100000000000 C
   0.5519166666666666    0.8918400000000000    0.4459000000000000 C
   0.4615266666666666    0.8604100000000000    0.7171500000000000 C
   0.6282000000000000    0.8603900000000000    0.7171600000000000 C
   0.4881100000000000    0.6080800000000000    0.8244400000000000 C
   0.4588633333333333    0.7029100000000000    0.9392400000000000 C
   0.4014966666666666    0.5312400000000000    0.9971500000000000 C
   0.5681666666666667    0.5312300000000000    0.9971400000000000 C
   0.3491000000000000    0.6127400000000000    0.9505300000000000 C
   0.5157666666666667    0.6127300000000000    0.9505300000000000 C
   0.3593500000000000    0.5124700000000000    0.5643600000000000 C
   0.5260100000000000    0.5124600000000000    0.5643600000000000 C
   0.4328200000000000    0.7292900000000000    0.8941600000000000 C
   0.3659900000000000    0.5597100000000000    0.4977400000000000 C
   0.5326566666666667    0.5597000000000000    0.4977500000000000 C
   0.3476166666666666    0.4979700000000000    0.4243800000000000 C
   0.5142833333333333    0.4979800000000000    0.4243800000000000 C
   0.3561933333333333    0.6542700000000000    0.0277600000000000 C
   0.5228600000000000    0.6542600000000000    0.0277500000000000 C
   0.4878100000000000    0.6407700000000000    0.9048100000000000 C
   0.3782666666666666    0.5741700000000000    0.6369800000000000 C
   0.5449333333333333    0.5741700000000000    0.6369700000000000 C
   0.3855033333333333    0.6088100000000000    0.0539000000000000 C
   0.5521700000000000    0.6088000000000000    0.0539800000000000 C
   0.4608599999999999    0.6368400000000000    0.7833200000000000 C
   0.3446200000000000    0.1106000000000000    0.3241400000000000 C
   0.5112900000000000    0.1106100000000000    0.3241500000000000 C
   0.3746300000000000    0.2023400000000000    0.4388400000000000 C
   0.5413000000000000    0.2023500000000000    0.4388000000000000 C
   0.4318633333333333    0.0312000000000000    0.4971300000000000 C
   0.5985266666666667    0.0311900000000000    0.4971200000000000 C
   0.4842000000000000    0.1130300000000000    0.4503000000000000 C
   0.6508633333333333    0.1130300000000000    0.4503700000000000 C
   0.4736933333333333    0.0125400000000000    0.0638400000000000 C
   0.6403566666666667    0.0125100000000000    0.0638300000000000 C
   0.4006100000000000    0.2289500000000000    0.3936600000000000 C
   0.5672800000000000    0.2289600000000000    0.3936000000000000 C
   0.4675033333333333    0.0599600000000000    0.9971900000000000 C
   0.6341766666666666    0.0599900000000000    0.9972200000000000 C
   0.4861233333333333    0.9981200000000000    0.9241900000000000 C
   0.6527933333333333    0.9981900000000000    0.9242000000000000 C
   0.4773633333333333    0.1537800000000000    0.5278300000000000 C
   0.6440266666666666    0.1537700000000000    0.5278200000000000 C
   0.3453666666666667    0.1415100000000000    0.4045100000000000 C
   0.5120366666666667    0.1415100000000000    0.4045200000000000 C
   0.4544400000000000    0.0744100000000000    0.1359300000000000 C
   0.6211066666666667    0.0743100000000000    0.1359000000000000 C