H8 C10 N2
1.0
  23.2849999432558690    0.0000000000000000    0.0016255996639894
   0.0057133820942591   13.8978221009786704   -1.4761721467409747
   0.0000000000000000    0.0000000000000000   15.7820000000000000
H C N
8 10 2
direct
   0.8876200000000000    0.4426900000000000    0.9820600000000000 H
   0.8905200000000000    0.2658400000000000    0.9871100000000000 H
   0.7052900000000000    0.2719000000000000    0.0095900000000000 H
   0.7098100000000001    0.4483700000000000    0.0000000000000000 H
   0.8727200000000001    0.1477800000000000    0.0864400000000000 H
   0.8677700000000000    0.9691300000000000    0.0924000000000000 H
   0.7238800000000000    0.9439700000000000    0.9386400000000000 H
   0.7207000000000000    0.1220700000000000    0.9282200000000000 H
   0.8482300000000000    0.4024300000000000    0.9886400000000000 C
   0.8496000000000000    0.3036800000000000    0.9922900000000000 C
   0.7979200000000000    0.2541700000000000    0.0000000000000000 C
   0.7466400000000000    0.3067800000000000    0.0000000000000000 C
   0.7488899999999999    0.4055800000000000    0.0000000000000000 C
   0.7972600000000000    0.1494800000000000    0.0000000000000000 C
   0.8392200000000000    0.1052300000000000    0.0521100000000000 C
   0.8368000000000000    0.0000000000000000    0.0559400000000000 C
   0.7553500000000000    0.9927300000000000    0.9708200000000000 C
   0.7542100000000000    0.0911100000000000    0.9651000000000000 C
   0.7987900000000000    0.4530600000000000    0.9939400000000000 N
   0.7959000000000001    0.9506800000000000    0.0154600000000000 N
