H18 C34 O8
1.0
  23.2849999432558690    0.0000000000000000    0.0016255996639894
   0.0057133820942591   13.8978221009786704   -1.4761721467409747
   0.0000000000000000    0.0000000000000000   15.7820000000000000
H C O
18 34 8
direct
   0.4528100000000000    0.8327599999999999    0.8517600000000000 H
   0.5179300000000000    0.8308900000000000    0.7263500000000001 H
   0.4359600000000000    0.5725500000000000    0.6134300000000000 H
   0.3749600000000000    0.5695100000000000    0.7436300000000000 H
   0.6534500000000000    0.7016300000000000    0.5072700000000000 H
   0.4415800000000000    0.7050500000000000    0.5040700000000000 H
   0.6599300000000000    0.5773100000000000    0.3724700000000000 H
   0.7206000000000000    0.5764200000000000    0.2420800000000000 H
   0.6404400000000000    0.8384400000000000    0.1843000000000000 H
   0.5757800000000000    0.8346700000000000    0.3097200000000000 H
   0.6601700000000000    0.8252200000000000    0.6415000000000000 H
   0.7207200000000000    0.8209100000000000    0.7714800000000001 H
   0.6342300000000000    0.5639100000000000    0.8287600000000001 H
   0.5714300000000000    0.5709700000000000    0.7026000000000000 H
   0.4410500000000000    0.8401700000000000    0.3914600000000000 H
   0.3809600000000000    0.8411100000000000    0.2605000000000000 H
   0.4547500000000000    0.5704800000000000    0.1604600000000000 H
   0.5176200000000000    0.5727300000000000    0.2870000000000000 H
   0.3718400000000000    0.7005800000000000    0.8817900000000000 C
   0.4101600000000000    0.7008500000000000    0.8056500000000000 C
   0.4144000000000000    0.7067800000000000    0.2016900000000000 C
   0.4527000000000000    0.6308000000000000    0.2100100000000000 C
   0.4876900000000000    0.6317800000000000    0.2816400000000000 C
   0.4503100000000000    0.7747200000000000    0.8000800000000000 C
   0.4862800000000000    0.7739300000000000    0.7295900000000000 C
   0.4812200000000000    0.7013900000000000    0.6612200000000000 C
   0.4400800000000000    0.6288100000000000    0.6664800000000000 C
   0.4057400000000000    0.6272400000000000    0.7383999999999999 C
   0.5165800000000000    0.7018900000000000    0.5830300000000000 C
   0.5772600000000000    0.7012699999999999    0.5840400000000000 C
   0.6066000000000000    0.7024300000000000    0.5065900000000000 C
   0.5784600000000000    0.7044700000000000    0.4283000000000000 C
   0.5177900000000000    0.7057700000000000    0.4274800000000000 C
   0.4884300000000000    0.7043100000000000    0.5048100000000000 C
   0.6136600000000000    0.7057099999999999    0.3500400000000000 C
   0.6552900000000000    0.6340300000000000    0.3305900000000000 C
   0.6894700000000000    0.6336000000000001    0.2583000000000000 C
   0.6844000000000000    0.7075100000000000    0.2052800000000000 C
   0.6436300000000000    0.7803800000000000    0.2250300000000000 C
   0.6078900000000000    0.7784799999999999    0.2955600000000000 C
   0.6114600000000000    0.6986200000000000    0.6631100000000000 C
   0.6541200000000000    0.7684600000000000    0.6831000000000000 C
   0.6879000000000000    0.7664400000000000    0.7556000000000000 C
   0.6810900000000000    0.6928500000000000    0.8087400000000000 C
   0.6391900000000000    0.6220300000000000    0.7884800000000000 C
   0.6041800000000001    0.6259300000000000    0.7173400000000000 C
   0.4836700000000000    0.7067200000000000    0.3481100000000000 C
   0.4445600000000000    0.7817800000000000    0.3400700000000000 C
   0.4110200000000000    0.7826500000000000    0.2671900000000000 C
   0.3760600000000000    0.7070200000000000    0.1255000000000000 C
   0.7192200000000000    0.6915600000000000    0.8850400000000000 C
   0.7227600000000000    0.7081600000000000    0.1292600000000000 C
   0.3471900000000000    0.6212400000000000    0.8926200000000000 O
   0.3669200000000000    0.7790600000000000   -0.0695999999999999 O
   0.3697100000000000    0.6285500000000001    1.0775999999999999 O
   0.3521800000000000    0.7873500000000000    0.1144200000000000 O
   0.7432400000000000    0.7715700000000000   -0.0887700000000001 O
   0.7252100000000000    0.6130200000000000    0.9182300000000000 O
   0.7476600000000000    0.6290100000000000    1.1035599999999999 O
   0.7277900000000000    0.7867800000000000    0.0955600000000000 O
