Zn8 H86 C142 N8 O24
1.0
  23.2849999432558690    0.0000000000000000    0.0016255996639894
   0.0057133820942591   13.8978221009786704   -1.4761721467409747
   0.0000000000000000    0.0000000000000000   15.7820000000000000
Zn H C N O
8 86 142 8 24
direct
   0.5474200000000000    0.1967500000000000    0.9851400000000000 Zn
   0.0478500000000000    0.4001100000000000    0.0034000000000000 Zn
   0.5478400000000000    0.4001100000000000    0.0034000000000000 Zn
   0.2973900000000000    0.8032400000000000    0.0148200000000000 Zn
   0.7973800000000000    0.8032400000000000    0.0148200000000000 Zn
   0.2978600000000000    0.5998800000000000    0.9965600000000000 Zn
   0.7978499999999999    0.5998800000000000    0.9965600000000000 Zn
   0.0474200000000000    0.1967500000000000    0.9851400000000000 Zn
   0.2028700000000000    0.1671800000000000    0.1482200000000000 H
   0.7028600000000000    0.1671800000000000    0.1482200000000000 H
   0.2679900000000000    0.1690400000000000    0.2736100000000000 H
   0.7679800000000000    0.1690400000000000    0.2736100000000000 H
   0.1859300000000000    0.4274400000000000    0.3865100000000000 H
   0.6859200000000000    0.4274400000000000    0.3865100000000000 H
   0.1249400000000000    0.4304900000000000    0.2563200000000000 H
   0.6249300000000000    0.4304900000000000    0.2563200000000000 H
   0.4034600000000000    0.2983900000000000    0.4926000000000000 H
   0.9034600000000000    0.2983900000000000    0.4926000000000000 H
   0.1915900000000000    0.2948900000000000    0.4958900000000000 H
   0.6915800000000000    0.2948900000000000    0.4958900000000000 H
   0.4098900000000000    0.4226800000000000    0.6274700000000000 H
   0.9098800000000000    0.4226800000000000    0.6274700000000000 H
   0.4705600000000000    0.4235900000000000    0.7578400000000000 H
   0.9705500000000000    0.4235900000000000    0.7578400000000000 H
   0.3904900000000000    0.1616200000000000    0.8157000000000000 H
   0.8904800000000000    0.1616100000000000    0.8157000000000000 H
   0.3258400000000000    0.1653700000000000    0.6902800000000000 H
   0.8258300000000000    0.1653700000000000    0.6902800000000000 H
   0.4102300000000000    0.1747600000000000    0.3583500000000000 H
   0.9102300000000000    0.1747600000000000    0.3583500000000000 H
   0.4707900000000000    0.1790800000000000    0.2284400000000000 H
   0.9707800000000000    0.1790800000000000    0.2284400000000000 H
   0.3842000000000000    0.4361400000000000    0.1712300000000000 H
   0.8842000000000000    0.4361400000000000    0.1712300000000000 H
   0.3213900000000000    0.4290500000000000    0.2974000000000000 H
   0.8213900000000000    0.4290400000000000    0.2974000000000000 H
   0.1910900000000000    0.1598400000000000    0.6084600000000000 H
   0.6910800000000000    0.1598400000000000    0.6084600000000000 H
   0.1309900000000000    0.1588900000000000    0.7394300000000000 H
   0.6309800000000000    0.1588900000000000    0.7394300000000000 H
   0.2047200000000000    0.4294400000000000    0.8395300000000000 H
   0.7047099999999999    0.4294400000000000    0.8395300000000000 H
   0.2676000000000000    0.4271900000000000    0.7129799999999999 H
   0.7675900000000000    0.4271900000000000    0.7129000000000000 H
   0.1376000000000000    0.5571700000000001    0.0000000000000000 H
   0.6375999999999999    0.5571700000000001    0.0000000000000000 H
   0.1405100000000000    0.7340200000000000    0.0128700000000000 H
   0.6405000000000000    0.7340200000000000    0.0128700000000000 H
   0.4552800000000000    0.7282400000000000    0.9903400000000000 H
   0.9552800000000000    0.7282400000000000    0.9903400000000000 H
   0.4597800000000000    0.5517500000000000    0.9951400000000000 H
   0.9597700000000000    0.5517500000000000    0.9951400000000000 H
   0.1227500000000000    0.8520900000000000    0.9135200000000000 H
   0.6227400000000000    0.8520900000000000    0.9135200000000000 H
   0.1178200000000000    0.0307500000000000    0.9075000000000000 H
   0.6178200000000000    0.0307500000000000    0.9075299999999999 H
   0.4739000000000000    0.0561400000000000    0.0613200000000000 H
   0.9739000000000000    0.0561400000000000    0.0613200000000000 H
   0.4706900000000000    0.8780400000000000    0.0717300000000000 H
   0.9706800000000000    0.8780400000000000    0.0717300000000000 H
   0.9528000000000000    0.8327599999999999    0.8517600000000000 H
   0.0179400000000000    0.8308900000000000    0.7263500000000001 H
   0.9359499999999999    0.5725500000000000    0.6134300000000000 H
   0.8749500000000000    0.5695100000000000    0.7436300000000000 H
   0.1534600000000000    0.7016300000000000    0.5072700000000000 H
   0.9415700000000000    0.7050500000000000    0.5040700000000000 H
   0.1599400000000000    0.5773100000000000    0.3724700000000000 H
   0.2206100000000000    0.5764200000000000    0.2420800000000000 H
   0.1404500000000000    0.8384400000000000    0.1843000000000000 H
   0.0757900000000000    0.8346700000000000    0.3097200000000000 H
   0.1601800000000000    0.8252200000000000    0.6415800000000000 H
   0.2207300000000000    0.8209200000000000    0.7714800000000001 H
   0.1342400000000000    0.5639100000000000    0.8287600000000001 H
   0.0714400000000000    0.5709800000000000    0.7026000000000000 H
   0.9410500000000001    0.8401700000000000    0.3914600000000000 H
   0.8809500000000000    0.8411100000000000    0.2605000000000000 H
   0.9547500000000000    0.5704800000000000    0.1604600000000000 H
   0.0176300000000000    0.5727300000000000    0.2870000000000000 H
   0.3876300000000000    0.4426900000000000    0.9820600000000000 H
   0.8876200000000000    0.4426900000000000    0.9820600000000000 H
   0.3905300000000000    0.2658400000000000    0.9871100000000000 H
   0.8905200000000000    0.2658400000000000    0.9871100000000000 H
   0.2052900000000000    0.2719000000000000    0.0095900000000000 H
   0.7052900000000000    0.2719000000000000    0.0095900000000000 H
   0.2098200000000000    0.4483700000000000    0.0000000000000000 H
   0.7098100000000001    0.4483700000000000    0.0000000000000000 H
   0.3727300000000000    0.1477800000000000    0.0864400000000000 H
   0.8727200000000001    0.1477800000000000    0.0864400000000000 H
   0.3677700000000000    0.9691300000000000    0.0924400000000000 H
   0.8677700000000000    0.9691300000000000    0.0924000000000000 H
   0.2238900000000000    0.9439700000000000    0.9386400000000000 H
   0.7238800000000000    0.9439700000000000    0.9386400000000000 H
   0.2207100000000000    0.1220700000000000    0.9282000000000000 H
   0.7207000000000000    0.1220700000000000    0.9282200000000000 H
   0.9727600000000000    0.2918600000000000    0.8707000000000000 C
   0.8718300000000000    0.7005800000000000    0.8817900000000000 C
   0.1218600000000000    0.2993900000000000    0.1181000000000000 C
   0.6218500000000000    0.2993900000000000    0.1181000000000000 C
   0.1601700000000000    0.2991200000000000    0.1943100000000000 C
   0.6601700000000000    0.2991200000000000    0.1943100000000000 C
   0.2003500000000000    0.2252300000000000    0.1998800000000000 C
   0.7003400000000000    0.2252300000000000    0.1998800000000000 C
   0.2363200000000000    0.2260100000000000    0.2703800000000000 C
   0.7363100000000000    0.2260100000000000    0.2703800000000000 C
   0.2312400000000000    0.2985600000000000    0.3387400000000000 C
   0.7312300000000000    0.2985600000000000    0.3387400000000000 C
   0.1900800000000000    0.3711600000000000    0.3334700000000000 C
   0.6900700000000000    0.3711600000000000    0.3334700000000000 C
   0.1557300000000000    0.3727400000000000    0.2614900000000000 C
   0.6557300000000000    0.3727400000000000    0.2614900000000000 C
   0.2665900000000000    0.2980700000000000    0.4169200000000000 C
   0.7665800000000000    0.2980700000000000    0.4169200000000000 C
   0.9143900000000000    0.7067800000000000    0.2016900000000000 C
   0.9526900000000000    0.6308000000000000    0.2100100000000000 C
   0.3272700000000000    0.2987200000000000    0.4159200000000000 C
   0.8272600000000000    0.2987200000000000    0.4159200000000000 C
   0.3566100000000000    0.2975700000000000    0.4933600000000000 C
   0.8566000000000000    0.2975700000000000    0.4933600000000000 C
   0.3284700000000000    0.2955200000000000    0.5716599999999999 C
   0.8284700000000000    0.2955200000000000    0.5716599999999999 C
   0.2678000000000000    0.2942000000000000    0.5724700000000000 C
   0.7678000000000000    0.2942000000000000    0.5724700000000000 C
   0.2384400000000000    0.2956400000000000    0.4951500000000000 C
   0.7384300000000000    0.2956400000000000    0.4951500000000000 C
   0.3636600000000000    0.2943000000000000    0.6499200000000001 C
   0.8636600000000000    0.2943000000000000    0.6499200000000001 C
   0.4052700000000000    0.3659700000000000    0.6693500000000000 C
   0.9052600000000000    0.3659700000000000    0.6693500000000000 C
   0.4394500000000000    0.3664200000000000    0.7416400000000000 C
   0.9394400000000001    0.3664200000000000    0.7416400000000000 C
   0.4344000000000000    0.2925300000000000    0.7946800000000001 C
   0.9344000000000000    0.2925300000000000    0.7946800000000001 C
   0.3936600000000000    0.2196600000000000    0.7749500000000000 C
   0.8936500000000001    0.2196600000000000    0.7749500000000000 C
   0.3579300000000000    0.2215500000000000    0.7044200000000000 C
   0.8579200000000000    0.2215500000000000    0.7044200000000000 C
   0.3614800000000000    0.3013800000000000    0.3368400000000000 C
   0.8614700000000000    0.3013800000000000    0.3368400000000000 C
   0.4041600000000000    0.2315300000000000    0.3167700000000000 C
   0.9041500000000000    0.2315300000000000    0.3167700000000000 C
   0.4379400000000000    0.2335600000000000    0.2443400000000000 C
   0.9379300000000000    0.2335600000000000    0.2443400000000000 C
   0.4311100000000000    0.3071700000000000    0.1912200000000000 C
   0.9311000000000000    0.3071700000000000    0.1912200000000000 C
   0.3891700000000000    0.3780000000000000    0.2115000000000000 C
   0.8891700000000000    0.3780000000000000    0.2115000000000000 C
   0.3541600000000000    0.3740900000000000    0.2826400000000000 C
   0.8541500000000000    0.3740900000000000    0.2826400000000000 C
   0.2336700000000000    0.2932400000000000    0.6518400000000000 C
   0.7336700000000000    0.2932400000000000    0.6518400000000000 C
   0.1945800000000000    0.2182000000000000    0.6598700000000000 C
   0.6945700000000000    0.2182000000000000    0.6598700000000000 C
   0.1610400000000000    0.2173300000000000    0.7327000000000000 C
   0.6610300000000000    0.2173300000000000    0.7327500000000000 C
   0.1644000000000000    0.2931800000000000    0.7982700000000000 C
   0.6644000000000000    0.2931800000000000    0.7982700000000000 C
   0.2026900000000000    0.3691300000000000    0.7899600000000000 C
   0.7026800000000000    0.3691300000000000    0.7899600000000000 C
   0.2376800000000000    0.3681600000000000    0.7183300000000000 C
   0.7376700000000000    0.3681600000000000    0.7183300000000000 C
   0.0982100000000000    0.5974900000000000    0.0113400000000000 C
   0.5982000000000000    0.5974900000000000    0.0113400000000000 C
   0.0995900000000000    0.6962400000000000    0.0076900000000000 C
   0.5995800000000000    0.6962400000000000    0.0076900000000000 C
   0.0479200000000000    0.7458200000000000    0.9996900000000000 C
   0.5479100000000000    0.7458200000000000    0.9996900000000000 C
   0.4966200000000000    0.6932900000000000    0.9964000000000000 C
   0.9966200000000000    0.6932900000000000    0.9964000000000000 C
   0.9988700000000000    0.5944900000000000    0.9987200000000001 C
   0.4988700000000000    0.5944800000000000    0.9987200000000001 C
   0.0472600000000000    0.8505100000000000    0.9943500000000000 C
   0.5472500000000000    0.8505100000000000    0.9943500000000000 C
   0.0892500000000000    0.8946900000000000    0.9478500000000000 C
   0.5892400000000000    0.8946900000000000    0.9478500000000000 C
   0.0868500000000000    0.9933999999999999    0.9440200000000000 C
   0.5868400000000000    0.9933999999999999    0.9440000000000000 C
   0.0053700000000000    0.0073300000000000    0.0291400000000000 C
   0.5053600000000000    0.0073300000000000    0.0291400000000000 C
   0.0042200000000000    0.9089500000000000    0.0348600000000000 C
   0.5042100000000000    0.9089500000000000    0.0348600000000000 C
   0.1260700000000000    0.2929500000000000    0.8744499999999999 C
   0.6260599999999999    0.2929500000000000    0.8744499999999999 C
   0.4692500000000000    0.3084600000000000    0.1149200000000000 C
   0.9692400000000000    0.3084600000000000    0.1149200000000000 C
   0.4727700000000000    0.2918700000000000    0.8707000000000000 C
   0.9101500000000000    0.7008500000000000    0.8056500000000000 C
   0.9503000000000000    0.7747200000000000    0.8000800000000000 C
   0.9862700000000000    0.7739300000000000    0.7295900000000000 C
   0.9812200000000000    0.7013900000000000    0.6612200000000000 C
   0.9400700000000000    0.6288100000000000    0.6664800000000000 C
   0.9057300000000000    0.6272400000000000    0.7384600000000000 C
   0.0165900000000000    0.7018900000000000    0.5830000000000000 C
   0.0772700000000000    0.7012699999999999    0.5840400000000000 C
   0.1066100000000000    0.7024300000000000    0.5065900000000000 C
   0.0784700000000000    0.7044700000000000    0.4283000000000000 C
   0.0178000000000000    0.7057700000000000    0.4274800000000000 C
   0.9884200000000000    0.7043100000000000    0.5048100000000000 C
   0.1136600000000000    0.7057099999999999    0.3500400000000000 C
   0.1552900000000000    0.6340300000000000    0.3305900000000000 C
   0.1894800000000000    0.6336000000000001    0.2583000000000000 C
   0.1844000000000000    0.7075100000000000    0.2052000000000000 C
   0.1436300000000000    0.7803800000000000    0.2250300000000000 C
   0.1079000000000000    0.7784799999999999    0.2955600000000000 C
   0.1114700000000000    0.6986200000000000    0.6631100000000000 C
   0.1541300000000000    0.7684600000000000    0.6831000000000000 C
   0.1879000000000000    0.7664500000000000    0.7556000000000000 C
   0.1811000000000000    0.6928500000000000    0.8087400000000000 C
   0.1391900000000000    0.6220300000000000    0.7884800000000000 C
   0.1041800000000000    0.6259300000000000    0.7173400000000000 C
   0.9836600000000000    0.7067200000000000    0.3481100000000000 C
   0.9445500000000000    0.7817800000000000    0.3400700000000000 C
   0.9110100000000000    0.7826500000000000    0.2671900000000000 C
   0.9876800000000000    0.6317800000000000    0.2816400000000000 C
   0.3482400000000000    0.4024300000000000    0.9886400000000000 C
   0.8482300000000000    0.4024300000000000    0.9886400000000000 C
   0.3496100000000000    0.3036800000000000    0.9922900000000000 C
   0.8496000000000000    0.3036800000000000    0.9922900000000000 C
   0.2979300000000000    0.2541800000000000    0.0000000000000000 C
   0.7979200000000000    0.2541700000000000    0.0000000000000000 C
   0.2466500000000000    0.3067800000000000    0.0000000000000000 C
   0.7466400000000000    0.3067800000000000    0.0000000000000000 C
   0.2489000000000000    0.4055800000000000    0.0000000000000000 C
   0.7488899999999999    0.4055800000000000    0.0000000000000000 C
   0.2972600000000000    0.1494800000000000    0.0000000000000000 C
   0.7972600000000000    0.1494800000000000    0.0000000000000000 C
   0.3392300000000000    0.1052300000000000    0.0521100000000000 C
   0.8392200000000000    0.1052300000000000    0.0521100000000000 C
   0.3368100000000000    0.0000000000000000    0.0559400000000000 C
   0.8368000000000000    0.0000000000000000    0.0559400000000000 C
   0.2553600000000000    0.9927300000000000    0.9708200000000000 C
   0.7553500000000000    0.9927300000000000    0.9708200000000000 C
   0.2542200000000000    0.0911100000000000    0.9651000000000000 C
   0.7542100000000000    0.0911100000000000    0.9651000000000000 C
   0.8760500000000000    0.7070200000000000    0.1255200000000000 C
   0.2192300000000000    0.6915600000000000    0.8850400000000000 C
   0.2227600000000000    0.7081600000000000    0.1292600000000000 C
   0.0487600000000000    0.5469300000000000    0.0060200000000000 N
   0.5487600000000000    0.5469300000000000    0.0060200000000000 N
   0.0459500000000000    0.0493200000000000    0.9845100000000000 N
   0.5459400000000000    0.0493100000000000    0.9845000000000000 N
   0.2987900000000000    0.4530600000000000    0.9939400000000000 N
   0.7987900000000000    0.4530600000000000    0.9939400000000000 N
   0.2959100000000000    0.9506800000000000    0.0154600000000000 N
   0.7959000000000001    0.9506800000000000    0.0154600000000000 N
   0.0971800000000000    0.3787400000000000    0.1073400000000000 O
   0.5971700000000000    0.3787400000000000    0.1073400000000000 O
   0.1169600000000000    0.2209100000000000    0.0695700000000000 O
   0.6169500000000000    0.2209100000000000    0.0695700000000000 O
   0.1197200000000000    0.3714200000000000    0.9223000000000000 O
   0.6197100000000000    0.3714200000000000    0.9223000000000000 O
   0.1022000000000000    0.2126500000000000    0.8855400000000000 O
   0.6021900000000000    0.2126500000000000    0.8855400000000000 O
   0.4933000000000000    0.2284400000000000    0.0887400000000000 O
   0.9932900000000000    0.2284400000000000    0.0887400000000000 O
   0.4752000000000000    0.3869900000000000    0.0817300000000000 O
   0.9751900000000000    0.3869900000000000    0.0817300000000000 O
   0.4976500000000000    0.3709900000000000    0.8963000000000000 O
   0.9976500000000000    0.3709900000000000    0.8963000000000000 O
   0.4778100000000000    0.2132500000000000    0.9044100000000000 O
   0.9778000000000000    0.2132500000000000    0.9044100000000000 O
   0.8471800000000000    0.6212400000000000    0.8926200000000000 O
   0.8669100000000000    0.7790600000000000    0.9304000000000000 O
   0.8697100000000000    0.6285500000000001    0.0776000000000000 O
   0.8521700000000000    0.7873500000000000    0.1144200000000000 O
   0.2432500000000000    0.7715700000000000    0.9112300000000000 O
   0.2252200000000000    0.6130200000000000    0.9182300000000000 O
   0.2476600000000000    0.6290100000000000    0.1035000000000000 O
   0.2278000000000000    0.7867800000000000    0.0955600000000000 O
