H4 C4 N2
1.0
  15.1309979258752669    0.0000000000000000   -0.0079225727115734
  -0.6675681118219190   14.3905227869120296   -0.0065372352087385
   0.0000000000000000    0.0000000000000000   21.1290000000000013
H C N
4 4 2
direct
   0.0851800000000000    0.4751600000000000    0.3839200000000000 H
   0.9166299999999999    0.4730500000000000    0.3839400000000000 H
   0.9245800000000000    0.7174600000000000    0.4885800000000000 H
   0.0935700000000000    0.7183800000000000    0.4897100000000000 H
   0.0487300000000000    0.5284300000000000    0.4078800000000000 C
   0.9566300000000000    0.5274700000000000    0.4077400000000000 C
   0.9612100000000000    0.6631000000000000    0.4658900000000000 C
   0.0532700000000000    0.6636900000000000    0.4663800000000000 C
   0.0966400000000000    0.5959200000000000    0.4378500000000000 N
   0.9132300000000000    0.5943700000000000    0.4372000000000000 N
