H4 O2
1.0
  15.1309979258752669    0.0000000000000000   -0.0079225727115734
  -0.6675681118219190   14.3905227869120296   -0.0065372352087385
   0.0000000000000000    0.0000000000000000   21.1290000000000013
H O
4 2
direct
   0.0617482666701661    0.5467686102602693    0.4160235494073237 H
   0.0650633166273466    0.6452617531050201    0.4586220262075583 H
   0.9481552315706339    0.6443994115433445    0.4580838035381719 H
   0.9448316824821088    0.5456568074181318    0.4157487196791952 H
   0.0966400000000000    0.5959200000000000    0.4378500000000000 O
   0.9132300000000000    0.5943700000000000    0.4372000000000000 O
