H3 C8 N1 O6
1.0
  15.1309979258752669    0.0000000000000000   -0.0079225727115734
  -0.6675681118219190   14.3905227869120296   -0.0065372352087385
   0.0000000000000000    0.0000000000000000   21.1290000000000013
H C N O
3 8 1 6
direct
   0.7552200000000000    0.3329400000000000    0.9061500000000000 H
   0.7455900000000000    0.0627600000000000    0.8176099999999999 H
   0.7404400000000000    0.1382000000000000    0.7121600000000000 H
   0.7438399999999999    0.2772700000000000    0.7484300000000000 C
   0.7479000000000000    0.3304500000000000    0.8040800000000000 C
   0.7516100000000000    0.2902900000000000    0.8636100000000000 C
   0.7503300000000001    0.1931900000000000    0.8690200000000000 C
   0.7460800000000000    0.1382400000000000    0.8142000000000000 C
   0.7431100000000000    0.1803400000000000    0.7549100000000000 C
   0.7427900000000000    0.3191600000000000    0.6833100000000000 C
   0.7531500000000000    0.1514100000000000    0.9338800000000000 C
   0.7468399999999999    0.4331500000000000    0.8028600000000000 N
   0.7566300000000000    0.4071700000000000    0.6777200000000000 O
   0.7294200000000000    0.2655800000000000    0.6360000000000000 O
   0.7486800000000000    1.0633200000000000    0.9412900000000000 O
   0.7593600000000000    0.2070100000000000   -0.0191000000000000 O
   0.8185200000000000    0.4766100000000000    0.8111500000000000 O
   0.6737300000000001    0.4676900000000000    0.7972399999999999 O
