H6 O4
1.0
  12.7071984934518980    0.0000000000000000   -0.0061877309114564
  19.0034161033409461   33.2917715463566708   -0.1538821252721133
   0.0000000000000000    0.0000000000000000   18.4460000000000015
H O
6 4
direct
   0.8388950421949848    0.3012497802658818    0.4633054367511024 H
   0.7254259866902886    0.2272599997862902    0.5240503481649416 H
   0.7698672613622082    0.2668458056206428    0.4936216231110231 H
   0.4643631550554997    0.3639526794969747    0.2442639364253858 H
   0.3231929382023914    0.3430385848832879    0.2911734355209056 H
   0.3821811239945926    0.4330071393950935    0.2122236992542218 H
   0.8539000000000000    0.2748900000000000    0.4778900000000000 O
   0.7889400000000000    0.2333400000000000    0.5121599999999999 O
   0.4572900000000000    0.3414633333333333    0.2622800000000000 O
   0.3453800000000000    0.3159966666666666    0.3059600000000000 O
