H3 O2
1.0
  39.4320000000000022    0.0000000000000000    0.0000000000000024
   0.0000000000000042   26.0259999999999998    0.0000000000000016
   0.0000000000000000    0.0000000000000000   23.5109999999999992
H O
3 2
direct
   0.4680638440074217    0.9082149030100599    0.0557022250513248 H
   0.5319361993072473    0.9082199191962107    0.0557021545379583 H
   0.5000000000000000    0.6006056018728956    0.0137278621086010 H
   0.4711400000000000    0.9449149999999999    0.0607100000000000 O
   0.5288600000000000    0.9449200000000000    0.0607100000000000 O
