Zn24 Si12 H191 C329 O96
1.0
  39.4320000000000022    0.0000000000000000    0.0000000000000024
   0.0000000000000042   26.0259999999999998    0.0000000000000016
   0.0000000000000000    0.0000000000000000   23.5109999999999992
Zn Si H C O
24 12 191 329 96
direct
   0.4677700000000000    0.0000000000000000    0.0000000000000000 Zn
   0.5322300000000000    0.0000000000000000    0.0000000000000000 Zn
   0.0000000000000000    0.2008100000000000    0.4999900000000000 Zn
   0.0000000000000000    0.2992100000000000    0.4999900000000000 Zn
   0.3333333333333333    0.2008100000000000    0.4999900000000000 Zn
   0.6666666666666666    0.2008100000000000    0.4999900000000000 Zn
   0.6666666666666666    0.2992100000000000    0.4999900000000000 Zn
   0.3333333333333333    0.2992100000000000    0.4999900000000000 Zn
   0.1988966666666667    0.5000000000000000    0.0000000000000000 Zn
   0.8655633333333332    0.5000000000000000    0.0000000000000000 Zn
   0.5322300000000000    0.5000000000000000    0.0000000000000000 Zn
   0.1344366666666666    0.5000000000000000    0.0000000000000000 Zn
   0.4677700000000000    0.5000000000000000    0.0000000000000000 Zn
   0.8011033333333333    0.5000000000000000    0.0000000000000000 Zn
   0.0000000000000000    0.7008099999999999    0.4999900000000000 Zn
   0.0000000000000000    0.7992100000000000    0.4999900000000000 Zn
   0.3333333333333333    0.7008099999999999    0.4999900000000000 Zn
   0.6666666666666666    0.7008099999999999    0.4999900000000000 Zn
   0.6666666666666666    0.7992100000000000    0.4999900000000000 Zn
   0.3333333333333333    0.7992100000000000    0.4999900000000000 Zn
   0.8655633333333332    0.0000000000000000    0.0000000000000000 Zn
   0.1988966666666667    0.0000000000000000    0.0000000000000000 Zn
   0.8011033333333333    0.0000000000000000    0.0000000000000000 Zn
   0.1344366666666666    0.0000000000000000    0.0000000000000000 Zn
   0.8333333333333333    0.2500050000000000    0.2515300000000000 Si
   0.8333333333333333    0.2500050000000000    0.7484499999999999 Si
   0.1666666666666667    0.2500050000000000    0.2515300000000000 Si
   0.1666666666666667    0.2500050000000000    0.7484499999999999 Si
   0.5000000000000000    0.2500050000000000    0.2515300000000000 Si
   0.5000000000000000    0.2500050000000000    0.7484499999999999 Si
   0.8333333333333333    0.7500050000000000    0.2515300000000000 Si
   0.8333333333333333    0.7500050000000000    0.7484499999999999 Si
   0.1666666666666667    0.7500050000000000    0.2515300000000000 Si
   0.1666666666666667    0.7500050000000000    0.7484499999999999 Si
   0.5000000000000000    0.7500050000000000    0.2515300000000000 Si
   0.5000000000000000    0.7500050000000000    0.7484499999999999 Si
   0.4680638440074217    0.9082149030100599    0.0557022250513248 H
   0.5319361993072473    0.9082199191962107    0.0557021545379583 H
   0.9221066666666666    0.1675500000000000    0.3750600000000000 H
   0.8752433333333333    0.1670000000000000    0.3046200000000000 H
   0.9220966666666666    0.3324650000000000    0.3750600000000000 H
   0.8752400000000000    0.3330050000000000    0.3046100000000000 H
   0.7445700000000000    0.1675450000000000    0.3750000000000000 H
   0.7914266666666666    0.1670050000000000    0.3046000000000000 H
   0.7445633333333332    0.3324600000000000    0.3750600000000000 H
   0.7914233333333333    0.3330100000000000    0.3046200000000000 H
   0.7789066666666666    0.1168500000000000    0.1263400000000000 H
   0.7785500000000000    0.1867650000000000    0.1980900000000000 H
   0.8877599999999999    0.1168500000000000    0.1263400000000000 H
   0.8881166666666667    0.1867650000000000    0.1981000000000000 H
   0.7789066666666666    0.3831600000000000    0.1263400000000000 H
   0.7785500000000000    0.3132450000000000    0.1981000000000000 H
   0.8877599999999999    0.3831600000000000    0.1263400000000000 H
   0.8881166666666667    0.3132450000000000    0.1980900000000000 H
   0.7789100000000000    0.3831600000000000    0.8736400000000000 H
   0.7785500000000000    0.3132450000000000    0.8018900000000000 H
   0.8877599999999999    0.3831600000000000    0.8736400000000000 H
   0.8881199999999999    0.3132450000000000    0.8018900000000000 H
   0.7789066666666666    0.1168500000000000    0.8736400000000000 H
   0.7785500000000000    0.1867650000000000    0.8018900000000000 H
   0.8877599999999999    0.1168550000000000    0.8736400000000000 H
   0.8881166666666667    0.1867650000000000    0.8018900000000000 H
   0.9220966666666666    0.1675450000000000    0.6249200000000000 H
   0.8752400000000000    0.1670050000000000    0.6953700000000000 H
   0.9221066666666666    0.3324600000000000    0.6249200000000000 H
   0.8752433333333333    0.3330100000000000    0.6953600000000000 H
   0.7445733333333333    0.3324650000000000    0.6249200000000000 H
   0.7914266666666666    0.3330100000000000    0.6953700000000000 H
   0.7445633333333332    0.1675550000000000    0.6249200000000000 H
   0.7914233333333333    0.1670050000000000    0.6953600000000000 H
   0.2554400000000000    0.1675500000000000    0.3750600000000000 H
   0.2085766666666667    0.1670000000000000    0.3046200000000000 H
   0.2554300000000000    0.3324650000000000    0.3750600000000000 H
   0.2085733333333333    0.3330050000000000    0.3046100000000000 H
   0.0779033333333333    0.1675450000000000    0.3750000000000000 H
   0.1247600000000000    0.1670050000000000    0.3046000000000000 H
   0.0778966666666667    0.3324600000000000    0.3750600000000000 H
   0.1247566666666667    0.3330100000000000    0.3046200000000000 H
   0.1122400000000000    0.1168500000000000    0.1263400000000000 H
   0.1118833333333333    0.1867650000000000    0.1980900000000000 H
   0.2210933333333333    0.1168500000000000    0.1263400000000000 H
   0.2214500000000000    0.1867650000000000    0.1981000000000000 H
   0.2210933333333333    0.3831600000000000    0.1263400000000000 H
   0.2214500000000000    0.3132450000000000    0.1980900000000000 H
   0.1122400000000000    0.3831600000000000    0.1263400000000000 H
   0.1118833333333333    0.3132450000000000    0.1981000000000000 H
   0.2210933333333333    0.3831600000000000    0.8736400000000000 H
   0.2214533333333333    0.3132450000000000    0.8018900000000000 H
   0.1122433333333333    0.3831600000000000    0.8736400000000000 H
   0.1118833333333333    0.3132450000000000    0.8018900000000000 H
   0.1122400000000000    0.1168500000000000    0.8736400000000000 H
   0.1118833333333333    0.1867650000000000    0.8018900000000000 H
   0.2210933333333333    0.1168550000000000    0.8736400000000000 H
   0.2214500000000000    0.1867650000000000    0.8018900000000000 H
   0.2554300000000000    0.1675450000000000    0.6249200000000000 H
   0.2085733333333333    0.1670050000000000    0.6953700000000000 H
   0.2554400000000000    0.3324600000000000    0.6249200000000000 H
   0.2085766666666667    0.3330100000000000    0.6953600000000000 H
   0.0779066666666667    0.3324650000000000    0.6249200000000000 H
   0.1247600000000000    0.3330100000000000    0.6953700000000000 H
   0.0778966666666667    0.1675550000000000    0.6249200000000000 H
   0.1247566666666667    0.1670050000000000    0.6953600000000000 H
   0.4112366666666666    0.1675450000000000    0.3750000000000000 H
   0.4580933333333333    0.1670050000000000    0.3046000000000000 H
   0.4112300000000000    0.3324600000000000    0.3750600000000000 H
   0.4580900000000000    0.3330100000000000    0.3046200000000000 H
   0.5887733333333334    0.1675500000000000    0.3750600000000000 H
   0.5419100000000000    0.1670000000000000    0.3046200000000000 H
   0.5887633333333333    0.3324650000000000    0.3750600000000000 H
   0.5419066666666666    0.3330050000000000    0.3046100000000000 H
   0.4455733333333333    0.1168500000000000    0.1263400000000000 H
   0.4452166666666666    0.1867650000000000    0.1980900000000000 H
   0.5544266666666666    0.1168500000000000    0.1263400000000000 H
   0.5547833333333333    0.1867650000000000    0.1981000000000000 H
   0.4455733333333333    0.3831600000000000    0.1263400000000000 H
   0.4452166666666666    0.3132450000000000    0.1981000000000000 H
   0.5544266666666666    0.3831600000000000    0.1263400000000000 H
   0.5547833333333333    0.3132450000000000    0.1980900000000000 H
   0.4455766666666666    0.3831600000000000    0.8736400000000000 H
   0.4452166666666666    0.3132450000000000    0.8018900000000000 H
   0.5544266666666666    0.3831600000000000    0.8736400000000000 H
   0.5547866666666667    0.3132450000000000    0.8018900000000000 H
   0.4455733333333333    0.1168500000000000    0.8736400000000000 H
   0.4452166666666666    0.1867650000000000    0.8018900000000000 H
   0.5544266666666666    0.1168550000000000    0.8736400000000000 H
   0.5547833333333333    0.1867650000000000    0.8018900000000000 H
   0.4112400000000000    0.3324650000000000    0.6249200000000000 H
   0.4580933333333333    0.3330100000000000    0.6953700000000000 H
   0.4112300000000000    0.1675550000000000    0.6249200000000000 H
   0.4580900000000000    0.1670050000000000    0.6953600000000000 H
   0.5887633333333333    0.1675450000000000    0.6249200000000000 H
   0.5419066666666666    0.1670050000000000    0.6953700000000000 H
   0.5887733333333334    0.3324600000000000    0.6249200000000000 H
   0.5419100000000000    0.3330100000000000    0.6953600000000000 H
   0.9221066666666666    0.6675500000000000    0.3750600000000000 H
   0.8752433333333333    0.6670000000000000    0.3046200000000000 H
   0.9220966666666666    0.8324650000000000    0.3750600000000000 H
   0.8752400000000000    0.8330050000000000    0.3046100000000000 H
   0.7445700000000000    0.6675450000000001    0.3750000000000000 H
   0.7914266666666666    0.6670050000000000    0.3046000000000000 H
   0.7445633333333332    0.8324600000000000    0.3750600000000000 H
   0.7914233333333333    0.8330100000000000    0.3046200000000000 H
   0.8877599999999999    0.6168500000000000    0.1263400000000000 H
   0.8881166666666667    0.6867650000000000    0.1981000000000000 H
   0.7789066666666666    0.6168500000000000    0.1263400000000000 H
   0.7785500000000000    0.6867650000000000    0.1980900000000000 H
   0.7789066666666666    0.8831599999999999    0.1263400000000000 H
   0.7785500000000000    0.8132450000000000    0.1981000000000000 H
   0.8877599999999999    0.8831599999999999    0.1263400000000000 H
   0.8881166666666667    0.8132450000000000    0.1980900000000000 H
   0.7789100000000000    0.8831599999999999    0.8736400000000000 H
   0.7785500000000000    0.8132450000000000    0.8018900000000000 H
   0.8877599999999999    0.8831599999999999    0.8736400000000000 H
   0.8881199999999999    0.8132450000000000    0.8018900000000000 H
   0.7789066666666666    0.6168500000000000    0.8736400000000000 H
   0.7785500000000000    0.6867650000000000    0.8018900000000000 H
   0.8877599999999999    0.6168550000000000    0.8736400000000000 H
   0.8881166666666667    0.6867650000000000    0.8018900000000000 H
   0.9220966666666666    0.6675450000000001    0.6249200000000000 H
   0.8752400000000000    0.6670050000000000    0.6953700000000000 H
   0.9221066666666666    0.8324600000000000    0.6249200000000000 H
   0.8752433333333333    0.8330100000000000    0.6953600000000000 H
   0.7445733333333333    0.8324650000000000    0.6249200000000000 H
   0.7914266666666666    0.8330100000000000    0.6953700000000000 H
   0.7445633333333332    0.6675550000000000    0.6249200000000000 H
   0.7914233333333333    0.6670050000000000    0.6953600000000000 H
   0.2554400000000000    0.6675500000000000    0.3750600000000000 H
   0.2085766666666667    0.6670000000000000    0.3046200000000000 H
   0.2554300000000000    0.8324650000000000    0.3750600000000000 H
   0.2085733333333333    0.8330050000000000    0.3046100000000000 H
   0.0779033333333333    0.6675450000000001    0.3750000000000000 H
   0.1247600000000000    0.6670050000000000    0.3046000000000000 H
   0.0778966666666667    0.8324600000000000    0.3750600000000000 H
   0.1247566666666667    0.8330100000000000    0.3046200000000000 H
   0.1122400000000000    0.6168500000000000    0.1263400000000000 H
   0.1118833333333333    0.6867650000000000    0.1980900000000000 H
   0.2210933333333333    0.6168500000000000    0.1263400000000000 H
   0.2214500000000000    0.6867650000000000    0.1981000000000000 H
   0.1122400000000000    0.8831599999999999    0.1263400000000000 H
   0.1118833333333333    0.8132450000000000    0.1981000000000000 H
   0.2210933333333333    0.8831599999999999    0.1263400000000000 H
   0.2214500000000000    0.8132450000000000    0.1980900000000000 H
   0.2210933333333333    0.8831599999999999    0.8736400000000000 H
   0.2214533333333333    0.8132450000000000    0.8018900000000000 H
   0.1122433333333333    0.8831599999999999    0.8736400000000000 H
   0.1118833333333333    0.8132450000000000    0.8018900000000000 H
   0.1122400000000000    0.6168500000000000    0.8736400000000000 H
   0.1118833333333333    0.6867650000000000    0.8018900000000000 H
   0.2210933333333333    0.6168550000000000    0.8736400000000000 H
   0.2214500000000000    0.6867650000000000    0.8018900000000000 H
   0.0779066666666667    0.8324650000000000    0.6249200000000000 H
   0.1247600000000000    0.8330100000000000    0.6953700000000000 H
   0.0778966666666667    0.6675550000000000    0.6249200000000000 H
   0.1247566666666667    0.6670050000000000    0.6953600000000000 H
   0.2554300000000000    0.6675450000000001    0.6249200000000000 H
   0.2085733333333333    0.6670050000000000    0.6953700000000000 H
   0.2554400000000000    0.8324600000000000    0.6249200000000000 H
   0.2085766666666667    0.8330100000000000    0.6953600000000000 H
   0.4112366666666666    0.6675450000000001    0.3750000000000000 H
   0.4580933333333333    0.6670050000000000    0.3046000000000000 H
   0.4112300000000000    0.8324600000000000    0.3750600000000000 H
   0.4580900000000000    0.8330100000000000    0.3046200000000000 H
   0.5887733333333334    0.6675500000000000    0.3750600000000000 H
   0.5419100000000000    0.6670000000000000    0.3046200000000000 H
   0.5887633333333333    0.8324650000000000    0.3750600000000000 H
   0.5419066666666666    0.8330050000000000    0.3046100000000000 H
   0.4455733333333333    0.6168500000000000    0.1263400000000000 H
   0.4452166666666666    0.6867650000000000    0.1980900000000000 H
   0.5544266666666666    0.6168500000000000    0.1263400000000000 H
   0.5547833333333333    0.6867650000000000    0.1981000000000000 H
   0.5000000000000000    0.6006056018728956    0.0137278621086010 H
   0.4455766666666666    0.8831599999999999    0.8736400000000000 H
   0.4452166666666666    0.8132450000000000    0.8018900000000000 H
   0.5544266666666666    0.8831599999999999    0.8736400000000000 H
   0.5547866666666667    0.8132450000000000    0.8018900000000000 H
   0.4455733333333333    0.6168500000000000    0.8736400000000000 H
   0.4452166666666666    0.6867650000000000    0.8018900000000000 H
   0.5544266666666666    0.6168550000000000    0.8736400000000000 H
   0.5547833333333333    0.6867650000000000    0.8018900000000000 H
   0.4112400000000000    0.8324650000000000    0.6249200000000000 H
   0.4580933333333333    0.8330100000000000    0.6953700000000000 H
   0.4112300000000000    0.6675550000000000    0.6249200000000000 H
   0.4580900000000000    0.6670050000000000    0.6953600000000000 H
   0.5887633333333333    0.6675450000000001    0.6249200000000000 H
   0.5419066666666666    0.6670050000000000    0.6953700000000000 H
   0.5887733333333334    0.8324600000000000    0.6249200000000000 H
   0.5419100000000000    0.8330100000000000    0.6953600000000000 H
   0.9527366666666666    0.2500250000000000    0.4224400000000000 C
   0.9116533333333332    0.2034900000000000    0.3590800000000000 C
   0.8853633333333333    0.2036400000000000    0.3195200000000000 C
   0.9116466666666666    0.2965250000000000    0.3590800000000000 C
   0.8853599999999999    0.2963700000000000    0.3195000000000000 C
   0.9249433333333332    0.2500100000000000    0.3792600000000000 C
   0.8716800000000000    0.2500050000000000    0.2989100000000000 C
   0.7139300000000000    0.2499900000000000    0.4224000000000000 C
   0.7550200000000000    0.2034900000000000    0.3590800000000000 C
   0.7813066666666666    0.2036400000000000    0.3195000000000000 C
   0.7550133333333333    0.2965200000000000    0.3590800000000000 C
   0.7813033333333332    0.2963700000000000    0.3195200000000000 C
   0.7417233333333333    0.2500050000000000    0.3792600000000000 C
   0.7949866666666666    0.2500050000000000    0.2989100000000000 C
   0.8333333333333333    0.0712750000000000    0.0780100000000000 C
   0.8026300000000000    0.1324350000000000    0.1426200000000000 C
   0.8027299999999999    0.1716600000000000    0.1829200000000000 C
   0.8640366666666666    0.1324350000000000    0.1426200000000000 C
   0.8639366666666666    0.1716600000000000    0.1829200000000000 C
   0.8333333333333333    0.1126750000000000    0.1220000000000000 C
   0.8333333333333333    0.1920800000000000    0.2038900000000000 C
   0.8333333333333333    0.4287350000000000    0.0780100000000000 C
   0.8026300000000000    0.3675750000000000    0.1426200000000000 C
   0.8027299999999999    0.3283500000000000    0.1829200000000000 C
   0.8640366666666666    0.3675750000000000    0.1426200000000000 C
   0.8639366666666666    0.3283500000000000    0.1829200000000000 C
   0.8333333333333333    0.3873350000000000    0.1220000000000000 C
   0.8333333333333333    0.3079250000000000    0.2038900000000000 C
   0.8333333333333333    0.4287400000000000    0.9219700000000000 C
   0.8026300000000000    0.3675750000000000    0.8573600000000000 C
   0.8027299999999999    0.3283500000000000    0.8169999999999999 C
   0.8640366666666666    0.3675750000000000    0.8573600000000000 C
   0.8639366666666666    0.3283500000000000    0.8170600000000000 C
   0.8333333333333333    0.3873350000000000    0.8779800000000000 C
   0.8333333333333333    0.3079300000000000    0.7960900000000000 C
   0.8333333333333333    0.0712750000000000    0.9219700000000000 C
   0.8026300000000000    0.1324350000000000    0.8573600000000000 C
   0.8027299999999999    0.1716650000000000    0.8170600000000000 C
   0.8640366666666666    0.1324350000000000    0.8573600000000000 C
   0.8639366666666666    0.1716650000000000    0.8169999999999999 C
   0.8333333333333333    0.1126800000000000    0.8779800000000000 C
   0.8333333333333333    0.1920850000000000    0.7960900000000000 C
   0.9527366666666666    0.2499900000000000    0.5775500000000000 C
   0.9116500000000000    0.2034900000000000    0.6409000000000000 C
   0.8853599999999999    0.2036400000000000    0.6804700000000000 C
   0.9116533333333332    0.2965200000000000    0.6409000000000000 C
   0.8853633333333333    0.2963700000000000    0.6804000000000000 C
   0.9249433333333332    0.2500050000000000    0.6207300000000000 C
   0.8716800000000000    0.2500050000000000    0.7010800000000000 C
   0.7139333333333333    0.2500250000000000    0.5775500000000000 C
   0.7550200000000000    0.2965250000000000    0.6409000000000000 C
   0.7813099999999999    0.2963700000000000    0.6804700000000000 C
   0.7550133333333333    0.2034950000000000    0.6409000000000000 C
   0.7813066666666666    0.2036400000000000    0.6804000000000000 C
   0.7417266666666666    0.2500100000000000    0.6207300000000000 C
   0.7949866666666666    0.2500050000000000    0.7010800000000000 C
   0.2860700000000000    0.2500250000000000    0.4224400000000000 C
   0.2449866666666666    0.2034900000000000    0.3590800000000000 C
   0.2186966666666667    0.2036400000000000    0.3195200000000000 C
   0.2449800000000000    0.2965250000000000    0.3590800000000000 C
   0.2186933333333333    0.2963700000000000    0.3195000000000000 C
   0.2582766666666667    0.2500100000000000    0.3792600000000000 C
   0.2050133333333333    0.2500050000000000    0.2989100000000000 C
   0.0472633333333333    0.2499900000000000    0.4224000000000000 C
   0.0883533333333333    0.2034900000000000    0.3590800000000000 C
   0.1146400000000000    0.2036400000000000    0.3195000000000000 C
   0.0883466666666667    0.2965200000000000    0.3590800000000000 C
   0.1146366666666667    0.2963700000000000    0.3195200000000000 C
   0.0750566666666667    0.2500050000000000    0.3792600000000000 C
   0.1283200000000000    0.2500050000000000    0.2989100000000000 C
   0.1666666666666667    0.0712750000000000    0.0780100000000000 C
   0.1359633333333333    0.1324350000000000    0.1426200000000000 C
   0.1360633333333333    0.1716600000000000    0.1829200000000000 C
   0.1973700000000000    0.1324350000000000    0.1426200000000000 C
   0.1972700000000000    0.1716600000000000    0.1829200000000000 C
   0.1666666666666667    0.1126750000000000    0.1220000000000000 C
   0.1666666666666667    0.1920800000000000    0.2038900000000000 C
   0.1666666666666667    0.4287350000000000    0.0780100000000000 C
   0.1973700000000000    0.3675750000000000    0.1426200000000000 C
   0.1972700000000000    0.3283500000000000    0.1829200000000000 C
   0.1359633333333333    0.3675750000000000    0.1426200000000000 C
   0.1360633333333333    0.3283500000000000    0.1829200000000000 C
   0.1666666666666667    0.3873350000000000    0.1220000000000000 C
   0.1666666666666667    0.3079250000000000    0.2038900000000000 C
   0.1666666666666667    0.4287400000000000    0.9219700000000000 C
   0.1973700000000000    0.3675750000000000    0.8573600000000000 C
   0.1972700000000000    0.3283500000000000    0.8170600000000000 C
   0.1359633333333333    0.3675750000000000    0.8573600000000000 C
   0.1360633333333333    0.3283500000000000    0.8169999999999999 C
   0.1666666666666667    0.3873350000000000    0.8779800000000000 C
   0.1666666666666667    0.3079300000000000    0.7960900000000000 C
   0.1666666666666667    0.0712750000000000    0.9219700000000000 C
   0.1359633333333333    0.1324350000000000    0.8573600000000000 C
   0.1360633333333333    0.1716650000000000    0.8170600000000000 C
   0.1973700000000000    0.1324350000000000    0.8573600000000000 C
   0.1972700000000000    0.1716650000000000    0.8169999999999999 C
   0.1666666666666667    0.1126800000000000    0.8779800000000000 C
   0.1666666666666667    0.1920850000000000    0.7960900000000000 C
   0.2860700000000000    0.2499900000000000    0.5775500000000000 C
   0.2449833333333333    0.2034900000000000    0.6409000000000000 C
   0.2186933333333333    0.2036400000000000    0.6804700000000000 C
   0.2449866666666666    0.2965200000000000    0.6409000000000000 C
   0.2186966666666667    0.2963700000000000    0.6804000000000000 C
   0.2582766666666667    0.2500050000000000    0.6207300000000000 C
   0.2050133333333333    0.2500050000000000    0.7010800000000000 C
   0.0472666666666667    0.2500250000000000    0.5775500000000000 C
   0.0883533333333333    0.2965250000000000    0.6409000000000000 C
   0.1146433333333333    0.2963700000000000    0.6804700000000000 C
   0.0883466666666667    0.2034950000000000    0.6409000000000000 C
   0.1146400000000000    0.2036400000000000    0.6804000000000000 C
   0.0750600000000000    0.2500100000000000    0.6207300000000000 C
   0.1283200000000000    0.2500050000000000    0.7010800000000000 C
   0.3805966666666666    0.2499900000000000    0.4224000000000000 C
   0.4216866666666667    0.2034900000000000    0.3590800000000000 C
   0.4479733333333333    0.2036400000000000    0.3195000000000000 C
   0.4216799999999999    0.2965200000000000    0.3590800000000000 C
   0.4479700000000000    0.2963700000000000    0.3195200000000000 C
   0.4083900000000000    0.2500050000000000    0.3792600000000000 C
   0.4616533333333333    0.2500050000000000    0.2989100000000000 C
   0.6194033333333333    0.2500250000000000    0.4224400000000000 C
   0.5783199999999999    0.2034900000000000    0.3590800000000000 C
   0.5520300000000000    0.2036400000000000    0.3195200000000000 C
   0.5783133333333333    0.2965250000000000    0.3590800000000000 C
   0.5520266666666667    0.2963700000000000    0.3195000000000000 C
   0.5916100000000000    0.2500100000000000    0.3792600000000000 C
   0.5383466666666666    0.2500050000000000    0.2989100000000000 C
   0.5000000000000000    0.0712750000000000    0.0780100000000000 C
   0.4692966666666666    0.1324350000000000    0.1426200000000000 C
   0.4693966666666666    0.1716600000000000    0.1829200000000000 C
   0.5307033333333333    0.1324350000000000    0.1426200000000000 C
   0.5306033333333333    0.1716600000000000    0.1829200000000000 C
   0.5000000000000000    0.1126750000000000    0.1220000000000000 C
   0.5000000000000000    0.1920800000000000    0.2038900000000000 C
   0.5000000000000000    0.4287350000000000    0.0780100000000000 C
   0.4692966666666666    0.3675750000000000    0.1426200000000000 C
   0.4693966666666666    0.3283500000000000    0.1829200000000000 C
   0.5307033333333333    0.3675750000000000    0.1426200000000000 C
   0.5306033333333333    0.3283500000000000    0.1829200000000000 C
   0.5000000000000000    0.3873350000000000    0.1220000000000000 C
   0.5000000000000000    0.3079250000000000    0.2038900000000000 C
   0.5000000000000000    0.4287400000000000    0.9219700000000000 C
   0.4692966666666666    0.3675750000000000    0.8573600000000000 C
   0.4693966666666666    0.3283500000000000    0.8169999999999999 C
   0.5307033333333333    0.3675750000000000    0.8573600000000000 C
   0.5306033333333333    0.3283500000000000    0.8170600000000000 C
   0.5000000000000000    0.3873350000000000    0.8779800000000000 C
   0.5000000000000000    0.3079300000000000    0.7960900000000000 C
   0.5000000000000000    0.0712750000000000    0.9219700000000000 C
   0.4692966666666666    0.1324350000000000    0.8573600000000000 C
   0.4693966666666666    0.1716650000000000    0.8170600000000000 C
   0.5307033333333333    0.1324350000000000    0.8573600000000000 C
   0.5306033333333333    0.1716650000000000    0.8169999999999999 C
   0.5000000000000000    0.1126800000000000    0.8779800000000000 C
   0.5000000000000000    0.1920850000000000    0.7960900000000000 C
   0.3806000000000000    0.2500250000000000    0.5775500000000000 C
   0.4216866666666667    0.2965250000000000    0.6409000000000000 C
   0.4479766666666666    0.2963700000000000    0.6804700000000000 C
   0.4216799999999999    0.2034950000000000    0.6409000000000000 C
   0.4479733333333333    0.2036400000000000    0.6804000000000000 C
   0.4083933333333333    0.2500100000000000    0.6207300000000000 C
   0.4616533333333333    0.2500050000000000    0.7010800000000000 C
   0.6194033333333333    0.2499900000000000    0.5775500000000000 C
   0.5783166666666666    0.2034900000000000    0.6409000000000000 C
   0.5520266666666667    0.2036400000000000    0.6804700000000000 C
   0.5783199999999999    0.2965200000000000    0.6409000000000000 C
   0.5520300000000000    0.2963700000000000    0.6804000000000000 C
   0.5916100000000000    0.2500050000000000    0.6207300000000000 C
   0.5383466666666666    0.2500050000000000    0.7010800000000000 C
   0.9527366666666666    0.7500249999999999    0.4224400000000000 C
   0.9116533333333332    0.7034899999999999    0.3590800000000000 C
   0.8853633333333333    0.7036400000000000    0.3195200000000000 C
   0.9116466666666666    0.7965249999999999    0.3590800000000000 C
   0.8853599999999999    0.7963700000000000    0.3195000000000000 C
   0.9249433333333332    0.7500100000000001    0.3792600000000000 C
   0.8716800000000000    0.7500050000000000    0.2989100000000000 C
   0.7139300000000000    0.7499899999999999    0.4224000000000000 C
   0.7550200000000000    0.7034899999999999    0.3590800000000000 C
   0.7813066666666666    0.7036400000000000    0.3195000000000000 C
   0.7550133333333333    0.7965200000000000    0.3590800000000000 C
   0.7813033333333332    0.7963700000000000    0.3195200000000000 C
   0.7417233333333333    0.7500050000000000    0.3792600000000000 C
   0.7949866666666666    0.7500050000000000    0.2989100000000000 C
   0.8333333333333333    0.5712750000000000    0.0780100000000000 C
   0.8640366666666666    0.6324350000000000    0.1426200000000000 C
   0.8639366666666666    0.6716600000000000    0.1829200000000000 C
   0.8026300000000000    0.6324350000000000    0.1426200000000000 C
   0.8027299999999999    0.6716600000000000    0.1829200000000000 C
   0.8333333333333333    0.6126750000000000    0.1220000000000000 C
   0.8333333333333333    0.6920800000000000    0.2038900000000000 C
   0.8333333333333333    0.9287350000000000    0.0780100000000000 C
   0.8026300000000000    0.8675750000000000    0.1426200000000000 C
   0.8027299999999999    0.8283499999999999    0.1829200000000000 C
   0.8640366666666666    0.8675750000000000    0.1426200000000000 C
   0.8639366666666666    0.8283499999999999    0.1829200000000000 C
   0.8333333333333333    0.8873350000000000    0.1220000000000000 C
   0.8333333333333333    0.8079250000000000    0.2038900000000000 C
   0.8333333333333333    0.9287400000000000    0.9219700000000000 C
   0.8026300000000000    0.8675750000000000    0.8573600000000000 C
   0.8027299999999999    0.8283499999999999    0.8169999999999999 C
   0.8640366666666666    0.8675750000000000    0.8573600000000000 C
   0.8639366666666666    0.8283499999999999    0.8170600000000000 C
   0.8333333333333333    0.8873350000000000    0.8779800000000000 C
   0.8333333333333333    0.8079300000000000    0.7960900000000000 C
   0.8333333333333333    0.5712750000000000    0.9219700000000000 C
   0.8026300000000000    0.6324350000000000    0.8573600000000000 C
   0.8027299999999999    0.6716650000000000    0.8170600000000000 C
   0.8640366666666666    0.6324350000000000    0.8573600000000000 C
   0.8639366666666666    0.6716650000000000    0.8169999999999999 C
   0.8333333333333333    0.6126800000000000    0.8779800000000000 C