Zn128 H1529 C1143 N508 O384
1.0
  37.3299899704536244    0.0000000000000000    0.0273643167596433
  -0.0651588042923020   33.0359112537305748  -20.8175557154499025
   0.0000000000000000    0.0000000000000000   38.9519999999999982
Zn H C N O
128 1529 1143 508 384
direct
   0.5172000000000000    0.1480450000000000    0.6812650000000000 Zn
   0.0172000000000000    0.1480450000000000    0.6812650000000000 Zn
   0.2671950000000000    0.1480450000000000    0.6812650000000000 Zn
   0.7671950000000001    0.1480450000000000    0.6812650000000000 Zn
   0.1421700000000000    0.1019300000000000    0.8187000000000000 Zn
   0.3921650000000000    0.1019300000000000    0.8187000000000000 Zn
   0.6421700000000000    0.1019300000000000    0.8187000000000000 Zn
   0.8921650000000000    0.1019300000000000    0.8187000000000000 Zn
   0.5172000000000000    0.1480450000000000    0.4312650000000000 Zn
   0.0172000000000000    0.1480450000000000    0.4312650000000000 Zn
   0.2671950000000000    0.1480450000000000    0.4312650000000000 Zn
   0.7671950000000001    0.1480450000000000    0.4312650000000000 Zn
   0.1421750000000000    0.1019300000000000    0.5687000000000000 Zn
   0.6421749999999999    0.1019300000000000    0.5687000000000000 Zn
   0.3921700000000000    0.1019300000000000    0.5687000000000000 Zn
   0.8921700000000000    0.1019300000000000    0.5687000000000000 Zn
   0.5172000000000000    0.1480450000000000    0.1812650000000000 Zn
   0.0172000000000000    0.1480450000000000    0.1812650000000000 Zn
   0.7671950000000001    0.1480450000000000    0.1812650000000000 Zn
   0.2671950000000000    0.1480450000000000    0.1812650000000000 Zn
   0.3921650000000000    0.1019300000000000    0.3187000000000000 Zn
   0.1421700000000000    0.1019300000000000    0.3187000000000000 Zn
   0.6421700000000000    0.1019300000000000    0.3187000000000000 Zn
   0.8921650000000000    0.1019300000000000    0.3187000000000000 Zn
   0.5172000000000000    0.1480450000000000    0.9312650000000000 Zn
   0.2671950000000000    0.1480450000000000    0.9312650000000000 Zn
   0.0172000000000000    0.1480450000000000    0.9312650000000000 Zn
   0.7671950000000001    0.1480450000000000    0.9312650000000000 Zn
   0.6421749999999999    0.1019300000000000    0.0687000000000000 Zn
   0.1421750000000000    0.1019300000000000    0.0687000000000000 Zn
   0.3921700000000000    0.1019300000000000    0.0687000000000000 Zn
   0.8921700000000000    0.1019300000000000    0.0687000000000000 Zn
   0.7671950000000001    0.3980400000000000    0.4312650000000000 Zn
   0.5172000000000000    0.3980400000000000    0.4312650000000000 Zn
   0.0172000000000000    0.3980400000000000    0.4312650000000000 Zn
   0.2671950000000000    0.3980400000000000    0.4312650000000000 Zn
   0.3921650000000000    0.3519250000000000    0.5686950000000000 Zn
   0.1421700000000000    0.3519250000000000    0.5686950000000000 Zn
   0.6421700000000000    0.3519250000000000    0.5686950000000000 Zn
   0.8921650000000000    0.3519250000000000    0.5686950000000000 Zn
   0.5172000000000000    0.3980400000000000    0.1812650000000000 Zn
   0.0172000000000000    0.3980400000000000    0.1812650000000000 Zn
   0.7671950000000001    0.3980400000000000    0.1812650000000000 Zn
   0.2671950000000000    0.3980400000000000    0.1812650000000000 Zn
   0.1421700000000000    0.3519250000000000    0.3186950000000000 Zn
   0.3921650000000000    0.3519250000000000    0.3186950000000000 Zn
   0.6421700000000000    0.3519250000000000    0.3186950000000000 Zn
   0.8921650000000000    0.3519250000000000    0.3186950000000000 Zn
   0.5172000000000000    0.3980400000000000    0.6812650000000000 Zn
   0.0172000000000000    0.3980400000000000    0.6812650000000000 Zn
   0.2671950000000000    0.3980400000000000    0.6812650000000000 Zn
   0.7671950000000001    0.3980400000000000    0.6812650000000000 Zn
   0.3921650000000000    0.3519250000000000    0.8186950000000000 Zn
   0.6421700000000000    0.3519250000000000    0.8186950000000000 Zn
   0.1421700000000000    0.3519250000000000    0.8186950000000000 Zn
   0.8921650000000000    0.3519250000000000    0.8186950000000000 Zn
   0.5172000000000000    0.3980400000000000    0.9312650000000000 Zn
   0.2671950000000000    0.3980400000000000    0.9312650000000000 Zn
   0.7671950000000001    0.3980400000000000    0.9312650000000000 Zn
   0.0172000000000000    0.3980400000000000    0.9312650000000000 Zn
   0.1421700000000000    0.3519250000000000    0.0686950000000000 Zn
   0.3921650000000000    0.3519250000000000    0.0686950000000000 Zn
   0.6421700000000000    0.3519250000000000    0.0686950000000000 Zn
   0.8921650000000000    0.3519250000000000    0.0686950000000000 Zn
   0.5172000000000000    0.6480450000000000    0.1812650000000000 Zn
   0.2671950000000000    0.6480450000000000    0.1812650000000000 Zn
   0.0172000000000000    0.6480450000000000    0.1812650000000000 Zn
   0.7671950000000001    0.6480450000000000    0.1812650000000000 Zn
   0.8921650000000000    0.6019300000000000    0.3187000000000000 Zn
   0.1421700000000000    0.6019300000000000    0.3187000000000000 Zn
   0.3921650000000000    0.6019300000000000    0.3187000000000000 Zn
   0.6421700000000000    0.6019300000000000    0.3187000000000000 Zn
   0.5172000000000000    0.6480450000000000    0.9312650000000000 Zn
   0.0172000000000000    0.6480450000000000    0.9312650000000000 Zn
   0.2671950000000000    0.6480450000000000    0.9312650000000000 Zn
   0.7671950000000001    0.6480450000000000    0.9312650000000000 Zn
   0.1421750000000000    0.6019300000000000    0.0687000000000000 Zn
   0.6421749999999999    0.6019300000000000    0.0687000000000000 Zn
   0.3921700000000000    0.6019300000000000    0.0687000000000000 Zn
   0.8921700000000000    0.6019300000000000    0.0687000000000000 Zn
   0.5172000000000000    0.6480450000000000    0.6812650000000000 Zn
   0.0172000000000000    0.6480450000000000    0.6812650000000000 Zn
   0.7671950000000001    0.6480450000000000    0.6812650000000000 Zn
   0.2671950000000000    0.6480450000000000    0.6812650000000000 Zn
   0.3921650000000000    0.6019300000000000    0.8187000000000000 Zn
   0.1421700000000000    0.6019300000000000    0.8187000000000000 Zn
   0.6421700000000000    0.6019300000000000    0.8187000000000000 Zn
   0.8921650000000000    0.6019300000000000    0.8187000000000000 Zn
   0.5172000000000000    0.6480450000000000    0.4312650000000000 Zn
   0.0172000000000000    0.6480450000000000    0.4312650000000000 Zn
   0.2671950000000000    0.6480450000000000    0.4312650000000000 Zn
   0.7671950000000001    0.6480450000000000    0.4312650000000000 Zn
   0.6421749999999999    0.6019300000000000    0.5687000000000000 Zn
   0.1421750000000000    0.6019300000000000    0.5687000000000000 Zn
   0.3921700000000000    0.6019300000000000    0.5687000000000000 Zn
   0.8921700000000000    0.6019300000000000    0.5687000000000000 Zn
   0.1421700000000000    0.8519250000000000    0.0686950000000000 Zn
   0.5172000000000000    0.8980399999999999    0.6812650000000000 Zn
   0.0172000000000000    0.8980399999999999    0.6812650000000000 Zn
   0.7671950000000001    0.8980399999999999    0.6812650000000000 Zn
   0.2671950000000000    0.8980399999999999    0.6812650000000000 Zn
   0.3921650000000000    0.8519250000000000    0.8186950000000000 Zn
   0.1421700000000000    0.8519250000000000    0.8186950000000000 Zn
   0.6421700000000000    0.8519250000000000    0.8186950000000000 Zn
   0.8921650000000000    0.8519250000000000    0.8186950000000000 Zn
   0.7671950000000001    0.8980399999999999    0.9312650000000000 Zn
   0.5172000000000000    0.8980399999999999    0.9312650000000000 Zn
   0.0172000000000000    0.8980399999999999    0.9312650000000000 Zn
   0.2671950000000000    0.8980399999999999    0.9312650000000000 Zn
   0.3921650000000000    0.8519250000000000    0.0686950000000000 Zn
   0.6421700000000000    0.8519250000000000    0.0686950000000000 Zn
   0.8921650000000000    0.8519250000000000    0.0686950000000000 Zn
   0.5172000000000000    0.8980399999999999    0.4312650000000000 Zn
   0.2671950000000000    0.8980399999999999    0.4312650000000000 Zn
   0.7671950000000001    0.8980399999999999    0.4312650000000000 Zn
   0.0172000000000000    0.8980399999999999    0.4312650000000000 Zn
   0.3921650000000000    0.8519250000000000    0.5686950000000000 Zn
   0.1421700000000000    0.8519250000000000    0.5686950000000000 Zn
   0.6421700000000000    0.8519250000000000    0.5686950000000000 Zn
   0.8921650000000000    0.8519250000000000    0.5686950000000000 Zn
   0.5172000000000000    0.8980399999999999    0.1812650000000000 Zn
   0.0172000000000000    0.8980399999999999    0.1812650000000000 Zn
   0.7671950000000001    0.8980399999999999    0.1812650000000000 Zn
   0.2671950000000000    0.8980399999999999    0.1812650000000000 Zn
   0.3921650000000000    0.8519250000000000    0.3186950000000000 Zn
   0.6421700000000000    0.8519250000000000    0.3186950000000000 Zn
   0.1421700000000000    0.8519250000000000    0.3186950000000000 Zn
   0.8921650000000000    0.8519250000000000    0.3186950000000000 Zn
   0.1403830398138800    0.0433373283880679    0.0051938128526252 H
   0.1588468865006556    0.0242380927624580    0.0347093565192983 H
   0.5628800000000000    0.0892500000000000    0.7031499999999999 H
   0.6097700000000000    0.0794550000000000    0.6978850000000000 H
   0.5630850000000001    0.1321450000000000    0.6048950000000000 H
   0.6437550000000000    0.0802650000000000    0.6382099999999999 H
   0.6244800000000000    0.2780200000000000    0.7618750000000001 H
   0.6660150000000000    0.2873800000000000    0.7524900000000000 H
   0.6916949999999999    0.2760100000000000    0.7991550000000001 H
   0.6487000000000001    0.2722900000000000    0.8167750000000000 H
   0.6830950000000000    0.2046050000000000    0.7656600000000000 H
   0.6714400000000000    0.2147200000000000    0.7283050000000000 H
   0.5720050000000000    0.1609200000000000    0.7515849999999999 H
   0.6510199999999999    0.1481100000000000    0.7367100000000000 H
   0.4380850000000000    0.1606950000000000    0.7968350000000000 H
   0.4850100000000000    0.1704600000000000    0.8020499999999999 H
   0.4379400000000000    0.1179450000000000    0.8951800000000000 H
   0.5190050000000000    0.1695450000000000    0.8616650000000000 H
   0.4995450000000000    0.9718050000000000    0.7381900000000000 H
   0.5411600000000000    0.9626150000000000    0.7474400000000000 H
   0.5666500000000000    0.9742600000000000    0.7008600000000000 H
   0.5236000000000000    0.9777350000000000    0.6832650000000000 H
   0.5580650000000000    0.0455950000000000    0.7344349999999999 H
   0.5462850000000000    0.0354500000000000    0.7717600000000000 H
   0.4469650000000000    0.0889800000000000    0.7484400000000000 H
   0.5260000000000000    0.1019650000000000    0.7634099999999999 H
   0.3128750000000000    0.0892500000000000    0.7031499999999999 H
   0.3597650000000000    0.0794550000000000    0.6978850000000000 H
   0.3130800000000000    0.1321450000000000    0.6048950000000000 H
   0.3937500000000000    0.0802600000000000    0.6382099999999999 H
   0.3744750000000000    0.2780200000000000    0.7618750000000001 H
   0.4160100000000000    0.2873800000000000    0.7524900000000000 H
   0.4416900000000000    0.2760100000000000    0.7991550000000001 H
   0.3986950000000000    0.2722900000000000    0.8167500000000000 H
   0.4330900000000000    0.2046050000000000    0.7656600000000000 H
   0.4214300000000000    0.2147200000000000    0.7283050000000000 H
   0.3220000000000000    0.1609200000000000    0.7515849999999999 H
   0.4010150000000000    0.1481100000000000    0.7367100000000000 H
   0.1880900000000000    0.1606950000000000    0.7968000000000000 H
   0.2350150000000000    0.1704600000000000    0.8020499999999999 H
   0.1879450000000000    0.1179450000000000    0.8951800000000000 H
   0.2690000000000000    0.1695450000000000    0.8616650000000000 H
   0.2495500000000000    0.9718050000000000    0.7381900000000000 H
   0.2911550000000000    0.9626150000000000    0.7474000000000001 H
   0.3166450000000000    0.9742600000000000    0.7008600000000000 H
   0.2736000000000000    0.9777350000000000    0.6832650000000000 H
   0.3080600000000000    0.0455950000000000    0.7344349999999999 H
   0.2962800000000000    0.0354500000000000    0.7717600000000000 H
   0.1969700000000000    0.0889800000000000    0.7484400000000000 H
   0.2759950000000000    0.1019650000000000    0.7634099999999999 H
   0.0628800000000000    0.0892500000000000    0.7031499999999999 H
   0.1097700000000000    0.0794550000000000    0.6978850000000000 H
   0.0630850000000000    0.1321450000000000    0.6048950000000000 H
   0.1437550000000000    0.0802650000000000    0.6382099999999999 H
   0.1244800000000000    0.2780200000000000    0.7618750000000001 H
   0.1660150000000000    0.2873800000000000    0.7524900000000000 H
   0.1916950000000000    0.2760100000000000    0.7991550000000001 H
   0.1487000000000000    0.2722900000000000    0.8167750000000000 H
   0.1830950000000000    0.2046050000000000    0.7656600000000000 H
   0.1714400000000000    0.2147200000000000    0.7283050000000000 H
   0.0720050000000000    0.1609200000000000    0.7515849999999999 H
   0.1510200000000000    0.1481100000000000    0.7367100000000000 H
   0.9380850000000001    0.1606950000000000    0.7968350000000000 H
   0.9850099999999999    0.1704600000000000    0.8020499999999999 H
   0.9379400000000000    0.1179450000000000    0.8951800000000000 H
   0.0190050000000000    0.1695450000000000    0.8616650000000000 H
   0.9995450000000000    0.9718050000000000    0.7381900000000000 H
   0.0411600000000000    0.9626150000000000    0.7474400000000000 H
   0.0666500000000000    0.9742600000000000    0.7008600000000000 H
   0.0236000000000000    0.9777350000000000    0.6832650000000000 H
   0.0580650000000000    0.0455950000000000    0.7344349999999999 H
   0.0462850000000000    0.0354500000000000    0.7717600000000000 H
   0.9469650000000001    0.0889800000000000    0.7484400000000000 H
   0.0260000000000000    0.1019650000000000    0.7634099999999999 H
   0.8128750000000000    0.0892500000000000    0.7031499999999999 H
   0.8597650000000000    0.0794550000000000    0.6978850000000000 H
   0.8130800000000000    0.1321450000000000    0.6048950000000000 H
   0.8937500000000000    0.0802600000000000    0.6382099999999999 H
   0.8744750000000000    0.2780200000000000    0.7618750000000001 H
   0.9160100000000000    0.2873800000000000    0.7524900000000000 H
   0.9416900000000000    0.2760100000000000    0.7991550000000001 H
   0.8986950000000000    0.2722900000000000    0.8167500000000000 H
   0.9330900000000000    0.2046050000000000    0.7656600000000000 H
   0.9214300000000000    0.2147200000000000    0.7283050000000000 H
   0.8220000000000001    0.1609200000000000    0.7515849999999999 H
   0.9010150000000000    0.1481100000000000    0.7367100000000000 H
   0.6880900000000000    0.1606950000000000    0.7968000000000000 H
   0.7350150000000000    0.1704600000000000    0.8020499999999999 H
   0.6879450000000000    0.1179450000000000    0.8951800000000000 H
   0.7690000000000000    0.1695450000000000    0.8616650000000000 H
   0.7495499999999999    0.9718050000000000    0.7381900000000000 H
   0.7911550000000001    0.9626150000000000    0.7474000000000001 H
   0.8166450000000001    0.9742600000000000    0.7008600000000000 H
   0.7736000000000001    0.9777350000000000    0.6832650000000000 H
   0.8080600000000000    0.0455950000000000    0.7344349999999999 H
   0.7962800000000000    0.0354500000000000    0.7717600000000000 H
   0.6969700000000000    0.0889800000000000    0.7484400000000000 H
   0.7759950000000000    0.1019650000000000    0.7634099999999999 H
   0.9380900000000000    0.1606950000000000    0.5468400000000000 H
   0.9850099999999999    0.1704600000000000    0.5520550000000000 H
   0.9379450000000000    0.1179450000000000    0.6451500000000000 H
   0.0190050000000000    0.1695450000000000    0.6116650000000000 H
   0.9995450000000000    0.9718050000000000    0.4881900000000000 H
   0.0411550000000000    0.9626150000000000    0.4974450000000000 H
   0.0666500000000000    0.9742649999999999    0.4508600000000000 H
   0.0236000000000000    0.9777350000000000    0.4332650000000000 H
   0.0580650000000000    0.0455950000000000    0.4844400000000000 H
   0.0462850000000000    0.0354500000000000    0.5217650000000000 H
   0.9469650000000001    0.0889800000000000    0.4984400000000000 H
   0.0260050000000000    0.1019700000000000    0.5134100000000000 H
   0.0628800000000000    0.0892500000000000    0.4531550000000000 H
   0.1097700000000000    0.0794550000000000    0.4478850000000000 H
   0.0630800000000000    0.1321450000000000    0.3548500000000000 H
   0.1437550000000000    0.0802600000000000    0.3882000000000000 H
   0.1244800000000000    0.2780200000000000    0.5118750000000000 H
   0.1660150000000000    0.2873800000000000    0.5024900000000000 H
   0.1916950000000000    0.2760100000000000    0.5491500000000000 H
   0.1487000000000000    0.2722900000000000    0.5667700000000000 H
   0.1831000000000000    0.2046050000000000    0.5156600000000000 H
   0.1714350000000000    0.2147200000000000    0.4783000000000000 H
   0.0720050000000000    0.1609200000000000    0.5015849999999999 H
   0.1510150000000000    0.1481100000000000    0.4867100000000000 H
   0.1880950000000000    0.1606950000000000    0.5468400000000000 H
   0.2350150000000000    0.1704600000000000    0.5520550000000000 H
   0.1879500000000000    0.1179450000000000    0.6451500000000000 H
   0.2690000000000000    0.1695450000000000    0.6116650000000000 H
   0.2495500000000000    0.9718050000000000    0.4881900000000000 H
   0.2911500000000000    0.9626150000000000    0.4974000000000000 H
   0.3166450000000000    0.9742600000000000    0.4508600000000000 H
   0.2735950000000000    0.9777350000000000    0.4332650000000000 H
   0.3080600000000000    0.0455950000000000    0.4844400000000000 H
   0.2962800000000000    0.0354500000000000    0.5217650000000000 H
   0.1969700000000000    0.0889800000000000    0.4984400000000000 H
   0.2760000000000000    0.1019700000000000    0.5134100000000000 H
   0.3128750000000000    0.0892500000000000    0.4531550000000000 H
   0.3597650000000000    0.0794550000000000    0.4478850000000000 H
   0.3130750000000000    0.1321450000000000    0.3548500000000000 H
   0.3937500000000000    0.0802600000000000    0.3882000000000000 H
   0.3744750000000000    0.2780200000000000    0.5118750000000000 H
   0.4160100000000000    0.2873800000000000    0.5024900000000000 H
   0.4416900000000000    0.2760100000000000    0.5491500000000000 H
   0.3986950000000000    0.2722900000000000    0.5667700000000000 H
   0.4330950000000000    0.2046050000000000    0.5156600000000000 H
   0.4214300000000000    0.2147200000000000    0.4783000000000000 H
   0.3220000000000000    0.1609200000000000    0.5015849999999999 H
   0.4010100000000000    0.1481100000000000    0.4867100000000000 H
   0.4380900000000000    0.1606950000000000    0.5468400000000000 H
   0.4850100000000000    0.1704600000000000    0.5520550000000000 H
   0.4379450000000000    0.1179450000000000    0.6451500000000000 H
   0.5190050000000000    0.1695450000000000    0.6116650000000000 H
   0.4995450000000000    0.9718050000000000    0.4881900000000000 H
   0.5411550000000001    0.9626150000000000    0.4974450000000000 H
   0.5666500000000000    0.9742649999999999    0.4508600000000000 H
   0.5236000000000000    0.9777350000000000    0.4332650000000000 H
   0.5580650000000000    0.0455950000000000    0.4844400000000000 H
   0.5462850000000000    0.0354500000000000    0.5217650000000000 H
   0.4469650000000000    0.0889800000000000    0.4984400000000000 H
   0.5260050000000001    0.1019700000000000    0.5134100000000000 H
   0.5628800000000000    0.0892500000000000    0.4531550000000000 H
   0.6097700000000000    0.0794550000000000    0.4478850000000000 H
   0.5630800000000000    0.1321450000000000    0.3548500000000000 H
   0.6437550000000000    0.0802600000000000    0.3882000000000000 H
   0.6244800000000000    0.2780200000000000    0.5118750000000000 H
   0.6660150000000000    0.2873800000000000    0.5024900000000000 H
   0.6916949999999999    0.2760100000000000    0.5491500000000000 H
   0.6487000000000001    0.2722900000000000    0.5667700000000000 H
   0.6831000000000000    0.2046050000000000    0.5156600000000000 H
   0.6714350000000000    0.2147200000000000    0.4783000000000000 H
   0.5720050000000000    0.1609200000000000    0.5015849999999999 H
   0.6510150000000000    0.1481100000000000    0.4867100000000000 H
   0.6880950000000000    0.1606950000000000    0.5468400000000000 H
   0.7350150000000000    0.1704600000000000    0.5520550000000000 H
   0.6879500000000001    0.1179450000000000    0.6451500000000000 H
   0.7690000000000000    0.1695450000000000    0.6116650000000000 H
   0.7495499999999999    0.9718050000000000    0.4881900000000000 H
   0.7911500000000000    0.9626150000000000    0.4974000000000000 H
   0.8166450000000001    0.9742600000000000    0.4508600000000000 H
   0.7735950000000000    0.9777350000000000    0.4332650000000000 H
   0.8080600000000000    0.0455950000000000    0.4844400000000000 H
   0.7962800000000000    0.0354500000000000    0.5217650000000000 H
   0.6969700000000000    0.0889800000000000    0.4984400000000000 H
   0.7760000000000000    0.1019700000000000    0.5134100000000000 H
   0.8128750000000000    0.0892500000000000    0.4531550000000000 H
   0.8597650000000000    0.0794550000000000    0.4478850000000000 H
   0.8130750000000000    0.1321450000000000    0.3548500000000000 H
   0.8937500000000000    0.0802600000000000    0.3882000000000000 H
   0.8744750000000000    0.2780200000000000    0.5118750000000000 H
   0.9160100000000000    0.2873800000000000    0.5024900000000000 H
   0.9416900000000000    0.2760100000000000    0.5491500000000000 H
   0.8986950000000000    0.2722900000000000    0.5667700000000000 H
   0.9330950000000000    0.2046050000000000    0.5156600000000000 H
   0.9214300000000000    0.2147200000000000    0.4783000000000000 H
   0.8220000000000001    0.1609200000000000    0.5015849999999999 H
   0.9010100000000000    0.1481100000000000    0.4867100000000000 H
   0.8128750000000000    0.0892500000000000    0.2031500000000000 H
   0.8597650000000000    0.0794550000000000    0.1978850000000000 H
   0.8130800000000000    0.1321450000000000    0.1048950000000000 H
   0.8937500000000000    0.0802600000000000    0.1382100000000000 H
   0.8744750000000000    0.2780200000000000    0.2618750000000000 H
   0.9160100000000000    0.2873800000000000    0.2524900000000000 H
   0.9416900000000000    0.2760100000000000    0.2991550000000000 H
   0.8986950000000000    0.2722900000000000    0.3167500000000000 H
   0.9330900000000000    0.2046050000000000    0.2656600000000000 H
   0.9214300000000000    0.2147200000000000    0.2283050000000000 H
   0.8220000000000001    0.1609200000000000    0.2515850000000000 H
   0.9010150000000000    0.1481100000000000    0.2367100000000000 H
   0.6880900000000000    0.1606950000000000    0.2968000000000000 H
   0.7350150000000000    0.1704600000000000    0.3020500000000000 H
   0.6879450000000000    0.1179450000000000    0.3951800000000000 H
   0.7690000000000000    0.1695450000000000    0.3616650000000000 H
   0.7495499999999999    0.9718050000000000    0.2381900000000000 H
   0.7911550000000001    0.9626150000000000    0.2474000000000000 H
   0.8166450000000001    0.9742600000000000    0.2008600000000000 H
   0.7736000000000001    0.9777350000000000    0.1832650000000000 H
   0.8080600000000000    0.0455950000000000    0.2344350000000000 H
   0.7962800000000000    0.0354500000000000    0.2717600000000000 H
   0.6969700000000000    0.0889800000000000    0.2484400000000000 H
   0.7759950000000000    0.1019650000000000    0.2634100000000000 H
   0.5628800000000000    0.0892500000000000    0.2031500000000000 H
   0.6097700000000000    0.0794550000000000    0.1978850000000000 H
   0.5630850000000001    0.1321450000000000    0.1048950000000000 H
   0.6437550000000000    0.0802650000000000    0.1382100000000000 H
   0.6244800000000000    0.2780200000000000    0.2618750000000000 H
   0.6660150000000000    0.2873800000000000    0.2524900000000000 H
   0.6916949999999999    0.2760100000000000    0.2991550000000000 H
   0.6487000000000001    0.2722900000000000    0.3167750000000000 H
   0.6830950000000000    0.2046050000000000    0.2656600000000000 H
   0.6714400000000000    0.2147200000000000    0.2283050000000000 H
   0.5720050000000000    0.1609200000000000    0.2515850000000000 H
   0.6510199999999999    0.1481100000000000    0.2367100000000000 H
   0.4380850000000000    0.1606950000000000    0.2968350000000000 H
   0.4850100000000000    0.1704600000000000    0.3020500000000000 H
   0.4379400000000000    0.1179450000000000    0.3951800000000000 H
   0.5190050000000000    0.1695450000000000    0.3616650000000000 H
   0.4995450000000000    0.9718050000000000    0.2381900000000000 H
   0.5411600000000000    0.9626150000000000    0.2474400000000000 H
   0.5666500000000000    0.9742600000000000    0.2008600000000000 H
   0.5236000000000000    0.9777350000000000    0.1832650000000000 H
   0.5580650000000000    0.0455950000000000    0.2344350000000000 H
   0.5462850000000000    0.0354500000000000    0.2717600000000000 H
   0.4469650000000000    0.0889800000000000    0.2484400000000000 H
   0.5260000000000000    0.1019650000000000    0.2634100000000000 H
   0.0628800000000000    0.0892500000000000    0.2031500000000000 H
   0.1097700000000000    0.0794550000000000    0.1978850000000000 H
   0.0630850000000000    0.1321450000000000    0.1048950000000000 H
   0.1437550000000000    0.0802650000000000    0.1382100000000000 H
   0.1244800000000000    0.2780200000000000    0.2618750000000000 H
   0.1660150000000000    0.2873800000000000    0.2524900000000000 H
   0.1916950000000000    0.2760100000000000    0.2991550000000000 H
   0.1487000000000000    0.2722900000000000    0.3167750000000000 H
   0.1830950000000000    0.2046050000000000    0.2656600000000000 H
   0.1714400000000000    0.2147200000000000    0.2283050000000000 H
   0.0720050000000000    0.1609200000000000    0.2515850000000000 H
   0.1510200000000000    0.1481100000000000    0.2367100000000000 H
   0.9380850000000001    0.1606950000000000    0.2968350000000000 H
   0.9850099999999999    0.1704600000000000    0.3020500000000000 H
   0.9379400000000000    0.1179450000000000    0.3951800000000000 H
   0.0190050000000000    0.1695450000000000    0.3616650000000000 H
   0.9995450000000000    0.9718050000000000    0.2381900000000000 H
   0.0411600000000000    0.9626150000000000    0.2474400000000000 H
   0.0666500000000000    0.9742600000000000    0.2008600000000000 H
   0.0236000000000000    0.9777350000000000    0.1832650000000000 H
   0.0580650000000000    0.0455950000000000    0.2344350000000000 H
   0.0462850000000000    0.0354500000000000    0.2717600000000000 H
   0.9469650000000001    0.0889800000000000    0.2484400000000000 H
   0.0260000000000000    0.1019650000000000    0.2634100000000000 H
   0.3128750000000000    0.0892500000000000    0.2031500000000000 H
   0.3597650000000000    0.0794550000000000    0.1978850000000000 H
   0.3130800000000000    0.1321450000000000    0.1048950000000000 H
   0.3937500000000000    0.0802600000000000    0.1382100000000000 H
   0.3744750000000000    0.2780200000000000    0.2618750000000000 H
   0.4160100000000000    0.2873800000000000    0.2524900000000000 H
   0.4416900000000000    0.2760100000000000    0.2991550000000000 H
   0.3986950000000000    0.2722900000000000    0.3167500000000000 H
   0.4330900000000000    0.2046050000000000    0.2656600000000000 H
   0.4214300000000000    0.2147200000000000    0.2283050000000000 H
   0.3220000000000000    0.1609200000000000    0.2515850000000000 H
   0.4010150000000000    0.1481100000000000    0.2367100000000000 H
   0.1880900000000000    0.1606950000000000    0.2968000000000000 H
   0.2350150000000000    0.1704600000000000    0.3020500000000000 H
   0.1879450000000000    0.1179450000000000    0.3951800000000000 H
   0.2690000000000000    0.1695450000000000    0.3616650000000000 H
   0.2495500000000000    0.9718050000000000    0.2381900000000000 H
   0.2911550000000000    0.9626150000000000    0.2474000000000000 H
   0.3166450000000000    0.9742600000000000    0.2008600000000000 H
   0.2736000000000000    0.9777350000000000    0.1832650000000000 H
   0.3080600000000000    0.0455950000000000    0.2344350000000000 H
   0.2962800000000000    0.0354500000000000    0.2717600000000000 H
   0.1969700000000000    0.0889800000000000    0.2484400000000000 H
   0.2759950000000000    0.1019650000000000    0.2634100000000000 H
   0.9380900000000000    0.1606950000000000    0.0468400000000000 H
   0.9850099999999999    0.1704600000000000    0.0520550000000000 H
   0.9379450000000000    0.1179450000000000    0.1451500000000000 H
   0.0190050000000000    0.1695450000000000    0.1116650000000000 H
   0.9995450000000000    0.9718050000000000    0.9881900000000000 H
   0.0411550000000000    0.9626150000000000    0.9974450000000000 H
   0.0666500000000000    0.9742649999999999    0.9508600000000000 H
   0.0236000000000000    0.9777350000000000    0.9332650000000000 H
   0.0580650000000000    0.0455950000000000    0.9844400000000000 H
   0.0462850000000000    0.0354500000000000    0.0217650000000000 H
   0.9469650000000001    0.0889800000000000    0.9984400000000000 H
   0.0260050000000000    0.1019700000000000    0.0134100000000000 H
   0.0628800000000000    0.0892500000000000    0.9531550000000000 H
   0.1097700000000000    0.0794550000000000    0.9478850000000000 H
   0.0630800000000000    0.1321450000000000    0.8548500000000000 H
   0.1437550000000000    0.0802600000000000    0.8882000000000000 H
   0.1244800000000000    0.2780200000000000    0.0118750000000000 H