H8 C14 O4
1.0
  13.9564884589740146    0.0000000000000000    1.1525822723455115
   1.1528763588969551   15.3260782754765081    0.4840762285668833
   0.0000000000000000    0.0000000000000000   15.3480000000000008
H C O
8 14 4
direct
   0.9354800000000000    0.1094800000000000    0.6096100000000000 H
   0.6284800000000000    0.1387500000000000    0.6087900000000001 H
   0.6327300000000000    0.2995900000000000    0.6122400000000000 H
   0.9413500000000000    0.2687100000000000    0.6171000000000000 H
   0.9295099999999999    0.3935200000000000    0.5427600000000000 H
   0.9332100000000000    0.5547500000000000    0.5412300000000000 H
   0.6565200000000000    0.5773800000000000    0.6835900000000000 H
   0.6528900000000000    0.4161900000000000    0.6892000000000000 H
   0.7797800000000000    0.0163800000000000    0.6057200000000000 C
   0.7815900000000000    0.1134700000000000    0.6099300000000000 C
   0.8691500000000000    0.1513800000000000    0.6120300000000000 C
   0.6965600000000000    0.1680500000000000    0.6110900000000000 C
   0.6994100000000000    0.2581500000000000    0.6137300000000000 C
   0.8720800000000000    0.2413400000000000    0.6150000000000000 C
   0.7872100000000000    0.2967600000000000    0.6155800000000000 C
   0.7902900000000000    0.3925800000000000    0.6152500000000000 C
   0.8695500000000000    0.4333200000000000    0.5745300000000000 C
   0.8718600000000000    0.5236400000000000    0.5730100000000000 C
   0.7946800000000001    0.5764000000000000    0.6114500000000000 C
   0.7959300000000000    0.6739000000000001    0.6085900000000000 C
   0.7157100000000000    0.5363700000000000    0.6524700000000000 C
   0.7137800000000000    0.4460700000000000    0.6548700000000000 C
   0.6999300000000001    0.9858800000000000    0.5930900000000000 O
   0.8586100000000000    0.9712499999999999    0.6148200000000000 O
   0.7168600000000001    0.7174900000000000    0.6302200000000000 O
   0.8756500000000000    0.7057700000000000    0.5846700000000000 O
