H6 O4
1.0
  13.9564884589740146    0.0000000000000000    1.1525822723455115
   1.1528763588969551   15.3260782754765081    0.4840762285668833
   0.0000000000000000    0.0000000000000000   15.3480000000000008
H O
6 4
direct
   0.6568966181644988    0.6918677302416790    0.6478962301789375 H
   0.9357778168177918    0.6726614831201653    0.5678754568339607 H
   0.7982261542916984    0.6726868982845755    0.6074932910850973 H
   0.9190333648155029    0.9957195290538786    0.6226603146389842 H
   0.6396554354905516    1.0192697207899901    0.5844335787448897 H
   0.7763407466127109    1.0168239070461791    0.6030047787792453 H
   0.7168600000000001    0.7174900000000000    0.6302200000000000 O
   0.8756500000000000    0.7057700000000000    0.5846700000000000 O
   0.8586100000000000    0.9712499999999999    0.6148200000000000 O
   0.6999300000000001    0.9858800000000000    0.5930900000000000 O
