H4 O2
1.0
  13.9564884589740146    0.0000000000000000    1.1525822723455115
   1.1528763588969551   15.3260782754765081    0.4840762285668833
   0.0000000000000000    0.0000000000000000   15.3480000000000008
H O
4 2
direct
   0.9206341308186289    0.2135873805078876    0.3998510760841533 H
   0.9346485750881980    0.1048885372686258    0.3874350280539862 H
   0.4995022937368534    0.0959405419143992    0.3985041583199553 H
   0.4909081353232729    0.2015818734109711    0.3660987585087870 H
   0.9630300000000001    0.1599900000000000    0.3954300000000000 O
   0.4595900000000000    0.1479600000000000    0.3820300000000000 O
