H1 O1
1.0
  12.5714306641337465    0.0000000000000000    1.2149201853939897
   0.6145131703135935    7.8870846679350546    3.7376488939351846
   0.0000000000000000    0.0000000000000000   19.5500000000000007
H O
1 1
direct
   0.5611220706672992    0.7405202423107599    0.0792131370821198 H
   0.5282050000000000    0.8122800000000000    0.0313500000000000 O
