Ba16 C30 O60
1.0
  12.5714306641337465    0.0000000000000000    1.2149201853939897
   0.6145131703135935    7.8870846679350546    3.7376488939351846
   0.0000000000000000    0.0000000000000000   19.5500000000000007
Ba C O
16 30 60
direct
   0.3931650000000000    0.3613400000000000    0.2169300000000000 Ba
   0.1402700000000000    0.0250800000000000    0.4005450000000000 Ba
   0.1068150000000000    0.6385900000000000    0.2831250000000000 Ba
   0.3597700000000000    0.9750100000000000    0.0995100000000000 Ba
   0.8931650000000000    0.3613400000000000    0.2169300000000000 Ba
   0.6402700000000000    0.0250800000000000    0.4005450000000000 Ba
   0.6068150000000000    0.6385900000000000    0.2831250000000000 Ba
   0.8597699999999999    0.9750100000000000    0.0995100000000000 Ba
   0.3931650000000000    0.3613400000000000    0.7169300000000001 Ba
   0.1402700000000000    0.0250800000000000    0.9005449999999999 Ba
   0.1068150000000000    0.6385900000000000    0.7831250000000001 Ba
   0.3597700000000000    0.9750100000000000    0.5995100000000000 Ba
   0.8931650000000000    0.3613400000000000    0.7169300000000001 Ba
   0.6402700000000000    0.0250800000000000    0.9005449999999999 Ba
   0.6068150000000000    0.6385900000000000    0.7831250000000001 Ba
   0.8597699999999999    0.9750100000000000    0.5995100000000000 Ba
   0.0913250000000000    0.0892200000000000    0.1636400000000000 C
   0.1626700000000000    0.1816200000000000    0.1916450000000000 C
   0.0705900000000000    0.7198800000000000    0.0929800000000000 C
   0.1944250000000000    0.7144500000000000    0.0942600000000000 C
   0.4086550000000000    0.9105799999999999    0.3364300000000000 C
   0.3372850000000000    0.8181900000000000    0.3084400000000000 C
   0.4294300000000000    0.2801000000000000    0.4070550000000000 C
   0.3055850000000000    0.2855200000000000    0.4058250000000000 C
   0.5913250000000000    0.0892200000000000    0.1636400000000000 C
   0.6626700000000000    0.1816200000000000    0.1916450000000000 C
   0.9086550000000000    0.9105799999999999    0.3364300000000000 C
   0.8372850000000001    0.8181900000000000    0.3084400000000000 C
   0.9294300000000000    0.2801000000000000    0.4070550000000000 C
   0.8055850000000000    0.2855200000000000    0.4058250000000000 C
   0.0913250000000000    0.0892200000000000    0.6636400000000000 C
   0.1626700000000000    0.1816200000000000    0.6916450000000001 C
   0.0705900000000000    0.7198800000000000    0.5929800000000000 C
   0.1944250000000000    0.7144500000000000    0.5942600000000000 C
   0.4086550000000000    0.9105799999999999    0.8364300000000000 C
   0.3372850000000000    0.8181900000000000    0.8084400000000000 C
   0.4294300000000000    0.2801000000000000    0.9070549999999999 C
   0.3055850000000000    0.2855200000000000    0.9058250000000000 C
   0.5913250000000000    0.0892200000000000    0.6636400000000000 C
   0.6626700000000000    0.1816200000000000    0.6916450000000001 C
   0.5705900000000000    0.7198800000000000    0.5929800000000000 C
   0.6944250000000000    0.7144500000000000    0.5942600000000000 C
   0.9086550000000000    0.9105799999999999    0.8364300000000000 C
   0.8372850000000001    0.8181900000000000    0.8084400000000000 C
   0.9294300000000000    0.2801000000000000    0.9070549999999999 C
   0.8055850000000000    0.2855200000000000    0.9058250000000000 C
   0.4945350000000000    0.1455300000000000    0.1529000000000000 O
   0.1345500000000000    0.9583500000000000    0.1560000000000000 O
   0.1194700000000000    0.2350700000000000    0.2396450000000000 O
   0.2594050000000000    0.1933100000000000    0.1665050000000000 O
   0.0185500000000000    0.6401200000000000    0.1557150000000000 O
   0.0282050000000000    0.8122800000000000    0.0313500000000000 O
   0.2366750000000000    0.6298899999999999    0.1579150000000000 O
   0.2441950000000000    0.8042400000000000    0.0334650000000000 O
   0.0054700000000000    0.8546600000000000    0.3470700000000000 O
   0.3654700000000000    0.0414300000000000    0.3440900000000000 O
   0.3804550000000000    0.7647600000000000    0.2604250000000000 O
   0.2405600000000000    0.8065099999999999    0.3336050000000000 O
   0.4814400000000000    0.3598400000000000    0.3443000000000000 O
   0.4718350000000000    0.1877000000000000    0.4686750000000000 O
   0.2632950000000000    0.3697600000000000    0.3421600000000000 O
   0.2558250000000000    0.1960200000000000    0.4666850000000000 O
   0.9945349999999999    0.1455300000000000    0.1529000000000000 O
   0.6345499999999999    0.9583500000000000    0.1560000000000000 O
   0.6194700000000000    0.2350700000000000    0.2396450000000000 O
   0.7594050000000000    0.1933100000000000    0.1665050000000000 O
   0.5054700000000000    0.8546600000000000    0.3470700000000000 O
   0.8654700000000000    0.0414300000000000    0.3440900000000000 O
   0.8804550000000000    0.7647600000000000    0.2604250000000000 O
   0.7405600000000000    0.8065099999999999    0.3336050000000000 O
   0.9814400000000000    0.3598400000000000    0.3443000000000000 O
   0.9718350000000000    0.1877000000000000    0.4686750000000000 O
   0.7632950000000001    0.3697600000000000    0.3421600000000000 O
   0.7558250000000000    0.1960200000000000    0.4666850000000000 O
   0.4945350000000000    0.1455300000000000    0.6529000000000000 O
   0.1345500000000000    0.9583500000000000    0.6560000000000000 O
   0.1194700000000000    0.2350700000000000    0.7396450000000000 O
   0.2594050000000000    0.1933100000000000    0.6665050000000000 O
   0.0185500000000000    0.6401200000000000    0.6557150000000000 O
   0.0282050000000000    0.8122800000000000    0.5313500000000000 O
   0.2366750000000000    0.6298899999999999    0.6579150000000000 O
   0.2441950000000000    0.8042400000000000    0.5334650000000000 O
   0.0054700000000000    0.8546600000000000    0.8470700000000000 O
   0.3654700000000000    0.0414300000000000    0.8440900000000000 O
   0.3804550000000000    0.7647600000000000    0.7604250000000000 O
   0.2405600000000000    0.8065099999999999    0.8336049999999999 O
   0.4814400000000000    0.3598400000000000    0.8443000000000001 O
   0.4718350000000000    0.1877000000000000    0.9686750000000000 O
   0.2632950000000000    0.3697600000000000    0.8421600000000000 O
   0.2558250000000000    0.1960200000000000    0.9666850000000000 O
   0.9945349999999999    0.1455300000000000    0.6529000000000000 O
   0.6345499999999999    0.9583500000000000    0.6560000000000000 O
   0.6194700000000000    0.2350700000000000    0.7396450000000000 O
   0.7594050000000000    0.1933100000000000    0.6665050000000000 O
   0.5185500000000000    0.6401200000000000    0.6557150000000000 O
   0.5282050000000000    0.8122800000000000    0.5313500000000000 O
   0.7366750000000000    0.6298899999999999    0.6579150000000000 O
   0.7441949999999999    0.8042400000000000    0.5334650000000000 O
   0.5054700000000000    0.8546600000000000    0.8470700000000000 O
   0.8654700000000000    0.0414300000000000    0.8440900000000000 O
   0.8804550000000000    0.7647600000000000    0.7604250000000000 O
   0.7405600000000000    0.8065099999999999    0.8336049999999999 O
   0.9814400000000000    0.3598400000000000    0.8443000000000001 O
   0.9718350000000000    0.1877000000000000    0.9686750000000000 O
   0.7632950000000001    0.3697600000000000    0.8421600000000000 O
   0.7558250000000000    0.1960200000000000    0.9666850000000000 O
