H6 C16 O8
1.0
  14.2729393720840108    0.0000000000000000    0.0416014520668284
  -7.1665898618756287   13.0709999220818975   -5.6455779853436159
   0.0000000000000000    0.0000000000000000   19.7300000000000004
H C O
6 16 8
direct
   0.7428500000000000    0.2208200000000000    0.7805000000000000 H
   0.5439100000000000    0.1464400000000000    0.7591100000000000 H
   0.4654200000000000    0.2645500000000000    0.7820100000000000 H
   0.9127100000000000    0.7509500000000000    0.7926400000000000 H
   0.0000000000000000    0.8457400000000000    0.9222200000000000 H
   0.9805000000000000    0.7523800000000000    0.0060200000000000 H
   0.8908500000000000    0.4160900000000000    0.8241000000000001 C
   0.7723200000000000    0.3752400000000000    0.8109499999999999 C
   0.7062100000000000    0.2698800000000000    0.7887400000000000 C
   0.5955200000000000    0.2287000000000000    0.7770200000000000 C
   0.5515700000000000    0.2938200000000000    0.7893000000000000 C
   0.6166900000000000    0.3998800000000000    0.8129900000000000 C
   0.7290400000000000    0.4423600000000000    0.8240000000000000 C
   0.5638200000000000    0.4655000000000000    0.8268200000000000 C
   0.7713800000000000    0.5575400000000000    0.7249600000000000 C
   0.8256400000000000    0.6079200000000000    0.8043300000000000 C
   0.8992900000000000    0.7123000000000000    0.8303800000000000 C
   0.9561800000000000    0.7649200000000000    0.9026100000000000 C
   0.9371200000000000    0.7133800000000000    0.9493500000000000 C
   0.8611400000000000    0.6095800000000000    0.9252700000000000 C
   0.8045400000000000    0.5549800000000000    0.8515900000000000 C
   0.8418200000000000    0.5601600000000000    0.9804400000000000 C
   0.9198300000000000    0.6104200000000000    0.0376600000000000 O
  -0.0716499999999999    0.3928000000000000    0.8689600000000000 O
   0.9496400000000000    0.4711900000000000    0.7915000000000000 O
   0.7783200000000000    0.4808600000000000    0.6796300000000000 O
   0.7209200000000000    0.5967400000000000    0.7059600000000000 O
   0.4608600000000000    0.4189300000000000    0.8040200000000000 O
   0.6174300000000000    0.5611300000000000    0.8562200000000000 O
   0.7594800000000000    0.4793400000000000    0.9707800000000000 O
