Zn8 H50 C88 N16 O24
1.0
  14.2729393720840108    0.0000000000000000    0.0416014520668284
  -7.1665898618756287   13.0709999220818975   -5.6455779853436159
   0.0000000000000000    0.0000000000000000   19.7300000000000004
Zn H C N O
8 50 88 16 24
direct
   0.5549500000000001    0.4602900000000000    0.1900100000000000 Zn
   0.6353900000000000    0.5441000000000000    0.6055400000000000 Zn
   0.0945400000000000    0.5397600000000000    0.3096800000000000 Zn
   0.9093599999999999    0.5437700000000000    0.1049000000000000 Zn
   0.4450800000000000    0.5397500000000000    0.8098400000000000 Zn
   0.3646100000000000    0.4558700000000000    0.3942600000000000 Zn
   0.9054900000000000    0.4602800000000000    0.6901700000000000 Zn
   0.0906600000000000    0.4562500000000000    0.8949300000000000 Zn
   0.5239100000000000    0.7793800000000000    0.7197900000000000 H
   0.3999600000000000    0.8540800000000000    0.7413000000000000 H
   0.2026800000000000    0.7361600000000000    0.7183700000000000 H
   0.1604500000000000    0.2491800000000000    0.7072100000000000 H
   0.1675300000000000    0.1544100000000000    0.5773100000000000 H
   0.2262500000000000    0.2478500000000000    0.4934600000000000 H
   0.1561000000000000    0.6329399999999999    0.0413800000000000 H
   0.2467900000000000    0.8233300000000000    0.0885800000000000 H
   0.2491600000000000    0.7950400000000000    0.8624900000000000 H
   0.1498300000000000    0.6051299999999999    0.8234900000000001 H
   0.3405100000000000    0.3035300000000000    0.1802600000000000 H
   0.2348000000000000    0.1116200000000000    0.1356000000000000 H
   0.5021600000000001    0.0953000000000000    0.0404200000000000 H
   0.6000100000000000    0.2880800000000000    0.0935300000000000 H
   0.5219900000000000    0.3677600000000000    0.4589100000000000 H
   0.4222800000000000    0.1773700000000000    0.4114100000000000 H
   0.4547800000000000    0.2048000000000000    0.6371500000000000 H
   0.5453600000000000    0.3947600000000000    0.6765000000000000 H
   0.0373600000000000    0.6959100000000000    0.3190000000000000 H
   0.1235400000000000    0.8877400000000000    0.3636600000000000 H
   0.4071400000000000    0.9055500000000000    0.4594300000000000 H
   0.3122500000000000    0.7128100000000001    0.4063500000000000 H
   0.4761200000000000    0.2206300000000000    0.2800400000000000 H
   0.6000600000000000    0.1459200000000000    0.2584400000000000 H
   0.7973300000000000    0.2638300000000000    0.2814300000000000 H
   0.8395300000000000    0.7508300000000000    0.2926200000000000 H
   0.8324700000000000    0.8455900000000000    0.4225300000000000 H
   0.7737900000000000    0.7521400000000000    0.5063700000000000 H
   0.8439200000000000    0.3670800000000000    0.9584500000000000 H
   0.7532400000000000    0.1766900000000000    0.9112500000000000 H
   0.7508700000000000    0.2049700000000000    0.1373300000000000 H
   0.8501800000000000    0.3948900000000000    0.1763400000000000 H
   0.6595100000000000    0.6964800000000000    0.8195800000000000 H
   0.7652099999999999    0.8883900000000000    0.8642100000000000 H
   0.4978700000000000    0.9047300000000000    0.9594100000000000 H
   0.4000300000000000    0.7119500000000000    0.9063300000000000 H
   0.2571700000000000    0.7791900000000000    0.2193200000000000 H
   0.4561100000000000    0.8535800000000000    0.2407500000000000 H
   0.5346000000000000    0.7354700000000000    0.2178200000000000 H
   0.0872800000000000    0.2490700000000000    0.2071900000000000 H
   0.9847900000000001    0.1542800000000000    0.0776000000000000 H
   0.0195200000000000    0.2476300000000000    0.9938000000000000 H
   0.4780000000000000    0.6322200000000000    0.5409100000000000 H
   0.5776800000000000    0.8226100000000000    0.5884300000000000 H
   0.5452000000000000    0.7952200000000000    0.3627000000000000 H
   0.4546500000000000    0.6052600000000000    0.3232700000000000 H
   0.9626500000000000    0.3040900000000000    0.6808400000000000 H
   0.8764600000000000    0.1122600000000000    0.6361700000000000 H
   0.5928600000000001    0.0944800000000000    0.5404300000000000 H
   0.6877600000000000    0.2872200000000000    0.5935100000000000 H
   0.4754000000000000    0.5840900000000000    0.6759300000000000 C
   0.3980100000000000    0.6250500000000000    0.6892800000000000 C
   0.4379300000000000    0.7304400000000000    0.7115899999999999 C
   0.3687600000000000    0.7717900000000000    0.7233000000000001 C
   0.2593300000000000    0.7067800000000000    0.7110700000000000 C
   0.2177300000000000    0.6006899999999999    0.6873000000000000 C
   0.2872400000000000    0.5580300000000000    0.6761900000000000 C
   0.0989300000000000    0.5352100000000000    0.6734300000000000 C
   0.2133800000000000    0.4424900000000000    0.7751900000000000 C
   0.2171800000000000    0.3922900000000000    0.6956900000000000 C
   0.1858800000000000    0.2878800000000000    0.6694700000000000 C
   0.1897400000000000    0.2352500000000000    0.5970000000000000 C
   0.2223000000000000    0.2868300000000000    0.5503100000000000 C
   0.2507900000000000    0.3907000000000000    0.5745800000000000 C
   0.2493500000000000    0.4453300000000000    0.6484700000000000 C
   0.2809300000000000    0.4401400000000000    0.5194000000000000 C
   0.1769100000000000    0.6713100000000000    0.0034400000000000 C
   0.2273600000000000    0.7772900000000000    0.0295900000000000 C
   0.2552900000000000    0.8234600000000000    0.9788300000000000 C
   0.2287300000000000    0.7615499999999999    0.9033700000000000 C
   0.1749800000000000    0.6561100000000000    0.8814800000000000 C
   0.3731100000000000    0.2543200000000000    0.1497200000000000 C
   0.3149300000000000    0.1485700000000000    0.1245000000000000 C
   0.3599100000000000    0.0895700000000000    0.0831300000000000 C
   0.4639900000000000    0.1390200000000000    0.0706900000000000 C
   0.5182000000000000    0.2452600000000000    0.0998500000000000 C
   0.5048000000000000    0.3292200000000000    0.4967200000000000 C
   0.4492800000000000    0.2232200000000000    0.4703900000000000 C
   0.4316700000000000    0.1767900000000000    0.5209600000000000 C
   0.4674200000000000    0.2384900000000000    0.5964300000000000 C
   0.5191000000000000    0.3439600000000000    0.6185300000000000 C
   0.1191500000000000    0.7454100000000000    0.3496000000000000 C
   0.1667100000000000    0.8511300000000001    0.3748800000000000 C
   0.2706400000000000    0.9105500000000000    0.4164300000000000 C
   0.3252600000000000    0.8615200000000000    0.4290100000000000 C
   0.2732500000000000    0.7552800000000000    0.3998000000000000 C
   0.5246300000000000    0.4159200000000000    0.3238900000000000 C
   0.6020200000000000    0.3749600000000000    0.3105400000000000 C
   0.5620900000000000    0.2695600000000000    0.2882400000000000 C
   0.6312600000000000    0.2282100000000000    0.2764300000000000 C
   0.7406800000000000    0.2932100000000000    0.2887000000000000 C
   0.7822900000000000    0.3993000000000000    0.3125100000000000 C
   0.7127800000000000    0.4419700000000000    0.3236000000000000 C
   0.9010899999999999    0.4647800000000000    0.3263800000000000 C
   0.7866500000000000    0.5575200000000000    0.2246500000000000 C
   0.7828300000000000    0.6077200000000000    0.3041400000000000 C
   0.8141300000000000    0.7121300000000000    0.3303600000000000 C
   0.8102700000000000    0.7647500000000000    0.4027700000000000 C
   0.7777300000000000    0.7131600000000000    0.4495200000000000 C
   0.7492500000000000    0.6093000000000000    0.4252400000000000 C
   0.7506800000000000    0.5546700000000000    0.3513600000000000 C
   0.7191300000000000    0.5598400000000000    0.4804000000000000 C
   0.8231100000000000    0.3287100000000000    0.9963900000000000 C
   0.7726700000000000    0.2227300000000000    0.9702300000000000 C
   0.7447400000000000    0.1765600000000000    0.0210000000000000 C
   0.7713000000000000    0.2384700000000000    0.0964600000000000 C
   0.8250400000000000    0.3439100000000000    0.1183500000000000 C
   0.6269100000000000    0.7457000000000000    0.8501200000000000 C
   0.6850800000000000    0.8514400000000000    0.8753200000000000 C
   0.6401100000000000    0.9104500000000000    0.9160000000000000 C
   0.5360400000000000    0.8610000000000000    0.9291400000000000 C
   0.4818300000000000    0.7547600000000000    0.8999900000000000 C
   0.1091700000000000    0.5839200000000000    0.1756800000000000 C
   0.2277000000000000    0.6247700000000000    0.1888700000000000 C
   0.2938200000000000    0.7301400000000000    0.2111000000000000 C
   0.4045000000000000    0.7713200000000000    0.2228200000000000 C
   0.4484500000000000    0.7062000000000000    0.2105300000000000 C
   0.3833300000000000    0.6001300000000001    0.1868200000000000 C
   0.2709900000000000    0.5576500000000000    0.1757700000000000 C
   0.4361900000000000    0.5345100000000000    0.1730000000000000 C
   0.2286300000000000    0.4424800000000000    0.2748600000000000 C
   0.1743700000000000    0.3921000000000000    0.1954900000000000 C
   0.1007100000000000    0.2877200000000000    0.1694500000000000 C
   0.0438200000000000    0.2350900000000000    0.0972200000000000 C
   0.0628900000000000    0.2866300000000000    0.0504700000000000 C
   0.1388800000000000    0.3904300000000000    0.0745500000000000 C
   0.1954700000000000    0.4450300000000000    0.1482300000000000 C
   0.1582000000000000    0.4398500000000000    0.0193800000000000 C
   0.4951800000000000    0.6707600000000000    0.5031000000000000 C
   0.5506900000000000    0.7767700000000000    0.5294400000000000 C
   0.5683100000000000    0.8232100000000000    0.4788900000000000 C
   0.5325600000000000    0.7615200000000000    0.4034100000000000 C
   0.4808900000000000    0.6560500000000000    0.3813000000000000 C
   0.8808500000000000    0.2545900000000000    0.6501000000000000 C
   0.8332900000000000    0.1488800000000000    0.6249600000000000 C
   0.7293500000000001    0.0894600000000000    0.5834200000000000 C
   0.6747400000000000    0.1385000000000000    0.5708500000000000 C
   0.7267600000000000    0.2447400000000000    0.5999900000000000 C
   0.1517300000000000    0.6115900000000000    0.9305500000000000 N
   0.3141300000000000    0.9309300000000000    0.9994000000000000 N
   0.2967600000000000    0.9820900000000000    0.0590000000000000 N
   0.4735900000000000    0.3019500000000000    0.1380300000000000 N
   0.5399400000000000    0.3887300000000000    0.5696200000000000 N
   0.3832800000000000    0.0693500000000000    0.5002000000000000 N
   0.3148300000000000    0.0179800000000000    0.4403000000000000 N
   0.1719800000000000    0.6982000000000000    0.3615400000000000 N
   0.8482800000000000    0.3884300000000000    0.0692000000000000 N
   0.6859100000000000    0.0690900000000000    0.0000000000000000 N
   0.7032500000000000    0.0179300000000000    0.9405200000000000 N
   0.5264400000000000    0.6980800000000000    0.8618100000000000 N
   0.4600600000000000    0.6112700000000000    0.4302000000000000 N
   0.6166800000000000    0.9306600000000000    0.4996500000000000 N
   0.6851600000000000    0.9820300000000000    0.5595100000000000 N
   0.8280300000000000    0.3018200000000000    0.6383100000000000 N
   0.4631100000000000    0.3922800000000000    0.3685300000000000 O
   0.5217900000000000    0.4713800000000000    0.2915900000000000 O
   0.7028400000000000    0.4807900000000000    0.1794100000000000 O
   0.5368800000000000    0.6076900000000000    0.6312600000000000 O
   0.4782800000000000    0.5286700000000000    0.7082600000000000 O
   0.2971900000000000    0.5192400000000000    0.8204100000000000 O
   0.1235300000000000    0.4030200000000000    0.7944000000000000 O
   0.0426300000000000    0.5817200000000000    0.6961800000000000 O
   0.0564800000000000    0.4395400000000000    0.6440500000000000 O
   0.2812200000000000    0.5217500000000000    0.5298400000000000 O
   0.3067100000000000    0.3890500000000000    0.4613000000000000 O
   0.8765100000000000    0.5969800000000000    0.2054600000000000 O
   0.9573900000000000    0.4182700000000000    0.3036000000000000 O
   0.9435400000000000    0.5604500000000000    0.3557600000000000 O
   0.7188900000000000    0.4782500000000000    0.4699000000000000 O
   0.6932900000000000    0.6109000000000000    0.5385000000000000 O
   0.0716600000000000    0.6071900000000000    0.1308500000000000 O
   0.0504000000000000    0.5288500000000000    0.2082700000000000 O
   0.2217200000000000    0.5191800000000000    0.3201900000000000 O
   0.2790600000000000    0.4032600000000000    0.2938700000000000 O
   0.5391600000000000    0.5810700000000000    0.1957000000000000 O
   0.3825700000000000    0.4388800000000000    0.1436200000000000 O
   0.2405500000000000    0.5206499999999999    0.0290200000000000 O
   0.0801400000000000    0.3896100000000000    0.9621900000000000 O
