H8 C10 N2
1.0
  13.2159999677934099    0.0000000000000000    0.0009226508550261
   2.4703262274487576   17.1217081205510908    0.0006038490144819
   0.0000000000000000    0.0000000000000000   36.7620000000000005
H C N
8 10 2
direct
   0.2580150000000000    0.3974500000000000    0.2986800000000000 H
   0.0927400000000000    0.4824200000000000    0.3057500000000000 H
   0.0484950000000000    0.4599900000000000    0.1895300000000000 H
   0.2163600000000000    0.3774800000000000    0.1873150000000000 H
   0.7419500000000000    0.6025600000000000    0.2012850000000000 H
   0.9072899999999999    0.5177700000000000    0.1942300000000000 H
   0.9513400000000001    0.5401700000000000    0.3104550000000000 H
   0.7834500000000000    0.6225200000000000    0.3126600000000000 H
   0.2075750000000000    0.4116900000000000    0.2754450000000000 C
   0.1145350000000000    0.4595100000000000    0.2789200000000000 C
   0.0512500000000000    0.4764500000000000    0.2484350000000000 C
   0.0902200000000000    0.4471700000000000    0.2147800000000000 C
   0.1842250000000000    0.4001500000000000    0.2131200000000000 C
   0.7923150000000000    0.5883699999999999    0.2245400000000000 C
   0.8854550000000000    0.5406200000000000    0.2210700000000000 C
   0.9487550000000000    0.5236100000000000    0.2515550000000000 C
   0.9096500000000001    0.5529300000000000    0.2851900000000000 C
   0.8155600000000001    0.5998900000000000    0.2868400000000000 C
   0.2418300000000000    0.3808100000000000    0.2431250000000000 N
   0.7578450000000000    0.6192100000000000    0.2568500000000000 N
