Zn16 H192 C280 N152 O2
1.0
  13.2159999677934099    0.0000000000000000    0.0009226508550261
   2.4703262274487576   17.1217081205510908    0.0006038490144819
   0.0000000000000000    0.0000000000000000   36.7620000000000005
Zn H C N O
16 192 280 152 2
direct
   0.1293000000000000    0.6999800000000000    0.7591450000000000 Zn
   0.3695250000000000    0.7999200000000000    0.5091400000000000 Zn
   0.1293000000000000    0.6999800000000000    0.2591450000000000 Zn
   0.3695250000000000    0.7999200000000000    0.0091400000000000 Zn
   0.6293100000000000    0.1999800000000000    0.4908450000000000 Zn
   0.8695349999999999    0.2999200000000000    0.7408650000000000 Zn
   0.6293100000000000    0.1999800000000000    0.9908450000000000 Zn
   0.8695349999999999    0.2999200000000000    0.2408650000000000 Zn
   0.6293000000000000    0.6999800000000000    0.2591450000000000 Zn
   0.8695250000000000    0.7999200000000000    0.0091400000000000 Zn
   0.6293000000000000    0.6999800000000000    0.7591450000000000 Zn
   0.8695250000000000    0.7999200000000000    0.5091400000000000 Zn
   0.1293100000000000    0.1999800000000000    0.4908450000000000 Zn
   0.3695350000000000    0.2999200000000000    0.7408650000000000 Zn
   0.1293100000000000    0.1999800000000000    0.9908450000000000 Zn
   0.3695350000000000    0.2999200000000000    0.2408650000000000 Zn
   0.6246650000000000    0.0972500000000000    0.2232100000000000 H
   0.9128849999999999    0.0114700000000000    0.2759850000000000 H
   0.9554500000000000    0.1456500000000000    0.2718150000000000 H
   0.6778999999999999    0.2253700000000000    0.2213250000000000 H
   0.8752400000000000    0.9022800000000000    0.2766850000000000 H
   0.5869850000000000    0.9883500000000000    0.2240000000000000 H
   0.5441500000000000    0.8542900000000000    0.2281950000000000 H
   0.8217150000000000    0.7742500000000000    0.2786050000000000 H
   0.6246650000000000    0.0972500000000000    0.7232100000000000 H
   0.9128849999999999    0.0114700000000000    0.7759849999999999 H
   0.9554500000000000    0.1456500000000000    0.7718149999999999 H
   0.6778999999999999    0.2253700000000000    0.7213250000000000 H
   0.8752400000000000    0.9022800000000000    0.7766850000000001 H
   0.5869850000000000    0.9883500000000000    0.7240000000000000 H
   0.5441500000000000    0.8542900000000000    0.7281950000000000 H
   0.8217150000000000    0.7742500000000000    0.7786050000000000 H
   0.3752600000000000    0.4022800000000000    0.4733100000000000 H
   0.0869750000000000    0.4883400000000000    0.5260000000000000 H
   0.0441450000000000    0.3542800000000000    0.5218000000000000 H
   0.3217300000000000    0.2742600000000000    0.4713900000000000 H
   0.1246500000000000    0.5972499999999999    0.5267900000000000 H
   0.4128900000000000    0.5114700000000000    0.4740150000000000 H
   0.4554550000000000    0.6456499999999999    0.4781850000000000 H
   0.1778800000000000    0.7253600000000000    0.5286800000000000 H
   0.3752600000000000    0.4022800000000000    0.9733100000000000 H
   0.0869750000000000    0.4883400000000000    0.0260000000000000 H
   0.0441450000000000    0.3542800000000000    0.0218000000000000 H
   0.3217300000000000    0.2742600000000000    0.9713900000000000 H
   0.1246500000000000    0.5972499999999999    0.0267900000000000 H
   0.4128900000000000    0.5114700000000000    0.9740150000000001 H
   0.4554550000000000    0.6456499999999999    0.9781850000000001 H
   0.1778800000000000    0.7253600000000000    0.0286800000000000 H
   0.0927550000000000    0.9824000000000001    0.4442500000000000 H
   0.0484700000000000    0.9600200000000000    0.5604750000000001 H
   0.2163300000000000    0.8774999999999999    0.5626949999999999 H
   0.2580250000000000    0.8974299999999999    0.4513300000000000 H
   0.9072700000000000    0.0177900000000000    0.5557650000000000 H
   0.9513700000000000    0.0401500000000000    0.4395400000000000 H
   0.7834800000000000    0.1225000000000000    0.4373300000000000 H
   0.7419400000000000    0.1025800000000000    0.5487100000000000 H
   0.0927550000000000    0.9824000000000001    0.9442500000000000 H
   0.0484700000000000    0.9600200000000000    0.0604750000000000 H
   0.2163300000000000    0.8774999999999999    0.0626950000000000 H
   0.2580250000000000    0.8974299999999999    0.9513300000000000 H
   0.9072700000000000    0.0177900000000000    0.0557650000000000 H
   0.9513700000000000    0.0401500000000000    0.9395400000000000 H
   0.7834800000000000    0.1225000000000000    0.9373300000000000 H
   0.7419400000000000    0.1025800000000000    0.0487100000000000 H
   0.7015100000000000    0.6572300000000000    0.9319999999999999 H
   0.8654950000000000    0.6191500000000000    0.8987250000000000 H
   0.8229600000000000    0.8400900000000000    0.8433200000000001 H
   0.6577850000000001    0.8771300000000000    0.8756349999999999 H
   0.7989400000000000    0.8428200000000000    0.6821200000000001 H
   0.6349400000000001    0.8808600000000000    0.6488600000000000 H
   0.6775599999999999    0.6599000000000000    0.5934650000000000 H
   0.8427600000000000    0.6229200000000000    0.6257650000000000 H
   0.0818611014195267    0.6516870385567461    0.3241624760835732 H
   0.0460947938168386    0.7355470858104749    0.2840810680688430 H
   0.7015100000000000    0.6572300000000000    0.4320000000000000 H
   0.8654950000000000    0.6191500000000000    0.3987250000000000 H
   0.8229600000000000    0.8400900000000000    0.3433200000000000 H
   0.6577850000000001    0.8771300000000000    0.3756350000000000 H
   0.7989400000000000    0.8428200000000000    0.1821200000000000 H
   0.6349400000000001    0.8808600000000000    0.1488600000000000 H
   0.6775599999999999    0.6599000000000000    0.0934650000000000 H
   0.8427600000000000    0.6229200000000000    0.1257650000000000 H
   0.5927400000000000    0.4824200000000000    0.3057500000000000 H
   0.5484950000000000    0.4599900000000000    0.1895300000000000 H
   0.7163600000000000    0.3774800000000000    0.1873150000000000 H
   0.7580150000000000    0.3974500000000000    0.2986800000000000 H
   0.4072900000000000    0.5177700000000000    0.1942300000000000 H
   0.4513400000000000    0.5401700000000000    0.3104550000000000 H
   0.2834500000000000    0.6225200000000000    0.3126600000000000 H
   0.2419500000000000    0.6025600000000000    0.2012850000000000 H
   0.5927400000000000    0.4824200000000000    0.8057500000000000 H
   0.5484950000000000    0.4599900000000000    0.6895300000000000 H
   0.7163600000000000    0.3774800000000000    0.6873150000000000 H
   0.7580150000000000    0.3974500000000000    0.7986800000000001 H
   0.4072900000000000    0.5177700000000000    0.6942300000000000 H
   0.4513400000000000    0.5401700000000000    0.8104549999999999 H
   0.2834500000000000    0.6225200000000000    0.8126599999999999 H
   0.2419500000000000    0.6025600000000000    0.7012849999999999 H
   0.2015500000000000    0.1572300000000000    0.3180050000000000 H
   0.3655200000000000    0.1191600000000000    0.3512750000000000 H
   0.3229300000000000    0.3401000000000000    0.4066800000000000 H
   0.1577700000000000    0.3771200000000000    0.3743650000000000 H
   0.2989700000000000    0.3428200000000000    0.5678750000000000 H
   0.1349650000000000    0.3808700000000000    0.6011400000000000 H
   0.1775300000000000    0.1599100000000000    0.6565350000000000 H
   0.3427350000000000    0.1229100000000000    0.6242350000000000 H
   0.2015500000000000    0.1572300000000000    0.8180050000000000 H
   0.3655200000000000    0.1191600000000000    0.8512750000000000 H
   0.3229300000000000    0.3401000000000000    0.9066799999999999 H
   0.1577700000000000    0.3771200000000000    0.8743650000000001 H
   0.2989700000000000    0.3428200000000000    0.0678750000000000 H
   0.1349650000000000    0.3808700000000000    0.1011400000000000 H
   0.1775300000000000    0.1599100000000000    0.1565350000000000 H
   0.3427350000000000    0.1229100000000000    0.1242350000000000 H
   0.1246650000000000    0.0972500000000000    0.2232100000000000 H
   0.4128850000000000    0.0114700000000000    0.2759850000000000 H
   0.4554500000000000    0.1456500000000000    0.2718150000000000 H
   0.1779000000000000    0.2253700000000000    0.2213250000000000 H
   0.3752400000000000    0.9022800000000000    0.2766850000000000 H
   0.0869850000000000    0.9883500000000000    0.2240000000000000 H
   0.0441500000000000    0.8542900000000000    0.2281950000000000 H
   0.3217150000000000    0.7742500000000000    0.2786050000000000 H
   0.1246650000000000    0.0972500000000000    0.7232100000000000 H
   0.4128850000000000    0.0114700000000000    0.7759849999999999 H
   0.4554500000000000    0.1456500000000000    0.7718149999999999 H
   0.1779000000000000    0.2253700000000000    0.7213250000000000 H
   0.3752400000000000    0.9022800000000000    0.7766850000000001 H
   0.0869850000000000    0.9883500000000000    0.7240000000000000 H
   0.0441500000000000    0.8542900000000000    0.7281950000000000 H
   0.3217150000000000    0.7742500000000000    0.7786050000000000 H
   0.8752599999999999    0.4022800000000000    0.4733100000000000 H
   0.5869750000000000    0.4883400000000000    0.5260000000000000 H
   0.5441450000000000    0.3542800000000000    0.5218000000000000 H
   0.8217300000000001    0.2742600000000000    0.4713900000000000 H
   0.6246500000000000    0.5972499999999999    0.5267900000000000 H
   0.9128900000000000    0.5114700000000000    0.4740150000000000 H
   0.9554549999999999    0.6456499999999999    0.4781850000000000 H
   0.6778800000000000    0.7253600000000000    0.5286800000000000 H
   0.8752599999999999    0.4022800000000000    0.9733100000000000 H
   0.5869750000000000    0.4883400000000000    0.0260000000000000 H
   0.5441450000000000    0.3542800000000000    0.0218000000000000 H
   0.8217300000000001    0.2742600000000000    0.9713900000000000 H
   0.6246500000000000    0.5972499999999999    0.0267900000000000 H
   0.9128900000000000    0.5114700000000000    0.9740150000000001 H
   0.9554549999999999    0.6456499999999999    0.9781850000000001 H
   0.6778800000000000    0.7253600000000000    0.0286800000000000 H
   0.5927550000000000    0.9824000000000001    0.9442500000000000 H
   0.5484700000000000    0.9600200000000000    0.0604750000000000 H
   0.7163300000000000    0.8774999999999999    0.0626950000000000 H
   0.7580249999999999    0.8974299999999999    0.9513300000000000 H
   0.4072700000000000    0.0177900000000000    0.0557650000000000 H
   0.4513700000000000    0.0401500000000000    0.9395400000000000 H
   0.2834800000000000    0.1225000000000000    0.9373300000000000 H
   0.2419400000000000    0.1025800000000000    0.0487100000000000 H
   0.5927550000000000    0.9824000000000001    0.4442500000000000 H
   0.5484700000000000    0.9600200000000000    0.5604750000000001 H
   0.7163300000000000    0.8774999999999999    0.5626949999999999 H
   0.7580249999999999    0.8974299999999999    0.4513300000000000 H
   0.4072700000000000    0.0177900000000000    0.5557650000000000 H
   0.4513700000000000    0.0401500000000000    0.4395400000000000 H
   0.2834800000000000    0.1225000000000000    0.4373300000000000 H
   0.2419400000000000    0.1025800000000000    0.5487100000000000 H
   1.0196918140767235    0.7747111106868717    0.4591219026182173 H
   0.9368756756438603    0.8479059363291570    0.4469181065617386 H
   0.2989400000000000    0.8428200000000000    0.1821200000000000 H
   0.1349400000000000    0.8808600000000000    0.1488600000000000 H
   0.1775600000000000    0.6599000000000000    0.0934650000000000 H
   0.3427600000000000    0.6229200000000000    0.1257650000000000 H
   0.2015100000000000    0.6572300000000000    0.9319999999999999 H
   0.3654950000000000    0.6191500000000000    0.8987250000000000 H
   0.3229600000000000    0.8400900000000000    0.8433200000000001 H
   0.1577850000000000    0.8771300000000000    0.8756349999999999 H
   0.2989400000000000    0.8428200000000000    0.6821200000000001 H
   0.1349400000000000    0.8808600000000000    0.6488600000000000 H
   0.1775600000000000    0.6599000000000000    0.5934650000000000 H
   0.3427600000000000    0.6229200000000000    0.6257650000000000 H
   0.0927400000000000    0.4824200000000000    0.8057500000000000 H
   0.0484950000000000    0.4599900000000000    0.6895300000000000 H
   0.2163600000000000    0.3774800000000000    0.6873150000000000 H
   0.2580150000000000    0.3974500000000000    0.7986800000000001 H
   0.9072899999999999    0.5177700000000000    0.6942300000000000 H
   0.9513400000000001    0.5401700000000000    0.8104549999999999 H
   0.7834500000000000    0.6225200000000000    0.8126599999999999 H
   0.7419500000000000    0.6025600000000000    0.7012849999999999 H
   0.0927400000000000    0.4824200000000000    0.3057500000000000 H
   0.0484950000000000    0.4599900000000000    0.1895300000000000 H
   0.2163600000000000    0.3774800000000000    0.1873150000000000 H
   0.2580150000000000    0.3974500000000000    0.2986800000000000 H
   0.9072899999999999    0.5177700000000000    0.1942300000000000 H
   0.9513400000000001    0.5401700000000000    0.3104550000000000 H
   0.7834500000000000    0.6225200000000000    0.3126600000000000 H
   0.7419500000000000    0.6025600000000000    0.2012850000000000 H
   0.7015500000000000    0.1572300000000000    0.3180050000000000 H
   0.8655200000000001    0.1191600000000000    0.3512750000000000 H
   0.8229299999999999    0.3401000000000000    0.4066800000000000 H
   0.6577700000000000    0.3771200000000000    0.3743650000000000 H
   0.7989700000000000    0.3428200000000000    0.5678750000000000 H
   0.6349650000000000    0.3808700000000000    0.6011400000000000 H
   0.6775300000000000    0.1599100000000000    0.6565350000000000 H
   0.8427350000000000    0.1229100000000000    0.6242350000000000 H
   0.7015500000000000    0.1572300000000000    0.8180050000000000 H
   0.8655200000000001    0.1191600000000000    0.8512750000000000 H
   0.8229299999999999    0.3401000000000000    0.9066799999999999 H
   0.6577700000000000    0.3771200000000000    0.8743650000000001 H
   0.7989700000000000    0.3428200000000000    0.0678750000000000 H
   0.6349650000000000    0.3808700000000000    0.1011400000000000 H
   0.6775300000000000    0.1599100000000000    0.1565350000000000 H
   0.8427350000000000    0.1229100000000000    0.1242350000000000 H
   0.6995300000000000    0.1030900000000000    0.2342750000000000 C
   0.8584950000000000    0.0563000000000000    0.2630850000000000 C
   0.8836600000000000    0.1313200000000000    0.2608300000000000 C
   0.7295150000000000    0.1768600000000000    0.2329350000000000 C
   0.7644650000000000    0.0397900000000000    0.2492500000000000 C
   0.8003050000000000    0.8965300000000000    0.2656550000000000 C
   0.6413250000000000    0.9434800000000000    0.2368950000000000 C
   0.6160099999999999    0.8685100000000000    0.2391650000000000 C
   0.7701500000000000    0.8228100000000000    0.2670200000000000 C
   0.7354200000000000    0.9598900000000000    0.2507050000000000 C
   0.6995300000000000    0.1030900000000000    0.7342750000000000 C
   0.8584950000000000    0.0563000000000000    0.7630850000000000 C
   0.8836600000000000    0.1313200000000000    0.7608300000000000 C
   0.7295150000000000    0.1768600000000000    0.7329350000000000 C
   0.7644650000000000    0.0397900000000000    0.7492500000000000 C
   0.8003050000000000    0.8965300000000000    0.7656550000000000 C
   0.6413250000000000    0.9434800000000000    0.7368950000000000 C
   0.6160099999999999    0.8685100000000000    0.7391650000000000 C
   0.7701500000000000    0.8228100000000000    0.7670200000000000 C
   0.7354200000000000    0.9598900000000000    0.7507050000000000 C
   0.3003200000000000    0.3965300000000000    0.4843450000000000 C
   0.1413250000000000    0.4434800000000000    0.5131050000000000 C
   0.1160050000000000    0.3685100000000000    0.5108300000000000 C
   0.2701650000000000    0.3228200000000000    0.4829750000000000 C
   0.2354300000000000    0.4598900000000000    0.4992950000000000 C
   0.1995150000000000    0.6030900000000000    0.5157250000000000 C
   0.3585000000000000    0.5563000000000000    0.4869200000000000 C
   0.3836650000000000    0.6313200000000000    0.4891700000000000 C
   0.2295000000000000    0.6768500000000000    0.5170700000000000 C
   0.2644600000000000    0.5397900000000000    0.5007500000000000 C
   0.3003200000000000    0.3965300000000000    0.9843450000000000 C
   0.1413250000000000    0.4434800000000000    0.0131050000000000 C
   0.1160050000000000    0.3685100000000000    0.0108300000000000 C
   0.2701650000000000    0.3228200000000000    0.9829749999999999 C
   0.2354300000000000    0.4598900000000000    0.9992950000000000 C
   0.1995150000000000    0.6030900000000000    0.0157250000000000 C
   0.3585000000000000    0.5563000000000000    0.9869200000000000 C
   0.3836650000000000    0.6313200000000000    0.9891700000000000 C
   0.2295000000000000    0.6768500000000000    0.0170700000000000 C
   0.2644600000000000    0.5397900000000000    0.0007500000000000 C
   0.1145400000000000    0.9594900000000000    0.4710800000000000 C
   0.0902000000000000    0.9471800000000000    0.5352250000000000 C
   0.1842050000000000    0.9001700000000000    0.5368850000000001 C
   0.2075800000000000    0.9116700000000000    0.4745600000000000 C
   0.0512400000000000    0.9764500000000000    0.5015700000000000 C
   0.8854450000000000    0.0406300000000000    0.5289250000000000 C
   0.9096700000000000    0.0529200000000000    0.4648050000000000 C
   0.8155800000000000    0.0998800000000000    0.4631500000000000 C
   0.7923100000000001    0.0883900000000000    0.5254500000000000 C
   0.9487600000000000    0.0236100000000000    0.4984400000000000 C
   0.1145400000000000    0.9594900000000000    0.9710799999999999 C
   0.0902000000000000    0.9471800000000000    0.0352250000000000 C
   0.1842050000000000    0.9001700000000000    0.0368850000000000 C
   0.2075800000000000    0.9116700000000000    0.9745600000000000 C
   0.0512400000000000    0.9764500000000000    0.0015700000000000 C
   0.8854450000000000    0.0406300000000000    0.0289250000000000 C
   0.9096700000000000    0.0529200000000000    0.9648050000000000 C
   0.8155800000000000    0.0998800000000000    0.9631500000000000 C
   0.7923100000000001    0.0883900000000000    0.0254500000000000 C
   0.9487600000000000    0.0236100000000000    0.9984400000000000 C
   0.9485150000000000    0.7026800000000000    0.8478049999999999 C
   0.5734550000000000    0.7944400000000000    0.9256900000000000 C
   0.7286700000000000    0.6973000000000000    0.9126449999999999 C
   0.8200499999999999    0.6759500000000001    0.8940500000000000 C
   0.6688750000000000    0.7698199999999999    0.9061150000000000 C
   0.7952049999999999    0.7994599999999999    0.8622050000000000 C
   0.7035450000000000    0.8205400000000000    0.8805250000000000 C
   0.8545950000000000    0.7265900000000000    0.8684000000000001 C
   0.5519750000000000    0.7973100000000000    0.5979400000000000 C
   0.9271050000000001    0.7056500000000000    0.6757900000000000 C
   0.7718000000000000    0.8027400000000000    0.6627750000000000 C
   0.6804050000000000    0.8240600000000000    0.6441850000000000 C
   0.8316350000000000    0.7302400000000000    0.6562399999999999 C
   0.7052900000000000    0.7005400000000001    0.6123499999999999 C
   0.7969750000000000    0.6794900000000000    0.6306600000000000 C
   0.6458800000000000    0.7734100000000000    0.6185450000000000 C
   0.9485150000000000    0.7026800000000000    0.3478050000000000 C
   0.5734550000000000    0.7944400000000000    0.4256900000000000 C
   0.7286700000000000    0.6973000000000000    0.4126450000000000 C
   0.8200499999999999    0.6759500000000001    0.3940500000000000 C
   0.6688750000000000    0.7698199999999999    0.4061150000000000 C
   0.7952049999999999    0.7994599999999999    0.3622050000000000 C
   0.7035450000000000    0.8205400000000000    0.3805250000000000 C
   0.8545950000000000    0.7265900000000000    0.3684000000000000 C
   0.5519750000000000    0.7973100000000000    0.0979400000000000 C
   0.9271050000000001    0.7056500000000000    0.1757900000000000 C
   0.7718000000000000    0.8027400000000000    0.1627750000000000 C
   0.6804050000000000    0.8240600000000000    0.1441850000000000 C
   0.8316350000000000    0.7302400000000000    0.1562400000000000 C
   0.7052900000000000    0.7005400000000001    0.1123500000000000 C
   0.7969750000000000    0.6794900000000000    0.1306600000000000 C
   0.6458800000000000    0.7734100000000000    0.1185450000000000 C
   0.6145350000000001    0.4595100000000000    0.2789200000000000 C
   0.5902200000000000    0.4471700000000000    0.2147800000000000 C
   0.6842250000000000    0.4001500000000000    0.2131200000000000 C
   0.7075750000000001    0.4116900000000000    0.2754450000000000 C
   0.5512500000000000    0.4764500000000000    0.2484350000000000 C
   0.3854550000000000    0.5406200000000000    0.2210700000000000 C
   0.4096500000000000    0.5529300000000000    0.2851900000000000 C
   0.3155600000000000    0.5998900000000000    0.2868400000000000 C
   0.2923150000000000    0.5883699999999999    0.2245400000000000 C
   0.4487550000000000    0.5236100000000000    0.2515550000000000 C
   0.6145350000000001    0.4595100000000000    0.7789200000000001 C
   0.5902200000000000    0.4471700000000000    0.7147800000000000 C
   0.6842250000000000    0.4001500000000000    0.7131200000000000 C
   0.7075750000000001    0.4116900000000000    0.7754449999999999 C
   0.5512500000000000    0.4764500000000000    0.7484350000000000 C
   0.3854550000000000    0.5406200000000000    0.7210700000000000 C
   0.4096500000000000    0.5529300000000000    0.7851900000000001 C
   0.3155600000000000    0.5998900000000000    0.7868400000000000 C
   0.2923150000000000    0.5883699999999999    0.7245400000000000 C
   0.4487550000000000    0.5236100000000000    0.7515550000000000 C
   0.4485150000000000    0.2026900000000000    0.4021950000000000 C
   0.0734650000000000    0.2944300000000000    0.3243100000000000 C
   0.2286900000000000    0.1973000000000000    0.3373550000000000 C
   0.3200650000000000    0.1759600000000000    0.3559500000000000 C
   0.1688850000000000    0.2698200000000000    0.3438850000000000 C
   0.2951950000000000    0.2994700000000000    0.3877950000000000 C
   0.2035350000000000    0.3205400000000000    0.3694700000000000 C
   0.3546000000000000    0.2266000000000000    0.3816000000000000 C
   0.0519750000000000    0.2973200000000000    0.6520600000000000 C
   0.4271100000000000    0.2056400000000000    0.5742050000000000 C
   0.2718150000000000    0.3027400000000000    0.5872250000000000 C
   0.1804200000000000    0.3240700000000000    0.6058150000000000 C
   0.3316400000000000    0.2302300000000000    0.5937600000000000 C
   0.2052750000000000    0.2005500000000000    0.6376500000000001 C
   0.2969600000000000    0.1794900000000000    0.6193400000000000 C
   0.1458800000000000    0.2734200000000000    0.6314550000000000 C
   0.4485150000000000    0.2026900000000000    0.9021950000000001 C
   0.0734650000000000    0.2944300000000000    0.8243100000000000 C
   0.2286900000000000    0.1973000000000000    0.8373550000000001 C
   0.3200650000000000    0.1759600000000000    0.8559500000000000 C
   0.1688850000000000    0.2698200000000000    0.8438850000000000 C
   0.2951950000000000    0.2994700000000000    0.8877950000000000 C
   0.2035350000000000    0.3205400000000000    0.8694700000000000 C
   0.3546000000000000    0.2266000000000000    0.8815999999999999 C
   0.0519750000000000    0.2973200000000000    0.1520600000000000 C
   0.4271100000000000    0.2056400000000000    0.0742050000000000 C
   0.2718150000000000    0.3027400000000000    0.0872250000000000 C
   0.1804200000000000    0.3240700000000000    0.1058150000000000 C
   0.3316400000000000    0.2302300000000000    0.0937600000000000 C
   0.2052750000000000    0.2005500000000000    0.1376500000000000 C
   0.2969600000000000    0.1794900000000000    0.1193400000000000 C
   0.1458800000000000    0.2734200000000000    0.1314550000000000 C
   0.1995300000000000    0.1030900000000000    0.2342750000000000 C
   0.3584950000000000    0.0563000000000000    0.2630850000000000 C
   0.3836600000000000    0.1313200000000000    0.2608300000000000 C
   0.2295150000000000    0.1768600000000000    0.2329350000000000 C
   0.2644650000000000    0.0397900000000000    0.2492500000000000 C
   0.3003050000000000    0.8965300000000000    0.2656550000000000 C
   0.1413250000000000    0.9434800000000000    0.2368950000000000 C
   0.1160100000000000    0.8685100000000000    0.2391650000000000 C
   0.2701500000000000    0.8228100000000000    0.2670200000000000 C
   0.2354200000000000    0.9598900000000000    0.2507050000000000 C
   0.1995300000000000    0.1030900000000000    0.7342750000000000 C
   0.3584950000000000    0.0563000000000000    0.7630850000000000 C
   0.3836600000000000    0.1313200000000000    0.7608300000000000 C
   0.2295150000000000    0.1768600000000000    0.7329350000000000 C
   0.2644650000000000    0.0397900000000000    0.7492500000000000 C
   0.3003050000000000    0.8965300000000000    0.7656550000000000 C
   0.1413250000000000    0.9434800000000000    0.7368950000000000 C
   0.1160100000000000    0.8685100000000000    0.7391650000000000 C
   0.2701500000000000    0.8228100000000000    0.7670200000000000 C
   0.2354200000000000    0.9598900000000000    0.7507050000000000 C
   0.8003199999999999    0.3965300000000000    0.4843450000000000 C
   0.6413250000000000    0.4434800000000000    0.5131050000000000 C
   0.6160050000000000    0.3685100000000000    0.5108300000000000 C
   0.7701650000000000    0.3228200000000000    0.4829750000000000 C
   0.7354300000000000    0.4598900000000000    0.4992950000000000 C
   0.6995150000000000    0.6030900000000000    0.5157250000000000 C
   0.8585000000000000    0.5563000000000000    0.4869200000000000 C
   0.8836649999999999    0.6313200000000000    0.4891700000000000 C
   0.7295000000000000    0.6768500000000000    0.5170700000000000 C
   0.7644599999999999    0.5397900000000000    0.5007500000000000 C
   0.8003199999999999    0.3965300000000000    0.9843450000000000 C
   0.6413250000000000    0.4434800000000000    0.0131050000000000 C
   0.6160050000000000    0.3685100000000000    0.0108300000000000 C
   0.7701650000000000    0.3228200000000000    0.9829749999999999 C
   0.7354300000000000    0.4598900000000000    0.9992950000000000 C
   0.6995150000000000    0.6030900000000000    0.0157250000000000 C
   0.8585000000000000    0.5563000000000000    0.9869200000000000 C
   0.8836649999999999    0.6313200000000000    0.9891700000000000 C
   0.7295000000000000    0.6768500000000000    0.0170700000000000 C
   0.7644599999999999    0.5397900000000000    0.0007500000000000 C
   0.6145400000000000    0.9594900000000000    0.9710799999999999 C
   0.5902000000000001    0.9471800000000000    0.0352250000000000 C
   0.6842050000000000    0.9001700000000000    0.0368850000000000 C
   0.7075800000000000    0.9116700000000000    0.9745600000000000 C
   0.5512400000000000    0.9764500000000000    0.0015700000000000 C
   0.3854450000000000    0.0406300000000000    0.0289250000000000 C
   0.4096700000000000    0.0529200000000000    0.9648050000000000 C
   0.3155800000000000    0.0998800000000000    0.9631500000000000 C
   0.2923100000000000    0.0883900000000000    0.0254500000000000 C
   0.4487600000000000    0.0236100000000000    0.9984400000000000 C
   0.6145400000000000    0.9594900000000000    0.4710800000000000 C
   0.5902000000000001    0.9471800000000000    0.5352250000000000 C
   0.6842050000000000    0.9001700000000000    0.5368850000000001 C
   0.7075800000000000    0.9116700000000000    0.4745600000000000 C
   0.5512400000000000    0.9764500000000000    0.5015700000000000 C
   0.3854450000000000    0.0406300000000000    0.5289250000000000 C
   0.4096700000000000    0.0529200000000000    0.4648050000000000 C
   0.3155800000000000    0.0998800000000000    0.4631500000000000 C
   0.2923100000000000    0.0883900000000000    0.5254500000000000 C
   0.4487600000000000    0.0236100000000000    0.4984400000000000 C
   0.0519750000000000    0.7973100000000000    0.0979400000000000 C
   0.4271050000000000    0.7056500000000000    0.1757900000000000 C
   0.2718000000000000    0.8027400000000000    0.1627750000000000 C
   0.1804050000000000    0.8240600000000000    0.1441850000000000 C
   0.3316350000000000    0.7302400000000000    0.1562400000000000 C
   0.2052900000000000    0.7005400000000001    0.1123500000000000 C
   0.2969750000000000    0.6794900000000000    0.1306600000000000 C
   0.1458800000000000    0.7734100000000000    0.1185450000000000 C
   0.4485150000000000    0.7026800000000000    0.8478049999999999 C
   0.0734550000000000    0.7944400000000000    0.9256900000000000 C
   0.2286700000000000    0.6973000000000000    0.9126449999999999 C
   0.3200500000000000    0.6759500000000001    0.8940500000000000 C
   0.1688750000000000    0.7698199999999999    0.9061150000000000 C
   0.2952050000000000    0.7994599999999999    0.8622050000000000 C
   0.2035450000000000    0.8205400000000000    0.8805250000000000 C
   0.3545950000000000    0.7265900000000000    0.8684000000000001 C
   0.0519750000000000    0.7973100000000000    0.5979400000000000 C
   0.4271050000000000    0.7056500000000000    0.6757900000000000 C
   0.2718000000000000    0.8027400000000000    0.6627750000000000 C
   0.1804050000000000    0.8240600000000000    0.6441850000000000 C
   0.3316350000000000    0.7302400000000000    0.6562399999999999 C
   0.2052900000000000    0.7005400000000001    0.6123499999999999 C
   0.2969750000000000    0.6794900000000000    0.6306600000000000 C
   0.1458800000000000    0.7734100000000000    0.6185450000000000 C
   0.1145350000000000    0.4595100000000000    0.7789200000000001 C