H4 O2
1.0
  13.2159999677934099    0.0000000000000000    0.0009226508550261
   2.4703262274487576   17.1217081205510908    0.0006038490144819
   0.0000000000000000    0.0000000000000000   36.7620000000000005
H O
4 2
direct
   1.0196918140767235    0.7747111106868717    0.4591219026182173 H
   0.9368756756438603    0.8479059363291570    0.4469181065617386 H
   0.0818611014195267    0.6516870385567461    0.3241624760835732 H
   0.0460947938168386    0.7355470858104749    0.2840810680688430 H
   0.9547450000000000    0.8068600000000000    0.4650750000000000 O
   0.0604150000000000    0.6932700000000001    0.3065750000000000 O
