H1 C1 O2
1.0
  20.1960000000000015    0.0000000000000000    0.0000000000000012
   0.0169339159245767   23.0962513165884857   -0.4680698275642696
   0.0000000000000000    0.0000000000000000   14.8800000000000008
H C O
1 1 2
direct
   0.6042500000000000    0.2485500000000000    0.4875800000000000 H
   0.6131799999999999    0.2849900000000000    0.4425000000000000 C
   0.6738700000000000    0.3018800000000000    0.4370700000000000 O
   0.5641600000000000    0.3054300000000000    0.4021700000000000 O
