H3 O2
1.0
  20.1960000000000015    0.0000000000000000    0.0000000000000012
   0.0169339159245767   23.0962513165884857   -0.4680698275642696
   0.0000000000000000    0.0000000000000000   14.8800000000000008
H O
3 2
direct
   0.6467622011648619    0.2867480706796047    0.4849975781538990 H
   0.5326746692729348    0.2878544748867750    0.4578372143798979 H
   0.5167274050927964    0.3007183211673451    0.4091464549717078 H
   0.6738700000000000    0.3018800000000000    0.4370700000000000 O
   0.5641600000000000    0.3054300000000000    0.4021700000000000 O
