Zn48 H95 C95 O190
1.0
  20.1960000000000015    0.0000000000000000    0.0000000000000012
   0.0169339159245767   23.0962513165884857   -0.4680698275642696
   0.0000000000000000    0.0000000000000000   14.8800000000000008
Zn H C O
48 95 95 190
direct
   0.4640000000000000    0.8774700000000000    0.1296000000000000 Zn
   0.9640000000000000    0.3774700000000000    0.1296000000000000 Zn
   0.9640000000000000    0.8774700000000000    0.1296000000000000 Zn
   0.0586200000000000    0.3702300000000000    0.3080000000000000 Zn
   0.0586200000000000    0.8702299999999999    0.3080000000000000 Zn
   0.5586200000000000    0.3702300000000000    0.3080000000000000 Zn
   0.5586300000000000    0.8702299999999999    0.3080000000000000 Zn
   0.2139900000000000    0.3725500000000000    0.3703500000000000 Zn
   0.2139900000000000    0.8725400000000000    0.3703500000000000 Zn
   0.7139900000000000    0.3725500000000000    0.3703500000000000 Zn
   0.7140000000000000    0.8725400000000000    0.3703500000000000 Zn
   0.3086100000000000    0.3797900000000000    0.1912600000000000 Zn
   0.3086200000000000    0.8797900000000000    0.1912600000000000 Zn
   0.8086200000000000    0.3797900000000000    0.1912600000000000 Zn
   0.8086200000000000    0.8797900000000000    0.1912600000000000 Zn
   0.0360200000000000    0.1225200000000000    0.8703500000000000 Zn
   0.0360200000000000    0.6225200000000000    0.8703500000000000 Zn
   0.5360200000000001    0.1225200000000000    0.8703500000000000 Zn
   0.5360300000000000    0.6225200000000000    0.8703500000000000 Zn
   0.4413900000000000    0.1297600000000000    0.6912800000000000 Zn
   0.4413900000000000    0.6297600000000000    0.6912800000000000 Zn
   0.9413899999999999    0.1297600000000000    0.6912800000000000 Zn
   0.9414000000000000    0.6297600000000000    0.6912800000000000 Zn
   0.2860200000000000    0.1274500000000000    0.6296200000000000 Zn
   0.2860300000000000    0.6274400000000000    0.6296200000000000 Zn
   0.7860300000000000    0.1274500000000000    0.6296200000000000 Zn
   0.7860300000000000    0.6274400000000000    0.6296200000000000 Zn
   0.1913900000000000    0.1202000000000000    0.8087100000000000 Zn
   0.1914000000000000    0.6202000000000000    0.8087100000000000 Zn
   0.6914000000000000    0.1202000000000000    0.8087100000000000 Zn
   0.6914000000000000    0.6202000000000000    0.8087100000000000 Zn
   0.0000000000000000    0.2500000000000000    0.0000000000000000 Zn
   0.4639900000000000    0.3774700000000000    0.1296000000000000 Zn
   0.0000100000000000    0.7499900000000000    0.0000000000000000 Zn
   0.5000100000000000    0.2500000000000000    0.0000000000000000 Zn
   0.5000100000000000    0.7499900000000000    0.0000000000000000 Zn
   0.2500000000000000    0.0000000000000000    0.4999900000000000 Zn
   0.2500100000000000    0.4999900000000000    0.4999900000000000 Zn
   0.7500100000000000    0.0000000000000000    0.4999900000000000 Zn
   0.7500100000000000    0.4999900000000000    0.4999900000000000 Zn
   0.0000000000000000    0.0000000000000000    0.0000000000000000 Zn
   0.0000000000000000    0.5000000000000000    0.0000000000000000 Zn
   0.5000000000000000    0.0000000000000000    0.0000000000000000 Zn
   0.5000100000000000    0.5000000000000000    0.0000000000000000 Zn
   0.2500000000000000    0.2500000000000000    0.4999900000000000 Zn
   0.2500100000000000    0.7499900000000000    0.4999900000000000 Zn
   0.7500100000000000    0.2500000000000000    0.4999900000000000 Zn
   0.7500100000000000    0.7499900000000000    0.4999900000000000 Zn
   0.3787300000000000    0.4288200000000000    0.3715800000000000 H
   0.3787300000000000    0.9288100000000000    0.3715800000000000 H
   0.8787300000000000    0.4288200000000000    0.3715800000000000 H
   0.8787400000000000    0.9288100000000000    0.3715800000000000 H
   0.0251600000000000    0.2371300000000000    0.2699800000000000 H
   0.0251600000000000    0.7371300000000000    0.2699800000000000 H
   0.5251600000000000    0.2371300000000000    0.2699800000000000 H
   0.5251600000000000    0.7371300000000000    0.2699800000000000 H
   0.3046400000000000    0.2810800000000000    0.0444600000000000 H
   0.3046500000000000    0.7810800000000000    0.0444600000000000 H
   0.8046500000000000    0.2810800000000000    0.0444600000000000 H
   0.8046500000000000    0.7810800000000000    0.0444600000000000 H
   0.1044900000000000    0.4902300000000000    0.2316600000000000 H
   0.1045000000000000    0.9902300000000001    0.2316600000000000 H
   0.6044900000000000    0.4902300000000000    0.2316600000000000 H
   0.6045000000000000    0.9902300000000001    0.2316600000000000 H
   0.0815600000000000    0.3446600000000000    0.9200100000000000 H
   0.0815700000000000    0.8446600000000000    0.9200100000000000 H
   0.5815700000000000    0.3446600000000000    0.9200100000000000 H
   0.5815700000000000    0.8446600000000000    0.9200100000000000 H
   0.3542000000000000    0.5016500000000000    0.0126800000000000 H
   0.3542100000000000    0.0000000000000000    0.0126800000000000 H
   0.8542000000000000    0.5016500000000000    0.0126800000000000 H
   0.8542100000000000    0.0000000000000000    0.0126800000000000 H
   0.1288000000000000    0.3211800000000000    0.1284200000000000 H
   0.1288000000000000    0.8211800000000000    0.1284200000000000 H
   0.6288000000000000    0.3211800000000000    0.1284200000000000 H
   0.6288100000000000    0.8211800000000000    0.1284200000000000 H
   0.2750100000000000    0.0128900000000000    0.2300100000000000 H
   0.2750200000000000    0.5128900000000000    0.2300100000000000 H
   0.7750200000000000    0.0128900000000000    0.2300100000000000 H
   0.7750200000000000    0.5128900000000000    0.2300100000000000 H
   0.0546300000000000    0.4692500000000000    0.4552000000000000 H
   0.0546300000000000    0.9692400000000000    0.4552000000000000 H
   0.5546300000000000    0.4692500000000000    0.4552000000000000 H
   0.5546400000000000    0.9692400000000000    0.4552000000000000 H
   0.3545000000000000    0.2596900000000000    0.2682700000000000 H
   0.3545100000000000    0.7596900000000000    0.2682700000000000 H
   0.8545100000000000    0.2596900000000000    0.2682700000000000 H
   0.8545100000000000    0.7596900000000000    0.2682700000000000 H
   0.3316500000000000    0.4052500000000000    0.5798100000000000 H
   0.3316600000000000    0.9052400000000000    0.5798100000000000 H
   0.8316600000000000    0.4052500000000000    0.5798100000000000 H
   0.8316600000000000    0.9052400000000000    0.5798100000000000 H
   0.1042500000000000    0.2485500000000000    0.4875800000000000 H
   0.1042500000000000    0.7485500000000000    0.4875800000000000 H
   0.6042600000000000    0.7485500000000000    0.4875800000000000 H
   0.1212800000000000    0.0711700000000000    0.6283900000000000 H
   0.1212800000000000    0.5711700000000000    0.6283900000000000 H
   0.6212800000000001    0.0711700000000000    0.6283900000000000 H
   0.6212900000000000    0.5711700000000000    0.6283900000000000 H
   0.4748500000000000    0.2628600000000000    0.7299900000000000 H
   0.4748600000000000    0.7628500000000000    0.7299900000000000 H
   0.9748599999999999    0.2628600000000000    0.7299900000000000 H
   0.9748599999999999    0.7628500000000000    0.7299900000000000 H
   0.1953600000000000    0.2189100000000000    0.9555100000000000 H
   0.1953700000000000    0.7189100000000000    0.9555000000000000 H
   0.6953700000000000    0.2189100000000000    0.9555000000000000 H
   0.6953700000000000    0.7189100000000000    0.9555000000000000 H
   0.3955200000000000    0.0097600000000000    0.7683100000000000 H
   0.3955200000000000    0.5097600000000000    0.7683100000000000 H
   0.8955200000000000    0.0097600000000000    0.7683100000000000 H
   0.8955300000000000    0.5097600000000000    0.7683100000000000 H
   0.4184500000000000    0.1553300000000000    0.0799000000000000 H
   0.4184500000000000    0.6553300000000000    0.0799000000000000 H
   0.9184500000000000    0.1553300000000000    0.0799000000000000 H
   0.9184500000000000    0.6553300000000000    0.0799000000000000 H
   0.1458100000000000    0.9983400000000000    0.9872900000000000 H
   0.1458100000000000    0.4983400000000000    0.9872900000000000 H
   0.6458100000000000    0.9983400000000000    0.9872900000000000 H
   0.6458199999999999    0.4983400000000000    0.9872900000000000 H
   0.3712100000000000    0.1788100000000000    0.8715500000000000 H
   0.3712100000000000    0.6788100000000000    0.8715500000000000 H
   0.8712100000000000    0.1788100000000000    0.8715500000000000 H
   0.8712200000000000    0.6788100000000000    0.8715500000000000 H
   0.2250000000000000    0.4871000000000000    0.7699600000000000 H
   0.2250000000000000    0.9871000000000000    0.7699600000000000 H
   0.7250000000000000    0.4871000000000000    0.7699600000000000 H
   0.7250000000000000    0.9871000000000000    0.7699600000000000 H
   0.4453800000000000    0.0307500000000000    0.5447700000000000 H
   0.4453900000000000    0.5307400000000000    0.5447700000000000 H
   0.9453900000000000    0.0307500000000000    0.5447700000000000 H
   0.9453900000000000    0.5307400000000000    0.5447700000000000 H
   0.1455000000000000    0.2403000000000000    0.7317000000000000 H
   0.1455100000000000    0.7403000000000000    0.7317000000000000 H
   0.6455100000000000    0.2403000000000000    0.7317000000000000 H
   0.6455100000000000    0.7403000000000000    0.7317000000000000 H
   0.1683600000000000    0.0947500000000000    0.4201600000000000 H
   0.1683600000000000    0.5947400000000000    0.4201600000000000 H
   0.6683600000000000    0.0947500000000000    0.4201600000000000 H
   0.6683600000000000    0.5947400000000000    0.4201600000000000 H
   0.3957600000000000    0.2514400000000000    0.5123900000000000 H
   0.3957600000000000    0.7514400000000000    0.5123900000000000 H
   0.8957600000000000    0.2514400000000000    0.5123900000000000 H
   0.8957700000000000    0.7514400000000000    0.5123900000000000 H
   0.9882700000000000    0.7402900000000000    0.7922500000000000 C
   0.1414800000000000    0.2116100000000000    0.9487000000000000 C
   0.1414900000000000    0.7116000000000000    0.9487000000000000 C
   0.6414800000000001    0.2116000000000000    0.9487000000000000 C
   0.4193900000000000    0.4127000000000000    0.3283100000000000 C
   0.4193900000000000    0.9127000000000000    0.3283100000000000 C
   0.9193900000000000    0.4127000000000000    0.3283100000000000 C
   0.9194000000000000    0.9127000000000000    0.3283100000000000 C
   0.0117400000000000    0.2597000000000000    0.2077200000000000 C
   0.0117500000000000    0.7597000000000000    0.2077200000000000 C
   0.5117500000000000    0.2597000000000000    0.2077200000000000 C
   0.5117500000000000    0.7597000000000000    0.2077200000000000 C
   0.3585300000000000    0.2883900000000000    0.0512700000000000 C
   0.3585300000000000    0.7883800000000000    0.0512700000000000 C
   0.8585300000000000    0.2883900000000000    0.0512700000000000 C
   0.8585400000000000    0.7883800000000000    0.0512700000000000 C
   0.0682300000000000    0.4757300000000000    0.1801000000000000 C
   0.0682400000000000    0.9757200000000000    0.1801000000000000 C
   0.5682400000000000    0.4757300000000000    0.1801000000000000 C
   0.5682400000000000    0.9757200000000000    0.1801000000000000 C
   0.0509200000000000    0.3716000000000000    0.9657500000000000 C
   0.0509300000000000    0.8716000000000000    0.9657500000000000 C
   0.5509300000000000    0.3716000000000000    0.9657500000000000 C
   0.5509300000000000    0.8716000000000000    0.9657500000000000 C
   0.3631500000000000    0.4651000000000000    0.0575800000000000 C
   0.3631500000000000    0.9651000000000000    0.0575800000000000 C
   0.8631500000000000    0.4651000000000000    0.0575800000000000 C
   0.8631600000000000    0.9651000000000000    0.0575800000000000 C
   0.1694400000000000    0.3373300000000000    0.1716000000000000 C
   0.1694400000000000    0.8373300000000000    0.1716000000000000 C
   0.6694400000000000    0.3373300000000000    0.1716000000000000 C
   0.6694500000000000    0.8373300000000000    0.1716000000000000 C
   0.2616700000000000    0.4903100000000000    0.2922700000000000 C
   0.2616800000000000    0.9903100000000000    0.2922700000000000 C
   0.7616800000000000    0.4903100000000000    0.2922700000000000 C
   0.7616800000000000    0.9903100000000000    0.2922700000000000 C
   0.1085000000000000    0.4617600000000000    0.4485500000000000 C
   0.1085100000000000    0.9617599999999999    0.4485500000000000 C
   0.6085100000000000    0.4617600000000000    0.4485500000000000 C
   0.6085100000000000    0.9617599999999999    0.4485500000000000 C
   0.3182400000000000    0.2742400000000000    0.3197900000000000 C
   0.3182500000000000    0.7742300000000000    0.3197900000000000 C
   0.8182400000000000    0.2742400000000000    0.3197900000000000 C
   0.8182500000000000    0.7742300000000000    0.3197900000000000 C
   0.3009500000000000    0.3783300000000000    0.5341600000000000 C
   0.3009600000000000    0.8783300000000001    0.5341600000000000 C
   0.8009600000000000    0.3783300000000000    0.5341600000000000 C
   0.8009600000000000    0.8783300000000001    0.5341600000000000 C
   0.1131800000000000    0.2849900000000000    0.4425000000000000 C
   0.1131800000000000    0.7849900000000000    0.4425000000000000 C
   0.6131900000000000    0.7849900000000000    0.4425000000000000 C
   0.0806200000000000    0.0872900000000000    0.6716000000000000 C
   0.0806200000000000    0.5872900000000000    0.6716000000000000 C
   0.5806200000000000    0.0872900000000000    0.6716000000000000 C
   0.5806200000000000    0.5872900000000000    0.6716000000000000 C
   0.4882700000000000    0.2402900000000000    0.7922500000000000 C
   0.4882700000000000    0.7402900000000000    0.7922500000000000 C
   0.9882700000000000    0.2402900000000000    0.7922500000000000 C
   0.6414900000000000    0.7116000000000000    0.9487000000000000 C
   0.4317800000000000    0.0242700000000000    0.8198299999999999 C
   0.4317800000000000    0.5242599999999999    0.8198299999999999 C
   0.9317800000000001    0.0242700000000000    0.8198299999999999 C
   0.9317800000000001    0.5242599999999999    0.8198299999999999 C
   0.4490900000000000    0.1283900000000000    0.0342000000000000 C
   0.4490900000000000    0.6283800000000000    0.0342000000000000 C
   0.9490900000000000    0.1283900000000000    0.0342000000000000 C
   0.9490900000000000    0.6283800000000000    0.0342000000000000 C
   0.1368600000000000    0.0348900000000000    0.9423899999999999 C
   0.1368700000000000    0.5348900000000000    0.9423899999999999 C
   0.6368700000000000    0.0348900000000000    0.9423899999999999 C
   0.6368700000000000    0.5348900000000000    0.9423899999999999 C
   0.3305700000000000    0.1626600000000000    0.8283100000000000 C
   0.3305700000000000    0.6626600000000000    0.8283100000000000 C
   0.8305700000000000    0.1626600000000000    0.8283100000000000 C
   0.8305800000000000    0.6626600000000000    0.8283100000000000 C
   0.2383300000000000    0.0096800000000000    0.7077000000000000 C
   0.2383400000000000    0.5096800000000000    0.7077000000000000 C
   0.7383400000000000    0.0096800000000000    0.7077000000000000 C
   0.7383400000000000    0.5096800000000000    0.7077000000000000 C
   0.3915000000000000    0.0382300000000000    0.5514200000000000 C
   0.3915100000000000    0.5382300000000000    0.5514200000000000 C
   0.8915100000000000    0.0382300000000000    0.5514200000000000 C
   0.8915100000000000    0.5382200000000000    0.5514200000000000 C
   0.1817700000000000    0.2257600000000000    0.6801800000000000 C
   0.1817700000000000    0.7257500000000000    0.6801800000000000 C
   0.6817700000000000    0.2257600000000000    0.6801800000000000 C
   0.6817800000000001    0.7257500000000000    0.6801800000000000 C
   0.1990500000000000    0.1216600000000000    0.4658000000000000 C
   0.1990600000000000    0.6216500000000000    0.4658000000000000 C
   0.6990600000000000    0.1216600000000000    0.4658000000000000 C
   0.6990600000000000    0.6216500000000000    0.4658100000000000 C
   0.3868300000000000    0.2150000000000000    0.5574700000000000 C
   0.3868300000000000    0.7149900000000000    0.5574700000000000 C
   0.8868300000000000    0.2150000000000000    0.5574700000000000 C
   0.8868400000000000    0.7149900000000000    0.5574700000000000 C
   0.3756200000000000    0.3258100000000000    0.1120000000000000 O
   0.3756300000000000    0.8258100000000000    0.1120000000000000 O
   0.8756300000000000    0.3258100000000000    0.1120000000000000 O
   0.8756300000000000    0.8258100000000000    0.1120000000000000 O
   0.3964700000000000    0.2599300000000000    0.0004400000000000 O
   0.2497800000000000    0.9798700000000000    0.6383000000000000 O
   0.7497800000000000    0.4798700000000000    0.6383000000000000 O
   0.7497900000000000    0.9798700000000000    0.6383000000000000 O
   0.3744200000000000    0.0757400000000000    0.6124600000000000 O
   0.3744200000000000    0.5757400000000000    0.6124600000000000 O
   0.8744200000000000    0.0757400000000000    0.6124600000000000 O
   0.8744300000000000    0.5757400000000000    0.6124600000000000 O
   0.3535700000000000    0.0098800000000000    0.5005200000000000 O
   0.4049400000000000    0.4013200000000000    0.2458500000000000 O
   0.4049400000000000    0.9013200000000000    0.2458500000000000 O
   0.9049400000000000    0.4013200000000000    0.2458500000000000 O
   0.9049500000000000    0.9013200000000000    0.2458500000000000 O
   0.4754200000000000    0.4076500000000000    0.3643700000000000 O
   0.4754200000000000    0.9076500000000000    0.3643700000000000 O
   0.9754200000000000    0.4076500000000000    0.3643700000000000 O
   0.9754200000000000    0.9076500000000000    0.3643700000000000 O
   0.0092200000000000    0.3153000000000000    0.2144100000000000 O
   0.0092300000000000    0.8152900000000000    0.2144100000000000 O
   0.5092200000000000    0.3153000000000000    0.2144100000000000 O
   0.5092300000000000    0.8152900000000000    0.2144100000000000 O
   0.0002400000000000    0.2298900000000000    0.1380000000000000 O
   0.0002400000000000    0.7298800000000000    0.1380000000000000 O
   0.5002400000000000    0.2298900000000000    0.1380000000000000 O
   0.5002500000000000    0.7298800000000000    0.1380000000000000 O
   0.3964700000000000    0.7599300000000000    0.0004400000000000 O
   0.8964700000000000    0.2599300000000000    0.0004400000000000 O
   0.8964800000000001    0.7599300000000000    0.0004400000000000 O
   0.0440700000000000    0.4249100000000000    0.1911700000000000 O
   0.0440700000000000    0.9249100000000000    0.1911700000000000 O
   0.5440700000000001    0.4249100000000000    0.1911700000000000 O
   0.5440700000000001    0.9249100000000000    0.1911700000000000 O
   0.0554400000000000    0.0097900000000000    0.1181100000000000 O
   0.0554400000000000    0.5097900000000000    0.1181100000000000 O
   0.5554400000000000    0.0097900000000000    0.1181100000000000 O
   0.5554500000000000    0.5097900000000000    0.1181100000000000 O
   0.0139800000000000    0.3429500000000000    0.0202800000000000 O
   0.0139900000000000    0.8429400000000000    0.0202800000000000 O
   0.5139899999999999    0.3429500000000000    0.0202800000000000 O
   0.5139899999999999    0.8429400000000000    0.0202800000000000 O
   0.0554000000000000    0.4253300000000000    0.9611000000000000 O
   0.0554100000000000    0.9253300000000000    0.9611000000000000 O
   0.5554100000000000    0.4253300000000000    0.9611000000000000 O
   0.5554100000000000    0.9253300000000000    0.9611000000000000 O
   0.4238500000000000    0.4481700000000000    0.0629500000000000 O
   0.4238500000000000    0.9481700000000000    0.0629500000000000 O
   0.9238499999999999    0.4481700000000000    0.0629500000000000 O
   0.9238600000000000    0.9481700000000000    0.0629500000000000 O
   0.3141400000000000    0.4446300000000000    0.0978200000000000 O
   0.3141500000000000    0.9446300000000000    0.0978200000000000 O
   0.8141500000000000    0.4446300000000000    0.0978200000000000 O
   0.8141500000000000    0.9446300000000000    0.0978200000000000 O
   0.1549700000000000    0.3487900000000000    0.2540900000000000 O
   0.1549800000000000    0.8487900000000000    0.2540900000000000 O
   0.6549800000000000    0.3487900000000000    0.2540900000000000 O
   0.6549800000000000    0.8487900000000000    0.2540900000000000 O
   0.2254500000000000    0.3423700000000000    0.1355900000000000 O
   0.2254600000000000    0.8423600000000000    0.1355900000000000 O
   0.7254600000000000    0.3423700000000000    0.1355900000000000 O
   0.7254600000000000    0.8423600000000000    0.1355900000000000 O
   0.2591400000000000    0.4347200000000000    0.2855400000000000 O
   0.2591400000000000    0.9347200000000000    0.2855400000000000 O
   0.7591400000000000    0.4347200000000000    0.2855400000000000 O
   0.7591500000000000    0.9347200000000000    0.2855400000000000 O
   0.2502300000000000    0.0201200000000000    0.3616500000000000 O
   0.2502300000000000    0.5201200000000000    0.3616500000000000 O
   0.7502300000000000    0.0201200000000000    0.3616500000000000 O
   0.7502400000000000    0.5201200000000000    0.3616500000000000 O
   0.1255900000000000    0.4242500000000000    0.3875100000000000 O
   0.1256000000000000    0.9242500000000000    0.3875100000000000 O
   0.6256000000000000    0.4242500000000000    0.3875100000000000 O
   0.6256000000000000    0.9242500000000000    0.3875100000000000 O
   0.1464400000000000    0.4901200000000000    0.4994000000000000 O
   0.1464400000000000    0.9901100000000000    0.4994000000000000 O
   0.6464400000000000    0.4901200000000000    0.4994000000000000 O
   0.6464500000000000    0.9901100000000000    0.4994000000000000 O
   0.2941000000000000    0.3251000000000000    0.3087900000000000 O
   0.2941100000000000    0.8250900000000000    0.3087900000000000 O
   0.7941100000000000    0.3251000000000000    0.3087900000000000 O
   0.7941100000000000    0.8250900000000000    0.3087900000000000 O
   0.3054400000000000    0.2401900000000000    0.3818100000000000 O
   0.3054500000000000    0.7401799999999999    0.3818100000000000 O
   0.8054400000000000    0.2401900000000000    0.3818100000000000 O
   0.8054500000000000    0.7401799999999999    0.3818100000000000 O
   0.2640000000000000    0.4070400000000000    0.4796500000000000 O
   0.2640100000000000    0.9070400000000000    0.4796500000000000 O
   0.7640100000000000    0.4070400000000000    0.4796500000000000 O
   0.7640100000000000    0.9070400000000000    0.4796500000000000 O
   0.3054000000000000    0.3246000000000000    0.5387999999999999 O
   0.3054100000000000    0.8246000000000000    0.5387999999999999 O
   0.8054000000000000    0.3246000000000000    0.5387999999999999 O
   0.8054100000000000    0.8246000000000000    0.5387999999999999 O
   0.1738600000000000    0.3018800000000000    0.4370700000000000 O
   0.1738700000000000    0.8018800000000000    0.4370700000000000 O
   0.6738700000000000    0.8018800000000000    0.4370700000000000 O
   0.0641600000000000    0.3054300000000000    0.4021700000000000 O
   0.0641700000000000    0.8054200000000000    0.4021700000000000 O
   0.5641699999999999    0.8054200000000000    0.4021700000000000 O
   0.0950700000000000    0.0986700000000000    0.7541200000000000 O
   0.0950700000000000    0.5986700000000000    0.7541200000000000 O
   0.5950700000000000    0.0986700000000000    0.7541200000000000 O
   0.5950800000000001    0.5986700000000000    0.7541200000000000 O
   0.0245900000000000    0.0923400000000000    0.6356000000000001 O
   0.0245900000000000    0.5923400000000000    0.6356000000000001 O
   0.5246000000000000    0.0923400000000000    0.6356000000000001 O
   0.5246000000000000    0.5923400000000000    0.6356000000000001 O
   0.4907900000000000    0.1846900000000000    0.7855600000000000 O
   0.4907900000000000    0.6846900000000000    0.7855600000000000 O
   0.9907899999999999    0.1846900000000000    0.7855600000000000 O
   0.9907899999999999    0.6846900000000000    0.7855600000000000 O
   0.4997700000000000    0.2701000000000000    0.8615800000000000 O
   0.4997800000000000    0.7701000000000000    0.8615800000000000 O
   0.9997700000000000    0.2701000000000000    0.8615800000000000 O
   0.9997800000000000    0.7701000000000000    0.8615800000000000 O
   0.1243900000000000    0.1741800000000000    0.8875800000000000 O
   0.1243900000000000    0.6741800000000000    0.8875800000000000 O
   0.6243900000000000    0.1741800000000000    0.8875800000000000 O
   0.6243900000000000    0.6741800000000000    0.8875800000000000 O
   0.1035400000000000    0.2400600000000000    0.9995300000000000 O
   0.1035500000000000    0.7400600000000001    0.9995300000000000 O
   0.6035400000000000    0.2400600000000000    0.9995300000000000 O
   0.6035500000000000    0.7400600000000001    0.9995300000000000 O
   0.4559400000000000    0.0750800000000000    0.8088000000000000 O
   0.4559500000000000    0.5750700000000000    0.8088000000000000 O
   0.9559500000000000    0.0750800000000000    0.8088000000000000 O
   0.9559500000000000    0.5750700000000000    0.8088000000000000 O
   0.4445700000000000    0.4902000000000000    0.8818600000000000 O
   0.4445700000000000    0.9902000000000000    0.8818600000000000 O
   0.9445700000000000    0.4902000000000000    0.8818600000000000 O
   0.9445800000000000    0.9902000000000000    0.8818600000000000 O
   0.4860300000000000    0.1570500000000000    0.9796899999999999 O
   0.4860300000000000    0.6570400000000000    0.9796899999999999 O
   0.9860300000000000    0.1570500000000000    0.9796899999999999 O
   0.9860300000000000    0.6570400000000000    0.9796899999999999 O
   0.4446000000000000    0.0746600000000000    0.0388700000000000 O
   0.4446100000000000    0.5746599999999999    0.0388700000000000 O
   0.9446099999999999    0.0746600000000000    0.0388700000000000 O
   0.9446099999999999    0.5746599999999999    0.0388700000000000 O
   0.0761600000000000    0.0518200000000000    0.9370200000000000 O
   0.0761700000000000    0.5518200000000000    0.9370200000000000 O
   0.5761600000000000    0.0518200000000000    0.9370200000000000 O
   0.5761700000000000    0.5518200000000000    0.9370200000000000 O
   0.1858700000000000    0.0553600000000000    0.9021600000000000 O
   0.1858700000000000    0.5553600000000000    0.9021600000000000 O
   0.6858700000000000    0.0553600000000000    0.9021600000000000 O
   0.6858700000000000    0.5553600000000000    0.9021600000000000 O
   0.3450400000000000    0.1512000000000000    0.7458800000000000 O
   0.3450400000000000    0.6512000000000000    0.7458800000000000 O
   0.8450400000000000    0.1512000000000000    0.7458800000000000 O
   0.8450400000000000    0.6512000000000000    0.7458800000000000 O
   0.2745500000000000    0.1576300000000000    0.8643800000000000 O
   0.2745600000000000    0.6576200000000000    0.8643800000000000 O
   0.7745600000000000    0.1576300000000000    0.8643800000000000 O
   0.7745600000000000    0.6576200000000000    0.8643800000000000 O
   0.2408700000000000    0.0652700000000000    0.7144300000000000 O
   0.2408700000000000    0.5652700000000001    0.7144300000000000 O
   0.7408700000000000    0.0652700000000000    0.7144300000000000 O
   0.7408800000000000    0.5652700000000001    0.7144300000000000 O
   0.2497800000000000    0.4798700000000000    0.6383000000000000 O
   0.3535800000000000    0.5098700000000000    0.5005200000000000 O
   0.8535700000000001    0.0098800000000000    0.5005200000000000 O
   0.8535800000000000    0.5098700000000000    0.5005200000000000 O
   0.2059100000000000    0.1749000000000000    0.6911800000000000 O
   0.2059100000000000    0.6748900000000000    0.6911800000000000 O
   0.7059100000000000    0.1749000000000000    0.6911800000000000 O
   0.7059100000000000    0.6748900000000000    0.6911800000000000 O
   0.1945700000000000    0.2598000000000000    0.6181600000000000 O
   0.1945700000000000    0.7598000000000000    0.6181600000000000 O
   0.6945700000000000    0.2598000000000000    0.6181600000000000 O
   0.6945800000000000    0.7598000000000000    0.6181600000000000 O
   0.2360100000000000    0.0929500000000000    0.5203200000000000 O
   0.2360100000000000    0.5929500000000000    0.5203200000000000 O
   0.7360100000000001    0.0929500000000000    0.5203200000000000 O
   0.7360100000000001    0.5929500000000000    0.5203200000000000 O
   0.1946100000000000    0.1753900000000000    0.4611200000000000 O
   0.1946100000000000    0.6753800000000000    0.4611200000000000 O
   0.6946099999999999    0.1753900000000000    0.4611200000000000 O
   0.6946200000000000    0.6753800000000000    0.4611200000000000 O
   0.3261500000000000    0.1981100000000000    0.5629000000000000 O
   0.3261500000000000    0.6981100000000000    0.5629000000000000 O
   0.8261500000000001    0.1981100000000000    0.5629000000000000 O
   0.8261500000000001    0.6981100000000000    0.5629000000000000 O
   0.4358500000000000    0.1945600000000000    0.5978000000000000 O
   0.4358500000000000    0.6945600000000000    0.5978000000000000 O
   0.9358500000000000    0.1945600000000000    0.5978000000000000 O
   0.9358600000000000    0.6945600000000000    0.5978000000000000 O
