Zn24 H345 C253 Br24 N46 O46
1.0
  21.0279999871890091    0.0000000000000000    0.0007340156700690
   0.0018991664183225   15.7171355876139636   -9.0571102076614700
   0.0000000000000000    0.0000000000000000   36.2719999999999985
Zn H C Br N O
24 345 253 24 46 46
direct
   0.7778600000000000    0.5505200000000000    0.0375000000000000 Zn
   0.1112000000000000    0.5253100000000001    0.2248000000000000 Zn
   0.6111900000000000    0.5252599999999999    0.2247550000000000 Zn
   0.4445300000000000    0.9243600000000000    0.2375300000000000 Zn
   0.9445200000000000    0.9243300000000000    0.2375550000000000 Zn
   0.0278500000000000    0.4492300000000000    0.4621550000000000 Zn
   0.5278500000000000    0.4493800000000000    0.4621300000000000 Zn
   0.3611900000000000    0.4747100000000000    0.2752200000000000 Zn
   0.8611900000000000    0.4745900000000000    0.2751700000000000 Zn
   0.1945100000000000    0.0755800000000000    0.2624750000000000 Zn
   0.6945200000000000    0.0755300000000000    0.2623800000000000 Zn
   0.2778500000000000    0.5506000000000000    0.0378500000000000 Zn
   0.7778600000000000    0.5505200000000000    0.5375000000000000 Zn
   0.1112000000000000    0.5253100000000001    0.7248000000000000 Zn
   0.6111900000000000    0.5252599999999999    0.7247550000000000 Zn
   0.4445300000000000    0.9243600000000000    0.7375300000000000 Zn
   0.9445200000000000    0.9243300000000000    0.7375550000000000 Zn
   0.0278500000000000    0.4492300000000000    0.9621550000000000 Zn
   0.5278500000000000    0.4493800000000000    0.9621299999999999 Zn
   0.3611900000000000    0.4747100000000000    0.7752200000000000 Zn
   0.8611900000000000    0.4745900000000000    0.7751700000000000 Zn
   0.1945100000000000    0.0755800000000000    0.7624750000000000 Zn
   0.6945200000000000    0.0755300000000000    0.7623800000000001 Zn
   0.2778500000000000    0.5506000000000000    0.5378500000000001 Zn
   0.3460500000000000    0.3750200000000000    0.3977450000000000 H
   0.8460500000000000    0.3749000000000000    0.3977200000000000 H
   0.2819000000000000    0.3743700000000000    0.3657400000000000 H
   0.7819100000000000    0.3743000000000000    0.3657250000000000 H
   0.3062600000000000    0.2782000000000000    0.3629750000000000 H
   0.8062200000000000    0.2781100000000000    0.3629600000000000 H
   0.2077100000000000    0.3263300000000000    0.4030500000000000 H
   0.7076900000000000    0.3263200000000000    0.4030650000000000 H
   0.2841200000000000    0.2522200000000000    0.4248500000000000 H
   0.7840700000000000    0.2521500000000000    0.4248300000000000 H
   0.2381600000000000    0.3259000000000000    0.4689400000000000 H
   0.7381000000000000    0.3258200000000000    0.4689150000000000 H
   0.3175700000000000    0.3509200000000000    0.4641750000000000 H
   0.8175200000000000    0.3508300000000000    0.4641700000000000 H
   0.2132200000000000    0.4741600000000000    0.4253100000000000 H
   0.7133000000000000    0.4741500000000000    0.4252950000000000 H
   0.3294300000000000    0.6270100000000000    0.4904000000000000 H
   0.8295900000000000    0.6268500000000000    0.4903800000000000 H
   0.2470400000000000    0.6234100000000000    0.4781150000000000 H
   0.7472000000000000    0.6234000000000000    0.4781300000000000 H
   0.4082400000000000    0.5364600000000000    0.4272200000000000 H
   0.9082800000000000    0.5361000000000000    0.4271200000000000 H
   0.2159800000000000    0.5940700000000000    0.4068600000000000 H
   0.7160900000000000    0.5942000000000000    0.4069000000000000 H
   0.2478100000000000    0.5497100000000000    0.3322750000000000 H
   0.7478500000000000    0.5498100000000000    0.3323000000000000 H
   0.4314900000000000    0.4952500000000000    0.3522100000000000 H
   0.9314600000000000    0.4948700000000000    0.3521050000000000 H
   0.3282800000000000    0.4791700000000000    0.4640950000000000 H
   0.8283199999999999    0.4790600000000000    0.4640950000000000 H
   0.1795500000000000    0.4203100000000000    0.3124450000000000 H
   0.6795900000000000    0.4202600000000000    0.3123750000000000 H
   0.1155400000000000    0.3567000000000000    0.3126900000000000 H
   0.6155800000000000    0.3566900000000000    0.3126600000000000 H
   0.1397100000000000    0.4472600000000000    0.3608250000000000 H
   0.6398000000000000    0.4472600000000000    0.3607750000000000 H
   0.0410900000000000    0.4790500000000000    0.3366950000000000 H
   0.5411500000000000    0.4790800000000000    0.3366850000000000 H
   0.1172200000000000    0.5968800000000000    0.3738650000000000 H
   0.6173100000000000    0.5968700000000000    0.3738100000000000 H
   0.0712300000000000    0.6113700000000000    0.3370000000000000 H
   0.5713100000000000    0.6113499999999999    0.3369450000000000 H
   0.1507200000000000    0.5771800000000000    0.3245500000000000 H
   0.6507900000000000    0.5771100000000000    0.3244750000000000 H
   0.0468000000000000    0.3760300000000000    0.2627650000000000 H
   0.5467900000000000    0.3760200000000000    0.2627550000000000 H
   0.1630700000000000    0.3540300000000000    0.1864000000000000 H
   0.6629400000000000    0.3539600000000000    0.1863550000000000 H
   0.0806700000000000    0.3329600000000000    0.1881100000000000 H
   0.5805500000000000    0.3329400000000000    0.1880850000000000 H
   0.2416900000000000    0.3179500000000000    0.2317500000000000 H
   0.7416700000000001    0.3177800000000000    0.2315650000000000 H
   0.0494800000000000    0.2196200000000000    0.2026700000000000 H
   0.5493900000000000    0.2196500000000000    0.2026950000000000 H
   0.0811900000000000    0.1147100000000000    0.2248000000000000 H
   0.5811400000000000    0.1147300000000000    0.2248450000000000 H
   0.2648100000000000    0.2090500000000000    0.2523300000000000 H
   0.7648400000000000    0.2088600000000000    0.2521200000000000 H
   0.1617400000000000    0.4489000000000000    0.2603650000000000 H
   0.6617200000000000    0.4487900000000000    0.2602900000000000 H
   0.0127400000000000    0.2042500000000000    0.2895750000000000 H
   0.5127100000000000    0.2043600000000000    0.2895250000000000 H
   0.4486000000000000    0.2684100000000000    0.3212000000000000 H
   0.9486300000000000    0.2683400000000000    0.3212250000000000 H
   0.4728800000000000    0.2738900000000000    0.2758000000000000 H
   0.9730000000000000    0.2738000000000000    0.2758700000000000 H
   0.3743300000000000    0.1937800000000000    0.2599450000000000 H
   0.8744100000000000    0.1937400000000000    0.2599300000000000 H
   0.4506500000000000    0.1501300000000000    0.2010800000000000 H
   0.9508000000000000    0.1500200000000000    0.2010950000000000 H
   0.4046800000000000    0.0620200000000000    0.1939550000000000 H
   0.9047900000000000    0.0619400000000000    0.1939600000000000 H
   0.4841200000000000    0.0714900000000000    0.2111650000000000 H
   0.9842100000000000    0.0713900000000000    0.2112150000000000 H
   0.3799100000000000    0.1493700000000000    0.3116900000000000 H
   0.8798600000000000    0.1493500000000000    0.3116900000000000 H
   0.4962400000000000    0.0192500000000000    0.3231050000000000 H
   0.9960599999999999    0.0191200000000000    0.3231450000000000 H
   0.4138400000000000    0.0437700000000000    0.3336100000000000 H
   0.9136700000000000    0.0437500000000000    0.3336250000000000 H
   0.0748700000000000    0.1455500000000000    0.3410000000000000 H
   0.5749100000000000    0.1458100000000000    0.3408950000000000 H
   0.3827600000000000    0.1860800000000000    0.3901900000000000 H
   0.8826300000000000    0.1861300000000000    0.3901500000000000 H
   0.4145300000000000    0.3351600000000000    0.4426100000000000 H
   0.9144800000000000    0.3351600000000000    0.4425850000000000 H
   0.0981400000000000    0.2954100000000000    0.3954250000000000 H
   0.5981100000000000    0.2957000000000000    0.3953150000000000 H
   0.4949700000000000    0.0718100000000000    0.2754350000000000 H
   0.9949400000000000    0.0717800000000000    0.2755000000000000 H
   0.0961200000000000    0.6247600000000000    0.1022100000000000 H
   0.5960100000000000    0.6249900000000000    0.1022750000000000 H
   0.0320100000000000    0.6254200000000000    0.1342500000000000 H
   0.5318400000000000    0.6256000000000000    0.1342600000000000 H
   0.0563500000000000    0.7215900000000000    0.1370050000000000 H
   0.5561700000000001    0.7217900000000000    0.1370000000000000 H
   0.4576700000000000    0.6736400000000000    0.0969100000000000 H
   0.9577700000000000    0.6735000000000000    0.0969600000000000 H
   0.0341400000000000    0.7476000000000000    0.0751550000000000 H
   0.5340900000000000    0.7477700000000000    0.0751600000000000 H
   0.4881500000000000    0.6741100000000000    0.0310600000000000 H
   0.9881400000000000    0.6739700000000000    0.0310900000000000 H
   0.0675500000000000    0.6488900000000000    0.0358000000000000 H
   0.5675700000000000    0.6490800000000000    0.0358300000000000 H
   0.4632300000000000    0.5258100000000000    0.0746750000000000 H
   0.9633000000000000    0.5256600000000000    0.0747000000000000 H
   0.0795500000000000    0.3728600000000000    0.0095800000000000 H
   0.5794899999999999    0.3730100000000000    0.0095700000000000 H
   0.9971700000000000    0.3763700000000000    0.0218700000000000 H
   0.4971000000000000    0.3765600000000000    0.0218600000000000 H
   0.1583200000000000    0.4634400000000000    0.0727850000000000 H
   0.6582300000000000    0.4636800000000000    0.0727950000000000 H
   0.4660300000000000    0.4057700000000000    0.0930950000000000 H
   0.9660800000000000    0.4057600000000000    0.0931300000000000 H
   0.9978700000000000    0.4502300000000000    0.1677350000000000 H
   0.4978400000000000    0.4501400000000000    0.1676850000000000 H
   0.1815200000000000    0.5047600000000000    0.1478050000000000 H
   0.6814500000000000    0.5049000000000000    0.1478000000000000 H
   0.0783200000000000    0.5206600000000000    0.0358800000000000 H
   0.5782900000000000    0.5208300000000000    0.0358800000000000 H
   0.4296100000000000    0.5797099999999999    0.1875900000000000 H
   0.9295500000000000    0.5796300000000000    0.1875200000000000 H
   0.3656100000000000    0.6433400000000000    0.1873400000000000 H
   0.8655200000000000    0.6432300000000000    0.1872750000000000 H
   0.3898100000000000    0.5527800000000000    0.1392050000000000 H
   0.8897200000000000    0.5526700000000000    0.1391400000000000 H
   0.2911600000000000    0.5210000000000000    0.1633100000000000 H
   0.7911100000000000    0.5208400000000000    0.1632600000000000 H
   0.3673000000000000    0.4031700000000000    0.1261400000000000 H
   0.8672900000000000    0.4030600000000000    0.1261000000000000 H
   0.3213000000000000    0.3886600000000000    0.1629500000000000 H
   0.8213200000000001    0.3885400000000000    0.1629650000000000 H
   0.4007800000000000    0.4228500000000000    0.1754500000000000 H
   0.9007900000000000    0.4227800000000000    0.1754200000000000 H
   0.2968100000000000    0.6239800000000000    0.2372400000000000 H
   0.7967800000000000    0.6238800000000000    0.2371950000000000 H
   0.4130300000000000    0.6459600000000000    0.3135850000000000 H
   0.9129699999999999    0.6458700000000001    0.3135500000000000 H
   0.3306400000000000    0.6670500000000000    0.3118950000000000 H
   0.8305800000000000    0.6669300000000000    0.3118500000000000 H
   0.4917300000000000    0.6821000000000000    0.2683450000000000 H
   0.9916400000000000    0.6819400000000000    0.2682600000000000 H
   0.2994600000000000    0.7803400000000000    0.2972900000000000 H
   0.7994300000000000    0.7803300000000000    0.2973200000000000 H
   0.3312000000000000    0.8852200000000000    0.2751150000000000 H
   0.8311700000000000    0.8852500000000000    0.2751700000000000 H
   0.0148000000000000    0.7908600000000000    0.2477000000000000 H
   0.5148800000000000    0.7909900000000000    0.2477700000000000 H
   0.4117500000000000    0.5511100000000000    0.2396600000000000 H
   0.9117200000000000    0.5510400000000000    0.2396200000000000 H
   0.2627300000000000    0.7955600000000000    0.2104400000000000 H
   0.7628500000000000    0.7957000000000000    0.2104200000000000 H
   0.1986100000000000    0.7315400000000000    0.1787700000000000 H
   0.6988000000000000    0.7315600000000000    0.1787300000000000 H
   0.2229100000000000    0.7260100000000000    0.2241200000000000 H
   0.7231000000000000    0.7261200000000000    0.2241000000000000 H
   0.1243600000000000    0.8061500000000000    0.2400600000000000 H
   0.6244700000000000    0.8060900000000000    0.2399750000000000 H
   0.2007200000000000    0.8497500000000000    0.2988900000000000 H
   0.7007600000000000    0.8498500000000000    0.2988550000000000 H
   0.1547400000000000    0.9378800000000000    0.3060500000000000 H
   0.6547300000000000    0.9379100000000000    0.3059700000000000 H
   0.2341600000000000    0.9284000000000000    0.2888050000000000 H
   0.7341700000000000    0.9285099999999999    0.2887500000000000 H
   0.1298900000000000    0.8505700000000000    0.1883150000000000 H
   0.6299700000000000    0.8504900000000000    0.1882300000000000 H
   0.2461500000000000    0.9807200000000000    0.1768850000000000 H
   0.7461900000000000    0.9807100000000000    0.1768050000000000 H
   0.1637500000000000    0.9561900000000000    0.1664000000000000 H
   0.6637999999999999    0.9561600000000000    0.1663150000000000 H
   0.3248700000000000    0.8541800000000001    0.1590650000000000 H
   0.8249600000000000    0.8542200000000000    0.1589400000000000 H
   0.1326800000000000    0.8138700000000000    0.1098400000000000 H
   0.6327100000000000    0.8137799999999999    0.1098100000000000 H
   0.1644800000000000    0.6647999999999999    0.0574150000000000 H
   0.6645100000000000    0.6646900000000000    0.0574150000000000 H
   0.3480900000000000    0.7042900000000000    0.1046000000000000 H
   0.8481800000000000    0.7043100000000000    0.1045500000000000 H
   0.2449500000000000    0.9281100000000000    0.2245400000000000 H
   0.7449900000000000    0.9281199999999999    0.2244500000000000 H
   0.3460500000000000    0.3750200000000000    0.8977450000000000 H
   0.8460500000000000    0.3749000000000000    0.8977200000000001 H
   0.2819000000000000    0.3743700000000000    0.8657400000000000 H
   0.7819100000000000    0.3743000000000000    0.8657250000000001 H
   0.3062600000000000    0.2782000000000000    0.8629750000000000 H
   0.8062200000000000    0.2781100000000000    0.8629599999999999 H
   0.2077100000000000    0.3263300000000000    0.9030500000000000 H
   0.7076900000000000    0.3263200000000000    0.9030650000000000 H
   0.2841200000000000    0.2522200000000000    0.9248499999999999 H
   0.7840700000000000    0.2521500000000000    0.9248300000000000 H
   0.2381600000000000    0.3259000000000000    0.9689400000000000 H
   0.7381000000000000    0.3258200000000000    0.9689150000000000 H
   0.3175700000000000    0.3509200000000000    0.9641750000000000 H
   0.8175200000000000    0.3508300000000000    0.9641700000000000 H
   0.2132200000000000    0.4741600000000000    0.9253100000000001 H
   0.7133000000000000    0.4741500000000000    0.9252950000000000 H
   0.3294300000000000    0.6270100000000000    0.9903999999999999 H
   0.8295900000000000    0.6268500000000000    0.9903800000000000 H
   0.2470400000000000    0.6234100000000000    0.9781150000000001 H
   0.7472000000000000    0.6234000000000000    0.9781299999999999 H
   0.4082400000000000    0.5364600000000000    0.9272199999999999 H
   0.9082800000000000    0.5361000000000000    0.9271199999999999 H
   0.2159800000000000    0.5940700000000000    0.9068600000000000 H
   0.7160900000000000    0.5942000000000000    0.9069000000000000 H
   0.2478100000000000    0.5497100000000000    0.8322750000000000 H
   0.7478500000000000    0.5498100000000000    0.8323000000000000 H
   0.4314900000000000    0.4952500000000000    0.8522100000000000 H
   0.9314600000000000    0.4948700000000000    0.8521050000000000 H
   0.3282800000000000    0.4791700000000000    0.9640949999999999 H
   0.8283199999999999    0.4790600000000000    0.9640949999999999 H
   0.1795500000000000    0.4203100000000000    0.8124450000000000 H
   0.6795900000000000    0.4202600000000000    0.8123750000000001 H
   0.1155400000000000    0.3567000000000000    0.8126900000000000 H
   0.6155800000000000    0.3566900000000000    0.8126599999999999 H
   0.1397100000000000    0.4472600000000000    0.8608250000000000 H
   0.6398000000000000    0.4472600000000000    0.8607750000000001 H
   0.0410900000000000    0.4790500000000000    0.8366950000000000 H
   0.5411500000000000    0.4790800000000000    0.8366850000000000 H
   0.1172200000000000    0.5968800000000000    0.8738650000000000 H
   0.6173100000000000    0.5968700000000000    0.8738100000000000 H
   0.0712300000000000    0.6113700000000000    0.8370000000000000 H
   0.5713100000000000    0.6113499999999999    0.8369450000000001 H
   0.1507200000000000    0.5771800000000000    0.8245500000000000 H
   0.6507900000000000    0.5771100000000000    0.8244750000000001 H
   0.0468000000000000    0.3760300000000000    0.7627650000000000 H
   0.5467900000000000    0.3760200000000000    0.7627550000000001 H
   0.1630700000000000    0.3540300000000000    0.6864000000000000 H
   0.6629400000000000    0.3539600000000000    0.6863550000000000 H
   0.0806700000000000    0.3329600000000000    0.6881100000000000 H
   0.5805500000000000    0.3329400000000000    0.6880850000000001 H
   0.2416900000000000    0.3179500000000000    0.7317500000000000 H
   0.7416700000000001    0.3177800000000000    0.7315650000000000 H
   0.0494800000000000    0.2196200000000000    0.7026700000000000 H
   0.5493900000000000    0.2196500000000000    0.7026950000000000 H
   0.0811900000000000    0.1147100000000000    0.7248000000000000 H
   0.5811400000000000    0.1147300000000000    0.7248450000000000 H
   0.2648100000000000    0.2090500000000000    0.7523299999999999 H
   0.7648400000000000    0.2088600000000000    0.7521200000000000 H
   0.1617400000000000    0.4489000000000000    0.7603650000000000 H
   0.6617200000000000    0.4487900000000000    0.7602900000000000 H
   0.0127400000000000    0.2042500000000000    0.7895750000000000 H
   0.5127100000000000    0.2043600000000000    0.7895250000000000 H
   0.4486000000000000    0.2684100000000000    0.8211999999999999 H
   0.9486300000000000    0.2683400000000000    0.8212250000000000 H
   0.4728800000000000    0.2738900000000000    0.7758000000000000 H
   0.9730000000000000    0.2738000000000000    0.7758700000000001 H
   0.3743300000000000    0.1937800000000000    0.7599450000000000 H
   0.8744100000000000    0.1937400000000000    0.7599300000000000 H
   0.4506500000000000    0.1501300000000000    0.7010800000000000 H
   0.9508000000000000    0.1500200000000000    0.7010950000000000 H
   0.4046800000000000    0.0620200000000000    0.6939550000000000 H
   0.9047900000000000    0.0619400000000000    0.6939600000000000 H
   0.4841200000000000    0.0714900000000000    0.7111650000000000 H
   0.9842100000000000    0.0713900000000000    0.7112150000000000 H
   0.3799100000000000    0.1493700000000000    0.8116900000000000 H
   0.8798600000000000    0.1493500000000000    0.8116900000000000 H
   0.4962400000000000    0.0192500000000000    0.8231050000000000 H
   0.9960599999999999    0.0191200000000000    0.8231450000000000 H
   0.4138400000000000    0.0437700000000000    0.8336100000000000 H
   0.9136700000000000    0.0437500000000000    0.8336250000000001 H
   0.0748700000000000    0.1455500000000000    0.8410000000000000 H
   0.5749100000000000    0.1458100000000000    0.8408949999999999 H
   0.3827600000000000    0.1860800000000000    0.8901900000000000 H
   0.8826300000000000    0.1861300000000000    0.8901500000000000 H
   0.4145300000000000    0.3351600000000000    0.9426099999999999 H
   0.9144800000000000    0.3351600000000000    0.9425850000000000 H
   0.0981400000000000    0.2954100000000000    0.8954250000000000 H
   0.5981100000000000    0.2957000000000000    0.8953150000000001 H
   0.4949700000000000    0.0718100000000000    0.7754350000000000 H
   0.9949400000000000    0.0717800000000000    0.7755000000000001 H
   0.0961200000000000    0.6247600000000000    0.6022100000000000 H
   0.5960100000000000    0.6249900000000000    0.6022750000000000 H
   0.0320100000000000    0.6254200000000000    0.6342500000000000 H
   0.5318400000000000    0.6256000000000000    0.6342600000000000 H
   0.0563500000000000    0.7215900000000000    0.6370050000000000 H
   0.5561700000000001    0.7217900000000000    0.6370000000000000 H
   0.4576700000000000    0.6736400000000000    0.5969100000000001 H
   0.9577700000000000    0.6735000000000000    0.5969600000000000 H
   0.0341400000000000    0.7476000000000000    0.5751550000000000 H
   0.5340900000000000    0.7477700000000000    0.5751600000000000 H
   0.4881500000000000    0.6741100000000000    0.5310600000000000 H
   0.9881400000000000    0.6739700000000000    0.5310900000000000 H
   0.0675500000000000    0.6488900000000000    0.5358000000000001 H
   0.5675700000000000    0.6490800000000000    0.5358300000000000 H
   0.4632300000000000    0.5258100000000000    0.5746750000000000 H
   0.9633000000000000    0.5256600000000000    0.5747000000000000 H
   0.0795500000000000    0.3728600000000000    0.5095800000000000 H
   0.5794899999999999    0.3730100000000000    0.5095700000000000 H
   0.9971700000000000    0.3763700000000000    0.5218700000000001 H
   0.4971000000000000    0.3765600000000000    0.5218600000000000 H
   0.1583200000000000    0.4634400000000000    0.5727850000000000 H
   0.6582300000000000    0.4636800000000000    0.5727949999999999 H
   0.4660300000000000    0.4057700000000000    0.5930950000000000 H
   0.9660800000000000    0.4057600000000000    0.5931300000000000 H
   0.9978700000000000    0.4502300000000000    0.6677350000000000 H
   0.4978400000000000    0.4501400000000000    0.6676850000000000 H
   0.1815200000000000    0.5047600000000000    0.6478050000000000 H
   0.6814500000000000    0.5049000000000000    0.6477999999999999 H
   0.0783200000000000    0.5206600000000000    0.5358800000000000 H
   0.5782900000000000    0.5208300000000000    0.5358800000000000 H
   0.4296100000000000    0.5797099999999999    0.6875900000000000 H
   0.3656100000000000    0.6433400000000000    0.6873400000000001 H
   0.3898100000000000    0.5527800000000000    0.6392050000000000 H
   0.2911600000000000    0.5210000000000000    0.6633100000000001 H
   0.3673000000000000    0.4031700000000000    0.6261400000000000 H
   0.3213000000000000    0.3886600000000000    0.6629500000000000 H
   0.4007800000000000    0.4228500000000000    0.6754500000000000 H
   0.2968100000000000    0.6239800000000000    0.7372400000000000 H
   0.4130300000000000    0.6459600000000000    0.8135850000000000 H
   0.3306400000000000    0.6670500000000000    0.8118950000000000 H
   0.4917300000000000    0.6821000000000000    0.7683450000000001 H
   0.2994600000000000    0.7803400000000000    0.7972900000000001 H
   0.3312000000000000    0.8852200000000000    0.7751150000000000 H
   0.5148800000000000    0.7909900000000000    0.7477700000000000 H
   0.4117500000000000    0.5511100000000000    0.7396600000000000 H
   0.2627300000000000    0.7955600000000000    0.7104400000000000 H
   0.7628500000000000    0.7957000000000000    0.7104200000000001 H
   0.1986100000000000    0.7315400000000000    0.6787700000000000 H
   0.6988000000000000    0.7315600000000000    0.6787300000000001 H
   0.2229100000000000    0.7260100000000000    0.7241200000000000 H
   0.7231000000000000    0.7261200000000000    0.7241000000000000 H
   0.1243600000000000    0.8061500000000000    0.7400599999999999 H
   0.6244700000000000    0.8060900000000000    0.7399750000000000 H
   0.2007200000000000    0.8497500000000000    0.7988900000000000 H
   0.7007600000000000    0.8498500000000000    0.7988550000000000 H
   0.1547400000000000    0.9378800000000000    0.8060499999999999 H
   0.6547300000000000    0.9379100000000000    0.8059700000000001 H
   0.2341600000000000    0.9284000000000000    0.7888050000000000 H
   0.7341700000000000    0.9285099999999999    0.7887500000000001 H
   0.1298900000000000    0.8505700000000000    0.6883150000000000 H
   0.6299700000000000    0.8504900000000000    0.6882300000000000 H
   0.2461500000000000    0.9807200000000000    0.6768850000000000 H
   0.7461900000000000    0.9807100000000000    0.6768050000000000 H
   0.1637500000000000    0.9561900000000000    0.6664000000000000 H
   0.6637999999999999    0.9561600000000000    0.6663150000000000 H
   0.3248700000000000    0.8541800000000001    0.6590650000000000 H
   0.8249600000000000    0.8542200000000000    0.6589400000000000 H
   0.1326800000000000    0.8138700000000000    0.6098399999999999 H
   0.6327100000000000    0.8137799999999999    0.6098100000000000 H
   0.1644800000000000    0.6647999999999999    0.5574150000000000 H
   0.6645100000000000    0.6646900000000000    0.5574150000000000 H
   0.3480900000000000    0.7042900000000000    0.6046000000000000 H
   0.8481800000000000    0.7043100000000000    0.6045500000000000 H
   0.2449500000000000    0.9281100000000000    0.7245400000000000 H
   0.7449900000000000    0.9281199999999999    0.7244500000000000 H
   0.7319000000000000    0.4534900000000000    0.4471250000000000 C
   0.2920000000000000    0.5878900000000000    0.4679950000000000 C
   0.7921200000000000    0.5878000000000000    0.4679800000000000 C
   0.3091400000000000    0.5675400000000000    0.4234600000000000 C
   0.3416100000000000    0.0478300000000000    0.2556950000000000 C
   0.8416100000000000    0.0477900000000000    0.2556700000000000 C
   0.0494200000000000    0.6531700000000000    0.1152450000000000 C
   0.5492899999999999    0.6533700000000000    0.1152500000000000 C
   0.5016200000000000    0.6405200000000000    0.0806750000000000 C
   0.2993400000000000    0.3466200000000000    0.3847350000000000 C
   0.7993400000000001    0.3465400000000000    0.3847200000000000 C
   0.2516400000000000    0.3594800000000000    0.4193200000000000 C
   0.7516400000000000    0.3594300000000000    0.4193100000000000 C
   0.2743300000000000    0.3202600000000000    0.4458300000000000 C
   0.7742900000000000    0.3201800000000000    0.4458150000000000 C
   0.2318700000000000    0.4535100000000000    0.4471350000000000 C
   0.8092100000000000    0.5674200000000000    0.4234350000000000 C
   0.3705300000000000    0.5400900000000000    0.4075050000000000 C
   0.8705700000000000    0.5398300000000000    0.4074350000000000 C
   0.2643600000000000    0.5722400000000000    0.3961700000000000 C
   0.7644400000000000    0.5722500000000000    0.3961750000000000 C
   0.2814400000000000    0.5478400000000000    0.3545750000000000 C
   0.7814800000000000    0.5478400000000000    0.3545500000000000 C
   0.3842800000000000    0.5166300000000000    0.3656150000000000 C
   0.8842800000000000    0.5163700000000000    0.3655000000000000 C
   0.1749500000000000    0.4634900000000000    0.4760750000000000 C
   0.6749600000000000    0.4635200000000000    0.4760550000000000 C
   0.1328400000000000    0.4224600000000000    0.3266000000000000 C
   0.6328900000000000    0.4224400000000000    0.3265550000000000 C
   0.0850200000000000    0.4786400000000000    0.3201700000000000 C
   0.5850700000000000    0.4786300000000000    0.3201000000000000 C
   0.1075000000000000    0.5709100000000000    0.3398000000000000 C
   0.6075700000000001    0.5708900000000000    0.3397800000000000 C
   0.0653300000000000    0.4403600000000000    0.2731250000000000 C
   0.5653200000000000    0.4403300000000000    0.2731000000000000 C
   0.1255700000000000    0.3481800000000000    0.2059350000000000 C
   0.6254800000000000    0.3481300000000000    0.2058750000000000 C
   0.1426200000000000    0.2793600000000000    0.2160750000000000 C
   0.6425600000000000    0.2793000000000000    0.2159950000000000 C
   0.2039600000000000    0.2748700000000000    0.2298750000000000 C
   0.7039299999999999    0.2747400000000000    0.2297250000000000 C
   0.0978300000000000    0.2200400000000000    0.2136400000000000 C
   0.5977600000000000    0.2200300000000000    0.2136000000000000 C
   0.1148400000000000    0.1611900000000000    0.2258300000000000 C
   0.6147899999999999    0.1611700000000000    0.2257900000000000 C
   0.2176400000000000    0.2144900000000000    0.2415800000000000 C
   0.7176399999999999    0.2143500000000000    0.2414200000000000 C
   0.0083100000000000    0.4881200000000000    0.2681350000000000 C
   0.5083200000000000    0.4881400000000000    0.2681350000000000 C
   0.4660000000000000    0.2304000000000000    0.2883450000000000 C
   0.9660600000000000    0.2303200000000000    0.2883750000000000 C
   0.4182700000000000    0.1612700000000000    0.2602750000000000 C
   0.9183300000000000    0.1612100000000000    0.2602850000000000 C
   0.4408800000000000    0.1082000000000000    0.2141700000000000 C
   0.9409900000000000    0.1081100000000000    0.2141950000000000 C
   0.3985400000000000    0.1057100000000000    0.2795700000000000 C
   0.8985200000000000    0.1056800000000000    0.2795800000000000 C
   0.4587700000000000    0.0640500000000000    0.3259400000000000 C
   0.9586400000000000    0.0639700000000000    0.3259700000000000 C
   0.4758600000000000    0.1531000000000000    0.3602550000000000 C
   0.9757800000000000    0.1530000000000000    0.3602950000000000 C
   0.0371600000000000    0.1849200000000000    0.3625250000000000 C
   0.5372000000000000    0.1851300000000000    0.3624450000000000 C
   0.4311000000000000    0.2075500000000000    0.3899350000000000 C
   0.9310100000000000    0.2075200000000000    0.3899350000000000 C
   0.4481500000000000    0.2906800000000000    0.4193500000000000 C
   0.9481000000000001    0.2906300000000000    0.4193500000000000 C