P1 H7 C5 N1 O7
1.0
  35.6757975978590025    0.0000000000000000   -0.1201738598777350
  -0.0873257702704029   30.3103721693014201   -0.0111093782327113
   0.0000000000000000    0.0000000000000000   30.1020000000000003
P H C N O
1 7 5 1 7
direct
   0.4989850000000000    0.4549133333333333    0.8929450000000000 P
   0.4507575000000000    0.4100233333333333    0.9109050000000001 H
   0.5468700000000000    0.4505966666666666    0.8384499999999999 H
   0.5245649999999999    0.3981633333333333    0.8430750000000000 H
   0.5323875000000000    0.3568166666666667    0.9060100000000000 H
   0.5801025000000000    0.3492000000000000    0.9168250000000000 H
   0.6048750000000001    0.3754233333333333    0.8520300000000001 H
   0.6059325000000000    0.4335300000000000    0.8438749999999999 H
   0.5359225000000000    0.4262766666666666    0.8622200000000000 C
   0.5573950000000000    0.3735700000000000    0.9191700000000000 C
   0.5515050000000000    0.3821666666666667    0.9684850000000000 C
   0.6030025000000000    0.4074800000000000    0.8691300000000000 C
   0.6361900000000000    0.4139633333333333    0.9008400000000000 C
   0.5668900000000000    0.4133166666666667    0.8925000000000001 N
   0.4777775000000000    0.4202466666666667    0.9220349999999999 O
   0.4730050000000000    0.4762966666666666    0.8588400000000000 O
   0.5590100000000000    0.4194366666666666    0.9849700000000000 O
   0.5400900000000000    0.3491466666666667    0.9911099999999999 O
   0.6660699999999999    0.3938266666666667    0.8920950000000001 O
   0.6313975000000001    0.4407566666666666    0.9333199999999999 O
   0.5203150000000000    0.4873066666666667    0.9230550000000000 O
