H4 O4
1.0
  37.3226926874484093    0.0000000000000000    4.7599617181533249
   4.4914035600194291   37.2752136711678475    3.2240081932008731
   0.0000000000000000    0.0000000000000000   37.7010000000000005
H O
4 4
direct
   0.7375653482556038    0.9482204453498226    0.5471650500998609 H
   0.7012163060466633    0.7609703751220164    0.5512761955495528 H
   0.7388773630374191    0.8408374237962004    0.6116330661807636 H
   0.7612953586001185    0.8617041259958963    0.6553606587537445 H
   0.7422460000000001    0.9717800000000000    0.5532633333333333 O
   0.7014140000000001    0.7353200000000000    0.5581733333333333 O
   0.7482380000000001    0.8344533333333333    0.6346933333333333 O
   0.7702800000000001    0.8766233333333333    0.6714500000000000 O
