H1 C6 N9
1.0
  37.3226926874484093    0.0000000000000000    4.7599617181533249
   4.4914035600194291   37.2752136711678475    3.2240081932008731
   0.0000000000000000    0.0000000000000000   37.7010000000000005
H C N
1 6 9
direct
   0.7104860000000001    0.8610566666666666    0.5106800000000000 H
   0.7128100000000002    0.8235833333333333    0.5553233333333333 C
   0.7276260000000001    0.8832199999999999    0.5541033333333333 C
   0.7351200000000001    0.8433999999999999    0.6023766666666666 C
   0.7011760000000001    0.7662000000000000    0.5498700000000000 C
   0.7365560000000001    0.9431400000000000    0.5458499999999999 C
   0.7594280000000001    0.8586033333333333    0.6520166666666667 C
   0.7160120000000001    0.8564866666666666    0.5372966666666666 N
   0.7368300000000001    0.8772000000000000    0.5872733333333333 N
   0.7223960000000000    0.8164566666666666    0.5881933333333333 N
   0.6999840000000001    0.7994133333333333    0.5371133333333333 N
   0.7014140000000001    0.7353200000000000    0.5581733333333333 N
   0.7307820000000000    0.9139833333333333    0.5336600000000000 N
   0.7422460000000001    0.9717800000000000    0.5532633333333333 N
   0.7482380000000001    0.8344533333333333    0.6346933333333333 N
   0.7702800000000001    0.8766233333333333    0.6714500000000000 N
