Zn16 H50 C88 O52
1.0
  16.0024128533068755    0.0000000000000000    9.1728298726357576
   5.2987078076749761   15.0727848365269157    9.1708743771054095
   0.0000000000000000    0.0000000000000000   36.8260000000000005
Zn H C O
16 50 88 52
direct
   0.7932700000000000    0.7934800000000000    0.8096950000000001 Zn
   0.7932700000000000    0.7934800000000000    0.3096950000000000 Zn
   0.7932000000000000    0.6194900000000000    0.3967500000000000 Zn
   0.3801300000000000    0.2068000000000000    0.1033650000000000 Zn
   0.2068000000000000    0.3804900000000000    0.1032550000000000 Zn
   0.2067300000000000    0.2065100000000000    0.1903100000000000 Zn
   0.2063900000000000    0.2062800000000000    0.1031000000000000 Zn
   0.6198700000000000    0.7931800000000000    0.3966400000000000 Zn
   0.3801300000000000    0.2068000000000000    0.6033650000000000 Zn
   0.2068000000000000    0.3804900000000000    0.6032550000000000 Zn
   0.2067300000000000    0.2065100000000000    0.6903100000000000 Zn
   0.2063900000000000    0.2062800000000000    0.6031000000000000 Zn
   0.6198700000000000    0.7931800000000000    0.8966400000000000 Zn
   0.7932000000000000    0.6194900000000000    0.8967499999999999 Zn
   0.7936100000000000    0.7937100000000000    0.3969000000000000 Zn
   0.7936100000000000    0.7937100000000000    0.8969000000000000 Zn
   0.9513700000000000    0.9518300000000000    0.2159300000000000 H
   0.0477200000000000    0.0478400000000000    0.1677600000000000 H
   0.9522800000000000    0.9521500000000001    0.3322450000000000 H
   0.0486400000000000    0.0481600000000000    0.2840800000000000 H
   0.9513700000000000    0.9518300000000000    0.7159300000000000 H
   0.0477200000000000    0.0478400000000000    0.6677600000000000 H
   0.9522800000000000    0.9521500000000001    0.8322450000000000 H
   0.0486400000000000    0.0481600000000000    0.7840800000000000 H
   0.9523600000000000    0.6643700000000000    0.9761100000000000 H
   0.0487500000000000    0.5680100000000000    0.0240900000000000 H
   0.9512500000000000    0.4319800000000000    0.9759150000000000 H
   0.0476300000000000    0.3356200000000000    0.0235000000000000 H
   0.9523600000000000    0.6643700000000000    0.4761100000000000 H
   0.0487500000000000    0.5680100000000000    0.5240899999999999 H
   0.9512500000000000    0.4319800000000000    0.4759150000000000 H
   0.0476300000000000    0.3356200000000000    0.5235000000000000 H
   0.0482100000000000    0.3356100000000000    0.2841750000000000 H
   0.9515900000000000    0.4318700000000000    0.3322550000000000 H
   0.9517900000000000    0.6643800000000000    0.2158300000000000 H
   0.0484100000000000    0.5681200000000000    0.1677500000000000 H
   0.3359300000000000    0.0474400000000000    0.0237050000000000 H
   0.4325600000000000    0.9511700000000000    0.9756549999999999 H
   0.6640800000000000    0.9525500000000000    0.9762950000000000 H
   0.5674400000000001    0.0488200000000000    0.0243500000000000 H
   0.5074849102821788    0.7190142506674821    0.4430471542424514 H
   0.7191333761019721    0.5068095774798136    0.4434225980156318 H
   0.6055684799390124    0.6050999885792430    0.4471128582890115 H
   0.5676800000000000    0.0486700000000000    0.1677450000000000 H
   0.6641000000000000    0.9522300000000000    0.2157300000000000 H
   0.4323200000000000    0.9513100000000000    0.3322600000000000 H
   0.3359000000000000    0.0477500000000000    0.2842750000000000 H
   0.4925149892895503    0.2809730168737093    0.5569057774295086 H
   0.2808739142990478    0.4931703327913564    0.5565990812735669 H
   0.3944315067261698    0.3948799797446684    0.5528749341017739 H
   0.3359300000000000    0.0474400000000000    0.5237050000000000 H
   0.4325600000000000    0.9511700000000000    0.4756550000000000 H
   0.6640800000000000    0.9525500000000000    0.4762950000000000 H
   0.5674400000000001    0.0488200000000000    0.5243500000000000 H
   0.3359000000000000    0.5684100000000000    0.0239000000000000 H
   0.4322900000000000    0.6644000000000000    0.9756899999999999 H
   0.5677100000000000    0.3355900000000000    0.0243150000000000 H
   0.6641100000000000    0.4315800000000000    0.9761050000000000 H
   0.5676800000000000    0.0486700000000000    0.6677450000000000 H
   0.6641000000000000    0.9522300000000000    0.7157300000000000 H
   0.4323200000000000    0.9513100000000000    0.8322600000000000 H
   0.3359000000000000    0.0477500000000000    0.7842750000000001 H
   0.0482100000000000    0.3356100000000000    0.7841750000000001 H
   0.9515900000000000    0.4318700000000000    0.8322550000000000 H
   0.9517900000000000    0.6643800000000000    0.7158300000000000 H
   0.0484100000000000    0.5681200000000000    0.6677500000000001 H
   0.8888800000000000    0.8892000000000000    0.3055500000000000 C
   0.1111100000000000    0.1108000000000000    0.1944550000000000 C
   0.9730600000000000    0.9733100000000000    0.2304700000000000 C
   0.0264300000000000    0.0265100000000000    0.2037900000000000 C
   0.0537200000000000    0.0535400000000000    0.2231450000000000 C
   0.9735700000000000    0.9734800000000000    0.2962200000000000 C
   0.0269400000000000    0.0266800000000000    0.2695350000000000 C
   0.9462800000000000    0.9464500000000000    0.2768600000000000 C
   0.8888800000000000    0.8892000000000000    0.8055500000000000 C
   0.1111100000000000    0.1108000000000000    0.6944550000000000 C
   0.9730600000000000    0.9733100000000000    0.7304700000000000 C
   0.0264300000000000    0.0265100000000000    0.7037900000000000 C
   0.0537200000000000    0.0535400000000000    0.7231450000000000 C
   0.9735700000000000    0.9734800000000000    0.7962199999999999 C
   0.0269400000000000    0.0266800000000000    0.7695350000000001 C
   0.9462800000000000    0.9464500000000000    0.7768600000000000 C
   0.8888700000000000    0.6111100000000000    0.9446200000000000 C
   0.1111500000000000    0.3888800000000000    0.0553500000000000 C
   0.9736200000000000    0.5923600000000000    0.9867500000000000 C
   0.0270000000000000    0.5389800000000000    0.0133450000000000 C
   0.9462699999999999    0.5537200000000000    0.9732450000000000 C
   0.9730000000000000    0.4610100000000000    0.9866600000000000 C
   0.0263800000000000    0.4076300000000000    0.0132400000000000 C
   0.0537200000000000    0.4462700000000000    0.0267650000000000 C
   0.8888700000000000    0.6111100000000000    0.4446200000000000 C
   0.1111500000000000    0.3888800000000000    0.5553500000000000 C
   0.9736200000000000    0.5923600000000000    0.4867500000000000 C
   0.0270000000000000    0.5389800000000000    0.5133450000000001 C
   0.9462699999999999    0.5537200000000000    0.4732450000000000 C
   0.9730000000000000    0.4610100000000000    0.4866600000000000 C
   0.0263800000000000    0.4076300000000000    0.5132400000000000 C
   0.0537200000000000    0.4462700000000000    0.5267650000000000 C
   0.8886300000000000    0.6109800000000000    0.3054500000000000 C
   0.1113800000000000    0.3890100000000000    0.1945600000000000 C
   0.0267000000000000    0.4076200000000000    0.2695950000000000 C
   0.9731900000000000    0.4609300000000000    0.2962000000000000 C
   0.9461500000000000    0.5536400000000000    0.2768000000000000 C
   0.9733000000000001    0.5923700000000000    0.2304100000000000 C
   0.0268100000000000    0.5390500000000000    0.2037850000000000 C
   0.0538500000000000    0.4463400000000000    0.2232000000000000 C
   0.3886400000000000    0.1109900000000000    0.0554700000000000 C
   0.6113600000000000    0.8889100000000000    0.9445800000000000 C
   0.4078000000000000    0.0262800000000000    0.0131300000000000 C
   0.4613300000000000    0.9729400000000000    0.9865200000000001 C
   0.4461300000000000    0.0536900000000000    0.0267500000000000 C
   0.5921999999999999    0.9737100000000000    0.9868749999999999 C
   0.5386700000000000    0.0270500000000000    0.0134500000000000 C
   0.5538700000000000    0.9463400000000000    0.9732000000000001 C
   0.3888800000000000    0.1112200000000000    0.1946000000000000 C
   0.6111200000000000    0.8888000000000000    0.3053650000000000 C
   0.5388100000000000    0.0269600000000000    0.2037800000000000 C
   0.5922100000000000    0.9735400000000000    0.2303550000000000 C
   0.4611900000000000    0.9730300000000000    0.2962250000000000 C
   0.4077900000000000    0.0264400000000000    0.2696500000000000 C
   0.4462700000000000    0.0537500000000000    0.2232600000000000 C
   0.5537400000000000    0.9462200000000000    0.2767500000000000 C
   0.3886400000000000    0.1109900000000000    0.5554700000000000 C
   0.6113600000000000    0.8889100000000000    0.4445800000000000 C
   0.4078000000000000    0.0262800000000000    0.5131300000000000 C
   0.4613300000000000    0.9729400000000000    0.4865200000000000 C
   0.4461300000000000    0.0536900000000000    0.5267500000000001 C
   0.5921999999999999    0.9737100000000000    0.4868750000000000 C
   0.5386700000000000    0.0270500000000000    0.5134500000000000 C
   0.5538700000000000    0.9463400000000000    0.4732000000000000 C
   0.6110900000000000    0.6107300000000000    0.9444000000000000 C
   0.3889100000000000    0.3892600000000000    0.0555950000000000 C
   0.4077800000000000    0.5392200000000000    0.0132350000000000 C
   0.4611700000000000    0.5923800000000000    0.9865400000000000 C
   0.5388300000000000    0.4076100000000000    0.0134700000000000 C
   0.5922200000000000    0.4607700000000000    0.9867699999999999 C
   0.5537200000000000    0.5534900000000000    0.9731300000000001 C
   0.4462800000000000    0.4464900000000000    0.0268850000000000 C
   0.3888800000000000    0.1112200000000000    0.6946000000000000 C
   0.6111200000000000    0.8888000000000000    0.8053650000000000 C
   0.5388100000000000    0.0269600000000000    0.7037800000000000 C
   0.5922100000000000    0.9735400000000000    0.7303550000000000 C
   0.4611900000000000    0.9730300000000000    0.7962250000000000 C
   0.4077900000000000    0.0264400000000000    0.7696499999999999 C
   0.4462700000000000    0.0537500000000000    0.7232600000000000 C
   0.5537400000000000    0.9462200000000000    0.7767500000000001 C
   0.8886300000000000    0.6109800000000000    0.8054500000000000 C
   0.1113800000000000    0.3890100000000000    0.6945600000000001 C
   0.0267000000000000    0.4076200000000000    0.7695950000000000 C
   0.9731900000000000    0.4609300000000000    0.7962000000000000 C
   0.9461500000000000    0.5536400000000000    0.7767999999999999 C
   0.9733000000000001    0.5923700000000000    0.7304100000000000 C
   0.0268100000000000    0.5390500000000000    0.7037850000000000 C
   0.0538500000000000    0.4463400000000000    0.7232000000000001 C
   0.8665800000000000    0.8670700000000000    0.2857100000000000 O
   0.8669800000000000    0.8671400000000000    0.3474900000000000 O
   0.1334200000000000    0.1329100000000000    0.2142950000000000 O
   0.1330200000000000    0.1328500000000000    0.1525000000000000 O
   0.8665800000000000    0.8670700000000000    0.7857100000000000 O
   0.8669800000000000    0.8671400000000000    0.8474900000000001 O
   0.1334200000000000    0.1329100000000000    0.7142950000000000 O
   0.1330200000000000    0.1328500000000000    0.6525000000000000 O
   0.7501300000000000    0.7500000000000000    0.8500000000000000 O
   0.7501300000000000    0.7500000000000000    0.3500000000000000 O
   0.8665400000000000    0.5714900000000001    0.9335400000000000 O
   0.8669600000000000    0.6949300000000000    0.9336249999999999 O
   0.1330400000000000    0.3050600000000000    0.0663850000000000 O
   0.1334500000000000    0.4284900000000000    0.0664700000000000 O
   0.8665400000000000    0.5714900000000001    0.4335400000000000 O
   0.8669600000000000    0.6949300000000000    0.4336250000000000 O
   0.1330400000000000    0.3050600000000000    0.5663850000000000 O
   0.1334500000000000    0.4284900000000000    0.5664700000000000 O
   0.8663800000000000    0.5713700000000000    0.3473800000000000 O
   0.8665400000000000    0.6947900000000000    0.2856100000000000 O
   0.1336200000000000    0.4286200000000000    0.1526250000000000 O
   0.1334600000000000    0.3051900000000000    0.2143950000000000 O
   0.4280700000000000    0.1334500000000000    0.0665800000000000 O
   0.3049700000000000    0.1328700000000000    0.0663900000000000 O
   0.5719300000000000    0.8665600000000000    0.9334150000000000 O
   0.6950300000000000    0.8671400000000000    0.9336050000000000 O
   0.5716500000000000    0.6945400000000000    0.4332000000000000 O
   0.6947600000000000    0.5710800000000000    0.4334250000000000 O
   0.2498700000000000    0.2499900000000000    0.1250100000000000 O
   0.4283200000000000    0.1334700000000000    0.1527100000000000 O
   0.3052100000000000    0.1332200000000000    0.2144900000000000 O
   0.5716800000000000    0.8665100000000000    0.3473000000000000 O
   0.6947900000000000    0.8667500000000000    0.2855150000000000 O
   0.4283500000000000    0.3054500000000000    0.5667700000000000 O
   0.3052500000000000    0.4289000000000000    0.5665850000000000 O
   0.4280700000000000    0.1334500000000000    0.5665800000000000 O
   0.3049700000000000    0.1328700000000000    0.5663899999999999 O
   0.5719300000000000    0.8665600000000000    0.4334150000000000 O
   0.6950300000000000    0.8671400000000000    0.4336050000000000 O
   0.5716500000000000    0.6945400000000000    0.9332000000000000 O
   0.6947600000000000    0.5710800000000000    0.9334249999999999 O
   0.4283500000000000    0.3054500000000000    0.0667700000000000 O
   0.3052500000000000    0.4289000000000000    0.0665850000000000 O
   0.2498700000000000    0.2499900000000000    0.6250100000000001 O
   0.4283200000000000    0.1334700000000000    0.6527100000000000 O
   0.3052100000000000    0.1332200000000000    0.7144900000000000 O
   0.5716800000000000    0.8665100000000000    0.8472999999999999 O
   0.6947900000000000    0.8667500000000000    0.7855150000000000 O
   0.8663800000000000    0.5713700000000000    0.8473800000000000 O
   0.8665400000000000    0.6947900000000000    0.7856099999999999 O
   0.1336200000000000    0.4286200000000000    0.6526250000000000 O
   0.1334600000000000    0.3051900000000000    0.7143950000000000 O
