H9 C5 S1 N1 O2
1.0
  12.4159996293512727    0.0000000000000000    0.0030338010887961
  -6.2027582552041602   10.7821376440051022   -0.0043420300249333
   0.0000000000000000    0.0000000000000000   27.0489999999999995
H C S N O
9 5 1 1 2
direct
   0.9366200000000000    0.2723100000000000    0.1045700000000000 H
   0.9628000000000000    0.2812200000000000    0.0454300000000000 H
   0.1368200000000000    0.3385300000000000    0.1259600000000000 H
   0.3603600000000000    0.4791300000000000    0.1195000000000000 H
   0.4274400000000000    0.5572700000000000    0.0630900000000000 H
   0.3635200000000000    0.3930000000000000    0.0677300000000000 H
   0.2880000000000000    0.5301700000000000    0.9886100000000000 H
   0.1255900000000000    0.4324100000000000    0.9929800000000000 H
   0.2230800000000000    0.3658100000000000    0.9907300000000000 H
   0.2265000000000000    0.4501500000000000    0.0617600000000000 C
   0.1194800000000000    0.3337000000000000    0.0859700000000000 C
   0.3524000000000000    0.4715200000000000    0.0790500000000000 C
   0.2151200000000000    0.4441200000000000    0.0052000000000000 C
   0.1119400000000000    0.2129800000000000    0.0650900000000000 C
   0.2155300000000000    0.5902500000000001    0.0805400000000000 S
   0.9976100000000000    0.3298300000000000    0.0781300000000000 N
   0.0155200000000000    0.1483000000000000    0.0374000000000000 O
   0.1958900000000000    0.1907100000000000    0.0751900000000000 O
