H14 C10 N4
1.0
  14.5255859280855084    0.0000000000000000   -1.4114494131226505
  -0.0083437479900245   16.8769979272028365   -0.0005891184355960
   0.0000000000000000    0.0000000000000000   34.9179999999999993
H C N
14 10 4
direct
   0.9647500000000000    0.1557300000000000    0.4921900000000000 H
   0.1346100000000000    0.1727000000000000    0.5384850000000000 H
   0.1213200000000000    0.1621300000000000    0.5876850000000000 H
   0.5267300000000000    0.9855100000000000    0.6560049999999999 H
   0.0473000000000000    0.0254000000000000    0.5725950000000000 H
   0.0740500000000000    0.0366900000000000    0.5245400000000000 H
   0.8030300000000000    0.2311700000000000    0.5081700000000000 H
   0.9817800000000000    0.2177100000000000    0.6103200000000000 H
   0.2445500000000000    0.0529700000000000    0.5505900000000000 H
   0.1962800000000000    0.9579200000000000    0.5562100000000000 H
   0.1696400000000000    0.9909700000000000    0.6246000000000000 H
   0.2201900000000000    0.0857300000000000    0.6193150000000001 H
   0.2806100000000000    0.8662500000000000    0.6177550000000001 H
   0.3903500000000000    0.0974300000000000    0.6344950000000000 H
   0.0930700000000000    0.1431200000000000    0.5588800000000000 C
   0.4561200000000000    0.9779700000000000    0.6438550000000001 C
   0.0964200000000000    0.0529600000000000    0.5545300000000000 C
   0.8634900000000000    0.2153000000000000    0.5270700000000000 C
   0.9427300000000000    0.1778600000000000    0.5189049999999999 C
   0.9540800000000000    0.2107800000000000    0.5805800000000000 C
   0.1934700000000000    0.0200500000000000    0.5656450000000000 C
   0.2192400000000000    0.0242500000000000    0.6091700000000000 C
   0.3302900000000000    0.9129699999999999    0.6245400000000000 C
   0.3895700000000000    0.0333100000000000    0.6334200000000000 C
   0.9995500000000000    0.1754500000000000    0.5530750000000000 N
   0.8712000000000000    0.2353600000000000    0.5657449999999999 N
   0.4182600000000000    0.9029700000000001    0.6381300000000000 N
   0.3103400000000000    0.9912200000000000    0.6212200000000000 N
