Zn16 H136 C210 O77
1.0
  18.6259498180625194    0.0000000000000000    0.0432362696924546
  -0.6449900146919455   14.5216738684699003    0.0164905653672926
   0.0000000000000000    0.0000000000000000   27.6490000000000009
Zn H C O
16 136 210 77
direct
   0.0032400000000000    0.8942600000000001    0.6210700000000000 Zn
   0.9967400000000000    0.1057200000000000    0.3789200000000000 Zn
   0.1505800000000000    0.8792200000000000    0.6663000000000000 Zn
   0.9966500000000000    0.6058900000000000    0.1209300000000000 Zn
   0.1506700000000000    0.3793100000000000    0.8334800000000000 Zn
   0.5032300000000000    0.8942600000000001    0.6210700000000000 Zn
   0.3494100000000000    0.1207600000000000    0.3336800000000000 Zn
   0.5033200000000000    0.3940900000000000    0.8790500000000000 Zn
   0.3493100000000000    0.6206800000000000    0.1665100000000000 Zn
   0.4966600000000000    0.6058900000000000    0.1209300000000000 Zn
   0.6506700000000000    0.3793100000000000    0.8334800000000000 Zn
   0.0033300000000000    0.3940900000000000    0.8790500000000000 Zn
   0.8493100000000000    0.6206800000000000    0.1665100000000000 Zn
   0.4967500000000000    0.1057200000000000    0.3789200000000000 Zn
   0.6505700000000000    0.8792200000000000    0.6663000000000000 Zn
   0.8494000000000000    0.1207600000000000    0.3336800000000000 Zn
   0.8965774813405987    0.8678559742554812    0.5676489605839194 H
   0.3776900000000000    0.2358800000000000    0.4575100000000000 H
   0.3278500000000000    0.3179100000000000    0.4898300000000000 H
   0.2490600000000000    0.2221000000000000    0.4514200000000000 H
   0.0866800000000000    0.0341000000000000    0.5092400000000000 H
   0.2888000000000000    0.0752500000000000    0.5841900000000000 H
   0.3959700000000000    0.3335600000000000    0.5844000000000000 H
   0.5077500000000000    0.4096700000000000    0.6148000000000000 H
   0.6091200000000000    0.3656900000000000    0.4769700000000000 H
   0.4967200000000000    0.2917100000000000    0.4465000000000000 H
   0.5821100000000000    0.5364600000000000    0.6124000000000001 H
   0.6951300000000000    0.6098100000000000    0.6435600000000000 H
   0.7040700000000000    0.3564000000000000    0.5236700000000000 H
   0.8166500000000000    0.4340200000000000    0.5526200000000000 H
   0.8263700000000000    0.6442000000000000    0.6270600000000000 H
   0.8754300000000000    0.5661300000000000    0.5914300000000000 H
   0.9103000000000000    0.4443800000000000    0.7350500000000000 H
   0.1092200000000000    0.6084200000000000    0.7372000000000000 H
   0.9446600000000001    0.6693900000000000    0.6342000000000000 H
   0.3959100000000000    0.8351499999999999    0.9156500000000000 H
   0.5079900000000001    0.9116200000000000    0.8855800000000000 H
   0.6083499999999999    0.8645699999999999    0.0231800000000000 H
   0.4956500000000000    0.7905300000000000    0.0534300000000000 H
   0.5826600000000000    0.0382100000000000    0.8885100000000000 H
   0.6961600000000000    0.1115500000000000    0.8575900000000000 H
   0.8164200000000000    0.9337500000000000    0.9480300000000000 H
   0.7034200000000000    0.8560000000000000    0.9766200000000000 H
   0.8274000000000000    0.1445000000000000    0.8736699999999999 H
   0.8759000000000000    0.0661600000000000    0.9094500000000000 H
   0.1095600000000000    0.1085600000000000    0.7624300000000001 H
   0.9106600000000000    0.9443800000000000    0.7656500000000001 H
   0.9454600000000000    0.1690200000000000    0.8663400000000000 H
   0.3766000000000000    0.7358200000000000    0.0424400000000000 H
   0.3269300000000000    0.8176800000000000    0.0099000000000000 H
   0.2475600000000000    0.7218900000000000    0.0479700000000000 H
   0.0860300000000000    0.5344900000000000    0.9892900000000000 H
   0.2894700000000000    0.5757800000000000    0.9153400000000000 H
   0.9922500000000000    0.5902800000000000    0.3851800000000000 H
   0.1040300000000000    0.6664000000000000    0.4155300000000000 H
   0.8908600000000000    0.6342800000000000    0.5230100000000000 H
   0.0032700000000000    0.7082700000000000    0.5534800000000000 H
   0.9178700000000000    0.4635000000000000    0.3875800000000000 H
   0.8048400000000000    0.3901600000000000    0.3564200000000000 H
   0.6833300000000000    0.5659500000000000    0.4473600000000000 H
   0.7959000000000001    0.6435700000000000    0.4763100000000000 H
   0.6736000000000000    0.3557800000000000    0.3729200000000000 H
   0.6245500000000000    0.4338400000000000    0.4085500000000000 H
   0.5896700000000000    0.5556100000000000    0.2649300000000000 H
   0.3907700000000000    0.3915600000000000    0.2627000000000000 H
   0.5553100000000000    0.3305900000000000    0.3657800000000000 H
   0.1223100000000000    0.7640800000000000    0.5424700000000000 H
   0.1721500000000000    0.6820600000000000    0.5101500000000000 H
   0.2509300000000000    0.7778800000000000    0.5485600000000000 H
   0.4133100000000000    0.9658600000000001    0.4907400000000000 H
   0.2111900000000000    0.9247200000000000    0.4157900000000000 H
   0.1040800000000000    0.1648100000000000    0.0843400000000000 H
   0.9920099999999999    0.0883500000000000    0.1144100000000000 H
   0.8916300000000000    0.1354300000000000    0.9768100000000000 H
   0.0043400000000000    0.2094600000000000    0.9465600000000000 H
   0.9173100000000000    0.9617700000000000    0.1114800000000000 H
   0.8038200000000000    0.8884300000000001    0.1424100000000000 H
   0.6835500000000000    0.0662200000000000    0.0519700000000000 H
   0.7965500000000000    0.1439700000000000    0.0233700000000000 H
   0.6725800000000000    0.8554700000000000    0.1263200000000000 H
   0.6240800000000000    0.9338100000000000    0.0905400000000000 H
   0.5893100000000000    0.0555900000000000    0.2343000000000000 H
   0.3904300000000000    0.8914299999999999    0.2375600000000000 H
   0.5545200000000000    0.8309600000000000    0.1336500000000000 H
   0.1233900000000000    0.2641500000000000    0.9575500000000000 H
   0.1730600000000000    0.1823000000000000    0.9900800000000000 H
   0.2524300000000000    0.2780900000000000    0.9520200000000000 H
   0.4139500000000000    0.4655100000000000    0.0106900000000000 H
   0.2105100000000000    0.4242000000000000    0.0846500000000000 H
   1.0600353361114974    0.5644002421142176    0.1972154244747544 H
   0.8615586329696429    0.5113861856034851    0.2368631507516260 H
   0.9632534339313952    0.5310237758909517    0.2236675400693834 H
   0.0000000000000000    0.9116200000000000    0.8855800000000000 H
   0.8959000000000000    0.8351600000000000    0.9156000000000000 H
   0.1083600000000000    0.8645600000000000    0.0231800000000000 H
   0.9956400000000000    0.7905200000000000    0.0534300000000000 H
   0.0826700000000000    0.0382100000000000    0.8885100000000000 H
   0.1961700000000000    0.1115500000000000    0.8575900000000000 H
   0.3164300000000000    0.9337500000000000    0.9480200000000000 H
   0.2034300000000000    0.8559900000000000    0.9766200000000000 H
   0.3274100000000000    0.1445000000000000    0.8736699999999999 H
   0.3759100000000000    0.0661500000000000    0.9094500000000000 H
   0.4106700000000000    0.9443900000000000    0.7656400000000000 H
   0.6095600000000000    0.1085600000000000    0.7624300000000001 H
   0.4454600000000000    0.1690200000000000    0.8663400000000000 H
   0.8765900000000000    0.7358300000000000    0.0424400000000000 H
   0.8269300000000001    0.8176800000000000    0.0099100000000000 H
   0.7475500000000000    0.7218900000000000    0.0479700000000000 H
   0.5860200000000000    0.5344900000000000    0.9892900000000000 H
   0.7894700000000000    0.5757800000000000    0.9153400000000000 H
   0.6040700000000000    0.1648200000000000    0.0843400000000000 H
   0.4920000000000000    0.0883500000000000    0.1144000000000000 H
   0.3916400000000000    0.1354200000000000    0.9768100000000000 H
   0.5043299999999999    0.2094500000000000    0.9465000000000000 H
   0.4173200000000000    0.9617599999999999    0.1114800000000000 H
   0.3038300000000000    0.8884300000000001    0.1424000000000000 H
   0.1835600000000000    0.0662200000000000    0.0519600000000000 H
   0.2965600000000000    0.1439700000000000    0.0233000000000000 H
   0.1725800000000000    0.8554700000000000    0.1263200000000000 H
   0.1240800000000000    0.9338100000000000    0.0905400000000000 H
   0.8904200000000000    0.8914299999999999    0.2375600000000000 H
   0.0893200000000000    0.0556000000000000    0.2343400000000000 H
   0.0545300000000000    0.8309600000000000    0.1336500000000000 H
   0.6233900000000000    0.2641500000000000    0.9575500000000000 H
   0.6730500000000000    0.1823000000000000    0.9900700000000000 H
   0.7524200000000000    0.2780900000000000    0.9520200000000000 H
   0.9139400000000000    0.4655100000000000    0.0106900000000000 H
   0.7105000000000000    0.4242000000000000    0.0846500000000000 H
   0.8959600000000000    0.3335500000000000    0.5844000000000000 H
   0.0000000000000000    0.4096700000000000    0.6148100000000000 H
   0.9967100000000000    0.2917100000000000    0.4465000000000000 H
   0.1091300000000000    0.3656900000000000    0.4769000000000000 H
   0.0821100000000000    0.5364600000000000    0.6124000000000001 H
   0.1951400000000000    0.6098000000000000    0.6435600000000000 H
   0.2040800000000000    0.3564000000000000    0.5236700000000000 H
   0.3166600000000000    0.4340300000000000    0.5526200000000000 H
   0.3263700000000000    0.6442000000000000    0.6270600000000000 H
   0.3754300000000000    0.5661300000000000    0.5914300000000000 H
   0.4103100000000000    0.4443800000000000    0.7350500000000000 H
   0.6092100000000000    0.6084200000000000    0.7372000000000000 H
   0.4446700000000000    0.6693900000000000    0.6342000000000000 H
   0.8776800000000000    0.2358800000000000    0.4575100000000000 H
   0.8278400000000000    0.3179100000000000    0.4898000000000000 H
   0.7490599999999999    0.2221000000000000    0.4514200000000000 H
   0.5866700000000000    0.0341100000000000    0.5092000000000000 H
   0.7887900000000000    0.0752500000000000    0.5841900000000000 H
   0.9775526768235693    0.2639253394675563    0.3917969249820573 H
   0.8413619333983557    0.2823847449959401    0.2880640986685374 H
   0.9019556550452094    0.2863425549665679    0.3337546496064129 H
   0.9385969867878674   -0.0031670333187597    0.4296505519183549 H
   0.7448723377305408    0.0446778024580698    0.3841095207630858 H
   0.8283993964900894    0.0161241308839264    0.4086518424762338 H
   0.1175400000000000    0.1469200000000000    0.4331000000000000 C
   0.1570300000000000    0.9843900000000000    0.5892100000000000 C
   0.3689800000000000    0.2658800000000000    0.4935200000000000 C
   0.2322300000000000    0.1742300000000000    0.4799600000000000 C
   0.2765800000000000    0.1553600000000000    0.5192600000000001 C
   0.1397400000000000    0.0677700000000000    0.5119500000000000 C
   0.1641600000000000    0.1292000000000000    0.4761700000000000 C
   0.2532600000000000    0.0908200000000000    0.5543700000000000 C
   0.1845700000000000    0.0487300000000000    0.5510699999999999 C
   0.4421700000000000    0.3427100000000000    0.5603700000000000 C
   0.5054400000000000    0.3854600000000000    0.5775000000000000 C
   0.5623500000000000    0.3602000000000000    0.5006600000000000 C
   0.4988700000000000    0.3181500000000000    0.4833600000000000 C
   0.4378700000000000    0.3091200000000000    0.5128600000000000 C
   0.5668700000000000    0.3954900000000000    0.5478700000000000 C
   0.6334800000000000    0.5123000000000000    0.5999400000000000 C
   0.6970900000000000    0.5542100000000000    0.6171000000000000 C
   0.7016300000000000    0.4128800000000000    0.5494400000000000 C
   0.7650800000000000    0.4555300000000000    0.5662900000000000 C
   0.7639000000000000    0.5261300000000000    0.6006899999999999 C
   0.6344100000000000    0.4404300000000000    0.5659000000000000 C
   0.0378900000000000    0.4664500000000000    0.7823400000000000 C
   0.0734900000000000    0.7277200000000000    0.6666666666666666 C
   0.8326300000000000    0.5710800000000000    0.6187200000000000 C
   0.9447700000000000    0.5000000000000000    0.7202200000000000 C
   0.0125300000000000    0.5202900000000000    0.7401500000000000 C
   0.0566300000000000    0.5925800000000000    0.7216700000000000 C
   0.0309300000000000    0.6458400000000000    0.6838700000000000 C
   0.9634000000000000    0.6251600000000000    0.6628600000000000 C
   0.9206700000000000    0.5506799999999999    0.6805400000000000 C
   0.4419500000000000    0.8437600000000000    0.9397700000000000 C
   0.5053800000000001    0.8867200000000000    0.9227900000000000 C
   0.5617100000000000    0.8598200000000000    0.9995100000000000 C
   0.4980700000000000    0.8176300000000000    0.0166800000000000 C
   0.4372800000000000    0.8093600000000000    0.9871600000000000 C
   0.5666099999999999    0.8959800000000000    0.9524500000000000 C
   0.6338700000000000    0.0136100000000000    0.9008800000000000 C
   0.6977300000000000    0.0555400000000000    0.8838400000000000 C
   0.7650200000000000    0.9556700000000000    0.9344200000000000 C
   0.7013400000000000    0.9129400000000000    0.9510000000000000 C
   0.7643000000000000    0.0268200000000000    0.9002000000000000 C
   0.6343600000000000    0.9410800000000000    0.9346300000000000 C
   0.0380900000000000    0.9665300000000000    0.7177000000000000 C
   0.0738600000000000    0.2276600000000000    0.8332200000000000 C
   0.8333000000000000    0.0713500000000000    0.8821800000000000 C
   0.0570200000000000    0.0926200000000000    0.7782900000000000 C
   0.0314300000000000    0.1457300000000000    0.8162000000000000 C
   0.9451700000000000    0.9999700000000000    0.7803000000000000 C
   0.0128600000000000    0.0203500000000000    0.7600300000000000 C
   0.9640100000000000    0.1249300000000000    0.8375600000000000 C
   0.9212100000000000    0.0505300000000000    0.8201000000000001 C
   0.1154600000000000    0.6470100000000000    0.0653500000000000 C
   0.1576200000000000    0.4851300000000000    0.9098200000000000 C
   0.3682500000000000    0.7658500000000000    0.0063800000000000 C
   0.2311800000000000    0.6742200000000000    0.0193400000000000 C
   0.2762700000000000    0.6554100000000000    0.9802800000000000 C
   0.1391500000000000    0.5681400000000000    0.9868600000000000 C
   0.1629700000000000    0.6293500000000000    0.0227500000000000 C
   0.2534600000000000    0.5912300000000000    0.9450100000000000 C
   0.1846900000000000    0.5492100000000000    0.9480000000000000 C
   0.9945600000000000    0.6145000000000000    0.4224800000000000 C
   0.0578200000000000    0.6572500000000000    0.4396200000000000 C
   0.9376300000000000    0.6397699999999999    0.4993200000000000 C
   0.0011200000000000    0.6818200000000000    0.5166200000000000 C
   0.0621200000000000    0.6908500000000000    0.4871200000000000 C
   0.9331100000000000    0.6044700000000000    0.4521000000000000 C
   0.8665000000000000    0.4876600000000000    0.4000400000000000 C
   0.8028800000000000    0.4457600000000000    0.3828300000000000 C
   0.7348900000000000    0.5444400000000000    0.4337000000000000 C
   0.7983500000000000    0.5870900000000000    0.4505400000000000 C
   0.7360700000000000    0.4738400000000000    0.3992900000000000 C
   0.8655700000000000    0.5595300000000000    0.4340700000000000 C
   0.4621000000000000    0.5335299999999999    0.2176000000000000 C
   0.4265000000000000    0.2722600000000000    0.3332800000000000 C
   0.6673400000000000    0.4288900000000000    0.3812600000000000 C
   0.5552100000000000    0.4999800000000000    0.2797600000000000 C
   0.4874600000000000    0.4797000000000000    0.2598300000000000 C
   0.4433600000000000    0.4074000000000000    0.2783100000000000 C
   0.4690600000000000    0.3541400000000000    0.3161100000000000 C
   0.5365799999999999    0.3748100000000000    0.3371200000000000 C
   0.5793100000000000    0.4493000000000000    0.3194400000000000 C
   0.3824500000000000    0.8530500000000000    0.5668000000000000 C
   0.3429600000000000    0.0155900000000000    0.4107700000000000 C
   0.1310100000000000    0.7340900000000000    0.5064600000000000 C
   0.2677600000000000    0.8257400000000000    0.5200200000000000 C
   0.2234100000000000    0.8446100000000000    0.4807200000000000 C
   0.3602500000000000    0.9322000000000000    0.4880300000000000 C
   0.3358300000000000    0.8707700000000000    0.5238100000000000 C
   0.2467300000000000    0.9091500000000000    0.4456000000000000 C
   0.3154200000000000    0.9512400000000000    0.4489100000000000 C
   0.0580500000000000    0.1562100000000000    0.0602200000000000 C
   0.9946199999999999    0.1132500000000000    0.0772000000000000 C
   0.9382600000000000    0.1401700000000000    0.0004800000000000 C
   0.0019200000000000    0.1823600000000000    0.9833100000000000 C
   0.0627100000000000    0.1906200000000000    0.0128300000000000 C
   0.9333600000000000    0.1040000000000000    0.0475400000000000 C
   0.8661100000000000    0.9863700000000000    0.0991100000000000 C
   0.8022500000000000    0.9444399999999999    0.1161000000000000 C
   0.7349500000000000    0.0443100000000000    0.0655700000000000 C
   0.7986300000000000    0.0870300000000000    0.0489400000000000 C
   0.7356800000000000    0.9731600000000000    0.0997700000000000 C
   0.8656199999999999    0.0589000000000000    0.0653600000000000 C
   0.4618900000000000    0.0334600000000000    0.2822400000000000 C
   0.4261300000000000    0.7723200000000000    0.1667600000000000 C
   0.6666666666666666    0.9286200000000000    0.1178000000000000 C
   0.5548000000000000    0.0000100000000000    0.2196900000000000 C
   0.4871200000000000    0.9796300000000000    0.2399600000000000 C
   0.4429600000000000    0.9073600000000001    0.2217000000000000 C
   0.4685600000000000    0.8542500000000000    0.1837900000000000 C
   0.5359699999999999    0.8750500000000000    0.1624300000000000 C
   0.5787700000000000    0.9494500000000000    0.1798900000000000 C
   0.3845200000000000    0.3530000000000000    0.9346300000000000 C
   0.3423600000000000    0.5148600000000000    0.0901600000000000 C
   0.1317400000000000    0.2341200000000000    0.9936100000000000 C
   0.2688000000000000    0.3257700000000000    0.9806500000000000 C
   0.2237200000000000    0.3445800000000000    0.0197000000000000 C
   0.3608300000000000    0.4318600000000000    0.0131200000000000 C
   0.3370100000000000    0.3706500000000000    0.9772400000000000 C
   0.2465200000000000    0.4087600000000000    0.0549700000000000 C
   0.3152900000000000    0.4507800000000000    0.0519800000000000 C
   0.0000000000000000    0.8867200000000000    0.9227900000000000 C
   0.9419400000000000    0.8437600000000000    0.9397700000000000 C
   0.0617200000000000    0.8598100000000000    0.9995100000000000 C
   0.9980599999999999    0.8176200000000000    0.0166800000000000 C
   0.9372700000000000    0.8093600000000000    0.9871600000000000 C
   0.0666200000000000    0.8959800000000000    0.9524400000000000 C
   0.1338800000000000    0.0136100000000000    0.9008800000000000 C
   0.1977400000000000    0.0555300000000000    0.8838400000000000 C
   0.2650300000000000    0.9556600000000000    0.9344200000000000 C
   0.2013500000000000    0.9129400000000000    0.9510500000000000 C
   0.2643100000000000    0.0268100000000000    0.9002200000000000 C
   0.1343700000000000    0.9410800000000000    0.9346300000000000 C
   0.5380900000000000    0.9665300000000000    0.7177400000000000 C
   0.5738500000000000    0.2276600000000000    0.8332200000000000 C
   0.3333333333333333    0.0713500000000000    0.8821800000000000 C
   0.4451800000000000    0.9999700000000000    0.7803000000000000 C
   0.5128600000000000    0.0203500000000000    0.7600300000000000 C
   0.5570200000000000    0.0926200000000000    0.7782900000000000 C
   0.5314200000000000    0.1457300000000000    0.8162000000000000 C
   0.4640200000000000    0.1249300000000000    0.8375600000000000 C
   0.4212200000000000    0.0505300000000000    0.8201000000000001 C
   0.6154500000000001    0.6470100000000000    0.0653500000000000 C
   0.6576200000000000    0.4851300000000000    0.9098000000000001 C
   0.8682500000000000    0.7658500000000000    0.0063800000000000 C
   0.7311800000000001    0.6742200000000000    0.0193400000000000 C
   0.7762600000000000    0.6554100000000000    0.9802000000000000 C
   0.6391400000000000    0.5681400000000000    0.9868000000000000 C
   0.6629600000000000    0.6293400000000000    0.0227500000000000 C
   0.7534500000000000    0.5912300000000000    0.9450100000000000 C
   0.6846800000000000    0.5492100000000000    0.9480000000000000 C
   0.5580400000000000    0.1562200000000000    0.0602200000000000 C
   0.4946100000000000    0.1132500000000000    0.0770000000000000 C
   0.4382700000000000    0.1401600000000000    0.0004800000000000 C
   0.5019100000000000    0.1823500000000000    0.9833100000000000 C
   0.5627100000000000    0.1906200000000000    0.0128300000000000 C
   0.4333700000000000    0.1039900000000000    0.0475400000000000 C
   0.3661100000000000    0.9863600000000000    0.0991100000000000 C
   0.3022600000000000    0.9444399999999999    0.1161500000000000 C
   0.2349600000000000    0.0443000000000000    0.0655700000000000 C
   0.2986400000000000    0.0870300000000000    0.0489300000000000 C
   0.2356900000000000    0.9731600000000000    0.0997000000000000 C
   0.3656200000000000    0.0588900000000000    0.0653600000000000 C
   0.9618900000000000    0.0334600000000000    0.2822400000000000 C
   0.9261200000000001    0.7723200000000000    0.1667600000000000 C
   0.1666900000000000    0.9286200000000000    0.1178100000000000 C
   0.9429600000000000    0.9073600000000001    0.2217000000000000 C
   0.9685500000000000    0.8542500000000000    0.1837900000000000 C
   0.0548100000000000    0.0000100000000000    0.2196800000000000 C
   0.9871200000000000    0.9796300000000000    0.2399600000000000 C
   0.0359700000000000    0.8750500000000000    0.1624300000000000 C
   0.0787700000000000    0.9494500000000000    0.1798900000000000 C
   0.8845200000000000    0.3529900000000000    0.9346300000000000 C
   0.8423500000000000    0.5148600000000000    0.0901600000000000 C
   0.6317300000000000    0.2341200000000000    0.9936100000000000 C
   0.7688000000000000    0.3257700000000000    0.9806500000000000 C
   0.7237100000000000    0.3445800000000000    0.0197000000000000 C
   0.8608200000000000    0.4318600000000000    0.0131200000000000 C
   0.8370000000000000    0.3706500000000000    0.9772400000000000 C
   0.7465200000000000    0.4087600000000000    0.0549700000000000 C
   0.8152800000000000    0.4507800000000000    0.0519800000000000 C
   0.9421600000000000    0.3427100000000000    0.5603700000000000 C
   0.0000000000000000    0.3854600000000000    0.5775000000000000 C
   0.9988600000000000    0.3181500000000000    0.4833600000000000 C
   0.0623600000000000    0.3602000000000000    0.5006600000000000 C
   0.9378700000000000    0.3091200000000000    0.5128600000000000 C
   0.0668800000000000    0.3954900000000000    0.5478700000000000 C
   0.1334800000000000    0.5123000000000000    0.5999400000000000 C
   0.1970900000000000    0.5542000000000000    0.6171600000000000 C
   0.2016400000000000    0.4128800000000000    0.5494400000000000 C
   0.2650900000000000    0.4555400000000000    0.5662900000000000 C
   0.2639100000000000    0.5261300000000000    0.6006899999999999 C
   0.1344200000000000    0.4404300000000000    0.5659200000000000 C
   0.5378800000000000    0.4664500000000000    0.7823400000000000 C
   0.5734900000000001    0.7277200000000000    0.6666666666666666 C
   0.3326400000000000    0.5710800000000000    0.6187200000000000 C
   0.4447700000000000    0.5000000000000000    0.7202200000000000 C
   0.5125200000000000    0.5202900000000000    0.7401500000000000 C
   0.5566200000000000    0.5925800000000000    0.7216700000000000 C
   0.5309199999999999    0.6458400000000000    0.6838700000000000 C
   0.4634100000000000    0.6251600000000000    0.6628600000000000 C
   0.4206700000000000    0.5506799999999999    0.6805400000000000 C
   0.6175300000000000    0.1469300000000000    0.4331900000000000 C
   0.6570300000000000    0.9843900000000000    0.5892100000000000 C
   0.8689700000000000    0.2658800000000000    0.4935200000000000 C
   0.7322200000000000    0.1742300000000000    0.4799600000000000 C
   0.7765700000000000    0.1553600000000000    0.5192600000000001 C
   0.6397300000000000    0.0677700000000000    0.5119500000000000 C
   0.6641500000000000    0.1292000000000000    0.4761700000000000 C
   0.7532500000000000    0.0908200000000000    0.5543700000000000 C
   0.6845599999999999    0.0487300000000000    0.5510699999999999 C
   0.9380600000000000    0.9113000000000000    0.5701400000000000 O
   0.1312600000000000    0.2109600000000000    0.4042500000000000 O
   0.0619200000000000    0.0886700000000000    0.4298400000000000 O
   0.0895900000000000    0.9697100000000000    0.5933000000000000 O
   0.2032200000000000    0.9463400000000000    0.6171500000000000 O
   0.3434600000000000    0.1953300000000000    0.5269000000000000 O
   0.9903000000000000    0.4300600000000000    0.8106500000000000 O
   0.1059200000000000    0.4613700000000000    0.7871500000000000 O
   0.0528400000000000    0.7729600000000000    0.6298000000000000 O
   0.1310800000000000    0.7537500000000000    0.6897000000000000 O
   0.8554800000000000    0.5232200000000000    0.6622300000000000 O
   0.9905000000000000    0.9302500000000000    0.6896000000000000 O
   0.1061500000000000    0.9613900000000000    0.7127000000000000 O
   0.0530300000000000    0.2728200000000000    0.8701100000000001 O
   0.1315000000000000    0.2538700000000000    0.8101200000000000 O
   0.8561000000000000    0.0231000000000000    0.8387900000000000 O
   0.1284300000000000    0.7112500000000000    0.0941900000000000 O
   0.0599200000000000    0.5886100000000000    0.0686900000000000 O
   0.0903100000000000    0.4689700000000000    0.9062200000000000 O
   0.2039400000000000    0.4484400000000000    0.8813600000000000 O
   0.3433400000000000    0.6952400000000000    0.9730200000000000 O
   0.5096800000000000    0.5699200000000000    0.1893300000000000 O
   0.3940600000000000    0.5386100000000000    0.2128300000000000 O
   0.4471500000000000    0.2270200000000000    0.3701900000000000 O
   0.3689000000000000    0.2462300000000000    0.3102700000000000 O
   0.6444900000000000    0.4767600000000000    0.3377600000000000 O
   0.3687300000000000    0.7890200000000001    0.5957300000000000 O
   0.4380700000000000    0.9112900000000000    0.5701400000000000 O
   0.4104000000000000    0.0302700000000000    0.4066300000000000 O
   0.2967700000000000    0.0536300000000000    0.3828300000000000 O
   0.1565300000000000    0.8046400000000000    0.4730000000000000 O
   0.5094700000000000    0.0697400000000000    0.3103800000000000 O
   0.3938300000000000    0.0385900000000000    0.2872900000000000 O
   0.4469600000000000    0.7271600000000000    0.1298800000000000 O
   0.3684900000000000    0.7461100000000001    0.1898000000000000 O
   0.6438800000000000    0.9768700000000000    0.1612100000000000 O
   0.3715700000000000    0.2887400000000000    0.9057900000000000 O
   0.4400600000000000    0.4114000000000000    0.9312900000000000 O
   0.4096700000000000    0.5310100000000000    0.0937000000000000 O
   0.2960500000000000    0.5515500000000000    0.1186200000000000 O
   0.1566500000000000    0.3047500000000000    0.0269700000000000 O
   1.0096900000000000    0.5699200000000000    0.1893300000000000 O
   0.8940600000000000    0.5386100000000000    0.2128300000000000 O
   0.4905100000000000    0.9302500000000000    0.6896000000000000 O
   0.6061500000000000    0.9613900000000000    0.7127000000000000 O
   0.5530200000000000    0.2728200000000000    0.8701100000000001 O
   0.6314900000000000    0.2538700000000000    0.8101200000000000 O
   0.3561000000000000    0.0231100000000000    0.8387800000000000 O
   0.6284200000000000    0.7112500000000000    0.0941900000000000 O
   0.5599100000000000    0.5886100000000000    0.0686900000000000 O
   0.5903000000000000    0.4689700000000000    0.9062200000000000 O
   0.7039299999999999    0.4484400000000000    0.8813600000000000 O
   0.8433300000000000    0.6952400000000000    0.9730200000000000 O
   0.0094800000000000    0.0697300000000000    0.3103800000000000 O
   0.8938300000000000    0.0385900000000000    0.2872900000000000 O
   0.9469500000000000    0.7271600000000000    0.1298800000000000 O
   0.8684800000000000    0.7461100000000001    0.1898000000000000 O
   0.1438900000000000    0.9768700000000000    0.1612000000000000 O
   0.8715600000000000    0.2887400000000000    0.9057900000000000 O
   0.9400500000000001    0.4114000000000000    0.9312900000000000 O
   0.9096700000000000    0.5310100000000000    0.0937000000000000 O
   0.7960400000000000    0.5515500000000000    0.1186200000000000 O
   0.6566500000000000    0.3047400000000000    0.0269700000000000 O
   0.4903000000000000    0.4300600000000000    0.8106500000000000 O
   0.6059200000000000    0.4613700000000000    0.7871500000000000 O
   0.6310800000000000    0.7537500000000000    0.6897000000000000 O
   0.5528300000000000    0.7729600000000000    0.6290000000000000 O
   0.3554900000000000    0.5232200000000000    0.6622300000000000 O
   0.6312500000000000    0.2109600000000000    0.4042500000000000 O
   0.5619100000000000    0.0886800000000000    0.4298400000000000 O
   0.5895800000000000    0.9697100000000000    0.5933000000000000 O
   0.7032100000000000    0.9463400000000000    0.6171500000000000 O
   0.8434500000000000    0.1953300000000000    0.5269000000000000 O
   0.9471400000000000    0.2270200000000000    0.3701900000000000 O
   0.8689000000000000    0.2462300000000000    0.3102700000000000 O