H18 C30 O10
1.0
  18.6259498180625194    0.0000000000000000    0.0432362696924546
  -0.6449900146919455   14.5216738684699003    0.0164905653672926
   0.0000000000000000    0.0000000000000000   27.6490000000000009
H C O
18 30 10
direct
   0.0553200000000000    0.3305900000000000    0.3657800000000000 H
   0.0896800000000000    0.5556100000000000    0.2649300000000000 H
   0.8907600000000000    0.3915600000000000    0.2627000000000000 H
   0.1736100000000000    0.3557800000000000    0.3729200000000000 H
   0.1245600000000000    0.4338400000000000    0.4085500000000000 H
   0.3048500000000000    0.3901700000000000    0.3564000000000000 H
   0.4178800000000000    0.4635100000000000    0.3875800000000000 H
   0.2959100000000000    0.6435500000000000    0.4763200000000000 H
   0.1833400000000000    0.5659400000000000    0.4473000000000000 H
   0.4922400000000000    0.5903000000000000    0.3851800000000000 H
   0.6040200000000000    0.6664099999999999    0.4155000000000000 H
   0.5032600000000000    0.7082500000000000    0.5534800000000000 H
   0.3908700000000000    0.6342700000000000    0.5230100000000000 H
   0.6223000000000000    0.7640800000000000    0.5424700000000000 H
   0.6721400000000000    0.6820600000000000    0.5101500000000000 H
   0.7111800000000000    0.9247200000000000    0.4157900000000000 H
   0.9133100000000000    0.9658700000000000    0.4907400000000000 H
   0.7509200000000000    0.7778800000000000    0.5485600000000000 H
   0.5011200000000000    0.6818200000000000    0.5166200000000000 C
   0.4376400000000000    0.6397600000000000    0.4993200000000000 C
   0.9690500000000000    0.3541400000000000    0.3161100000000000 C
   0.0365800000000000    0.3748100000000000    0.3371200000000000 C
   0.0793100000000000    0.4493000000000000    0.3194400000000000 C
   0.0552200000000000    0.4999800000000000    0.2797600000000000 C
   0.9874500000000000    0.4797000000000000    0.2598300000000000 C
   0.9433500000000000    0.4074000000000000    0.2783100000000000 C
   0.9264900000000000    0.2722600000000000    0.3332800000000000 C
   0.9620900000000000    0.5335299999999999    0.2176000000000000 C
   0.1673500000000000    0.4288900000000000    0.3812600000000000 C
   0.2360800000000000    0.4738400000000000    0.3992900000000000 C
   0.3028900000000000    0.4457700000000000    0.3828200000000000 C
   0.3665100000000000    0.4876700000000000    0.4000400000000000 C
   0.3655700000000000    0.5595300000000000    0.4340700000000000 C
   0.2983600000000000    0.5870800000000000    0.4505500000000000 C
   0.2349000000000000    0.5444300000000000    0.4337000000000000 C
   0.4331200000000000    0.6044700000000000    0.4521100000000000 C
   0.4945500000000000    0.6145100000000000    0.4224800000000000 C
   0.5578100000000000    0.6572600000000000    0.4396000000000000 C
   0.5621100000000000    0.6908500000000000    0.4871200000000000 C
   0.6310000000000000    0.7340900000000000    0.5064600000000000 C
   0.7234000000000000    0.8446100000000000    0.4807200000000000 C
   0.7467200000000001    0.9091500000000000    0.4456000000000000 C
   0.8154100000000000    0.9512400000000000    0.4489100000000000 C
   0.8602400000000000    0.9322000000000000    0.4880300000000000 C
   0.8358200000000000    0.8707700000000000    0.5238100000000000 C
   0.7677500000000000    0.8257400000000000    0.5200200000000000 C
   0.8429500000000000    0.0155900000000000    0.4107700000000000 C
   0.8824400000000000    0.8530500000000000    0.5668000000000000 C
   0.8689000000000000    0.2462300000000000    0.3102700000000000 O
   0.9471400000000000    0.2270200000000000    0.3701900000000000 O
   0.1445000000000000    0.4767600000000000    0.3377600000000000 O
   0.6565200000000000    0.8046400000000000    0.4730000000000000 O
   0.8687300000000000    0.7890200000000001    0.5957300000000000 O
   0.9380600000000000    0.9113000000000000    0.5701400000000000 O
   0.9103900000000000    0.0302700000000000    0.4066300000000000 O
   0.8940600000000000    0.5386100000000000    0.2128300000000000 O
   1.0096900000000000    0.5699200000000000    0.1893300000000000 O
   0.7967600000000000    0.0536300000000000    0.3828300000000000 O
