H20 C16 N4
1.0
  15.9673138026519297    0.0000000000000000   -4.4020289557931305
  -5.7802402534578947   14.8780474168912562   -4.4457045193130398
   0.0000000000000000    0.0000000000000000   16.5710000000000015
H C N
20 16 4
direct
   0.7444800000000000    0.4681800000000000    0.9097000000000000 H
   0.7654900000000000    0.3703300000000000    0.8669000000000000 H
   0.1328200000000000    0.6297400000000000    0.2346000000000000 H
   0.0903500000000000    0.5319700000000001    0.2555000000000000 H
   0.8555199999999999    0.5977600000000000    0.7884100000000001 H
   0.9031900000000000    0.6131700000000000    0.9034200000000000 H
   0.7881800000000000    0.5978700000000000    0.8558200000000000 H
   0.6740200000000000    0.4468100000000000    0.7415900000000000 H
   0.7080900000000000    0.3542100000000000    0.7079800000000001 H
   0.7416400000000000    0.4466300000000000    0.6739900000000000 H
   0.2555400000000000    0.5318700000000000    0.0903000000000000 H
   0.2345200000000000    0.6297199999999999    0.1330000000000000 H
   0.8672000000000000    0.3703100000000000    0.7653500000000000 H
   0.9096600000000000    0.4680800000000000    0.7444400000000000 H
   0.1445000000000000    0.4022900000000000    0.2115900000000000 H
   0.0968300000000000    0.3868800000000000    0.0965800000000000 H
   0.2118400000000000    0.4021900000000000    0.1441800000000000 H
   0.3259900000000000    0.5532400000000000    0.2584100000000000 H
   0.2919200000000000    0.6458400000000000    0.2920200000000000 H
   0.2583900000000000    0.5534200000000000    0.3260100000000000 H
   0.2047100000000000    0.5556300000000000    0.1091500000000000 C
   0.1853200000000000    0.5261400000000001    0.1852800000000000 C
   0.8909200000000000    0.4444000000000000    0.7952500000000000 C
   0.1576800000000000    0.4235600000000000    0.1574400000000000 C
   0.0276600000000000    0.5250800000000000    0.1221800000000000 C
   0.0381600000000000    0.5125000000000000    0.0381800000000000 C
   0.8778500000000000    0.4748900000000000    0.9723000000000001 C
   0.7953000000000000    0.4444200000000000    0.8908500000000000 C
   0.8147000000000000    0.4739100000000000    0.8147300000000000 C
   0.1091000000000000    0.5556500000000000    0.2047500000000000 C
   0.8423400000000000    0.5765000000000000    0.8425600000000000 C
   0.7297400000000001    0.4276600000000000    0.7297000000000000 C
   0.9723500000000000    0.4749700000000000    0.8778300000000000 C
   0.9618500000000000    0.4875500000000000    0.9618200000000000 C
   0.1221600000000000    0.5251800000000000    0.0277100000000000 C
   0.2702800000000000    0.5724000000000000    0.2703100000000000 C
   0.0530300000000000    0.4866900000000000    0.8709000000000000 N
   0.1291200000000000    0.5136300000000000    0.9470000000000000 N
   0.9469900000000000    0.5133600000000000    0.1291100000000000 N
   0.8708900000000001    0.4864200000000000    0.0530100000000000 N
