H8 O4
1.0
  15.9673138026519297    0.0000000000000000   -4.4020289557931305
  -5.7802402534578947   14.8780474168912562   -4.4457045193130398
   0.0000000000000000    0.0000000000000000   16.5710000000000015
H O
8 4
direct
   0.8887643297017020    0.5006611264285079    0.1241418326608646 H
   0.8759713445035261    0.4990351779527543    0.1112059098554365 H
   0.8759734350285292    0.4779987347875085   -0.0059388564874406 H
   1.0059571102289413    0.5219269335798090    0.1240443984890720 H
   0.1112558860975500    0.4993874225409572    0.8758686123737198 H
   0.1240568016178319    0.5010077793639937    0.8888003665685626 H
  -0.0059372524835100    0.4781241075965947    0.8759649858665186 H
   0.1240364363060762    0.5220660863024167    1.0059503485253725 H
   0.8708900000000001    0.4864200000000000    0.0530100000000000 O
   0.9469900000000000    0.5133600000000000    0.1291100000000000 O
   0.1291200000000000    0.5136300000000000    0.9470000000000000 O
   0.0530300000000000    0.4866900000000000    0.8709000000000000 O
