H2 O2
1.0
  20.6618056724889527    0.0000000000000000   -2.5453703762524382
  -1.9043609072758569   13.5490847585778305   -3.7391934611241209
   0.0000000000000000    0.0000000000000000   14.2119999999999997
H O
2 2
direct
   0.3220867090438845    0.7843675700864824    0.3972691420871177 H
   0.6779199926048189    0.2156503050113873    0.6026934000490773 H
   0.2881100000000000    0.8240300000000000    0.3837900000000000 O
   0.7118900000000000    0.1759800000000000    0.6161799999999999 O
