H6 O4
1.0
  15.2490616118470133    0.0000000000000000    7.9608368880472504
   7.6121268638710138   16.4409020114668891    3.9724765144273877
   0.0000000000000000    0.0000000000000000   37.1120000000000019
H O
6 4
direct
   0.5784113945471002    0.6018247732270604    0.8242351461770450 H
   0.6485880013362477    0.4586063722596869    0.8955940844502255 H
   0.6443798489522972    0.5383449518432672    0.8558362170488537 H
   0.4215412281814013    0.3983437410428719    0.9257949092895780 H
   0.3513806687053875    0.5415745949069604    0.8543984978413884 H
   0.3555840405639148    0.4618268244600696    0.8941639958458232 H
   0.5510500000000000    0.5653400000000000    0.8424499999999999 O
   0.5959900000000000    0.4738200000000000    0.8880500000000000 O
   0.4488900000000000    0.4348400000000000    0.9075850000000000 O
   0.4039500000000000    0.5263700000000000    0.8619600000000001 O
