H4 O2
1.0
  22.2176323249645478    0.0000000000000000   -0.4405654011499640
   0.0002934314972077   16.1679999874871605    0.0005643696668098
   0.0000000000000000    0.0000000000000000   15.9220000000000006
H O
4 2
direct
   0.7953870657141153    0.5000000000000000    0.7446901096718668 H
   0.7195376410040727    0.5000000000000000    0.7500947263761056 H
   0.7804844504588483    0.5000100000000000    0.2498402857106121 H
   0.7046125960910249    0.5000100000000000    0.2552488576346219 H
   0.7558900000000000    0.5000000000000000    0.7164000000000000 O
   0.7441200000000000    0.5000100000000000    0.2835100000000000 O
