H8 C10 N4
1.0
  22.2176323249645478    0.0000000000000000   -0.4405654011499640
   0.0002934314972077   16.1679999874871605    0.0005643696668098
   0.0000000000000000    0.0000000000000000   15.9220000000000006
H C N
8 10 4
direct
   0.8488800000000000    0.5000000000000000    0.7142600000000000 H
   0.6632600000000000    0.5000000000000000    0.7273700000000000 H
   0.6668700000000000    0.5000000000000000    0.8863700000000000 H
   0.8605200000000000    0.5000000000000000    0.8732500000000000 H
   0.6511300000000000    0.5000100000000000    0.2857000000000000 H
   0.8367599999999999    0.5000100000000000    0.2725900000000000 H
   0.8331400000000000    0.5000100000000000    0.1135900000000000 H
   0.6394900000000000    0.5000100000000000    0.1267100000000000 H
   0.8102000000000000    0.5000000000000000    0.7553000000000000 C
   0.7056900000000000    0.5000000000000000    0.7629300000000000 C
   0.7078000000000000    0.5000000000000000    0.8500000000000000 C
   0.7644200000000000    0.5000000000000000    0.8907000000000000 C
   0.8163400000000000    0.5000000000000000    0.8424000000000000 C
   0.6898100000000000    0.5000100000000000    0.2446600000000000 C
   0.7943200000000000    0.5000100000000000    0.2370300000000000 C
   0.7922100000000000    0.5000100000000000    0.1499000000000000 C
   0.7355900000000000    0.5000100000000000    0.1092000000000000 C
   0.6836700000000000    0.5000100000000000    0.1575600000000000 C
   0.7558900000000000    0.5000000000000000    0.7164000000000000 N
   0.7742000000000000    0.5000000000000000    0.9791500000000000 N
   0.7441200000000000    0.5000100000000000    0.2835100000000000 N
   0.7258100000000000    0.5000100000000000    0.0208100000000000 N
