H16 C34 O8
1.0
  22.2176323249645478    0.0000000000000000   -0.4405654011499640
   0.0002934314972077   16.1679999874871605    0.0005643696668098
   0.0000000000000000    0.0000000000000000   15.9220000000000006
H C O
16 34 8
direct
   0.5693600000000000    0.8368100000000001    0.3649200000000000 H
   0.6274000000000000    0.7023400000000000    0.6351400000000000 H
   0.6281900000000000    0.7049299999999999    0.3661100000000000 H
   0.5683900000000000    0.8340500000000000    0.6350400000000000 H
   0.4306500000000000    0.8368100000000001    0.6350400000000000 H
   0.3726100000000000    0.7023500000000000    0.3648200000000000 H
   0.3718100000000000    0.7049299999999999    0.6338500000000000 H
   0.4316200000000000    0.8340600000000000    0.3649200000000000 H
   0.4306500000000000    0.1631900000000000    0.6350400000000000 H
   0.3726100000000000    0.2976700000000000    0.3648200000000000 H
   0.3718200000000000    0.2950700000000000    0.6338500000000000 H
   0.4316200000000000    0.1659600000000000    0.3649200000000000 H
   0.5693600000000000    0.1632000000000000    0.3649200000000000 H
   0.6274000000000000    0.2976500000000000    0.6351400000000000 H
   0.6282000000000000    0.2950700000000000    0.3661100000000000 H
   0.5683900000000000    0.1659500000000000    0.6350400000000000 H
   0.6311000000000000    0.6956100000000000    0.5006000000000000 C
   0.5317600000000000    0.9238800000000000    0.4997800000000000 C
   0.5816600000000000    0.8069300000000000    0.4242200000000000 C
   0.6138800000000000    0.7320200000000000    0.5763000000000000 C
   0.6143300000000000    0.7334800000000000    0.4245800000000000 C
   0.5651600000000000    0.8439700000000000    0.4999400000000000 C
   0.6695700000000000    0.6194100000000000    0.5013400000000000 C
   0.5811300000000000    0.8054000000000000    0.5759900000000000 C
   0.3689000000000000    0.6956200000000000    0.4990000000000000 C
   0.4682500000000000    0.9238900000000000    0.5001800000000000 C
   0.4183500000000000    0.8069300000000000    0.5757400000000000 C
   0.3861300000000000    0.7320300000000000    0.4236000000000000 C
   0.3856700000000000    0.7334800000000000    0.5753800000000000 C
   0.4348500000000000    0.8439700000000000    0.5000200000000000 C
   0.3304400000000000    0.6194100000000000    0.4986200000000000 C
   0.4188800000000000    0.8054100000000000    0.4239700000000000 C
   0.3689100000000000    0.3043900000000000    0.4993000000000000 C
   0.4682500000000000    0.0761200000000000    0.5001800000000000 C
   0.4183500000000000    0.1930700000000000    0.5757400000000000 C
   0.3861300000000000    0.2679900000000000    0.4236200000000000 C
   0.3856800000000000    0.2665300000000000    0.5753800000000000 C
   0.4348500000000000    0.1560400000000000    0.5000200000000000 C
   0.3304400000000000    0.3806000000000000    0.4986200000000000 C
   0.4188800000000000    0.1946100000000000    0.4239700000000000 C
   0.6311000000000000    0.3043900000000000    0.5006699999999999 C
   0.5317600000000000    0.0761200000000000    0.4997800000000000 C
   0.5816600000000000    0.1930700000000000    0.4242200000000000 C
   0.6138800000000000    0.2679800000000000    0.5763500000000000 C
   0.6143400000000000    0.2665300000000000    0.4245800000000000 C
   0.5651600000000000    0.1560300000000000    0.4999400000000000 C
   0.6695700000000000    0.3805900000000000    0.5013400000000000 C
   0.5811300000000000    0.1946000000000000    0.5759900000000000 C
   0.5620900000000000    0.0000000000000000    0.4996200000000000 C
   0.4379200000000000    0.0000000000000000    0.5003400000000000 C
   0.6849600000000000    0.5905200000000000    0.4304100000000000 O
   0.6852100000000000    0.5903100000000000    0.5729500000000000 O
   0.3150500000000000    0.5905200000000000    0.5695500000000000 O
   0.3148000000000000    0.5903200000000000    0.4270100000000000 O
   0.3150500000000000    0.4094900000000000    0.5695500000000000 O
   0.3148000000000000    0.4096900000000000    0.4270100000000000 O
   0.6849600000000000    0.4094900000000000    0.4304100000000000 O
   0.6852100000000000    0.4096900000000000    0.5729500000000000 O
