Zn4 H40 C78 Br4 N4 O16
1.0
  22.2176323249645478    0.0000000000000000   -0.4405654011499640
   0.0002934314972077   16.1679999874871605    0.0005643696668098
   0.0000000000000000    0.0000000000000000   15.9220000000000006
Zn H C Br N O
4 40 78 4 4 16
direct
   0.7502200000000000    0.5000000000000000    0.5864000000000000 Zn
   0.2497900000000000    0.5000100000000000    0.4135600000000000 Zn
   0.7497900000000000    0.5000100000000000    0.4135600000000000 Zn
   0.2502200000000000    0.5000000000000000    0.5864000000000000 Zn
   0.0693500000000000    0.8368100000000001    0.3649200000000000 H
   0.5693600000000000    0.8368100000000001    0.3649200000000000 H
   0.1273900000000000    0.7023400000000000    0.6351400000000000 H
   0.6274000000000000    0.7023400000000000    0.6351400000000000 H
   0.1281900000000000    0.7049299999999999    0.3661100000000000 H
   0.6281900000000000    0.7049299999999999    0.3661100000000000 H
   0.0683900000000000    0.8340500000000000    0.6350400000000000 H
   0.5683900000000000    0.8340500000000000    0.6350400000000000 H
   0.4306500000000000    0.8368100000000001    0.6350400000000000 H
   0.9306500000000000    0.8368100000000001    0.6350400000000000 H
   0.3726100000000000    0.7023500000000000    0.3648200000000000 H
   0.8726100000000000    0.7023500000000000    0.3648200000000000 H
   0.3718100000000000    0.7049299999999999    0.6338500000000000 H
   0.8718200000000000    0.7049299999999999    0.6338500000000000 H
   0.4316200000000000    0.8340600000000000    0.3649200000000000 H
   0.9316200000000000    0.8340600000000000    0.3649200000000000 H
   0.4306500000000000    0.1631900000000000    0.6350400000000000 H
   0.9306500000000000    0.1631900000000000    0.6350400000000000 H
   0.3726100000000000    0.2976700000000000    0.3648200000000000 H
   0.8726100000000000    0.2976700000000000    0.3648200000000000 H
   0.3718200000000000    0.2950700000000000    0.6338500000000000 H
   0.8718200000000000    0.2950700000000000    0.6338000000000000 H
   0.4316200000000000    0.1659600000000000    0.3649200000000000 H
   0.9316200000000000    0.1659600000000000    0.3649200000000000 H
   0.0693600000000000    0.1632000000000000    0.3649200000000000 H
   0.5693600000000000    0.1632000000000000    0.3649200000000000 H
   0.1273900000000000    0.2976600000000000    0.6351400000000000 H
   0.6274000000000000    0.2976500000000000    0.6351400000000000 H
   0.1281900000000000    0.2950800000000000    0.3661100000000000 H
   0.6282000000000000    0.2950700000000000    0.3661100000000000 H
   0.0683900000000000    0.1659500000000000    0.6350400000000000 H
   0.5683900000000000    0.1659500000000000    0.6350400000000000 H
   0.3488800000000000    0.4999800000000000    0.7142600000000000 H
   0.1632500000000000    0.5000000000000000    0.7273700000000000 H
   0.1668700000000000    0.4999900000000000    0.8863000000000000 H
   0.3605100000000000    0.4999700000000000    0.8732500000000000 H
   0.1511300000000000    0.5000300000000000    0.2857000000000000 H
   0.3367500000000000    0.5000100000000000    0.2720000000000000 H
   0.3331300000000000    0.5000100000000000    0.1135900000000000 H
   0.1394900000000000    0.5000400000000000    0.1267100000000000 H
   0.1311000000000000    0.6956100000000000    0.5006000000000000 C
   0.6311000000000000    0.6956100000000000    0.5006000000000000 C
   0.0317600000000000    0.9238800000000000    0.4997800000000000 C
   0.5317600000000000    0.9238800000000000    0.4997800000000000 C
   0.0816600000000000    0.8069300000000000    0.4242200000000000 C
   0.5816600000000000    0.8069300000000000    0.4242200000000000 C
   0.1138700000000000    0.7320200000000000    0.5763000000000000 C
   0.6138800000000000    0.7320200000000000    0.5763000000000000 C
   0.1143300000000000    0.7334800000000000    0.4245800000000000 C
   0.6143300000000000    0.7334800000000000    0.4245800000000000 C
   0.0651500000000000    0.8439700000000000    0.4999400000000000 C
   0.5651600000000000    0.8439700000000000    0.4999400000000000 C
   0.1695700000000000    0.6194100000000000    0.5013400000000000 C
   0.6695700000000000    0.6194100000000000    0.5013400000000000 C
   0.0811200000000000    0.8054000000000000    0.5759900000000000 C
   0.5811300000000000    0.8054000000000000    0.5759900000000000 C
   0.3689000000000000    0.6956200000000000    0.4990000000000000 C
   0.8689100000000000    0.6956200000000000    0.4992900000000000 C
   0.4682500000000000    0.9238900000000000    0.5001800000000000 C
   0.9682500000000001    0.9238900000000000    0.5001800000000000 C
   0.4183500000000000    0.8069300000000000    0.5757400000000000 C
   0.9183500000000000    0.8069300000000000    0.5757400000000000 C
   0.3861300000000000    0.7320300000000000    0.4236000000000000 C
   0.8861400000000000    0.7320300000000000    0.4236100000000000 C
   0.3856700000000000    0.7334800000000000    0.5753800000000000 C
   0.8856800000000000    0.7334800000000000    0.5753800000000000 C
   0.4348500000000000    0.8439700000000000    0.5000200000000000 C
   0.9348500000000000    0.8439700000000000    0.5000200000000000 C
   0.3304400000000000    0.6194100000000000    0.4986200000000000 C
   0.8304400000000000    0.6194100000000000    0.4986200000000000 C
   0.4188800000000000    0.8054100000000000    0.4239700000000000 C
   0.9188800000000000    0.8054100000000000    0.4239700000000000 C
   0.3689100000000000    0.3043900000000000    0.4993000000000000 C
   0.8689100000000000    0.3043900000000000    0.4993000000000000 C
   0.4682500000000000    0.0761200000000000    0.5001800000000000 C
   0.9682500000000001    0.0761200000000000    0.5001800000000000 C
   0.4183500000000000    0.1930700000000000    0.5757400000000000 C
   0.9183500000000000    0.1930700000000000    0.5757400000000000 C
   0.3861300000000000    0.2679900000000000    0.4236200000000000 C
   0.8861300000000000    0.2679900000000000    0.4236200000000000 C
   0.3856800000000000    0.2665300000000000    0.5753800000000000 C
   0.8856800000000000    0.2665300000000000    0.5753800000000000 C
   0.4348500000000000    0.1560400000000000    0.5000200000000000 C
   0.9348600000000000    0.1560400000000000    0.5000200000000000 C
   0.3304400000000000    0.3806000000000000    0.4986200000000000 C
   0.8304400000000000    0.3806000000000000    0.4986200000000000 C
   0.4188800000000000    0.1946100000000000    0.4239700000000000 C
   0.9188800000000000    0.1946100000000000    0.4239700000000000 C
   0.1311000000000000    0.3043900000000000    0.5006699999999999 C
   0.6311000000000000    0.3043900000000000    0.5006699999999999 C
   0.0317600000000000    0.0761200000000000    0.4997800000000000 C
   0.5317600000000000    0.0761200000000000    0.4997800000000000 C
   0.0816600000000000    0.1930800000000000    0.4242200000000000 C
   0.5816600000000000    0.1930700000000000    0.4242200000000000 C
   0.1138700000000000    0.2679800000000000    0.5763500000000000 C
   0.6138800000000000    0.2679800000000000    0.5763500000000000 C
   0.1143300000000000    0.2665300000000000    0.4245800000000000 C
   0.6143400000000000    0.2665300000000000    0.4245800000000000 C
   0.0651500000000000    0.1560300000000000    0.4999400000000000 C
   0.5651600000000000    0.1560300000000000    0.4999400000000000 C
   0.1695700000000000    0.3806000000000000    0.5013400000000000 C
   0.6695700000000000    0.3805900000000000    0.5013400000000000 C
   0.0811300000000000    0.1946000000000000    0.5759900000000000 C
   0.5811300000000000    0.1946000000000000    0.5759900000000000 C
   0.3102000000000000    0.4999800000000000    0.7553000000000000 C
   0.2056800000000000    0.5000000000000000    0.7629000000000000 C
   0.2078000000000000    0.4999900000000000    0.8500100000000000 C
   0.2644200000000000    0.4999900000000000    0.8907700000000000 C
   0.3163400000000000    0.4999800000000000    0.8424000000000000 C
   0.1898100000000000    0.5000200000000000    0.2446600000000000 C
   0.2943200000000000    0.5000100000000000    0.2370300000000000 C
   0.2922100000000000    0.5000100000000000    0.1499600000000000 C
   0.2355900000000000    0.5000200000000000    0.1090000000000000 C
   0.1836700000000000    0.5000300000000000    0.1575600000000000 C
   0.0620900000000000    0.0000000000000000    0.4996200000000000 C
   0.5620900000000000    0.0000000000000000    0.4996200000000000 C
   0.4379200000000000    0.0000000000000000    0.5003400000000000 C
   0.9379200000000000    0.0000000000000000    0.5003400000000000 C
   0.1486800000000000    0.9999900000000000    0.4998200000000000 Br
   0.6486800000000000    0.9999900000000000    0.4998200000000000 Br
   0.3513300000000000    0.0000100000000000    0.5001400000000000 Br
   0.8513300000000000    0.0000100000000000    0.5001400000000000 Br
   0.2558800000000000    0.4999900000000000    0.7164000000000000 N
   0.2742000000000000    0.4999800000000000    0.9791500000000000 N
   0.2441200000000000    0.5000100000000000    0.2835100000000000 N
   0.2258100000000000    0.5000200000000000    0.0208100000000000 N
   0.1849600000000000    0.5905200000000000    0.4304100000000000 O
   0.6849600000000000    0.5905200000000000    0.4304100000000000 O
   0.1852100000000000    0.5903100000000000    0.5729500000000000 O
   0.6852100000000000    0.5903100000000000    0.5729500000000000 O
   0.3150500000000000    0.5905200000000000    0.5695500000000000 O
   0.8150500000000001    0.5905200000000000    0.5695500000000000 O
   0.3148000000000000    0.5903200000000000    0.4270100000000000 O
   0.8148000000000000    0.5903200000000000    0.4270100000000000 O
   0.3150500000000000    0.4094900000000000    0.5695500000000000 O
   0.8150500000000001    0.4094900000000000    0.5695500000000000 O
   0.3148000000000000    0.4096900000000000    0.4270100000000000 O
   0.8148000000000000    0.4096900000000000    0.4270100000000000 O
   0.1849600000000000    0.4094900000000000    0.4304100000000000 O
   0.6849600000000000    0.4094900000000000    0.4304100000000000 O
   0.1852100000000000    0.4096900000000000    0.5729500000000000 O
   0.6852100000000000    0.4096900000000000    0.5729500000000000 O
