H4 C6 N1 O2
1.0
  15.9657088802013298    0.0000000000000000    0.0964155208479386
   1.0877398435903378   14.3998747850284232    0.0539370760117913
   0.0000000000000000    0.0000000000000000   28.9059999999999988
H C N O
4 6 1 2
direct
   0.3055250000000000    0.8159100000000000    0.0609100000000000 H
   0.2472850000000000    0.9283700000000000    0.1217900000000000 H
   0.1453100000000000    0.7179000000000000    0.1956500000000000 H
   0.2027950000000000    0.5971800000000000    0.1389950000000000 H
   0.2988200000000000    0.6278200000000000    0.0618250000000000 C
   0.2586300000000000    0.6978200000000000    0.0955100000000000 C
   0.2697700000000000    0.7924500000000000    0.0903300000000000 C
   0.2369150000000000    0.8546500000000000    0.1236200000000000 C
   0.1812250000000000    0.7369100000000000    0.1653000000000000 C
   0.2131700000000000    0.6701700000000000    0.1339800000000000 C
   0.1929350000000000    0.8280999999999999    0.1607300000000000 N
   0.3297000000000000    0.6601800000000000    0.0252300000000000 O
   0.2998850000000000    0.5428700000000000    0.0741400000000000 O
