H9 C15 N6
1.0
  18.5770000000000017    0.0000000000000000    0.0000000000000011
   0.0000000000000030   18.5829999971696438   -0.0003243345348838
   0.0000000000000000    0.0000000000000000   37.1659999999999968
H C N
9 15 6
direct
   0.7192300000000000    0.8686199999999999    0.7225000000000000 H
   0.8686900000000000    0.5548999999999999    0.6403950000000000 H
   0.5550300000000000    0.7192900000000000    0.5655800000000000 H
   0.8688200000000000    0.7193300000000000    0.7224750000000000 H
   0.5550600000000000    0.8688399999999999    0.6402850000000000 H
   0.7193300000000000    0.5549500000000001    0.5656200000000000 H
   0.7717900000000000    0.7717600000000000    0.6958550000000000 H
   0.7718200000000000    0.6082400000000000    0.6140950000000001 H
   0.6082600000000000    0.7717700000000000    0.6140750000000000 H
   0.6730200000000000    0.8778000000000000    0.7054000000000000 C
   0.6568400000000000    0.7485700000000000    0.6256500000000000 C
   0.8778500000000000    0.5890500000000000    0.6635000000000000 C
   0.5891400000000000    0.6730200000000000    0.5609999999999999 C
   0.8778899999999999    0.6730400000000000    0.7054350000000000 C
   0.5891400000000000    0.8778899999999999    0.6634300000000000 C
   0.6730800000000000    0.5890800000000000    0.5610500000000000 C
   0.6868000000000000    0.7799800000000000    0.6565750000000000 C
   0.6525000000000000    0.8422100000000000    0.6737299999999999 C
   0.7800200000000000    0.6867799999999999    0.6565900000000000 C
   0.8422400000000000    0.6524600000000000    0.6737550000000000 C
   0.6868200000000000    0.6867799999999999    0.6099750000000000 C
   0.6525300000000001    0.6524600000000000    0.5788600000000000 C
   0.7486000000000000    0.7485600000000000    0.6715700000000000 C
   0.7486100000000000    0.6568000000000001    0.6256900000000000 C
   0.6250800000000000    0.9299700000000000    0.7133900000000000 N
   0.9299900000000000    0.5731300000000000    0.6874850000000000 N
   0.5732300000000000    0.6250800000000000    0.5349699999999999 N
   0.9300200000000000    0.6250800000000000    0.7134100000000000 N
   0.5732100000000000    0.9300100000000000    0.6874100000000000 N
   0.6251300000000000    0.5731500000000000    0.5349800000000000 N
