H12 C12 N4
1.0
  22.9234197740693944    0.0000000000000000   11.4456852071776041
   5.6944163912569525   12.7826637298226000    2.8452644750992726
   0.0000000000000000    0.0000000000000000   28.3799999999999990
H C N
12 12 4
direct
   0.1791500000000000    0.2414400000000000    0.0434000000000000 H
   0.1464650000000000    0.3705700000000000    0.0655000000000000 H
   0.1793250000000000    0.0870500000000000    0.1197000000000000 H
   0.1471000000000000    0.1283200000000000    0.1851600000000000 H
   0.2038650000000000    0.2364700000000000    0.1189050000000000 H
   0.1232950000000000    0.3124000000000000    0.1577000000000000 H
   0.8593299999999999    0.4104100000000000    0.1294850000000000 H
   0.8917700000000000    0.3693500000000000    0.0639700000000000 H
   0.8595550000000001    0.2558400000000000    0.2056200000000000 H
   0.8925799999999999    0.1267100000000000    0.1834400000000000 H
   0.8352299999999999    0.2606600000000000    0.1299550000000000 H
   0.9158999999999999    0.1850700000000000    0.0912400000000000 H
   0.0781600000000000    0.3068400000000000    0.0843650000000000 C
   0.1425050000000000    0.2949500000000000    0.0769450000000000 C
   0.0783500000000000    0.1677600000000000    0.1533650000000000 C
   0.1427850000000000    0.1526200000000000    0.1473050000000000 C
   0.0493000000000000    0.2432800000000000    0.1218300000000000 C
   0.1547100000000000    0.2521100000000000    0.1267500000000000 C
   0.9603900000000001    0.3300100000000000    0.0958500000000000 C
   0.8960250000000001    0.3449800000000000    0.1018500000000000 C
   0.9605950000000000    0.1909300000000000    0.1648450000000000 C
   0.8963800000000000    0.2024700000000000    0.1721000000000000 C
   0.9894450000000000    0.2545200000000000    0.1274100000000000 C
   0.8843099999999999    0.2452700000000000    0.1222300000000000 C
   0.0490200000000000    0.3766100000000000    0.0551750000000000 N
   0.0492600000000000    0.1092700000000000    0.1881350000000000 N
   0.9893400000000000    0.3888700000000000    0.0613000000000000 N
   0.9896199999999999    0.1214800000000000    0.1941850000000000 N
