H3 C8 O5
1.0
  26.1738560864648449    0.0000000000000000    0.0867961118207212
  -0.0238076758920970   16.1953918993124404   -4.6072723407948928
   0.0000000000000000    0.0000000000000000   27.9200000000000017
H C O
3 8 5
direct
   0.1748450000000000    0.4927400000000000    0.8603950000000000 H
   0.0369700000000000    0.4952900000000000    0.7742400000000000 H
   0.1347550000000000    0.7094100000000000    0.8143950000000000 H
   0.2036750000000000    0.6523800000000000    0.8700100000000000 C
   0.1592700000000000    0.6060300000000000    0.8411950000000000 C
   0.1495850000000000    0.5253000000000000    0.8413200000000001 C
   0.1046050000000000    0.4833900000000000    0.8171500000000000 C
   0.0710100000000000    0.5266800000000000    0.7924550000000000 C
   0.0822300000000000    0.6060900000000000    0.7910750000000000 C
   0.0498100000000000    0.6477100000000000    0.7605050000000000 C
   0.1262850000000000    0.6465200000000000    0.8154250000000001 C
   0.2355650000000000    0.6104500000000000    0.8873350000000000 O
   0.2043600000000000    0.7294400000000000    0.8749350000000000 O
   0.0955900000000000    0.4090200000000000    0.8192200000000001 O
   0.0032300000000000    0.6191200000000000    0.7523000000000000 O
   0.0689350000000000    0.7020100000000000    0.7435000000000000 O
