H4 C7 O2
1.0
  13.1440000000000001    0.0000000000000000    0.0000000000000008
   0.0000000000000042   26.0259999999999998    0.0000000000000016
   0.0000000000000000    0.0000000000000000   23.5109999999999992
H C O
4 7 2
direct
   0.6643600000000000    0.8132450000000000    0.8018900000000000 H
   0.6632800000000000    0.8831599999999999    0.8736400000000000 H
   0.3356500000000000    0.8132450000000000    0.8018900000000000 H
   0.3367300000000000    0.8831599999999999    0.8736400000000000 H
   0.5918099999999999    0.8283499999999999    0.8170600000000000 C
   0.5921100000000000    0.8675750000000000    0.8573600000000000 C
   0.4081900000000000    0.8283499999999999    0.8169999999999999 C
   0.4078900000000000    0.8675750000000000    0.8573600000000000 C
   0.5000000000000000    0.8079300000000000    0.7960900000000000 C
   0.5000000000000000    0.8873350000000000    0.8779800000000000 C
   0.5000000000000000    0.9287400000000000    0.9219700000000000 C
   0.5865800000000000    0.9449200000000000   -0.0607300000000000 O
   0.4134200000000000    0.9449200000000000   -0.0607300000000000 O
