H3 O2
1.0
  13.1440000000000001    0.0000000000000000    0.0000000000000008
   0.0000000000000042   26.0259999999999998    0.0000000000000016
   0.0000000000000000    0.0000000000000000   23.5109999999999992
H O
3 2
direct
   0.4041915899096093    0.9082200812387603   -0.0557205914178502 H
   0.5958084100903908    0.9082200812387603   -0.0557205914178502 H
   0.5000000000000000    0.6006051142043696   -0.0137322408199932 H
   0.4134200000000000    0.9449200000000000   -0.0607300000000000 O
   0.5865800000000000    0.9449200000000000   -0.0607300000000000 O
