P2 H4 C2 O6
1.0
  39.5919949285964918    0.0000000000000000    0.0200393111104097
  -0.4600206363705521   16.5516054419755925    0.0101147059850220
   0.0000000000000000    0.0000000000000000   36.5609999999999999
P H C O
2 4 2 6
direct
   0.4987750000000000    0.3837700000000000    0.4939100000000000 P
   0.5012150000000000    0.1162100000000000    0.5060766666666666 P
   0.4628450000000000    0.2715700000000000    0.5080600000000000 H
   0.4965125000000000    0.2822200000000000    0.5395266666666667 H
   0.5371450000000000    0.2284200000000000    0.4919300000000000 H
   0.5034775000000000    0.2177600000000000    0.4604633333333333 H
   0.4902800000000000    0.2823800000000000    0.5102166666666667 C
   0.5097100000000000    0.2176000000000000    0.4897733333333333 C
   0.4748375000000000    0.4405800000000000    0.5135000000000000 O
   0.4922600000000000    0.3801800000000000    0.4514833333333333 O
   0.4638350000000000    0.0963000000000000    0.4987133333333333 O
   0.5361550000000000    0.4036800000000000    0.5012766666666666 O
   0.5251550000000000    0.0594100000000000    0.4864633333333333 O
   0.5077300000000000    0.1197900000000000    0.5485066666666667 O
