H6 O4
1.0
  39.5919949285964918    0.0000000000000000    0.0200393111104097
  -0.4600206363705521   16.5516054419755925    0.0101147059850220
   0.0000000000000000    0.0000000000000000   36.5609999999999999
H O
6 4
direct
   0.5221536189661005    0.1667278107427123    0.5536332392558441 H
   0.4539005077099775    0.1237325772361237    0.4780622437260942 H
   0.4878890945705099    0.1745776182032731    0.5072628563186868 H
   0.4577789586450188    0.4022718133030782    0.5224341331840904 H
   0.5524894844155707    0.3611022318525460    0.5017511619898705 H
   0.5108203905384840    0.3467863343020263    0.5145452557204433 H
   0.5077300000000000    0.1197900000000000    0.5485066666666667 O
   0.4638350000000000    0.0963000000000000    0.4987133333333333 O
   0.4748375000000000    0.4405800000000000    0.5135000000000000 O
   0.5361550000000000    0.4036800000000000    0.5012766666666666 O
