Cu24 H198 C220 I24 N44
1.0
  36.6741602771178421    0.0000000000000000   15.0576224208296594
   6.1161374456426536   16.1048957569381734    2.5027303898267936
   0.0000000000000000    0.0000000000000000   17.4089999999999989
Cu H C I N
24 198 220 24 44
direct
   0.2957666666666666    0.2500800000000000    0.7252800000000000 Cu
   0.2124533333333333    0.2252700000000000    0.7501400000000000 Cu
   0.0375800000000000    0.2747700000000000    0.7498899999999999 Cu
   0.2124766666666667    0.7501700000000000    0.2252000000000000 Cu
   0.0375533333333333    0.7499000000000000    0.2747600000000000 Cu
   0.1208633333333333    0.7747500000000000    0.2498800000000000 Cu
   0.2957400000000000    0.7252000000000000    0.2501600000000000 Cu
   0.1208533333333333    0.2498400000000000    0.7747900000000000 Cu
   0.6291000000000000    0.2500800000000000    0.7252800000000000 Cu
   0.5457866666666666    0.2252700000000000    0.7501400000000000 Cu
   0.3709133333333333    0.2747700000000000    0.7498899999999999 Cu
   0.5458100000000000    0.7501700000000000    0.2252000000000000 Cu
   0.3708866666666666    0.7499000000000000    0.2747600000000000 Cu
   0.4541966666666666    0.7747500000000000    0.2498800000000000 Cu
   0.6290733333333334    0.7252000000000000    0.2501600000000000 Cu
   0.4541866666666666    0.2498400000000000    0.7747900000000000 Cu
   0.9624333333333333    0.2500800000000000    0.7252800000000000 Cu
   0.8791199999999999    0.2252700000000000    0.7501400000000000 Cu
   0.7042466666666667    0.2747700000000000    0.7498899999999999 Cu
   0.8791433333333333    0.7501700000000000    0.2252000000000000 Cu
   0.7042200000000000    0.7499000000000000    0.2747600000000000 Cu
   0.7875300000000000    0.7747500000000000    0.2498800000000000 Cu
   0.9624066666666666    0.7252000000000000    0.2501600000000000 Cu
   0.7875200000000000    0.2498400000000000    0.7747900000000000 Cu
   0.0681666666666667    0.1862600000000000    0.9550200000000000 H
   0.0837033333333333    0.1534800000000000    0.8521100000000000 H
   0.0942200000000000    0.0074300000000000    0.8968000000000000 H
   0.0463600000000000    0.0710300000000000    0.9547900000000000 H
   0.2819700000000000    0.3136500000000000    0.5451200000000000 H
   0.2522733333333333    0.3463900000000000    0.6480500000000000 H
   0.2289466666666667    0.4924300000000000    0.6033600000000000 H
   0.2216466666666667    0.4287700000000000    0.5454200000000000 H
   0.2198133333333333    0.0452000000000000    0.6864800000000000 H
   0.2010666666666666    0.1481100000000000    0.6536999999999999 H
   0.2264466666666667    0.1033100000000000    0.5077000000000000 H
   0.1978866666666667    0.0454500000000000    0.5713000000000000 H
   0.2969200000000000    0.4550700000000000    0.8137400000000000 H
   0.3015233333333333    0.3521600000000000    0.8463900000000000 H
   0.2633433333333333    0.3968900000000000    0.9925100000000000 H
   0.2366933333333333    0.4548500000000000    0.9289600000000000 H
   0.0513866666666667    0.4550400000000000    0.6862500000000000 H
   0.0810966666666667    0.3521200000000000    0.6535000000000000 H
   0.1043833333333333    0.3968000000000000    0.5074400000000000 H
   0.1116966666666667    0.4547800000000000    0.5710400000000000 H
   0.2651266666666666    0.0451300000000000    0.8136300000000000 H
   0.2495666666666667    0.1480400000000000    0.8464400000000000 H
   0.2390933333333333    0.1032900000000000    0.9924600000000000 H
   0.2869533333333333    0.0453800000000000    0.9287900000000000 H
   0.0364100000000000    0.1862800000000000    0.5449700000000000 H
   0.0317966666666667    0.1536000000000000    0.6478699999999999 H
   0.0699633333333333    0.0075000000000000    0.6031200000000000 H
   0.0966300000000000    0.0710400000000000    0.5451700000000000 H
   0.1134766666666667    0.3135500000000000    0.9548700000000000 H
   0.1322533333333333    0.3462400000000000    0.8519500000000000 H
   0.1069033333333333    0.4922900000000000    0.8966900000000000 H
   0.1354300000000000    0.4286600000000000    0.9545900000000000 H
   0.2651700000000000    0.8137500000000000    0.0450000000000000 H
   0.2496133333333333    0.8465700000000000    0.1479200000000000 H
   0.2390966666666667    0.9926100000000000    0.1031500000000000 H
   0.2869600000000000    0.9290000000000000    0.0452300000000000 H
   0.0513566666666667    0.6863400000000000    0.4549100000000000 H
   0.0810500000000000    0.6535700000000000    0.3519800000000000 H
   0.1043733333333333    0.5075400000000000    0.3966900000000000 H
   0.1116733333333333    0.5712100000000000    0.4546200000000000 H
   0.1134833333333333    0.9548400000000000    0.3135500000000000 H
   0.1322400000000000    0.8519400000000000    0.3462800000000000 H
   0.1068700000000000    0.8967100000000000    0.4923200000000000 H
   0.1354200000000000    0.9545900000000000    0.4286000000000000 H
   0.0364033333333333    0.5448900000000000    0.1862700000000000 H
   0.0318066666666667    0.6478000000000000    0.1536500000000000 H
   0.0699900000000000    0.6031000000000000    0.0075200000000000 H
   0.0966400000000000    0.5451200000000000    0.0710700000000000 H
   0.2819266666666667    0.5449500000000000    0.3138000000000000 H
   0.2522200000000000    0.6478699999999999    0.3465300000000000 H
   0.2289333333333333    0.6031800000000000    0.4926100000000000 H
   0.2216200000000000    0.5452100000000000    0.4290100000000000 H
   0.0682000000000000    0.9548800000000000    0.1863600000000000 H
   0.0837633333333333    0.8519700000000000    0.1535500000000000 H
   0.0942300000000000    0.8967300000000000    0.0075300000000000 H
   0.0463733333333333    0.9546300000000000    0.0712000000000000 H
   0.2969000000000000    0.8137300000000000    0.4551100000000000 H
   0.3015133333333333    0.8463800000000000    0.3522000000000000 H
   0.2633500000000000    0.9924900000000000    0.3969300000000000 H
   0.2366800000000000    0.9289600000000000    0.4548900000000000 H
   0.2198700000000000    0.6864500000000000    0.0450800000000000 H
   0.2010733333333333    0.6538000000000000    0.1480100000000000 H
   0.2264233333333333    0.5077300000000000    0.1033100000000000 H
   0.1979000000000000    0.5713600000000000    0.0450000000000000 H
   0.0661666666666667    0.0727900000000000    0.0729000000000000 H
   0.2814000000000000    0.4271000000000000    0.4272600000000000 H
   0.2570766666666666    0.9272700000000000    0.5730000000000000 H
   0.2571133333333333    0.5729400000000000    0.9272400000000000 H
   0.0519200000000000    0.5728799999999999    0.5727900000000000 H
   0.2671666666666667    0.9272100000000000    0.9271000000000000 H
   0.0762233333333333    0.0727500000000000    0.4270600000000000 H
   0.0762200000000000    0.4270400000000000    0.0727400000000000 H
   0.4015000000000000    0.1862600000000000    0.9550200000000000 H
   0.4170366666666666    0.1534800000000000    0.8521100000000000 H
   0.4275533333333333    0.0074300000000000    0.8968000000000000 H
   0.3796933333333333    0.0710300000000000    0.9547900000000000 H
   0.6153033333333333    0.3136500000000000    0.5451200000000000 H
   0.5856066666666666    0.3463900000000000    0.6480500000000000 H
   0.5622800000000000    0.4924300000000000    0.6033600000000000 H
   0.5549800000000000    0.4287700000000000    0.5454200000000000 H
   0.6302533333333333    0.4550700000000000    0.8137400000000000 H
   0.6348566666666666    0.3521600000000000    0.8463900000000000 H
   0.5966766666666666    0.3968900000000000    0.9925100000000000 H
   0.5700266666666667    0.4548500000000000    0.9289600000000000 H
   0.3847200000000000    0.4550400000000000    0.6862500000000000 H
   0.4144300000000000    0.3521200000000000    0.6535000000000000 H
   0.4377166666666666    0.3968000000000000    0.5074400000000000 H
   0.4450300000000000    0.4547800000000000    0.5710400000000000 H
   0.5984600000000000    0.0451300000000000    0.8136300000000000 H
   0.5829000000000000    0.1480400000000000    0.8464400000000000 H
   0.5724266666666666    0.1032900000000000    0.9924600000000000 H
   0.6202866666666667    0.0453800000000000    0.9287900000000000 H
   0.3697433333333333    0.1862800000000000    0.5449700000000000 H
   0.3651300000000000    0.1536000000000000    0.6478699999999999 H
   0.4032966666666666    0.0075000000000000    0.6031200000000000 H
   0.4299633333333333    0.0710400000000000    0.5451700000000000 H
   0.4468100000000000    0.3135500000000000    0.9548700000000000 H
   0.4655866666666666    0.3462400000000000    0.8519500000000000 H
   0.4402366666666666    0.4922900000000000    0.8966900000000000 H
   0.4687633333333333    0.4286600000000000    0.9545900000000000 H
   0.5985033333333334    0.8137500000000000    0.0450000000000000 H
   0.5829466666666666    0.8465700000000000    0.1479200000000000 H
   0.5724300000000000    0.9926100000000000    0.1031500000000000 H
   0.6202933333333334    0.9290000000000000    0.0452300000000000 H
   0.3846900000000000    0.6863400000000000    0.4549100000000000 H
   0.4143833333333333    0.6535700000000000    0.3519800000000000 H
   0.4377066666666666    0.5075400000000000    0.3966900000000000 H
   0.4450066666666667    0.5712100000000000    0.4546200000000000 H
   0.4468166666666666    0.9548400000000000    0.3135500000000000 H
   0.4655733333333333    0.8519400000000000    0.3462800000000000 H
   0.4402033333333333    0.8967100000000000    0.4923200000000000 H
   0.4687533333333333    0.9545900000000000    0.4286000000000000 H
   0.3697366666666667    0.5448900000000000    0.1862700000000000 H
   0.3651400000000000    0.6478000000000000    0.1536500000000000 H
   0.4033233333333333    0.6031000000000000    0.0075200000000000 H
   0.4299733333333333    0.5451200000000000    0.0710700000000000 H
   0.6152599999999999    0.5449500000000000    0.3138000000000000 H
   0.5855533333333334    0.6478699999999999    0.3465300000000000 H
   0.5622666666666667    0.6031800000000000    0.4926100000000000 H
   0.5549533333333333    0.5452100000000000    0.4290100000000000 H
   0.4015333333333333    0.9548800000000000    0.1863600000000000 H
   0.4170966666666667    0.8519700000000000    0.1535500000000000 H
   0.4275633333333333    0.8967300000000000    0.0075300000000000 H
   0.3797066666666666    0.9546300000000000    0.0712000000000000 H
   0.5532033333333333    0.6864500000000000    0.0450800000000000 H
   0.5344066666666667    0.6538000000000000    0.1480100000000000 H
   0.5597566666666667    0.5077300000000000    0.1033100000000000 H
   0.5312333333333333    0.5713600000000000    0.0450000000000000 H
   0.3995000000000000    0.0727900000000000    0.0729000000000000 H
   0.6147333333333334    0.4271000000000000    0.4272600000000000 H
   0.5904466666666666    0.5729400000000000    0.9272400000000000 H
   0.3852533333333333    0.5728799999999999    0.5727900000000000 H
   0.6005000000000000    0.9272100000000000    0.9271000000000000 H
   0.4095566666666667    0.0727500000000000    0.4270600000000000 H
   0.4095533333333333    0.4270400000000000    0.0727400000000000 H
   0.7348333333333332    0.1862600000000000    0.9550200000000000 H
   0.7503700000000000    0.1534800000000000    0.8521100000000000 H
   0.7608866666666666    0.0074300000000000    0.8968000000000000 H
   0.7130266666666666    0.0710300000000000    0.9547900000000000 H
   0.9486366666666666    0.3136500000000000    0.5451200000000000 H
   0.9189400000000000    0.3463900000000000    0.6480500000000000 H
   0.8956133333333333    0.4924300000000000    0.6033600000000000 H
   0.8883133333333333    0.4287700000000000    0.5454200000000000 H
   0.8864799999999999    0.0452000000000000    0.6864800000000000 H
   0.8677333333333332    0.1481100000000000    0.6536999999999999 H
   0.8931133333333333    0.1033100000000000    0.5077000000000000 H
   0.8645533333333333    0.0454500000000000    0.5713000000000000 H
   0.9635866666666666    0.4550700000000000    0.8137400000000000 H
   0.9681899999999999    0.3521600000000000    0.8463900000000000 H
   0.9300100000000000    0.3968900000000000    0.9925100000000000 H
   0.9033599999999999    0.4548500000000000    0.9289600000000000 H
   0.7180533333333333    0.4550400000000000    0.6862500000000000 H
   0.7477633333333333    0.3521200000000000    0.6535000000000000 H
   0.7710500000000000    0.3968000000000000    0.5074400000000000 H
   0.7783633333333333    0.4547800000000000    0.5710400000000000 H
   0.9317933333333333    0.0451300000000000    0.8136300000000000 H
   0.9162333333333332    0.1480400000000000    0.8464400000000000 H
   0.9057599999999999    0.1032900000000000    0.9924600000000000 H
   0.9536199999999999    0.0453800000000000    0.9287900000000000 H
   0.7801433333333333    0.3135500000000000    0.9548700000000000 H
   0.7989200000000000    0.3462400000000000    0.8519500000000000 H
   0.7735700000000000    0.4922900000000000    0.8966900000000000 H
   0.8020966666666667    0.4286600000000000    0.9545900000000000 H
   0.9318366666666666    0.8137500000000000    0.0450000000000000 H
   0.9162800000000000    0.8465700000000000    0.1479200000000000 H
   0.9057633333333333    0.9926100000000000    0.1031500000000000 H
   0.9536266666666666    0.9290000000000000    0.0452300000000000 H
   0.7180233333333333    0.6863400000000000    0.4549100000000000 H
   0.7477166666666666    0.6535700000000000    0.3519800000000000 H
   0.7710399999999999    0.5075400000000000    0.3966900000000000 H
   0.7783399999999999    0.5712100000000000    0.4546200000000000 H
   0.7030700000000000    0.5448900000000000    0.1862700000000000 H
   0.6984733333333333    0.6478000000000000    0.1536500000000000 H
   0.7366566666666666    0.6031000000000000    0.0075200000000000 H
   0.7633066666666666    0.5451200000000000    0.0710700000000000 H
   0.9485933333333333    0.5449500000000000    0.3138000000000000 H
   0.9188866666666666    0.6478699999999999    0.3465300000000000 H
   0.8956000000000000    0.6031800000000000    0.4926100000000000 H
   0.8882866666666667    0.5452100000000000    0.4290100000000000 H
   0.7348666666666667    0.9548800000000000    0.1863600000000000 H
   0.7504299999999999    0.8519700000000000    0.1535500000000000 H
   0.7608966666666667    0.8967300000000000    0.0075300000000000 H
   0.7130400000000000    0.9546300000000000    0.0712000000000000 H
   0.9635666666666667    0.8137300000000000    0.4551100000000000 H
   0.9681799999999999    0.8463800000000000    0.3522000000000000 H
   0.9300166666666666    0.9924900000000000    0.3969300000000000 H
   0.9033466666666666    0.9289600000000000    0.4548900000000000 H
   0.8865366666666666    0.6864500000000000    0.0450800000000000 H
   0.8677400000000000    0.6538000000000000    0.1480100000000000 H
   0.8930899999999999    0.5077300000000000    0.1033100000000000 H
   0.8645666666666666    0.5713600000000000    0.0450000000000000 H
   0.7328333333333333    0.0727900000000000    0.0729000000000000 H
   0.9480666666666666    0.4271000000000000    0.4272600000000000 H
   0.9237433333333332    0.9272700000000000    0.5730000000000000 H
   0.9237799999999999    0.5729400000000000    0.9272400000000000 H
   0.7185866666666666    0.5728799999999999    0.5727900000000000 H
   0.9338333333333333    0.9272100000000000    0.9271000000000000 H
   0.7428866666666666    0.4270400000000000    0.0727400000000000 H
   0.1290733333333333    0.1195500000000000    0.9019000000000000 C
   0.1469833333333333    0.0589600000000000    0.9528500000000000 C
   0.0878866666666667    0.1337500000000000    0.9118000000000001 C
   0.0772433333333333    0.0565600000000000    0.9445000000000000 C
   0.3029166666666666    0.3804000000000000    0.5981800000000000 C
   0.3175966666666666    0.4410100000000000    0.5472000000000000 C
   0.2697666666666667    0.3661500000000000    0.5883500000000000 C
   0.2442600000000000    0.4433100000000000    0.5556900000000000 C
   0.2630433333333333    0.0981900000000000    0.6197000000000000 C
   0.2979300000000000    0.0471800000000000    0.5590700000000000 C
   0.2251366666666667    0.0883700000000000    0.6339700000000000 C
   0.2253600000000000    0.0556700000000000    0.5568000000000000 C
   0.0022566666666667    0.4018500000000000    0.8804000000000000 C
   0.3333100000000000    0.4528600000000000    0.9409900000000000 C
   0.2991366666666667    0.4118300000000000    0.8661900000000000 C
   0.2627500000000000    0.4445500000000000    0.9434000000000000 C
   0.0304400000000000    0.4018900000000000    0.6195000000000001 C
   0.0157400000000000    0.4528400000000000    0.5589900000000000 C
   0.0635900000000000    0.4117900000000000    0.6337699999999999 C
   0.0890766666666667    0.4444700000000000    0.5565600000000001 C
   0.2042200000000000    0.0981500000000000    0.8804200000000000 C
   0.1863333333333334    0.0471600000000000    0.9410100000000000 C
   0.2454033333333333    0.0883200000000000    0.8661600000000000 C
   0.2560700000000000    0.0556300000000000    0.9433200000000000 C
   0.3310633333333333    0.1196100000000000    0.5981300000000001 C
   0.0000000000000000    0.0590000000000000    0.5471700000000000 C
   0.0341900000000000    0.1338100000000000    0.5881900000000000 C
   0.0705700000000000    0.0565900000000000    0.5554600000000000 C
   0.0702800000000000    0.3803600000000000    0.9017900000000000 C
   0.0353866666666667    0.4409500000000000    0.9528400000000000 C
   0.1081766666666667    0.3660400000000000    0.9116700000000000 C
   0.1079666666666667    0.4432100000000000    0.9443000000000000 C
   0.2042533333333333    0.8804700000000000    0.0981000000000000 C
   0.1863500000000000    0.9410300000000000    0.0471300000000000 C
   0.2454400000000000    0.8662700000000000    0.0882200000000000 C
   0.2560800000000000    0.9434700000000000    0.0555000000000000 C
   0.0304066666666667    0.6195700000000000    0.4018600000000000 C
   0.0157200000000000    0.5589800000000000    0.4528500000000000 C
   0.0635566666666667    0.6338300000000000    0.4116900000000000 C
   0.0890600000000000    0.5566600000000000    0.4443500000000000 C
   0.0702666666666667    0.9018200000000000    0.3803500000000000 C
   0.0353800000000000    0.9528300000000000    0.4409800000000000 C
   0.1081733333333333    0.9116600000000000    0.3660500000000000 C
   0.1079500000000000    0.9443500000000000    0.4432200000000000 C
   0.3310733333333333    0.5981200000000000    0.1195900000000000 C
   0.0000000000000000    0.5471400000000000    0.0590000000000000 C
   0.0341933333333333    0.5881500000000000    0.1338200000000000 C
   0.0705800000000000    0.5554300000000000    0.0566000000000000 C
   0.3028766666666667    0.5981000000000000    0.3804900000000000 C
   0.3175800000000000    0.5471400000000000    0.4410600000000000 C
   0.2697266666666667    0.5881999999999999    0.3662800000000000 C
   0.2442400000000000    0.5555200000000000    0.4434900000000000 C
   0.1291100000000000    0.9018500000000000    0.1195700000000000 C
   0.1469966666666667    0.9528400000000000    0.0589800000000000 C
   0.0879233333333333    0.9116900000000000    0.1338300000000000 C
   0.0772600000000000    0.9443800000000000    0.0566700000000000 C
   0.0022466666666667    0.8804000000000000    0.4019100000000000 C
   0.3332966666666666    0.9409999999999999    0.4528800000000000 C
   0.2991200000000000    0.8661799999999999    0.4118700000000000 C
   0.2627433333333333    0.9434100000000000    0.4445900000000000 C
   0.2630566666666667    0.6196700000000001    0.0981700000000000 C
   0.2979433333333333    0.5590500000000000    0.0471000000000000 C
   0.2251566666666667    0.6339800000000000    0.0883100000000000 C
   0.2253666666666667    0.5568000000000000    0.0556400000000000 C
   0.1269466666666667    0.0122000000000000    0.0122500000000000 C
   0.0854833333333333    0.0243500000000000    0.0244600000000000 C
   0.3017500000000000    0.4877500000000000    0.4878400000000000 C
   0.2684066666666667    0.4755500000000000    0.4757000000000000 C
   0.2976666666666666    0.9878000000000000    0.5123200000000000 C
   0.2602500000000000    0.9756700000000000    0.5245000000000000 C
   0.2976799999999999    0.5123000000000000    0.9877899999999999 C
   0.2602633333333333    0.5245200000000000    0.9756600000000000 C
   0.0315666666666667    0.5122300000000000    0.5122100000000001 C
   0.0649100000000000    0.5244400000000000    0.5243500000000000 C
   0.2063833333333333    0.9878000000000000    0.9877400000000000 C
   0.2478433333333333    0.9756600000000000    0.9755400000000000 C
   0.0356433333333333    0.0122100000000000    0.4877300000000000 C
   0.0730600000000000    0.0243400000000000    0.4754900000000000 C
   0.0356500000000000    0.4877100000000000    0.0122000000000000 C
   0.0730666666666667    0.4754700000000000    0.0243300000000000 C
   0.4624066666666666    0.1195500000000000    0.9019000000000000 C
   0.4803166666666666    0.0589600000000000    0.9528500000000000 C
   0.4212200000000000    0.1337500000000000    0.9118000000000001 C
   0.4105766666666666    0.0565600000000000    0.9445000000000000 C
   0.6362500000000000    0.3804000000000000    0.5981800000000000 C
   0.6509300000000000    0.4410100000000000    0.5472000000000000 C
   0.6031000000000000    0.3661500000000000    0.5883500000000000 C
   0.5775933333333333    0.4433100000000000    0.5556900000000000 C
   0.3355900000000000    0.4018500000000000    0.8804000000000000 C
   0.6666433333333333    0.4528600000000000    0.9409900000000000 C
   0.6324700000000000    0.4118300000000000    0.8661900000000000 C
   0.5960833333333333    0.4445500000000000    0.9434000000000000 C
   0.3637733333333333    0.4018900000000000    0.6195000000000001 C
   0.3490733333333333    0.4528400000000000    0.5589900000000000 C
   0.3969233333333333    0.4117900000000000    0.6337699999999999 C
   0.4224100000000000    0.4444700000000000    0.5565600000000001 C
   0.5375533333333333    0.0981500000000000    0.8804200000000000 C
   0.5196666666666667    0.0471600000000000    0.9410100000000000 C
   0.5787366666666667    0.0883200000000000    0.8661600000000000 C
   0.5894033333333333    0.0556300000000000    0.9433200000000000 C
   0.3333333333333333    0.0590000000000000    0.5471700000000000 C
   0.3675233333333333    0.1338100000000000    0.5881900000000000 C
   0.4039033333333333    0.0565900000000000    0.5554600000000000 C
   0.4036133333333333    0.3803600000000000    0.9017900000000000 C
   0.3687200000000000    0.4409500000000000    0.9528400000000000 C
   0.4415100000000000    0.3660400000000000    0.9116700000000000 C
   0.4413000000000000    0.4432100000000000    0.9443000000000000 C
   0.5375866666666667    0.8804700000000000    0.0981000000000000 C
   0.5196833333333333    0.9410300000000000    0.0471300000000000 C
   0.5787733333333334    0.8662700000000000    0.0882200000000000 C
   0.5894133333333333    0.9434700000000000    0.0555000000000000 C
   0.3637400000000000    0.6195700000000000    0.4018600000000000 C
   0.3490533333333333    0.5589800000000000    0.4528500000000000 C
   0.3968900000000000    0.6338300000000000    0.4116900000000000 C
   0.4223933333333333    0.5566600000000000    0.4443500000000000 C
   0.4036000000000000    0.9018200000000000    0.3803500000000000 C
   0.3687133333333333    0.9528300000000000    0.4409800000000000 C
   0.4415066666666666    0.9116600000000000    0.3660500000000000 C
   0.4412833333333333    0.9443500000000000    0.4432200000000000 C
   0.6644066666666666    0.5981200000000000    0.1195900000000000 C
   0.3333333333333333    0.5471400000000000    0.0590000000000000 C
   0.3675266666666667    0.5881500000000000    0.1338200000000000 C
   0.4039133333333333    0.5554300000000000    0.0566000000000000 C
   0.6362099999999999    0.5981000000000000    0.3804900000000000 C
   0.6509133333333332    0.5471400000000000    0.4410600000000000 C
   0.6030599999999999    0.5881999999999999    0.3662800000000000 C
   0.5775733333333333    0.5555200000000000    0.4434900000000000 C
   0.4624433333333333    0.9018500000000000    0.1195700000000000 C
   0.4803300000000000    0.9528400000000000    0.0589800000000000 C
   0.4212566666666666    0.9116900000000000    0.1338300000000000 C
   0.4105933333333333    0.9443800000000000    0.0566700000000000 C
   0.3355800000000000    0.8804000000000000    0.4019100000000000 C
   0.5963900000000000    0.6196700000000001    0.0981700000000000 C
   0.6312766666666667    0.5590500000000000    0.0471000000000000 C
   0.5584899999999999    0.6339800000000000    0.0883100000000000 C
   0.5587000000000000    0.5568000000000000    0.0556400000000000 C
   0.4602800000000000    0.0122000000000000    0.0122500000000000 C
   0.4188166666666666    0.0243500000000000    0.0244600000000000 C
   0.6350833333333332    0.4877500000000000    0.4878400000000000 C
   0.6017399999999999    0.4755500000000000    0.4757000000000000 C
   0.6310133333333332    0.5123000000000000    0.9877899999999999 C
   0.5935966666666666    0.5245200000000000    0.9756600000000000 C
   0.3649000000000000    0.5122300000000000    0.5122100000000001 C
   0.3982433333333333    0.5244400000000000    0.5243500000000000 C
   0.5397166666666666    0.9878000000000000    0.9877400000000000 C
   0.5811766666666667    0.9756600000000000    0.9755400000000000 C
   0.3689766666666666    0.0122100000000000    0.4877300000000000 C
   0.4063933333333333    0.0243400000000000    0.4754900000000000 C
   0.3689833333333333    0.4877100000000000    0.0122000000000000 C
   0.4064000000000000    0.4754700000000000    0.0243300000000000 C
   0.7957399999999999    0.1195500000000000    0.9019000000000000 C
   0.8136500000000000    0.0589600000000000    0.9528500000000000 C
   0.7545533333333333    0.1337500000000000    0.9118000000000001 C
   0.7439100000000000    0.0565600000000000    0.9445000000000000 C
   0.9695833333333332    0.3804000000000000    0.5981800000000000 C
   0.9842633333333333    0.4410100000000000    0.5472000000000000 C
   0.9364333333333332    0.3661500000000000    0.5883500000000000 C
   0.9109266666666667    0.4433100000000000    0.5556900000000000 C
   0.9297099999999999    0.0981900000000000    0.6197000000000000 C
   0.9645966666666665    0.0471800000000000    0.5590700000000000 C
   0.8918033333333333    0.0883700000000000    0.6339700000000000 C
   0.8920266666666666    0.0556700000000000    0.5568000000000000 C
   0.6689233333333333    0.4018500000000000    0.8804000000000000 C
   0.9999766666666666    0.4528600000000000    0.9409900000000000 C
   0.9658033333333333    0.4118300000000000    0.8661900000000000 C
   0.9294166666666666    0.4445500000000000    0.9434000000000000 C
   0.6971066666666667    0.4018900000000000    0.6195000000000001 C
   0.6824066666666666    0.4528400000000000    0.5589900000000000 C
   0.7302566666666667    0.4117900000000000    0.6337699999999999 C
   0.7557433333333333    0.4444700000000000    0.5565600000000001 C
   0.8708866666666666    0.0981500000000000    0.8804200000000000 C
   0.8530000000000000    0.0471600000000000    0.9410100000000000 C
   0.9120699999999999    0.0883200000000000    0.8661600000000000 C
   0.9227366666666665    0.0556300000000000    0.9433200000000000 C
   0.9977300000000000    0.1196100000000000    0.5981300000000001 C
   0.7369466666666666    0.3803600000000000    0.9017900000000000 C
   0.7020533333333333    0.4409500000000000    0.9528400000000000 C
   0.7748433333333333    0.3660400000000000    0.9116700000000000 C
   0.7746333333333333    0.4432100000000000    0.9443000000000000 C
   0.8709199999999999    0.8804700000000000    0.0981000000000000 C
   0.8530166666666666    0.9410300000000000    0.0471300000000000 C
   0.9121066666666666    0.8662700000000000    0.0882200000000000 C
   0.9227466666666666    0.9434700000000000    0.0555000000000000 C
   0.6970733333333333    0.6195700000000000    0.4018600000000000 C
   0.6823866666666666    0.5589800000000000    0.4528500000000000 C
   0.7302233333333333    0.6338300000000000    0.4116900000000000 C
   0.7557266666666667    0.5566600000000000    0.4443500000000000 C
   0.9977400000000000    0.5981200000000000    0.1195900000000000 C
   0.6666666666666666    0.5471400000000000    0.0590000000000000 C
   0.7008599999999999    0.5881500000000000    0.1338200000000000 C
   0.7372466666666666    0.5554300000000000    0.0566000000000000 C
   0.9695433333333333    0.5981000000000000    0.3804900000000000 C
   0.9842466666666666    0.5471400000000000    0.4410600000000000 C
   0.9363933333333333    0.5881999999999999    0.3662800000000000 C
   0.9109066666666666    0.5555200000000000    0.4434900000000000 C
   0.7957766666666666    0.9018500000000000    0.1195700000000000 C
   0.8136633333333333    0.9528400000000000    0.0589800000000000 C
   0.7545900000000000    0.9116900000000000    0.1338300000000000 C
   0.7439266666666666    0.9443800000000000    0.0566700000000000 C
   0.9999633333333333    0.9409999999999999    0.4528800000000000 C
   0.9657866666666666    0.8661799999999999    0.4118700000000000 C
   0.9294100000000000    0.9434100000000000    0.4445900000000000 C
   0.9297233333333332    0.6196700000000001    0.0981700000000000 C
   0.9646100000000000    0.5590500000000000    0.0471000000000000 C
   0.8918233333333333    0.6339800000000000    0.0883100000000000 C
   0.8920333333333332    0.5568000000000000    0.0556400000000000 C
   0.7936133333333333    0.0122000000000000    0.0122500000000000 C
   0.7521500000000000    0.0243500000000000    0.0244600000000000 C
   0.9684166666666666    0.4877500000000000    0.4878400000000000 C
   0.9350733333333333    0.4755500000000000    0.4757000000000000 C
   0.9643333333333333    0.9878000000000000    0.5123200000000000 C
   0.9269166666666666    0.9756700000000000    0.5245000000000000 C
   0.9643466666666666    0.5123000000000000    0.9877899999999999 C
   0.9269299999999999    0.5245200000000000    0.9756600000000000 C
   0.6982333333333333    0.5122300000000000    0.5122100000000001 C