H10 O7
1.0
  22.6930804244828650    0.0000000000000000    8.9111447551901275
  -0.0007857514544007   12.3279747091509524    0.0249590290106593
   0.0000000000000000    0.0000000000000000   28.2340000000000018
H O
10 7
direct
   0.5952783065431115    0.9140195043197606    0.6748186829401516 H
   0.6602744683594851    0.7932904169235712    0.8024522161240564 H
   0.5751554003936831    0.8547656869073456    0.7373163374434175 H
   0.5990231442384282    0.8150869764693531    0.7837580162008554 H
   0.2680858014565673   -0.1747527809875383    0.8300995173174243 H
   0.2157488621626969    0.8188967563680351    0.8764529306484585 H
   0.3401783901088616    0.5690440210584430    0.9627139058051235 H
   0.3521952003063370    0.6673329096938057    0.9127602403765661 H
   0.3235518202144353    0.7471971739178154    0.8796162925238707 H
   0.2232393346488053    0.2703452961928869    0.7962511248634321 H
   0.6367900000000000    0.9353800000000000    0.6606650000000001 O
   0.6994350000000000    0.7957600000000000    0.7756200000000000 O
   0.6076450000000000    0.8423300000000000    0.7492050000000000 O
   0.2682700000000000   -0.1025600000000000    0.8436399999999999 O
   0.2244550000000000    0.7468000000000000    0.8856150000000000 O
   0.3032000000000000    0.5287300000000000    0.9715750000000001 O
   0.3177350000000000    0.6909800000000000    0.9055200000000000 O
