H4 C5 N5
1.0
  18.0669998651636874    0.0000000000000000    0.0022073004462170
  -0.0097136715247881   20.6109961916523652    0.0079140556723637
   0.0000000000000000    0.0000000000000000   18.8880000000000017
H C N
4 5 5
direct
   0.9096000000000000    0.7775300000000001    0.0336700000000000 H
   0.1185000000000000    0.5601699999999999    0.8924900000000000 H
   0.9174600000000001    0.5973300000000000    0.7628500000000000 H
   0.8587900000000001    0.6515400000000000    0.8091500000000000 H
   0.9350200000000000    0.7394600000000000    0.0000000000000000 C
   0.0717500000000000    0.5929700000000000    0.9006300000000000 C
   0.9602800000000000    0.6315100000000000    0.8556300000000000 C
   0.9556100000000000    0.6715800000000000    0.9164099999999999 C
   0.0138100000000000    0.6673200000000000    0.9656600000000000 C
   0.9996699999999999    0.7106300000000000    0.0198700000000000 N
   0.0736000000000000    0.6284500000000000    0.9601000000000000 N
   0.9056800000000000    0.7181400000000000    0.9408300000000001 N
   0.0201600000000000    0.5922300000000000    0.8493700000000000 N
   0.9100600000000000    0.6313100000000000    0.8020699999999999 N
