H1 O1
1.0
  18.0669998651636874    0.0000000000000000    0.0022073004462170
  -0.0097136715247881   20.6109961916523652    0.0079140556723637
   0.0000000000000000    0.0000000000000000   18.8880000000000017
H O
1 1
direct
   0.9532680937855178    0.7313224509847412    0.0056085015238707 H
   0.9996699999999999    0.7106300000000000    0.0198700000000000 O
