H4 C6 N1 O2
1.0
  18.0669998651636874    0.0000000000000000    0.0022073004462170
  -0.0097136715247881   20.6109961916523652    0.0079140556723637
   0.0000000000000000    0.0000000000000000   18.8880000000000017
H C N O
4 6 1 2
direct
   0.4876500000000000    0.8416000000000000    0.7075800000000000 H
   0.4253200000000000    0.7632400000000000    0.7895300000000000 H
   0.2998600000000000    0.9097900000000000    0.8804800000000000 H
   0.3564400000000000    0.9937700000000000    0.7998700000000000 H
   0.4617500000000000    0.9723200000000000    0.6982900000000000 C
   0.4462400000000000    0.8582500000000000    0.7452000000000000 C
   0.4265900000000000    0.9237800000000000    0.7477700000000000 C
   0.4118200000000000    0.8147799999999999    0.7905100000000000 C
   0.3411400000000000    0.8969200000000001    0.8408700000000000 C
   0.3727200000000000    0.9430300000000000    0.7965400000000000 C
   0.3602700000000000    0.8336800000000000    0.8379500000000000 N
   0.5189100000000000    0.9500400000000000    0.6637000000000000 O
   0.4354400000000000    0.0277100000000000    0.6917800000000000 O
