H20 C24 N4
1.0
  13.5439809886022076    0.0000000000000000    0.0226931791954840
  -0.0453876855630017   29.6008062684956919    0.2619393307344294
   0.0000000000000000    0.0000000000000000   21.5990000000000002
H C N
20 24 4
direct
   0.1594900000000000    0.0111450000000000    0.3513400000000000 H
   0.3586000000000000    0.0692800000000000    0.5229900000000000 H
   0.1800400000000000    0.0854200000000000    0.5116700000000000 H
   0.8195500000000000    0.0152250000000000    0.3656800000000000 H
   0.6400600000000000    0.0032750000000000    0.3844800000000000 H
   0.6666666666666666    0.0886600000000000    0.5444700000000000 H
   0.8469100000000001    0.0963650000000000    0.5192300000000000 H
   0.5066400000000000    0.0635800000000000    0.5127100000000000 H
   0.6628800000000000    0.0111850000000000    0.6427000000000000 H
   0.5071900000000000    0.0089800000000000    0.5884200000000001 H
   0.3371900000000000    0.9888399999999999    0.3572800000000000 H
   0.4928500000000000    0.9910500000000000    0.4116100000000000 H
   0.8405800000000000    0.9888700000000000    0.6486400000000000 H
   0.6413900000000000    0.9307500000000000    0.4770000000000000 H
   0.8199500000000000    0.9145900000000000    0.4883100000000000 H
   0.1804400000000000    0.9847650000000000    0.6343299999999999 H
   0.3599300000000000    0.9967300000000000    0.6155600000000000 H
   0.3333333333333333    0.9113950000000000    0.4555100000000000 H
   0.1531500000000000    0.9036649999999999    0.4807300000000000 H
   0.4933900000000000    0.9364650000000000    0.4873000000000000 H
   0.2068000000000000    0.0231550000000000    0.3885000000000000 C
   0.3059500000000000    0.0112600000000000    0.3919900000000000 C
   0.3636700000000000    0.0260500000000000    0.4417900000000000 C
   0.3183400000000000    0.0552950000000000    0.4838700000000000 C
   0.2184500000000000    0.0648750000000000    0.4778000000000000 C
   0.4627800000000000    0.0055900000000000    0.4542000000000000 C
   0.7824900000000000    0.0311400000000000    0.4046300000000000 C
   0.6819499999999999    0.0248250000000000    0.4155500000000000 C
   0.6383000000000000    0.0440200000000000    0.4678900000000000 C
   0.6982699999999999    0.0718750000000000    0.5043100000000000 C
   0.7977800000000000    0.0763150000000000    0.4906200000000000 C
   0.5379000000000000    0.0328700000000000    0.4926000000000000 C
   0.2022600000000000    0.9237100000000000    0.5093600000000000 C
   0.4621200000000000    0.9671700000000000    0.5074000000000000 C
   0.7932500000000000    0.9768650000000000    0.6114900000000000 C
   0.6941000000000001    0.9887699999999999    0.6080000000000000 C
   0.6363600000000000    0.9739800000000001    0.5582200000000000 C
   0.6816600000000000    0.9447350000000000    0.5161000000000000 C
   0.7815500000000000    0.9351400000000001    0.5221700000000000 C
   0.5372500000000000    0.9944450000000000    0.5458200000000000 C
   0.2175200000000000    0.9688650000000000    0.5953700000000000 C
   0.3180500000000000    0.9751900000000000    0.5844600000000000 C
   0.3617300000000000    0.9560150000000001    0.5321200000000000 C
   0.3017700000000000    0.9281600000000000    0.4956800000000000 C
   0.1619700000000000    0.0483900000000000    0.4319600000000000 N
   0.8408800000000000    0.0552100000000000    0.4425300000000000 N
   0.8380600000000000    0.9516200000000000    0.5680200000000000 N
   0.1591400000000000    0.9448000000000000    0.5574600000000000 N
