Zn16 H220 C282 N32 O60
1.0
  13.5439809886022076    0.0000000000000000    0.0226931791954840
  -0.0453876855630017   29.6008062684956919    0.2619393307344294
   0.0000000000000000    0.0000000000000000   21.5990000000000002
Zn H C N O
16 220 282 32 60
direct
   0.4997300000000000    0.4469850000000000    0.9334800000000000 Zn
   0.4998700000000000    0.3027650000000000    0.4344700000000000 Zn
   0.5003100000000000    0.0530150000000000    0.0664800000000000 Zn
   0.9997300000000000    0.3030200000000000    0.0664900000000000 Zn
   0.0003500000000000    0.0527700000000000    0.4344600000000000 Zn
   0.0003100000000000    0.1969800000000000    0.9334900000000000 Zn
   0.9996800000000000    0.4472300000000000    0.5655000000000000 Zn
   0.5001700000000000    0.1972550000000000    0.5654800000000000 Zn
   0.4997300000000000    0.9469850000000000    0.9334800000000000 Zn
   0.4998700000000000    0.8027650000000000    0.4344700000000000 Zn
   0.5003100000000000    0.5530150000000000    0.0664800000000000 Zn
   0.9997300000000000    0.8030200000000001    0.0664900000000000 Zn
   0.0003500000000000    0.5527700000000000    0.4344600000000000 Zn
   0.0003100000000000    0.6969799999999999    0.9334900000000000 Zn
   0.9996800000000000    0.9472300000000000    0.5655000000000000 Zn
   0.5001700000000000    0.6972550000000000    0.5654800000000000 Zn
   0.6587700000000000    0.2388150000000000    0.6487000000000001 H
   0.8366600000000000    0.2611550000000000    0.6428500000000000 H
   0.8586400000000000    0.1807650000000000    0.4770900000000000 H
   0.6798800000000000    0.1646200000000000    0.4883100000000000 H
   0.9925300000000000    0.2591850000000000    0.5883699999999999 H
   0.3190900000000000    0.2348800000000000    0.6343400000000000 H
   0.1398000000000000    0.2469100000000000    0.6155500000000000 H
   0.1665100000000000    0.1614600000000000    0.4556100000000000 H
   0.3465000000000000    0.1537000000000000    0.4808000000000000 H
   0.0064800000000000    0.1864350000000000    0.4875600000000000 H
   0.4896800000000000    0.0591600000000000    0.6867400000000000 H
   0.5089300000000000    0.1443450000000000    0.7665800000000000 H
   0.4997700000000000    0.0408450000000000    0.7992100000000000 H
   0.5161100000000000    0.1250000000000000    0.8816400000000000 H
   0.3408000000000000    0.4902750000000000    0.8504000000000000 H
   0.1634500000000000    0.0129900000000000    0.8570900000000000 H
   0.1418400000000000    0.4306600000000000    0.0230500000000000 H
   0.3201800000000000    0.4142000000000000    0.0110500000000000 H
   0.0076900000000000    0.0100250000000000    0.9115000000000000 H
   0.6819300000000000    0.4858700000000000    0.8645100000000000 H
   0.8608600000000000    0.4981000000000000    0.8841000000000000 H
   0.8325500000000000    0.4109500000000000    0.0443800000000000 H
   0.6529800000000000    0.4030250000000000    0.0182900000000000 H
   0.9931600000000000    0.4361900000000000    0.0125900000000000 H
   0.5078300000000000    0.3115100000000000    0.8148000000000000 H
   0.4909000000000000    0.3954600000000000    0.7303500000000001 H
   0.4995600000000000    0.2914850000000000    0.7032900000000000 H
   0.4840100000000000    0.3743400000000000    0.6164100000000000 H
   0.3412600000000000    0.2611750000000000    0.3512800000000000 H
   0.1633700000000000    0.2388350000000000    0.3571300000000000 H
   0.1413900000000000    0.3192550000000000    0.5228600000000000 H
   0.3201500000000000    0.3353950000000000    0.5116400000000000 H
   0.0074900000000000    0.2408250000000000    0.4116000000000000 H
   0.6809500000000001    0.2651550000000000    0.3656300000000000 H
   0.8602300000000001    0.2531200000000000    0.3844100000000000 H
   0.8335100000000000    0.3385450000000000    0.5443800000000000 H
   0.6535200000000000    0.3463050000000000    0.5191900000000000 H
   0.9935500000000000    0.3135700000000000    0.5124200000000000 H
   0.5103900000000000    0.4409900000000000    0.3131900000000000 H
   0.4910900000000000    0.3557400000000000    0.2335000000000000 H
   0.5002500000000000    0.4592050000000000    0.2006600000000000 H
   0.4839000000000000    0.3749950000000000    0.1183400000000000 H
   0.6592100000000000    0.0097250000000000    0.1495100000000000 H
   0.8365700000000000    0.4870200000000000    0.1428800000000000 H
   0.8581900000000000    0.0693500000000000    0.9769200000000000 H
   0.6798500000000000    0.0858050000000000    0.9889100000000000 H
   0.9923300000000000    0.4899850000000000    0.0884000000000000 H
   0.3181100000000000    0.0141350000000000    0.1354000000000000 H
   0.1391800000000000    0.0019100000000000    0.1158000000000000 H
   0.1674800000000000    0.0890550000000000    0.9555900000000001 H
   0.3470600000000000    0.0969750000000000    0.9816700000000000 H
   0.0068800000000000    0.0638250000000000    0.9873900000000000 H
   0.4922000000000000    0.1884900000000000    0.1851500000000000 H
   0.5090900000000000    0.1045550000000000    0.2696200000000000 H
   0.5004600000000000    0.2085300000000000    0.2966400000000000 H
   0.5159800000000000    0.1256900000000000    0.3835400000000000 H
   0.8400500000000000    0.2595300000000000    0.1495500000000000 H
   0.6625600000000000    0.2368650000000000    0.1428700000000000 H
   0.6425100000000000    0.3193500000000000    0.9770500000000000 H
   0.8208600000000000    0.3358250000000000    0.9891400000000000 H
   0.5071099999999999    0.2399100000000000    0.0883800000000000 H
   0.1812300000000000    0.2642100000000000    0.1354700000000000 H
   0.3601900000000000    0.2519400000000000    0.1159300000000000 H
   0.3335300000000000    0.3390450000000000    0.9556000000000000 H
   0.1537900000000000    0.3469450000000000    0.9815700000000001 H
   0.4937100000000000    0.3138300000000000    0.9874000000000001 H
   0.1594900000000000    0.0111450000000000    0.3513400000000000 H
   0.3371900000000000    0.4888400000000000    0.3572800000000000 H
   0.3586000000000000    0.0692800000000000    0.5229900000000000 H
   0.1800400000000000    0.0854200000000000    0.5116700000000000 H
   0.4928500000000000    0.4910500000000000    0.4116100000000000 H
   0.8195500000000000    0.0152250000000000    0.3656800000000000 H
   0.6400600000000000    0.0032750000000000    0.3844800000000000 H
   0.6666666666666666    0.0886600000000000    0.5444700000000000 H
   0.8469100000000001    0.0963650000000000    0.5192300000000000 H
   0.5066400000000000    0.0635800000000000    0.5127100000000000 H
   0.9897300000000000    0.1910750000000000    0.3132800000000000 H
   0.0088200000000000    0.1058250000000000    0.2335900000000000 H
   0.9996300000000000    0.2092650000000000    0.2006600000000000 H
   0.0155400000000000    0.1250150000000000    0.1183800000000000 H
   0.1599800000000000    0.2404750000000000    0.8504300000000000 H
   0.3374600000000000    0.2631450000000000    0.8571100000000000 H
   0.3575300000000000    0.1806600000000000    0.0229000000000000 H
   0.1791800000000000    0.1641800000000000    0.0108400000000000 H
   0.4929200000000000    0.2600950000000000    0.9115900000000000 H
   0.8188000000000000    0.2357950000000000    0.8645100000000000 H
   0.6398500000000000    0.2480650000000000    0.8840400000000000 H
   0.6665000000000000    0.1609650000000000    0.0443800000000000 H
   0.8462400000000000    0.1530600000000000    0.0184100000000000 H
   0.5063200000000000    0.1861750000000000    0.0125000000000000 H
   0.9923900000000000    0.0614850000000000    0.8148500000000000 H
   0.0091400000000000    0.1454450000000000    0.7303400000000000 H
   0.0005500000000000    0.0414550000000000    0.7033500000000000 H
   0.0160200000000000    0.1243150000000000    0.6163999999999999 H
   0.8405800000000000    0.4888700000000000    0.6486400000000000 H
   0.6628800000000000    0.0111850000000000    0.6427000000000000 H
   0.6413900000000000    0.4307500000000000    0.4770000000000000 H
   0.8199500000000000    0.4145900000000000    0.4883100000000000 H
   0.5071900000000000    0.0089800000000000    0.5884200000000001 H
   0.1804400000000000    0.4847650000000000    0.6343299999999999 H
   0.3599300000000000    0.4967300000000000    0.6155600000000000 H
   0.3333333333333333    0.4113950000000000    0.4555100000000000 H
   0.1531500000000000    0.4036650000000000    0.4807300000000000 H
   0.4933900000000000    0.4364650000000000    0.4873000000000000 H
   0.0000000000000000    0.3089250000000000    0.6866900000000000 H
   0.9911900000000000    0.3941700000000000    0.7663800000000000 H
   0.0000000000000000    0.2907350000000000    0.7993200000000000 H
   0.9844500000000000    0.3749850000000000    0.8816000000000001 H
   0.6587700000000000    0.7388150000000000    0.6487000000000001 H
   0.8366600000000000    0.7611550000000000    0.6428500000000000 H
   0.8586400000000000    0.6807650000000001    0.4770900000000000 H
   0.6798800000000000    0.6646200000000000    0.4883100000000000 H
   0.9925300000000000    0.7591850000000000    0.5883699999999999 H
   0.3190900000000000    0.7348800000000000    0.6343400000000000 H
   0.1398000000000000    0.7469100000000000    0.6155500000000000 H
   0.1665100000000000    0.6614599999999999    0.4556100000000000 H
   0.3465000000000000    0.6536999999999999    0.4808000000000000 H
   0.0064800000000000    0.6864350000000000    0.4875600000000000 H
   0.4896800000000000    0.5591600000000000    0.6867400000000000 H
   0.5089300000000000    0.6443449999999999    0.7665800000000000 H
   0.4997700000000000    0.5408450000000000    0.7992100000000000 H
   0.5161100000000000    0.6250000000000000    0.8816400000000000 H
   0.3408000000000000    0.9902750000000000    0.8504000000000000 H
   0.1634500000000000    0.5129899999999999    0.8570900000000000 H
   0.1418400000000000    0.9306600000000000    0.0230500000000000 H
   0.3201800000000000    0.9142000000000000    0.0110500000000000 H
   0.0076900000000000    0.5100250000000000    0.9115000000000000 H
   0.6819300000000000    0.9858700000000000    0.8645100000000000 H
   0.8608600000000000    0.9981000000000000    0.8841000000000000 H
   0.8325500000000000    0.9109499999999999    0.0443800000000000 H
   0.6529800000000000    0.9030250000000000    0.0182900000000000 H
   0.9931600000000000    0.9361900000000001    0.0125900000000000 H
   0.5078300000000000    0.8115100000000000    0.8148000000000000 H
   0.4909000000000000    0.8954599999999999    0.7303500000000001 H
   0.4995600000000000    0.7914850000000000    0.7032900000000000 H
   0.4840100000000000    0.8743400000000000    0.6164100000000000 H
   0.3412600000000000    0.7611749999999999    0.3512800000000000 H
   0.1633700000000000    0.7388350000000000    0.3571300000000000 H
   0.1413900000000000    0.8192550000000001    0.5228600000000000 H
   0.3201500000000000    0.8353950000000000    0.5116400000000000 H
   0.0074900000000000    0.7408250000000001    0.4116000000000000 H
   0.6809500000000001    0.7651550000000000    0.3656300000000000 H
   0.8602300000000001    0.7531200000000000    0.3844100000000000 H
   0.8335100000000000    0.8385450000000000    0.5443800000000000 H
   0.6535200000000000    0.8463050000000000    0.5191900000000000 H
   0.9935500000000000    0.8135700000000000    0.5124200000000000 H
   0.5103900000000000    0.9409900000000000    0.3131900000000000 H
   0.4910900000000000    0.8557399999999999    0.2335000000000000 H
   0.5002500000000000    0.9592050000000000    0.2006600000000000 H
   0.4839000000000000    0.8749950000000000    0.1183400000000000 H
   0.6592100000000000    0.5097250000000000    0.1495100000000000 H
   0.8365700000000000    0.9870200000000000    0.1428800000000000 H
   0.8581900000000000    0.5693500000000000    0.9769200000000000 H
   0.6798500000000000    0.5858050000000000    0.9889100000000000 H
   0.9923300000000000    0.9899850000000000    0.0884000000000000 H
   0.3181100000000000    0.5141350000000000    0.1354000000000000 H
   0.1391800000000000    0.5019100000000000    0.1158000000000000 H
   0.1674800000000000    0.5890550000000000    0.9555900000000001 H
   0.3470600000000000    0.5969750000000000    0.9816700000000000 H
   0.0068800000000000    0.5638250000000000    0.9873900000000000 H
   0.4922000000000000    0.6884900000000000    0.1851500000000000 H
   0.5090900000000000    0.6045550000000000    0.2696200000000000 H
   0.5004600000000000    0.7085300000000000    0.2966400000000000 H
   0.5159800000000000    0.6256900000000000    0.3835400000000000 H
   0.8400500000000000    0.7595300000000000    0.1495500000000000 H
   0.6625600000000000    0.7368650000000000    0.1428700000000000 H
   0.6425100000000000    0.8193500000000000    0.9770500000000000 H
   0.8208600000000000    0.8358250000000000    0.9891400000000000 H
   0.5071099999999999    0.7399100000000001    0.0883800000000000 H
   0.1812300000000000    0.7642100000000001    0.1354700000000000 H
   0.3601900000000000    0.7519400000000001    0.1159300000000000 H
   0.3335300000000000    0.8390450000000000    0.9556000000000000 H
   0.1537900000000000    0.8469450000000001    0.9815700000000001 H
   0.4937100000000000    0.8138300000000001    0.9874000000000001 H
   0.0000000000000000    0.9385150000000000    0.1851300000000000 H
   0.9908600000000000    0.8545550000000000    0.2696400000000000 H
   0.9994700000000000    0.9585500000000000    0.2966300000000000 H
   0.9839599999999999    0.8756900000000001    0.3835800000000000 H
   0.1594900000000000    0.5111450000000000    0.3513400000000000 H
   0.3371900000000000    0.9888399999999999    0.3572800000000000 H
   0.3586000000000000    0.5692800000000000    0.5229900000000000 H
   0.1800400000000000    0.5854200000000001    0.5116700000000000 H
   0.4928500000000000    0.9910500000000000    0.4116100000000000 H
   0.8195500000000000    0.5152250000000000    0.3656800000000000 H
   0.6400600000000000    0.5032750000000000    0.3844800000000000 H
   0.6666666666666666    0.5886600000000000    0.5444700000000000 H
   0.8469100000000001    0.5963650000000000    0.5192300000000000 H
   0.5066400000000000    0.5635800000000000    0.5127100000000000 H
   0.9897300000000000    0.6910750000000000    0.3132800000000000 H
   0.0088200000000000    0.6058250000000001    0.2335900000000000 H
   0.9996300000000000    0.7092650000000000    0.2006600000000000 H
   0.0155400000000000    0.6250150000000000    0.1183800000000000 H
   0.1599800000000000    0.7404750000000000    0.8504300000000000 H
   0.3374600000000000    0.7631450000000000    0.8571100000000000 H
   0.3575300000000000    0.6806600000000000    0.0229000000000000 H
   0.1791800000000000    0.6641800000000000    0.0108400000000000 H
   0.4929200000000000    0.7600950000000000    0.9115900000000000 H
   0.8188000000000000    0.7357950000000000    0.8645100000000000 H
   0.6398500000000000    0.7480650000000000    0.8840400000000000 H
   0.6665000000000000    0.6609650000000000    0.0443800000000000 H
   0.8462400000000000    0.6530600000000000    0.0184100000000000 H
   0.5063200000000000    0.6861750000000000    0.0125000000000000 H
   0.9923900000000000    0.5614850000000000    0.8148500000000000 H
   0.0091400000000000    0.6454450000000000    0.7303400000000000 H
   0.0005500000000000    0.5414550000000000    0.7033500000000000 H
   0.0160200000000000    0.6243150000000000    0.6163999999999999 H
   0.8405800000000000    0.9888700000000000    0.6486400000000000 H
   0.6628800000000000    0.5111850000000000    0.6427000000000000 H
   0.6413900000000000    0.9307500000000000    0.4770000000000000 H
   0.8199500000000000    0.9145900000000000    0.4883100000000000 H
   0.5071900000000000    0.5089800000000000    0.5884200000000001 H
   0.1804400000000000    0.9847650000000000    0.6343299999999999 H
   0.3599300000000000    0.9967300000000000    0.6155600000000000 H
   0.3333333333333333    0.9113950000000000    0.4555100000000000 H
   0.1531500000000000    0.9036649999999999    0.4807300000000000 H
   0.4933900000000000    0.9364650000000000    0.4873000000000000 H
   0.0000000000000000    0.8089250000000000    0.6866900000000000 H
   0.9911900000000000    0.8941700000000000    0.7663800000000000 H
   0.0000000000000000    0.7907350000000000    0.7993200000000000 H
   0.9844500000000000    0.8749850000000000    0.8816000000000001 H
   0.3184200000000000    0.2739000000000000    0.0848700000000000 C
   0.3619900000000000    0.2936050000000000    0.0323000000000000 C
   0.3020900000000000    0.3219050000000000    0.9959700000000000 C
   0.2028100000000000    0.3265050000000000    0.0101400000000000 C
   0.7062700000000000    0.2268350000000000    0.6115600000000000 C
   0.8055099999999999    0.2387400000000000    0.6081200000000000 C
   0.8634300000000000    0.2239800000000000    0.5583000000000000 C
   0.8182199999999999    0.1947250000000000    0.5162099999999999 C
   0.7182300000000000    0.1851450000000000    0.5222000000000000 C
   0.9626500000000000    0.2445100000000000    0.5458499999999999 C
   0.2820900000000000    0.2189750000000000    0.5953900000000000 C
   0.1816600000000000    0.2253350000000000    0.5844800000000000 C
   0.2022600000000000    0.4237100000000000    0.5093600000000000 C
   0.4621200000000000    0.4671700000000000    0.5074000000000000 C
   0.0000000000000000    0.3761900000000000    0.6434200000000000 C
   0.0000000000000000    0.3448100000000000    0.6976300000000000 C
   0.9967800000000000    0.3579750000000000    0.7572300000000000 C
   0.1380800000000000    0.2061300000000000    0.5321700000000000 C
   0.1980200000000000    0.1782450000000000    0.4957500000000000 C
   0.2974300000000000    0.1737800000000000    0.5094300000000000 C
   0.0378100000000000    0.2172050000000000    0.5074900000000000 C
   0.4951900000000000    0.1264200000000000    0.6435000000000000 C
   0.4954900000000000    0.0950450000000000    0.6977300000000000 C
   0.5033400000000000    0.1081500000000000    0.7573299999999999 C
   0.5045900000000000    0.0770250000000000    0.8089900000000000 C
   0.5111000000000000    0.0894400000000000    0.8689600000000000 C
   0.5103200000000000    0.0564400000000000    0.9213700000000000 C
   0.2935500000000000    0.4779700000000000    0.8878000000000000 C
   0.1945500000000000    0.4900800000000000    0.8917300000000000 C
   0.1368000000000000    0.4747550000000000    0.9417000000000000 C
   0.1820900000000000    0.4450100000000000    0.9837399999999999 C
   0.2818200000000000    0.4352250000000000    0.9772999999999999 C
   0.0375900000000000    0.4950350000000000    0.9542200000000000 C
   0.7184600000000000    0.4696350000000000    0.9037300000000000 C
   0.8187500000000000    0.4761300000000000    0.9151300000000000 C
   0.8618700000000000    0.4564150000000000    0.9676700000000000 C
   0.8015200000000000    0.4281000000000000    0.0040000000000000 C
   0.7023300000000000    0.4234950000000000    0.9897800000000000 C
   0.9621300000000000    0.4672350000000000    0.9926000000000000 C
   0.5026600000000000    0.3793800000000000    0.8544200000000000 C
   0.5027400000000000    0.3472250000000000    0.8018999999999999 C
   0.4959000000000000    0.3594200000000000    0.7415800000000000 C
   0.4949200000000000    0.3274950000000000    0.6915900000000000 C
   0.4888500000000000    0.3389850000000000    0.6309600000000000 C
   0.4897100000000000    0.3053050000000000    0.5801800000000000 C
   0.2937600000000000    0.2731600000000000    0.3884100000000000 C
   0.1945200000000000    0.2612600000000000    0.3918600000000000 C
   0.1365900000000000    0.2760300000000000    0.4416400000000000 C
   0.1818100000000000    0.3052850000000000    0.4837000000000000 C
   0.2818000000000000    0.3148700000000000    0.4777500000000000 C
   0.0373800000000000    0.2555000000000000    0.4541200000000000 C
   0.7179400000000000    0.2810550000000000    0.4045800000000000 C
   0.8183700000000000    0.2746900000000000    0.4154900000000000 C
   0.8619500000000000    0.2938850000000000    0.4678100000000000 C
   0.8020100000000000    0.3217600000000000    0.5042300000000000 C
   0.7026000000000000    0.3262350000000000    0.4905500000000000 C
   0.9622200000000000    0.2828050000000000    0.4924800000000000 C
   0.5048800000000000    0.3737300000000000    0.3564700000000000 C
   0.5045700000000000    0.4050950000000000    0.3022600000000000 C
   0.4966900000000000    0.3919400000000000    0.2426800000000000 C
   0.4954200000000000    0.4230150000000000    0.1909600000000000 C
   0.4889200000000000    0.4105600000000000    0.1310000000000000 C
   0.4896900000000000    0.4435550000000000    0.0785700000000000 C
   0.7064700000000000    0.0220350000000000    0.1121100000000000 C
   0.8054600000000000    0.0099250000000000    0.1082400000000000 C
   0.8632300000000001    0.0252550000000000    0.0582800000000000 C
   0.8179400000000000    0.0550000000000000    0.0162300000000000 C
   0.7181999999999999    0.0647850000000000    0.0226700000000000 C
   0.9624400000000000    0.0049800000000000    0.0457600000000000 C
   0.2815800000000000    0.0303700000000000    0.0962400000000000 C
   0.1812900000000000    0.0238800000000000    0.0848500000000000 C
   0.1381600000000000    0.0435900000000000    0.0323000000000000 C
   0.1985200000000000    0.0719050000000000    0.9959800000000000 C
   0.2977000000000000    0.0765100000000000    0.0101900000000000 C
   0.0379000000000000    0.0327750000000000    0.0073000000000000 C
   0.4973700000000000    0.1206200000000000    0.1455400000000000 C
   0.4972900000000000    0.1527800000000000    0.1980500000000000 C
   0.5041099999999999    0.1405900000000000    0.2583800000000000 C
   0.5050900000000000    0.1725250000000000    0.3083600000000000 C
   0.5111599999999999    0.1610400000000000    0.3689900000000000 C
   0.5103100000000000    0.1947200000000000    0.4197800000000000 C
   0.7930900000000000    0.2718950000000000    0.1121800000000000 C
   0.6940200000000000    0.2598100000000000    0.1082800000000000 C
   0.6366500000000000    0.2751800000000000    0.0583300000000000 C
   0.6823900000000001    0.3049750000000000    0.0163600000000000 C
   0.7821500000000000    0.3147550000000000    0.0228400000000000 C
   0.5373599999999999    0.2549350000000000    0.0457700000000000 C
   0.2181100000000000    0.2804150000000000    0.0962400000000000 C
   0.4623100000000000    0.2827750000000000    0.0074300000000000 C
   0.2068000000000000    0.0231550000000000    0.3885000000000000 C
   0.3059500000000000    0.0112600000000000    0.3919900000000000 C
   0.3636700000000000    0.0260500000000000    0.4417900000000000 C
   0.3183400000000000    0.0552950000000000    0.4838700000000000 C
   0.2184500000000000    0.0648750000000000    0.4778000000000000 C
   0.4627800000000000    0.0055900000000000    0.4542000000000000 C
   0.7824900000000000    0.0311400000000000    0.4046300000000000 C
   0.6819499999999999    0.0248250000000000    0.4155500000000000 C
   0.6383000000000000    0.0440200000000000    0.4678900000000000 C
   0.6982699999999999    0.0718750000000000    0.5043100000000000 C
   0.7977800000000000    0.0763150000000000    0.4906200000000000 C
   0.5379000000000000    0.0328700000000000    0.4926000000000000 C
   0.9953800000000000    0.1238100000000000    0.3565500000000000 C
   0.9955600000000000    0.1551850000000000    0.3023400000000000 C
   0.0032400000000000    0.1420250000000000    0.2427000000000000 C
   0.0043500000000000    0.1730700000000000    0.1909900000000000 C
   0.0106600000000000    0.1605800000000000    0.1310300000000000 C
   0.0098900000000000    0.1935550000000000    0.0785700000000000 C
   0.2069400000000000    0.2281100000000000    0.8878000000000000 C
   0.3060100000000000    0.2402000000000000    0.8917000000000000 C
   0.3633800000000000    0.2248250000000000    0.9416400000000000 C
   0.3176400000000000    0.1950300000000000    0.9836200000000000 C
   0.2178800000000000    0.1852500000000000    0.9771400000000000 C
   0.4626700000000000    0.2450750000000000    0.9542000000000000 C
   0.7819199999999999    0.2195900000000000    0.9037300000000000 C
   0.6816200000000000    0.2261050000000000    0.9151000000000000 C
   0.6380400000000001    0.2064050000000000    0.9676399999999999 C
   0.6979400000000000    0.1781050000000000    0.0040100000000000 C
   0.7972200000000000    0.1735000000000000    0.9898400000000001 C
   0.5377200000000000    0.2172300000000000    0.9925400000000000 C
   0.9974400000000000    0.1293700000000000    0.8544400000000000 C
   0.9974200000000000    0.0972100000000000    0.8018999999999999 C
   0.0041900000000000    0.1094050000000000    0.7415900000000000 C
   0.0051700000000000    0.0774650000000000    0.6916099999999999 C
   0.0112000000000000    0.0889550000000000    0.6309700000000000 C
   0.0103200000000000    0.0552750000000000    0.5801900000000000 C
   0.7932500000000000    0.4768650000000000    0.6114900000000000 C
   0.6941000000000001    0.4887700000000000    0.6080000000000000 C
   0.6363600000000000    0.4739800000000000    0.5582200000000000 C
   0.6816600000000000    0.4447350000000000    0.5161000000000000 C
   0.7815500000000000    0.4351400000000000    0.5221700000000000 C
   0.5372500000000000    0.4944450000000000    0.5458200000000000 C
   0.2175200000000000    0.4688650000000000    0.5953700000000000 C
   0.3180500000000000    0.4751900000000000    0.5844600000000000 C
   0.3617300000000000    0.4560150000000000    0.5321200000000000 C
   0.3017700000000000    0.4281600000000000    0.4956800000000000 C
   0.9956700000000001    0.3269300000000000    0.8089900000000000 C
   0.9893600000000000    0.3394200000000000    0.8689500000000000 C
   0.9901400000000000    0.3064450000000000    0.9214000000000000 C
   0.3184200000000000    0.7739000000000000    0.0848700000000000 C
   0.3619900000000000    0.7936050000000000    0.0323000000000000 C
   0.3020900000000000    0.8219050000000000    0.9959700000000000 C
   0.2028100000000000    0.8265050000000000    0.0101400000000000 C
   0.7062700000000000    0.7268350000000000    0.6115600000000000 C
   0.8055099999999999    0.7387400000000000    0.6081200000000000 C
   0.8634300000000000    0.7239800000000001    0.5583000000000000 C
   0.8182199999999999    0.6947250000000000    0.5162099999999999 C
   0.7182300000000000    0.6851450000000000    0.5222000000000000 C
   0.9626500000000000    0.7445100000000000    0.5458499999999999 C
   0.2820900000000000    0.7189750000000000    0.5953900000000000 C
   0.1816600000000000    0.7253350000000001    0.5844800000000000 C
   0.2022600000000000    0.9237100000000000    0.5093600000000000 C
   0.4621200000000000    0.9671700000000000    0.5074000000000000 C
   0.0000000000000000    0.8761900000000000    0.6434200000000000 C
   0.0000000000000000    0.8448100000000001    0.6976300000000000 C
   0.9967800000000000    0.8579749999999999    0.7572300000000000 C
   0.1380800000000000    0.7061300000000000    0.5321700000000000 C
   0.1980200000000000    0.6782450000000000    0.4957500000000000 C
   0.2974300000000000    0.6737800000000000    0.5094300000000000 C
   0.0378100000000000    0.7172050000000000    0.5074900000000000 C
   0.4951900000000000    0.6264200000000000    0.6435000000000000 C
   0.4954900000000000    0.5950450000000000    0.6977300000000000 C
   0.5033400000000000    0.6081500000000000    0.7573299999999999 C
   0.5045900000000000    0.5770250000000000    0.8089900000000000 C
   0.5111000000000000    0.5894400000000000    0.8689600000000000 C
   0.5103200000000000    0.5564400000000000    0.9213700000000000 C
   0.2935500000000000    0.9779700000000000    0.8878000000000000 C
   0.1945500000000000    0.9900800000000001    0.8917300000000000 C
   0.1368000000000000    0.9747550000000000    0.9417000000000000 C
   0.1820900000000000    0.9450100000000000    0.9837399999999999 C
   0.2818200000000000    0.9352250000000000    0.9772999999999999 C
   0.0375900000000000    0.9950350000000000    0.9542200000000000 C
   0.7184600000000000    0.9696350000000000    0.9037300000000000 C
   0.8187500000000000    0.9761299999999999    0.9151300000000000 C
   0.8618700000000000    0.9564150000000000    0.9676700000000000 C
   0.8015200000000000    0.9280999999999999    0.0040000000000000 C
   0.7023300000000000    0.9234950000000000    0.9897800000000000 C
   0.9621300000000000    0.9672350000000001    0.9926000000000000 C
   0.5026600000000000    0.8793800000000001    0.8544200000000000 C
   0.5027400000000000    0.8472250000000000    0.8018999999999999 C
   0.4959000000000000    0.8594200000000001    0.7415800000000000 C
   0.4949200000000000    0.8274950000000000    0.6915900000000000 C
   0.4888500000000000    0.8389850000000000    0.6309600000000000 C
   0.4897100000000000    0.8053049999999999    0.5801800000000000 C
   0.2937600000000000    0.7731600000000001    0.3884100000000000 C
   0.1945200000000000    0.7612600000000000    0.3918600000000000 C
   0.1365900000000000    0.7760300000000000    0.4416400000000000 C
   0.1818100000000000    0.8052850000000000    0.4837000000000000 C
   0.2818000000000000    0.8148700000000000    0.4777500000000000 C
   0.0373800000000000    0.7555000000000001    0.4541200000000000 C
   0.7179400000000000    0.7810550000000001    0.4045800000000000 C
   0.8183700000000000    0.7746900000000000    0.4154900000000000 C
   0.8619500000000000    0.7938850000000000    0.4678100000000000 C
   0.8020100000000000    0.8217600000000000    0.5042300000000000 C
   0.7026000000000000    0.8262350000000001    0.4905500000000000 C
   0.9622200000000000    0.7828050000000000    0.4924800000000000 C
   0.5048800000000000    0.8737300000000000    0.3564700000000000 C
   0.5045700000000000    0.9050950000000000    0.3022600000000000 C
   0.4966900000000000    0.8919400000000000    0.2426800000000000 C
   0.4954200000000000    0.9230149999999999    0.1909600000000000 C
   0.4889200000000000    0.9105600000000000    0.1310000000000000 C
   0.4896900000000000    0.9435549999999999    0.0785700000000000 C