Cu8 H11 C42 N63 O4
1.0
   7.4645385374896813    0.0000000000000000    0.9519923436306650
   1.4971345200064763   12.4250712237226164    1.0746693977336244
   0.0000000000000000    0.0000000000000000   25.1340000000000003
Cu H C N O
8 11 42 63 4
direct
   0.4065800000000000    0.9405400000000000    0.6781100000000000 Cu
   0.5933500000000000    0.0594900000000000    0.8218850000000000 Cu
   0.5933500000000000    0.0594900000000000    0.3218850000000000 Cu
   0.4065800000000000    0.9405400000000000    0.1781100000000000 Cu
   0.9061500000000000    0.3562100000000000    0.4702850000000000 Cu
   0.0941600000000000    0.6437800000000000    0.0296900000000000 Cu
   0.9061500000000000    0.3562100000000000    0.9702850000000001 Cu
   0.0941600000000000    0.6437800000000000    0.5296900000000000 Cu
   0.6943868151870950    0.5225122713886015    0.9174495992711454 H
   0.8064767930005923    0.5851123779876893   -0.0169590118693833 H
   0.4476700000000000    0.4168600000000000    0.7340000000000000 H
   0.5060815302333160    0.2829111253660490    0.8269142933243292 H
   0.6878267412780187    0.8446613360494678    0.8207475751497915 H
   0.4476700000000000    0.4168600000000000    0.2340000000000000 H
   0.5524300000000000    0.5831700000000000    0.2660200000000000 H
   0.0526700000000000    0.5321100000000000    0.7915550000000000 H
   0.9473700000000000    0.4678700000000000    0.7084350000000000 H
   0.0526700000000000    0.5321100000000000    0.2915550000000000 H
   0.9473700000000000    0.4678700000000000    0.2084350000000000 H
   0.2029000000000000    0.4241300000000000    0.5220100000000000 C
   0.4941200000000000    0.7014300000000000    0.6751900000000000 C
   0.3172400000000000    0.1706100000000000    0.6812549999999999 C
   0.3619500000000000    0.3503500000000000    0.6688700000000000 C
   0.4360500000000000    0.5292500000000000    0.6670199999999999 C
   0.3245400000000000    0.4697700000000000    0.5964450000000000 C
   0.2029000000000000    0.4241300000000000    0.0220100000000000 C
   0.4941200000000000    0.7014300000000000    0.1751900000000000 C
   0.3172400000000000    0.1706100000000000    0.1812550000000000 C
   0.3619500000000000    0.3503500000000000    0.1688700000000000 C
   0.4360500000000000    0.5292500000000000    0.1670200000000000 C
   0.3245400000000000    0.4697700000000000    0.0964450000000000 C
   0.7971400000000000    0.5758100000000000    0.4780250000000000 C
   0.6827800000000001    0.8294200000000000    0.3187750000000000 C
   0.6381300000000000    0.6496600000000000    0.3311550000000000 C
   0.5058800000000000    0.2986000000000000    0.3248050000000000 C
   0.5640500000000001    0.4707500000000000    0.3329850000000000 C
   0.6756000000000000    0.5302000000000000    0.4035650000000000 C
   0.2973400000000000    0.9559800000000001    0.7877550000000000 C
   0.1826400000000000    0.6378000000000000    0.9146700000000000 C
   0.1384300000000000    0.6624200000000000    0.8247300000000000 C
   0.0064800000000000    0.6494600000000000    0.6492100000000001 C
   0.0646800000000000    0.6658400000000000    0.7352350000000000 C
   0.1761500000000000    0.8070300000000000    0.7649250000000001 C
   0.7026100000000000    0.0440300000000000    0.7122200000000000 C
   0.9935200000000000    0.3505800000000000    0.8508300000000000 C
   0.8175700000000000    0.3621400000000000    0.5852950000000000 C
   0.8616500000000000    0.3375600000000000    0.6752450000000000 C
   0.9353500000000000    0.3341300000000000    0.7647450000000000 C
   0.8238400000000000    0.1929600000000000    0.7350550000000000 C
   0.2973400000000000    0.9559800000000001    0.2877550000000000 C
   0.1826400000000000    0.6378000000000000    0.4146700000000000 C
   0.1384300000000000    0.6624200000000000    0.3247300000000000 C
   0.0064800000000000    0.6494600000000000    0.1492100000000000 C
   0.0646800000000000    0.6658400000000000    0.2352350000000000 C
   0.1761500000000000    0.8070300000000000    0.2649250000000000 C
   0.7026100000000000    0.0440300000000000    0.2122200000000000 C
   0.9935200000000000    0.3505800000000000    0.3508300000000000 C
   0.8175700000000000    0.3621400000000000    0.0852950000000000 C
   0.8616500000000000    0.3375600000000000    0.1752450000000000 C
   0.9353500000000000    0.3341300000000000    0.2647450000000000 C
   0.8238400000000000    0.1929600000000000    0.2350550000000000 C
   0.4200600000000000    0.4305500000000000    0.6940700000000000 N
   0.1485200000000000    0.3700800000000000    0.4928850000000000 N
   0.2589400000000000    0.4965900000000000    0.5479750000000000 N
   0.4928700000000000    0.7940700000000001    0.6627300000000000 N
   0.5001500000000000    0.6017800000000000    0.6943350000000000 N
   0.2887400000000000    0.0847100000000000    0.6701300000000000 N
   0.3461800000000000    0.2580600000000000    0.6995400000000001 N
   0.3159600000000000    0.3683900000000000    0.6191150000000000 N
   0.3881700000000000    0.5506100000000000    0.6177100000000000 N
   0.4200600000000000    0.4305500000000000    0.1940700000000000 N
   0.1485200000000000    0.3700800000000000    0.9928850000000000 N
   0.2589400000000000    0.4965900000000000    0.0479750000000000 N
   0.4928700000000000    0.7940700000000001    0.1627300000000000 N
   0.5001500000000000    0.6017800000000000    0.1943350000000000 N
   0.2887400000000000    0.0847100000000000    0.1701300000000000 N
   0.3461800000000000    0.2580600000000000    0.1995400000000000 N
   0.3159600000000000    0.3683900000000000    0.1191150000000000 N
   0.3881700000000000    0.5506100000000000    0.1177100000000000 N
   0.5800600000000000    0.5694600000000000    0.3059450000000000 N
   0.8514000000000000    0.6298700000000000    0.5071750000000000 N
   0.7411900000000000    0.5033600000000000    0.4520400000000000 N
   0.7112300000000000    0.9153400000000000    0.3298950000000000 N
   0.6539100000000000    0.7419500000000000    0.3004900000000000 N
   0.6841500000000000    0.6316000000000001    0.3809100000000000 N
   0.5070700000000000    0.2059600000000000    0.3372600000000000 N
   0.4999200000000000    0.3982400000000000    0.3056700000000000 N
   0.6119800000000000    0.4493700000000000    0.3822900000000000 N
   0.0805300000000000    0.6118900000000000    0.7846250000000000 N
   0.3513100000000000    0.0143400000000000    0.8147949999999999 N
   0.2416800000000000    0.9039199999999999    0.7515050000000000 N
   0.2110700000000000    0.6599400000000000    0.9576450000000001 N
   0.1538000000000000    0.6012500000000000    0.8709350000000000 N
   0.1844700000000000    0.7618800000000000    0.8156550000000000 N
   0.0078200000000000    0.6744200000000000    0.6029100000000001 N
   0.0005100000000000    0.6112100000000000    0.6990100000000000 N
   0.1125600000000000    0.7644100000000000    0.7245150000000000 N
   0.9194800000000000    0.3881000000000000    0.7153550000000000 N
   0.6486600000000000    0.9856700000000000    0.6851750000000000 N
   0.7582500000000000    0.0960900000000000    0.7484700000000000 N
   0.9921300000000000    0.3256300000000000    0.8971300000000000 N
   0.9995500000000000    0.3888000000000000    0.8010250000000000 N
   0.7892200000000000    0.3399600000000000    0.5423200000000000 N
   0.8462900000000000    0.3987200000000000    0.6290350000000000 N
   0.8155700000000000    0.2381000000000000    0.6843200000000000 N
   0.8873900000000000    0.2355800000000000    0.7754700000000000 N
   0.0805300000000000    0.6118900000000000    0.2846250000000000 N
   0.3513100000000000    0.0143400000000000    0.3147950000000000 N
   0.2416800000000000    0.9039199999999999    0.2515050000000000 N
   0.2110700000000000    0.6599400000000000    0.4576450000000000 N
   0.1538000000000000    0.6012500000000000    0.3709350000000000 N
   0.1844700000000000    0.7618800000000000    0.3156550000000000 N
   0.0078200000000000    0.6744200000000000    0.1029100000000000 N
   0.0005100000000000    0.6112100000000000    0.1990100000000000 N
   0.1125600000000000    0.7644100000000000    0.2245150000000000 N
   0.9194800000000000    0.3881000000000000    0.2153550000000000 N
   0.6486600000000000    0.9856700000000000    0.1851750000000000 N
   0.7582500000000000    0.0960900000000000    0.2484700000000000 N
   0.9921300000000000    0.3256300000000000    0.3971300000000000 N
   0.9995500000000000    0.3888000000000000    0.3010250000000000 N
   0.7892200000000000    0.3399600000000000    0.0423200000000000 N
   0.8462900000000000    0.3987200000000000    0.1290350000000000 N
   0.8155700000000000    0.2381000000000000    0.1843200000000000 N
   0.8873900000000000    0.2355800000000000    0.2754700000000000 N
   0.7411900000000000    0.5033600000000000    0.9520400000000000 O
   0.8514000000000000    0.6298700000000000    0.0071750000000000 O
   0.5070700000000000    0.2059600000000000    0.8372600000000000 O
   0.7112300000000000    0.9153400000000000    0.8298950000000000 O
