H1 C6 N9
1.0
   7.4645385374896813    0.0000000000000000    0.9519923436306650
   1.4971345200064763   12.4250712237226164    1.0746693977336244
   0.0000000000000000    0.0000000000000000   25.1340000000000003
H C N
1 6 9
direct
   0.5524300000000000    0.5831700000000000    0.7660199999999999 H
   0.5640500000000001    0.4707500000000000    0.8329850000000000 C
   0.6381300000000000    0.6496600000000000    0.8311550000000000 C
   0.6756000000000000    0.5302000000000000    0.9035650000000000 C
   0.5058800000000000    0.2986000000000000    0.8248050000000000 C
   0.6827800000000001    0.8294200000000000    0.8187750000000000 C
   0.7971400000000000    0.5758100000000000    0.9780249999999999 C
   0.8514000000000000    0.6298700000000000    0.0071750000000000 N
   0.5800600000000000    0.5694600000000000    0.8059450000000000 N
   0.6841500000000000    0.6316000000000001    0.8809100000000001 N
   0.6119800000000000    0.4493700000000000    0.8822900000000000 N
   0.4999200000000000    0.3982400000000000    0.8056700000000000 N
   0.5070700000000000    0.2059600000000000    0.8372600000000000 N
   0.6539100000000000    0.7419500000000000    0.8004899999999999 N
   0.7112300000000000    0.9153400000000000    0.8298950000000000 N
   0.7411900000000000    0.5033600000000000    0.9520400000000000 N
