H4 O2
1.0
  33.2678900296869173    0.0000000000000000   -0.7346216527287909
  -0.0000249479497339   16.1829999605437784   -0.0011297865304829
   0.0000000000000000    0.0000000000000000   35.9739999999999966
H O
4 2
direct
   0.3573261215200492    0.9999727349383193    0.8912964793447057 H
   0.3065830958093157    0.9999945309369741    0.8898462885710625 H
   0.3093472117317097    0.9999900000000000    0.6087035206969840 H
   0.3600895749386596    1.0000117979248102    0.6101547210364315 H
   0.3318233333333333    0.9999800000000000    0.9043300000000001 O
   0.3348500000000000    0.9999900000000000    0.5956700000000000 O
