H7 C11 N2 O2
1.0
  34.0099991245767512    0.0000000000000000   -0.0077166241556339
  -7.4767257844837980   36.7164739708425216   -0.0032698743494586
   0.0000000000000000    0.0000000000000000   38.7359999999999971
H C N O
7 11 2 2
direct
   0.7123349999999999    0.4009850000000000    0.0387550000000000 H
   0.6987950000000001    0.3531600000000000    0.0847500000000000 H
   0.6141000000000000    0.4447400000000000    0.0794550000000000 H
   0.6763049999999999    0.3089950000000000    0.1195950000000000 H
   0.6509950000000000    0.2646300000000000    0.1657600000000000 H
   0.5706150000000000    0.3262600000000000    0.2004650000000000 H
   0.5916650000000000    0.3731750000000000    0.1549300000000000 H
   0.6878400000000000    0.4000800000000000    0.0570500000000000 C
   0.6799999999999999    0.3734400000000000    0.0826700000000000 C
   0.6481500000000000    0.3734500000000000    0.1057750000000000 C
   0.6682800000000000    0.4543050000000000    0.0268700000000000 C
   0.6637550000000000    0.4262550000000000    0.0549700000000000 C
   0.6335600000000000    0.4248800000000000    0.0798400000000000 C
   0.6361550000000000    0.3455750000000000    0.1331100000000000 C
   0.6526650000000001    0.3142900000000000    0.1366500000000000 C
   0.6386499999999999    0.2891150000000000    0.1624550000000000 C
   0.5939099999999999    0.3236200000000000    0.1818750000000000 C
   0.6060900000000000    0.3498400000000000    0.1567800000000000 C
   0.6257550000000001    0.3994550000000000    0.1044000000000000 N
   0.6096450000000000    0.2934000000000000    0.1848650000000000 N
   0.6424750000000000    0.4750050000000000    0.0252250000000000 O
   0.6966700000000000    0.4562950000000000    0.0052450000000000 O
