H6 O4
1.0
  31.9637732619858745    0.0000000000000000   18.3006399575631491
   5.3116501377556897   15.0850786945719459    9.1451463953646730
   0.0000000000000000    0.0000000000000000   36.8440000000000012
H O
6 4
direct
   0.9433113987795856    0.5071633454270786    0.8595393605790277 H
   0.9433112806510123    0.7190461932447354    0.7535895786543486 H
   0.9472053760880720    0.6053180199695867    0.8026705669483607 H
   0.0566947460204266    0.2809169638106965    0.7464152287815665 H
   0.0566958726771417    0.4928167837385805    0.6404716598452571 H
   0.0528022731459889    0.3946554537080222    0.6973352268540111 H
   0.9333549999999999    0.5713800000000000    0.8473400000000000 O
   0.9333549999999999    0.6946500000000000    0.7857000000000001 O
   0.0666500000000000    0.3053200000000000    0.7143050000000000 O
   0.0666500000000000    0.4286000000000000    0.6526700000000000 O
