H4 C8 O4
1.0
  31.9637732619858745    0.0000000000000000   18.3006399575631491
   5.3116501377556897   15.0850786945719459    9.1451463953646730
   0.0000000000000000    0.0000000000000000   36.8440000000000012
H C O
4 8 4
direct
   0.0240800000000000    0.3357300000000000    0.7840199999999999 H
   0.0240800000000000    0.5680100000000000    0.6678700000000000 H
   0.9759249999999999    0.4319700000000000    0.8321350000000001 H
   0.9759300000000000    0.6642400000000001    0.7159900000000000 H
   0.0133350000000000    0.4076900000000000    0.7695100000000000 C
   0.0133350000000000    0.5390000000000000    0.7038500000000000 C
   0.0555750000000000    0.3890500000000000    0.6945350000000000 C
   0.0268400000000000    0.4463700000000000    0.7231950000000000 C
   0.9866699999999999    0.4609800000000000    0.7961549999999999 C
   0.9866699999999999    0.5922800000000000    0.7304950000000000 C
   0.9444300000000000    0.6109200000000000    0.8054749999999999 C
   0.9731650000000001    0.5536000000000000    0.7768150000000000 C
   0.0666500000000000    0.3053200000000000    0.7143050000000000 O
   0.0666500000000000    0.4286000000000000    0.6526700000000000 O
   0.9333549999999999    0.5713800000000000    0.8473400000000000 O
   0.9333549999999999    0.6946500000000000    0.7857000000000001 O
