Zn32 H92 C184 O100
1.0
  31.9637732619858745    0.0000000000000000   18.3006399575631491
   5.3116501377556897   15.0850786945719459    9.1451463953646730
   0.0000000000000000    0.0000000000000000   36.8440000000000012
Zn H C O
32 92 184 100
direct
   0.1902450000000000    0.2067600000000000    0.1033800000000000 Zn
   0.1030750000000000    0.2063800000000000    0.1031900000000000 Zn
   0.1033650000000000    0.2066900000000000    0.1901950000000000 Zn
   0.3097600000000000    0.7932100000000000    0.3966000000000000 Zn
   0.3966400000000000    0.6196000000000000    0.3966600000000000 Zn
   0.3969300000000000    0.7935900000000000    0.3968200000000000 Zn
   0.3966350000000000    0.7932800000000000    0.3098100000000000 Zn
   0.1033650000000000    0.3803700000000000    0.1033500000000000 Zn
   0.6902450000000000    0.2067600000000000    0.1033800000000000 Zn
   0.6030750000000000    0.2063800000000000    0.1031900000000000 Zn
   0.6033650000000000    0.2066900000000000    0.1901950000000000 Zn
   0.8097600000000000    0.7932100000000000    0.3966000000000000 Zn
   0.8966400000000000    0.6196000000000000    0.3966600000000000 Zn
   0.8969300000000000    0.7935900000000000    0.3968200000000000 Zn
   0.8966350000000001    0.7932800000000000    0.3098100000000000 Zn
   0.6033650000000000    0.3803700000000000    0.1033500000000000 Zn
   0.1902450000000000    0.2067600000000000    0.6033800000000000 Zn
   0.1030750000000000    0.2063800000000000    0.6031900000000000 Zn
   0.1033650000000000    0.2066900000000000    0.6901950000000000 Zn
   0.3097600000000000    0.7932100000000000    0.8966000000000001 Zn
   0.3966400000000000    0.6196000000000000    0.8966600000000000 Zn
   0.3969300000000000    0.7935900000000000    0.8968200000000000 Zn
   0.3966350000000000    0.7932800000000000    0.8098099999999999 Zn
   0.1033650000000000    0.3803700000000000    0.6033500000000001 Zn
   0.6902450000000000    0.2067600000000000    0.6033800000000000 Zn
   0.6030750000000000    0.2063800000000000    0.6031900000000000 Zn
   0.6033650000000000    0.2066900000000000    0.6901950000000000 Zn
   0.8097600000000000    0.7932100000000000    0.8966000000000001 Zn
   0.8966400000000000    0.6196000000000000    0.8966600000000000 Zn
   0.8969300000000000    0.7935900000000000    0.8968200000000000 Zn
   0.8966350000000001    0.7932800000000000    0.8098099999999999 Zn
   0.6033650000000000    0.3803700000000000    0.6033500000000001 Zn
   0.0242550000000000    0.5680100000000000    0.0242600000000000 H
   0.2841000000000000    0.0480800000000000    0.1678700000000000 H
   0.0238250000000000    0.3357500000000000    0.0238300000000000 H
   0.1678150000000000    0.0481800000000000    0.2840000000000000 H
   0.0238250000000000    0.0476700000000000    0.1678750000000000 H
   0.2840950000000000    0.3357400000000000    0.0240350000000000 H
   0.0242600000000000    0.0485100000000000    0.2840200000000000 H
   0.1678100000000000    0.5680400000000000    0.0240950000000000 H
   0.0240800000000000    0.3357300000000000    0.2840200000000000 H
   0.2840600000000000    0.0484700000000000    0.0242300000000000 H
   0.0240800000000000    0.5680100000000000    0.1678700000000000 H
   0.1678200000000000    0.0477400000000000    0.0238650000000000 H
   0.2159450000000000    0.9515100000000000    0.4757750000000000 H
   0.4759250000000000    0.4319700000000000    0.3321350000000000 H
   0.3321850000000000    0.9522400000000000    0.4761400000000000 H
   0.4759300000000000    0.6642400000000001    0.2159900000000000 H
   0.4761800000000000    0.9523000000000000    0.3321300000000000 H
   0.3321950000000000    0.4319300000000000    0.4759100000000000 H
   0.4757450000000000    0.9514600000000000    0.2159900000000000 H
   0.2159100000000000    0.6642300000000000    0.4759700000000000 H
   0.3321900000000000    0.9517900000000000    0.2159750000000000 H
   0.4757500000000000    0.4319600000000000    0.4755000000000000 H
   0.2159050000000000    0.9519000000000000    0.3321350000000000 H
   0.4761800000000000    0.6642200000000000    0.4761750000000000 H
   0.5242550000000000    0.5680100000000000    0.0242600000000000 H
   0.7841000000000000    0.0480800000000000    0.1678700000000000 H
   0.5238250000000000    0.3357500000000000    0.0238300000000000 H
   0.6678150000000000    0.0481800000000000    0.2840000000000000 H
   0.5238250000000000    0.0476700000000000    0.1678750000000000 H
   0.7840950000000000    0.3357400000000000    0.0240350000000000 H
   0.5242599999999999    0.0485100000000000    0.2840200000000000 H
   0.6678100000000000    0.5680400000000000    0.0240950000000000 H
   0.5240800000000000    0.3357300000000000    0.2840200000000000 H
   0.7840600000000000    0.0484700000000000    0.0242300000000000 H
   0.5240800000000000    0.5680100000000000    0.1678700000000000 H
   0.6678200000000000    0.0477400000000000    0.0238650000000000 H
   0.7159450000000001    0.9515100000000000    0.4757750000000000 H
   0.9759249999999999    0.4319700000000000    0.3321350000000000 H
   0.8321850000000000    0.9522400000000000    0.4761400000000000 H
   0.9759300000000000    0.6642400000000001    0.2159900000000000 H
   0.9761800000000000    0.9523000000000000    0.3321300000000000 H
   0.8321950000000000    0.4319300000000000    0.4759100000000000 H
   0.9757450000000000    0.9514600000000000    0.2159900000000000 H
   0.7159100000000000    0.6642300000000000    0.4759700000000000 H
   0.8321900000000000    0.9517900000000000    0.2159750000000000 H
   0.9757500000000000    0.4319600000000000    0.4755000000000000 H
   0.7159050000000000    0.9519000000000000    0.3321350000000000 H
   0.9761800000000000    0.6642200000000000    0.4761750000000000 H
   0.0242550000000000    0.5680100000000000    0.5242599999999999 H
   0.2841000000000000    0.0480800000000000    0.6678700000000000 H
   0.0238250000000000    0.3357500000000000    0.5238300000000000 H
   0.1678150000000000    0.0481800000000000    0.7840000000000000 H
   0.0238250000000000    0.0476700000000000    0.6678750000000000 H
   0.2840950000000000    0.3357400000000000    0.5240350000000000 H
   0.0242600000000000    0.0485100000000000    0.7840199999999999 H
   0.1678100000000000    0.5680400000000000    0.5240950000000000 H
   0.2840600000000000    0.0484700000000000    0.5242300000000000 H
   0.1678200000000000    0.0477400000000000    0.5238650000000000 H
   0.2159450000000000    0.9515100000000000    0.9757750000000001 H
   0.4759250000000000    0.4319700000000000    0.8321350000000001 H
   0.3321850000000000    0.9522400000000000    0.9761400000000000 H
   0.4759300000000000    0.6642400000000001    0.7159900000000000 H
   0.4761800000000000    0.9523000000000000    0.8321300000000000 H
   0.3321950000000000    0.4319300000000000    0.9759100000000001 H
   0.4757450000000000    0.9514600000000000    0.7159900000000000 H
   0.2159100000000000    0.6642300000000000    0.9759700000000000 H
   0.3321900000000000    0.9517900000000000    0.7159750000000000 H
   0.4757500000000000    0.4319600000000000    0.9755000000000000 H
   0.2159050000000000    0.9519000000000000    0.8321350000000001 H
   0.4761800000000000    0.6642200000000000    0.9761750000000000 H
   0.5242550000000000    0.5680100000000000    0.5242599999999999 H
   0.7841000000000000    0.0480800000000000    0.6678700000000000 H
   0.5238250000000000    0.3357500000000000    0.5238300000000000 H
   0.6678150000000000    0.0481800000000000    0.7840000000000000 H
   0.5238250000000000    0.0476700000000000    0.6678750000000000 H
   0.7840950000000000    0.3357400000000000    0.5240350000000000 H
   0.5242599999999999    0.0485100000000000    0.7840199999999999 H
   0.6678100000000000    0.5680400000000000    0.5240950000000000 H
   0.5240800000000000    0.3357300000000000    0.7840199999999999 H
   0.7840600000000000    0.0484700000000000    0.5242300000000000 H
   0.5240800000000000    0.5680100000000000    0.6678700000000000 H
   0.6678200000000000    0.0477400000000000    0.5238650000000000 H
   0.7159450000000001    0.9515100000000000    0.9757750000000001 H
   0.8321850000000000    0.9522400000000000    0.9761400000000000 H
   0.9761800000000000    0.9523000000000000    0.8321300000000000 H
   0.8321950000000000    0.4319300000000000    0.9759100000000001 H
   0.9757450000000000    0.9514600000000000    0.7159900000000000 H
   0.7159100000000000    0.6642300000000000    0.9759700000000000 H
   0.8321900000000000    0.9517900000000000    0.7159750000000000 H
   0.9757500000000000    0.4319600000000000    0.9755000000000000 H
   0.7159050000000000    0.9519000000000000    0.8321350000000001 H
   0.9761800000000000    0.6642200000000000    0.9761750000000000 H
   0.0134400000000000    0.5389699999999999    0.0134400000000000 C
   0.2695550000000000    0.0266300000000000    0.2038500000000000 C
   0.0131950000000000    0.4077000000000000    0.0132000000000000 C
   0.2038200000000000    0.0266800000000000    0.2695150000000000 C
   0.0131950000000000    0.0264000000000000    0.2038550000000000 C
   0.2695500000000000    0.4076900000000000    0.0133100000000000 C
   0.0134450000000000    0.0268800000000000    0.2694950000000000 C
   0.2038150000000000    0.5390100000000000    0.0133450000000000 C
   0.0133350000000000    0.4076900000000000    0.2695100000000000 C
   0.2695150000000000    0.0268600000000000    0.0134000000000000 C
   0.0133350000000000    0.5390000000000000    0.2038500000000000 C
   0.2038200000000000    0.0264400000000000    0.0132200000000000 C
   0.2304900000000000    0.9731100000000000    0.4865800000000000 C
   0.4866700000000000    0.4609800000000000    0.2961550000000000 C
   0.2961850000000000    0.9735300000000000    0.4867900000000000 C
   0.4866700000000000    0.5922800000000000    0.2304950000000000 C
   0.4868100000000000    0.9735700000000000    0.2961500000000000 C
   0.2961900000000000    0.4609600000000000    0.4866600000000000 C
   0.4865600000000000    0.9730900000000000    0.2305100000000000 C
   0.2304550000000000    0.5922800000000000    0.4866950000000000 C
   0.2961850000000000    0.9732800000000000    0.2304900000000000 C
   0.4865650000000000    0.4610000000000000    0.4865650000000000 C
   0.2304500000000000    0.9733400000000000    0.2961550000000000 C
   0.4868100000000000    0.5922700000000000    0.4868100000000000 C
   0.0554550000000000    0.3889800000000000    0.0554950000000000 C
   0.0268100000000000    0.4463200000000000    0.0268200000000000 C
   0.1945550000000000    0.1111200000000000    0.1945500000000000 C
   0.2232050000000000    0.0536700000000000    0.2230000000000000 C
   0.0554600000000000    0.1109900000000000    0.1900000000000000 C
   0.0268100000000000    0.0536400000000000    0.2231700000000000 C
   0.1945550000000000    0.3890800000000000    0.0555650000000000 C
   0.2232000000000000    0.4463800000000000    0.0268350000000000 C
   0.0555750000000000    0.3890500000000000    0.1945350000000000 C
   0.0268400000000000    0.4463700000000000    0.2231950000000000 C
   0.1944750000000000    0.1110000000000000    0.0555000000000000 C
   0.2231600000000000    0.0536500000000000    0.0268250000000000 C
   0.3055300000000000    0.8889700000000000    0.4445050000000000 C
   0.2768450000000000    0.9463200000000001    0.4731800000000000 C
   0.4444300000000000    0.6109200000000000    0.3054750000000000 C
   0.4731650000000000    0.5536000000000000    0.2768150000000000 C
   0.4445450000000000    0.8889800000000000    0.3055100000000000 C
   0.4731950000000000    0.9463300000000000    0.2768400000000000 C
   0.3054550000000000    0.6108900000000000    0.4444400000000000 C
   0.2768050000000000    0.5535900000000000    0.4731750000000000 C
   0.3054500000000000    0.8888400000000000    0.3054600000000000 C
   0.2768000000000000    0.9463100000000000    0.2768100000000000 C
   0.4445500000000000    0.6109900000000000    0.4445000000000000 C
   0.4731950000000000    0.5536500000000000    0.4731850000000000 C
   0.5134400000000000    0.5389699999999999    0.0134400000000000 C
   0.7695550000000000    0.0266300000000000    0.2038500000000000 C
   0.5131950000000000    0.4077000000000000    0.0132000000000000 C
   0.7038200000000000    0.0266800000000000    0.2695150000000000 C
   0.5131950000000000    0.0264000000000000    0.2038550000000000 C
   0.7695500000000000    0.4076900000000000    0.0133100000000000 C
   0.5134450000000000    0.0268800000000000    0.2694950000000000 C
   0.7038150000000000    0.5390100000000000    0.0133450000000000 C
   0.5133350000000000    0.4076900000000000    0.2695100000000000 C
   0.7695149999999999    0.0268600000000000    0.0134000000000000 C
   0.5133350000000000    0.5390000000000000    0.2038500000000000 C
   0.7038200000000000    0.0264400000000000    0.0132200000000000 C
   0.7304900000000000    0.9731100000000000    0.4865800000000000 C
   0.9866699999999999    0.4609800000000000    0.2961550000000000 C
   0.7961849999999999    0.9735300000000000    0.4867900000000000 C
   0.9866699999999999    0.5922800000000000    0.2304950000000000 C
   0.9868100000000000    0.9735700000000000    0.2961500000000000 C
   0.7961900000000000    0.4609600000000000    0.4866600000000000 C
   0.9865600000000000    0.9730900000000000    0.2305100000000000 C
   0.7304550000000000    0.5922800000000000    0.4866950000000000 C
   0.7961849999999999    0.9732800000000000    0.2304900000000000 C
   0.9865650000000000    0.4610000000000000    0.4865650000000000 C
   0.7304500000000000    0.9733400000000000    0.2961550000000000 C
   0.9868100000000000    0.5922700000000000    0.4868100000000000 C
   0.5554550000000000    0.3889800000000000    0.0554950000000000 C
   0.5268100000000000    0.4463200000000000    0.0268200000000000 C
   0.6945550000000000    0.1111200000000000    0.1945500000000000 C
   0.7232050000000000    0.0536700000000000    0.2230000000000000 C
   0.5554600000000000    0.1109900000000000    0.1900000000000000 C
   0.5268100000000000    0.0536400000000000    0.2231700000000000 C
   0.6945550000000000    0.3890800000000000    0.0555650000000000 C
   0.7232000000000001    0.4463800000000000    0.0268350000000000 C
   0.5555750000000000    0.3890500000000000    0.1945350000000000 C
   0.5268400000000000    0.4463700000000000    0.2231950000000000 C
   0.6944750000000000    0.1110000000000000    0.0555000000000000 C
   0.7231600000000000    0.0536500000000000    0.0268250000000000 C
   0.8055300000000001    0.8889700000000000    0.4445050000000000 C
   0.7768450000000000    0.9463200000000001    0.4731800000000000 C
   0.9444300000000000    0.6109200000000000    0.3054750000000000 C
   0.9731650000000001    0.5536000000000000    0.2768150000000000 C
   0.9445450000000000    0.8889800000000000    0.3055100000000000 C
   0.9731950000000000    0.9463300000000000    0.2768400000000000 C
   0.8054550000000000    0.6108900000000000    0.4444400000000000 C
   0.7768050000000000    0.5535900000000000    0.4731750000000000 C
   0.8054500000000000    0.8888400000000000    0.3054600000000000 C
   0.7767999999999999    0.9463100000000000    0.2768100000000000 C
   0.9445500000000000    0.6109900000000000    0.4445000000000000 C
   0.9731950000000000    0.5536500000000000    0.4731850000000000 C
   0.0134400000000000    0.5389699999999999    0.5134400000000000 C
   0.2695550000000000    0.0266300000000000    0.7038500000000000 C
   0.0131950000000000    0.4077000000000000    0.5132000000000000 C
   0.2038200000000000    0.0266800000000000    0.7695149999999999 C
   0.0131950000000000    0.0264000000000000    0.7038550000000000 C
   0.2695500000000000    0.4076900000000000    0.5133100000000000 C
   0.0134450000000000    0.0268800000000000    0.7694950000000000 C
   0.2038150000000000    0.5390100000000000    0.5133450000000001 C
   0.2695150000000000    0.0268600000000000    0.5134000000000000 C
   0.2038200000000000    0.0264400000000000    0.5132200000000000 C
   0.2304900000000000    0.9731100000000000    0.9865800000000000 C
   0.4866700000000000    0.4609800000000000    0.7961549999999999 C
   0.2961850000000000    0.9735300000000000    0.9867900000000001 C
   0.4866700000000000    0.5922800000000000    0.7304950000000000 C
   0.4868100000000000    0.9735700000000000    0.7961500000000000 C
   0.2961900000000000    0.4609600000000000    0.9866600000000000 C
   0.4865600000000000    0.9730900000000000    0.7305100000000000 C
   0.2304550000000000    0.5922800000000000    0.9866950000000000 C
   0.2961850000000000    0.9732800000000000    0.7304900000000000 C
   0.4865650000000000    0.4610000000000000    0.9865650000000000 C
   0.2304500000000000    0.9733400000000000    0.7961549999999999 C
   0.4868100000000000    0.5922700000000000    0.9868100000000000 C
   0.0554550000000000    0.3889800000000000    0.5554950000000000 C
   0.0268100000000000    0.4463200000000000    0.5268200000000000 C
   0.1945550000000000    0.1111200000000000    0.6945500000000000 C
   0.2232050000000000    0.0536700000000000    0.7230000000000000 C
   0.0554600000000000    0.1109900000000000    0.6899999999999999 C
   0.0268100000000000    0.0536400000000000    0.7231700000000000 C
   0.1945550000000000    0.3890800000000000    0.5555650000000000 C
   0.2232000000000000    0.4463800000000000    0.5268350000000001 C
   0.1944750000000000    0.1110000000000000    0.5555000000000000 C
   0.2231600000000000    0.0536500000000000    0.5268250000000000 C
   0.3055300000000000    0.8889700000000000    0.9445049999999999 C
   0.2768450000000000    0.9463200000000001    0.9731799999999999 C
   0.4444300000000000    0.6109200000000000    0.8054749999999999 C
   0.4731650000000000    0.5536000000000000    0.7768150000000000 C
   0.4445450000000000    0.8889800000000000    0.8055099999999999 C
   0.4731950000000000    0.9463300000000000    0.7768400000000000 C
   0.3054550000000000    0.6108900000000000    0.9444399999999999 C
   0.2768050000000000    0.5535900000000000    0.9731750000000000 C
   0.3054500000000000    0.8888400000000000    0.8054600000000001 C
   0.2768000000000000    0.9463100000000000    0.7768100000000000 C
   0.4445500000000000    0.6109900000000000    0.9445000000000000 C
   0.4731950000000000    0.5536500000000000    0.9731850000000000 C
   0.5134400000000000    0.5389699999999999    0.5134400000000000 C
   0.7695550000000000    0.0266300000000000    0.7038500000000000 C
   0.5131950000000000    0.4077000000000000    0.5132000000000000 C
   0.7038200000000000    0.0266800000000000    0.7695149999999999 C
   0.5131950000000000    0.0264000000000000    0.7038550000000000 C
   0.7695500000000000    0.4076900000000000    0.5133100000000000 C
   0.5134450000000000    0.0268800000000000    0.7694950000000000 C
   0.7038150000000000    0.5390100000000000    0.5133450000000001 C
   0.5133350000000000    0.4076900000000000    0.7695100000000000 C
   0.7695149999999999    0.0268600000000000    0.5134000000000000 C
   0.5133350000000000    0.5390000000000000    0.7038500000000000 C
   0.7038200000000000    0.0264400000000000    0.5132200000000000 C
   0.7304900000000000    0.9731100000000000    0.9865800000000000 C
   0.7961849999999999    0.9735300000000000    0.9867900000000001 C
   0.9868100000000000    0.9735700000000000    0.7961500000000000 C
   0.7961900000000000    0.4609600000000000    0.9866600000000000 C
   0.9865600000000000    0.9730900000000000    0.7305100000000000 C
   0.7304550000000000    0.5922800000000000    0.9866950000000000 C
   0.7961849999999999    0.9732800000000000    0.7304900000000000 C
   0.9865650000000000    0.4610000000000000    0.9865650000000000 C
   0.7304500000000000    0.9733400000000000    0.7961549999999999 C
   0.9868100000000000    0.5922700000000000    0.9868100000000000 C
   0.5554550000000000    0.3889800000000000    0.5554950000000000 C
   0.5268100000000000    0.4463200000000000    0.5268200000000000 C
   0.6945550000000000    0.1111200000000000    0.6945500000000000 C
   0.7232050000000000    0.0536700000000000    0.7230000000000000 C
   0.5554600000000000    0.1109900000000000    0.6899999999999999 C
   0.5268100000000000    0.0536400000000000    0.7231700000000000 C
   0.6945550000000000    0.3890800000000000    0.5555650000000000 C
   0.7232000000000001    0.4463800000000000    0.5268350000000001 C
   0.5555750000000000    0.3890500000000000    0.6945350000000000 C
   0.5268400000000000    0.4463700000000000    0.7231950000000000 C
   0.6944750000000000    0.1110000000000000    0.5555000000000000 C
   0.7231600000000000    0.0536500000000000    0.5268250000000000 C
   0.8055300000000001    0.8889700000000000    0.9445049999999999 C
   0.7768450000000000    0.9463200000000001    0.9731799999999999 C
   0.9445450000000000    0.8889800000000000    0.8055099999999999 C
   0.9731950000000000    0.9463300000000000    0.7768400000000000 C
   0.8054550000000000    0.6108900000000000    0.9444399999999999 C
   0.7768050000000000    0.5535900000000000    0.9731750000000000 C
   0.8054500000000000    0.8888400000000000    0.8054600000000001 C
   0.7767999999999999    0.9463100000000000    0.7768100000000000 C
   0.9445500000000000    0.6109900000000000    0.9445000000000000 C
   0.9731950000000000    0.5536500000000000    0.9731850000000000 C
   0.0666200000000000    0.4286000000000000    0.0665900000000000 O
   0.2143550000000000    0.1333900000000000    0.1526750000000000 O
   0.0663900000000000    0.3052100000000000    0.0665000000000000 O
   0.1526550000000000    0.1332300000000000    0.2143300000000000 O
   0.0663800000000000    0.1330300000000000    0.1526100000000000 O
   0.2143550000000000    0.3053400000000000    0.0666850000000000 O
   0.0666300000000000    0.1331600000000000    0.2143100000000000 O
   0.1526550000000000    0.4286400000000000    0.0666200000000000 O
   0.0666500000000000    0.3053200000000000    0.2143050000000000 O
   0.2143050000000000    0.1332500000000000    0.0666200000000000 O
   0.0666500000000000    0.4286000000000000    0.1526700000000000 O
   0.1525600000000000    0.1329600000000000    0.0664500000000000 O
   0.2857000000000000    0.8667300000000000    0.4333850000000000 O
   0.4333550000000000    0.5713800000000000    0.3473400000000000 O
   0.3474450000000000    0.8670099999999999    0.4335200000000000 O
   0.4333550000000000    0.6946500000000000    0.2857000000000000 O
   0.4336250000000000    0.8669500000000000    0.3474000000000000 O
   0.3473500000000000    0.5713300000000000    0.4333900000000000 O
   0.4333800000000000    0.8668000000000000    0.2856950000000000 O
   0.2856550000000000    0.6946300000000000    0.4333200000000000 O
   0.3473500000000000    0.8667400000000000    0.2856750000000000 O
   0.4333850000000000    0.5713700000000000    0.4334150000000000 O
   0.2856500000000000    0.8665800000000000    0.3473300000000000 O
   0.4336150000000000    0.6947600000000000    0.4335050000000000 O
   0.1250000000000000    0.2500000000000000    0.1250000000000000 O
   0.3750050000000000    0.7499800000000000    0.3750050000000000 O
   0.5666200000000000    0.4286000000000000    0.0665900000000000 O
   0.7143550000000000    0.1333900000000000    0.1526750000000000 O
   0.5663899999999999    0.3052100000000000    0.0665000000000000 O
   0.6526550000000000    0.1332300000000000    0.2143300000000000 O
   0.5663800000000000    0.1330300000000000    0.1526100000000000 O
   0.7143550000000000    0.3053400000000000    0.0666850000000000 O
   0.5666300000000000    0.1331600000000000    0.2143100000000000 O
   0.6526550000000000    0.4286400000000000    0.0666200000000000 O
   0.5666500000000000    0.3053200000000000    0.2143050000000000 O
   0.7143050000000000    0.1332500000000000    0.0666200000000000 O
   0.5666500000000000    0.4286000000000000    0.1526700000000000 O
   0.6525600000000000    0.1329600000000000    0.0664500000000000 O
   0.7857000000000001    0.8667300000000000    0.4333850000000000 O
   0.9333549999999999    0.5713800000000000    0.3473400000000000 O
   0.8474450000000000    0.8670099999999999    0.4335200000000000 O
   0.9333549999999999    0.6946500000000000    0.2857000000000000 O
   0.9336249999999999    0.8669500000000000    0.3474000000000000 O
   0.8473500000000000    0.5713300000000000    0.4333900000000000 O
   0.9333800000000000    0.8668000000000000    0.2856950000000000 O
   0.7856550000000000    0.6946300000000000    0.4333200000000000 O
   0.8473500000000000    0.8667400000000000    0.2856750000000000 O
   0.9333850000000000    0.5713700000000000    0.4334150000000000 O
   0.7856500000000000    0.8665800000000000    0.3473300000000000 O
   0.9336150000000000    0.6947600000000000    0.4335050000000000 O
   0.6250000000000000    0.2500000000000000    0.1250000000000000 O
   0.8750050000000000    0.7499800000000000    0.3750050000000000 O
   0.0666200000000000    0.4286000000000000    0.5665900000000000 O
   0.2143550000000000    0.1333900000000000    0.6526750000000000 O
   0.0663900000000000    0.3052100000000000    0.5665000000000000 O
   0.1526550000000000    0.1332300000000000    0.7143300000000000 O
   0.0663800000000000    0.1330300000000000    0.6526100000000000 O
   0.2143550000000000    0.3053400000000000    0.5666850000000000 O
   0.0666300000000000    0.1331600000000000    0.7143100000000000 O
   0.1526550000000000    0.4286400000000000    0.5666200000000000 O
   0.2143050000000000    0.1332500000000000    0.5666200000000000 O
   0.1525600000000000    0.1329600000000000    0.5664500000000000 O
   0.2857000000000000    0.8667300000000000    0.9333850000000000 O
   0.4333550000000000    0.5713800000000000    0.8473400000000000 O
   0.3474450000000000    0.8670099999999999    0.9335200000000000 O
   0.4333550000000000    0.6946500000000000    0.7857000000000001 O
   0.4336250000000000    0.8669500000000000    0.8473999999999999 O
   0.3473500000000000    0.5713300000000000    0.9333899999999999 O
   0.4333800000000000    0.8668000000000000    0.7856950000000000 O
   0.2856550000000000    0.6946300000000000    0.9333199999999999 O
   0.3473500000000000    0.8667400000000000    0.7856750000000000 O
   0.4333850000000000    0.5713700000000000    0.9334150000000000 O
   0.2856500000000000    0.8665800000000000    0.8473300000000000 O
   0.4336150000000000    0.6947600000000000    0.9335050000000000 O
   0.1250000000000000    0.2500000000000000    0.6250000000000000 O
   0.3750050000000000    0.7499800000000000    0.8750050000000000 O
   0.5666200000000000    0.4286000000000000    0.5665900000000000 O
   0.7143550000000000    0.1333900000000000    0.6526750000000000 O
   0.5663899999999999    0.3052100000000000    0.5665000000000000 O
   0.6526550000000000    0.1332300000000000    0.7143300000000000 O
   0.5663800000000000    0.1330300000000000    0.6526100000000000 O
   0.7143550000000000    0.3053400000000000    0.5666850000000000 O
   0.5666300000000000    0.1331600000000000    0.7143100000000000 O
   0.6526550000000000    0.4286400000000000    0.5666200000000000 O
   0.5666500000000000    0.3053200000000000    0.7143050000000000 O
   0.7143050000000000    0.1332500000000000    0.5666200000000000 O
   0.5666500000000000    0.4286000000000000    0.6526700000000000 O
   0.6525600000000000    0.1329600000000000    0.5664500000000000 O
   0.7857000000000001    0.8667300000000000    0.9333850000000000 O
   0.8474450000000000    0.8670099999999999    0.9335200000000000 O
   0.9336249999999999    0.8669500000000000    0.8473999999999999 O
   0.8473500000000000    0.5713300000000000    0.9333899999999999 O
   0.9333800000000000    0.8668000000000000    0.7856950000000000 O
   0.7856550000000000    0.6946300000000000    0.9333199999999999 O
   0.8473500000000000    0.8667400000000000    0.7856750000000000 O
   0.9333850000000000    0.5713700000000000    0.9334150000000000 O
   0.7856500000000000    0.8665800000000000    0.8473300000000000 O
   0.9336150000000000    0.6947600000000000    0.9335050000000000 O
   0.6250000000000000    0.2500000000000000    0.6250000000000000 O
   0.8750050000000000    0.7499800000000000    0.8750050000000000 O
