H5 O3
1.0
  22.4076322837576711    0.0000000000000000   -8.1096803534973443
  -6.0991404069988659   21.5722673291818730   -8.0842024698807453
   0.0000000000000000    0.0000000000000000   30.5399999999999991
H O
5 3
direct
   0.5647103342099999    0.0847889255627242    0.7983413182778946 H
   0.6165622846125179    0.1206070119106031    0.8598616996341812 H
   0.5025420513089407    0.9965466474631690    0.6940104650383969 H
   0.6702722143028059    1.0818019797644678    0.7090341935602874 H
   0.5908865346789287    1.0452783951975591    0.7052494723890200 H
   0.5734700000000000    0.1045200000000000    0.8346350000000000 O
   0.5374900000000000    1.0000000000000000    0.6847050000000000 O
   0.6319900000000001    1.0493399999999999    0.6943049999999999 O
