Cd32 H221 C378 Br64 N63 O142
1.0
  22.4076322837576711    0.0000000000000000   -8.1096803534973443
  -6.0991404069988659   21.5722673291818730   -8.0842024698807453
   0.0000000000000000    0.0000000000000000   30.5399999999999991
Cd H C Br N O
32 221 378 64 63 142
direct
   0.3909100000000000    0.5104300000000001    0.3910850000000000 Cd
   0.8908000000000000    0.0103500000000000    0.3910600000000000 Cd
   0.8907400000000000    0.5103000000000000    0.3909950000000000 Cd
   0.4899100000000000    0.1092400000000000    0.3590250000000000 Cd
   0.4900200000000000    0.6091200000000000    0.3590450000000000 Cd
   0.9898200000000000    0.1092900000000000    0.3589800000000000 Cd
   0.9898200000000000    0.6091100000000000    0.3589850000000000 Cd
   0.1092200000000000    0.4896800000000000    0.1090000000000000 Cd
   0.1091600000000000    0.9896300000000000    0.1089450000000000 Cd
   0.6090500000000000    0.4895500000000000    0.1089200000000000 Cd
   0.6090400000000000    0.9896500000000000    0.1089550000000000 Cd
   0.0101400000000000    0.3908700000000000    0.1410200000000000 Cd
   0.0101400000000000    0.8906900000000000    0.1410250000000000 Cd
   0.5099399999999999    0.3908500000000000    0.1409600000000000 Cd
   0.5100500000000000    0.8907400000000000    0.1409800000000000 Cd
   0.3909200000000000    0.0103300000000000    0.3910500000000000 Cd
   0.3909100000000000    0.5104300000000001    0.8910850000000000 Cd
   0.8908000000000000    0.0103500000000000    0.8910600000000000 Cd
   0.8907400000000000    0.5103000000000000    0.8909950000000000 Cd
   0.4899100000000000    0.1092400000000000    0.8590249999999999 Cd
   0.4900200000000000    0.6091200000000000    0.8590450000000001 Cd
   0.9898200000000000    0.1092900000000000    0.8589800000000001 Cd
   0.9898200000000000    0.6091100000000000    0.8589850000000000 Cd
   0.1092200000000000    0.4896800000000000    0.6090000000000000 Cd
   0.1091600000000000    0.9896300000000000    0.6089450000000000 Cd
   0.6090500000000000    0.4895500000000000    0.6089200000000000 Cd
   0.6090400000000000    0.9896500000000000    0.6089550000000000 Cd
   0.0101400000000000    0.3908700000000000    0.6410200000000000 Cd
   0.0101400000000000    0.8906900000000000    0.6410250000000000 Cd
   0.5099399999999999    0.3908500000000000    0.6409600000000000 Cd
   0.5100500000000000    0.8907400000000000    0.6409800000000000 Cd
   0.3909200000000000    0.0103300000000000    0.8910500000000000 Cd
   0.0588600000000000    0.0127700000000000    0.0081500000000000 H
   0.0588000000000000    0.5128000000000000    0.0082350000000000 H
   0.5588200000000000    0.0128100000000000    0.0082350000000000 H
   0.5588300000000000    0.5128000000000000    0.0081950000000000 H
   0.0942400000000000    0.2076700000000000    0.0402000000000000 H
   0.0941800000000000    0.7076900000000000    0.0402350000000000 H
   0.5943700000000000    0.2077100000000000    0.0402500000000000 H
   0.5944900000000000    0.7077300000000000    0.0403100000000000 H
   0.1465300000000000    0.1401700000000000    0.1594600000000000 H
   0.1465200000000000    0.6402099999999999    0.1595050000000000 H
   0.6464299999999999    0.1402000000000000    0.1595200000000000 H
   0.6464100000000000    0.6401000000000000    0.1595100000000000 H
   0.4495600000000000    0.2652100000000000    0.0390900000000000 H
   0.4495300000000000    0.7650900000000000    0.0390900000000000 H
   0.9495300000000000    0.2652300000000000    0.0390650000000000 H
   0.9494600000000000    0.7650700000000000    0.0390300000000000 H
   0.4469400000000000    0.1006800000000000    0.0685900000000000 H
   0.4469500000000000    0.6005900000000000    0.0686500000000000 H
   0.9467200000000000    0.1006500000000000    0.0685100000000000 H
   0.9466599999999999    0.6005000000000000    0.0684950000000000 H
   0.0214200000000000    0.2858200000000000    0.1897450000000000 H
   0.0214000000000000    0.7856800000000000    0.1897150000000000 H
   0.5212599999999999    0.2858700000000000    0.1897950000000000 H
   0.5213700000000000    0.7858100000000000    0.1898100000000000 H
   0.4871300000000000    0.4412600000000000    0.2418150000000000 H
   0.4871500000000000    0.9412199999999999    0.2418000000000000 H
   0.9871400000000000    0.4412400000000000    0.2417300000000000 H
   0.9871700000000000    0.9411500000000000    0.2417850000000000 H
   0.2922000000000000    0.4058500000000000    0.2099000000000000 H
   0.2922100000000000    0.9058000000000000    0.2098450000000000 H
   0.7922300000000000    0.4057000000000000    0.2098400000000000 H
   0.7922400000000001    0.9058200000000000    0.2098850000000000 H
   0.3594600000000000    0.3534200000000000    0.0905800000000000 H
   0.3595200000000000    0.8533800000000000    0.0905650000000000 H
   0.8594400000000000    0.3533600000000000    0.0905000000000000 H
   0.8594600000000000    0.8532700000000000    0.0905500000000000 H
   0.2348600000000000    0.0503900000000000    0.2109500000000000 H
   0.2349400000000000    0.5504900000000000    0.2109600000000000 H
   0.7347900000000001    0.0503500000000000    0.2109000000000000 H
   0.7347900000000001    0.5502500000000000    0.2108850000000000 H
   0.3994600000000000    0.0534000000000000    0.1815700000000000 H
   0.3994700000000000    0.5532800000000000    0.1814950000000000 H
   0.8993800000000000    0.0533800000000000    0.1815100000000000 H
   0.8993500000000000    0.5532000000000000    0.1814550000000000 H
   0.2141300000000000    0.4784200000000000    0.0602700000000000 H
   0.2141600000000000    0.9783700000000000    0.0602900000000000 H
   0.7140300000000001    0.4782900000000000    0.0602100000000000 H
   0.7140700000000000    0.9782999999999999    0.0602350000000000 H
   0.4411300000000000    0.4871800000000000    0.4918150000000000 H
   0.4411400000000000    0.9871700000000000    0.4917700000000000 H
   0.9411700000000000    0.4871900000000000    0.4917700000000000 H
   0.9410900000000000    0.9872100000000000    0.4918200000000000 H
   0.4054600000000000    0.2922400000000000    0.4596950000000000 H
   0.4055800000000000    0.7922700000000000    0.4597550000000000 H
   0.9057800000000000    0.2922900000000000    0.4597500000000000 H
   0.9057200000000000    0.7923100000000000    0.4598050000000000 H
   0.3535500000000000    0.3598800000000000    0.3405000000000000 H
   0.3535300000000000    0.8597800000000000    0.3404850000000000 H
   0.8534400000000000    0.3597700000000000    0.3405000000000000 H
   0.8534300000000000    0.8598100000000000    0.3405450000000000 H
   0.0505000000000000    0.2349100000000000    0.4609800000000000 H
   0.0504300000000000    0.7347399999999999    0.4609400000000000 H
   0.5504300000000000    0.2348900000000000    0.4609150000000000 H
   0.5503900000000000    0.7347600000000000    0.4609150000000000 H
   0.0533000000000000    0.3994800000000000    0.4315100000000000 H
   0.0532400000000000    0.8993300000000000    0.4315000000000000 H
   0.5530100000000000    0.3993900000000000    0.4313550000000000 H
   0.5530200000000000    0.8993000000000000    0.4314150000000000 H
   0.4785900000000000    0.2141600000000000    0.3101950000000000 H
   0.4787000000000000    0.7141100000000000    0.3102100000000000 H
   0.9785600000000000    0.2143000000000000    0.3102900000000000 H
   0.9785400000000000    0.7141600000000000    0.3102600000000000 H
   0.0127900000000000    0.0588200000000000    0.2582200000000000 H
   0.0128200000000000    0.5587400000000000    0.2582750000000000 H
   0.5128100000000000    0.0587600000000000    0.2581850000000000 H
   0.5128300000000000    0.5587100000000000    0.2581950000000000 H
   0.2077100000000000    0.0941600000000000    0.2901200000000000 H
   0.2077400000000000    0.5942800000000000    0.2901650000000000 H
   0.7077500000000000    0.0941800000000000    0.2901600000000000 H
   0.7077500000000000    0.5941200000000000    0.2901100000000000 H
   0.1404900000000000    0.1467100000000000    0.4094450000000000 H
   0.1405200000000000    0.6466200000000000    0.4095050000000000 H
   0.6404300000000001    0.1465900000000000    0.4094400000000000 H
   0.6405000000000000    0.6465600000000000    0.4094250000000000 H
   0.2651700000000000    0.4497200000000000    0.2891150000000000 H
   0.2651700000000000    0.9496300000000000    0.2891000000000000 H
   0.7650300000000000    0.4494900000000000    0.2890450000000000 H
   0.7651000000000000    0.9496000000000000    0.2890550000000000 H
   0.1006100000000000    0.4467800000000000    0.3185500000000000 H
   0.1005800000000000    0.9466000000000000    0.3185000000000000 H
   0.6004900000000000    0.4466900000000000    0.3185000000000000 H
   0.6005000000000000    0.9465900000000000    0.3184350000000000 H
   0.2858900000000000    0.0216700000000000    0.4397650000000000 H
   0.2859300000000000    0.5216800000000000    0.4397950000000000 H
   0.7858000000000001    0.0216100000000000    0.4397150000000000 H
   0.7858300000000000    0.5215600000000000    0.4397350000000000 H
   0.4014200000000000    0.1313700000000000    0.4079700000000000 H
   0.4014700000000000    0.6314400000000000    0.4080050000000000 H
   0.9012300000000000    0.1313700000000000    0.4079000000000000 H
   0.9012200000000000    0.6313400000000000    0.4079200000000000 H
   0.3688500000000000    0.0989200000000000    0.3421350000000000 H
   0.3690000000000000    0.5991500000000000    0.3421750000000000 H
   0.8687400000000000    0.0989100000000000    0.3421000000000000 H
   0.8687600000000000    0.5989700000000000    0.3421050000000000 H
   0.0987400000000000    0.3686400000000000    0.0920850000000000 H
   0.0987300000000000    0.8686100000000000    0.0921050000000000 H
   0.5984800000000000    0.3685300000000000    0.0920000000000000 H
   0.5985300000000000    0.8686000000000000    0.0920000000000000 H
   0.1312000000000000    0.4010100000000000    0.1579000000000000 H
   0.1312100000000000    0.9010700000000000    0.1579050000000000 H
   0.6309600000000000    0.4008200000000000    0.1578000000000000 H
   0.6311099999999999    0.9010600000000000    0.1578700000000000 H
   0.0588600000000000    0.0127700000000000    0.5081500000000000 H
   0.0588000000000000    0.5128000000000000    0.5082350000000000 H
   0.5588200000000000    0.0128100000000000    0.5082350000000000 H
   0.5588300000000000    0.5128000000000000    0.5081950000000000 H
   0.0942400000000000    0.2076700000000000    0.5402000000000000 H
   0.0941800000000000    0.7076900000000000    0.5402350000000000 H
   0.5943700000000000    0.2077100000000000    0.5402500000000000 H
   0.5944900000000000    0.7077300000000000    0.5403100000000000 H
   0.1465300000000000    0.1401700000000000    0.6594599999999999 H
   0.1465200000000000    0.6402099999999999    0.6595050000000000 H
   0.6464299999999999    0.1402000000000000    0.6595200000000000 H
   0.6464100000000000    0.6401000000000000    0.6595100000000000 H
   0.4495600000000000    0.2652100000000000    0.5390900000000000 H
   0.4495300000000000    0.7650900000000000    0.5390900000000000 H
   0.9495300000000000    0.2652300000000000    0.5390650000000000 H
   0.9494600000000000    0.7650700000000000    0.5390300000000000 H
   0.4469400000000000    0.1006800000000000    0.5685900000000000 H
   0.4469500000000000    0.6005900000000000    0.5686500000000000 H
   0.9467200000000000    0.1006500000000000    0.5685100000000000 H
   0.9466599999999999    0.6005000000000000    0.5684950000000000 H
   0.0214200000000000    0.2858200000000000    0.6897450000000001 H
   0.0214000000000000    0.7856800000000000    0.6897150000000000 H
   0.5212599999999999    0.2858700000000000    0.6897949999999999 H
   0.5213700000000000    0.7858100000000000    0.6898100000000000 H
   0.4871300000000000    0.4412600000000000    0.7418150000000000 H
   0.4871500000000000    0.9412199999999999    0.7418000000000000 H
   0.9871400000000000    0.4412400000000000    0.7417300000000000 H
   0.9871700000000000    0.9411500000000000    0.7417850000000000 H
   0.2922000000000000    0.4058500000000000    0.7099000000000000 H
   0.2922100000000000    0.9058000000000000    0.7098450000000001 H
   0.7922300000000000    0.4057000000000000    0.7098400000000000 H
   0.7922400000000001    0.9058200000000000    0.7098850000000000 H
   0.3594600000000000    0.3534200000000000    0.5905800000000000 H
   0.3595200000000000    0.8533800000000000    0.5905650000000000 H
   0.8594400000000000    0.3533600000000000    0.5905000000000000 H
   0.8594600000000000    0.8532700000000000    0.5905500000000000 H
   0.2348600000000000    0.0503900000000000    0.7109500000000000 H
   0.2349400000000000    0.5504900000000000    0.7109600000000000 H
   0.7347900000000001    0.0503500000000000    0.7109000000000000 H
   0.7347900000000001    0.5502500000000000    0.7108850000000000 H
   0.3994600000000000    0.0534000000000000    0.6815700000000000 H
   0.3994700000000000    0.5532800000000000    0.6814950000000000 H
   0.8993800000000000    0.0533800000000000    0.6815100000000001 H
   0.8993500000000000    0.5532000000000000    0.6814550000000000 H
   0.2141300000000000    0.4784200000000000    0.5602700000000000 H
   0.2141600000000000    0.9783700000000000    0.5602900000000000 H
   0.7140300000000001    0.4782900000000000    0.5602100000000000 H
   0.7140700000000000    0.9782999999999999    0.5602350000000000 H
   0.4411300000000000    0.4871800000000000    0.9918150000000000 H
   0.4411400000000000    0.9871700000000000    0.9917700000000000 H
   0.9411700000000000    0.4871900000000000    0.9917700000000000 H
   0.9410900000000000    0.9872100000000000    0.9918199999999999 H
   0.4054600000000000    0.2922400000000000    0.9596950000000000 H
   0.4055800000000000    0.7922700000000000    0.9597550000000000 H
   0.9057800000000000    0.2922900000000000    0.9597500000000000 H
   0.9057200000000000    0.7923100000000000    0.9598050000000000 H
   0.3535500000000000    0.3598800000000000    0.8405000000000000 H
   0.3535300000000000    0.8597800000000000    0.8404849999999999 H
   0.8534400000000000    0.3597700000000000    0.8405000000000000 H
   0.8534300000000000    0.8598100000000000    0.8405450000000000 H
   0.0505000000000000    0.2349100000000000    0.9609799999999999 H
   0.0504300000000000    0.7347399999999999    0.9609400000000000 H
   0.5504300000000000    0.2348900000000000    0.9609150000000000 H
   0.5503900000000000    0.7347600000000000    0.9609150000000000 H
   0.0533000000000000    0.3994800000000000    0.9315100000000001 H
   0.0532400000000000    0.8993300000000000    0.9315000000000000 H
   0.5530100000000000    0.3993900000000000    0.9313549999999999 H
   0.5530200000000000    0.8993000000000000    0.9314150000000000 H
   0.4785900000000000    0.2141600000000000    0.8101950000000000 H
   0.4787000000000000    0.7141100000000000    0.8102100000000000 H
   0.9785600000000000    0.2143000000000000    0.8102900000000000 H
   0.9785400000000000    0.7141600000000000    0.8102600000000000 H
   0.0127900000000000    0.0588200000000000    0.7582200000000000 H
   0.0128200000000000    0.5587400000000000    0.7582750000000000 H
   0.5128300000000000    0.5587100000000000    0.7581950000000000 H
   0.2077100000000000    0.0941600000000000    0.7901199999999999 H
   0.2077400000000000    0.5942800000000000    0.7901650000000000 H
   0.7077500000000000    0.5941200000000000    0.7901100000000000 H
   0.1404900000000000    0.1467100000000000    0.9094450000000001 H
   0.1405200000000000    0.6466200000000000    0.9095050000000000 H
   0.6405000000000000    0.6465600000000000    0.9094249999999999 H
   0.2651700000000000    0.4497200000000000    0.7891150000000000 H
   0.2651700000000000    0.9496300000000000    0.7891000000000000 H
   0.7650300000000000    0.4494900000000000    0.7890450000000000 H
   0.7651000000000000    0.9496000000000000    0.7890550000000001 H
   0.1006100000000000    0.4467800000000000    0.8185500000000000 H
   0.1005800000000000    0.9466000000000000    0.8185000000000000 H
   0.6004900000000000    0.4466900000000000    0.8185000000000000 H
   0.6005000000000000    0.9465900000000000    0.8184350000000000 H
   0.2858900000000000    0.0216700000000000    0.9397650000000000 H
   0.2859300000000000    0.5216800000000000    0.9397949999999999 H
   0.7858000000000001    0.0216100000000000    0.9397150000000001 H
   0.7858300000000000    0.5215600000000000    0.9397350000000000 H
   0.4014200000000000    0.1313700000000000    0.9079699999999999 H
   0.4014700000000000    0.6314400000000000    0.9080050000000000 H
   0.9012300000000000    0.1313700000000000    0.9078999999999999 H
   0.9012200000000000    0.6313400000000000    0.9079200000000001 H
   0.3688500000000000    0.0989200000000000    0.8421350000000001 H
   0.3690000000000000    0.5991500000000000    0.8421750000000000 H
   0.8687400000000000    0.0989100000000000    0.8421000000000001 H
   0.8687600000000000    0.5989700000000000    0.8421050000000000 H
   0.0987400000000000    0.3686400000000000    0.5920850000000000 H
   0.0987300000000000    0.8686100000000000    0.5921050000000000 H
   0.5984800000000000    0.3685300000000000    0.5920000000000000 H
   0.5985300000000000    0.8686000000000000    0.5920000000000000 H
   0.1312000000000000    0.4010100000000000    0.6579000000000000 H
   0.1312100000000000    0.9010700000000000    0.6579050000000000 H
   0.6309600000000000    0.4008200000000000    0.6577999999999999 H
   0.6311099999999999    0.9010600000000000    0.6578700000000000 H
   0.9091100000000000    0.9618100000000001    0.2894700000000000 C
   0.2575500000000000    0.0410000000000000    0.1848050000000000 C
   0.2576000000000000    0.5410500000000000    0.1847950000000000 C
   0.7574600000000000    0.0409600000000000    0.1847500000000000 C
   0.0426100000000000    0.3492600000000000    0.4181700000000000 C
   0.0425500000000000    0.8491100000000000    0.4181550000000000 C
   0.5423900000000000    0.3491800000000000    0.4180350000000000 C
   0.5424099999999999    0.8490799999999999    0.4180850000000000 C
   0.0148500000000000    0.3102000000000000    0.3663900000000000 C
   0.0774800000000000    0.0613500000000000    0.0347600000000000 C
   0.0774100000000000    0.5613800000000000    0.0348050000000000 C
   0.5774600000000000    0.0613900000000000    0.0348000000000000 C
   0.5774700000000000    0.5613700000000000    0.0347900000000000 C
   0.0728300000000000    0.1082500000000000    0.0170700000000000 C
   0.0727600000000000    0.6082800000000000    0.0171200000000000 C
   0.5729000000000000    0.1082800000000000    0.0171200000000000 C
   0.5729900000000000    0.6083100000000000    0.0171350000000000 C
   0.0971400000000000    0.1700100000000000    0.0527450000000000 C
   0.0970800000000000    0.6700400000000000    0.0527900000000000 C
   0.5972200000000000    0.1700400000000000    0.0528000000000000 C
   0.5973000000000001    0.6700500000000000    0.0528400000000000 C
   0.1233200000000000    0.1817200000000000    0.1044450000000000 C
   0.1232900000000000    0.6817600000000000    0.1044900000000000 C
   0.6233300000000001    0.1817500000000000    0.1045000000000000 C
   0.6233600000000000    0.6817100000000000    0.1045350000000000 C
   0.1266700000000000    0.1326200000000000    0.1194050000000000 C
   0.1266300000000000    0.6326600000000000    0.1190000000000000 C
   0.6266000000000000    0.1326600000000000    0.1194650000000000 C
   0.6265900000000000    0.6325900000000000    0.1194600000000000 C
   0.0383200000000000    0.0909400000000000    0.4605600000000000 C
   0.0382600000000000    0.5910000000000000    0.4606000000000000 C
   0.5385000000000000    0.0909800000000000    0.4606000000000000 C
   0.5386700000000000    0.5910900000000000    0.4606250000000000 C
   0.4589800000000000    0.2425400000000000    0.0652700000000000 C
   0.4589700000000000    0.7424200000000000    0.0652800000000000 C
   0.9589299999999999    0.2425400000000000    0.0652250000000000 C
   0.9588700000000000    0.7423800000000000    0.0651500000000000 C
   0.4441500000000000    0.1779200000000000    0.0467750000000000 C
   0.4441200000000000    0.6778100000000000    0.0468050000000000 C
   0.9439800000000000    0.1779200000000000    0.0467150000000000 C
   0.9439000000000000    0.6777500000000000    0.0466900000000000 C
   0.4575500000000000    0.1508900000000000    0.0819000000000000 C
   0.4575600000000000    0.6508000000000000    0.0819700000000000 C
   0.9574100000000000    0.1508700000000000    0.0818550000000000 C
   0.9573500000000000    0.6507200000000000    0.0818350000000000 C
   0.4851900000000000    0.1899600000000000    0.1337000000000000 C
   0.4852400000000000    0.6898900000000000    0.1337450000000000 C
   0.9851700000000000    0.1899300000000000    0.1336350000000000 C
   0.9851100000000000    0.6897799999999999    0.1336150000000000 C
   0.9988899999999999    0.2541200000000000    0.1495150000000000 C
   0.9988500000000000    0.7539700000000000    0.1494850000000000 C
   0.4988000000000000    0.2541600000000000    0.1495650000000000 C
   0.4988700000000000    0.7540800000000000    0.1495500000000000 C
   0.4166900000000000    0.1393200000000000    0.4895000000000000 C
   0.4166300000000000    0.6391600000000000    0.4897850000000000 C
   0.9163600000000000    0.1393100000000000    0.4896800000000000 C
   0.9162800000000000    0.6391200000000000    0.4896550000000000 C
   0.4385100000000000    0.4226300000000000    0.2152500000000000 C
   0.4385300000000000    0.9225800000000000    0.2152550000000000 C
   0.9385200000000000    0.4225700000000000    0.2151800000000000 C
   0.9385400000000000    0.9225100000000001    0.2152000000000000 C
   0.3916500000000000    0.4272800000000000    0.2329750000000000 C
   0.3916600000000000    0.9272500000000000    0.2329450000000000 C
   0.8916700000000000    0.4272000000000000    0.2329050000000000 C
   0.8916900000000000    0.9272300000000000    0.2329600000000000 C
   0.3298300000000000    0.4029300000000000    0.1973250000000000 C
   0.3298500000000000    0.9028900000000000    0.1972850000000000 C
   0.8298500000000000    0.4028200000000000    0.1972600000000000 C
   0.8298700000000000    0.9028800000000000    0.1973150000000000 C
   0.3180200000000000    0.3766900000000000    0.1456250000000000 C
   0.3180600000000000    0.8766400000000000    0.1455850000000000 C
   0.8180300000000000    0.3765900000000000    0.1455550000000000 C
   0.8180500000000001    0.8766100000000000    0.1456100000000000 C
   0.3670700000000000    0.3733300000000000    0.1306400000000000 C
   0.3671300000000000    0.8732900000000000    0.1306200000000000 C
   0.8670800000000000    0.3732700000000000    0.1305600000000000 C
   0.8671000000000000    0.8732000000000000    0.1306200000000000 C
   0.4090500000000000    0.4618200000000000    0.2894500000000000 C
   0.4090100000000000    0.9617800000000000    0.2894400000000000 C
   0.9090900000000000    0.4617400000000000    0.2894200000000000 C
   0.7574500000000000    0.5408500000000001    0.1847250000000000 C
   0.3222000000000000    0.0560500000000000    0.2033300000000000 C
   0.3222400000000000    0.5560400000000000    0.2032950000000000 C
   0.8221100000000000    0.0560300000000000    0.2032500000000000 C
   0.8221000000000001    0.5558800000000000    0.2032350000000000 C
   0.3492200000000000    0.0426300000000000    0.1682050000000000 C
   0.3492300000000000    0.5425700000000000    0.1681500000000000 C
   0.8491300000000001    0.0426000000000000    0.1681500000000000 C
   0.8491100000000000    0.5424600000000001    0.1681050000000000 C
   0.3101200000000000    0.0147900000000000    0.1164200000000000 C
   0.3101100000000000    0.5147800000000000    0.1163700000000000 C
   0.8100300000000000    0.0147400000000000    0.1163650000000000 C
   0.8100000000000001    0.5146600000000000    0.1163250000000000 C
   0.2458900000000000    0.5010100000000000    0.1005000000000000 C
   0.2459000000000000    0.0000000000000000    0.1005200000000000 C
   0.7457800000000000    0.5008700000000000    0.1004400000000000 C
   0.7458000000000000    0.0000000000000000    0.1004700000000000 C
   0.3609000000000000    0.0837600000000000    0.2603750000000000 C
   0.3609800000000000    0.5837000000000000    0.2603350000000000 C
   0.8607800000000000    0.0837500000000000    0.2603000000000000 C
   0.8607800000000000    0.5835600000000000    0.2602500000000000 C
   0.4224900000000000    0.4386100000000000    0.4652150000000000 C
   0.4225000000000000    0.9385900000000000    0.4651950000000000 C
   0.9225600000000000    0.4386000000000000    0.4652000000000000 C
   0.9224800000000000    0.9386200000000000    0.4652450000000000 C
   0.4269700000000000    0.3916700000000000    0.4828700000000000 C
   0.4270600000000000    0.8916900000000000    0.4828850000000000 C
   0.9272000000000000    0.3917100000000000    0.4828850000000000 C
   0.9271300000000000    0.8917300000000000    0.4829350000000000 C
   0.4026600000000000    0.3299300000000000    0.4471700000000000 C
   0.4027400000000000    0.8299299999999999    0.4472050000000000 C
   0.9028800000000000    0.3299400000000000    0.4472150000000000 C
   0.9028200000000000    0.8299700000000000    0.4472600000000000 C
   0.3766000000000000    0.3182600000000000    0.3954750000000000 C
   0.3766300000000000    0.8182199999999999    0.3955050000000000 C
   0.8766699999999999    0.3182200000000000    0.3955150000000000 C
   0.8766400000000000    0.8182500000000000    0.3955550000000000 C
   0.3733600000000000    0.3673900000000000    0.3805500000000000 C
   0.3733600000000000    0.8673200000000000    0.3805400000000000 C
   0.8733300000000001    0.3673200000000000    0.3805550000000000 C
   0.8732900000000000    0.8673500000000000    0.3806000000000000 C
   0.4612900000000000    0.4088900000000000    0.0393800000000000 C
   0.4614600000000000    0.9090000000000000    0.0394050000000000 C
   0.9617100000000000    0.4089900000000000    0.0393850000000000 C
   0.9616300000000000    0.9090300000000000    0.0394450000000000 C
   0.0411000000000000    0.2576000000000000    0.4348150000000000 C
   0.0410400000000000    0.7574400000000000    0.4347800000000000 C
   0.5409900000000000    0.2575500000000000    0.4347300000000000 C
   0.5409700000000000    0.7574400000000000    0.4347350000000000 C
   0.0560600000000000    0.3222300000000000    0.4533150000000000 C
   0.0559800000000000    0.8220600000000000    0.4532900000000000 C
   0.5558400000000000    0.3221700000000000    0.4532000000000000 C
   0.5558100000000000    0.8220499999999999    0.4532300000000000 C
   0.0148000000000000    0.8100600000000000    0.3663700000000000 C
   0.5147200000000000    0.3100900000000000    0.3662600000000000 C
   0.5147699999999999    0.8100100000000000    0.3663050000000000 C
   0.5010900000000000    0.2459000000000000    0.3504200000000000 C
   0.5011600000000000    0.7458200000000000    0.3504400000000000 C
   0.0000000000000000    0.2460100000000000    0.3505200000000000 C
   0.0000000000000000    0.7458600000000000    0.3504900000000000 C
   0.0836800000000000    0.3608600000000000    0.0103500000000000 C
   0.0836000000000000    0.8606700000000000    0.0103250000000000 C
   0.5833300000000000    0.3608100000000000    0.0102200000000000 C
   0.5832700000000000    0.8606600000000000    0.0102600000000000 C
   0.0614200000000000    0.0774700000000000    0.2847650000000000 C
   0.0614400000000000    0.5774100000000000    0.2848250000000000 C
   0.5614300000000000    0.0774000000000000    0.2847500000000000 C
   0.5614500000000000    0.5773500000000000    0.2847400000000000 C
   0.1082600000000000    0.0727500000000000    0.2670450000000000 C
   0.1082900000000000    0.5727800000000000    0.2671000000000000 C
   0.6083000000000000    0.0727300000000000    0.2670600000000000 C
   0.6083100000000000    0.5726900000000000    0.2670300000000000 C
   0.1700900000000000    0.0971000000000000    0.3026900000000000 C
   0.1701100000000000    0.5971600000000000    0.3027000000000000 C
   0.6701100000000000    0.0971000000000000    0.3027250000000000 C
   0.6701300000000000    0.5970400000000000    0.3026800000000000 C
   0.1819000000000000    0.1233700000000000    0.3543950000000000 C
   0.1819300000000000    0.6233900000000000    0.3544500000000000 C
   0.6819000000000000    0.1233400000000000    0.3544200000000000 C
   0.6819400000000000    0.6232900000000000    0.3543850000000000 C
   0.1328500000000000    0.1267700000000000    0.3693850000000000 C
   0.1328800000000000    0.6267100000000000    0.3694450000000000 C
   0.6328300000000000    0.1266800000000000    0.3693850000000000 C
   0.6328800000000000    0.6266500000000000    0.3693500000000000 C
   0.0908400000000000    0.0381700000000000    0.2105350000000000 C
   0.0908700000000000    0.5382400000000001    0.2105500000000000 C
   0.5909600000000000    0.0382000000000000    0.2105650000000000 C
   0.5909100000000000    0.5381500000000000    0.2105250000000000 C
   0.2425000000000000    0.4591200000000000    0.3152800000000000 C
   0.2425000000000000    0.9590200000000000    0.3152550000000000 C
   0.7423700000000000    0.4589300000000000    0.3152100000000000 C
   0.7424100000000000    0.9589900000000000    0.3152050000000000 C
   0.1778600000000000    0.4440900000000000    0.2967700000000000 C
   0.1778400000000000    0.9439500000000000    0.2967350000000000 C
   0.6777200000000000    0.4439400000000000    0.2967100000000000 C
   0.6777600000000000    0.9439300000000000    0.2966750000000000 C
   0.1508500000000000    0.4575200000000000    0.3319000000000000 C
   0.1508200000000000    0.9573800000000000    0.3318550000000000 C
   0.6507300000000000    0.4574000000000000    0.3318550000000000 C
   0.6507400000000000    0.9573500000000000    0.3318000000000000 C
   0.1899600000000000    0.4853200000000000    0.3836800000000000 C
   0.1899300000000000    0.9852400000000000    0.3836400000000000 C
   0.6898500000000000    0.4852000000000000    0.3836000000000000 C