H6 O4
1.0
  31.1204999810403073    0.0000000000000000   -0.0010863103795084
  -0.2117084872785219   39.5109299004372474   -0.0151713265100432
   0.0000000000000000    0.0000000000000000   39.9879999999999995
H O
6 4
direct
   0.1337778014962782    0.8709914397042305    0.3128536718846164 H
   0.0156754380989777    0.8361120548685455    0.3086555106356092 H
   0.0736018754796638    0.8507902441715567    0.3150996631009012 H
   0.1291533892625657    0.8155738114319830    0.4407440794773805 H
   0.0551734305307744    0.7964675280587581    0.4399125487204830 H
   0.0947885669152844    0.7876647235867040    0.0728591753565804 H
   0.1072600000000000    0.8696699999999999    0.3001600000000000 O
   0.0387466666666667    0.8490533333333332    0.2984150000000000 O
   0.1268266666666666    0.8162266666666667    0.4649250000000000 O
   0.0571466666666667    0.7982266666666666    0.4640600000000000 O
