H5 O3
1.0
  31.1204999810403073    0.0000000000000000   -0.0010863103795084
  -0.2117084872785219   39.5109299004372474   -0.0151713265100432
   0.0000000000000000    0.0000000000000000   39.9879999999999995
H O
5 3
direct
   0.1332809324908793    0.3511604788356234    0.4901914251553350 H
   0.1572126666879048    0.3545937442645176    0.4798612836134049 H
   0.0961675076005519    0.3974327385730920    0.5119445443706717 H
   0.0625913892857811    0.3988111152005133    0.5052668495421347 H
   0.0609605727502074    0.3776841185724694    0.4885752080347553 H
   0.1492333333333333    0.3774733333333333    0.4859750000000000 O
   0.1094833333333333    0.4193966666666666    0.5084250000000000 O
   0.0361133333333333    0.3899133333333333    0.4973200000000000 O
