H12 O6
1.0
   9.7940847777271944    0.0000000000000000    0.1936991654407306
   1.5364824020495509   10.4803390005931583    4.7459630488277105
   0.0000000000000000    0.0000000000000000   27.5799999999999983
H O
12 6
direct
   0.7617078843344525    0.8976723758831616    0.7522455154972318 H
   0.8194621156655475    0.9160576241168383    0.7523744845027682 H
   0.9231875427348575    0.8590657700765651    0.7520365904053181 H
   0.9087508750180535    0.9053252885964798    0.7514762038450890 H
   0.7421510217688624    0.8030905276595652    0.7515721108348338 H
   0.9024418976424132    0.7654776223269766    0.7515050787425388 H
   0.2381784737242381    0.1023638527696896    0.7477394763700731 H
   0.1804315262757619    0.0839761472303104    0.7476105236299269 H
   0.0767044091292425    0.1409696444161052    0.7479447843992347 H
   0.0911349837285489    0.0947093541906076    0.7485085116385700 H
   0.2577389614853822    0.1969569424104437    0.7484055376878802 H
   0.0974461876706972    0.2345669024586364    0.7484713015586895 H
   0.7301299999999999    0.8876200000000000    0.7521750000000000 O
   0.8510400000000000    0.9261100000000000    0.7524450000000000 O
   0.9508500000000000    0.8333600000000000    0.7518800000000000 O
   0.2697600000000000    0.1124200000000000    0.7478100000000000 O
   0.1488500000000000    0.0739200000000000    0.7475400000000000 O
   0.0490400000000000    0.1666800000000000    0.7481000000000000 O
