H4 C8 N8
1.0
   9.7940847777271944    0.0000000000000000    0.1936991654407306
   1.5364824020495509   10.4803390005931583    4.7459630488277105
   0.0000000000000000    0.0000000000000000   27.5799999999999983
H C N
4 8 8
direct
   0.1312000000000000    0.5931000000000000    0.7980950000000000 H
   0.7717200000000000    0.6116300000000000    0.7054000000000000 H
   0.8686900000000000    0.4069600000000000    0.7018750000000000 H
   0.2281700000000000    0.3884300000000000    0.7945700000000000 H
   0.8837100000000000    0.7392100000000000    0.7513600000000000 C
   0.9456500000000000    0.6177800000000000    0.7506850000000000 C
   0.0747000000000000    0.5546500000000000    0.7757849999999999 C
   0.8712400000000000    0.5618300000000001    0.7251150000000000 C
   0.1161800000000000    0.2608400000000000    0.7486150000000000 C
   0.0542400000000000    0.3822700000000000    0.7492850000000000 C
   0.9251900000000000    0.4454100000000000    0.7241850000000000 C
   0.1286500000000000    0.4382300000000000    0.7748500000000000 C
   0.7464800000000000    0.7726499999999999    0.7513550000000000 N
   0.7301299999999999    0.8876200000000000    0.7521750000000000 N
   0.8510400000000000    0.9261100000000000    0.7524450000000000 N
   0.9508500000000000    0.8333600000000000    0.7518800000000000 N
   0.2534100000000000    0.2274000000000000    0.7486200000000001 N
   0.2697600000000000    0.1124200000000000    0.7478100000000000 N
   0.1488500000000000    0.0739200000000000    0.7475400000000000 N
   0.0490400000000000    0.1666800000000000    0.7481000000000000 N
