H6 O4
1.0
  12.3195881113232701    0.0000000000000000   -1.0587604862962876
  -2.0260132167910565   19.5955621828726798   -4.2960193415018679
   0.0000000000000000    0.0000000000000000   20.1799999999999997
H O
6 4
direct
   0.8141436373719997   -0.0753589540053752    0.5973128517455516 H
   0.5271153386433495   -0.0052997619265088    0.6293816679375087 H
   0.6680441078922696   -0.0452467755182201    0.6174893908728760 H
   0.6493270998818920    0.5532019845121713    0.6921086415742503 H
   0.4579545204091783    0.6549023127318998    0.8151340201940539 H
   0.5501492297949584    0.6143024272924522    0.7575675490166603 H
   0.7594000000000000   -0.0446900000000001    0.5914100000000000 O
   0.5959900000000000   -0.0048800000000000    0.6097200000000000 O
   0.5925700000000000    0.5528000000000000    0.7224000000000000 O
   0.4862700000000000    0.6138500000000000    0.7916600000000000 O
