H2 O1
1.0
  12.3195881113232701    0.0000000000000000   -1.0587604862962876
  -2.0260132167910565   19.5955621828726798   -4.2960193415018679
   0.0000000000000000    0.0000000000000000   20.1799999999999997
H O
2 1
direct
   0.4358322256925949    0.5014285837195528    0.9201891178625523 H
   0.5112863129877961    0.5336773098449603    0.9889498659940086 H
   0.4474100000000000    0.5015600000000000    0.9687999999999999 O
