H6 C12 O4
1.0
  12.3195881113232701    0.0000000000000000   -1.0587604862962876
  -2.0260132167910565   19.5955621828726798   -4.2960193415018679
   0.0000000000000000    0.0000000000000000   20.1799999999999997
H C O
6 12 4
direct
   0.7750899999999999    0.8423600000000000    0.6208100000000000 H
   0.4295600000000000    0.8395200000000000    0.7316800000000000 H
   0.4878700000000000    0.9366500000000000    0.6801500000000000 H
   0.8008500000000000    0.7274100000000000    0.6389600000000000 H
   0.7354500000000000    0.6258800000000000    0.6827600000000000 H
   0.4618100000000000    0.7262800000000000    0.7567700000000001 H
   0.6663900000000000    0.9528200000000000    0.6141600000000000 C
   0.6352300000000000    0.8952200000000000    0.6470900000000001 C
   0.6991500000000000    0.8415400000000000    0.6444500000000000 C
   0.6663600000000000    0.7843900000000000    0.6710300000000000 C
   0.5677100000000000    0.7838900000000000    0.7038100000000000 C
   0.5047199999999999    0.8402100000000000    0.7070400000000000 C
   0.5368400000000000    0.8940000000000000    0.6787600000000000 C
   0.7268400000000000    0.7267400000000001    0.6647200000000000 C
   0.6911400000000000    0.6709400000000000    0.6891699999999999 C
   0.5950100000000000    0.6710199999999999    0.7231900000000000 C
   0.5355200000000000    0.7269800000000000    0.7300000000000000 C
   0.5543800000000000    0.6100700000000000    0.7486100000000000 C
   0.5959900000000000   -0.0048800000000000    0.6097200000000000 O
   0.7594000000000000   -0.0446900000000001    0.5914100000000000 O
   0.5925700000000000    0.5528000000000000    0.7224000000000000 O
   0.4862700000000000    0.6138500000000000    0.7916600000000000 O
