H2 O2
1.0
  14.0389992280874321    0.0000000000000000    0.0046555086147381
   0.0034386009284066   14.0679991597912259   -0.0034374608341818
   0.0000000000000000    0.0000000000000000   14.7910000000000004
H O
2 2
direct
   0.9127813012002899    0.6858425432877004    0.6122550318601404 H
   0.8138999191580003    0.5874134928679171    0.6120542346925374 H
   0.8571299999999999    0.7120400000000000    0.6433700000000000 O
   0.7877500000000000    0.6429400000000000    0.6432600000000001 O
