H6 O4
1.0
  15.9813629666020951    0.0000000000000000    9.1592815072864262
   5.3083971878092058   15.0791342032461451    9.1668868748856926
   0.0000000000000000    0.0000000000000000   36.8599999999999994
H O
6 4
direct
   0.8866988732030344    0.5075295260085065    0.4431590353705578 H
   0.8869006752512055    0.7195654033677771    0.4436725081739283 H
   0.8945529958569568    0.6058477430341387    0.4473006533396353 H
   0.1132895764478589    0.4924824769304348    0.5568225408051902 H
   0.1130626799458216    0.2805127474802004    0.5563051645201187 H
   0.1053948514479527    0.3942343251869843    0.5526704985226440 H
   0.8668700000000000    0.5717700000000000    0.4333100000000000 O
   0.8670099999999999    0.6950800000000000    0.4336200000000000 O
   0.1331500000000000    0.4282400000000000    0.5666750000000000 O
   0.1330000000000000    0.3049400000000000    0.5663650000000000 O
