Zn16 H50 C88 O52
1.0
  15.9813629666020951    0.0000000000000000    9.1592815072864262
   5.3083971878092058   15.0791342032461451    9.1668868748856926
   0.0000000000000000    0.0000000000000000   36.8599999999999994
Zn H C O
16 50 88 52
direct
   0.2066300000000000    0.3803500000000000    0.6033850000000001 Zn
   0.2066300000000000    0.2067700000000000    0.6901700000000000 Zn
   0.3804300000000000    0.2066200000000000    0.6033150000000000 Zn
   0.2063300000000000    0.2062100000000000    0.6031100000000000 Zn
   0.7933900000000000    0.6196600000000000    0.8965000000000001 Zn
   0.7933800000000000    0.7932399999999999    0.8098150000000000 Zn
   0.6195900000000000    0.7933900000000000    0.8966700000000001 Zn
   0.7936900000000000    0.7938000000000000    0.8968750000000000 Zn
   0.2066300000000000    0.3803500000000000    0.1033850000000000 Zn
   0.2066300000000000    0.2067700000000000    0.1901700000000000 Zn
   0.3804300000000000    0.2066200000000000    0.1033150000000000 Zn
   0.2063300000000000    0.2062100000000000    0.1031100000000000 Zn
   0.7933900000000000    0.6196600000000000    0.3965000000000000 Zn
   0.7933800000000000    0.7932399999999999    0.3098150000000000 Zn
   0.6195900000000000    0.7933900000000000    0.3966700000000000 Zn
   0.7936900000000000    0.7938000000000000    0.3968750000000000 Zn
   0.8866988732030344    0.5075295260085065    0.4431590353705578 H
   0.8869006752512055    0.7195654033677771    0.4436725081739283 H
   0.8945529958569568    0.6058477430341387    0.4473006533396353 H
   0.5681700000000000    0.3356900000000000    0.0241500000000000 H
   0.6643800000000000    0.4319000000000000    0.9758000000000000 H
   0.3356400000000000    0.5681100000000000    0.0241650000000000 H
   0.4318500000000000    0.6643300000000000    0.9758300000000000 H
   0.5681700000000000    0.3356900000000000    0.5241500000000000 H
   0.6643800000000000    0.4319000000000000    0.4758000000000000 H
   0.3356400000000000    0.5681100000000000    0.5241650000000000 H
   0.4318500000000000    0.6643300000000000    0.4758300000000000 H
   0.6643600000000000    0.9523800000000000    0.9761700000000000 H
   0.5679200000000000    0.0485400000000000    0.0242600000000000 H
   0.3356600000000000    0.0476400000000000    0.0238100000000000 H
   0.4321000000000000    0.9514800000000000    0.9757199999999999 H
   0.3356400000000000    0.0483500000000000    0.7840400000000001 H
   0.4318600000000000    0.9517000000000000    0.8321400000000000 H
   0.5681600000000000    0.0483200000000000    0.6678450000000000 H
   0.6643800000000000    0.9516600000000000    0.7159450000000001 H
   0.1132895764478589    0.4924824769304348    0.5568225408051902 H
   0.1130626799458216    0.2805127474802004    0.5563051645201187 H
   0.1053948514479527    0.3942343251869843    0.5526704985226440 H
   0.0486300000000000    0.0486300000000000    0.7838499999999999 H
   0.9524600000000000    0.9524100000000000    0.8321250000000000 H
   0.9513900000000000    0.9513900000000000    0.7161350000000000 H
   0.0475500000000000    0.0476100000000000    0.6678550000000000 H
   0.0482600000000000    0.5681600000000000    0.6678400000000000 H
   0.9517300000000000    0.6643300000000000    0.7159250000000000 H
   0.9517500000000000    0.4318600000000000    0.8321400000000000 H
   0.0482800000000000    0.3356900000000000    0.7840549999999999 H
   0.6643600000000000    0.9523800000000000    0.4761700000000000 H
   0.5679200000000000    0.0485400000000000    0.5242599999999999 H
   0.3356600000000000    0.0476400000000000    0.5238100000000000 H
   0.4321000000000000    0.9514800000000000    0.4757200000000000 H
   0.3356400000000000    0.0483500000000000    0.2840400000000000 H
   0.4318600000000000    0.9517000000000000    0.3321400000000000 H
   0.5681600000000000    0.0483200000000000    0.1678450000000000 H
   0.6643800000000000    0.9516600000000000    0.2159450000000000 H
   0.9513700000000000    0.4322900000000000    0.9756899999999999 H
   0.0475600000000000    0.3357100000000000    0.0238000000000000 H
   0.9524500000000000    0.6643000000000000    0.9761900000000000 H
   0.0486400000000000    0.5677300000000000    0.0243000000000000 H
   0.0486300000000000    0.0486300000000000    0.2838500000000000 H
   0.9524600000000000    0.9524100000000000    0.3321250000000000 H
   0.9513900000000000    0.9513900000000000    0.2161350000000000 H
   0.0475500000000000    0.0476100000000000    0.1678550000000000 H
   0.0482600000000000    0.5681600000000000    0.1678400000000000 H
   0.9517300000000000    0.6643300000000000    0.2159250000000000 H
   0.9517500000000000    0.4318600000000000    0.3321400000000000 H
   0.0482800000000000    0.3356900000000000    0.2840550000000000 H
   0.6109500000000000    0.6109700000000000    0.9443300000000000 C
   0.3890700000000000    0.3890400000000000    0.0556550000000000 C
   0.5390900000000000    0.4076700000000000    0.0133750000000000 C
   0.5923700000000000    0.4609700000000000    0.9865999999999999 C
   0.5536300000000000    0.5536400000000000    0.9730600000000000 C
   0.4076400000000000    0.5390400000000000    0.0133500000000000 C
   0.4609300000000000    0.5923500000000000    0.9866050000000000 C
   0.4463800000000000    0.4463700000000000    0.0269000000000000 C
   0.6109500000000000    0.6109700000000000    0.4443300000000000 C
   0.3890700000000000    0.3890400000000000    0.5556550000000000 C
   0.5390900000000000    0.4076700000000000    0.5133750000000000 C
   0.5923700000000000    0.4609700000000000    0.4866000000000000 C
   0.5536300000000000    0.5536400000000000    0.4730600000000000 C
   0.4076400000000000    0.5390400000000000    0.5133500000000000 C
   0.4609300000000000    0.5923500000000000    0.4866050000000000 C
   0.4463800000000000    0.4463700000000000    0.5269000000000000 C
   0.6111900000000000    0.8891100000000000    0.9445200000000000 C
   0.3888300000000000    0.1109100000000000    0.0554600000000000 C
   0.5923700000000000    0.9736300000000000    0.9867950000000000 C
   0.5389400000000000    0.0268900000000000    0.0134000000000000 C
   0.5537800000000000    0.9464100000000000    0.9731799999999999 C
   0.4076500000000000    0.0263900000000000    0.0131850000000000 C
   0.4610800000000000    0.9731300000000001    0.9865450000000000 C
   0.4462400000000000    0.0536100000000000    0.0268050000000000 C
   0.6109599999999999    0.8887000000000000    0.8054650000000000 C
   0.3890600000000000    0.1113200000000000    0.6945200000000000 C
   0.4076400000000000    0.0267800000000000    0.7695100000000000 C
   0.4609300000000000    0.9732600000000000    0.7961549999999999 C
   0.5390800000000000    0.0267600000000000    0.7038300000000000 C
   0.5923700000000000    0.9732400000000000    0.7304500000000000 C
   0.4463800000000000    0.0538600000000000    0.7231799999999999 C
   0.5536400000000000    0.9461600000000000    0.7768050000000000 C
   0.1109600000000000    0.1109700000000000    0.6943500000000000 C
   0.8890500000000000    0.8890500000000000    0.8056300000000001 C
   0.0269400000000000    0.0269400000000000    0.7694050000000000 C
   0.9736700000000000    0.9736500000000000    0.7961450000000000 C
   0.9463900000000000    0.9463700000000000    0.7769050000000000 C
   0.9730700000000000    0.9730799999999999    0.7305800000000000 C
   0.0263400000000000    0.0263700000000000    0.7038350000000000 C
   0.0536200000000000    0.0536500000000000    0.7230799999999999 C
   0.8888000000000000    0.6109200000000000    0.8054450000000000 C
   0.1112200000000000    0.3891000000000000    0.6945399999999999 C
   0.0267300000000000    0.5390800000000000    0.7038300000000000 C
   0.9732800000000000    0.5923400000000000    0.7304650000000000 C
   0.9732900000000000    0.4609400000000000    0.7961549999999999 C
   0.0267400000000000    0.4076700000000000    0.7695200000000000 C
   0.9462200000000000    0.5536100000000000    0.7767950000000000 C
   0.0538000000000000    0.4464000000000000    0.7231900000000000 C
   0.6111900000000000    0.8891100000000000    0.4445200000000000 C
   0.3888300000000000    0.1109100000000000    0.5554600000000000 C
   0.5923700000000000    0.9736300000000000    0.4867950000000000 C
   0.5389400000000000    0.0268900000000000    0.5134000000000000 C
   0.5537800000000000    0.9464100000000000    0.4731800000000000 C
   0.4076500000000000    0.0263900000000000    0.5131850000000000 C
   0.4610800000000000    0.9731300000000001    0.4865450000000000 C
   0.4462400000000000    0.0536100000000000    0.5268050000000000 C
   0.6109599999999999    0.8887000000000000    0.3054650000000000 C
   0.3890600000000000    0.1113200000000000    0.1945200000000000 C
   0.4076400000000000    0.0267800000000000    0.2695100000000000 C
   0.4609300000000000    0.9732600000000000    0.2961550000000000 C
   0.5390800000000000    0.0267600000000000    0.2038300000000000 C
   0.5923700000000000    0.9732400000000000    0.2304500000000000 C
   0.4463800000000000    0.0538600000000000    0.2231800000000000 C
   0.5536400000000000    0.9461600000000000    0.2768050000000000 C
   0.8890400000000001    0.6113100000000000    0.9445100000000000 C
   0.1109700000000000    0.3887100000000000    0.0554500000000000 C
   0.9730700000000000    0.4611800000000000    0.9865250000000000 C
   0.0263400000000000    0.4076800000000000    0.0131850000000000 C
   0.0536300000000000    0.4461700000000000    0.0268000000000000 C
   0.9736700000000000    0.5923300000000000    0.9868049999999999 C
   0.0269400000000000    0.5388300000000000    0.0134600000000000 C
   0.9463800000000000    0.5538400000000000    0.9731700000000000 C
   0.1109600000000000    0.1109700000000000    0.1943500000000000 C
   0.8890500000000000    0.8890500000000000    0.3056300000000000 C
   0.0269400000000000    0.0269400000000000    0.2694050000000000 C
   0.9736700000000000    0.9736500000000000    0.2961450000000000 C
   0.9463900000000000    0.9463700000000000    0.2769050000000000 C
   0.9730700000000000    0.9730799999999999    0.2305800000000000 C
   0.0263400000000000    0.0263700000000000    0.2038350000000000 C
   0.0536200000000000    0.0536500000000000    0.2230800000000000 C
   0.8888000000000000    0.6109200000000000    0.3054450000000000 C
   0.1112200000000000    0.3891000000000000    0.1945400000000000 C
   0.0267300000000000    0.5390800000000000    0.2038300000000000 C
   0.9732800000000000    0.5923400000000000    0.2304650000000000 C
   0.9732900000000000    0.4609400000000000    0.2961550000000000 C
   0.0267400000000000    0.4076700000000000    0.2695200000000000 C
   0.9462200000000000    0.5536100000000000    0.2767950000000000 C
   0.0538000000000000    0.4464000000000000    0.2231900000000000 C
   0.8668700000000000    0.5717700000000000    0.4333100000000000 O
   0.8670099999999999    0.6950800000000000    0.4336200000000000 O
   0.5713500000000000    0.6947400000000000    0.9333199999999999 O
   0.6947500000000000    0.5714000000000000    0.9331499999999999 O
   0.4286600000000000    0.3052700000000000    0.0666650000000000 O
   0.3052700000000000    0.4286200000000000    0.0667900000000000 O
   0.5713500000000000    0.6947400000000000    0.4333200000000000 O
   0.6947500000000000    0.5714000000000000    0.4331500000000000 O
   0.4286600000000000    0.3052700000000000    0.5666650000000000 O
   0.3052700000000000    0.4286200000000000    0.5667900000000000 O
   0.5716100000000000    0.8668300000000000    0.9333899999999999 O
   0.6950000000000000    0.8671900000000000    0.9335599999999999 O
   0.4284100000000000    0.1331800000000000    0.0665950000000000 O
   0.3050200000000000    0.1328300000000000    0.0664200000000000 O
   0.6947500000000000    0.8664300000000000    0.7856799999999999 O
   0.5713600000000000    0.8666900000000000    0.8473450000000000 O
   0.4286500000000000    0.1333300000000000    0.6526400000000000 O
   0.3052600000000000    0.1335800000000000    0.7143050000000000 O
   0.1331500000000000    0.4282400000000000    0.5666750000000000 O
   0.1330000000000000    0.3049400000000000    0.5663650000000000 O
   0.2499400000000000    0.2499200000000000    0.6249600000000000 O
   0.1331500000000000    0.1333600000000000    0.7141150000000001 O
   0.1330000000000000    0.1327400000000000    0.6524700000000000 O
   0.8670200000000000    0.8672800000000001    0.8475100000000000 O
   0.8668700000000000    0.8666500000000000    0.7858499999999999 O
   0.8666700000000001    0.6946900000000000    0.7856550000000000 O
   0.8666700000000001    0.5713400000000000    0.8473300000000000 O
   0.1333400000000000    0.3053200000000000    0.7143250000000000 O
   0.1333500000000000    0.4286800000000000    0.6526550000000000 O
   0.7500700000000000    0.7500900000000000    0.8750249999999999 O
   0.5716100000000000    0.8668300000000000    0.4333900000000000 O
   0.6950000000000000    0.8671900000000000    0.4335600000000000 O
   0.4284100000000000    0.1331800000000000    0.5665950000000000 O
   0.3050200000000000    0.1328300000000000    0.5664200000000000 O
   0.6947500000000000    0.8664300000000000    0.2856800000000000 O
   0.5713600000000000    0.8666900000000000    0.3473450000000000 O
   0.4286500000000000    0.1333300000000000    0.1526400000000000 O
   0.3052600000000000    0.1335800000000000    0.2143050000000000 O
   0.8668700000000000    0.5717700000000000    0.9333100000000000 O
   0.8670099999999999    0.6950800000000000    0.9336200000000000 O
   0.1330000000000000    0.3049400000000000    0.0663650000000000 O
   0.1331500000000000    0.4282400000000000    0.0666750000000000 O
   0.2499400000000000    0.2499200000000000    0.1249600000000000 O
   0.1331500000000000    0.1333600000000000    0.2141150000000000 O
   0.1330000000000000    0.1327400000000000    0.1524700000000000 O
   0.8670200000000000    0.8672800000000001    0.3475100000000000 O
   0.8668700000000000    0.8666500000000000    0.2858500000000000 O
   0.8666700000000001    0.6946900000000000    0.2856550000000000 O
   0.8666700000000001    0.5713400000000000    0.3473300000000000 O
   0.1333400000000000    0.3053200000000000    0.2143250000000000 O
   0.1333500000000000    0.4286800000000000    0.1526550000000000 O
   0.7500700000000000    0.7500900000000000    0.3750250000000000 O
