H4 C8 O4
1.0
  15.9813629666020951    0.0000000000000000    9.1592815072864262
   5.3083971878092058   15.0791342032461451    9.1668868748856926
   0.0000000000000000    0.0000000000000000   36.8599999999999994
H C O
4 8 4
direct
   0.9513700000000000    0.4322900000000000    0.4756900000000000 H
   0.9524500000000000    0.6643000000000000    0.4761900000000000 H
   0.0486400000000000    0.5677300000000000    0.5243000000000000 H
   0.0475600000000000    0.3357100000000000    0.5238000000000000 H
   0.9730700000000000    0.4611800000000000    0.4865250000000000 C
   0.9736700000000000    0.5923300000000000    0.4868050000000000 C
   0.8890400000000001    0.6113100000000000    0.4445100000000000 C
   0.9463800000000000    0.5538400000000000    0.4731700000000000 C
   0.0269400000000000    0.5388300000000000    0.5134600000000000 C
   0.0263400000000000    0.4076800000000000    0.5131850000000000 C
   0.1109700000000000    0.3887100000000000    0.5554500000000000 C
   0.0536300000000000    0.4461700000000000    0.5268000000000000 C
   0.8668700000000000    0.5717700000000000    0.4333100000000000 O
   0.8670099999999999    0.6950800000000000    0.4336200000000000 O
   0.1331500000000000    0.4282400000000000    0.5666750000000000 O
   0.1330000000000000    0.3049400000000000    0.5663650000000000 O
