H5 O3
1.0
  17.3149999894510991    0.0000000000000000   -0.0006044075198403
  -1.6717030215563473   19.2274649657129615    0.0000000000000012
   0.0000000000000000    0.0000000000000000   22.3679999999999986
H O
5 3
direct
   0.5787830777577567    0.4058286724875831    0.0429588920829268 H
   0.6331150782317583    0.3534454141359620    0.0025511965450125 H
   0.5031747957653768   -0.0069309918284721    0.3704735549836615 H
   0.3417095864366785    0.1282849544158168    0.3371219236517766 H
   0.4248835590203591    0.0624744605757854    0.3507148417320224 H
   0.6130400000000000    0.3986900000000000    0.0091300000000000 O
   0.4563000000000000    0.0165700000000000    0.3755000000000000 O
   0.3668300000000000    0.0915800000000000    0.3569400000000000 O
