H4 C8 O4
1.0
  25.8806259144980295    0.0000000000000000   15.2746818714437733
   4.8706975555868217   11.4083099144385969    6.4926705767444108
   0.0000000000000000    0.0000000000000000   29.4819999999999993
H C O
4 8 4
direct
   0.6027150000000000    0.2230000000000000    0.6136850000000000 H
   0.6552200000000000    0.3521800000000000    0.5675200000000000 H
   0.8071650000000000    0.0696100000000000    0.5000000000000000 H
   0.7540800000000000    0.9394200000000000    0.5559450000000000 H
   0.7648400000000000    0.2982800000000000    0.5030950000000000 C
   0.7345850000000000    0.2189500000000000    0.5340000000000000 C
   0.6475800000000000    0.1902100000000000    0.5907400000000000 C
   0.6769800000000000    0.2621100000000000    0.5647500000000000 C
   0.6423150000000000    0.9987800000000000    0.6136900000000000 C
   0.6752549999999999    0.0741000000000000    0.5872250000000000 C
   0.7625649999999999    0.1022300000000000    0.5310500000000000 C
   0.7331050000000000    0.0300000000000000    0.5579499999999999 C
   0.8132800000000000    0.2699000000000000    0.4659500000000000 O
   0.7419700000000000    0.3992900000000000    0.5119000000000000 O
   0.5896749999999999    1.0481000000000000    0.6379450000000000 O
   0.6697850000000000    0.8941300000000000    0.6092750000000000 O
