H14 C14 N4
1.0
  21.1888668055021547    0.0000000000000000    6.6836702116942366
   4.6284676755929892   12.9943551200721608    3.8490340332926727
   0.0000000000000000    0.0000000000000000   36.7460000000000022
H C N
14 14 4
direct
   0.3725600000000000    0.5600100000000000    0.0181950000000000 H
   0.4485500000000000    0.5028400000000000    0.0733500000000000 H
   0.5512600000000000    0.5542100000000000    0.0715850000000000 H
   0.5599499999999999    0.6679500000000000    0.0397850000000000 H
   0.5000300000000000    0.5588000000000000    0.1386700000000000 H
   0.4707900000000000    0.8444900000000000    0.0574000000000000 H
   0.3553200000000000    0.7392000000000000    0.2574200000000000 H
   0.1701100000000000    0.9403700000000000    0.2313600000000000 H
   0.2726600000000000    0.9975200000000000    0.1765800000000000 H
   0.3992300000000000    0.9460600000000000    0.1788250000000000 H
   0.4329600000000000    0.8322800000000000    0.2107300000000000 H
   0.4180400000000000    0.9414700000000000    0.1117000000000000 H
   0.4496600000000000    0.6557800000000000    0.1929750000000000 H
   0.4825600000000000    0.7612500000000000    0.9927900000000001 H
   0.4609500000000000    0.7012000000000000    0.0071550000000000 C
   0.4056000000000000    0.5950900000000000    0.0213500000000000 C
   0.4428700000000000    0.5655000000000000    0.0488600000000000 C
   0.5235900000000000    0.6346300000000000    0.0609800000000000 C
   0.4890900000000000    0.6945200000000000    0.0941600000000000 C
   0.4821100000000000    0.6428000000000000    0.1326300000000000 C
   0.4654100000000000    0.8024300000000000    0.0870000000000000 C
   0.3180700000000000    0.7992500000000000    0.2429250000000000 C
   0.2238700000000000    0.9053200000000000    0.2283850000000000 C
   0.2738400000000000    0.9348900000000000    0.2010700000000000 C
   0.4012500000000000    0.8656600000000000    0.1893900000000000 C
   0.4300600000000000    0.8057600000000000    0.1562100000000000 C
   0.4360300000000000    0.8574800000000000    0.1177350000000000 C
   0.4532100000000000    0.6978500000000000    0.1632700000000000 C
   0.4778200000000000    0.6335000000000000    0.0394750000000000 N
   0.2518800000000000    0.8203700000000000    0.2544200000000000 N
   0.3334100000000000    0.8668600000000000    0.2105000000000000 N
   0.4170700000000000    0.6800500000000000    0.9954149999999999 N
