Cu32 H210 W16 C210 N60
1.0
  21.1888668055021547    0.0000000000000000    6.6836702116942366
   4.6284676755929892   12.9943551200721608    3.8490340332926727
   0.0000000000000000    0.0000000000000000   36.7460000000000022
Cu H W C N
32 210 16 210 60
direct
   0.7046400000000000    0.7409200000000000    0.3011250000000000 Cu
   0.3012300000000000    0.7490400000000000    0.3704900000000000 Cu
   0.8012400000000000    0.7490300000000000    0.3704950000000000 Cu
   0.3766400000000000    0.7596800000000000    0.4486250000000000 Cu
   0.8766500000000000    0.7596600000000000    0.4486300000000000 Cu
   0.0462600000000000    0.7514800000000000    0.3792300000000000 Cu
   0.5462600000000000    0.7514800000000000    0.3792350000000000 Cu
   0.2953600000000000    0.2591000000000000    0.1988600000000000 Cu
   0.7953700000000000    0.2590900000000000    0.1988600000000000 Cu
   0.1987500000000000    0.2510100000000000    0.1294850000000000 Cu
   0.6987700000000000    0.2510000000000000    0.1294900000000000 Cu
   0.1233500000000000    0.2403600000000000    0.0513550000000000 Cu
   0.6233600000000000    0.2403500000000000    0.0513550000000000 Cu
   0.4537400000000000    0.2485400000000000    0.1207500000000000 Cu
   0.9537400000000000    0.2485400000000000    0.1207500000000000 Cu
   0.2046300000000000    0.7409300000000000    0.3011250000000000 Cu
   0.7046400000000000    0.7409200000000000    0.8011250000000000 Cu
   0.3012300000000000    0.7490400000000000    0.8704900000000000 Cu
   0.8012400000000000    0.7490300000000000    0.8704950000000000 Cu
   0.3766400000000000    0.7596800000000000    0.9486250000000001 Cu
   0.8766500000000000    0.7596600000000000    0.9486300000000000 Cu
   0.0462600000000000    0.7514800000000000    0.8792300000000000 Cu
   0.5462600000000000    0.7514800000000000    0.8792350000000000 Cu
   0.2953600000000000    0.2591000000000000    0.6988600000000000 Cu
   0.7953700000000000    0.2590900000000000    0.6988600000000000 Cu
   0.1987500000000000    0.2510100000000000    0.6294850000000000 Cu
   0.6987700000000000    0.2510000000000000    0.6294900000000000 Cu
   0.1233500000000000    0.2403600000000000    0.5513550000000000 Cu
   0.6233600000000000    0.2403500000000000    0.5513550000000000 Cu
   0.4537400000000000    0.2485400000000000    0.6207500000000000 Cu
   0.9537400000000000    0.2485400000000000    0.6207500000000000 Cu
   0.2046300000000000    0.7409300000000000    0.8011250000000000 Cu
   0.4825600000000000    0.7612500000000000    0.4927900000000000 H
   0.9825800000000000    0.7612500000000000    0.4927900000000000 H
   0.8725800000000000    0.5599900000000000    0.0182000000000000 H
   0.9485700000000000    0.5028400000000000    0.0733550000000000 H
   0.0512600000000000    0.5542200000000000    0.0715850000000000 H
   0.0599400000000000    0.6679700000000000    0.0397850000000000 H
   0.0000200000000000    0.5588000000000000    0.1386700000000000 H
   0.9708100000000000    0.8445000000000000    0.0574000000000000 H
   0.2394800000000000    0.7781000000000000    0.0174850000000000 H
   0.7394900000000000    0.7780300000000000    0.0174850000000000 H
   0.2892100000000000    0.9978300000000000    0.4227600000000000 H
   0.7892100000000000    0.9978200000000000    0.4227750000000000 H
   0.1598700000000000    0.0876300000000000    0.4642200000000000 H
   0.6598700000000000    0.0875800000000000    0.4642000000000000 H
   0.1266500000000000    0.8758500000000000    0.0498250000000000 H
   0.6266600000000000    0.8757400000000000    0.0498250000000000 H
   0.1133200000000000    0.0000000000000000    0.0450550000000000 H
   0.6133300000000000    0.0000000000000000    0.0450800000000000 H
   0.1070300000000000    0.8763500000000000    0.4701800000000000 H
   0.6070200000000000    0.8763100000000000    0.4701850000000000 H
   0.4950400000000000    0.0823100000000000    0.0528650000000000 H
   0.9950300000000000    0.0823500000000000    0.0528600000000000 H
   0.8553300000000000    0.7392100000000000    0.2574200000000000 H
   0.6701200000000000    0.9403500000000000    0.2313600000000000 H
   0.7726600000000000    0.9975000000000001    0.1765500000000000 H
   0.8992300000000000    0.9460700000000000    0.1788250000000000 H
   0.9329600000000000    0.8322800000000000    0.2107300000000000 H
   0.9180600000000000    0.9414800000000000    0.1117000000000000 H
   0.9496599999999999    0.6557900000000000    0.1929700000000000 H
   0.1455500000000000    0.7221600000000000    0.2321050000000000 H
   0.6455600000000000    0.7221500000000000    0.2321000000000000 H
   0.2109300000000000    0.5030300000000000    0.3270000000000000 H
   0.7109300000000000    0.5030300000000000    0.3270450000000000 H
   0.1680800000000000    0.4128200000000000    0.2856200000000000 H
   0.6680900000000000    0.4128100000000000    0.2856250000000000 H
   0.1139400000000000    0.6240400000000000    0.1998650000000000 H
   0.6139600000000000    0.6240300000000000    0.1998650000000000 H
   0.1622300000000000    0.4916700000000000    0.2047700000000000 H
   0.6622400000000001    0.4916600000000000    0.2047700000000000 H
   0.0154100000000000    0.6241400000000000    0.2795350000000000 H
   0.5154200000000000    0.6241400000000000    0.2795350000000000 H
   0.0888400000000000    0.4172400000000000    0.1971900000000000 H
   0.5888500000000000    0.4172400000000000    0.1971900000000000 H
   0.0174200000000000    0.2387800000000000    0.0071950000000000 H
   0.5174400000000000    0.2387700000000000    0.0071950000000000 H
   0.1274100000000000    0.4400400000000000    0.4817850000000000 H
   0.6274400000000000    0.4400200000000000    0.4817850000000000 H
   0.0514300000000000    0.4972000000000000    0.4266350000000000 H
   0.5514500000000000    0.4971900000000000    0.4266350000000000 H
   0.4487400000000000    0.4458200000000000    0.4284000000000000 H
   0.9487300000000000    0.4458100000000000    0.4284050000000000 H
   0.4400500000000000    0.3320700000000000    0.4602000000000000 H
   0.9400500000000001    0.3320600000000000    0.4602050000000000 H
   0.4999600000000000    0.4412300000000000    0.3613150000000000 H
   0.9999700000000000    0.4412300000000000    0.3613000000000000 H
   0.0292000000000000    0.1555300000000000    0.4425850000000000 H
   0.5292100000000000    0.1555400000000000    0.4425850000000000 H
   0.2605100000000000    0.2220000000000000    0.4825000000000000 H
   0.7605200000000000    0.2219400000000000    0.4825000000000000 H
   0.2107900000000000    0.0000000000000000    0.0772050000000000 H
   0.7107900000000000    0.0000000000000000    0.0772250000000000 H
   0.3401300000000000    0.9124500000000000    0.0357400000000000 H
   0.8401300000000000    0.9124000000000000    0.0357500000000000 H
   0.3733500000000000    0.1242900000000000    0.4501600000000000 H
   0.8733500000000000    0.1241900000000000    0.4501500000000000 H
   0.3866700000000000    0.9919400000000000    0.4549000000000000 H
   0.8866800000000000    0.9918300000000000    0.4549250000000000 H
   0.3929800000000000    0.1237200000000000    0.0298000000000000 H
   0.8929700000000000    0.1236800000000000    0.0298050000000000 H
   0.0049700000000000    0.9176900000000000    0.4471250000000000 H
   0.5049700000000000    0.9177200000000000    0.4471200000000000 H
   0.1446700000000000    0.2608200000000000    0.2425650000000000 H
   0.6446800000000000    0.2608200000000000    0.2425650000000000 H
   0.3298800000000000    0.0596700000000000    0.2686250000000000 H
   0.8298900000000000    0.0596500000000000    0.2686250000000000 H
   0.2273400000000000    0.0025200000000000    0.3234100000000000 H
   0.7273400000000000    0.0025100000000000    0.3234050000000000 H
   0.1007700000000000    0.0539600000000000    0.3211600000000000 H
   0.6007700000000000    0.0539700000000000    0.3211600000000000 H
   0.0670400000000000    0.1677500000000000    0.2892550000000000 H
   0.5670500000000001    0.1677500000000000    0.2892550000000000 H
   0.0819500000000000    0.0585500000000000    0.3882850000000000 H
   0.5819600000000000    0.0585500000000000    0.3882850000000000 H
   0.0503300000000000    0.3442500000000000    0.3070150000000000 H
   0.5503400000000001    0.3442500000000000    0.3070150000000000 H
   0.3544400000000000    0.2778700000000000    0.2678800000000000 H
   0.8544500000000000    0.2778600000000000    0.2678800000000000 H
   0.2890700000000000    0.4969900000000000    0.1729400000000000 H
   0.7890700000000000    0.4969900000000000    0.1729400000000000 H
   0.3319100000000000    0.5872100000000000    0.2143600000000000 H
   0.8319200000000000    0.5872100000000000    0.2143600000000000 H
   0.3860400000000000    0.3760000000000000    0.3001200000000000 H
   0.8860500000000000    0.3759900000000000    0.3001200000000000 H
   0.3377500000000000    0.5083800000000001    0.2952100000000000 H
   0.8377599999999999    0.5083600000000000    0.2952150000000000 H
   0.4845800000000000    0.3759000000000000    0.2204500000000000 H
   0.9845900000000000    0.3758900000000000    0.2204500000000000 H
   0.4111500000000000    0.5827900000000000    0.3027950000000000 H
   0.9111600000000000    0.5827900000000000    0.3027950000000000 H
   0.9825800000000000    0.7612500000000000    0.9927900000000001 H
   0.3725600000000000    0.5600100000000000    0.5181950000000000 H
   0.8725800000000000    0.5599900000000000    0.5182000000000000 H
   0.4485500000000000    0.5028400000000000    0.5733500000000000 H
   0.9485700000000000    0.5028400000000000    0.5733550000000001 H
   0.0512600000000000    0.5542200000000000    0.5715850000000000 H
   0.5512600000000000    0.5542100000000000    0.5715850000000000 H
   0.0599400000000000    0.6679700000000000    0.5397850000000000 H
   0.5599499999999999    0.6679500000000000    0.5397850000000000 H
   0.0000200000000000    0.5588000000000000    0.6386700000000000 H
   0.5000300000000000    0.5588000000000000    0.6386700000000000 H
   0.4707900000000000    0.8444900000000000    0.5574000000000000 H
   0.9708100000000000    0.8445000000000000    0.5574000000000000 H
   0.2394800000000000    0.7781000000000000    0.5174850000000000 H
   0.7394900000000000    0.7780300000000000    0.5174850000000000 H
   0.2892100000000000    0.9978300000000000    0.9227600000000000 H
   0.7892100000000000    0.9978200000000000    0.9227750000000000 H
   0.1598700000000000    0.0876300000000000    0.9642200000000001 H
   0.6598700000000000    0.0875800000000000    0.9641999999999999 H
   0.1266500000000000    0.8758500000000000    0.5498250000000000 H
   0.6266600000000000    0.8757400000000000    0.5498250000000000 H
   0.1133200000000000    0.0000000000000000    0.5450550000000000 H
   0.6133300000000000    0.0000000000000000    0.5450800000000000 H
   0.1070300000000000    0.8763500000000000    0.9701800000000000 H
   0.6070200000000000    0.8763100000000000    0.9701850000000001 H
   0.4950400000000000    0.0823100000000000    0.5528650000000001 H
   0.9950300000000000    0.0823500000000000    0.5528600000000000 H
   0.3553200000000000    0.7392000000000000    0.7574200000000000 H
   0.8553300000000000    0.7392100000000000    0.7574200000000000 H
   0.1701100000000000    0.9403700000000000    0.7313600000000000 H
   0.6701200000000000    0.9403500000000000    0.7313600000000000 H
   0.2726600000000000    0.9975200000000000    0.6765800000000000 H
   0.7726600000000000    0.9975000000000001    0.6765500000000000 H
   0.3992300000000000    0.9460600000000000    0.6788250000000000 H
   0.8992300000000000    0.9460700000000000    0.6788250000000000 H
   0.4329600000000000    0.8322800000000000    0.7107300000000000 H
   0.9329600000000000    0.8322800000000000    0.7107300000000000 H
   0.4180400000000000    0.9414700000000000    0.6117000000000000 H
   0.9180600000000000    0.9414800000000000    0.6117000000000000 H
   0.4496600000000000    0.6557800000000000    0.6929750000000000 H
   0.9496599999999999    0.6557900000000000    0.6929700000000000 H
   0.1455500000000000    0.7221600000000000    0.7321050000000000 H
   0.6455600000000000    0.7221500000000000    0.7321000000000000 H
   0.2109300000000000    0.5030300000000000    0.8270000000000000 H
   0.7109300000000000    0.5030300000000000    0.8270450000000000 H
   0.1680800000000000    0.4128200000000000    0.7856200000000000 H
   0.6680900000000000    0.4128100000000000    0.7856250000000000 H
   0.1139400000000000    0.6240400000000000    0.6998650000000000 H
   0.6139600000000000    0.6240300000000000    0.6998650000000000 H
   0.1622300000000000    0.4916700000000000    0.7047700000000000 H
   0.6622400000000001    0.4916600000000000    0.7047700000000000 H
   0.0154100000000000    0.6241400000000000    0.7795350000000000 H
   0.5154200000000000    0.6241400000000000    0.7795350000000000 H
   0.0888400000000000    0.4172400000000000    0.6971900000000000 H
   0.5888500000000000    0.4172400000000000    0.6971900000000000 H
   0.0174200000000000    0.2387800000000000    0.5071950000000000 H
   0.5174400000000000    0.2387700000000000    0.5071950000000000 H
   0.1274100000000000    0.4400400000000000    0.9817850000000000 H
   0.6274400000000000    0.4400200000000000    0.9817850000000000 H
   0.0514300000000000    0.4972000000000000    0.9266350000000000 H
   0.5514500000000000    0.4971900000000000    0.9266350000000000 H
   0.4487400000000000    0.4458200000000000    0.9284000000000000 H
   0.9487300000000000    0.4458100000000000    0.9284049999999999 H
   0.4400500000000000    0.3320700000000000    0.9601999999999999 H
   0.9400500000000001    0.3320600000000000    0.9602050000000000 H
   0.4999600000000000    0.4412300000000000    0.8613150000000001 H
   0.9999700000000000    0.4412300000000000    0.8613000000000000 H
   0.0292000000000000    0.1555300000000000    0.9425850000000000 H
   0.5292100000000000    0.1555400000000000    0.9425850000000000 H
   0.2605100000000000    0.2220000000000000    0.9824999999999999 H
   0.7605200000000000    0.2219400000000000    0.9824999999999999 H
   0.2107900000000000    0.0000000000000000    0.5772050000000000 H
   0.7107900000000000    0.0000000000000000    0.5772250000000000 H
   0.3401300000000000    0.9124500000000000    0.5357400000000000 H
   0.8401300000000000    0.9124000000000000    0.5357499999999999 H
   0.3733500000000000    0.1242900000000000    0.9501600000000000 H
   0.8733500000000000    0.1241900000000000    0.9501500000000001 H
   0.3866700000000000    0.9919400000000000    0.9549000000000001 H
   0.8866800000000000    0.9918300000000000    0.9549250000000000 H
   0.3929800000000000    0.1237200000000000    0.5298000000000000 H
   0.8929700000000000    0.1236800000000000    0.5298050000000000 H
   0.0049700000000000    0.9176900000000000    0.9471250000000000 H
   0.5049700000000000    0.9177200000000000    0.9471200000000000 H
   0.1446700000000000    0.2608200000000000    0.7425650000000000 H
   0.6446800000000000    0.2608200000000000    0.7425650000000000 H
   0.3298800000000000    0.0596700000000000    0.7686250000000000 H
   0.8298900000000000    0.0596500000000000    0.7686250000000000 H
   0.2273400000000000    0.0025200000000000    0.8234100000000000 H
   0.7273400000000000    0.0025100000000000    0.8234049999999999 H
   0.1007700000000000    0.0539600000000000    0.8211600000000000 H
   0.6007700000000000    0.0539700000000000    0.8211600000000000 H
   0.0670400000000000    0.1677500000000000    0.7892550000000000 H
   0.5670500000000001    0.1677500000000000    0.7892550000000000 H
   0.0819500000000000    0.0585500000000000    0.8882850000000000 H
   0.5819600000000000    0.0585500000000000    0.8882850000000000 H
   0.0503300000000000    0.3442500000000000    0.8070150000000000 H
   0.5503400000000001    0.3442500000000000    0.8070150000000000 H
   0.3544400000000000    0.2778700000000000    0.7678800000000000 H
   0.8544500000000000    0.2778600000000000    0.7678800000000000 H
   0.2890700000000000    0.4969900000000000    0.6729400000000000 H
   0.7890700000000000    0.4969900000000000    0.6729400000000000 H
   0.3319100000000000    0.5872100000000000    0.7143600000000000 H
   0.8319200000000000    0.5872100000000000    0.7143600000000000 H
   0.3860400000000000    0.3760000000000000    0.8001199999999999 H
   0.8860500000000000    0.3759900000000000    0.8001199999999999 H
   0.3377500000000000    0.5083800000000001    0.7952100000000000 H
   0.8377599999999999    0.5083600000000000    0.7952150000000000 H
   0.4845800000000000    0.3759000000000000    0.7204500000000000 H
   0.9845900000000000    0.3758900000000000    0.7204500000000000 H
   0.4111500000000000    0.5827900000000000    0.8027949999999999 H
   0.9111600000000000    0.5827900000000000    0.8027949999999999 H
   0.4274200000000000    0.7399400000000000    0.3730500000000000 W
   0.9274300000000000    0.7399200000000000    0.3730650000000000 W
   0.1704200000000000    0.7605499999999999    0.3766800000000000 W
   0.6704300000000000    0.7605400000000000    0.3766850000000000 W
   0.0725700000000000    0.2601100000000000    0.1269200000000000 W
   0.5725800000000000    0.2601000000000000    0.1269200000000000 W
   0.3295700000000000    0.2394800000000000    0.1233000000000000 W
   0.8295800000000000    0.2394800000000000    0.1233050000000000 W
   0.4274200000000000    0.7399400000000000    0.8730500000000000 W
   0.9274300000000000    0.7399200000000000    0.8730650000000000 W
   0.1704200000000000    0.7605499999999999    0.8766800000000000 W
   0.6704300000000000    0.7605400000000000    0.8766849999999999 W
   0.0725700000000000    0.2601100000000000    0.6269200000000000 W
   0.5725800000000000    0.2601000000000000    0.6269200000000000 W
   0.3295700000000000    0.2394800000000000    0.6233000000000000 W
   0.8295800000000000    0.2394800000000000    0.6233050000000000 W
   0.9764100000000000    0.3653900000000000    0.4390100000000000 C
   0.0108900000000000    0.3055100000000000    0.4058300000000000 C
   0.5109000000000000    0.3055100000000000    0.4058300000000000 C
   0.0178800000000000    0.3572300000000000    0.3673500000000000 C
   0.9609600000000000    0.7012000000000000    0.0071550000000000 C
   0.9056200000000000    0.5950800000000001    0.0213650000000000 C
   0.9428900000000000    0.5654900000000000    0.0488650000000000 C
   0.0235900000000000    0.6346400000000000    0.0609800000000000 C
   0.9891100000000000    0.6945200000000000    0.0941550000000000 C
   0.9821200000000000    0.6428000000000000    0.1326300000000000 C
   0.9654300000000000    0.8024300000000000    0.0870950000000000 C
   0.2366600000000000    0.8491700000000000    0.4969650000000000 C
   0.7366800000000000    0.8491200000000000    0.4969500000000000 C
   0.2598800000000000    0.9659700000000000    0.4489150000000000 C
   0.7598900000000000    0.9659400000000000    0.4489300000000000 C
   0.1959600000000000    0.0110200000000000    0.4687650000000000 C
   0.6959600000000000    0.0109700000000000    0.4687850000000000 C
   0.1196700000000000    0.9488100000000000    0.0291000000000000 C
   0.6196800000000000    0.9487200000000000    0.0291550000000000 C
   0.0582800000000000    0.9760300000000000    0.0133750000000000 C
   0.5582900000000000    0.9759800000000000    0.0133500000000000 C
   0.0602200000000000    0.9300800000000000    0.4836650000000000 C
   0.5602200000000001    0.9300500000000000    0.4836700000000000 C
   0.4975900000000000    0.0460900000000000    0.0295450000000000 C
   0.9975900000000000    0.0461100000000000    0.0295000000000000 C
   0.8180700000000000    0.7992500000000000    0.2429250000000000 C
   0.7238700000000000    0.9053000000000000    0.2283850000000000 C
   0.7738400000000000    0.9348800000000000    0.2010700000000000 C
   0.9012600000000000    0.8656600000000000    0.1893900000000000 C
   0.9300700000000000    0.8057600000000000    0.1562100000000000 C
   0.9360400000000000    0.8574800000000000    0.1177350000000000 C
   0.9532200000000000    0.6978500000000000    0.1632700000000000 C
   0.1579200000000000    0.6512000000000000    0.2526850000000000 C
   0.6579300000000000    0.6511900000000000    0.2526900000000000 C
   0.1917400000000000    0.5346900000000000    0.3008500000000000 C
   0.6917500000000000    0.5346900000000000    0.3008550000000000 C
   0.1702800000000000    0.4894500000000000    0.2810200000000000 C
   0.6702800000000000    0.4894400000000000    0.2810200000000000 C
   0.1229700000000000    0.5512100000000000    0.2206200000000000 C
   0.6229800000000000    0.5512000000000000    0.2206200000000000 C
   0.0595500000000000    0.5240200000000000    0.2364500000000000 C
   0.5595599999999999    0.5240100000000000    0.2364900000000000 C
   0.0089200000000000    0.5702199999999999    0.2661650000000000 C
   0.5089300000000000    0.5702199999999999    0.2661650000000000 C
   0.0500500000000000    0.4536600000000000    0.2204750000000000 C
   0.5500600000000000    0.4536600000000000    0.2204750000000000 C
   0.0390300000000000    0.2988300000000000    0.4928300000000000 C
   0.5390500000000000    0.2988200000000000    0.4928300000000000 C
   0.0943800000000000    0.4049600000000000    0.4786200000000000 C
   0.5944000000000000    0.4049400000000000    0.4786200000000000 C
   0.0571000000000000    0.4345400000000000    0.4511250000000000 C
   0.5571300000000000    0.4345300000000000    0.4511250000000000 C
   0.4764100000000000    0.3653900000000000    0.4390050000000000 C
   0.5178900000000000    0.3572300000000000    0.3673550000000000 C
   0.0345700000000000    0.1976000000000000    0.4128900000000000 C
   0.5345900000000000    0.1976000000000000    0.4128900000000000 C
   0.2633300000000000    0.1509100000000000    0.0030100000000000 C
   0.7633400000000000    0.1508600000000000    0.0030200000000000 C
   0.2401200000000000    0.0340800000000000    0.0510500000000000 C
   0.7401200000000000    0.0340600000000000    0.0510650000000000 C
   0.3040400000000000    0.9890600000000001    0.0312000000000000 C
   0.8040400000000000    0.9890099999999999    0.0312150000000000 C
   0.3803200000000000    0.0513100000000000    0.4708300000000000 C
   0.8803299999999999    0.0512300000000000    0.4708400000000000 C
   0.4417100000000000    0.0240500000000000    0.4866000000000000 C
   0.9417200000000000    0.0240100000000000    0.4866100000000000 C
   0.4397800000000000    0.0699800000000000    0.0163150000000000 C
   0.9397799999999999    0.0699600000000000    0.0163200000000000 C
   0.0024200000000000    0.9539200000000000    0.4704400000000000 C
   0.5024200000000000    0.9539400000000000    0.4704400000000000 C
   0.1819300000000000    0.2007800000000000    0.2570600000000000 C
   0.6819400000000000    0.2007800000000000    0.2570600000000000 C
   0.2761300000000000    0.0947200000000000    0.2716000000000000 C
   0.7761400000000001    0.0947100000000000    0.2716000000000000 C
   0.2261600000000000    0.0651400000000000    0.2989150000000000 C
   0.7261700000000000    0.0651300000000000    0.2989150000000000 C
   0.0987500000000000    0.1343700000000000    0.3105950000000000 C
   0.5987500000000000    0.1343700000000000    0.3105950000000000 C
   0.0699300000000000    0.1942700000000000    0.3437800000000000 C
   0.5699400000000000    0.1942700000000000    0.3437750000000000 C
   0.0639600000000000    0.1425500000000000    0.3822500000000000 C
   0.5639700000000000    0.1425500000000000    0.3822500000000000 C
   0.0467800000000000    0.3021800000000000    0.3367150000000000 C
   0.5467900000000000    0.3021800000000000    0.3367150000000000 C
   0.3420700000000000    0.3488300000000000    0.2472950000000000 C
   0.8420800000000001    0.3488300000000000    0.2473000000000000 C
   0.3082500000000000    0.4653300000000000    0.1991300000000000 C
   0.8082600000000000    0.4653300000000000    0.1991350000000000 C
   0.3297200000000000    0.5105800000000000    0.2189650000000000 C
   0.8297200000000000    0.5105800000000000    0.2189650000000000 C
   0.3770100000000000    0.4488300000000000    0.2793650000000000 C
   0.8770200000000000    0.4488200000000000    0.2793650000000000 C
   0.4404400000000000    0.4760200000000000    0.2634950000000000 C
   0.9404500000000000    0.4760100000000000    0.2600000000000000 C
   0.4910700000000000    0.4298100000000000    0.2338200000000000 C
   0.9910800000000000    0.4298100000000000    0.2338200000000000 C
   0.4499400000000000    0.5463700000000000    0.2795100000000000 C
   0.9499400000000000    0.5463700000000000    0.2795100000000000 C
   0.9764100000000000    0.3653900000000000    0.9390100000000000 C
   0.0108900000000000    0.3055100000000000    0.9058300000000000 C
   0.5109000000000000    0.3055100000000000    0.9058300000000000 C
   0.0178800000000000    0.3572300000000000    0.8673500000000001 C
   0.4609500000000000    0.7012000000000000    0.5071550000000000 C
   0.9609600000000000    0.7012000000000000    0.5071550000000000 C
   0.4056000000000000    0.5950900000000000    0.5213500000000000 C
   0.9056200000000000    0.5950800000000001    0.5213650000000000 C
   0.4428700000000000    0.5655000000000000    0.5488600000000000 C
   0.9428900000000000    0.5654900000000000    0.5488650000000000 C
   0.0235900000000000    0.6346400000000000    0.5609800000000000 C
   0.5235900000000000    0.6346300000000000    0.5609800000000000 C
   0.4890900000000000    0.6945200000000000    0.5941600000000000 C
   0.9891100000000000    0.6945200000000000    0.5941550000000000 C
   0.4821100000000000    0.6428000000000000    0.6326300000000000 C
   0.9821200000000000    0.6428000000000000    0.6326300000000000 C
   0.4654100000000000    0.8024300000000000    0.5870000000000000 C
   0.9654300000000000    0.8024300000000000    0.5870950000000000 C
   0.2366600000000000    0.8491700000000000    0.9969650000000000 C
   0.7366800000000000    0.8491200000000000    0.9969500000000000 C
   0.2598800000000000    0.9659700000000000    0.9489150000000000 C
   0.7598900000000000    0.9659400000000000    0.9489300000000001 C
   0.1959600000000000    0.0110200000000000    0.9687650000000000 C
   0.6959600000000000    0.0109700000000000    0.9687850000000000 C
   0.1196700000000000    0.9488100000000000    0.5291000000000000 C
   0.6196800000000000    0.9487200000000000    0.5291550000000000 C
   0.0582800000000000    0.9760300000000000    0.5133750000000000 C
   0.5582900000000000    0.9759800000000000    0.5133500000000000 C
   0.0602200000000000    0.9300800000000000    0.9836650000000000 C
   0.5602200000000001    0.9300500000000000    0.9836700000000000 C
   0.4975900000000000    0.0460900000000000    0.5295450000000000 C
   0.9975900000000000    0.0461100000000000    0.5295000000000000 C
   0.3180700000000000    0.7992500000000000    0.7429250000000001 C
   0.8180700000000000    0.7992500000000000    0.7429250000000001 C
   0.2238700000000000    0.9053200000000000    0.7283850000000001 C
   0.7238700000000000    0.9053000000000000    0.7283850000000001 C
   0.2738400000000000    0.9348900000000000    0.7010700000000000 C
   0.7738400000000000    0.9348800000000000    0.7010700000000000 C
   0.4012500000000000    0.8656600000000000    0.6893899999999999 C
   0.9012600000000000    0.8656600000000000    0.6893899999999999 C
   0.4300600000000000    0.8057600000000000    0.6562100000000000 C
   0.9300700000000000    0.8057600000000000    0.6562100000000000 C
   0.4360300000000000    0.8574800000000000    0.6177350000000000 C
   0.9360400000000000    0.8574800000000000    0.6177350000000000 C
   0.4532100000000000    0.6978500000000000    0.6632700000000000 C
   0.9532200000000000    0.6978500000000000    0.6632700000000000 C
   0.1579200000000000    0.6512000000000000    0.7526850000000000 C
   0.6579300000000000    0.6511900000000000    0.7526900000000001 C
   0.1917400000000000    0.5346900000000000    0.8008500000000001 C
   0.6917500000000000    0.5346900000000000    0.8008550000000000 C
   0.1702800000000000    0.4894500000000000    0.7810200000000000 C
   0.6702800000000000    0.4894400000000000    0.7810200000000000 C
   0.1229700000000000    0.5512100000000000    0.7206200000000000 C
   0.6229800000000000    0.5512000000000000    0.7206200000000000 C
   0.0595500000000000    0.5240200000000000    0.7364500000000000 C
   0.5595599999999999    0.5240100000000000    0.7364900000000000 C
   0.0089200000000000    0.5702199999999999    0.7661650000000000 C
   0.5089300000000000    0.5702199999999999    0.7661650000000000 C
   0.0500500000000000    0.4536600000000000    0.7204750000000000 C
   0.5500600000000000    0.4536600000000000    0.7204750000000000 C
   0.0390300000000000    0.2988300000000000    0.9928300000000000 C
   0.5390500000000000    0.2988200000000000    0.9928300000000000 C
   0.0943800000000000    0.4049600000000000    0.9786200000000000 C
   0.5944000000000000    0.4049400000000000    0.9786200000000000 C
   0.0571000000000000    0.4345400000000000    0.9511250000000000 C
   0.5571300000000000    0.4345300000000000    0.9511250000000000 C
   0.4764100000000000    0.3653900000000000    0.9390050000000000 C
   0.5178900000000000    0.3572300000000000    0.8673550000000000 C
   0.0345700000000000    0.1976000000000000    0.9128900000000000 C
   0.5345900000000000    0.1976000000000000    0.9128900000000000 C
   0.2633300000000000    0.1509100000000000    0.5030100000000000 C
   0.7633400000000000    0.1508600000000000    0.5030200000000000 C
   0.2401200000000000    0.0340800000000000    0.5510500000000000 C
   0.7401200000000000    0.0340600000000000    0.5510650000000000 C
   0.3040400000000000    0.9890600000000001    0.5312000000000000 C
   0.8040400000000000    0.9890099999999999    0.5312150000000000 C
   0.3803200000000000    0.0513100000000000    0.9708300000000001 C
   0.8803299999999999    0.0512300000000000    0.9708399999999999 C
   0.4417100000000000    0.0240500000000000    0.9865999999999999 C
   0.9417200000000000    0.0240100000000000    0.9866100000000000 C