H6 O4
1.0
  20.0483865237542780    0.0000000000000000   -5.4692009283027545
   2.8799882533249024   11.7064968233298448   -1.4712663885506232
   0.0000000000000000    0.0000000000000000   12.1440000000000001
H O
6 4
direct
   0.0568832931546459   -0.1011979063395445    0.8301864440270114 H
   0.8970159930661549    0.8460706051178910    0.6720342375683013 H
  -0.0133181445560986   -0.1467019972690548    0.7120194657794865 H
   0.8459690205754645   -0.0745939661156542    0.1900580588336652 H
   0.9902830220411796    0.8571646434841736    1.0399174344393403 H
   0.9389637200750774   -0.1185967579436857    0.1179151249210174 H
   0.0133800000000000   -0.0861199999999999    0.8512999999999999 O
   0.9116600000000000    0.8793000000000000    0.7484300000000000 O
   0.8483900000000000   -0.0756500000000000    0.1112400000000000 O
   0.9414700000000000    0.8803100000000000    1.0363199999999999 O
