Zn8 H42 C84 O28
1.0
  20.0483865237542780    0.0000000000000000   -5.4692009283027545
   2.8799882533249024   11.7064968233298448   -1.4712663885506232
   0.0000000000000000    0.0000000000000000   12.1440000000000001
Zn H C O
8 42 84 28
direct
   0.5000000000000000    0.0000100000000000    0.4000000000000000 Zn
   0.6251500000000000    0.1169400000000000    0.1180600000000000 Zn
   0.3748500000000000    0.8831000000000000    0.8820500000000000 Zn
   0.8748600000000000    0.8830800000000000    0.8821700000000000 Zn
   0.0000000000000000    0.0000100000000000    0.9000000000000000 Zn
   0.2500000000000000    0.0000000000000000    0.9999900000000000 Zn
   0.7499900000000000    0.0000000000000000    0.1000000000000000 Zn
   0.1251500000000000    0.1169600000000000    0.1179800000000000 Zn
   0.4500500000000000    0.1914000000000000    0.8290200000000000 H
   0.9500500000000000    0.1913900000000000    0.8289800000000001 H
   0.3695800000000000    0.2181500000000000    0.6390200000000000 H
   0.8695800000000000    0.2181300000000000    0.6389700000000000 H
   0.1223900000000000    0.0899200000000000    0.6753200000000000 H
   0.6223800000000000    0.0899100000000000    0.6753400000000001 H
   0.1024900000000000    0.1012100000000000    0.4629900000000000 H
   0.6024700000000000    0.1011900000000000    0.4630100000000000 H
   0.3965200000000000    0.1411200000000000    0.2551400000000000 H
   0.8965300000000000    0.1411000000000000    0.2551100000000000 H
   0.3495700000000000    0.1906600000000000    0.4269100000000000 H
   0.8495800000000000    0.1906400000000000    0.4268700000000000 H
   0.2999600000000000    0.8290900000000000    0.1912400000000000 H
   0.7999400000000000    0.8290800000000000    0.1912800000000000 H
   0.3804500000000000    0.6394900000000000    0.2180100000000000 H
   0.8804400000000000    0.6394800000000000    0.2180800000000000 H
   0.1275800000000000    0.6746600000000000    0.0900500000000000 H
   0.6275600000000000    0.6746500000000000    0.0900700000000000 H
   0.1475800000000000    0.4622900000000000    0.1014900000000000 H
   0.6475700000000000    0.4622700000000000    0.1015300000000000 H
   0.3535100000000000    0.2555800000000000    0.1413500000000000 H
   0.8534900000000000    0.2555700000000000    0.1413900000000000 H
   0.4004200000000000    0.4276100000000000    0.1906500000000000 H
   0.9004100000000000    0.4276000000000000    0.1907100000000000 H
   0.5499400000000000    0.8086400000000000    0.1710300000000000 H
   0.6304200000000000    0.7818900000000000    0.3610300000000000 H
   0.3776100000000000    0.9101300000000000    0.3247000000000000 H
   0.3975100000000000    0.8988400000000000    0.5370400000000000 H
   0.6034700000000000    0.8589100000000000    0.7449000000000000 H
   0.6504200000000000    0.8093800000000000    0.5731400000000000 H
   0.2000500000000000    0.1709600000000000    0.8087000000000000 H
   0.7000400000000000    0.1709400000000000    0.8087900000000000 H
   0.1195600000000000    0.3605500000000000    0.7819500000000000 H
   0.6195500000000000    0.3605400000000000    0.7820000000000000 H
   0.3724300000000000    0.3253900000000000    0.9099500000000000 H
   0.8724200000000000    0.3253700000000000    0.9099000000000000 H
   0.3524300000000000    0.5377600000000000    0.8985000000000000 H
   0.8524200000000000    0.5377500000000000    0.8985500000000000 H
   0.1465000000000000    0.7444600000000000    0.8586400000000000 H
   0.6464900000000000    0.7444499999999999    0.8586000000000000 H
   0.0995900000000000    0.5724300000000000    0.8093100000000000 H
   0.5995700000000000    0.5724200000000000    0.8093600000000000 H
   0.0877300000000000    0.1080500000000000    0.8781200000000000 C
   0.5877300000000000    0.1080400000000000    0.8781500000000000 C
   0.0413900000000000    0.1367100000000000    0.7635999999999999 C
   0.5413900000000000    0.1367000000000000    0.7636700000000000 C
   0.4695000000000000    0.1766500000000000    0.7525300000000000 C
   0.9694900000000000    0.1766400000000000    0.7524900000000000 C
   0.4248600000000000    0.1909500000000000    0.6466000000000000 C
   0.9248600000000000    0.1909500000000000    0.6465700000000000 C
   0.4495700000000000    0.1679700000000000    0.5458700000000000 C
   0.9495700000000000    0.1679800000000000    0.5458400000000000 C
   0.0225900000000000    0.1368000000000000    0.5565300000000000 C
   0.5225800000000000    0.1367900000000000    0.5565600000000001 C
   0.0672200000000000    0.1201100000000000    0.6669000000000000 C
   0.5672100000000000    0.1201000000000000    0.6669400000000000 C
   0.0473700000000000    0.1199000000000000    0.4559700000000000 C
   0.5473600000000000    0.1198900000000000    0.4500000000000000 C
   0.0276900000000000    0.1082500000000000    0.2421900000000000 C
   0.5276800000000000    0.1082300000000000    0.2422300000000000 C
   0.0023700000000000    0.1246600000000000    0.3487300000000000 C
   0.5023600000000000    0.1246600000000000    0.3487600000000000 C
   0.4306900000000000    0.1455000000000000    0.3394000000000000 C
   0.9307000000000000    0.1454900000000000    0.3394200000000000 C
   0.4049000000000000    0.1708000000000000    0.4352000000000000 C
   0.9049100000000000    0.1707900000000000    0.4351700000000000 C
   0.1623100000000000    0.8776900000000000    0.1082300000000000 C
   0.6623000000000000    0.8776700000000000    0.1082300000000000 C
   0.2086000000000000    0.7633200000000000    0.1366900000000000 C
   0.7085900000000001    0.7633100000000000    0.1367100000000000 C
   0.2805200000000000    0.7525100000000000    0.1765500000000000 C
   0.7805100000000000    0.7524999999999999    0.1765900000000000 C
   0.3251600000000000    0.6468200000000000    0.1908600000000000 C
   0.8251500000000001    0.6468100000000000    0.1909200000000000 C
   0.3004400000000000    0.5460000000000000    0.1679700000000000 C
   0.8004200000000000    0.5459900000000000    0.1680300000000000 C
   0.2274200000000000    0.5563100000000000    0.1368700000000000 C
   0.7274100000000000    0.5563000000000000    0.1369100000000000 C
   0.1827700000000000    0.6665000000000000    0.1201700000000000 C
   0.6827600000000000    0.6664800000000000    0.1202000000000000 C
   0.2026800000000000    0.4555900000000000    0.1201100000000000 C
   0.7026700000000000    0.4555800000000000    0.1201500000000000 C
   0.2224800000000000    0.2418200000000000    0.1080000000000000 C
   0.7224699999999999    0.2418100000000000    0.1087500000000000 C
   0.2476900000000000    0.3485900000000000    0.1249300000000000 C
   0.7476800000000000    0.3485800000000000    0.1249800000000000 C
   0.3193300000000000    0.3396900000000000    0.1456000000000000 C
   0.8193200000000000    0.3396800000000000    0.1457200000000000 C
   0.3451100000000000    0.4355800000000000    0.1708600000000000 C
   0.8450900000000000    0.4355700000000000    0.1709100000000000 C
   0.4122700000000000    0.8919899999999999    0.1219000000000000 C
   0.4586000000000000    0.8633300000000000    0.2363800000000000 C
   0.5305000000000000    0.8233900000000000    0.2475200000000000 C
   0.5751300000000000    0.8090800000000000    0.3534400000000000 C
   0.5504200000000000    0.8320600000000000    0.4541700000000000 C
   0.4774100000000000    0.8632400000000000    0.4434900000000000 C
   0.4327800000000000    0.8799300000000000    0.3331000000000000 C
   0.4526300000000000    0.8801500000000000    0.5440500000000000 C
   0.4723200000000000    0.8918000000000000    0.7578300000000000 C
   0.4976300000000000    0.8753800000000000    0.6512000000000000 C
   0.5693000000000000    0.8545300000000000    0.6606000000000000 C
   0.5950900000000000    0.8292300000000000    0.5648400000000000 C
   0.3377000000000000    0.1223600000000000    0.8918000000000000 C
   0.8376900000000000    0.1223500000000000    0.8918300000000000 C
   0.2914100000000000    0.2367300000000000    0.8633100000000000 C
   0.7914000000000000    0.2367100000000000    0.8633000000000000 C
   0.2194900000000000    0.2475400000000000    0.8234300000000000 C
   0.7194800000000000    0.2475200000000000    0.8234800000000000 C
   0.1748500000000000    0.3532200000000000    0.8091100000000000 C
   0.6748400000000000    0.3532100000000000    0.8091600000000000 C
   0.1995700000000000    0.4540500000000000    0.8320000000000000 C
   0.6995600000000000    0.4540300000000000    0.8320400000000000 C
   0.2725900000000000    0.4437400000000000    0.8631100000000000 C
   0.7725700000000000    0.4437200000000000    0.8631600000000000 C
   0.3172400000000000    0.3335500000000000    0.8798200000000000 C
   0.8172300000000000    0.3335400000000000    0.8798000000000000 C
   0.2973300000000000    0.5444600000000001    0.8798800000000000 C
   0.7973200000000000    0.5444400000000000    0.8799300000000000 C
   0.2775200000000000    0.7582300000000000    0.8912900000000000 C
   0.7775200000000000    0.7582100000000001    0.8913800000000000 C
   0.2523100000000000    0.6514500000000000    0.8750599999999999 C
   0.7523000000000000    0.6514400000000000    0.8751100000000001 C
   0.1806700000000000    0.6603599999999999    0.8543100000000000 C
   0.6806600000000000    0.6603400000000000    0.8543600000000000 C
   0.1549000000000000    0.5644600000000000    0.8291200000000000 C
   0.6548900000000000    0.5644500000000000    0.8291700000000000 C
   0.0585500000000000    0.1197200000000000    0.9637600000000000 O
   0.5585599999999999    0.1197000000000000    0.9638000000000000 O
   0.0883400000000000    0.1207200000000000    0.2516900000000000 O
   0.5883400000000000    0.1207000000000000    0.2517600000000000 O
   0.4866300000000000    0.0861500000000000    0.1487000000000000 O
   0.9866200000000001    0.0861800000000000    0.1486700000000000 O
   0.1516100000000000    0.0756900000000000    0.8888000000000000 O
   0.6516100000000000    0.0756600000000000    0.8888200000000001 O
   0.1916100000000000    0.9633200000000000    0.1199800000000000 O
   0.6916099999999999    0.9633100000000000    0.1200000000000000 O
   0.1620000000000000    0.2508400000000000    0.1215600000000000 O
   0.6619900000000000    0.2508300000000000    0.1216200000000000 O
   0.2635000000000000    0.1486300000000000    0.0864000000000000 O
   0.7635000000000000    0.1486000000000000    0.0865000000000000 O
   0.0983800000000000    0.8884300000000001    0.0759900000000000 O
   0.5983700000000000    0.8884200000000000    0.0759600000000000 O
   0.4414500000000000    0.8803299999999999    0.0362600000000000 O
   0.4116600000000000    0.8793299999999999    0.7483300000000001 O
   0.5133700000000000    0.9139000000000000    0.8513400000000000 O
   0.3483900000000000    0.9243800000000000    0.1112100000000000 O
   0.3083900000000000    0.0367300000000000    0.8800200000000000 O
   0.8083800000000000    0.0367100000000000    0.8800500000000000 O
   0.3380100000000000    0.7492100000000000    0.8784600000000000 O
   0.8380000000000000    0.7492000000000000    0.8785300000000000 O
   0.2365000000000000    0.8514300000000000    0.9135600000000000 O
   0.7364900000000000    0.8514100000000000    0.9136500000000000 O
   0.4016200000000000    0.1116300000000000    0.9241100000000000 O
   0.9016100000000000    0.1116000000000000    0.9240000000000000 O
