H6 O4
1.0
  30.8199987982964707    0.0000000000000000    0.0086065674955816
  -0.0000014476116174   18.5645143668886909  -10.7113162273168498
   0.0000000000000000    0.0000000000000000   21.4340000000000011
H O
6 4
direct
   0.7018122632285242    0.4865515249338364    0.2256304172795115 H
   0.7991006402136902    0.6004330053681840    0.2201430515051936 H
   0.7546559589652587    0.5350092351439169    0.2161668859330964 H
   0.8664338997714263    0.3711088930550307    0.7553746561142430 H
   0.9227067791627332    0.2866271833787373    0.7467418827072894 H
   0.7915811703005836    0.3411158067420006    0.7225742178375488 H
   0.7132650000000000    0.5343599999999999    0.2416300000000000 O
   0.7702200000000000    0.5999800000000000    0.2379100000000000 O
   0.8964600000000000    0.3621400000000000    0.7620000000000000 O
   0.9534000000000000    0.2927800000000000    0.7582800000000000 O
