Zn24 H190 C391 O96 F138
1.0
  30.8199987982964707    0.0000000000000000    0.0086065674955816
  -0.0000014476116174   18.5645143668886909  -10.7113162273168498
   0.0000000000000000    0.0000000000000000   21.4340000000000011
Zn H C O F
24 190 391 96 138
direct
   0.5000050000000000    0.3008300000000000    0.6991000000000001 Zn
   0.3333333333333333    0.6991600000000000    0.3984500000000000 Zn
   0.1666666666666667    0.3984500000000000    0.6991500000000000 Zn
   0.9999950000000000    0.6991500000000000    0.3008200000000000 Zn
   0.6666666666666666    0.6016000000000000    0.3008500000000000 Zn
   0.8333333333333333    0.3008200000000000    0.6015500000000000 Zn
   0.4166800000000000    0.3984500000000000    0.6991500000000000 Zn
   0.5833350000000000    0.6991600000000000    0.3984500000000000 Zn
   0.2500000000000000    0.6991500000000000    0.3008200000000000 Zn
   0.7500100000000001    0.3008300000000000    0.6991000000000001 Zn
   0.0833300000000000    0.3008200000000000    0.6015500000000000 Zn
   0.9166799999999999    0.6016000000000000    0.3008500000000000 Zn
   0.0000050000000000    0.3008300000000000    0.6991000000000001 Zn
   0.8333333333333333    0.6991600000000000    0.3984500000000000 Zn
   0.6666666666666666    0.3984500000000000    0.6991500000000000 Zn
   0.4999950000000000    0.6991500000000000    0.3008200000000000 Zn
   0.1666666666666667    0.6016000000000000    0.3008500000000000 Zn
   0.3333333333333333    0.3008200000000000    0.6015500000000000 Zn
   0.9166799999999999    0.3984500000000000    0.6991500000000000 Zn
   0.0833350000000000    0.6991600000000000    0.3984500000000000 Zn
   0.7500000000000000    0.6991500000000000    0.3008200000000000 Zn
   0.5833300000000000    0.3008200000000000    0.6015500000000000 Zn
   0.4166800000000000    0.6016000000000000    0.3008500000000000 Zn
   0.2500100000000000    0.3008300000000000    0.6991000000000001 Zn
   0.4143350000000000    0.8402300000000000    0.3643500000000000 H
   0.4480350000000000    0.9337500000000000    0.3451000000000000 H
   0.3329900000000000    0.9382900000000000    0.2324100000000000 H
   0.2997800000000000    0.8463100000000000    0.2531400000000000 H
   0.4189950000000000    0.1597800000000000    0.5240200000000000 H
   0.3853000000000000    0.0663400000000000    0.4113000000000000 H
   0.5000000000000000    0.0617200000000000    0.2940600000000000 H
   0.5335900000000000    0.1536400000000000    0.4067200000000000 H
   0.2522850000000000    0.5240100000000000    0.3642800000000000 H
   0.2185900000000000    0.4112000000000000    0.3449000000000000 H
   0.3337050000000000    0.2941000000000000    0.2323000000000000 H
   0.3669000000000000    0.4068400000000000    0.2531200000000000 H
   0.2814100000000000    0.3449400000000000    0.4111500000000000 H
   0.2477350000000000    0.3643300000000000    0.5239800000000000 H
   0.1663000000000000    0.2323300000000000    0.2941200000000000 H
   0.1331200000000000    0.2531700000000000    0.4068900000000000 H
   0.0856650000000000    0.3643200000000000    0.8401800000000000 H
   0.0519700000000000    0.3450800000000000    0.9337100000000000 H
   0.1670350000000000    0.2324300000000000    0.9382000000000000 H
   0.2002400000000000    0.2531400000000000    0.8462000000000000 H
   0.0810250000000000    0.5240400000000000    0.1597700000000000 H
   0.1147100000000000    0.4113100000000000    0.0662900000000000 H
   0.9996100000000000    0.2941000000000000    0.0617100000000000 H
   0.9664250000000000    0.4067800000000000    0.1536600000000000 H
   0.5519750000000000    0.6548800000000000    0.0663000000000000 H
   0.5856850000000000    0.6356500000000000    0.1598200000000000 H
   0.6670199999999999    0.7675900000000000    0.0616700000000000 H
   0.7002400000000000    0.7468800000000000    0.1536200000000000 H
   0.5809950000000000    0.4759400000000000    0.8402100000000000 H
   0.6146850000000000    0.5886500000000000    0.9336900000000000 H
   0.4996250000000000    0.7059100000000000    0.9383000000000000 H
   0.4664350000000000    0.5932500000000001    0.8463000000000001 H
   0.7477100000000000    0.6356900000000000    0.4759600000000000 H
   0.7814050000000000    0.6550600000000000    0.5887300000000000 H
   0.6663150000000000    0.7676800000000000    0.7059100000000000 H
   0.6331150000000000    0.7468700000000000    0.5931999999999999 H
   0.7523000000000000    0.4759600000000000    0.6356300000000000 H
   0.7186150000000000    0.5887500000000000    0.6549900000000000 H
   0.8336900000000000    0.7058900000000000    0.7676300000000000 H
   0.8668800000000000    0.5931600000000000    0.7468200000000000 H
   0.9143450000000000    0.1598400000000000    0.6356700000000000 H
   0.9480600000000000    0.0663600000000000    0.6549300000000000 H
   0.8329949999999999    0.0617200000000000    0.7676100000000000 H
   0.7997700000000000    0.1536600000000000    0.7468000000000000 H
   0.9189900000000000    0.8402700000000000    0.4759600000000000 H
   0.8853150000000001    0.9337500000000000    0.5887100000000000 H
   0.0000000000000000    0.9382800000000000    0.7058600000000000 H
   0.0335700000000000    0.8463200000000000    0.5931700000000000 H
   0.6689900000000000    0.1597800000000000    0.5240200000000000 H
   0.6352949999999999    0.0663400000000000    0.4113000000000000 H
   0.7503949999999999    0.0617200000000000    0.2940600000000000 H
   0.7836000000000001    0.1536400000000000    0.4067200000000000 H
   0.6643300000000000    0.8402300000000000    0.3643500000000000 H
   0.6980250000000000    0.9337500000000000    0.3451000000000000 H
   0.5829850000000000    0.9382900000000000    0.2324100000000000 H
   0.5497750000000000    0.8463100000000000    0.2531400000000000 H
   0.3356700000000000    0.3643200000000000    0.8401800000000000 H
   0.3019700000000000    0.3450800000000000    0.9337000000000000 H
   0.4170400000000000    0.2324200000000000    0.9382700000000000 H
   0.4502450000000000    0.2531400000000000    0.8462800000000000 H
   0.3310300000000000    0.5240400000000000    0.1597700000000000 H
   0.3647150000000000    0.4113100000000000    0.0662900000000000 H
   0.2496150000000000    0.2941000000000000    0.0617100000000000 H
   0.2164200000000000    0.4067800000000000    0.1536600000000000 H
   0.5022799999999999    0.5240100000000000    0.3642800000000000 H
   0.4686000000000000    0.4112000000000000    0.3449000000000000 H
   0.5837000000000000    0.2941000000000000    0.2323000000000000 H
   0.6168950000000000    0.4068400000000000    0.2531200000000000 H
   0.4977400000000000    0.3643300000000000    0.5239800000000000 H
   0.5314050000000000    0.3449400000000000    0.4111500000000000 H
   0.4163050000000000    0.2323300000000000    0.2941200000000000 H
   0.3831250000000000    0.2531700000000000    0.4068900000000000 H
   0.8646900000000000    0.5886500000000000    0.9330000000000001 H
   0.8310000000000000    0.4759300000000000    0.8401999999999999 H
   0.7496300000000000    0.7059100000000000    0.9383100000000000 H
   0.7164300000000000    0.5932500000000001    0.8463600000000000 H
   0.7915811703005836    0.3411158067420006    0.7225742178375488 H
   0.8356900000000000    0.6356500000000000    0.1598200000000000 H
   0.8019800000000000    0.6548900000000000    0.0663300000000000 H
   0.9170250000000000    0.7675900000000000    0.0616700000000000 H
   0.9502450000000000    0.7468900000000001    0.1536200000000000 H
   0.1689850000000000    0.8402700000000000    0.4759600000000000 H
   0.1353050000000000    0.9337500000000000    0.5887100000000000 H
   0.2503900000000000    0.9382900000000000    0.7058600000000000 H
   0.2835750000000000    0.8463300000000000    0.5931700000000000 H
   0.1643400000000000    0.1598400000000000    0.6356700000000000 H
   0.1980500000000000    0.0663600000000000    0.6549300000000000 H
   0.0829850000000000    0.0617100000000000    0.7676100000000000 H
   0.0497650000000000    0.1536600000000000    0.7468000000000000 H
   0.0022950000000000    0.4759600000000000    0.6356300000000000 H
   0.9686200000000000    0.5887500000000000    0.6549900000000000 H
   0.0836850000000000    0.7058900000000000    0.7676300000000000 H
   0.1168750000000000    0.5931600000000000    0.7468200000000000 H
   0.9977150000000000    0.6356900000000000    0.4759600000000000 H
   0.0314000000000000    0.6550600000000000    0.5887300000000000 H
   0.9163200000000000    0.7676900000000000    0.7059100000000000 H
   0.8831249999999999    0.7468700000000000    0.5931999999999999 H
   0.9143350000000000    0.8402300000000000    0.3643500000000000 H
   0.9480350000000000    0.9337500000000000    0.3451000000000000 H
   0.8329900000000000    0.9382900000000000    0.2324100000000000 H
   0.7997799999999999    0.8463100000000000    0.2531400000000000 H
   0.9189950000000000    0.1597800000000000    0.5240200000000000 H
   0.8853000000000000    0.0663400000000000    0.4113000000000000 H
   0.0000000000000000    0.0617200000000000    0.2940600000000000 H
   0.0335900000000000    0.1536400000000000    0.4067200000000000 H
   0.7522850000000000    0.5240100000000000    0.3642800000000000 H
   0.7185900000000001    0.4112000000000000    0.3449000000000000 H
   0.8337049999999999    0.2941000000000000    0.2323000000000000 H
   0.8669000000000000    0.4068400000000000    0.2531200000000000 H
   0.7814099999999999    0.3449400000000000    0.4111500000000000 H
   0.7477350000000000    0.3643300000000000    0.5239800000000000 H
   0.6663000000000000    0.2323300000000000    0.2941200000000000 H
   0.6331200000000000    0.2531700000000000    0.4068900000000000 H
   0.5856650000000000    0.3643200000000000    0.8401800000000000 H
   0.5519700000000000    0.3450800000000000    0.9337100000000000 H
   0.6670350000000000    0.2324300000000000    0.9382000000000000 H
   0.7002400000000000    0.2531400000000000    0.8462000000000000 H
   0.5810250000000000    0.5240400000000000    0.1597700000000000 H
   0.6147100000000000    0.4113100000000000    0.0662900000000000 H
   0.4996100000000000    0.2941000000000000    0.0617100000000000 H
   0.4664250000000000    0.4067800000000000    0.1536600000000000 H
   0.0519750000000000    0.6548800000000000    0.0663000000000000 H
   0.0856850000000000    0.6356500000000000    0.1598200000000000 H
   0.1670200000000000    0.7675900000000000    0.0616700000000000 H
   0.2002400000000000    0.7468800000000000    0.1536200000000000 H
   0.0809950000000000    0.4759400000000000    0.8402100000000000 H
   0.1146850000000000    0.5886500000000000    0.9336900000000000 H
   0.9996250000000000    0.7059100000000000    0.9383000000000000 H
   0.9664349999999999    0.5932500000000001    0.8463000000000001 H
   0.2477100000000000    0.6356900000000000    0.4759600000000000 H
   0.2814050000000000    0.6550600000000000    0.5887300000000000 H
   0.1663150000000000    0.7676800000000000    0.7059100000000000 H
   0.1331150000000000    0.7468700000000000    0.5931999999999999 H
   0.2523000000000000    0.4759600000000000    0.6356300000000000 H
   0.2186150000000000    0.5887500000000000    0.6549900000000000 H
   0.3336900000000000    0.7058900000000000    0.7676300000000000 H
   0.3668800000000000    0.5931600000000000    0.7468200000000000 H
   0.4143450000000000    0.1598400000000000    0.6356700000000000 H
   0.4480600000000000    0.0663600000000000    0.6549300000000000 H
   0.3329950000000000    0.0617200000000000    0.7676100000000000 H
   0.2997700000000000    0.1536600000000000    0.7468000000000000 H
   0.4189900000000000    0.8402700000000000    0.4759600000000000 H
   0.3853150000000000    0.9337500000000000    0.5887100000000000 H
   0.5000000000000000    0.9382800000000000    0.7058600000000000 H
   0.5335700000000000    0.8463200000000000    0.5931700000000000 H
   0.8664338997714263    0.3711088930550307    0.7553746561142430 H
   0.9227067791627332    0.2866271833787373    0.7467418827072894 H
   0.0022800000000000    0.5240100000000000    0.3642800000000000 H
   0.9686000000000000    0.4112000000000000    0.3449000000000000 H
   0.0837000000000000    0.2941000000000000    0.2323000000000000 H
   0.1168950000000000    0.4068400000000000    0.2531200000000000 H
   0.9977400000000001    0.3643300000000000    0.5239800000000000 H
   0.0314050000000000    0.3449400000000000    0.4111500000000000 H
   0.9163049999999999    0.2323300000000000    0.2941200000000000 H
   0.8831249999999999    0.2531700000000000    0.4068900000000000 H
   0.1689900000000000    0.1597800000000000    0.5240200000000000 H
   0.1352950000000000    0.0663400000000000    0.4113000000000000 H
   0.2503950000000000    0.0617200000000000    0.2940600000000000 H
   0.2836000000000000    0.1536400000000000    0.4067200000000000 H
   0.1643300000000000    0.8402300000000000    0.3643500000000000 H
   0.1980250000000000    0.9337500000000000    0.3451000000000000 H
   0.0829850000000000    0.9382900000000000    0.2324100000000000 H
   0.0497750000000000    0.8463100000000000    0.2531400000000000 H
   0.7018122632285242    0.4865515249338364    0.2256304172795115 H
   0.7991006402136902    0.6004330053681840    0.2201430515051936 H
   0.7546559589652587    0.5350092351439169    0.2161668859330964 H
   0.3646900000000000    0.5886500000000000    0.9330000000000001 H
   0.3310000000000000    0.4759300000000000    0.8401999999999999 H
   0.2496300000000000    0.7059100000000000    0.9383100000000000 H
   0.2164300000000000    0.5932500000000001    0.8463600000000000 H
   0.3356900000000000    0.6356500000000000    0.1598200000000000 H
   0.3019800000000000    0.6548900000000000    0.0663300000000000 H
   0.4170250000000000    0.7675900000000000    0.0616700000000000 H
   0.4502450000000000    0.7468900000000001    0.1536200000000000 H
   0.6689849999999999    0.8402700000000000    0.4759600000000000 H
   0.6353050000000000    0.9337500000000000    0.5887100000000000 H
   0.7503900000000000    0.9382900000000000    0.7058600000000000 H
   0.7835750000000000    0.8463300000000000    0.5931700000000000 H
   0.6643400000000000    0.1598400000000000    0.6356700000000000 H
   0.6980500000000001    0.0663600000000000    0.6549300000000000 H
   0.5829850000000000    0.0617100000000000    0.7676100000000000 H
   0.5497649999999999    0.1536600000000000    0.7468000000000000 H
   0.5022950000000000    0.4759600000000000    0.6356300000000000 H
   0.4686200000000000    0.5887500000000000    0.6549900000000000 H
   0.5836850000000000    0.7058900000000000    0.7676300000000000 H
   0.6168750000000001    0.5931600000000000    0.7468200000000000 H
   0.4977150000000000    0.6356900000000000    0.4759600000000000 H
   0.5314000000000000    0.6550600000000000    0.5887300000000000 H
   0.4163200000000000    0.7676900000000000    0.7059100000000000 H
   0.3831250000000000    0.7468700000000000    0.5931999999999999 H
   0.3849200000000000    0.0432600000000000    0.2534300000000000 C
   0.4484300000000000    0.9567500000000000    0.2101800000000000 C
   0.3332100000000000    0.7819500000000000    0.3228700000000000 C
   0.3964400000000000    0.8627000000000000    0.3363900000000000 C
   0.4154400000000000    0.9149600000000000    0.3248200000000000 C
   0.3512800000000000    0.9183100000000000    0.2620700000000000 C
   0.3322100000000000    0.8660200000000000    0.2735800000000000 C
   0.3544400000000000    0.8378600000000000    0.3109900000000000 C
   0.3931150000000000    0.9437800000000000    0.2877900000000000 C
   0.5001550000000000    0.2180100000000000    0.5407000000000000 C
   0.4369100000000000    0.1373200000000000    0.4736000000000000 C
   0.4179100000000000    0.0850900000000000    0.4098000000000000 C
   0.4821000000000000    0.0816900000000000    0.3436900000000000 C
   0.5011550000000000    0.1339500000000000    0.4074600000000000 C
   0.4789250000000000    0.1621300000000000    0.4730300000000000 C
   0.4402500000000000    0.0562400000000000    0.3439500000000000 C
   0.4166800000000000    0.0000200000000000    0.2748600000000000 C
   0.2817650000000000    0.2101600000000000    0.2533900000000000 C
   0.2182450000000000    0.2534000000000000    0.2101500000000000 C
   0.3334550000000000    0.5408700000000000    0.3229000000000000 C
   0.2702000000000000    0.4735900000000000    0.3363000000000000 C
   0.2512050000000000    0.4097600000000000    0.3246800000000000 C
   0.3154000000000000    0.3437200000000000    0.2619700000000000 C
   0.3344650000000000    0.4075300000000000    0.2735300000000000 C
   0.3122150000000000    0.4730800000000000    0.3109500000000000 C
   0.2735550000000000    0.3439300000000000    0.2876700000000000 C
   0.1665750000000000    0.3229300000000000    0.5408700000000000 C
   0.2488050000000000    0.3247200000000000    0.4097300000000000 C
   0.2298150000000000    0.3363500000000000    0.4735000000000000 C
   0.1846050000000000    0.2620100000000000    0.3437300000000000 C
   0.1655550000000000    0.2735700000000000    0.4075500000000000 C
   0.1878050000000000    0.3110000000000000    0.4730800000000000 C
   0.2264500000000000    0.2877000000000000    0.3439200000000000 C
   0.2500000000000000    0.2748000000000000    0.2747800000000000 C
   0.1150900000000000    0.2534300000000000    0.0432400000000000 C
   0.0515850000000000    0.2102000000000000    0.9567400000000000 C
   0.1668050000000000    0.3228600000000000    0.7819000000000000 C
   0.1035700000000000    0.3363700000000000    0.8626600000000000 C
   0.0845700000000000    0.3248100000000000    0.9149300000000000 C
   0.1487400000000000    0.2620800000000000    0.9182900000000001 C
   0.1678100000000000    0.2735800000000000    0.8659900000000000 C
   0.1455750000000000    0.3109800000000000    0.8378200000000000 C
   0.1068950000000000    0.2877900000000000    0.9437600000000000 C
   0.9998700000000000    0.5408200000000000    0.2180200000000000 C
   0.0631100000000000    0.4736200000000000    0.1373000000000000 C
   0.0821050000000000    0.4098200000000000    0.0850600000000000 C
   0.0179150000000000    0.3437300000000000    0.0816000000000000 C
   0.9988600000000001    0.4075100000000000    0.1339600000000000 C
   0.0210950000000000    0.4730700000000000    0.1621300000000000 C
   0.0597650000000000    0.3439700000000000    0.0562300000000000 C
   0.0833300000000000    0.2748600000000000    0.0000000000000000 C
   0.6150900000000000    0.7465500000000000    0.9567300000000000 C
   0.5515800000000000    0.7897900000000000    0.0432000000000000 C
   0.6668250000000000    0.6771500000000000    0.2180300000000000 C
   0.5845750000000000    0.6751700000000000    0.0850000000000000 C
   0.6035850000000000    0.6636200000000000    0.1373000000000000 C
   0.6487350000000001    0.7379300000000000    0.0816700000000000 C
   0.6678100000000000    0.7264300000000000    0.1339400000000000 C
   0.6455850000000000    0.6890200000000000    0.1621400000000000 C
   0.6068900000000000    0.7122000000000001    0.0562300000000000 C
   0.4998600000000000    0.4591900000000000    0.7819500000000000 C
   0.5630850000000001    0.5263600000000001    0.8626900000000000 C
   0.5820850000000000    0.5901600000000000    0.9149300000000000 C
   0.5179200000000000    0.6562700000000000    0.9183000000000000 C
   0.4988650000000000    0.5925000000000000    0.8660500000000000 C
   0.5210850000000000    0.5269300000000000    0.8378600000000000 C
   0.5597600000000000    0.6560100000000000    0.9437800000000000 C
   0.5833300000000000    0.7251100000000000    0.0000000000000000 C
   0.7817700000000001    0.7898300000000000    0.7465600000000000 C
   0.7182450000000000    0.7465800000000000    0.7898100000000000 C
   0.6665500000000000    0.6771000000000000    0.4591500000000000 C
   0.7298000000000000    0.6636700000000000    0.5263800000000000 C
   0.7488000000000000    0.6752899999999999    0.5901999999999999 C
   0.6846150000000000    0.7380100000000001    0.6562800000000000 C
   0.6655500000000000    0.7264600000000000    0.5924000000000000 C
   0.6877900000000000    0.6890300000000000    0.5269200000000001 C
   0.7264550000000000    0.7123000000000000    0.6560400000000000 C
   0.8334500000000000    0.4591200000000000    0.6770500000000000 C
   0.7702100000000001    0.5263800000000000    0.6636100000000000 C
   0.7512150000000000    0.5902100000000000    0.6752000000000000 C
   0.8153900000000001    0.6562700000000000    0.7379500000000000 C
   0.8344500000000000    0.5924600000000000    0.7264000000000000 C
   0.8122150000000000    0.5269000000000000    0.6889700000000000 C
   0.7735550000000000    0.6560400000000000    0.7122500000000000 C
   0.7500100000000001    0.7251800000000000    0.7251600000000000 C
   0.8849199999999999    0.9567500000000000    0.7465500000000000 C
   0.9484349999999999    0.0432600000000000    0.7897900000000000 C
   0.8331950000000000    0.2180400000000000    0.6771000000000000 C
   0.8964449999999999    0.1373500000000000    0.6636000000000000 C
   0.9154550000000000    0.0851100000000000    0.6752000000000000 C
   0.8512800000000000    0.0817100000000000    0.7379500000000000 C
   0.8322050000000000    0.1339800000000000    0.7264400000000000 C
   0.8544350000000001    0.1621600000000000    0.6890200000000000 C
   0.8931300000000000    0.0562600000000000    0.7122300000000000 C
   0.0001250000000000    0.7819700000000001    0.4591500000000000 C
   0.9369050000000000    0.8627200000000000    0.5263700000000000 C
   0.9179150000000000    0.9149700000000000    0.5901800000000000 C
   0.9820949999999999    0.9183200000000000    0.6562400000000000 C
   0.0011400000000000    0.8660400000000000    0.5924500000000000 C
   0.9789099999999999    0.8378800000000000    0.5269000000000000 C
   0.9402500000000000    0.9438000000000000    0.6560100000000000 C
   0.9166850000000000    0.0000200000000000    0.7251300000000001 C
   0.6984250000000000    0.9567500000000000    0.2101800000000000 C
   0.6349150000000000    0.0432600000000000    0.2534300000000000 C
   0.7501599999999999    0.2180100000000000    0.5407700000000000 C
   0.6869050000000000    0.1373200000000000    0.4736000000000000 C
   0.6679050000000000    0.0850900000000000    0.4098000000000000 C
   0.7320900000000000    0.0816900000000000    0.3436900000000000 C
   0.7511600000000000    0.1339500000000000    0.4074600000000000 C
   0.7289200000000000    0.1621300000000000    0.4730300000000000 C
   0.6902400000000000    0.0562400000000000    0.3439500000000000 C
   0.5832050000000000    0.7819500000000000    0.3228700000000000 C
   0.6464300000000001    0.8627000000000000    0.3363900000000000 C
   0.6654300000000000    0.9149600000000000    0.3248200000000000 C
   0.6012750000000000    0.9183100000000000    0.2620700000000000 C
   0.5822050000000000    0.8660200000000000    0.2735800000000000 C
   0.6044350000000001    0.8378600000000000    0.3109900000000000 C
   0.6431100000000000    0.9437800000000000    0.2877000000000000 C
   0.6666666666666666    0.0000200000000000    0.2748600000000000 C
   0.3650950000000000    0.2534300000000000    0.0432400000000000 C
   0.3015850000000000    0.2102000000000000    0.9567400000000000 C
   0.4168100000000000    0.3228600000000000    0.7819100000000000 C
   0.3535750000000000    0.3363700000000000    0.8626600000000000 C
   0.3345750000000000    0.3248100000000000    0.9149300000000000 C
   0.3987450000000000    0.2620800000000000    0.9182900000000001 C
   0.4178150000000000    0.2735800000000000    0.8659900000000000 C
   0.3955800000000000    0.3109800000000000    0.8378200000000000 C
   0.3569000000000000    0.2877900000000000    0.9437600000000000 C
   0.2498650000000000    0.5408200000000000    0.2180200000000000 C
   0.3131150000000000    0.4736200000000000    0.1373000000000000 C
   0.3321100000000000    0.4098200000000000    0.0850600000000000 C
   0.2679200000000000    0.3437300000000000    0.0816000000000000 C
   0.2488550000000000    0.4075100000000000    0.1339600000000000 C
   0.2711000000000000    0.4730700000000000    0.1621300000000000 C
   0.3097700000000000    0.3439700000000000    0.0562300000000000 C
   0.3333333333333333    0.2748600000000000    0.0000000000000000 C
   0.5317600000000000    0.2101600000000000    0.2533900000000000 C
   0.4682500000000000    0.2534000000000000    0.2101500000000000 C
   0.5834450000000000    0.5408700000000000    0.3229000000000000 C
   0.5201950000000000    0.4735900000000000    0.3363000000000000 C
   0.5012000000000000    0.4097600000000000    0.3246800000000000 C
   0.5653950000000000    0.3437200000000000    0.2619700000000000 C
   0.5844549999999999    0.4075300000000000    0.2735300000000000 C
   0.5622100000000000    0.4730800000000000    0.3109000000000000 C
   0.5235500000000000    0.3439300000000000    0.2876700000000000 C
   0.4165800000000000    0.3229300000000000    0.5408700000000000 C
   0.4798250000000000    0.3363500000000000    0.4735800000000000 C
   0.4988100000000000    0.3247200000000000    0.4097300000000000 C
   0.4346150000000000    0.2620000000000000    0.3437300000000000 C
   0.4155600000000000    0.2735700000000000    0.4075500000000000 C
   0.4378100000000000    0.3110000000000000    0.4730800000000000 C
   0.4764550000000000    0.2877000000000000    0.3439200000000000 C
   0.5000000000000000    0.2748000000000000    0.2747800000000000 C
   0.8650949999999999    0.7465500000000000    0.9567300000000000 C
   0.8015850000000000    0.7897900000000000    0.0432000000000000 C
   0.8320900000000000    0.5901600000000000    0.9149000000000000 C
   0.8130900000000000    0.5263600000000001    0.8626900000000000 C
   0.7679250000000000    0.6562700000000000    0.9183300000000000 C
   0.7488550000000000    0.5925000000000000    0.8660500000000000 C
   0.7710900000000001    0.5269300000000000    0.8378700000000000 C
   0.8097650000000001    0.6560100000000000    0.9437800000000000 C
   0.7498549999999999    0.4591900000000000    0.7819600000000000 C
   0.9168300000000000    0.6771600000000000    0.2180400000000000 C
   0.8535900000000001    0.6636200000000000    0.1373300000000000 C
   0.8345800000000000    0.6751700000000000    0.0850800000000000 C
   0.8987400000000000    0.7379300000000000    0.0816700000000000 C
   0.9178150000000000    0.7264300000000000    0.1339500000000000 C
   0.8955900000000000    0.6890300000000000    0.1621400000000000 C
   0.8568950000000000    0.7122000000000001    0.0562000000000000 C
   0.8333333333333333    0.7251100000000000    0.0000000000000000 C
   0.1984250000000000    0.0432600000000000    0.7897900000000000 C
   0.1349150000000000    0.9567500000000000    0.7465500000000000 C
   0.2501350000000000    0.7819800000000000    0.4591500000000000 C
   0.1869000000000000    0.8627200000000000    0.5263700000000000 C
   0.1679100000000000    0.9149700000000000    0.5901800000000000 C
   0.2320900000000000    0.9183200000000000    0.6562400000000000 C
   0.2511450000000000    0.8660400000000000    0.5924500000000000 C
   0.2289050000000000    0.8378800000000000    0.5269000000000000 C
   0.1902450000000000    0.9437900000000000    0.6560100000000000 C
   0.0831900000000000    0.2180400000000000    0.6771200000000001 C
   0.1464400000000000    0.1373500000000000    0.6636400000000000 C
   0.1654450000000000    0.0851100000000000    0.6752000000000000 C
   0.1012750000000000    0.0817100000000000    0.7379500000000000 C
   0.0822000000000000    0.1339800000000000    0.7264400000000000 C
   0.1044250000000000    0.1621600000000000    0.6890200000000000 C
   0.1431200000000000    0.0562600000000000    0.7122300000000000 C
   0.1666666666666667    0.0000200000000000    0.7251300000000001 C
   0.0317650000000000    0.7898300000000000    0.7465600000000000 C
   0.9682500000000001    0.7465800000000000    0.7898100000000000 C
   0.0834400000000000    0.4591200000000000    0.6770500000000000 C
   0.0202050000000000    0.5263800000000000    0.6636100000000000 C
   0.0012100000000000    0.5902100000000000    0.6752200000000000 C
   0.0653850000000000    0.6562700000000000    0.7379500000000000 C
   0.0844450000000000    0.5924600000000000    0.7264000000000000 C
   0.0622100000000000    0.5269000000000000    0.6889700000000000 C
   0.0235500000000000    0.6560400000000000    0.7122500000000000 C
   0.9165550000000000    0.6771000000000000    0.4591500000000000 C
   0.9798050000000000    0.6636700000000000    0.5263800000000000 C
   0.9988049999999999    0.6752899999999999    0.5901999999999999 C
   0.9346200000000000    0.7380100000000001    0.6562800000000000 C
   0.9155550000000000    0.7264600000000000    0.5924000000000000 C
   0.9377949999999999    0.6890300000000000    0.5269200000000001 C
   0.9764600000000000    0.7123000000000000    0.6560400000000000 C
   0.0000050000000000    0.7251800000000000    0.7251600000000000 C
   0.8849199999999999    0.0432600000000000    0.2534300000000000 C
   0.9484300000000000    0.9567500000000000    0.2101800000000000 C
   0.8332100000000000    0.7819500000000000    0.3228700000000000 C
   0.8964400000000000    0.8627000000000000    0.3363900000000000 C
   0.9154400000000000    0.9149600000000000    0.3248200000000000 C
   0.8512800000000000    0.9183100000000000    0.2620700000000000 C
   0.8322100000000000    0.8660200000000000    0.2735800000000000 C
   0.8544400000000000    0.8378600000000000    0.3109900000000000 C
   0.8931150000000000    0.9437800000000000    0.2877900000000000 C
   0.0001550000000000    0.2180100000000000    0.5407000000000000 C
   0.9369100000000000    0.1373200000000000    0.4736000000000000 C
   0.9179100000000000    0.0850900000000000    0.4098000000000000 C
   0.9821000000000000    0.0816900000000000    0.3436900000000000 C
   0.0011550000000000    0.1339500000000000    0.4074600000000000 C
   0.9789250000000000    0.1621300000000000    0.4730300000000000 C
   0.9402500000000000    0.0562400000000000    0.3439500000000000 C
   0.9166799999999999    0.0000200000000000    0.2748600000000000 C
   0.7817650000000000    0.2101600000000000    0.2533900000000000 C