H9 O6
1.0
   7.7490277394921279    0.0000000000000000    0.6590129684471547
   6.6064030118583137   27.5351817957709635   11.4234127439549784
   0.0000000000000000    0.0000000000000000   13.4299999999999997
H O
9 6
direct
   1.1652838351326247    0.2215921317327190    0.5143707225305327 H
   0.2840451621507387    0.1805441056351692    0.2759863223247622 H
   0.2503661804709159    0.2013871735767352    0.3720174439744031 H
   0.2472298069001793    0.3938269716294350    0.5727762948029076 H
   0.4332724819383870    0.3004710377322846    0.6434789536000436 H
   0.2577865589386593    0.3360287197771307    0.4901517744428129 H
   0.0432156066471724    0.4423946801719684    0.2187536213759521 H
   0.1492051216768507    0.3878714105413330    0.3487234580765933 H
   0.3347906320535646    0.2908496945041696    0.5510796388228936 H
   1.1311599999999999    0.2010500000000000    0.4829700000000000 O
   0.2154200000000000    0.1803500000000000    0.3398600000000000 O
   0.2816400000000000    0.4094200000000000    0.6164500000000001 O
   0.4202300000000000    0.3295666666666667    0.6595200000000000 O
   0.2074200000000000    0.3691033333333333    0.4431700000000000 O
   0.0883200000000000    0.4278533333333333    0.2919300000000000 O
