Zn36 H92 C184 O92
1.0
  15.4399999623736566    0.0000000000000000   -0.0010779153451558
   0.0007720648388944   16.4674809625378664   -6.7309858232185240
   0.0000000000000000    0.0000000000000000   36.6360000000000028
Zn H C O
36 92 184 92
direct
   0.0966500000000000    0.0029500000000000    0.0834000000000000 Zn
   0.5990799999999999    0.4967700000000000    0.4982950000000000 Zn
   0.9000899999999999    0.0000000000000000    0.0831400000000000 Zn
   0.0000000000000000    0.9973600000000000    0.3329950000000000 Zn
   0.5966600000000000    0.4970600000000000    0.1666000000000000 Zn
   0.0990800000000000    0.0032000000000000    0.2517150000000000 Zn
   0.4000800000000000    0.4999400000000000    0.1668500000000000 Zn
   0.4999800000000000    0.4973500000000000    0.0829950000000000 Zn
   0.9033700000000000    0.9970700000000000    0.4166000000000000 Zn
   0.4009300000000000    0.5032200000000000    0.0017100000000000 Zn
   0.0999200000000000    0.9999300000000000    0.4168550000000000 Zn
   0.9999700000000000    0.0026400000000000    0.1670050000000000 Zn
   0.4033600000000000    0.5029500000000000    0.3334000000000000 Zn
   0.9009400000000000    0.9968000000000000    0.2482850000000000 Zn
   0.5999300000000000    0.5000500000000000    0.3331450000000000 Zn
   0.0000000000000000    0.9999900000000000    0.4999950000000000 Zn
   0.5000100000000000    0.4999900000000000    0.2500000000000000 Zn
   0.5000300000000000    0.5026600000000000    0.4170100000000000 Zn
   0.0966500000000000    0.0029500000000000    0.5834000000000000 Zn
   0.5990799999999999    0.4967700000000000    0.9982949999999999 Zn
   0.9000899999999999    0.0000000000000000    0.5831400000000000 Zn
   0.0000000000000000    0.9973600000000000    0.8329949999999999 Zn
   0.5966600000000000    0.4970600000000000    0.6666000000000000 Zn
   0.0990800000000000    0.0032000000000000    0.7517150000000000 Zn
   0.4000800000000000    0.4999400000000000    0.6668499999999999 Zn
   0.4999800000000000    0.4973500000000000    0.5829950000000000 Zn
   0.9033700000000000    0.9970700000000000    0.9166000000000001 Zn
   0.4009300000000000    0.5032200000000000    0.5017100000000000 Zn
   0.0999200000000000    0.9999300000000000    0.9168550000000000 Zn
   0.9999700000000000    0.0026400000000000    0.6670050000000000 Zn
   0.4033600000000000    0.5029500000000000    0.8333999999999999 Zn
   0.9009400000000000    0.9968000000000000    0.7482850000000000 Zn
   0.5999300000000000    0.5000500000000000    0.8331450000000000 Zn
   0.0000000000000000    0.9999900000000000    0.9999950000000000 Zn
   0.5000100000000000    0.4999900000000000    0.7500000000000000 Zn
   0.5000300000000000    0.5026600000000000    0.9170100000000000 Zn
   0.8321100000000000    0.1626400000000000    0.4031300000000000 H
   0.7473600000000000    0.2828600000000000    0.4463000000000000 H
   0.6218800000000000    0.2955900000000000    0.3440550000000000 H
   0.7099100000000000    0.1779100000000000    0.3007800000000000 H
   0.1054900000000000    0.7732800000000000    0.4360350000000000 H
   0.2031800000000000    0.6647700000000000    0.3917700000000000 H
   0.3979300000000000    0.7325700000000001    0.4821950000000000 H
   0.3002700000000000    0.8413000000000000    0.0264450000000000 H
   0.6783700000000000    0.6608500000000000    0.4871050000000000 H
   0.7541000000000000    0.7870900000000000    0.0305400000000000 H
   0.8209300000000000    0.8407500000000000    0.4290650000000000 H
   0.7443600000000000    0.7151400000000000    0.3856300000000000 H
   0.3320800000000000    0.3373300000000000    0.3468700000000000 H
   0.2473600000000000    0.2170900000000000    0.3036750000000000 H
   0.1219000000000000    0.2043800000000000    0.4059550000000000 H
   0.2099100000000000    0.3220800000000000    0.4492250000000000 H
   0.6055900000000000    0.7267200000000000    0.3139800000000000 H
   0.7033100000000000    0.8352100000000000    0.3582350000000000 H
   0.8980399999999999    0.7673100000000000    0.2678100000000000 H
   0.8003400000000001    0.6586000000000000    0.2235650000000000 H
   0.1783500000000000    0.8391800000000000    0.2629000000000000 H
   0.2540900000000000    0.7129500000000000    0.2194500000000000 H
   0.3209100000000000    0.6592300000000000    0.3209250000000000 H
   0.2443400000000000    0.7848400000000000    0.3643600000000000 H
   0.1679000000000000    0.8373600000000000    0.0968500000000000 H
   0.2526400000000000    0.7171300000000000    0.0536650000000000 H
   0.3781200000000000    0.7044000000000000    0.1559450000000000 H
   0.2901000000000000    0.8220900000000000    0.1992000000000000 H
   0.8945100000000000    0.2267100000000000    0.0639700000000000 H
   0.7968100000000000    0.3352200000000000    0.1082350000000000 H
   0.6020700000000000    0.2674200000000000    0.0178100000000000 H
   0.6997300000000000    0.1586900000000000    0.4735600000000000 H
   0.3216400000000000    0.3391500000000000    0.0128500000000000 H
   0.2459000000000000    0.2129200000000000    0.4694550000000000 H
   0.1790700000000000    0.1592600000000000    0.0709300000000000 H
   0.2556400000000000    0.2848600000000000    0.1143650000000000 H
   0.6679300000000000    0.6626700000000000    0.1531250000000000 H
   0.7526600000000000    0.7829100000000000    0.1963250000000000 H
   0.8781099999999999    0.7956200000000000    0.0940450000000000 H
   0.7901000000000000    0.6779300000000000    0.0507750000000000 H
   0.3944100000000000    0.2732900000000000    0.1860200000000000 H
   0.2966800000000000    0.1648000000000000    0.1417650000000000 H
   0.1019500000000000    0.2327100000000000    0.2321950000000000 H
   0.1996600000000000    0.3414200000000000    0.2764400000000000 H
   0.8216599999999999    0.1608100000000000    0.2371000000000000 H
   0.7459300000000000    0.2870500000000000    0.2805450000000000 H
   0.6790900000000000    0.3407500000000000    0.1790500000000000 H
   0.7556500000000000    0.2151400000000000    0.1356350000000000 H
   0.8321100000000000    0.1626400000000000    0.9031300000000000 H
   0.7473600000000000    0.2828600000000000    0.9462999999999999 H
   0.6218800000000000    0.2955900000000000    0.8440550000000000 H
   0.7099100000000000    0.1779100000000000    0.8007800000000000 H
   0.1054900000000000    0.7732800000000000    0.9360350000000000 H
   0.2031800000000000    0.6647700000000000    0.8917700000000000 H
   0.3979300000000000    0.7325700000000001    0.9821949999999999 H
   0.3002700000000000    0.8413000000000000    0.5264450000000001 H
   0.6783700000000000    0.6608500000000000    0.9871050000000000 H
   0.7541000000000000    0.7870900000000000    0.5305400000000000 H
   0.8209300000000000    0.8407500000000000    0.9290650000000000 H
   0.7443600000000000    0.7151400000000000    0.8856299999999999 H
   0.6055900000000000    0.7267200000000000    0.8139799999999999 H
   0.7033100000000000    0.8352100000000000    0.8582350000000001 H
   0.8980399999999999    0.7673100000000000    0.7678100000000000 H
   0.8003400000000001    0.6586000000000000    0.7235650000000000 H
   0.1783500000000000    0.8391800000000000    0.7629000000000000 H
   0.2540900000000000    0.7129500000000000    0.7194500000000000 H
   0.3209100000000000    0.6592300000000000    0.8209250000000000 H
   0.2443400000000000    0.7848400000000000    0.8643600000000000 H
   0.1679000000000000    0.8373600000000000    0.5968500000000000 H
   0.2526400000000000    0.7171300000000000    0.5536650000000000 H
   0.3781200000000000    0.7044000000000000    0.6559450000000000 H
   0.2901000000000000    0.8220900000000000    0.6992000000000000 H
   0.8945100000000000    0.2267100000000000    0.5639700000000000 H
   0.7968100000000000    0.3352200000000000    0.6082350000000000 H
   0.6020700000000000    0.2674200000000000    0.5178100000000000 H
   0.6997300000000000    0.1586900000000000    0.9735600000000000 H
   0.3216400000000000    0.3391500000000000    0.5128500000000000 H
   0.2459000000000000    0.2129200000000000    0.9694550000000000 H
   0.1790700000000000    0.1592600000000000    0.5709300000000000 H
   0.2556400000000000    0.2848600000000000    0.6143650000000000 H
   0.6679300000000000    0.6626700000000000    0.6531250000000000 H
   0.7526600000000000    0.7829100000000000    0.6963250000000000 H
   0.8781099999999999    0.7956200000000000    0.5940450000000000 H
   0.7901000000000000    0.6779300000000000    0.5507750000000000 H
   0.3944100000000000    0.2732900000000000    0.6860200000000000 H
   0.2966800000000000    0.1648000000000000    0.6417650000000000 H
   0.1019500000000000    0.2327100000000000    0.7321950000000000 H
   0.1996600000000000    0.3414200000000000    0.7764400000000000 H
   0.8216599999999999    0.1608100000000000    0.7371000000000000 H
   0.7459300000000000    0.2870500000000000    0.7805450000000000 H
   0.6790900000000000    0.3407500000000000    0.6790499999999999 H
   0.7556500000000000    0.2151400000000000    0.6356350000000000 H
   0.8336500000000000    0.0955800000000000    0.3234550000000000 C
   0.7777700000000000    0.1640100000000000    0.3491500000000000 C
   0.7869699999999999    0.1928000000000000    0.3903300000000000 C
   0.7391000000000000    0.2593000000000000    0.4144600000000000 C
   0.6793900000000000    0.2968700000000000    0.3979100000000000 C
   0.6284400000000000    0.3692000000000000    0.4237100000000000 C
   0.6683100000000000    0.2665100000000000    0.3568450000000000 C
   0.7175400000000000    0.2011100000000000    0.3326700000000000 C
   0.1382700000000000    0.8793700000000000    0.0101050000000000 C
   0.1969000000000000    0.8140300000000000    0.4839000000000000 C
   0.1697900000000000    0.7642099999999999    0.4458600000000000 C
   0.2240300000000000    0.7038200000000000    0.4212500000000000 C
   0.3065900000000000    0.6920700000000000    0.4342850000000000 C
   0.3649600000000000    0.6265300000000000    0.4079850000000000 C
   0.3336900000000000    0.7418100000000000    0.4723450000000000 C
   0.2794900000000000    0.8023100000000000    0.4969450000000000 C
   0.6589000000000000    0.6062700000000000    0.4078750000000000 C
   0.7064300000000000    0.6805800000000000    0.4337000000000000 C
   0.7092200000000000    0.7006599999999999    0.4745850000000000 C
   0.7519300000000000    0.7705300000000000    0.4987750000000000 C
   0.7930400000000000    0.8209300000000000    0.4824700000000000 C
   0.8412200000000000    0.8946100000000000    0.0084650000000000 C
   0.7900100000000000    0.8010000000000000    0.4416000000000000 C
   0.7470500000000000    0.7312400000000000    0.4173850000000000 C
   0.3336300000000000    0.4044100000000000    0.4265000000000000 C
   0.2777600000000000    0.3359700000000000    0.4008100000000000 C
   0.2869600000000000    0.3071600000000000    0.3596750000000000 C
   0.2391000000000000    0.2406600000000000    0.3355000000000000 C
   0.1794100000000000    0.2030800000000000    0.3520950000000000 C
   0.1284700000000000    0.1307500000000000    0.3263000000000000 C
   0.1683300000000000    0.2334600000000000    0.3931600000000000 C
   0.2175400000000000    0.2988700000000000    0.4173350000000000 C
   0.6383100000000000    0.6206199999999999    0.2399000000000000 C
   0.6969900000000000    0.6859300000000000    0.2661100000000000 C
   0.6698900000000000    0.7357700000000000    0.3041500000000000 C
   0.7241400000000000    0.7961400000000000    0.3287550000000000 C
   0.8067100000000000    0.8078700000000000    0.3157150000000000 C
   0.8650500000000000    0.8734400000000000    0.3420150000000000 C
   0.8338000000000000    0.7581000000000000    0.2776600000000000 C
   0.7795800000000001    0.6976100000000000    0.2530700000000000 C
   0.1588800000000000    0.8937400000000000    0.3421300000000000 C
   0.2064100000000000    0.8194300000000000    0.3163000000000000 C
   0.2092100000000000    0.7993600000000000    0.2754200000000000 C
   0.2519200000000000    0.7295000000000000    0.2512000000000000 C
   0.2930200000000000    0.6790800000000000    0.2675200000000000 C
   0.3412000000000000    0.6054000000000000    0.2415150000000000 C
   0.2900000000000000    0.6990000000000000    0.3083900000000000 C
   0.2470300000000000    0.7687500000000000    0.3326100000000000 C
   0.1663600000000000    0.9044200000000000    0.1765450000000000 C
   0.2222300000000000    0.8359900000000000    0.1508050000000000 C
   0.2130300000000000    0.8071900000000000    0.1096700000000000 C
   0.2609000000000000    0.7406900000000000    0.0855400000000000 C
   0.3206100000000000    0.7031200000000000    0.1020900000000000 C
   0.3715500000000000    0.6307900000000000    0.0762900000000000 C
   0.3316900000000000    0.7334800000000000    0.1431550000000000 C
   0.2824600000000000    0.7988800000000000    0.1673250000000000 C
   0.8617400000000000    0.1206300000000000    0.4895000000000000 C
   0.8030900000000000    0.1859600000000000    0.0161000000000000 C
   0.8302100000000000    0.2357800000000000    0.0541400000000000 C
   0.7759700000000000    0.2961700000000000    0.0787500000000000 C
   0.6934000000000000    0.3079200000000000    0.0657150000000000 C
   0.6350400000000000    0.3734700000000000    0.0920200000000000 C
   0.6663100000000000    0.2581800000000000    0.0276550000000000 C
   0.7205100000000000    0.1976800000000000    0.0030600000000000 C
   0.3411100000000000    0.3937300000000000    0.0921250000000000 C
   0.2935800000000000    0.3194300000000000    0.0660000000000000 C
   0.2907800000000000    0.2993400000000000    0.0254150000000000 C
   0.2480700000000000    0.2294800000000000    0.0012200000000000 C
   0.2069700000000000    0.1790700000000000    0.0175250000000000 C
   0.1587900000000000    0.1053900000000000    0.4915000000000000 C
   0.2099900000000000    0.1990100000000000    0.0583950000000000 C
   0.2529500000000000    0.2687700000000000    0.0826150000000000 C
   0.6663800000000000    0.5956000000000000    0.0734500000000000 C
   0.7222499999999999    0.6640300000000000    0.0991850000000000 C
   0.7130600000000000    0.6928400000000000    0.1403250000000000 C
   0.7609100000000000    0.7593400000000000    0.1644500000000000 C
   0.8206100000000000    0.7969100000000000    0.1479000000000000 C
   0.8715600000000000    0.8692400000000000    0.1737000000000000 C
   0.8316800000000000    0.7665400000000000    0.1068350000000000 C
   0.7824600000000000    0.7011400000000000    0.0826650000000000 C
   0.3616900000000000    0.3793900000000000    0.2601000000000000 C
   0.3030100000000000    0.3140800000000000    0.2338900000000000 C
   0.3301100000000000    0.2642500000000000    0.1958500000000000 C
   0.2758500000000000    0.2038700000000000    0.1712500000000000 C
   0.1932800000000000    0.1921400000000000    0.1842500000000000 C
   0.1349500000000000    0.1265700000000000    0.1579900000000000 C
   0.1662000000000000    0.2419100000000000    0.2223450000000000 C
   0.2204200000000000    0.3024000000000000    0.2469350000000000 C
   0.8411300000000000    0.1062500000000000    0.1578700000000000 C
   0.7935900000000000    0.1805600000000000    0.1836950000000000 C
   0.7907999999999999    0.2006300000000000    0.2245800000000000 C
   0.7480800000000000    0.2704900000000000    0.2487750000000000 C
   0.7069800000000001    0.3209100000000000    0.2324750000000000 C
   0.6588100000000000    0.3945900000000000    0.2584800000000000 C
   0.7100000000000000    0.3009900000000000    0.1916050000000000 C
   0.7529600000000000    0.2312300000000000    0.1673850000000000 C
   0.8336500000000000    0.0955800000000000    0.8234550000000000 C
   0.7777700000000000    0.1640100000000000    0.8491500000000001 C
   0.7869699999999999    0.1928000000000000    0.8903300000000001 C
   0.7391000000000000    0.2593000000000000    0.9144600000000001 C
   0.6793900000000000    0.2968700000000000    0.8979100000000000 C
   0.6284400000000000    0.3692000000000000    0.9237100000000000 C
   0.6683100000000000    0.2665100000000000    0.8568450000000001 C
   0.7175400000000000    0.2011100000000000    0.8326700000000000 C
   0.1382700000000000    0.8793700000000000    0.5101050000000000 C
   0.1969000000000000    0.8140300000000000    0.9839000000000000 C
   0.1697900000000000    0.7642099999999999    0.9458599999999999 C
   0.2240300000000000    0.7038200000000000    0.9212500000000000 C
   0.3065900000000000    0.6920700000000000    0.9342850000000000 C
   0.3649600000000000    0.6265300000000000    0.9079850000000000 C
   0.3336900000000000    0.7418100000000000    0.9723450000000000 C
   0.2794900000000000    0.8023100000000000    0.9969450000000000 C
   0.6589000000000000    0.6062700000000000    0.9078750000000000 C
   0.7064300000000000    0.6805800000000000    0.9337000000000000 C
   0.7092200000000000    0.7006599999999999    0.9745850000000000 C
   0.7519300000000000    0.7705300000000000    0.9987750000000000 C
   0.7930400000000000    0.8209300000000000    0.9824700000000000 C
   0.8412200000000000    0.8946100000000000    0.5084649999999999 C
   0.7900100000000000    0.8010000000000000    0.9416000000000000 C
   0.7470500000000000    0.7312400000000000    0.9173850000000000 C
   0.6383100000000000    0.6206199999999999    0.7399000000000000 C
   0.6969900000000000    0.6859300000000000    0.7661100000000001 C
   0.6698900000000000    0.7357700000000000    0.8041499999999999 C
   0.7241400000000000    0.7961400000000000    0.8287550000000000 C
   0.8067100000000000    0.8078700000000000    0.8157150000000000 C
   0.8650500000000000    0.8734400000000000    0.8420150000000000 C
   0.8338000000000000    0.7581000000000000    0.7776600000000000 C
   0.7795800000000001    0.6976100000000000    0.7530700000000000 C
   0.1588800000000000    0.8937400000000000    0.8421300000000000 C
   0.2064100000000000    0.8194300000000000    0.8163000000000000 C
   0.2092100000000000    0.7993600000000000    0.7754200000000000 C
   0.2519200000000000    0.7295000000000000    0.7512000000000000 C
   0.2930200000000000    0.6790800000000000    0.7675200000000000 C
   0.3412000000000000    0.6054000000000000    0.7415150000000000 C
   0.2900000000000000    0.6990000000000000    0.8083899999999999 C
   0.2470300000000000    0.7687500000000000    0.8326100000000001 C
   0.1663600000000000    0.9044200000000000    0.6765450000000000 C
   0.2222300000000000    0.8359900000000000    0.6508050000000000 C
   0.2130300000000000    0.8071900000000000    0.6096700000000000 C
   0.2609000000000000    0.7406900000000000    0.5855399999999999 C
   0.3206100000000000    0.7031200000000000    0.6020900000000000 C
   0.3715500000000000    0.6307900000000000    0.5762900000000000 C
   0.3316900000000000    0.7334800000000000    0.6431550000000000 C
   0.2824600000000000    0.7988800000000000    0.6673249999999999 C
   0.8617400000000000    0.1206300000000000    0.9895000000000000 C
   0.8030900000000000    0.1859600000000000    0.5161000000000000 C
   0.8302100000000000    0.2357800000000000    0.5541400000000000 C
   0.7759700000000000    0.2961700000000000    0.5787500000000000 C
   0.6934000000000000    0.3079200000000000    0.5657150000000000 C
   0.6350400000000000    0.3734700000000000    0.5920200000000000 C
   0.6663100000000000    0.2581800000000000    0.5276550000000000 C
   0.7205100000000000    0.1976800000000000    0.5030600000000000 C
   0.3411100000000000    0.3937300000000000    0.5921250000000000 C
   0.2935800000000000    0.3194300000000000    0.5660000000000001 C
   0.2907800000000000    0.2993400000000000    0.5254150000000000 C
   0.2480700000000000    0.2294800000000000    0.5012200000000000 C
   0.2069700000000000    0.1790700000000000    0.5175250000000000 C
   0.1587900000000000    0.1053900000000000    0.9915000000000000 C
   0.2099900000000000    0.1990100000000000    0.5583950000000000 C
   0.2529500000000000    0.2687700000000000    0.5826150000000000 C
   0.6663800000000000    0.5956000000000000    0.5734500000000000 C
   0.7222499999999999    0.6640300000000000    0.5991850000000000 C
   0.7130600000000000    0.6928400000000000    0.6403250000000000 C
   0.7609100000000000    0.7593400000000000    0.6644500000000000 C
   0.8206100000000000    0.7969100000000000    0.6479000000000000 C
   0.8715600000000000    0.8692400000000000    0.6737000000000000 C
   0.8316800000000000    0.7665400000000000    0.6068350000000000 C
   0.7824600000000000    0.7011400000000000    0.5826650000000000 C
   0.3616900000000000    0.3793900000000000    0.7601000000000000 C
   0.3030100000000000    0.3140800000000000    0.7338899999999999 C
   0.3301100000000000    0.2642500000000000    0.6958500000000000 C
   0.2758500000000000    0.2038700000000000    0.6712500000000000 C
   0.1932800000000000    0.1921400000000000    0.6842500000000000 C
   0.1349500000000000    0.1265700000000000    0.6579900000000000 C
   0.1662000000000000    0.2419100000000000    0.7223450000000000 C
   0.2204200000000000    0.3024000000000000    0.7469350000000000 C
   0.8411300000000000    0.1062500000000000    0.6578700000000000 C
   0.7935900000000000    0.1805600000000000    0.6836949999999999 C
   0.7907999999999999    0.2006300000000000    0.7245800000000000 C
   0.7480800000000000    0.2704900000000000    0.7487750000000000 C
   0.7069800000000001    0.3209100000000000    0.7324750000000000 C
   0.6588100000000000    0.3945900000000000    0.7584800000000000 C
   0.7100000000000000    0.3009900000000000    0.6916050000000000 C
   0.7529600000000000    0.2312300000000000    0.6673850000000000 C
   0.5661900000000000    0.6087600000000000    0.2532200000000000 O
   0.3775000000000000    0.4436400000000000    0.4107150000000000 O
   0.1220200000000000    0.9376600000000000    0.3265750000000000 O
   0.3409100000000000    0.5925500000000000    0.2043350000000000 O
   0.3374800000000000    0.5890300000000001    0.3723800000000000 O
   0.1664800000000000    0.9189200000000000    0.0453800000000000 O
   0.8326700000000000    0.0822400000000000    0.2861500000000000 O
   0.5627500000000000    0.3906100000000000    0.4094450000000000 O
   0.4358500000000000    0.6127200000000000    0.4215900000000000 O
   0.8783300000000001    0.9388800000000000    0.4932350000000000 O
   0.6563400000000000    0.4041900000000000    0.4593900000000000 O
   0.0661500000000000    0.8912600000000001    0.4967900000000000 O
   0.8775300000000000    0.0563400000000000    0.3392850000000000 O
   0.6220200000000000    0.5623700000000000    0.4234300000000000 O
   0.8409200000000000    0.9074600000000000    0.0456500000000000 O
   0.6594900000000000    0.5924800000000000    0.3706300000000000 O
   0.8375500000000000    0.9109600000000000    0.3776100000000000 O
   0.6665000000000000    0.5810999999999999    0.2046200000000000 O
   0.3326500000000000    0.4177600000000000    0.4638200000000000 O
   0.0627400000000000    0.1093900000000000    0.3405500000000000 O
   0.9359300000000000    0.8872800000000000    0.3284050000000000 O
   0.3783200000000000    0.5611200000000000    0.2567500000000000 O
   0.1564100000000000    0.0957100000000000    0.2906300000000000 O
   0.1594800000000000    0.9075100000000000    0.3793700000000000 O
   0.6625200000000000    0.4109700000000000    0.1276000000000000 O
   0.8335300000000000    0.0811000000000000    0.4546200000000000 O
   0.1673400000000000    0.9177500000000000    0.2138150000000000 O
   0.4372600000000000    0.6094000000000001    0.0905550000000000 O
   0.5641500000000000    0.3872900000000000    0.0784100000000000 O
   0.1216800000000000    0.0611200000000000    0.0067600000000000 O
   0.3436400000000000    0.5957800000000000    0.0406100000000000 O
   0.9338600000000000    0.1087500000000000    0.0032100000000000 O
   0.1224900000000000    0.9436700000000000    0.1607150000000000 O
   0.3779800000000000    0.4376400000000000    0.0765700000000000 O
   0.1590900000000000    0.0925300000000000    0.4543450000000000 O
   0.3405200000000000    0.4075100000000000    0.1293650000000000 O
   0.1624500000000000    0.0890600000000000    0.1223900000000000 O
   0.3335100000000000    0.4189200000000000    0.2953800000000000 O
   0.6673600000000000    0.5822400000000000    0.0361750000000000 O
   0.9372700000000000    0.8906200000000000    0.1594400000000000 O
   0.0640700000000000    0.1127300000000000    0.1715950000000000 O
   0.6216800000000000    0.4388700000000000    0.2432450000000000 O
   0.8436300000000000    0.9042700000000000    0.2093750000000000 O
   0.4338200000000000    0.3912400000000000    0.2467800000000000 O
   0.6225000000000001    0.5563700000000000    0.0892850000000000 O
   0.8780000000000000    0.0623500000000000    0.1734250000000000 O
   0.6591000000000000    0.4074300000000000    0.2956600000000000 O
   0.8405300000000000    0.0924700000000000    0.1206000000000000 O
   0.5661900000000000    0.6087600000000000    0.7532200000000000 O
   0.1220200000000000    0.9376600000000000    0.8265750000000001 O
   0.3409100000000000    0.5925500000000000    0.7043349999999999 O
   0.3374800000000000    0.5890300000000001    0.8723799999999999 O
   0.1664800000000000    0.9189200000000000    0.5453800000000000 O
   0.8326700000000000    0.0822400000000000    0.7861500000000000 O
   0.5627500000000000    0.3906100000000000    0.9094450000000001 O
   0.4358500000000000    0.6127200000000000    0.9215900000000000 O
   0.8783300000000001    0.9388800000000000    0.9932350000000000 O
   0.6563400000000000    0.4041900000000000    0.9593900000000000 O
   0.0661500000000000    0.8912600000000001    0.9967900000000001 O
   0.8775300000000000    0.0563400000000000    0.8392850000000001 O
   0.6220200000000000    0.5623700000000000    0.9234300000000000 O
   0.8409200000000000    0.9074600000000000    0.5456500000000000 O
   0.6594900000000000    0.5924800000000000    0.8706300000000000 O
   0.8375500000000000    0.9109600000000000    0.8776100000000000 O
   0.6665000000000000    0.5810999999999999    0.7046200000000000 O
   0.9359300000000000    0.8872800000000000    0.8284050000000001 O
   0.3783200000000000    0.5611200000000000    0.7567500000000000 O
   0.1594800000000000    0.9075100000000000    0.8793700000000000 O
   0.6625200000000000    0.4109700000000000    0.6275999999999999 O
   0.8335300000000000    0.0811000000000000    0.9546200000000000 O
   0.1673400000000000    0.9177500000000000    0.7138150000000000 O
   0.4372600000000000    0.6094000000000001    0.5905549999999999 O
   0.5641500000000000    0.3872900000000000    0.5784100000000000 O
   0.1216800000000000    0.0611200000000000    0.5067600000000000 O
   0.3436400000000000    0.5957800000000000    0.5406100000000000 O
   0.9338600000000000    0.1087500000000000    0.5032100000000000 O
   0.1224900000000000    0.9436700000000000    0.6607149999999999 O
   0.3779800000000000    0.4376400000000000    0.5765700000000000 O
   0.1590900000000000    0.0925300000000000    0.9543450000000000 O
   0.3405200000000000    0.4075100000000000    0.6293650000000000 O
   0.1624500000000000    0.0890600000000000    0.6223900000000000 O
   0.3335100000000000    0.4189200000000000    0.7953800000000000 O
   0.6673600000000000    0.5822400000000000    0.5361750000000000 O
   0.9372700000000000    0.8906200000000000    0.6594400000000000 O
   0.0640700000000000    0.1127300000000000    0.6715949999999999 O
   0.6216800000000000    0.4388700000000000    0.7432449999999999 O
   0.8436300000000000    0.9042700000000000    0.7093750000000000 O
   0.4338200000000000    0.3912400000000000    0.7467800000000000 O
   0.6225000000000001    0.5563700000000000    0.5892850000000001 O
   0.8780000000000000    0.0623500000000000    0.6734249999999999 O
   0.6591000000000000    0.4074300000000000    0.7956600000000000 O
   0.8405300000000000    0.0924700000000000    0.6206000000000000 O
