Cd128 H383 C382 I64 N573 O1
1.0
  32.4019996002563460    0.0000000000000000   -0.0050896942371494
   0.0000000000000035   21.5169999999999995    0.0000000000000013
   0.0000000000000000    0.0000000000000000   37.7419999999999973
Cd H C I N O
128 383 382 64 573 1
direct
   0.2809650000000000    0.3750300000000000    0.5397100000000000 Cd
   0.3797200000000000    0.3750100000000000    0.3814800000000000 Cd
   0.4690000000000000    0.1250200000000000    0.4603150000000000 Cd
   0.3702200000000000    0.1250400000000000    0.6185400000000000 Cd
   0.2809850000000000    0.8749900000000000    0.5397050000000000 Cd
   0.3797650000000000    0.8749800000000000    0.3814750000000000 Cd
   0.4690250000000000    0.6249900000000000    0.4603050000000000 Cd
   0.3702700000000000    0.6250100000000000    0.6185400000000000 Cd
   0.5939950000000001    0.6249800000000000    0.2896950000000000 Cd
   0.4952600000000000    0.6250100000000000    0.1314650000000000 Cd
   0.4060050000000000    0.8749900000000000    0.2103250000000000 Cd
   0.5047700000000001    0.8749800000000000    0.3685550000000000 Cd
   0.4059900000000000    0.3750400000000000    0.2103250000000000 Cd
   0.5047250000000000    0.3750000000000000    0.3685550000000000 Cd
   0.5939750000000000    0.1250200000000000    0.2896900000000000 Cd
   0.4952100000000000    0.1250300000000000    0.1314650000000000 Cd
   0.0309600000000000    0.3750300000000000    0.5397100000000000 Cd
   0.1297150000000000    0.3750100000000000    0.3814800000000000 Cd
   0.2189950000000000    0.1250200000000000    0.4603150000000000 Cd
   0.1202100000000000    0.1250400000000000    0.6185400000000000 Cd
   0.0309800000000000    0.8749900000000000    0.5397050000000000 Cd
   0.1297600000000000    0.8749800000000000    0.3814750000000000 Cd
   0.2190200000000000    0.6249900000000000    0.4603000000000000 Cd
   0.1202600000000000    0.6250100000000000    0.6185400000000000 Cd
   0.3440000000000000    0.6249800000000000    0.2896950000000000 Cd
   0.2452550000000000    0.6250100000000000    0.1314650000000000 Cd
   0.1559950000000000    0.8749900000000000    0.2103250000000000 Cd
   0.2547750000000000    0.8749800000000000    0.3685550000000000 Cd
   0.1559850000000000    0.3750400000000000    0.2103250000000000 Cd
   0.2547300000000000    0.3750000000000000    0.3685550000000000 Cd
   0.3439850000000000    0.1250200000000000    0.2896900000000000 Cd
   0.2452050000000000    0.1250300000000000    0.1314650000000000 Cd
   0.2809650000000000    0.3750300000000000    0.0397100000000000 Cd
   0.3797200000000000    0.3750100000000000    0.8814800000000000 Cd
   0.4690000000000000    0.1250200000000000    0.9603150000000000 Cd
   0.3702200000000000    0.1250400000000000    0.1185400000000000 Cd
   0.2809850000000000    0.8749900000000000    0.0397050000000000 Cd
   0.3797650000000000    0.8749800000000000    0.8814750000000000 Cd
   0.4690250000000000    0.6249900000000000    0.9603050000000000 Cd
   0.3702700000000000    0.6250100000000000    0.1185400000000000 Cd
   0.5939950000000001    0.6249800000000000    0.7896950000000000 Cd
   0.4952600000000000    0.6250100000000000    0.6314649999999999 Cd
   0.4060050000000000    0.8749900000000000    0.7103250000000000 Cd
   0.5047700000000001    0.8749800000000000    0.8685550000000000 Cd
   0.4059900000000000    0.3750400000000000    0.7103250000000000 Cd
   0.5047250000000000    0.3750000000000000    0.8685550000000000 Cd
   0.5939750000000000    0.1250200000000000    0.7896900000000000 Cd
   0.4952100000000000    0.1250300000000000    0.6314649999999999 Cd
   0.0309600000000000    0.3750300000000000    0.0397100000000000 Cd
   0.1297150000000000    0.3750100000000000    0.8814800000000000 Cd
   0.2189950000000000    0.1250200000000000    0.9603150000000000 Cd
   0.1202100000000000    0.1250400000000000    0.1185400000000000 Cd
   0.0309800000000000    0.8749900000000000    0.0397050000000000 Cd
   0.1297600000000000    0.8749800000000000    0.8814750000000000 Cd
   0.2190200000000000    0.6249900000000000    0.9602999999999999 Cd
   0.1202600000000000    0.6250100000000000    0.1185400000000000 Cd
   0.3440000000000000    0.6249800000000000    0.7896950000000000 Cd
   0.2452550000000000    0.6250100000000000    0.6314649999999999 Cd
   0.1559950000000000    0.8749900000000000    0.7103250000000000 Cd
   0.2547750000000000    0.8749800000000000    0.8685550000000000 Cd
   0.1559850000000000    0.3750400000000000    0.7103250000000000 Cd
   0.2547300000000000    0.3750000000000000    0.8685550000000000 Cd
   0.3439850000000000    0.1250200000000000    0.7896900000000000 Cd
   0.2452050000000000    0.1250300000000000    0.6314649999999999 Cd
   0.7809650000000000    0.3750300000000000    0.5397100000000000 Cd
   0.8797200000000001    0.3750100000000000    0.3814800000000000 Cd
   0.9690000000000000    0.1250200000000000    0.4603150000000000 Cd
   0.8702200000000000    0.1250400000000000    0.6185400000000000 Cd
   0.7809850000000000    0.8749900000000000    0.5397050000000000 Cd
   0.8797650000000000    0.8749800000000000    0.3814750000000000 Cd
   0.9690250000000000    0.6249900000000000    0.4603050000000000 Cd
   0.8702700000000000    0.6250100000000000    0.6185400000000000 Cd
   0.0939950000000000    0.6249800000000000    0.2896950000000000 Cd
   0.9952600000000000    0.6250100000000000    0.1314650000000000 Cd
   0.9060049999999999    0.8749900000000000    0.2103250000000000 Cd
   0.0047700000000000    0.8749800000000000    0.3685550000000000 Cd
   0.9059900000000001    0.3750400000000000    0.2103250000000000 Cd
   0.0047250000000000    0.3750000000000000    0.3685550000000000 Cd
   0.0939750000000000    0.1250200000000000    0.2896900000000000 Cd
   0.9952099999999999    0.1250300000000000    0.1314650000000000 Cd
   0.5309600000000000    0.3750300000000000    0.5397100000000000 Cd
   0.6297150000000000    0.3750100000000000    0.3814800000000000 Cd
   0.7189950000000001    0.1250200000000000    0.4603150000000000 Cd
   0.6202100000000000    0.1250400000000000    0.6185400000000000 Cd
   0.5309800000000000    0.8749900000000000    0.5397050000000000 Cd
   0.6297600000000000    0.8749800000000000    0.3814750000000000 Cd
   0.7190200000000000    0.6249900000000000    0.4603000000000000 Cd
   0.6202600000000000    0.6250100000000000    0.6185400000000000 Cd
   0.8440000000000000    0.6249800000000000    0.2896950000000000 Cd
   0.7452550000000000    0.6250100000000000    0.1314650000000000 Cd
   0.6559950000000000    0.8749900000000000    0.2103250000000000 Cd
   0.7547750000000000    0.8749800000000000    0.3685550000000000 Cd
   0.6559850000000000    0.3750400000000000    0.2103250000000000 Cd
   0.7547300000000000    0.3750000000000000    0.3685550000000000 Cd
   0.8439850000000000    0.1250200000000000    0.2896900000000000 Cd
   0.7452050000000000    0.1250300000000000    0.1314650000000000 Cd
   0.7809650000000000    0.3750300000000000    0.0397100000000000 Cd
   0.8797200000000001    0.3750100000000000    0.8814800000000000 Cd
   0.9690000000000000    0.1250200000000000    0.9603150000000000 Cd
   0.8702200000000000    0.1250400000000000    0.1185400000000000 Cd
   0.7809850000000000    0.8749900000000000    0.0397050000000000 Cd
   0.8797650000000000    0.8749800000000000    0.8814750000000000 Cd
   0.9690250000000000    0.6249900000000000    0.9603050000000000 Cd
   0.8702700000000000    0.6250100000000000    0.1185400000000000 Cd
   0.0939950000000000    0.6249800000000000    0.7896950000000000 Cd
   0.9952600000000000    0.6250100000000000    0.6314649999999999 Cd
   0.9060049999999999    0.8749900000000000    0.7103250000000000 Cd
   0.0047700000000000    0.8749800000000000    0.8685550000000000 Cd
   0.9059900000000001    0.3750400000000000    0.7103250000000000 Cd
   0.0047250000000000    0.3750000000000000    0.8685550000000000 Cd
   0.0939750000000000    0.1250200000000000    0.7896900000000000 Cd
   0.9952099999999999    0.1250300000000000    0.6314649999999999 Cd
   0.5309600000000000    0.3750300000000000    0.0397100000000000 Cd
   0.6297150000000000    0.3750100000000000    0.8814800000000000 Cd
   0.7189950000000001    0.1250200000000000    0.9603150000000000 Cd
   0.6202100000000000    0.1250400000000000    0.1185400000000000 Cd
   0.5309800000000000    0.8749900000000000    0.0397050000000000 Cd
   0.6297600000000000    0.8749800000000000    0.8814750000000000 Cd
   0.7190200000000000    0.6249900000000000    0.9602999999999999 Cd
   0.6202600000000000    0.6250100000000000    0.1185400000000000 Cd
   0.8440000000000000    0.6249800000000000    0.7896950000000000 Cd
   0.7452550000000000    0.6250100000000000    0.6314649999999999 Cd
   0.6559950000000000    0.8749900000000000    0.7103250000000000 Cd
   0.7547750000000000    0.8749800000000000    0.8685550000000000 Cd
   0.6559850000000000    0.3750400000000000    0.7103250000000000 Cd
   0.7547300000000000    0.3750000000000000    0.8685550000000000 Cd
   0.8439850000000000    0.1250200000000000    0.7896900000000000 Cd
   0.7452050000000000    0.1250300000000000    0.6314649999999999 Cd
   0.3643550000000000    0.4808600000000000    0.5665500000000000 H
   0.2369900000000000    0.4831100000000000    0.5881800000000000 H
   0.3643300000000000    0.2691600000000000    0.5665900000000000 H
   0.2369600000000000    0.2669700000000000    0.5881700000000000 H
   0.3692450000000000    0.3750700000000000    0.4792200000000000 H
   0.2413800000000000    0.3750000000000000    0.4596650000000000 H
   0.3856700000000000    0.0190500000000000    0.4334750000000000 H
   0.5130150000000000    0.0169900000000000    0.4118350000000000 H
   0.3856250000000000    0.2309300000000000    0.4334500000000000 H
   0.5129650000000000    0.2330300000000000    0.4118150000000000 H
   0.3807050000000000    0.1250700000000000    0.5207950000000000 H
   0.5085550000000000    0.1250700000000000    0.5403700000000000 H
   0.2776526669894159    0.9858674597883477    0.5827194189659297 H
   0.3643650000000000    0.7691000000000000    0.5665550000000000 H
   0.2370100000000000    0.7669800000000000    0.5882050000000000 H
   0.3692800000000000    0.8749400000000001    0.4792250000000000 H
   0.2414200000000000    0.8749400000000001    0.4596500000000000 H
   0.3856350000000000    0.5191600000000000    0.4334000000000000 H
   0.5129850000000000    0.5169100000000000    0.4118400000000000 H
   0.3856550000000000    0.7308500000000000    0.4334300000000000 H
   0.5130100000000000    0.7330500000000000    0.4118500000000000 H
   0.3807450000000000    0.6249500000000000    0.5208000000000000 H
   0.5085950000000000    0.6250200000000000    0.5403550000000000 H
   0.5106250000000000    0.5191200000000000    0.3165600000000000 H
   0.6380049999999999    0.5169000000000000    0.3381600000000000 H
   0.5106450000000000    0.7308800000000000    0.3165650000000000 H
   0.6380250000000001    0.7330500000000000    0.3381550000000000 H
   0.5057000000000000    0.6249500000000000    0.2291800000000000 H
   0.6335600000000000    0.6250200000000000    0.2096500000000000 H
   0.4893100000000000    0.9809900000000000    0.1800000000000000 H
   0.3619450000000000    0.9830200000000000    0.1618400000000000 H
   0.4893550000000000    0.7690700000000000    0.1834500000000000 H
   0.3619950000000000    0.7669700000000000    0.1618250000000000 H
   0.4943150000000000    0.8749500000000000    0.2708000000000000 H
   0.3664550000000000    0.8749500000000000    0.2903650000000000 H
   0.4893300000000000    0.2691300000000000    0.1834550000000000 H
   0.3619550000000000    0.2669700000000000    0.1618600000000000 H
   0.4893550000000000    0.4809000000000000    0.1834650000000000 H
   0.3619800000000000    0.4831100000000000    0.1618600000000000 H
   0.4942850000000000    0.3750700000000000    0.2708400000000000 H
   0.3664250000000000    0.3750000000000000    0.2903550000000000 H
   0.5056650000000000    0.1250700000000000    0.2291900000000000 H
   0.6335250000000000    0.1250600000000000    0.2096500000000000 H
   0.5106700000000000    0.0190300000000000    0.3165200000000000 H
   0.6380350000000000    0.0169900000000000    0.3381750000000000 H
   0.5106250000000000    0.2309500000000000    0.3165300000000000 H
   0.6379850000000000    0.2330500000000000    0.3381900000000000 H
   0.1143500000000000    0.4808600000000000    0.5665900000000000 H
   0.9869950000000001    0.4831100000000000    0.5881800000000000 H
   0.1143250000000000    0.2691600000000000    0.5665900000000000 H
   0.9869700000000000    0.2669700000000000    0.5881700000000000 H
   0.1192400000000000    0.3750700000000000    0.4792200000000000 H
   0.9913900000000000    0.3750000000000000    0.4596650000000000 H
   0.1356650000000000    0.0190500000000000    0.4334750000000000 H
   0.2630200000000000    0.0169900000000000    0.4118350000000000 H
   0.1356150000000000    0.2309300000000000    0.4334700000000000 H
   0.2629700000000000    0.2330300000000000    0.4118150000000000 H
   0.1307000000000000    0.1250700000000000    0.5207950000000000 H
   0.2585600000000000    0.1250700000000000    0.5403700000000000 H
   0.1143100000000000    0.9809700000000000    0.5665450000000000 H
   0.9869650000000000    0.9830200000000000    0.5881850000000000 H
   0.1143600000000000    0.7691000000000000    0.5665550000000000 H
   0.9870150000000000    0.7669800000000000    0.5882050000000000 H
   0.1192750000000000    0.8749400000000001    0.4792250000000000 H
   0.9914250000000000    0.8749400000000001    0.4596500000000000 H
   0.1356250000000000    0.5191600000000000    0.4334350000000000 H
   0.2629950000000000    0.5169100000000000    0.4118400000000000 H
   0.1356450000000000    0.7308500000000000    0.4334300000000000 H
   0.2630200000000000    0.7330500000000000    0.4118500000000000 H
   0.1307400000000000    0.6249500000000000    0.5208000000000000 H
   0.2586000000000000    0.6250200000000000    0.5403550000000000 H
   0.2606350000000000    0.5191200000000000    0.3165600000000000 H
   0.3880100000000000    0.5169000000000000    0.3381600000000000 H
   0.2606550000000000    0.7308800000000000    0.3165650000000000 H
   0.3880350000000000    0.7330500000000000    0.3381550000000000 H
   0.2557050000000000    0.6249500000000000    0.2291800000000000 H
   0.3835700000000000    0.6250200000000000    0.2096500000000000 H
   0.2393050000000000    0.9809900000000000    0.1800000000000000 H
   0.1119400000000000    0.9830200000000000    0.1618400000000000 H
   0.2393500000000000    0.7690700000000000    0.1834500000000000 H
   0.1119900000000000    0.7669700000000000    0.1618250000000000 H
   0.2443100000000000    0.8749400000000001    0.2708000000000000 H
   0.1164500000000000    0.8749500000000000    0.2903650000000000 H
   0.2393250000000000    0.2691300000000000    0.1834500000000000 H
   0.1119500000000000    0.2669700000000000    0.1618500000000000 H
   0.2393500000000000    0.4809000000000000    0.1834650000000000 H
   0.1119750000000000    0.4831100000000000    0.1618600000000000 H
   0.2442800000000000    0.3750700000000000    0.2708400000000000 H
   0.1164150000000000    0.3750000000000000    0.2903550000000000 H
   0.2606750000000000    0.0190300000000000    0.3165200000000000 H
   0.3880400000000000    0.0169900000000000    0.3381750000000000 H
   0.2556700000000000    0.1250700000000000    0.2291900000000000 H
   0.3835300000000000    0.1250600000000000    0.2096500000000000 H
   0.2606300000000000    0.2309500000000000    0.3165300000000000 H
   0.3879950000000000    0.2330500000000000    0.3381900000000000 H
   0.3643550000000000    0.4808600000000000    0.0665500000000000 H
   0.2369900000000000    0.4831100000000000    0.0881800000000000 H
   0.3643300000000000    0.2691600000000000    0.0665900000000000 H
   0.2369600000000000    0.2669700000000000    0.0881700000000000 H
   0.3692450000000000    0.3750700000000000    0.9792200000000000 H
   0.2413800000000000    0.3750000000000000    0.9596650000000000 H
   0.3856700000000000    0.0190500000000000    0.9334750000000001 H
   0.5130150000000000    0.0169900000000000    0.9118350000000000 H
   0.3856250000000000    0.2309300000000000    0.9334500000000000 H
   0.5129650000000000    0.2330300000000000    0.9118150000000000 H
   0.3807050000000000    0.1250700000000000    0.0207950000000000 H
   0.5085550000000000    0.1250700000000000    0.0403700000000000 H
   0.3643150000000000    0.9809700000000000    0.0665450000000000 H
   0.2369600000000000    0.9830200000000000    0.0881850000000000 H
   0.3643650000000000    0.7691000000000000    0.0665550000000000 H
   0.2370100000000000    0.7669800000000000    0.0882050000000000 H
   0.3692800000000000    0.8749400000000001    0.9792250000000000 H
   0.2414200000000000    0.8749400000000001    0.9596500000000000 H
   0.3856350000000000    0.5191600000000000    0.9334000000000000 H
   0.5129850000000000    0.5169100000000000    0.9118400000000000 H
   0.3856550000000000    0.7308500000000000    0.9334300000000000 H
   0.5130100000000000    0.7330500000000000    0.9118500000000000 H
   0.3807450000000000    0.6249500000000000    0.0208000000000000 H
   0.5085950000000000    0.6250200000000000    0.0403550000000000 H
   0.5106250000000000    0.5191200000000000    0.8165600000000000 H
   0.6380049999999999    0.5169000000000000    0.8381600000000000 H
   0.5106450000000000    0.7308800000000000    0.8165650000000000 H
   0.6380250000000001    0.7330500000000000    0.8381550000000000 H
   0.5057000000000000    0.6249500000000000    0.7291799999999999 H
   0.6335600000000000    0.6250200000000000    0.7096500000000000 H
   0.4893100000000000    0.9809900000000000    0.6799999999999999 H
   0.3619450000000000    0.9830200000000000    0.6618400000000000 H
   0.4893550000000000    0.7690700000000000    0.6834500000000000 H
   0.3619950000000000    0.7669700000000000    0.6618250000000000 H
   0.4943150000000000    0.8749500000000000    0.7707999999999999 H
   0.3664550000000000    0.8749500000000000    0.7903650000000000 H
   0.4893300000000000    0.2691300000000000    0.6834550000000000 H
   0.3619550000000000    0.2669700000000000    0.6618600000000000 H
   0.4893550000000000    0.4809000000000000    0.6834650000000000 H
   0.3619800000000000    0.4831100000000000    0.6618600000000000 H
   0.4942850000000000    0.3750700000000000    0.7708400000000000 H
   0.3664250000000000    0.3750000000000000    0.7903549999999999 H
   0.5056650000000000    0.1250700000000000    0.7291900000000000 H
   0.6335250000000000    0.1250600000000000    0.7096500000000000 H
   0.5106700000000000    0.0190300000000000    0.8165200000000000 H
   0.6380350000000000    0.0169900000000000    0.8381750000000000 H
   0.5106250000000000    0.2309500000000000    0.8165300000000000 H
   0.6379850000000000    0.2330500000000000    0.8381900000000000 H
   0.1143500000000000    0.4808600000000000    0.0665900000000000 H
   0.9869950000000001    0.4831100000000000    0.0881800000000000 H
   0.1143250000000000    0.2691600000000000    0.0665900000000000 H
   0.9869700000000000    0.2669700000000000    0.0881700000000000 H
   0.1192400000000000    0.3750700000000000    0.9792200000000000 H
   0.9913900000000000    0.3750000000000000    0.9596650000000000 H
   0.1356650000000000    0.0190500000000000    0.9334750000000001 H
   0.2630200000000000    0.0169900000000000    0.9118350000000000 H
   0.1356150000000000    0.2309300000000000    0.9334700000000000 H
   0.2629700000000000    0.2330300000000000    0.9118150000000000 H
   0.1307000000000000    0.1250700000000000    0.0207950000000000 H
   0.2585600000000000    0.1250700000000000    0.0403700000000000 H
   0.1143100000000000    0.9809700000000000    0.0665450000000000 H
   0.9869650000000000    0.9830200000000000    0.0881850000000000 H
   0.1143600000000000    0.7691000000000000    0.0665550000000000 H
   0.9870150000000000    0.7669800000000000    0.0882050000000000 H
   0.1192750000000000    0.8749400000000001    0.9792250000000000 H
   0.9914250000000000    0.8749400000000001    0.9596500000000000 H
   0.1356250000000000    0.5191600000000000    0.9334350000000000 H
   0.2629950000000000    0.5169100000000000    0.9118400000000000 H
   0.1356450000000000    0.7308500000000000    0.9334300000000000 H
   0.2630200000000000    0.7330500000000000    0.9118500000000000 H
   0.1307400000000000    0.6249500000000000    0.0208000000000000 H
   0.2586000000000000    0.6250200000000000    0.0403550000000000 H
   0.2606350000000000    0.5191200000000000    0.8165600000000000 H
   0.3880100000000000    0.5169000000000000    0.8381600000000000 H
   0.2606550000000000    0.7308800000000000    0.8165650000000000 H
   0.3880350000000000    0.7330500000000000    0.8381550000000000 H
   0.2557050000000000    0.6249500000000000    0.7291799999999999 H
   0.3835700000000000    0.6250200000000000    0.7096500000000000 H
   0.2393050000000000    0.9809900000000000    0.6799999999999999 H
   0.1119400000000000    0.9830200000000000    0.6618400000000000 H
   0.2393500000000000    0.7690700000000000    0.6834500000000000 H
   0.1119900000000000    0.7669700000000000    0.6618250000000000 H
   0.2443100000000000    0.8749400000000001    0.7707999999999999 H
   0.1164500000000000    0.8749500000000000    0.7903650000000000 H
   0.2393250000000000    0.2691300000000000    0.6834500000000000 H
   0.1119500000000000    0.2669700000000000    0.6618500000000000 H
   0.2393500000000000    0.4809000000000000    0.6834650000000000 H
   0.1119750000000000    0.4831100000000000    0.6618600000000000 H
   0.2442800000000000    0.3750700000000000    0.7708400000000000 H
   0.1164150000000000    0.3750000000000000    0.7903549999999999 H
   0.2606750000000000    0.0190300000000000    0.8165200000000000 H
   0.3880400000000000    0.0169900000000000    0.8381750000000000 H
   0.2556700000000000    0.1250700000000000    0.7291900000000000 H
   0.3835300000000000    0.1250600000000000    0.7096500000000000 H
   0.2606300000000000    0.2309500000000000    0.8165300000000000 H
   0.3879950000000000    0.2330500000000000    0.8381900000000000 H
   0.8643550000000000    0.4808600000000000    0.5665500000000000 H
   0.7369900000000000    0.4831100000000000    0.5881800000000000 H
   0.8643300000000000    0.2691600000000000    0.5665900000000000 H
   0.7369600000000001    0.2669700000000000    0.5881700000000000 H
   0.8692450000000000    0.3750700000000000    0.4792200000000000 H
   0.7413800000000000    0.3750000000000000    0.4596650000000000 H
   0.8856700000000000    0.0190500000000000    0.4334750000000000 H
   0.0130150000000000    0.0169900000000000    0.4118350000000000 H
   0.8856250000000000    0.2309300000000000    0.4334500000000000 H
   0.0129650000000000    0.2330300000000000    0.4118150000000000 H
   0.8807050000000001    0.1250700000000000    0.5207950000000000 H
   0.0085550000000000    0.1250700000000000    0.5403700000000000 H
   0.8643149999999999    0.9809700000000000    0.5665450000000000 H
   0.7369600000000001    0.9830200000000000    0.5881850000000000 H
   0.8643650000000000    0.7691000000000000    0.5665550000000000 H
   0.7370099999999999    0.7669800000000000    0.5882050000000000 H
   0.8692800000000001    0.8749400000000001    0.4792250000000000 H
   0.7414200000000000    0.8749400000000001    0.4596500000000000 H
   0.8856350000000000    0.5191600000000000    0.4334000000000000 H
   0.0129850000000000    0.5169100000000000    0.4118400000000000 H
   0.8856550000000001    0.7308500000000000    0.4334300000000000 H
   0.0130100000000000    0.7330500000000000    0.4118500000000000 H
   0.8807450000000000    0.6249500000000000    0.5208000000000000 H
   0.0085950000000000    0.6250200000000000    0.5403550000000000 H
   0.0106250000000000    0.5191200000000000    0.3165600000000000 H
   0.1380050000000000    0.5169000000000000    0.3381600000000000 H
   0.0106450000000000    0.7308800000000000    0.3165650000000000 H
   0.1380250000000000    0.7330500000000000    0.3381550000000000 H
   0.0057000000000000    0.6249500000000000    0.2291800000000000 H
   0.1335600000000000    0.6250200000000000    0.2096500000000000 H
   0.9893100000000000    0.9809900000000000    0.1800000000000000 H
   0.8619450000000000    0.9830200000000000    0.1618400000000000 H
   0.9893550000000000    0.7690700000000000    0.1834500000000000 H
   0.8619950000000001    0.7669700000000000    0.1618250000000000 H
   0.9943150000000001    0.8749500000000000    0.2708000000000000 H
   0.8664550000000000    0.8749500000000000    0.2903650000000000 H
   0.9893300000000000    0.2691300000000000    0.1834550000000000 H
   0.8619550000000000    0.2669700000000000    0.1618600000000000 H
   0.9893550000000000    0.4809000000000000    0.1834650000000000 H
   0.8619800000000000    0.4831100000000000    0.1618600000000000 H
   0.9942850000000000    0.3750700000000000    0.2708400000000000 H
   0.8664250000000000    0.3750000000000000    0.2903550000000000 H
   0.0056650000000000    0.1250700000000000    0.2291900000000000 H
   0.1335250000000000    0.1250600000000000    0.2096500000000000 H
   0.0106700000000000    0.0190300000000000    0.3165200000000000 H
   0.1380350000000000    0.0169900000000000    0.3381750000000000 H
   0.0106250000000000    0.2309500000000000    0.3165300000000000 H
   0.1379850000000000    0.2330500000000000    0.3381900000000000 H
   0.6143500000000000    0.4808600000000000    0.5665900000000000 H
   0.4869950000000000    0.4831100000000000    0.5881800000000000 H
   0.6143250000000000    0.2691600000000000    0.5665900000000000 H
   0.4869700000000000    0.2669700000000000    0.5881700000000000 H
   0.6192400000000000    0.3750700000000000    0.4792200000000000 H
   0.4913900000000000    0.3750000000000000    0.4596650000000000 H
   0.6356650000000000    0.0190500000000000    0.4334750000000000 H
   0.7630200000000000    0.0169900000000000    0.4118350000000000 H
   0.6356150000000000    0.2309300000000000    0.4334700000000000 H
   0.7629699999999999    0.2330300000000000    0.4118150000000000 H
   0.6307000000000000    0.1250700000000000    0.5207950000000000 H
   0.7585600000000000    0.1250700000000000    0.5403700000000000 H
   0.6143100000000000    0.9809700000000000    0.5665450000000000 H
   0.4869650000000000    0.9830200000000000    0.5881850000000000 H
   0.6143600000000000    0.7691000000000000    0.5665550000000000 H
   0.4870150000000000    0.7669800000000000    0.5882050000000000 H
   0.6192750000000000    0.8749400000000001    0.4792250000000000 H
   0.4914250000000000    0.8749400000000001    0.4596500000000000 H
   0.6356250000000000    0.5191600000000000    0.4334350000000000 H
   0.7629950000000000    0.5169100000000000    0.4118400000000000 H
   0.6356450000000000    0.7308500000000000    0.4334300000000000 H
   0.7630200000000000    0.7330500000000000    0.4118500000000000 H
   0.6307400000000000    0.6249500000000000    0.5208000000000000 H
   0.7585999999999999    0.6250200000000000    0.5403550000000000 H
   0.7606350000000000    0.5191200000000000    0.3165600000000000 H
   0.8880100000000000    0.5169000000000000    0.3381600000000000 H
   0.7606550000000001    0.7308800000000000    0.3165650000000000 H
   0.8880350000000000    0.7330500000000000    0.3381550000000000 H
   0.7557050000000001    0.6249500000000000    0.2291800000000000 H
   0.8835700000000000    0.6250200000000000    0.2096500000000000 H
   0.7393050000000000    0.9809900000000000    0.1800000000000000 H
   0.6119400000000000    0.9830200000000000    0.1618400000000000 H
   0.7393500000000000    0.7690700000000000    0.1834500000000000 H
   0.6119900000000000    0.7669700000000000    0.1618250000000000 H
   0.7443100000000000    0.8749400000000001    0.2708000000000000 H
   0.6164499999999999    0.8749500000000000    0.2903650000000000 H
   0.7393250000000000    0.2691300000000000    0.1834500000000000 H
   0.6119500000000000    0.2669700000000000    0.1618500000000000 H
   0.7393500000000000    0.4809000000000000    0.1834650000000000 H
   0.6119750000000000    0.4831100000000000    0.1618600000000000 H
   0.7442800000000001    0.3750700000000000    0.2708400000000000 H
   0.6164150000000000    0.3750000000000000    0.2903550000000000 H
   0.7606750000000000    0.0190300000000000    0.3165200000000000 H
   0.8880399999999999    0.0169900000000000    0.3381750000000000 H
   0.7556700000000001    0.1250700000000000    0.2291900000000000 H
   0.8835299999999999    0.1250600000000000    0.2096500000000000 H
   0.7606299999999999    0.2309500000000000    0.3165300000000000 H
   0.8879950000000000    0.2330500000000000    0.3381900000000000 H
   0.8643550000000000    0.4808600000000000    0.0665500000000000 H
   0.7369900000000000    0.4831100000000000    0.0881800000000000 H
   0.8643300000000000    0.2691600000000000    0.0665900000000000 H
   0.7369600000000001    0.2669700000000000    0.0881700000000000 H
   0.8692450000000000    0.3750700000000000    0.9792200000000000 H
   0.7413800000000000    0.3750000000000000    0.9596650000000000 H
   0.8856700000000000    0.0190500000000000    0.9334750000000001 H
   0.0130150000000000    0.0169900000000000    0.9118350000000000 H
   0.8856250000000000    0.2309300000000000    0.9334500000000000 H
   0.0129650000000000    0.2330300000000000    0.9118150000000000 H
   0.8807050000000001    0.1250700000000000    0.0207950000000000 H
   0.0085550000000000    0.1250700000000000    0.0403700000000000 H
   0.8643149999999999    0.9809700000000000    0.0665450000000000 H
   0.7369600000000001    0.9830200000000000    0.0881850000000000 H
   0.8643650000000000    0.7691000000000000    0.0665550000000000 H
   0.7370099999999999    0.7669800000000000    0.0882050000000000 H
   0.8692800000000001    0.8749400000000001    0.9792250000000000 H
   0.7414200000000000    0.8749400000000001    0.9596500000000000 H
   0.8856350000000000    0.5191600000000000    0.9334000000000000 H
   0.0129850000000000    0.5169100000000000    0.9118400000000000 H