H12 C18 N1 O7
1.0
  13.4580596922682130    0.0000000000000000   -1.6839234897540982
  -0.5169591732029039   13.8748987413747749   -0.5130049998177872
   0.0000000000000000    0.0000000000000000   16.0899999999999999
H C N O
12 18 1 7
direct
   0.2703800000000000    0.3030600000000000    0.6972200000000000 H
   0.0919500000000000    0.2392300000000000    0.6784800000000000 H
   0.0229100000000000    0.4537300000000000    0.8575700000000001 H
   0.2749400000000000    0.4729600000000000    0.9875200000000000 H
   0.2626400000000000    0.7781700000000000    0.0338100000000000 H
   0.1702200000000000    0.7937700000000000    0.8909100000000000 H
   0.0323200000000000    0.6605300000000000    0.6249600000000000 H
   0.9274800000000000    0.5904700000000001    0.6505200000000000 H
   0.9287000000000000    0.7186800000000000    0.6619400000000000 H
   0.9070400000000000    0.7023100000000000    0.8154300000000000 H
   0.9073099999999999    0.5742800000000000    0.8021100000000000 H
   0.9963500000000000    0.6361000000000000    0.8789800000000000 H
   0.3514200000000000    0.4519700000000000    0.7896600000000000 C
   0.2447400000000000    0.4169000000000000    0.7842500000000000 C
   0.2145100000000000    0.3360200000000000    0.7310500000000000 C
   0.1166700000000000    0.3005100000000000    0.7210299999999999 C
   0.0474500000000000    0.3434300000000000    0.7670200000000000 C
   0.0774300000000000    0.4230700000000000    0.8209700000000000 C
   0.1746700000000000    0.4621600000000000    0.8290999999999999 C
   0.9420100000000000    0.3047300000000000    0.7592400000000000 C
   0.1993600000000000    0.5495500000000000    0.8854400000000000 C
   0.2504800000000000    0.5425900000000000    0.9657100000000000 C
   0.2733000000000000    0.6241100000000001    0.0190600000000000 C
   0.2443800000000000    0.7148800000000000    0.9920700000000000 C
   0.1926800000000000    0.7232700000000000    0.9123700000000000 C
   0.1694500000000000    0.6411000000000000    0.8591900000000000 C
   0.3296100000000000    0.6129300000000000    0.1044000000000000 C
   0.1224700000000000    0.6513300000000000    0.7708600000000000 C
   0.9753200000000000    0.6553900000000000    0.6671300000000000 C
   0.9548300000000000    0.6398500000000000    0.8165400000000000 C
   0.0230600000000000    0.6500500000000000    0.7534600000000000 N
   0.1776300000000000    0.6611800000000000    0.7127700000000000 O
   0.3761400000000000    0.5389200000000000    0.8161500000000000 O
   0.4122500000000000    0.3918200000000000    0.7677200000000000 O
   0.3537400000000000    0.5285600000000000    0.1246500000000000 O
   0.3526800000000000    0.6878000000000000    0.1525700000000000 O
   0.9118600000000000    0.2418000000000000    0.7016900000000000 O
   0.8869200000000000    0.3375400000000000    0.8122500000000000 O
