Cd6 H47 C54 N3 O28
1.0
  13.4580596922682130    0.0000000000000000   -1.6839234897540982
  -0.5169591732029039   13.8748987413747749   -0.5130049998177872
   0.0000000000000000    0.0000000000000000   16.0899999999999999
Cd H C N O
6 47 54 3 28
direct
   0.3451600000000000    0.6691300000000000    0.7456300000000000 Cd
   0.5638800000000000    0.4452600000000000    0.7395000000000000 Cd
   0.2488500000000000    0.7587100000000000    0.2394500000000000 Cd
   0.6546600000000000    0.3304700000000000    0.2508100000000000 Cd
   0.4362000000000000    0.5547100000000000    0.2570100000000000 Cd
   0.7511600000000000    0.2412400000000000    0.7570400000000000 Cd
   0.1547441886397224    0.6656399468361753    0.6554400103537451 H
   0.1353321727895253    0.6536268165695580    0.7573146117232863 H
   0.3237800000000000    0.0000000000000000    0.8354500000000000 H
   0.2652000000000000    0.0717800000000000    0.7838000000000001 H
   0.3973100000000000    0.0729300000000000    0.8079400000000000 H
   0.3524000000000000    0.0025900000000000    0.5805399999999999 H
   0.2785400000000000    0.0864200000000000    0.6296800000000000 H
   0.4108000000000000    0.0931300000000000    0.6542300000000000 H
   0.2202700000000000    0.7446400000000000    0.4375400000000000 H
   0.2025300000000000    0.8400400000000000    0.5690000000000000 H
   0.5318300000000000    0.7198700000000000    0.5184700000000000 H
   0.7171900000000000    0.7279000000000000    0.8040500000000000 H
   0.7691100000000000    0.9036900000000000    0.8305500000000000 H
   0.5369500000000000    0.9782200000000000    0.6419600000000000 H
   0.3353894604260785    0.5623693827636380    0.8574859262161855 H
   0.4052131946351688    0.3221368320948848    0.7679695915192155 H
   0.3640842974204074    0.4195363445607777    0.8165776089739657 H
   0.3417273900706114    0.4666587201514479    0.0945847199712821 H
   0.3413508470519787    0.7560532734513928    0.1477215756845962 H
   0.3390049690888448    0.6173322231933903    0.1183439961455504 H
   0.6764100000000000    0.0272600000000000    0.1613200000000000 H
   0.7349700000000000    0.9277600000000000    0.2131100000000000 H
   0.6028800000000000    0.9265600000000001    0.1888700000000000 H
   0.6475700000000000    0.9972100000000000    0.4162200000000000 H
   0.7215200000000001    0.9133300000000000    0.3672300000000000 H
   0.5892700000000000    0.9065500000000000    0.3426000000000000 H
   0.7797300000000000    0.2551100000000000    0.5590400000000000 H
   0.7974100000000000    0.1595400000000000    0.4276700000000000 H
   0.4682600000000000    0.2802600000000000    0.4779400000000000 H
   0.2827200000000000    0.2720500000000000    0.1925600000000000 H
   0.2308200000000000    0.0962600000000000    0.1660500000000000 H
   0.4631100000000000    0.0217400000000000    0.3545400000000000 H
   0.0000000000000000    0.3387700000000000    0.3716300000000000 H
   0.0723400000000000    0.4088000000000000    0.3462500000000000 H
   0.0709700000000000    0.2806000000000000    0.3346200000000000 H
   0.0036300000000000    0.3635800000000000    0.1177000000000000 H
   0.0927600000000000    0.2971200000000000    0.1812100000000000 H
   0.0927300000000000    0.4251500000000000    0.1946800000000000 H
   0.7297300000000000    0.6965900000000000    0.2995600000000000 H
   0.9081300000000000    0.7604600000000000    0.3182800000000000 H
   0.9771600000000000    0.5461400000000000    0.1390400000000000 H
   0.7373100000000000    0.2217900000000000    0.9626500000000000 H
   0.7252200000000000    0.5270100000000000    0.0090800000000000 H
   0.8296200000000000    0.2060500000000000    0.1055700000000000 H
   0.9074261157893924    0.3859061602948823    0.8565777026024145 H
   0.9500657377121610    0.2149876907330510    0.6598579876192531 H
   0.9374243694007278    0.3020966647107687    0.7569520386840852 H
   0.3304900000000000    0.0265600000000000    0.7889400000000000 C
   0.3455600000000000    0.0436900000000000    0.6386600000000000 C
   0.6874400000000001    0.0551600000000000    0.7493100000000000 C
   0.3909000000000000    0.6668400000000000    0.3937400000000000 C
   0.5671700000000000    0.6501700000000000    0.7022600000000000 C
   0.3470300000000000    0.8830400000000000    0.7002900000000000 C
   0.2845900000000000    0.7608300000000000    0.4842400000000000 C
   0.2750800000000000    0.8147400000000000    0.5574200000000000 C
   0.4604500000000000    0.7476600000000000    0.5302600000000000 C
   0.4525700000000000    0.8020400000000000    0.6036800000000000 C
   0.3777000000000000    0.7268300000000000    0.4707100000000000 C
   0.3583800000000000    0.8355600000000000    0.6171500000000000 C
   0.6776300000000000    0.7839900000000000    0.7696400000000000 C
   0.7064700000000000    0.8806400000000000    0.7842400000000000 C
   0.5736400000000000    0.9226600000000000    0.6790100000000000 C
   0.6549400000000000    0.9507700000000000    0.7379200000000000 C
   0.5412300000000000    0.8260500000000000    0.6659600000000000 C
   0.5950700000000000    0.7555600000000000    0.7113000000000000 C
   0.3125900000000000    0.9447600000000000    0.2472500000000000 C
   0.6091299999999999    0.3331600000000000    0.6027400000000001 C
   0.4328100000000000    0.3498000000000000    0.2942500000000000 C
   0.6696700000000000    0.9729500000000000    0.2078800000000000 C
   0.6544800000000000    0.9560200000000000    0.3581600000000000 C
   0.6529500000000000    0.1165700000000000    0.2963400000000000 C
   0.7154100000000000    0.2389700000000000    0.5123200000000000 C
   0.7248900000000000    0.1849700000000000    0.4391900000000000 C
   0.5396100000000000    0.2523600000000000    0.4662100000000000 C
   0.5474599999999999    0.1979000000000000    0.3928200000000000 C
   0.6223400000000000    0.2731400000000000    0.5257800000000000 C
   0.6416100000000000    0.1642000000000000    0.3794300000000000 C
   0.3223200000000000    0.2159600000000000    0.2269400000000000 C
   0.2934900000000000    0.1193000000000000    0.2123300000000000 C
   0.4263800000000000    0.0773000000000000    0.3175000000000000 C
   0.3450600000000000    0.0491700000000000    0.2586200000000000 C
   0.4587900000000000    0.1739100000000000    0.3305500000000000 C
   0.4049100000000000    0.2444100000000000    0.2852500000000000 C
   0.0244400000000000    0.3439400000000000    0.3295100000000000 C
   0.0450900000000000    0.3596700000000000    0.1801500000000000 C
   0.6486400000000000    0.5478400000000000    0.2069000000000000 C
   0.6704599999999999    0.3870900000000000    0.8921300000000000 C
   0.0580200000000000    0.6952000000000000    0.2373300000000000 C
   0.8773800000000000    0.3483400000000000    0.2257100000000000 C
   0.7855799999999999    0.6636800000000000    0.2656800000000000 C
   0.8834200000000000    0.6992100000000000    0.2757100000000000 C
   0.9226600000000000    0.5767500000000000    0.1756700000000000 C
   0.9526200000000000    0.6563900000000000    0.2296200000000000 C
   0.8254100000000000    0.5376500000000000    0.1675200000000000 C
   0.7553500000000000    0.5828400000000000    0.2124300000000000 C
   0.7555900000000000    0.2850600000000000    0.0000000000000000 C
   0.7267500000000000    0.3758600000000000    0.9774700000000000 C
   0.7496200000000000    0.4573400000000000    0.0308700000000000 C
   0.8007000000000000    0.4503000000000000    0.1111500000000000 C
   0.8072400000000000    0.2765800000000000    0.0841400000000000 C
   0.8305000000000000    0.3587100000000000    0.1373700000000000 C
   0.3381800000000000    0.0000000000000000    0.7074400000000000 N
   0.6618900000000000    0.0207700000000000    0.2893100000000000 N
   0.0000000000000000    0.3494900000000000    0.2431700000000000 N
   0.1776300000000000    0.6611800000000000    0.7127700000000000 O
   0.7551400000000000    0.0808200000000000    0.8085700000000000 O
   0.6460000000000000    0.1138500000000000    0.6974500000000000 O
   0.4755700000000000    0.6330300000000000    0.3880900000000000 O
   0.3164900000000000    0.6500400000000000    0.3368300000000000 O
   0.6366300000000000    0.5917600000000000    0.7115000000000000 O
   0.4750700000000000    0.6210400000000000    0.6873500000000000 O
   0.3458600000000000    0.8311400000000000    0.7639700000000000 O
   0.3761400000000000    0.5389200000000000    0.8161500000000000 O
   0.4122500000000000    0.3918200000000000    0.7677200000000000 O
   0.3537400000000000    0.5285600000000000    0.1246500000000000 O
   0.3526800000000000    0.6878000000000000    0.1525700000000000 O
   0.2449400000000000    0.9190600000000000    0.1879600000000000 O
   0.3540100000000000    0.8861000000000000    0.2991300000000000 O
   0.5244700000000000    0.3669900000000000    0.6083600000000000 O
   0.6835300000000000    0.3499600000000000    0.6596600000000000 O
   0.3633600000000000    0.4082200000000000    0.2850300000000000 O
   0.5249100000000000    0.3789300000000000    0.3091300000000000 O
   0.6540800000000000    0.1683300000000000    0.2325600000000000 O
   0.5878300000000000    0.6080700000000000    0.2287500000000000 O
   0.6238800000000000    0.4608900000000000    0.1804300000000000 O
   0.6463200000000000    0.4714600000000000    0.8718900000000001 O
   0.6474000000000000    0.3122300000000000    0.8439400000000000 O
   0.0881500000000000    0.7581700000000000    0.2948600000000000 O
   0.1130800000000000    0.6624600000000000    0.1842800000000000 O
   0.8221500000000000    0.3384500000000000    0.2837400000000000 O
   0.8869200000000000    0.3375400000000000    0.8122500000000000 O
   0.9118600000000000    0.2418000000000000    0.7016900000000000 O
