H2 C6 S1 O4
1.0
  20.0179911093623168    0.0000000000000000    0.0188665177287928
   0.0064278269243548   13.1539984214767181    0.0004591612195210
   0.0000000000000000    0.0000000000000000   31.0940000000000012
H C S O
2 6 1 4
direct
   0.3301800000000000    0.7779500000000000    0.7333900000000000 H
   0.2523050000000000    0.8629300000000000    0.7924450000000001 H
   0.3983100000000000    0.9049199999999999    0.7422650000000000 C
   0.3409950000000000    0.8482900000000000    0.7503900000000000 C
   0.2998350000000000    0.8935400000000000    0.7816149999999999 C
   0.3264750000000000    0.9837399999999999    0.7973250000000001 C
   0.4478100000000000    0.8831300000000000    0.7084900000000001 C
   0.2972250000000000    0.0498000000000000    0.8306450000000001 C
   0.4018400000000000    0.0135900000000000    0.7733749999999999 S
   0.4911150000000000    0.9521600000000000    0.6999900000000000 O
   0.2414000000000000    0.0215600000000000    0.8465400000000001 O
   0.4423700000000000    0.7978499999999999    0.6893100000000000 O
   0.3301200000000000    0.1295700000000000    0.8409500000000000 O
