H11 O7
1.0
  13.4580596922682130    0.0000000000000000   -1.6839234897540982
  -0.5169591732029039   13.8748987413747749   -0.5130049998177872
   0.0000000000000000    0.0000000000000000   32.1799999999999997
H O
11 7
direct
   0.5925878614000668    0.0970658620666236    0.8264470608242014 H
   0.7867158444389497    0.0392260157277037    0.9251361694818175 H
   0.6872660310952785    0.0594914015569492    0.8759751028396321 H
   0.5351571386901105    0.6412022372050689    0.7140772477422485 H
   0.2485740845286856    0.6706962094113326    0.6670801551394707 H
   0.3875840593422223    0.6597903845559261    0.6923156913413326 H
   0.3467573392595720    0.8709450492066546    0.8575651008335282 H
   0.3452936564516523    0.8679415439011192    0.9107409429835095 H
   0.4424456773125086    0.6657584109006192    0.8244992800296290 H
   0.6076120013682698    0.6315351946839605    0.8386939825864641 H
   0.7070319519611585    0.5973347022403124    0.8531042473703027 H
   0.6460000000000000    0.1138500000000000    0.8487250000000000 O
   0.7551400000000000    0.0808200000000000    0.9042850000000000 O
   0.4755700000000000    0.6330300000000000    0.6940450000000000 O
   0.3164900000000000    0.6500400000000000    0.6684150000000000 O
   0.3458600000000000    0.8311400000000000    0.8819850000000000 O
   0.4750700000000000    0.6210400000000000    0.8436750000000000 O
   0.6366300000000000    0.5917600000000000    0.8557500000000000 O
