Cd12 H95 C126 N7 O56
1.0
  13.4580596922682130    0.0000000000000000   -1.6839234897540982
  -0.5169591732029039   13.8748987413747749   -0.5130049998177872
   0.0000000000000000    0.0000000000000000   32.1799999999999997
Cd H C N O
12 95 126 7 56
direct
   0.2488500000000000    0.7587100000000000    0.6197250000000000 Cd
   0.6546600000000000    0.3304700000000000    0.6254050000000000 Cd
   0.4362000000000000    0.5547100000000000    0.6285050000000000 Cd
   0.3451600000000000    0.6691300000000000    0.3728150000000000 Cd
   0.5638800000000000    0.4452600000000000    0.3697500000000000 Cd
   0.7511600000000000    0.2412400000000000    0.3785200000000000 Cd
   0.6546600000000000    0.3304700000000000    0.1254050000000000 Cd
   0.4362000000000000    0.5547100000000000    0.1285050000000000 Cd
   0.3451600000000000    0.6691300000000000    0.8728150000000000 Cd
   0.5638800000000000    0.4452600000000000    0.8697500000000000 Cd
   0.2488500000000000    0.7587100000000000    0.1197250000000000 Cd
   0.7511600000000000    0.2412400000000000    0.8785200000000000 Cd
   0.5925878614000668    0.0970658620666236    0.8264470608242014 H
   0.7867158444389497    0.0392260157277037    0.9251361694818175 H
   0.6872660310952785    0.0594914015569492    0.8759751028396321 H
   0.5351571386901105    0.6412022372050689    0.7140772477422485 H
   0.2485740845286856    0.6706962094113326    0.6670801551394707 H
   0.3875840593422223    0.6597903845559261    0.6923156913413326 H
   0.6764100000000000    0.0272600000000000    0.5806600000000000 H
   0.7349700000000000    0.9277600000000000    0.6065550000000000 H
   0.6028800000000000    0.9265600000000001    0.5944350000000000 H
   0.6475700000000000    0.9972100000000000    0.7081100000000000 H
   0.7215200000000001    0.9133300000000000    0.6836150000000000 H
   0.5892700000000000    0.9065500000000000    0.6713000000000000 H
   0.7797300000000000    0.2551100000000000    0.7795200000000000 H
   0.7974100000000000    0.1595400000000000    0.7138350000000000 H
   0.4682600000000000    0.2802600000000000    0.7389700000000000 H
   0.2827200000000000    0.2720500000000000    0.5962800000000000 H
   0.2308200000000000    0.0962600000000000    0.5830250000000000 H
   0.4631100000000000    0.0217400000000000    0.6772700000000000 H
   0.0000000000000000    0.3387700000000000    0.6858150000000001 H
   0.0723400000000000    0.4088000000000000    0.6731250000000000 H
   0.0709700000000000    0.2806000000000000    0.6673100000000000 H
   0.0036300000000000    0.3635800000000000    0.5588500000000000 H
   0.0927600000000000    0.2971200000000000    0.5906050000000000 H
   0.0927300000000000    0.4251500000000000    0.5973400000000000 H
   0.7297300000000000    0.6965900000000000    0.6497800000000000 H
   0.9081300000000000    0.7604600000000000    0.6591400000000001 H
   0.9771600000000000    0.5461400000000000    0.5695200000000000 H
   0.7373100000000000    0.2217900000000000    0.4813250000000000 H
   0.7252200000000000    0.5270100000000000    0.5045400000000000 H
   0.8296200000000000    0.2060500000000000    0.5527850000000000 H
   0.3237800000000000    0.0000000000000000    0.4177250000000000 H
   0.2652000000000000    0.0717800000000000    0.3919000000000000 H
   0.3973100000000000    0.0729300000000000    0.4039700000000000 H
   0.3524000000000000    0.0025900000000000    0.2902700000000000 H
   0.2785400000000000    0.0864200000000000    0.3148400000000000 H
   0.4108000000000000    0.0931300000000000    0.3271150000000000 H
   0.2202700000000000    0.7446400000000000    0.2187700000000000 H
   0.2025300000000000    0.8400400000000000    0.2845000000000000 H
   0.5318300000000000    0.7198700000000000    0.2592350000000000 H
   0.7171900000000000    0.7279000000000000    0.4020250000000000 H
   0.7691100000000000    0.9036900000000000    0.4152750000000000 H
   0.5369500000000000    0.9782200000000000    0.3209800000000000 H
   0.9963500000000000    0.6361000000000000    0.4394900000000000 H
   0.9070400000000000    0.7023100000000000    0.4077150000000000 H
   0.9073099999999999    0.5742800000000000    0.4010550000000000 H
   0.0323200000000000    0.6605300000000000    0.3124800000000000 H
   0.9274800000000000    0.5904700000000001    0.3252600000000000 H
   0.9287000000000000    0.7186800000000000    0.3309700000000000 H
   0.2626400000000000    0.7781700000000000    0.5169049999999999 H
   0.1702200000000000    0.7937700000000000    0.4454550000000000 H
   0.2749400000000000    0.4729600000000000    0.4937600000000000 H
   0.2703800000000000    0.3030600000000000    0.3486100000000000 H
   0.0919500000000000    0.2392300000000000    0.3392400000000000 H
   0.0229100000000000    0.4537300000000000    0.4287850000000000 H
   0.6764100000000000    0.0272600000000000    0.0806600000000000 H
   0.7349700000000000    0.9277600000000000    0.1065550000000000 H
   0.6028800000000000    0.9265600000000001    0.0944350000000000 H
   0.6475700000000000    0.9972100000000000    0.2081100000000000 H
   0.7215200000000001    0.9133300000000000    0.1836150000000000 H
   0.5892700000000000    0.9065500000000000    0.1713000000000000 H
   0.7797300000000000    0.2551100000000000    0.2795200000000000 H
   0.7974100000000000    0.1595400000000000    0.2138350000000000 H
   0.4682600000000000    0.2802600000000000    0.2389700000000000 H
   0.2827200000000000    0.2720500000000000    0.0962800000000000 H
   0.2308200000000000    0.0962600000000000    0.0830250000000000 H
   0.4631100000000000    0.0217400000000000    0.1772700000000000 H
   0.0000000000000000    0.3387700000000000    0.1858150000000000 H
   0.0723400000000000    0.4088000000000000    0.1731250000000000 H
   0.0709700000000000    0.2806000000000000    0.1673100000000000 H
   0.0036300000000000    0.3635800000000000    0.0588500000000000 H
   0.0927600000000000    0.2971200000000000    0.0906050000000000 H
   0.0927300000000000    0.4251500000000000    0.0973400000000000 H
   0.7297300000000000    0.6965900000000000    0.1497800000000000 H
   0.9081300000000000    0.7604600000000000    0.1591400000000000 H
   0.9771600000000000    0.5461400000000000    0.0695200000000000 H
   0.7373100000000000    0.2217900000000000    0.9813250000000000 H
   0.7252200000000000    0.5270100000000000    0.0045400000000000 H
   0.8296200000000000    0.2060500000000000    0.0527850000000000 H
   0.3467573392595720    0.8709450492066546    0.8575651008335282 H
   0.3452936564516523    0.8679415439011192    0.9107409429835095 H
   0.9963500000000000    0.6361000000000000    0.9394899999999999 H
   0.9070400000000000    0.7023100000000000    0.9077150000000000 H
   0.9073099999999999    0.5742800000000000    0.9010549999999999 H
   0.0323200000000000    0.6605300000000000    0.8124800000000000 H
   0.9274800000000000    0.5904700000000001    0.8252600000000000 H
   0.9287000000000000    0.7186800000000000    0.8309700000000000 H
   0.2626400000000000    0.7781700000000000    0.0169050000000000 H
   0.1702200000000000    0.7937700000000000    0.9454549999999999 H
   0.2749400000000000    0.4729600000000000    0.9937600000000000 H
   0.2703800000000000    0.3030600000000000    0.8486100000000000 H
   0.0919500000000000    0.2392300000000000    0.8392400000000000 H
   0.0229100000000000    0.4537300000000000    0.9287850000000000 H
   0.4424456773125086    0.6657584109006192    0.8244992800296290 H
   0.6076120013682698    0.6315351946839605    0.8386939825864641 H
   0.7070319519611585    0.5973347022403124    0.8531042473703027 H
   0.3125900000000000    0.9447600000000000    0.6236250000000000 C
   0.6091299999999999    0.3331600000000000    0.8013700000000000 C
   0.4328100000000000    0.3498000000000000    0.6471250000000000 C
   0.6696700000000000    0.9729500000000000    0.6039400000000000 C
   0.6544800000000000    0.9560200000000000    0.6790800000000000 C
   0.6529500000000000    0.1165700000000000    0.6481700000000000 C
   0.7154100000000000    0.2389700000000000    0.7561599999999999 C
   0.7248900000000000    0.1849700000000000    0.7195950000000000 C
   0.5396100000000000    0.2523600000000000    0.7331050000000000 C
   0.5474599999999999    0.1979000000000000    0.6964100000000000 C
   0.6223400000000000    0.2731400000000000    0.7628900000000001 C
   0.6416100000000000    0.1642000000000000    0.6897150000000000 C
   0.3223200000000000    0.2159600000000000    0.6134700000000000 C
   0.2934900000000000    0.1193000000000000    0.6061650000000000 C
   0.4263800000000000    0.0773000000000000    0.6587499999999999 C
   0.3450600000000000    0.0491700000000000    0.6293100000000000 C
   0.4587900000000000    0.1739100000000000    0.6652750000000001 C
   0.4049100000000000    0.2444100000000000    0.6426250000000000 C
   0.0244400000000000    0.3439400000000000    0.6647550000000000 C
   0.0450900000000000    0.3596700000000000    0.5900750000000000 C
   0.6486400000000000    0.5478400000000000    0.6034500000000000 C
   0.6704599999999999    0.3870900000000000    0.4460650000000000 C
   0.0580200000000000    0.6952000000000000    0.6186650000000000 C
   0.8773800000000000    0.3483400000000000    0.6128550000000000 C
   0.7855799999999999    0.6636800000000000    0.6328400000000001 C
   0.8834200000000000    0.6992100000000000    0.6378550000000001 C
   0.9226600000000000    0.5767500000000000    0.5878350000000000 C
   0.9526200000000000    0.6563900000000000    0.6148100000000000 C
   0.8254100000000000    0.5376500000000000    0.5837600000000001 C
   0.7553500000000000    0.5828400000000000    0.6062149999999999 C
   0.7555900000000000    0.2850600000000000    0.5000000000000000 C
   0.7267500000000000    0.3758600000000000    0.4887350000000000 C
   0.7496200000000000    0.4573400000000000    0.5154350000000000 C
   0.8007000000000000    0.4503000000000000    0.5555750000000000 C
   0.8072400000000000    0.2765800000000000    0.5420700000000001 C
   0.8305000000000000    0.3587100000000000    0.5686850000000000 C
   0.3304900000000000    0.0265600000000000    0.3944700000000000 C
   0.3455600000000000    0.0436900000000000    0.3193300000000000 C
   0.6874400000000001    0.0551600000000000    0.3746550000000000 C
   0.3909000000000000    0.6668400000000000    0.1968700000000000 C
   0.5671700000000000    0.6501700000000000    0.3511300000000000 C
   0.3470300000000000    0.8830400000000000    0.3501450000000000 C
   0.2845900000000000    0.7608300000000000    0.2421200000000000 C
   0.2750800000000000    0.8147400000000000    0.2787100000000000 C
   0.4604500000000000    0.7476600000000000    0.2651300000000000 C
   0.4525700000000000    0.8020400000000000    0.3018400000000000 C
   0.3777000000000000    0.7268300000000000    0.2353550000000000 C
   0.3583800000000000    0.8355600000000000    0.3085750000000000 C
   0.6776300000000000    0.7839900000000000    0.3848200000000000 C
   0.7064700000000000    0.8806400000000000    0.3921200000000000 C
   0.5736400000000000    0.9226600000000000    0.3395050000000000 C
   0.6549400000000000    0.9507700000000000    0.3689600000000000 C
   0.5412300000000000    0.8260500000000000    0.3329800000000000 C
   0.5950700000000000    0.7555600000000000    0.3556500000000000 C
   0.3514200000000000    0.4519700000000000    0.3948300000000000 C
   0.3296100000000000    0.6129300000000000    0.5522000000000000 C
   0.9420100000000000    0.3047300000000000    0.3796200000000000 C
   0.9548300000000000    0.6398500000000000    0.4082700000000000 C
   0.9753200000000000    0.6553900000000000    0.3335650000000000 C
   0.1224700000000000    0.6513300000000000    0.3854300000000000 C
   0.2443800000000000    0.7148800000000000    0.4960350000000000 C
   0.1926800000000000    0.7232700000000000    0.4561850000000000 C
   0.2504800000000000    0.5425900000000000    0.4828550000000000 C
   0.1993600000000000    0.5495500000000000    0.4427200000000000 C
   0.2733000000000000    0.6241100000000001    0.5095300000000000 C
   0.1694500000000000    0.6411000000000000    0.4295950000000000 C
   0.2145100000000000    0.3360200000000000    0.3655250000000000 C
   0.1166700000000000    0.3005100000000000    0.3605150000000000 C
   0.0774300000000000    0.4230700000000000    0.4104850000000000 C
   0.0474500000000000    0.3434300000000000    0.3835100000000000 C
   0.1746700000000000    0.4621600000000000    0.4145500000000000 C
   0.2447400000000000    0.4169000000000000    0.3921250000000000 C
   0.3125900000000000    0.9447600000000000    0.1236250000000000 C
   0.6091299999999999    0.3331600000000000    0.3013700000000000 C
   0.4328100000000000    0.3498000000000000    0.1471250000000000 C
   0.6696700000000000    0.9729500000000000    0.1039400000000000 C
   0.6544800000000000    0.9560200000000000    0.1790800000000000 C
   0.6529500000000000    0.1165700000000000    0.1481700000000000 C
   0.7154100000000000    0.2389700000000000    0.2561600000000000 C
   0.7248900000000000    0.1849700000000000    0.2195950000000000 C
   0.5396100000000000    0.2523600000000000    0.2331050000000000 C
   0.5474599999999999    0.1979000000000000    0.1964100000000000 C
   0.6223400000000000    0.2731400000000000    0.2628900000000000 C
   0.6416100000000000    0.1642000000000000    0.1897150000000000 C
   0.3223200000000000    0.2159600000000000    0.1134700000000000 C
   0.2934900000000000    0.1193000000000000    0.1061650000000000 C
   0.4263800000000000    0.0773000000000000    0.1587500000000000 C
   0.3450600000000000    0.0491700000000000    0.1293100000000000 C
   0.4587900000000000    0.1739100000000000    0.1652750000000000 C
   0.4049100000000000    0.2444100000000000    0.1426250000000000 C
   0.0244400000000000    0.3439400000000000    0.1647550000000000 C
   0.0450900000000000    0.3596700000000000    0.0900750000000000 C
   0.6486400000000000    0.5478400000000000    0.1034500000000000 C
   0.6704599999999999    0.3870900000000000    0.9460649999999999 C
   0.0580200000000000    0.6952000000000000    0.1186650000000000 C
   0.8773800000000000    0.3483400000000000    0.1128550000000000 C
   0.7855799999999999    0.6636800000000000    0.1328400000000000 C
   0.8834200000000000    0.6992100000000000    0.1378550000000000 C
   0.9226600000000000    0.5767500000000000    0.0878350000000000 C
   0.9526200000000000    0.6563900000000000    0.1148100000000000 C
   0.8254100000000000    0.5376500000000000    0.0837600000000000 C
   0.7553500000000000    0.5828400000000000    0.1062150000000000 C
   0.7555900000000000    0.2850600000000000    0.0000000000000000 C
   0.7267500000000000    0.3758600000000000    0.9887349999999999 C
   0.7496200000000000    0.4573400000000000    0.0154350000000000 C
   0.8007000000000000    0.4503000000000000    0.0555750000000000 C
   0.8072400000000000    0.2765800000000000    0.0420700000000000 C
   0.8305000000000000    0.3587100000000000    0.0686850000000000 C
   0.3514200000000000    0.4519700000000000    0.8948300000000000 C
   0.3296100000000000    0.6129300000000000    0.0522000000000000 C
   0.9420100000000000    0.3047300000000000    0.8796200000000001 C
   0.9548300000000000    0.6398500000000000    0.9082700000000000 C
   0.9753200000000000    0.6553900000000000    0.8335650000000000 C
   0.1224700000000000    0.6513300000000000    0.8854299999999999 C
   0.2443800000000000    0.7148800000000000    0.9960350000000000 C
   0.1926800000000000    0.7232700000000000    0.9561850000000001 C
   0.2504800000000000    0.5425900000000000    0.9828550000000000 C
   0.1993600000000000    0.5495500000000000    0.9427200000000000 C
   0.2733000000000000    0.6241100000000001    0.0095300000000000 C
   0.1694500000000000    0.6411000000000000    0.9295949999999999 C
   0.2145100000000000    0.3360200000000000    0.8655250000000000 C
   0.1166700000000000    0.3005100000000000    0.8605149999999999 C
   0.0774300000000000    0.4230700000000000    0.9104850000000000 C
   0.0474500000000000    0.3434300000000000    0.8835100000000000 C
   0.1746700000000000    0.4621600000000000    0.9145500000000000 C
   0.2447400000000000    0.4169000000000000    0.8921250000000001 C
   0.6618900000000000    0.0207700000000000    0.6446550000000000 N
   0.0000000000000000    0.3494900000000000    0.6215850000000001 N
   0.3381800000000000    0.0000000000000000    0.3537200000000000 N
   0.0230600000000000    0.6500500000000000    0.3767300000000000 N
   0.6618900000000000    0.0207700000000000    0.1446550000000000 N
   0.0000000000000000    0.3494900000000000    0.1215850000000000 N
   0.0230600000000000    0.6500500000000000    0.8767300000000000 N
   0.6460000000000000    0.1138500000000000    0.8487250000000000 O
   0.7551400000000000    0.0808200000000000    0.9042850000000000 O
   0.4755700000000000    0.6330300000000000    0.6940450000000000 O
   0.3164900000000000    0.6500400000000000    0.6684150000000000 O
   0.2449400000000000    0.9190600000000000    0.5939800000000000 O
   0.3540100000000000    0.8861000000000000    0.6495649999999999 O
   0.5244700000000000    0.3669900000000000    0.8041800000000000 O
   0.6835300000000000    0.3499600000000000    0.8298300000000001 O
   0.3633600000000000    0.4082200000000000    0.6425149999999999 O
   0.5249100000000000    0.3789300000000000    0.6545650000000001 O
   0.6540800000000000    0.1683300000000000    0.6162799999999999 O
   0.5878300000000000    0.6080700000000000    0.6143750000000000 O
   0.6238800000000000    0.4608900000000000    0.5902150000000000 O
   0.6463200000000000    0.4714600000000000    0.4359450000000000 O
   0.6474000000000000    0.3122300000000000    0.4219700000000000 O
   0.0881500000000000    0.7581700000000000    0.6474299999999999 O
   0.1130800000000000    0.6624600000000000    0.5921400000000000 O
   0.8221500000000000    0.3384500000000000    0.6418699999999999 O
   0.7551400000000000    0.0808200000000000    0.4042850000000000 O
   0.6460000000000000    0.1138500000000000    0.3487250000000000 O
   0.4755700000000000    0.6330300000000000    0.1940450000000000 O
   0.3164900000000000    0.6500400000000000    0.1684150000000000 O
   0.6366300000000000    0.5917600000000000    0.3557500000000000 O
   0.4750700000000000    0.6210400000000000    0.3436750000000000 O
   0.3458600000000000    0.8311400000000000    0.3819850000000000 O
   0.4122500000000000    0.3918200000000000    0.3838600000000000 O
   0.3761400000000000    0.5389200000000000    0.4080750000000000 O
   0.3537400000000000    0.5285600000000000    0.5623250000000000 O
   0.3526800000000000    0.6878000000000000    0.5762850000000000 O
   0.9118600000000000    0.2418000000000000    0.3508450000000000 O
   0.8869200000000000    0.3375400000000000    0.4061250000000000 O
   0.1776300000000000    0.6611800000000000    0.3563850000000000 O
   0.2449400000000000    0.9190600000000000    0.0939800000000000 O
   0.3540100000000000    0.8861000000000000    0.1495650000000000 O
   0.5244700000000000    0.3669900000000000    0.3041800000000000 O
   0.6835300000000000    0.3499600000000000    0.3298300000000000 O
   0.3633600000000000    0.4082200000000000    0.1425150000000000 O
   0.5249100000000000    0.3789300000000000    0.1545650000000000 O
   0.6540800000000000    0.1683300000000000    0.1162800000000000 O
   0.5878300000000000    0.6080700000000000    0.1143750000000000 O
   0.6238800000000000    0.4608900000000000    0.0902150000000000 O
   0.6463200000000000    0.4714600000000000    0.9359450000000000 O
   0.6474000000000000    0.3122300000000000    0.9219700000000000 O
   0.0881500000000000    0.7581700000000000    0.1474300000000000 O
   0.1130800000000000    0.6624600000000000    0.0921400000000000 O
   0.8221500000000000    0.3384500000000000    0.1418700000000000 O
   0.3458600000000000    0.8311400000000000    0.8819850000000000 O
   0.4122500000000000    0.3918200000000000    0.8838600000000000 O
   0.3761400000000000    0.5389200000000000    0.9080750000000000 O
   0.3537400000000000    0.5285600000000000    0.0623250000000000 O
   0.3526800000000000    0.6878000000000000    0.0762850000000000 O
   0.9118600000000000    0.2418000000000000    0.8508450000000001 O
   0.8869200000000000    0.3375400000000000    0.9061250000000001 O
   0.1776300000000000    0.6611800000000000    0.8563850000000000 O
   0.4750700000000000    0.6210400000000000    0.8436750000000000 O
   0.6366300000000000    0.5917600000000000    0.8557500000000000 O
