H2 C10 O8
1.0
   5.9327452360418018    0.0000000000000000    0.3815219052994345
   0.0561195399474486    7.4737376590140032    0.0277849144677412
   0.0000000000000000    0.0000000000000000   15.5861000000000001
H C O
2 10 8
direct
   0.5693100000000000    0.1856200000000000    0.0233300000000000 H
   0.4306400000000000    0.8299900000000000    0.9767000000000000 H
   0.5400100000000000    0.3276800000000000    0.0127700000000000 C
   0.5449700000000000    0.3946200000000000    0.9288100000000000 C
   0.5050600000000000    0.5785300000000000    0.9153600000000000 C
   0.5259300000000000    0.6685000000000000    0.8282900000000000 C
   0.5842300000000000    0.2595300000000000    0.8583200000000000 C
   0.4599300000000000    0.6879300000000000    0.9872700000000000 C
   0.4549700000000000    0.6209900000000000    0.0712300000000000 C
   0.4948800000000000    0.4370900000000000    0.0846800000000000 C
   0.4740200000000000    0.3471200000000000    0.1717500000000000 C
   0.4157200000000000    0.7560800000000000    0.1417200000000000 C
   0.7729100000000000    0.1799400000000000    0.8498000000000000 O
   0.4194600000000000    0.2183800000000000    0.8128300000000001 O
   0.5881400000000000   -0.1696600000000000    0.8303300000000000 O
   0.4866400000000000    0.5857700000000000    0.7594100000000000 O
   0.2270300000000000   -0.1643200000000000    0.1502400000000000 O
   0.5804900000000000    0.7972399999999999    0.1872000000000000 O
   0.4118100000000000    0.1852800000000000    0.1697000000000000 O
   0.5133200000000000    0.4298500000000000    0.2406300000000000 O
