Zn4 H14 C10 O16
1.0
   5.9327452360418018    0.0000000000000000    0.3815219052994345
   0.0561195399474486    7.4737376590140032    0.0277849144677412
   0.0000000000000000    0.0000000000000000   15.5861000000000001
Zn H C O
4 14 10 16
direct
   0.2500100000000000    0.3988000000000000    0.7499200000000000 Zn
   0.7499800000000000    0.6168200000000000    0.2501100000000000 Zn
   0.7492500000000000    0.0001300000000000    0.7502100000000000 Zn
   0.2506900000000000    0.0154900000000000    0.2498200000000000 Zn
   0.3213546696549704    0.8167202498136704    0.0993954225847070 H
   0.3675099109136403    0.7859466993579075    0.0924176346023586 H
   0.1089699175458710   -0.1554449465822865    0.1102369034106727 H
   0.5000637545596891    0.3103545236933625    0.2175042224892192 H
   0.3730957463556012    0.2798277643368707    0.1303479143988303 H
   0.6268446943545107   -0.2642105892770146    0.8696821030529369 H
   0.4998874030404248    0.7052646814125031    0.7825376976145355 H
   0.8982294869497964    0.2067057311656242    0.8844176251923290 H
   0.2674200594374742    0.2667172216576552    0.8138608330914836 H
   0.5585565068327472    0.2480882265382572    0.8512533199185317 H
   0.6324105986619775    0.2296711796214616    0.9076188856739908 H
   0.9332300000000000    0.1856700000000000    0.4787800000000000 H
   0.0667100000000000    0.8299500000000000    0.5212599999999999 H
   0.6766615938577724    0.7779090084234137    0.1353598603319788 H
   0.0285500000000000    0.3453700000000000    0.3293200000000000 C
   0.9713900000000000    0.6702399999999999    0.6707100000000000 C
   0.0846300000000000    0.7532300000000000    0.3568100000000000 C
   0.9153200000000000    0.2623900000000000    0.6432200000000000 C
   0.9614100000000000    0.3276700000000000    0.4884300000000000 C
   0.9546500000000000    0.3960900000000000    0.5718700000000000 C
   0.0068000000000000    0.4357800000000000    0.4159100000000000 C
   0.0385300000000000    0.6879400000000000    0.5116000000000001 C
   0.0452900000000000    0.6195300000000000    0.4281700000000000 C
   0.9931500000000000    0.5798300000000000    0.5841300000000000 C
   0.2270300000000000   -0.1643200000000000    0.1502400000000000 O
   0.5133200000000000    0.4298500000000000    0.2406300000000000 O
   0.4118100000000000    0.1852800000000000    0.1697000000000000 O
   0.5881400000000000   -0.1696600000000000    0.8303300000000000 O
   0.4866400000000000    0.5857700000000000    0.7594100000000000 O
   0.7729100000000000    0.1799400000000000    0.8498000000000000 O
   0.4194600000000000    0.2183800000000000    0.8128300000000001 O
   0.0913500000000000    0.1828100000000000    0.3319600000000000 O
   0.9893600000000000    0.4287900000000000    0.2601900000000000 O
   0.9085900000000000    0.8328000000000000    0.6680800000000000 O
   0.0106000000000000    0.5868300000000000    0.7398400000000001 O
   0.2740100000000000    0.8293300000000000    0.3474800000000000 O
   0.9190400000000000    0.7969900000000000    0.3117600000000000 O
   0.7259400000000000    0.1862800000000000    0.6525600000000000 O
   0.0809100000000000    0.2186300000000000    0.6882700000000000 O
   0.5804900000000000    0.7972399999999999    0.1872000000000000 O
