H4 C6 N1 O2
1.0
  27.7337335572684864    0.0000000000000000    6.4150743545527131
   3.4508664269026497   15.2963013719024357    0.7776150999124370
   0.0000000000000000    0.0000000000000000   31.3919999999999995
H C N O
4 6 1 2
direct
   0.2439850000000000    0.2403000000000000    0.1719700000000000 H
   0.2595700000000000    0.2461400000000000    0.2479500000000000 H
   0.1888650000000000    0.2538100000000000    0.3120300000000000 H
   0.0950050000000000    0.2499100000000000    0.2224350000000000 H
   0.2145000000000000    0.2430200000000000    0.2011500000000000 C
   0.2228700000000000    0.2468500000000000    0.2429200000000000 C
   0.1833000000000000    0.2518900000000000    0.2789050000000000 C
   0.1362350000000000    0.2538000000000000    0.2719450000000000 C
   0.1311000000000000    0.2488300000000000    0.2290000000000000 C
   0.0914500000000000    0.2602000000000000    0.3085950000000000 C
   0.1692250000000000    0.2431600000000000    0.1942200000000000 N
   0.0968400000000000    0.2703500000000000    0.3477550000000000 O
   0.0509450000000000    0.2553800000000000    0.3004000000000000 O
