Cd24 H262 C207 N46 Cl24 O74
1.0
  17.9879993835609611    0.0000000000000000   -0.0047092473339353
  -0.0041749149326150   15.9469994535048922    0.0000000000000010
   0.0000000000000000    0.0000000000000000   33.3239999999999981
Cd H C N Cl O
24 262 207 46 24 74
direct
   0.7093800000000000    0.4576400000000000    0.8005150000000000 Cd
   0.0427133333333333    0.4576400000000000    0.8005150000000000 Cd
   0.3760466666666666    0.4576400000000000    0.8005150000000000 Cd
   0.8761666666666665    0.5428900000000000    0.9494950000000000 Cd
   0.2095000000000000    0.5428900000000000    0.9494950000000000 Cd
   0.5428333333333333    0.5428900000000000    0.9494950000000000 Cd
   0.4572866666666666    0.9575399999999999    0.1994700000000000 Cd
   0.7906200000000000    0.9575399999999999    0.1994700000000000 Cd
   0.1239533333333333    0.9575399999999999    0.1994700000000000 Cd
   0.2905100000000000    0.0428000000000000    0.0504850000000000 Cd
   0.6238433333333333    0.0428000000000000    0.0504850000000000 Cd
   0.9571766666666666    0.0428000000000000    0.0504850000000000 Cd
   0.7093800000000000    0.4576400000000000    0.3005150000000000 Cd
   0.3760466666666666    0.4576400000000000    0.3005150000000000 Cd
   0.0427133333333333    0.4576400000000000    0.3005150000000000 Cd
   0.2095000000000000    0.5428900000000000    0.4494950000000000 Cd
   0.5428333333333333    0.5428900000000000    0.4494950000000000 Cd
   0.8761666666666665    0.5428900000000000    0.4494950000000000 Cd
   0.1239533333333333    0.9575399999999999    0.6994700000000000 Cd
   0.4572866666666666    0.9575399999999999    0.6994700000000000 Cd
   0.7906200000000000    0.9575399999999999    0.6994700000000000 Cd
   0.2905100000000000    0.0428000000000000    0.5504850000000000 Cd
   0.6238433333333333    0.0428000000000000    0.5504850000000000 Cd
   0.9571766666666666    0.0428000000000000    0.5504850000000000 Cd
   1.0022412733808357    0.2944606922501206    0.2647143405674223 H
   0.9307306777213029    0.3217768924905562    0.2943757079760815 H
   0.5994433333333333    0.4287700000000000    0.8957900000000000 H
   0.5427733333333333    0.2972200000000000    0.9462600000000000 H
   0.5334466666666666    0.3077200000000000    0.8934599999999999 H
   0.5143866666666667    0.2667800000000000    0.0515500000000000 H
   0.2685100000000000    0.2032600000000000    0.9955250000000000 H
   0.4450533333333333    0.1369400000000000    0.0687100000000000 H
   0.3290233333333333    0.3394100000000000    0.9765650000000000 H
   0.4149200000000000    0.3320900000000000    0.9274300000000000 H
   0.4028666666666667    0.4659100000000000    0.9657050000000000 H
   0.5293000000000000    0.3832500000000000    0.0051250000000000 H
   0.4556666666666667    0.4412000000000000    0.0256100000000000 H
   0.4327000000000000    0.5717500000000000    0.8542400000000000 H
   0.3761233333333333    0.7031800000000000    0.8036650000000001 H
   0.3668100000000000    0.6928400000000000    0.8564750000000000 H
   0.1622133333333333    0.6609200000000000    0.7733600000000000 H
   0.3476166666666666    0.7334100000000000    0.6983950000000000 H
   0.1018100000000000    0.7970900000000000    0.7543800000000001 H
   0.2784066666666666    0.8633000000000000    0.6812199999999999 H
   0.2482233333333334    0.6684700000000000    0.8225050000000000 H
   0.2360500000000000    0.5344700000000000    0.7843450000000001 H
   0.3624433333333333    0.6169600000000000    0.7448049999999999 H
   0.2886900000000000    0.5590000000000001    0.7244050000000000 H
   0.2661100000000000    0.4287700000000000    0.8957900000000000 H
   0.2094400000000000    0.2972200000000000    0.9462600000000000 H
   0.2001133333333333    0.3077200000000000    0.8934599999999999 H
   0.1810533333333333    0.2667800000000000    0.0515500000000000 H
   0.9351766666666665    0.2032600000000000    0.9955250000000000 H
   0.1117200000000000    0.1369400000000000    0.0687100000000000 H
   0.9956900000000000    0.3394100000000000    0.9765650000000000 H
   0.0815866666666667    0.3320900000000000    0.9274300000000000 H
   0.0695333333333333    0.4659100000000000    0.9657050000000000 H
   0.1959666666666667    0.3832500000000000    0.0051250000000000 H
   0.1223333333333333    0.4412000000000000    0.0256100000000000 H
   0.0993666666666667    0.5717500000000000    0.8542400000000000 H
   0.0427900000000000    0.7031800000000000    0.8036650000000001 H
   0.0334766666666667    0.6928400000000000    0.8564750000000000 H
   0.8288800000000000    0.6609200000000000    0.7733600000000000 H
   0.0142833333333333    0.7334100000000000    0.6983950000000000 H
   0.7684766666666666    0.7970900000000000    0.7543800000000001 H
   0.9450733333333332    0.8633000000000000    0.6812199999999999 H
   0.9148900000000000    0.6684700000000000    0.8225050000000000 H
   0.9027166666666666    0.5344700000000000    0.7843450000000001 H
   0.0291100000000000    0.6169600000000000    0.7448049999999999 H
   0.9553566666666666    0.5590000000000001    0.7244050000000000 H
   0.9327766666666666    0.4287700000000000    0.8957900000000000 H
   0.8761066666666666    0.2972200000000000    0.9462600000000000 H
   0.8667799999999999    0.3077200000000000    0.8934599999999999 H
   0.8477199999999999    0.2667800000000000    0.0515500000000000 H
   0.6018433333333333    0.2032600000000000    0.9955250000000000 H
   0.7783866666666667    0.1369400000000000    0.0687100000000000 H
   0.6623566666666667    0.3394100000000000    0.9765650000000000 H
   0.7482533333333333    0.3320900000000000    0.9274300000000000 H
   0.7362000000000000    0.4659100000000000    0.9657050000000000 H
   0.8626333333333333    0.3832500000000000    0.0051250000000000 H
   0.7889999999999999    0.4412000000000000    0.0256100000000000 H
   0.7660333333333333    0.5717500000000000    0.8542400000000000 H
   0.7094566666666666    0.7031800000000000    0.8036650000000001 H
   0.7001433333333333    0.6928400000000000    0.8564750000000000 H
   0.4955466666666666    0.6609200000000000    0.7733600000000000 H
   0.6809499999999999    0.7334100000000000    0.6983950000000000 H
   0.4351433333333333    0.7970900000000000    0.7543800000000001 H
   0.6117400000000000    0.8633000000000000    0.6812199999999999 H
   0.5815566666666667    0.6684700000000000    0.8225050000000000 H
   0.5693833333333334    0.5344700000000000    0.7843450000000001 H
   0.6957766666666666    0.6169600000000000    0.7448049999999999 H
   0.6220233333333334    0.5590000000000001    0.7244050000000000 H
   0.9291316336244380    0.1575179691788439    0.1021914219583613 H
   0.9548744363759306    0.1379684693863809    0.1281507520296230 H
   0.8696794982444921    0.0922023146451700    0.2394027022905202 H
   0.9279032888254027    0.0360949752291135    0.2155518988350429 H
   0.7058985356321248    0.1430450392641170    0.1768849431094086 H
   0.7815934689228848    0.1388368676034140    0.1723857772076071 H
   0.4006633333333333    0.0716900000000000    0.1457550000000000 H
   0.4573466666666666    0.2031400000000000    0.1962900000000000 H
   0.4666500000000000    0.1927300000000000    0.1434900000000000 H
   0.6711433333333333    0.1610100000000000    0.2266050000000000 H
   0.4857233333333333    0.2333600000000000    0.3015650000000000 H
   0.7315266666666667    0.2972400000000000    0.2455850000000000 H
   0.5549200000000000    0.3633100000000000    0.3187450000000000 H
   0.5852166666666667    0.1683600000000000    0.1774600000000000 H
   0.5973166666666667    0.0344300000000000    0.2156600000000000 H
   0.4709099999999999    0.1169200000000000    0.2551550000000000 H
   0.5446433333333334    0.0590200000000000    0.2755850000000000 H
   0.5671833333333334    0.9286700000000000    0.1042000000000000 H
   0.6237833333333334    0.7971000000000000    0.0537450000000000 H
   0.6331199999999999    0.8076400000000000    0.1065450000000000 H
   0.8375333333333332    0.8393900000000000    0.0234500000000000 H
   0.6522666666666666    0.7666800000000000    0.9483850000000000 H
   0.8980966666666665    0.7033199999999999    0.0044750000000000 H
   0.7216466666666667    0.6369300000000000    0.9312150000000000 H
   0.7516600000000000    0.8319800000000001    0.0725550000000000 H
   0.7637566666666666    0.9658000000000000    0.0342750000000000 H
   0.6372700000000000    0.8830500000000000    0.9949000000000000 H
   0.7108266666666666    0.9410900000000000    0.9743750000000000 H
   0.0673300000000000    0.0716900000000000    0.1457550000000000 H
   0.1240133333333333    0.2031400000000000    0.1962900000000000 H
   0.1333166666666667    0.1927300000000000    0.1434900000000000 H
   0.3378100000000000    0.1610100000000000    0.2266050000000000 H
   0.1523900000000000    0.2333600000000000    0.3015650000000000 H
   0.3981933333333333    0.2972400000000000    0.2455850000000000 H
   0.2215866666666667    0.3633100000000000    0.3187450000000000 H
   0.2518833333333333    0.1683600000000000    0.1774600000000000 H
   0.2639833333333333    0.0344300000000000    0.2156600000000000 H
   0.1375766666666667    0.1169200000000000    0.2551550000000000 H
   0.2113100000000000    0.0590200000000000    0.2755850000000000 H
   0.2338500000000000    0.9286700000000000    0.1042000000000000 H
   0.2904500000000000    0.7971000000000000    0.0537450000000000 H
   0.2997866666666666    0.8076400000000000    0.1065450000000000 H
   0.5042000000000000    0.8393900000000000    0.0234500000000000 H
   0.3189333333333333    0.7666800000000000    0.9483850000000000 H
   0.5647633333333333    0.7033199999999999    0.0044750000000000 H
   0.3883133333333333    0.6369300000000000    0.9312150000000000 H
   0.4183266666666666    0.8319800000000001    0.0725550000000000 H
   0.4304233333333333    0.9658000000000000    0.0342750000000000 H
   0.3039366666666666    0.8830500000000000    0.9949000000000000 H
   0.3774933333333333    0.9410900000000000    0.9743750000000000 H
   0.9297216050254845    1.0112522482212916    0.1602110882674847 H
   0.9005166666666666    0.9286700000000000    0.1042000000000000 H
   0.9571166666666666    0.7971000000000000    0.0537450000000000 H
   0.9664533333333333    0.8076400000000000    0.1065450000000000 H
   0.1708666666666666    0.8393900000000000    0.0234500000000000 H
   0.9855999999999999    0.7666800000000000    0.9483850000000000 H
   0.2314300000000000    0.7033199999999999    0.0044750000000000 H
   0.0549800000000000    0.6369300000000000    0.9312150000000000 H
   0.0849933333333333    0.8319800000000001    0.0725550000000000 H
   0.0970900000000000    0.9658000000000000    0.0342750000000000 H
   0.9706033333333333    0.8830500000000000    0.9949000000000000 H
   0.0441600000000000    0.9410900000000000    0.9743750000000000 H
   0.9327766666666666    0.4287700000000000    0.3957900000000000 H
   0.8761066666666666    0.2972200000000000    0.4462600000000000 H
   0.8667799999999999    0.3077200000000000    0.3934600000000000 H
   0.8477199999999999    0.2667800000000000    0.5515500000000000 H
   0.6018433333333333    0.2032600000000000    0.4955250000000000 H
   0.7783866666666667    0.1369400000000000    0.5687100000000000 H
   0.6623566666666667    0.3394100000000000    0.4765650000000000 H
   0.7482533333333333    0.3320900000000000    0.4274300000000000 H
   0.7362000000000000    0.4659100000000000    0.4657050000000000 H
   0.8626333333333333    0.3832500000000000    0.5051250000000000 H
   0.7889999999999999    0.4412000000000000    0.5256100000000000 H
   0.7660333333333333    0.5717500000000000    0.3542400000000000 H
   0.7094566666666666    0.7031800000000000    0.3036650000000000 H
   0.7001433333333333    0.6928400000000000    0.3564750000000000 H
   0.4955466666666666    0.6609200000000000    0.2733600000000000 H
   0.6809499999999999    0.7334100000000000    0.1983950000000000 H
   0.4351433333333333    0.7970900000000000    0.2543800000000000 H
   0.6117400000000000    0.8633000000000000    0.1812200000000000 H
   0.5815566666666667    0.6684700000000000    0.3225050000000000 H
   0.5693833333333334    0.5344700000000000    0.2843450000000000 H
   0.6957766666666666    0.6169600000000000    0.2448050000000000 H
   0.6220233333333334    0.5590000000000001    0.2244050000000000 H
   0.5994433333333333    0.4287700000000000    0.3957900000000000 H
   0.5427733333333333    0.2972200000000000    0.4462600000000000 H
   0.5334466666666666    0.3077200000000000    0.3934600000000000 H
   0.5143866666666667    0.2667800000000000    0.5515500000000000 H
   0.2685100000000000    0.2032600000000000    0.4955250000000000 H
   0.4450533333333333    0.1369400000000000    0.5687100000000000 H
   0.3290233333333333    0.3394100000000000    0.4765650000000000 H
   0.4149200000000000    0.3320900000000000    0.4274300000000000 H
   0.4028666666666667    0.4659100000000000    0.4657050000000000 H
   0.5293000000000000    0.3832500000000000    0.5051250000000000 H
   0.4556666666666667    0.4412000000000000    0.5256100000000000 H
   0.4327000000000000    0.5717500000000000    0.3542400000000000 H
   0.3761233333333333    0.7031800000000000    0.3036650000000000 H
   0.3668100000000000    0.6928400000000000    0.3564750000000000 H
   0.1622133333333333    0.6609200000000000    0.2733600000000000 H
   0.3476166666666666    0.7334100000000000    0.1983950000000000 H
   0.1018100000000000    0.7970900000000000    0.2543800000000000 H
   0.2784066666666666    0.8633000000000000    0.1812200000000000 H
   0.2482233333333334    0.6684700000000000    0.3225050000000000 H
   0.2360500000000000    0.5344700000000000    0.2843450000000000 H
   0.3624433333333333    0.6169600000000000    0.2448050000000000 H
   0.2886900000000000    0.5590000000000001    0.2244050000000000 H
   0.2661100000000000    0.4287700000000000    0.3957900000000000 H
   0.2094400000000000    0.2972200000000000    0.4462600000000000 H
   0.2001133333333333    0.3077200000000000    0.3934600000000000 H
   0.1810533333333333    0.2667800000000000    0.5515500000000000 H
   0.9351766666666665    0.2032600000000000    0.4955250000000000 H
   0.1117200000000000    0.1369400000000000    0.5687100000000000 H
   0.9956900000000000    0.3394100000000000    0.4765650000000000 H
   0.0815866666666667    0.3320900000000000    0.4274300000000000 H
   0.0695333333333333    0.4659100000000000    0.4657050000000000 H
   0.1959666666666667    0.3832500000000000    0.5051250000000000 H
   0.1223333333333333    0.4412000000000000    0.5256100000000000 H
   0.0993666666666667    0.5717500000000000    0.3542400000000000 H
   0.0427900000000000    0.7031800000000000    0.3036650000000000 H
   0.0334766666666667    0.6928400000000000    0.3564750000000000 H
   0.8288800000000000    0.6609200000000000    0.2733600000000000 H
   0.0142833333333333    0.7334100000000000    0.1983950000000000 H
   0.7684766666666666    0.7970900000000000    0.2543800000000000 H
   0.9450733333333332    0.8633000000000000    0.1812200000000000 H
   0.9148900000000000    0.6684700000000000    0.3225050000000000 H
   0.9027166666666666    0.5344700000000000    0.2843450000000000 H
   0.0291100000000000    0.6169600000000000    0.2448050000000000 H
   0.9553566666666666    0.5590000000000001    0.2244050000000000 H
   0.0673300000000000    0.0716900000000000    0.6457550000000000 H
   0.1240133333333333    0.2031400000000000    0.6962900000000000 H
   0.1333166666666667    0.1927300000000000    0.6434900000000000 H
   0.3378100000000000    0.1610100000000000    0.7266049999999999 H
   0.1523900000000000    0.2333600000000000    0.8015650000000001 H
   0.3981933333333333    0.2972400000000000    0.7455849999999999 H
   0.2215866666666667    0.3633100000000000    0.8187450000000001 H
   0.2518833333333333    0.1683600000000000    0.6774600000000000 H
   0.2639833333333333    0.0344300000000000    0.7156600000000000 H
   0.1375766666666667    0.1169200000000000    0.7551550000000000 H
   0.2113100000000000    0.0590200000000000    0.7755850000000000 H
   0.2338500000000000    0.9286700000000000    0.6042000000000000 H
   0.2904500000000000    0.7971000000000000    0.5537450000000000 H
   0.2997866666666666    0.8076400000000000    0.6065450000000000 H
   0.5042000000000000    0.8393900000000000    0.5234500000000000 H
   0.3189333333333333    0.7666800000000000    0.4483850000000000 H
   0.5647633333333333    0.7033199999999999    0.5044750000000000 H
   0.3883133333333333    0.6369300000000000    0.4312150000000000 H
   0.4183266666666666    0.8319800000000001    0.5725550000000000 H
   0.4304233333333333    0.9658000000000000    0.5342750000000001 H
   0.3039366666666666    0.8830500000000000    0.4949000000000000 H
   0.3774933333333333    0.9410900000000000    0.4743750000000000 H
   0.7339966666666666    0.0716900000000000    0.6457550000000000 H
   0.7906799999999999    0.2031400000000000    0.6962900000000000 H
   0.7999833333333333    0.1927300000000000    0.6434900000000000 H
   0.0044766666666667    0.1610100000000000    0.7266049999999999 H
   0.8190566666666667    0.2333600000000000    0.8015650000000001 H
   0.0648600000000000    0.2972400000000000    0.7455849999999999 H
   0.8882533333333333    0.3633100000000000    0.8187450000000001 H
   0.9185500000000000    0.1683600000000000    0.6774600000000000 H
   0.9306500000000000    0.0344300000000000    0.7156600000000000 H
   0.8042433333333333    0.1169200000000000    0.7551550000000000 H
   0.8779766666666666    0.0590200000000000    0.7755850000000000 H
   0.9005166666666666    0.9286700000000000    0.6042000000000000 H
   0.9571166666666666    0.7971000000000000    0.5537450000000000 H
   0.9664533333333333    0.8076400000000000    0.6065450000000000 H
   0.1708666666666666    0.8393900000000000    0.5234500000000000 H
   0.9855999999999999    0.7666800000000000    0.4483850000000000 H
   0.2314300000000000    0.7033199999999999    0.5044750000000000 H
   0.0549800000000000    0.6369300000000000    0.4312150000000000 H
   0.0849933333333333    0.8319800000000001    0.5725550000000000 H
   0.0970900000000000    0.9658000000000000    0.5342750000000001 H
   0.9706033333333333    0.8830500000000000    0.4949000000000000 H
   0.0441600000000000    0.9410900000000000    0.4743750000000000 H
   0.4006633333333333    0.0716900000000000    0.6457550000000000 H
   0.4573466666666666    0.2031400000000000    0.6962900000000000 H
   0.4666500000000000    0.1927300000000000    0.6434900000000000 H
   0.6711433333333333    0.1610100000000000    0.7266049999999999 H
   0.4857233333333333    0.2333600000000000    0.8015650000000001 H
   0.7315266666666667    0.2972400000000000    0.7455849999999999 H
   0.5549200000000000    0.3633100000000000    0.8187450000000001 H
   0.5852166666666667    0.1683600000000000    0.6774600000000000 H
   0.5973166666666667    0.0344300000000000    0.7156600000000000 H
   0.4709099999999999    0.1169200000000000    0.7551550000000000 H
   0.5446433333333334    0.0590200000000000    0.7755850000000000 H
   0.5671833333333334    0.9286700000000000    0.6042000000000000 H
   0.6237833333333334    0.7971000000000000    0.5537450000000000 H
   0.6331199999999999    0.8076400000000000    0.6065450000000000 H
   0.8375333333333332    0.8393900000000000    0.5234500000000000 H
   0.6522666666666666    0.7666800000000000    0.4483850000000000 H
   0.8980966666666665    0.7033199999999999    0.5044750000000000 H
   0.7216466666666667    0.6369300000000000    0.4312150000000000 H
   0.7516600000000000    0.8319800000000001    0.5725550000000000 H
   0.7637566666666666    0.9658000000000000    0.5342750000000001 H
   0.6372700000000000    0.8830500000000000    0.4949000000000000 H
   0.7108266666666666    0.9410900000000000    0.4743750000000000 H
   0.4391766666666667    0.4372400000000000    0.8899450000000000 C
   0.5332666666666667    0.3426000000000000    0.9219400000000000 C
   0.4594366666666666    0.2562200000000000    0.0386600000000000 C
   0.3226266666666666    0.2212100000000000    0.0076200000000000 C
   0.4211433333333333    0.1833800000000000    0.0485300000000000 C
   0.3569833333333333    0.2960300000000000    0.0000000000000000 C
   0.4276366666666667    0.3144100000000000    0.0123100000000000 C
   0.4562366666666666    0.3830800000000000    0.9270950000000000 C
   0.4691533333333333    0.3942800000000000    0.0024600000000000 C
   0.2724333333333333    0.5634100000000000    0.8600650000000001 C
   0.3665700000000000    0.6578800000000000    0.8280149999999999 C
   0.1902100000000000    0.7042700000000000    0.7530550000000000 C
   0.2926866666666667    0.7440099999999999    0.7112750000000000 C
   0.1559100000000000    0.7791100000000000    0.7422850000000000 C
   0.2544600000000000    0.8168700000000000    0.7013950000000000 C
   0.2608433333333333    0.6858500000000000    0.7376300000000000 C
   0.2894966666666666    0.6174600000000000    0.8228800000000001 C
   0.3022966666666667    0.6059900000000000    0.7475100000000000 C
   0.1058433333333333    0.4372400000000000    0.8899450000000000 C
   0.1999333333333333    0.3426000000000000    0.9219400000000000 C
   0.1261033333333333    0.2562200000000000    0.0386600000000000 C
   0.9892933333333332    0.2212100000000000    0.0076200000000000 C
   0.0878100000000000    0.1833800000000000    0.0485300000000000 C
   0.0236500000000000    0.2960300000000000    0.0000000000000000 C
   0.0943033333333333    0.3144100000000000    0.0123100000000000 C
   0.1229033333333333    0.3830800000000000    0.9270950000000000 C
   0.1358200000000000    0.3942800000000000    0.0024600000000000 C
   0.9390999999999999    0.5634100000000000    0.8600650000000001 C
   0.0332366666666667    0.6578800000000000    0.8280149999999999 C
   0.8568766666666666    0.7042700000000000    0.7530550000000000 C
   0.9593533333333333    0.7440099999999999    0.7112750000000000 C
   0.8225766666666666    0.7791100000000000    0.7422850000000000 C
   0.9211266666666666    0.8168700000000000    0.7013950000000000 C
   0.9275099999999999    0.6858500000000000    0.7376300000000000 C
   0.9561633333333333    0.6174600000000000    0.8228800000000001 C
   0.9689633333333333    0.6059900000000000    0.7475100000000000 C
   0.7725099999999999    0.4372400000000000    0.8899450000000000 C
   0.8665999999999999    0.3426000000000000    0.9219400000000000 C
   0.7927700000000000    0.2562200000000000    0.0386600000000000 C
   0.6559599999999999    0.2212100000000000    0.0076200000000000 C
   0.7544766666666667    0.1833800000000000    0.0485300000000000 C
   0.6903166666666666    0.2960300000000000    0.0000000000000000 C
   0.7609699999999999    0.3144100000000000    0.0123100000000000 C
   0.7895700000000000    0.3830800000000000    0.9270950000000000 C
   0.8024866666666666    0.3942800000000000    0.0024600000000000 C
   0.6057666666666666    0.5634100000000000    0.8600650000000001 C
   0.6999033333333333    0.6578800000000000    0.8280149999999999 C
   0.5235433333333332    0.7042700000000000    0.7530550000000000 C
   0.6260200000000000    0.7440099999999999    0.7112750000000000 C
   0.4892433333333333    0.7791100000000000    0.7422850000000000 C
   0.5877933333333333    0.8168700000000000    0.7013950000000000 C
   0.5941766666666666    0.6858500000000000    0.7376300000000000 C
   0.6228300000000000    0.6174600000000000    0.8228800000000001 C
   0.6356299999999999    0.6059900000000000    0.7475100000000000 C
   0.5609166666666666    0.0632900000000000    0.1399200000000000 C
   0.4668566666666666    0.1578100000000000    0.1719550000000000 C
   0.6431400000000000    0.2043400000000000    0.2469100000000000 C
   0.5406566666666667    0.2440100000000000    0.2886900000000000 C
   0.6774266666666666    0.2792100000000000    0.2576800000000000 C
   0.5788766666666667    0.3169000000000000    0.2985700000000000 C
   0.5725100000000000    0.1858700000000000    0.2623350000000000 C
   0.5439066666666666    0.1173600000000000    0.1771000000000000 C
   0.5310633333333333    0.1059700000000000    0.2524650000000000 C
   0.7274633333333334    0.9371300000000000    0.1100450000000000 C
   0.6333166666666666    0.8425000000000000    0.0780550000000000 C
   0.8095966666666666    0.7960100000000000    0.0031300000000000 C
   0.7071999999999999    0.7561600000000001    0.9612900000000000 C
   0.8439900000000000    0.7212400000000000    0.9923649999999999 C
   0.7455233333333333    0.6833700000000000    0.9514150000000000 C
   0.7389566666666666    0.8143500000000000    0.9876700000000000 C
   0.7103666666666666    0.8829700000000000    0.0728900000000000 C
   0.6974133333333333    0.8941600000000000    0.9975350000000001 C
   0.2275833333333333    0.0632900000000000    0.1399200000000000 C
   0.1335233333333333    0.1578100000000000    0.1719550000000000 C
   0.3098066666666667    0.2043400000000000    0.2469100000000000 C
   0.2073233333333333    0.2440100000000000    0.2886900000000000 C
   0.3440933333333333    0.2792100000000000    0.2576800000000000 C
   0.2455433333333333    0.3169000000000000    0.2985700000000000 C
   0.2391766666666666    0.1858700000000000    0.2623350000000000 C
   0.2105733333333333    0.1173600000000000    0.1771000000000000 C
   0.1977300000000000    0.1059700000000000    0.2524650000000000 C
   0.3941300000000000    0.9371300000000000    0.1100450000000000 C
   0.2999833333333333    0.8425000000000000    0.0780550000000000 C
   0.4762633333333333    0.7960100000000000    0.0031300000000000 C
   0.3738666666666666    0.7561600000000001    0.9612900000000000 C
   0.5106566666666666    0.7212400000000000    0.9923649999999999 C
   0.4121899999999999    0.6833700000000000    0.9514150000000000 C
   0.4056233333333333    0.8143500000000000    0.9876700000000000 C
   0.3770333333333333    0.8829700000000000    0.0728900000000000 C
   0.3640800000000000    0.8941600000000000    0.9975350000000001 C
   0.0607966666666667    0.9371300000000000    0.1100450000000000 C
   0.9666500000000000    0.8425000000000000    0.0780550000000000 C
   0.1429300000000000    0.7960100000000000    0.0031300000000000 C
   0.0405333333333333    0.7561600000000001    0.9612900000000000 C
   0.1773233333333333    0.7212400000000000    0.9923649999999999 C
   0.0788566666666667    0.6833700000000000    0.9514150000000000 C
   0.0722900000000000    0.8143500000000000    0.9876700000000000 C
   0.0437000000000000    0.8829700000000000    0.0728900000000000 C
   0.0307466666666667    0.8941600000000000    0.9975350000000001 C
   0.7725099999999999    0.4372400000000000    0.3899450000000000 C
   0.8665999999999999    0.3426000000000000    0.4219400000000000 C
   0.7927700000000000    0.2562200000000000    0.5386600000000000 C
   0.6559599999999999    0.2212100000000000    0.5076200000000000 C
   0.7544766666666667    0.1833800000000000    0.5485300000000000 C
   0.6903166666666666    0.2960300000000000    0.5000000000000000 C
   0.7609699999999999    0.3144100000000000    0.5123100000000000 C
   0.7895700000000000    0.3830800000000000    0.4270950000000000 C
   0.8024866666666666    0.3942800000000000    0.5024600000000000 C
   0.6057666666666666    0.5634100000000000    0.3600650000000000 C
   0.6999033333333333    0.6578800000000000    0.3280150000000000 C
   0.5235433333333332    0.7042700000000000    0.2530550000000000 C
   0.6260200000000000    0.7440099999999999    0.2112750000000000 C
   0.4892433333333333    0.7791100000000000    0.2422850000000000 C
   0.5877933333333333    0.8168700000000000    0.2013950000000000 C
   0.5941766666666666    0.6858500000000000    0.2376300000000000 C
   0.6228300000000000    0.6174600000000000    0.3228800000000000 C
   0.6356299999999999    0.6059900000000000    0.2475100000000000 C
   0.4391766666666667    0.4372400000000000    0.3899450000000000 C
   0.5332666666666667    0.3426000000000000    0.4219400000000000 C
   0.4594366666666666    0.2562200000000000    0.5386600000000000 C
   0.3226266666666666    0.2212100000000000    0.5076200000000000 C
   0.4211433333333333    0.1833800000000000    0.5485300000000000 C
   0.3569833333333333    0.2960300000000000    0.5000000000000000 C
   0.4276366666666667    0.3144100000000000    0.5123100000000000 C
   0.4562366666666666    0.3830800000000000    0.4270950000000000 C
   0.4691533333333333    0.3942800000000000    0.5024600000000000 C
   0.2724333333333333    0.5634100000000000    0.3600650000000000 C
   0.3665700000000000    0.6578800000000000    0.3280150000000000 C
   0.1902100000000000    0.7042700000000000    0.2530550000000000 C
   0.2926866666666667    0.7440099999999999    0.2112750000000000 C
   0.1559100000000000    0.7791100000000000    0.2422850000000000 C
   0.2544600000000000    0.8168700000000000    0.2013950000000000 C
   0.2608433333333333    0.6858500000000000    0.2376300000000000 C
   0.2894966666666666    0.6174600000000000    0.3228800000000000 C
   0.3022966666666667    0.6059900000000000    0.2475100000000000 C
   0.1058433333333333    0.4372400000000000    0.3899450000000000 C
   0.1999333333333333    0.3426000000000000    0.4219400000000000 C
   0.1261033333333333    0.2562200000000000    0.5386600000000000 C
   0.9892933333333332    0.2212100000000000    0.5076200000000000 C
   0.0878100000000000    0.1833800000000000    0.5485300000000000 C
   0.0236500000000000    0.2960300000000000    0.5000000000000000 C
   0.0943033333333333    0.3144100000000000    0.5123100000000000 C
   0.1229033333333333    0.3830800000000000    0.4270950000000000 C
   0.1358200000000000    0.3942800000000000    0.5024600000000000 C
   0.9390999999999999    0.5634100000000000    0.3600650000000000 C
   0.0332366666666667    0.6578800000000000    0.3280150000000000 C
   0.8568766666666666    0.7042700000000000    0.2530550000000000 C
   0.9593533333333333    0.7440099999999999    0.2112750000000000 C
   0.8225766666666666    0.7791100000000000    0.2422850000000000 C
   0.9211266666666666    0.8168700000000000    0.2013950000000000 C