H11 C9 N2 O3
1.0
  17.9879993835609611    0.0000000000000000   -0.0047092473339353
  -0.0041749149326150   15.9469994535048922    0.0000000000000010
   0.0000000000000000    0.0000000000000000   33.3239999999999981
H C N O
11 9 2 3
direct
   0.0648600000000000    0.2972400000000000    0.2455850000000000 H
   0.0044766666666667    0.1610100000000000    0.2266050000000000 H
   0.8190566666666667    0.2333600000000000    0.3015650000000000 H
   0.8882533333333333    0.3633100000000000    0.3187450000000000 H
   0.9306500000000000    0.0344300000000000    0.2156600000000000 H
   0.8042433333333333    0.1169200000000000    0.2551550000000000 H
   0.8779766666666666    0.0590200000000000    0.2755850000000000 H
   0.9185500000000000    0.1683600000000000    0.1774600000000000 H
   0.7999833333333333    0.1927300000000000    0.1434900000000000 H
   0.7906799999999999    0.2031400000000000    0.1962900000000000 H
   0.7339966666666666    0.0716900000000000    0.1457550000000000 H
   0.0107600000000000    0.2792100000000000    0.2576800000000000 C
   0.8739899999999999    0.2440100000000000    0.2886900000000000 C
   0.9058433333333333    0.1858700000000000    0.2623350000000000 C
   0.9122100000000000    0.3169000000000000    0.2985700000000000 C
   0.9764733333333333    0.2043400000000000    0.2469100000000000 C
   0.8643966666666666    0.1059700000000000    0.2524650000000000 C
   0.8772399999999999    0.1173600000000000    0.1771000000000000 C
   0.8001900000000000    0.1578100000000000    0.1719550000000000 C
   0.8942500000000000    0.0632900000000000    0.1399200000000000 C
   0.9797699999999999    0.3346900000000000    0.2832700000000000 N
   0.8800866666666667    0.0650800000000000    0.2136700000000000 N
   0.8918633333333332    0.9838700000000000    0.1441400000000000 O
   0.7412633333333333    0.0976900000000000    0.1733200000000000 O
   0.9069699999999999    0.1033200000000000    0.1078150000000000 O
