Ba24 H138 Pt24 C276 N46 O92
1.0
  23.0864912093129817    0.0000000000000000   -0.0201467693309736
  -0.5233878437265779   14.6576576557515565   -0.0051197487238280
   0.0000000000000000    0.0000000000000000   31.6260000000000012
Ba H Pt C N O
24 138 24 276 46 92
direct
   0.2483266666666666    0.4326700000000000    0.2804600000000000 Ba
   0.0818900000000000    0.9325500000000000    0.4694600000000000 Ba
   0.0850033333333333    0.5673300000000000    0.2195300000000000 Ba
   0.2514366666666666    0.0674500000000000    0.0305300000000000 Ba
   0.5816600000000000    0.4326700000000000    0.2804600000000000 Ba
   0.4152233333333333    0.9325500000000000    0.4694600000000000 Ba
   0.4183366666666666    0.5673300000000000    0.2195300000000000 Ba
   0.5847700000000000    0.0674500000000000    0.0305300000000000 Ba
   0.9149933333333333    0.4326700000000000    0.2804600000000000 Ba
   0.7485566666666666    0.9325500000000000    0.4694600000000000 Ba
   0.7516699999999999    0.5673300000000000    0.2195300000000000 Ba
   0.9181033333333333    0.0674500000000000    0.0305300000000000 Ba
   0.2483266666666666    0.4326700000000000    0.7804599999999999 Ba
   0.0818900000000000    0.9325500000000000    0.9694600000000000 Ba
   0.0850033333333333    0.5673300000000000    0.7195300000000000 Ba
   0.2514366666666666    0.0674500000000000    0.5305299999999999 Ba
   0.5816600000000000    0.4326700000000000    0.7804599999999999 Ba
   0.4152233333333333    0.9325500000000000    0.9694600000000000 Ba
   0.4183366666666666    0.5673300000000000    0.7195300000000000 Ba
   0.5847700000000000    0.0674500000000000    0.5305299999999999 Ba
   0.9149933333333333    0.4326700000000000    0.7804599999999999 Ba
   0.7485566666666666    0.9325500000000000    0.9694600000000000 Ba
   0.7516699999999999    0.5673300000000000    0.7195300000000000 Ba
   0.9181033333333333    0.0674500000000000    0.5305299999999999 Ba
   0.2985566666666666    0.6127400000000000    0.4037050000000000 H
   0.2922033333333333    0.7828600000000000    0.4126750000000000 H
   0.2126800000000000    0.7317800000000000    0.0337150000000000 H
   0.1894633333333333    0.6361500000000000    0.0783700000000000 H
   0.1944533333333333    0.3547000000000000    0.1127300000000000 H
   0.2418133333333333    0.3242300000000000    0.0422950000000000 H
   0.0347733333333333    0.3872700000000000    0.0962850000000000 H
   0.0411266666666667    0.2171500000000000    0.0873100000000000 H
   0.1206500000000000    0.2682200000000000    0.4662750000000000 H
   0.1438666666666666    0.3638500000000000    0.4216250000000000 H
   0.1388766666666666    0.6452900000000000    0.3872600000000000 H
   0.0915200000000000    0.6757700000000000    0.4576950000000000 H
   0.1319600000000000    0.1128300000000000    0.3464250000000000 H
   0.1254233333333333    0.2828700000000000    0.3374100000000000 H
   0.0453833333333333    0.2312400000000000    0.2164800000000000 H
   0.0225333333333333    0.1356100000000000    0.1717450000000000 H
   0.0275200000000000    0.8540700000000000    0.1374350000000000 H
   0.0751733333333333    0.8238799999999999    0.2078250000000000 H
   0.6318900000000000    0.6127400000000000    0.4037050000000000 H
   0.6255366666666666    0.7828600000000000    0.4126750000000000 H
   0.5460133333333334    0.7317800000000000    0.0337150000000000 H
   0.5227966666666666    0.6361500000000000    0.0783700000000000 H
   0.5277866666666666    0.3547000000000000    0.1127300000000000 H
   0.5751466666666667    0.3242300000000000    0.0422950000000000 H
   0.5347033333333333    0.8871700000000000    0.1535650000000000 H
   0.5412433333333333    0.7171300000000000    0.1625850000000000 H
   0.6212800000000001    0.7687600000000000    0.2835150000000000 H
   0.6441300000000000    0.8643999999999999    0.3282450000000000 H
   0.6391400000000000    0.1459300000000000    0.3625550000000000 H
   0.5914833333333334    0.1761200000000000    0.2921700000000000 H
   0.3681066666666666    0.3872700000000000    0.0962850000000000 H
   0.3744600000000000    0.2171500000000000    0.0873100000000000 H
   0.4539833333333333    0.2682200000000000    0.4662750000000000 H
   0.4772000000000000    0.3638500000000000    0.4216250000000000 H
   0.4722100000000000    0.6452900000000000    0.3872600000000000 H
   0.4248533333333333    0.6757700000000000    0.4576950000000000 H
   0.4652933333333333    0.1128300000000000    0.3464250000000000 H
   0.4587566666666666    0.2828700000000000    0.3374100000000000 H
   0.3787166666666666    0.2312400000000000    0.2164800000000000 H
   0.3558666666666667    0.1356100000000000    0.1717450000000000 H
   0.3608533333333333    0.8540700000000000    0.1374350000000000 H
   0.4085066666666666    0.8238799999999999    0.2078250000000000 H
   0.9652233333333333    0.6127400000000000    0.4037050000000000 H
   0.9588699999999999    0.7828600000000000    0.4126750000000000 H
   0.8793466666666666    0.7317800000000000    0.0337150000000000 H
   0.8561299999999999    0.6361500000000000    0.0783700000000000 H
   0.8611199999999999    0.3547000000000000    0.1127300000000000 H
   0.9084800000000000    0.3242300000000000    0.0422950000000000 H
   0.8680366666666666    0.8871700000000000    0.1535650000000000 H
   0.8745766666666666    0.7171300000000000    0.1625850000000000 H
   0.9546133333333333    0.7687600000000000    0.2835150000000000 H
   0.9774633333333334    0.8643999999999999    0.3282450000000000 H
   0.9724733333333333    0.1459300000000000    0.3625550000000000 H
   0.9248166666666666    0.1761200000000000    0.2921700000000000 H
   0.7014400000000000    0.3872700000000000    0.0962850000000000 H
   0.7077933333333333    0.2171500000000000    0.0873100000000000 H
   0.7873166666666667    0.2682200000000000    0.4662750000000000 H
   0.8105333333333333    0.3638500000000000    0.4216250000000000 H
   0.8055433333333333    0.6452900000000000    0.3872600000000000 H
   0.7581866666666667    0.6757700000000000    0.4576950000000000 H
   0.7986266666666666    0.1128300000000000    0.3464250000000000 H
   0.7920900000000000    0.2828700000000000    0.3374100000000000 H
   0.7120500000000000    0.2312400000000000    0.2164800000000000 H
   0.6891999999999999    0.1356100000000000    0.1717450000000000 H
   0.6941866666666666    0.8540700000000000    0.1374350000000000 H
   0.7418399999999999    0.8238799999999999    0.2078250000000000 H
   0.2985566666666666    0.6127400000000000    0.9037050000000000 H
   0.2922033333333333    0.7828600000000000    0.9126750000000000 H
   0.2126800000000000    0.7317800000000000    0.5337150000000001 H
   0.1894633333333333    0.6361500000000000    0.5783700000000001 H
   0.1944533333333333    0.3547000000000000    0.6127300000000000 H
   0.2418133333333333    0.3242300000000000    0.5422950000000000 H
   0.2013700000000000    0.8871700000000000    0.6535650000000000 H
   0.2079100000000000    0.7171300000000000    0.6625850000000000 H
   0.2879466666666667    0.7687600000000000    0.7835150000000000 H
   0.3107966666666667    0.8643999999999999    0.8282450000000000 H
   0.3058066666666667    0.1459300000000000    0.8625550000000000 H
   0.2581500000000000    0.1761200000000000    0.7921700000000000 H
   0.0347733333333333    0.3872700000000000    0.5962850000000000 H
   0.0411266666666667    0.2171500000000000    0.5873100000000000 H
   0.1206500000000000    0.2682200000000000    0.9662750000000000 H
   0.1438666666666666    0.3638500000000000    0.9216250000000000 H
   0.1388766666666666    0.6452900000000000    0.8872599999999999 H
   0.0915200000000000    0.6757700000000000    0.9576950000000000 H
   0.1319600000000000    0.1128300000000000    0.8464250000000000 H
   0.1254233333333333    0.2828700000000000    0.8374100000000000 H
   0.0453833333333333    0.2312400000000000    0.7164800000000000 H
   0.0225333333333333    0.1356100000000000    0.6717450000000000 H
   0.0275200000000000    0.8540700000000000    0.6374350000000000 H
   0.0751733333333333    0.8238799999999999    0.7078250000000000 H
   0.6318900000000000    0.6127400000000000    0.9037050000000000 H
   0.6255366666666666    0.7828600000000000    0.9126750000000000 H
   0.5460133333333334    0.7317800000000000    0.5337150000000001 H
   0.5227966666666666    0.6361500000000000    0.5783700000000001 H
   0.5277866666666666    0.3547000000000000    0.6127300000000000 H
   0.5751466666666667    0.3242300000000000    0.5422950000000000 H
   0.5347033333333333    0.8871700000000000    0.6535650000000000 H
   0.5412433333333333    0.7171300000000000    0.6625850000000000 H
   0.6212800000000001    0.7687600000000000    0.7835150000000000 H
   0.6441300000000000    0.8643999999999999    0.8282450000000000 H
   0.6391400000000000    0.1459300000000000    0.8625550000000000 H
   0.5914833333333334    0.1761200000000000    0.7921700000000000 H
   0.3681066666666666    0.3872700000000000    0.5962850000000000 H
   0.3744600000000000    0.2171500000000000    0.5873100000000000 H
   0.4539833333333333    0.2682200000000000    0.9662750000000000 H
   0.4772000000000000    0.3638500000000000    0.9216250000000000 H
   0.4722100000000000    0.6452900000000000    0.8872599999999999 H
   0.4248533333333333    0.6757700000000000    0.9576950000000000 H
   0.4652933333333333    0.1128300000000000    0.8464250000000000 H
   0.4587566666666666    0.2828700000000000    0.8374100000000000 H
   0.3787166666666666    0.2312400000000000    0.7164800000000000 H
   0.3558666666666667    0.1356100000000000    0.6717450000000000 H
   0.3608533333333333    0.8540700000000000    0.6374350000000000 H
   0.4085066666666666    0.8238799999999999    0.7078250000000000 H
   0.9652233333333333    0.6127400000000000    0.9037050000000000 H
   0.9588699999999999    0.7828600000000000    0.9126750000000000 H
   0.8793466666666666    0.7317800000000000    0.5337150000000001 H
   0.8561299999999999    0.6361500000000000    0.5783700000000001 H
   0.8611199999999999    0.3547000000000000    0.6127300000000000 H
   0.9084800000000000    0.3242300000000000    0.5422950000000000 H
   0.8680366666666666    0.8871700000000000    0.6535650000000000 H
   0.8745766666666666    0.7171300000000000    0.6625850000000000 H
   0.9546133333333333    0.7687600000000000    0.7835150000000000 H
   0.9774633333333334    0.8643999999999999    0.8282450000000000 H
   0.9724733333333333    0.1459300000000000    0.8625550000000000 H
   0.9248166666666666    0.1761200000000000    0.7921700000000000 H
   0.7014400000000000    0.3872700000000000    0.5962850000000000 H
   0.7077933333333333    0.2171500000000000    0.5873100000000000 H
   0.7873166666666667    0.2682200000000000    0.9662750000000000 H
   0.8105333333333333    0.3638500000000000    0.9216250000000000 H
   0.8055433333333333    0.6452900000000000    0.8872599999999999 H
   0.7581866666666667    0.6757700000000000    0.9576950000000000 H
   0.7986266666666666    0.1128300000000000    0.8464250000000000 H
   0.7920900000000000    0.2828700000000000    0.8374100000000000 H
   0.7120500000000000    0.2312400000000000    0.7164800000000000 H
   0.6891999999999999    0.1356100000000000    0.6717450000000000 H
   0.6941866666666666    0.8540700000000000    0.6374350000000000 H
   0.7418399999999999    0.8238799999999999    0.7078250000000000 H
   0.2742733333333333    0.4403200000000000    0.4620600000000000 Pt
   0.2255433333333333    0.0598300000000000    0.2119400000000000 Pt
   0.0590566666666667    0.5596800000000000    0.0379300000000000 Pt
   0.1077866666666667    0.9401700000000000    0.2880500000000000 Pt
   0.6076066666666666    0.4403200000000000    0.4620600000000000 Pt
   0.5588766666666667    0.0598300000000000    0.2119400000000000 Pt
   0.3923900000000000    0.5596800000000000    0.0379300000000000 Pt
   0.4411200000000000    0.9401700000000000    0.2880500000000000 Pt
   0.9409399999999999    0.4403200000000000    0.4620600000000000 Pt
   0.8922099999999999    0.0598300000000000    0.2119400000000000 Pt
   0.7257233333333333    0.5596800000000000    0.0379300000000000 Pt
   0.7744533333333333    0.9401700000000000    0.2880500000000000 Pt
   0.2742733333333333    0.4403200000000000    0.9620600000000000 Pt
   0.2255433333333333    0.0598300000000000    0.7119400000000000 Pt
   0.0590566666666667    0.5596800000000000    0.5379300000000000 Pt
   0.1077866666666667    0.9401700000000000    0.7880499999999999 Pt
   0.6076066666666666    0.4403200000000000    0.9620600000000000 Pt
   0.5588766666666667    0.0598300000000000    0.7119400000000000 Pt
   0.3923900000000000    0.5596800000000000    0.5379300000000000 Pt
   0.4411200000000000    0.9401700000000000    0.7880499999999999 Pt
   0.9409399999999999    0.4403200000000000    0.9620600000000000 Pt
   0.8922099999999999    0.0598300000000000    0.7119400000000000 Pt
   0.7257233333333333    0.5596800000000000    0.5379300000000000 Pt
   0.7744533333333333    0.9401700000000000    0.7880499999999999 Pt
   0.2812633333333333    0.6423700000000000    0.4324000000000000 C
   0.2761433333333333    0.7360100000000001    0.4371500000000000 C
   0.2515300000000000    0.7696300000000000    0.4742250000000000 C
   0.2328800000000000    0.7072100000000000    0.0050450000000000 C
   0.2417633333333333    0.6145400000000000    0.4996500000000000 C
   0.2273366666666667    0.5464599999999999    0.0321500000000000 C
   0.2012066666666667    0.5671200000000000    0.0704350000000000 C
   0.1886133333333333    0.4984500000000000    0.0997800000000000 C
   0.2038433333333333    0.4095000000000000    0.0902450000000000 C
   0.2297233333333333    0.3922100000000000    0.0516500000000000 C
   0.2466133333333334    0.8703200000000000    0.4833600000000000 C
   0.1562700000000000    0.5208100000000000    0.1398500000000000 C
   0.0105900000000000    0.9796000000000000    0.3897550000000000 C
   0.0520733333333333    0.3576300000000000    0.0675950000000000 C
   0.0571900000000000    0.2639900000000000    0.0628400000000000 C
   0.0817966666666667    0.2303800000000000    0.0257600000000000 C
   0.1004533333333333    0.2927900000000000    0.4949450000000000 C
   0.0915700000000000    0.3854600000000000    0.0000000000000000 C
   0.1059900000000000    0.4535500000000000    0.4678400000000000 C
   0.1321233333333333    0.4328800000000000    0.4295550000000000 C
   0.1447233333333333    0.5015500000000001    0.4002100000000000 C
   0.1294866666666667    0.5905000000000000    0.4097450000000000 C
   0.1036100000000000    0.6077900000000001    0.4483400000000000 C
   0.0867133333333333    0.1296800000000000    0.0166300000000000 C
   0.1770666666666666    0.4791900000000000    0.3601450000000000 C
   0.1145266666666667    0.1423200000000000    0.3177350000000000 C
   0.1092700000000000    0.2359300000000000    0.3129650000000000 C
   0.0844466666666667    0.2693800000000000    0.2759100000000000 C
   0.0657633333333333    0.2068300000000000    0.2451300000000000 C
   0.0748466666666667    0.1142200000000000    0.2505150000000000 C
   0.0604700000000000    0.0460500000000000    0.2180000000000000 C
   0.0342766666666667    0.0666000000000000    0.1797000000000000 C
   0.0216900000000000    0.9978700000000000    0.1503400000000000 C
   0.0369400000000000    0.9089600000000000    0.1598950000000000 C
   0.0629733333333333    0.8918000000000000    0.1984850000000000 C
   0.0794700000000000    0.3700500000000000    0.2667150000000000 C
   0.3227400000000000    0.0204000000000000    0.1102300000000000 C
   0.6145966666666667    0.6423700000000000    0.4324000000000000 C
   0.6094766666666667    0.7360100000000001    0.4371500000000000 C
   0.5848633333333333    0.7696300000000000    0.4742250000000000 C
   0.5662133333333333    0.7072100000000000    0.0050450000000000 C
   0.5750966666666666    0.6145400000000000    0.4996500000000000 C
   0.5606700000000000    0.5464599999999999    0.0321500000000000 C
   0.5345400000000000    0.5671200000000000    0.0704350000000000 C
   0.5219466666666667    0.4984500000000000    0.0997800000000000 C
   0.5371766666666666    0.4095000000000000    0.0902450000000000 C
   0.5630566666666666    0.3922100000000000    0.0516500000000000 C
   0.5799466666666666    0.8703200000000000    0.4833600000000000 C
   0.4896033333333333    0.5208100000000000    0.1398500000000000 C
   0.5521366666666667    0.8576800000000000    0.1822550000000000 C
   0.5573966666666667    0.7640700000000000    0.1870250000000000 C
   0.5822166666666666    0.7306200000000000    0.2240800000000000 C
   0.6009000000000000    0.7931700000000000    0.2548650000000000 C
   0.5918166666666667    0.8857800000000000    0.2494800000000000 C
   0.6061900000000000    0.9539500000000000    0.2819950000000000 C
   0.6323833333333333    0.9334000000000000    0.3202900000000000 C
   0.6449700000000000    0.0000000000000000    0.3496550000000000 C
   0.6297199999999999    0.0910500000000000    0.3400950000000000 C
   0.6036866666666667    0.1082000000000000    0.3015050000000000 C
   0.5871933333333332    0.6299500000000000    0.2332750000000000 C
   0.3854066666666667    0.3576300000000000    0.0675950000000000 C
   0.3905233333333333    0.2639900000000000    0.0628400000000000 C
   0.4151300000000000    0.2303800000000000    0.0257600000000000 C
   0.4337866666666667    0.2927900000000000    0.4949450000000000 C
   0.4249033333333333    0.3854600000000000    0.0000000000000000 C
   0.4393233333333333    0.4535500000000000    0.4678400000000000 C
   0.4654566666666666    0.4328800000000000    0.4295550000000000 C
   0.4780566666666666    0.5015500000000001    0.4002100000000000 C
   0.4628200000000000    0.5905000000000000    0.4097450000000000 C
   0.4369433333333333    0.6077900000000001    0.4483400000000000 C
   0.4200466666666666    0.1296800000000000    0.0166300000000000 C
   0.5104000000000000    0.4791900000000000    0.3601450000000000 C
   0.4478600000000000    0.1423200000000000    0.3177350000000000 C
   0.4426033333333333    0.2359300000000000    0.3129650000000000 C
   0.4177800000000000    0.2693800000000000    0.2759100000000000 C
   0.3990966666666667    0.2068300000000000    0.2451300000000000 C
   0.4081800000000000    0.1142200000000000    0.2505150000000000 C
   0.3938033333333333    0.0460500000000000    0.2180000000000000 C
   0.3676100000000000    0.0666000000000000    0.1797000000000000 C
   0.3550233333333333    0.9978700000000000    0.1503400000000000 C
   0.3702733333333333    0.9089600000000000    0.1598950000000000 C
   0.3963066666666666    0.8918000000000000    0.1984850000000000 C
   0.4128033333333333    0.3700500000000000    0.2667150000000000 C
   0.6560733333333333    0.0204000000000000    0.1102300000000000 C
   0.9479299999999999    0.6423700000000000    0.4324000000000000 C
   0.9428099999999999    0.7360100000000001    0.4371500000000000 C
   0.9181966666666665    0.7696300000000000    0.4742250000000000 C
   0.8995466666666666    0.7072100000000000    0.0050450000000000 C
   0.9084300000000000    0.6145400000000000    0.4996500000000000 C
   0.8940033333333333    0.5464599999999999    0.0321500000000000 C
   0.8678733333333333    0.5671200000000000    0.0704350000000000 C
   0.8552799999999999    0.4984500000000000    0.0997800000000000 C
   0.8705099999999999    0.4095000000000000    0.0902450000000000 C
   0.8963899999999999    0.3922100000000000    0.0516500000000000 C
   0.9132800000000000    0.8703200000000000    0.4833600000000000 C
   0.8229366666666666    0.5208100000000000    0.1398500000000000 C
   0.8854700000000000    0.8576800000000000    0.1822550000000000 C
   0.8907299999999999    0.7640700000000000    0.1870250000000000 C
   0.9155500000000000    0.7306200000000000    0.2240800000000000 C
   0.9342333333333332    0.7931700000000000    0.2548650000000000 C
   0.9251499999999999    0.8857800000000000    0.2494800000000000 C
   0.9395233333333333    0.9539500000000000    0.2819950000000000 C
   0.9657166666666666    0.9334000000000000    0.3202900000000000 C
   0.9783033333333333    0.0000000000000000    0.3496550000000000 C
   0.9630533333333333    0.0910500000000000    0.3400950000000000 C
   0.9370200000000000    0.1082000000000000    0.3015050000000000 C
   0.9205266666666666    0.6299500000000000    0.2332750000000000 C
   0.6772566666666666    0.9796000000000000    0.3897550000000000 C
   0.7187399999999999    0.3576300000000000    0.0675950000000000 C
   0.7238566666666666    0.2639900000000000    0.0628400000000000 C
   0.7484633333333333    0.2303800000000000    0.0257600000000000 C
   0.7671200000000000    0.2927900000000000    0.4949450000000000 C
   0.7582366666666667    0.3854600000000000    0.0000000000000000 C
   0.7726566666666667    0.4535500000000000    0.4678400000000000 C
   0.7987899999999999    0.4328800000000000    0.4295550000000000 C
   0.8113899999999999    0.5015500000000001    0.4002100000000000 C
   0.7961533333333333    0.5905000000000000    0.4097450000000000 C
   0.7702766666666666    0.6077900000000001    0.4483400000000000 C
   0.7533799999999999    0.1296800000000000    0.0166300000000000 C
   0.8437333333333332    0.4791900000000000    0.3601450000000000 C
   0.7811933333333333    0.1423200000000000    0.3177350000000000 C
   0.7759366666666666    0.2359300000000000    0.3129650000000000 C
   0.7511133333333333    0.2693800000000000    0.2759100000000000 C
   0.7324299999999999    0.2068300000000000    0.2451300000000000 C
   0.7415133333333332    0.1142200000000000    0.2505150000000000 C
   0.7271366666666667    0.0460500000000000    0.2180000000000000 C
   0.7009433333333333    0.0666000000000000    0.1797000000000000 C
   0.6883566666666666    0.9978700000000000    0.1503400000000000 C
   0.7036066666666666    0.9089600000000000    0.1598950000000000 C
   0.7296400000000000    0.8918000000000000    0.1984850000000000 C
   0.7461366666666667    0.3700500000000000    0.2667150000000000 C
   0.9894066666666665    0.0204000000000000    0.1102300000000000 C
   0.2812633333333333    0.6423700000000000    0.9324000000000000 C
   0.2761433333333333    0.7360100000000001    0.9371499999999999 C
   0.2515300000000000    0.7696300000000000    0.9742250000000000 C
   0.2328800000000000    0.7072100000000000    0.5050450000000000 C
   0.2417633333333333    0.6145400000000000    0.9996499999999999 C
   0.2273366666666667    0.5464599999999999    0.5321500000000000 C
   0.2012066666666667    0.5671200000000000    0.5704350000000000 C
   0.1886133333333333    0.4984500000000000    0.5997800000000000 C
   0.2038433333333333    0.4095000000000000    0.5902450000000000 C
   0.2297233333333333    0.3922100000000000    0.5516500000000000 C
   0.2466133333333334    0.8703200000000000    0.9833600000000000 C
   0.1562700000000000    0.5208100000000000    0.6398500000000000 C
   0.2188033333333333    0.8576800000000000    0.6822550000000001 C
   0.2240633333333333    0.7640700000000000    0.6870250000000000 C
   0.2488833333333333    0.7306200000000000    0.7240800000000001 C
   0.2675666666666666    0.7931700000000000    0.7548650000000000 C
   0.2584833333333333    0.8857800000000000    0.7494800000000000 C
   0.2728566666666666    0.9539500000000000    0.7819950000000000 C
   0.2990500000000000    0.9334000000000000    0.8202900000000000 C
   0.3116366666666667    0.0000000000000000    0.8496550000000000 C
   0.2963866666666666    0.0910500000000000    0.8400950000000000 C
   0.2703533333333333    0.1082000000000000    0.8015050000000000 C
   0.2538600000000000    0.6299500000000000    0.7332750000000000 C
   0.0105900000000000    0.9796000000000000    0.8897550000000001 C
   0.0520733333333333    0.3576300000000000    0.5675950000000000 C
   0.0571900000000000    0.2639900000000000    0.5628400000000000 C
   0.0817966666666667    0.2303800000000000    0.5257600000000000 C
   0.1004533333333333    0.2927900000000000    0.9949450000000000 C
   0.0915700000000000    0.3854600000000000    0.5000000000000000 C
   0.1059900000000000    0.4535500000000000    0.9678400000000000 C
   0.1321233333333333    0.4328800000000000    0.9295550000000000 C
   0.1447233333333333    0.5015500000000001    0.9002100000000000 C
   0.1294866666666667    0.5905000000000000    0.9097450000000000 C
   0.1036100000000000    0.6077900000000001    0.9483400000000000 C
   0.0867133333333333    0.1296800000000000    0.5166300000000000 C
   0.1770666666666666    0.4791900000000000    0.8601449999999999 C
   0.1145266666666667    0.1423200000000000    0.8177350000000000 C
   0.1092700000000000    0.2359300000000000    0.8129649999999999 C
   0.0844466666666667    0.2693800000000000    0.7759100000000000 C
   0.0657633333333333    0.2068300000000000    0.7451300000000000 C
   0.0748466666666667    0.1142200000000000    0.7505150000000000 C
   0.0604700000000000    0.0460500000000000    0.7180000000000000 C
   0.0342766666666667    0.0666000000000000    0.6797000000000000 C
   0.0216900000000000    0.9978700000000000    0.6503400000000000 C
   0.0369400000000000    0.9089600000000000    0.6598950000000000 C
   0.0629733333333333    0.8918000000000000    0.6984850000000000 C
   0.0794700000000000    0.3700500000000000    0.7667150000000000 C
   0.3227400000000000    0.0204000000000000    0.6102300000000001 C
   0.6145966666666667    0.6423700000000000    0.9324000000000000 C
   0.6094766666666667    0.7360100000000001    0.9371499999999999 C
   0.5848633333333333    0.7696300000000000    0.9742250000000000 C
   0.5662133333333333    0.7072100000000000    0.5050450000000000 C
   0.5750966666666666    0.6145400000000000    0.9996499999999999 C
   0.5606700000000000    0.5464599999999999    0.5321500000000000 C
   0.5345400000000000    0.5671200000000000    0.5704350000000000 C
   0.5219466666666667    0.4984500000000000    0.5997800000000000 C
   0.5371766666666666    0.4095000000000000    0.5902450000000000 C
   0.5630566666666666    0.3922100000000000    0.5516500000000000 C
   0.5799466666666666    0.8703200000000000    0.9833600000000000 C
   0.4896033333333333    0.5208100000000000    0.6398500000000000 C
   0.5521366666666667    0.8576800000000000    0.6822550000000001 C
   0.5573966666666667    0.7640700000000000    0.6870250000000000 C
   0.5822166666666666    0.7306200000000000    0.7240800000000001 C
   0.6009000000000000    0.7931700000000000    0.7548650000000000 C
   0.5918166666666667    0.8857800000000000    0.7494800000000000 C
   0.6061900000000000    0.9539500000000000    0.7819950000000000 C
   0.6323833333333333    0.9334000000000000    0.8202900000000000 C
   0.6449700000000000    0.0000000000000000    0.8496550000000000 C
   0.6297199999999999    0.0910500000000000    0.8400950000000000 C
   0.6036866666666667    0.1082000000000000    0.8015050000000000 C
   0.5871933333333332    0.6299500000000000    0.7332750000000000 C
   0.3439233333333333    0.9796000000000000    0.8897550000000001 C
   0.3854066666666667    0.3576300000000000    0.5675950000000000 C
   0.3905233333333333    0.2639900000000000    0.5628400000000000 C
   0.4151300000000000    0.2303800000000000    0.5257600000000000 C
   0.4337866666666667    0.2927900000000000    0.9949450000000000 C
   0.4249033333333333    0.3854600000000000    0.5000000000000000 C
   0.4393233333333333    0.4535500000000000    0.9678400000000000 C
   0.4654566666666666    0.4328800000000000    0.9295550000000000 C
   0.4780566666666666    0.5015500000000001    0.9002100000000000 C
   0.4628200000000000    0.5905000000000000    0.9097450000000000 C
   0.4369433333333333    0.6077900000000001    0.9483400000000000 C
   0.4200466666666666    0.1296800000000000    0.5166300000000000 C
   0.5104000000000000    0.4791900000000000    0.8601449999999999 C
   0.4478600000000000    0.1423200000000000    0.8177350000000000 C
   0.4426033333333333    0.2359300000000000    0.8129649999999999 C
   0.4177800000000000    0.2693800000000000    0.7759100000000000 C
   0.3990966666666667    0.2068300000000000    0.7451300000000000 C
   0.4081800000000000    0.1142200000000000    0.7505150000000000 C
   0.3938033333333333    0.0460500000000000    0.7180000000000000 C
   0.3676100000000000    0.0666000000000000    0.6797000000000000 C
   0.3550233333333333    0.9978700000000000    0.6503400000000000 C
   0.3702733333333333    0.9089600000000000    0.6598950000000000 C
   0.3963066666666666    0.8918000000000000    0.6984850000000000 C
   0.4128033333333333    0.3700500000000000    0.7667150000000000 C
   0.6560733333333333    0.0204000000000000    0.6102300000000001 C
   0.9479299999999999    0.6423700000000000    0.9324000000000000 C
   0.9428099999999999    0.7360100000000001    0.9371499999999999 C
   0.9181966666666665    0.7696300000000000    0.9742250000000000 C
   0.8995466666666666    0.7072100000000000    0.5050450000000000 C
   0.9084300000000000    0.6145400000000000    0.9996499999999999 C
   0.8940033333333333    0.5464599999999999    0.5321500000000000 C
   0.8678733333333333    0.5671200000000000    0.5704350000000000 C
   0.8552799999999999    0.4984500000000000    0.5997800000000000 C
   0.8705099999999999    0.4095000000000000    0.5902450000000000 C
   0.8963899999999999    0.3922100000000000    0.5516500000000000 C
   0.9132800000000000    0.8703200000000000    0.9833600000000000 C
   0.8229366666666666    0.5208100000000000    0.6398500000000000 C
   0.8854700000000000    0.8576800000000000    0.6822550000000001 C
   0.8907299999999999    0.7640700000000000    0.6870250000000000 C
   0.9155500000000000    0.7306200000000000    0.7240800000000001 C
   0.9342333333333332    0.7931700000000000    0.7548650000000000 C
   0.9251499999999999    0.8857800000000000    0.7494800000000000 C
   0.9395233333333333    0.9539500000000000    0.7819950000000000 C
   0.9657166666666666    0.9334000000000000    0.8202900000000000 C
   0.9783033333333333    0.0000000000000000    0.8496550000000000 C
   0.9630533333333333    0.0910500000000000    0.8400950000000000 C
   0.9370200000000000    0.1082000000000000    0.8015050000000000 C