Zn8 P14 H42 C42 O56
1.0
  18.5255849830992503    0.0000000000000000   -3.0439738885160748
  -1.8123302258589966   10.3802471012707311   -0.1909195354028790
   0.0000000000000000    0.0000000000000000   21.1389999999999993
Zn P H C O
8 14 42 42 56
direct
   0.1249300000000000    0.0203400000000000    0.4894900000000000 Zn
   0.3750600000000000    0.9796600000000000    0.0105150000000000 Zn
   0.6249300000000000    0.0203400000000000    0.4894900000000000 Zn
   0.8750599999999999    0.9796600000000000    0.0105150000000000 Zn
   0.1249300000000000    0.0203400000000000    0.9894900000000000 Zn
   0.3750600000000000    0.9796600000000000    0.5105150000000001 Zn
   0.6249300000000000    0.0203400000000000    0.9894900000000000 Zn
   0.8750599999999999    0.9796600000000000    0.5105150000000001 Zn
   0.4946350000000000    0.7986000000000000    0.0211350000000000 P
   0.2543000000000000    0.9594200000000001    0.1008250000000000 P
   0.0053650000000000    0.2014000000000000    0.4788750000000000 P
   0.2456900000000000    0.0405800000000000    0.3991850000000000 P
   0.9946349999999999    0.7986000000000000    0.0211350000000000 P
   0.7543000000000000    0.9594200000000001    0.1008250000000000 P
   0.5053650000000000    0.2014000000000000    0.4788750000000000 P
   0.7456900000000000    0.0405800000000000    0.3991850000000000 P
   0.4946350000000000    0.7986000000000000    0.5211350000000000 P
   0.0053650000000000    0.2014000000000000    0.9788749999999999 P
   0.9946349999999999    0.7986000000000000    0.5211350000000000 P
   0.7543000000000000    0.9594200000000001    0.6008249999999999 P
   0.5053650000000000    0.2014000000000000    0.9788749999999999 P
   0.7456900000000000    0.0405800000000000    0.8991850000000000 P
   0.0009600000000000    0.8045400000000000    0.1256250000000000 H
   0.3663250000000000    0.6639200000000000    0.4789300000000000 H
   0.1120250000000000    0.6584300000000000    0.0409650000000000 H
   0.2501050000000000    0.7501300000000000    0.0970750000000000 H
   0.3831600000000000    0.0440100000000000    0.1671950000000000 H
   0.1374150000000000    0.9203000000000000    0.1715250000000000 H
   0.4990400000000000    0.1954600000000000    0.3743800000000000 H
   0.1336750000000000    0.3360800000000000    0.0210800000000000 H
   0.3879750000000000    0.3415700000000000    0.4590400000000000 H
   0.2498900000000000    0.2498700000000000    0.4029350000000000 H
   0.1168350000000000    0.9560000000000000    0.3328150000000000 H
   0.3625800000000000    0.0797100000000000    0.3284800000000000 H
   0.5009600000000000    0.8045400000000000    0.1256250000000000 H
   0.8663250000000000    0.6639200000000000    0.4789300000000000 H
   0.6120250000000000    0.6584300000000000    0.0409650000000000 H
   0.7501050000000000    0.7501300000000000    0.0970750000000000 H
   0.8831599999999999    0.0440100000000000    0.1671950000000000 H
   0.6374150000000001    0.9203000000000000    0.1715250000000000 H
   0.9990399999999999    0.1954600000000000    0.3743800000000000 H
   0.6336750000000000    0.3360800000000000    0.0210800000000000 H
   0.8879750000000000    0.3415700000000000    0.4590400000000000 H
   0.7498899999999999    0.2498700000000000    0.4029350000000000 H
   0.6168350000000000    0.9560000000000000    0.3328150000000000 H
   0.8625800000000000    0.0797100000000000    0.3284800000000000 H
   0.0009600000000000    0.8045400000000000    0.6256250000000000 H
   0.3663250000000000    0.6639200000000000    0.9789300000000001 H
   0.1120250000000000    0.6584300000000000    0.5409650000000000 H
   0.4990400000000000    0.1954600000000000    0.8743799999999999 H
   0.1336750000000000    0.3360800000000000    0.5210800000000000 H
   0.3879750000000000    0.3415700000000000    0.9590400000000000 H
   0.5009600000000000    0.8045400000000000    0.6256250000000000 H
   0.8663250000000000    0.6639200000000000    0.9789300000000001 H
   0.6120250000000000    0.6584300000000000    0.5409650000000000 H
   0.7501050000000000    0.7501300000000000    0.5970750000000000 H
   0.8831599999999999    0.0440100000000000    0.6671950000000000 H
   0.6374150000000001    0.9203000000000000    0.6715250000000000 H
   0.9990399999999999    0.1954600000000000    0.8743799999999999 H
   0.6336750000000000    0.3360800000000000    0.5210800000000000 H
   0.8879750000000000    0.3415700000000000    0.9590400000000000 H
   0.7498899999999999    0.2498700000000000    0.9029350000000000 H
   0.6168350000000000    0.9560000000000000    0.8328150000000001 H
   0.8625800000000000    0.0797100000000000    0.8284800000000000 H
   0.4306650000000000    0.5400199999999999    0.4851750000000000 C
   0.4948250000000000    0.6302300000000000    0.0088700000000000 C
   0.0626750000000000    0.5890300000000001    0.0231200000000000 C
   0.3192550000000000    0.0296500000000000    0.2295600000000000 C
   0.2547450000000000    0.9833400000000000    0.1848950000000000 C
   0.1870000000000000    0.9549600000000000    0.2059250000000000 C
   0.0693350000000000    0.4599800000000000    0.0148350000000000 C
   0.0051750000000000    0.3697700000000000    0.4911350000000000 C
   0.4373250000000000    0.4109700000000000    0.4768900000000000 C
   0.1807400000000000    0.9703500000000000    0.2704500000000000 C
   0.2452500000000000    0.0166600000000000    0.3151100000000000 C
   0.3129950000000000    0.0450400000000000    0.2940850000000000 C
   0.9306650000000001    0.5400199999999999    0.4851750000000000 C
   0.9948250000000001    0.6302300000000000    0.0088700000000000 C
   0.5626750000000000    0.5890300000000001    0.0231200000000000 C
   0.8192550000000001    0.0296500000000000    0.2295600000000000 C
   0.7547450000000000    0.9833400000000000    0.1848950000000000 C
   0.6870000000000001    0.9549600000000000    0.2059250000000000 C
   0.5693350000000000    0.4599800000000000    0.0148350000000000 C
   0.5051750000000000    0.3697700000000000    0.4911350000000000 C
   0.9373250000000000    0.4109700000000000    0.4768900000000000 C
   0.6807400000000000    0.9703500000000000    0.2704500000000000 C
   0.7452500000000000    0.0166600000000000    0.3151100000000000 C
   0.8129950000000000    0.0450400000000000    0.2940850000000000 C
   0.4306650000000000    0.5400199999999999    0.9851750000000000 C
   0.4948250000000000    0.6302300000000000    0.5088700000000000 C
   0.0626750000000000    0.5890300000000001    0.5231200000000000 C
   0.0693350000000000    0.4599800000000000    0.5148350000000000 C
   0.0051750000000000    0.3697700000000000    0.9911350000000000 C
   0.4373250000000000    0.4109700000000000    0.9768900000000000 C
   0.9306650000000001    0.5400199999999999    0.9851750000000000 C
   0.9948250000000001    0.6302300000000000    0.5088700000000000 C
   0.5626750000000000    0.5890300000000001    0.5231200000000000 C
   0.8192550000000001    0.0296500000000000    0.7295600000000000 C
   0.7547450000000000    0.9833400000000000    0.6848950000000000 C
   0.6870000000000001    0.9549600000000000    0.7059250000000000 C
   0.5693350000000000    0.4599800000000000    0.5148350000000000 C
   0.5051750000000000    0.3697700000000000    0.9911350000000000 C
   0.9373250000000000    0.4109700000000000    0.9768900000000000 C
   0.6807400000000000    0.9703500000000000    0.7704500000000001 C
   0.7452500000000000    0.0166600000000000    0.8151100000000000 C
   0.8129950000000000    0.0450400000000000    0.7940849999999999 C
   0.0315650000000000    0.8397700000000000    0.0947450000000000 O
   0.4138350000000000    0.8153300000000000    0.0105700000000000 O
   0.0438800000000000    0.8770500000000000    0.4809050000000000 O
   0.3624850000000000    0.5703500000000000    0.4695500000000000 O
   0.2186050000000000    0.8109600000000000    0.0802750000000000 O
   0.3349150000000000    0.9838800000000000    0.0916800000000000 O
   0.2036200000000000    0.0381200000000000    0.0625150000000000 O
   0.3874000000000000    0.0609200000000000    0.2140300000000000 O
   0.4684350000000000    0.1602300000000000    0.4052650000000000 O
   0.0861600000000000    0.1846700000000000    0.4894350000000000 O
   0.4561100000000000    0.1229500000000000    0.0191000000000000 O
   0.1375150000000000    0.4296400000000000    0.0304600000000000 O
   0.2813900000000000    0.1890400000000000    0.4197350000000000 O
   0.1650800000000000    0.0161200000000000    0.4083250000000000 O
   0.2963750000000000    0.9618800000000000    0.4374900000000000 O
   0.1125950000000000    0.9390900000000000    0.2859800000000000 O
   0.5315650000000000    0.8397700000000000    0.0947450000000000 O
   0.9138350000000000    0.8153300000000000    0.0105700000000000 O
   0.5438800000000000    0.8770500000000000    0.4809050000000000 O
   0.8624849999999999    0.5703500000000000    0.4695500000000000 O
   0.7186049999999999    0.8109600000000000    0.0802750000000000 O
   0.8349150000000001    0.9838800000000000    0.0916800000000000 O
   0.7036200000000000    0.0381200000000000    0.0625150000000000 O
   0.8874000000000000    0.0609200000000000    0.2140300000000000 O
   0.9684349999999999    0.1602300000000000    0.4052650000000000 O
   0.5861600000000000    0.1846700000000000    0.4894350000000000 O
   0.9561100000000000    0.1229500000000000    0.0191000000000000 O
   0.6375150000000001    0.4296400000000000    0.0304600000000000 O
   0.7813900000000000    0.1890400000000000    0.4197350000000000 O
   0.6650800000000000    0.0161200000000000    0.4083250000000000 O
   0.7963750000000001    0.9618800000000000    0.4374900000000000 O
   0.6125950000000000    0.9390900000000000    0.2859800000000000 O
   0.0315650000000000    0.8397700000000000    0.5947450000000000 O
   0.4138350000000000    0.8153300000000000    0.5105700000000000 O
   0.0438800000000000    0.8770500000000000    0.9809050000000000 O
   0.3624850000000000    0.5703500000000000    0.9695500000000000 O
   0.4684350000000000    0.1602300000000000    0.9052650000000000 O
   0.0861600000000000    0.1846700000000000    0.9894350000000001 O
   0.4561100000000000    0.1229500000000000    0.5191000000000000 O
   0.1375150000000000    0.4296400000000000    0.5304600000000000 O
   0.5315650000000000    0.8397700000000000    0.5947450000000000 O
   0.9138350000000000    0.8153300000000000    0.5105700000000000 O
   0.5438800000000000    0.8770500000000000    0.9809050000000000 O
   0.8624849999999999    0.5703500000000000    0.9695500000000000 O
   0.7186049999999999    0.8109600000000000    0.5802750000000000 O
   0.8349150000000001    0.9838800000000000    0.5916800000000000 O
   0.7036200000000000    0.0381200000000000    0.5625150000000000 O
   0.8874000000000000    0.0609200000000000    0.7140299999999999 O
   0.9684349999999999    0.1602300000000000    0.9052650000000000 O
   0.5861600000000000    0.1846700000000000    0.9894350000000001 O
   0.9561100000000000    0.1229500000000000    0.5191000000000000 O
   0.6375150000000001    0.4296400000000000    0.5304600000000000 O
   0.7813900000000000    0.1890400000000000    0.9197350000000000 O
   0.6650800000000000    0.0161200000000000    0.9083250000000000 O
   0.7963750000000001    0.9618800000000000    0.9374899999999999 O
   0.6125950000000000    0.9390900000000000    0.7859800000000000 O
