H4 C8 O4
1.0
  35.6233900249247313    0.0000000000000000   -7.8590383083487483
  -3.4675564673962360   11.3575430345761070   -2.6261211630787904
   0.0000000000000000    0.0000000000000000   25.4220000000000006
H C O
4 8 4
direct
   0.0317866666666667    0.0467400000000000    0.7448300000000000 H
   0.0081266666666667    0.1975800000000000    0.7998799999999999 H
   0.1131700000000000    0.2896900000000000    0.9361050000000000 H
   0.1353600000000000    0.1336200000000000    0.8830000000000000 H
   0.0965666666666667    0.9828300000000000    0.7772650000000000 C
   0.0848566666666667    0.0798200000000000    0.8100750000000000 C
   0.0491600000000000    0.0994000000000000    0.7870150000000000 C
   0.0360700000000000    0.1837500000000000    0.8177950000000000 C
   0.0590233333333333    0.2523700000000000    0.8718600000000001 C
   0.0952733333333333    0.2355100000000000    0.8943650000000001 C
   0.1078833333333333    0.1488300000000000    0.8641250000000000 C
   0.0446166666666667    0.3431500000000000    0.9047900000000000 C
   0.0729066666666667    0.9096700000000000    0.7340949999999999 O
   0.1327166666666666    0.9792900000000000    0.7970400000000000 O
   0.0084100000000000    0.3292100000000000    0.8965400000000000 O
   0.0717266666666667    0.4330100000000000    0.9401700000000000 O
