Ba12 Zn24 H194 C280 O168
1.0
  35.6233900249247313    0.0000000000000000   -7.8590383083487483
  -3.4675564673962360   11.3575430345761070   -2.6261211630787904
   0.0000000000000000    0.0000000000000000   25.4220000000000006
Ba Zn H C O
12 24 194 280 168
direct
   0.4014766666666666    0.7954599999999999    0.1248550000000000 Ba
   0.4014766666666666    0.7954599999999999    0.6248549999999999 Ba
   0.7348100000000000    0.7954599999999999    0.1248550000000000 Ba
   0.7348100000000000    0.7954599999999999    0.6248549999999999 Ba
   0.0681433333333333    0.7954599999999999    0.1248550000000000 Ba
   0.0681433333333333    0.7954599999999999    0.6248549999999999 Ba
   0.5985333333333334    0.2045800000000000    0.3751150000000000 Ba
   0.5985333333333334    0.2045800000000000    0.8751150000000000 Ba
   0.2652000000000000    0.2045800000000000    0.3751150000000000 Ba
   0.2652000000000000    0.2045800000000000    0.8751150000000000 Ba
   0.9318666666666666    0.2045800000000000    0.3751150000000000 Ba
   0.9318666666666666    0.2045800000000000    0.8751150000000000 Ba
   0.5244733333333333    0.1777500000000000    0.7263100000000000 Zn
   0.8088733333333333    0.8223000000000000    0.7736650000000000 Zn
   0.2742766666666666    0.4267600000000000    0.5243400000000000 Zn
   0.0590700000000000    0.5732800000000000    0.4756350000000000 Zn
   0.5244733333333333    0.1777500000000000    0.2263100000000000 Zn
   0.8088733333333333    0.8223000000000000    0.2736650000000000 Zn
   0.2742766666666666    0.4267600000000000    0.0243400000000000 Zn
   0.0590700000000000    0.5732800000000000    0.9756350000000000 Zn
   0.1911400000000000    0.1777500000000000    0.7263100000000000 Zn
   0.4755400000000000    0.8223000000000000    0.7736650000000000 Zn
   0.9409433333333332    0.4267600000000000    0.5243400000000000 Zn
   0.7257366666666666    0.5732800000000000    0.4756350000000000 Zn
   0.1911400000000000    0.1777500000000000    0.2263100000000000 Zn
   0.4755400000000000    0.8223000000000000    0.2736650000000000 Zn
   0.9409433333333332    0.4267600000000000    0.0243400000000000 Zn
   0.7257366666666666    0.5732800000000000    0.9756350000000000 Zn
   0.8578066666666666    0.1777500000000000    0.7263100000000000 Zn
   0.1422066666666666    0.8223000000000000    0.7736650000000000 Zn
   0.6076100000000000    0.4267600000000000    0.5243400000000000 Zn
   0.3924033333333333    0.5732800000000000    0.4756350000000000 Zn
   0.8578066666666666    0.1777500000000000    0.2263100000000000 Zn
   0.1422066666666666    0.8223000000000000    0.2736650000000000 Zn
   0.6076100000000000    0.4267600000000000    0.0243400000000000 Zn
   0.3924033333333333    0.5732800000000000    0.9756350000000000 Zn
   0.0238867745723192    0.2851965640526151    0.8793869415292821 H
   0.4123233333333333    0.5249200000000001    0.5725250000000000 H
   0.3659300000000000    0.4953900000000000    0.5550800000000000 H
   0.3491100000000000    0.0951100000000000    0.4950050000000000 H
   0.3993800000000000    0.0243600000000000    0.5501450000000000 H
   0.3780133333333333    0.4061900000000000    0.6330100000000000 H
   0.4299800000000000    0.3396900000000000    0.6862650000000000 H
   0.6666666666666666    0.5188700000000001    0.6556000000000000 H
   0.6086266666666666    0.3955200000000000    0.6673000000000000 H
   0.6635033333333333    0.4811700000000000    0.8443700000000001 H
   0.7247199999999999    0.6045199999999999    0.8326700000000000 H
   0.9210233333333333    0.4751300000000000    0.9274500000000000 H
   0.9674133333333332    0.5046600000000000    0.9448900000000000 H
   0.9553300000000000    0.5938500000000000    0.8669600000000000 H
   0.9033666666666667    0.6603599999999999    0.8137050000000000 H
   0.9842366666666666    0.9049300000000000    0.0000000000000000 H
   0.9339666666666666    0.9756800000000000    0.9498249999999999 H
   0.1584066666666666    0.7632600000000000    0.6768149999999999 H
   0.1681133333333333    0.9024000000000000    0.6944850000000000 H
   0.3015600000000000    0.9533100000000000    0.7551399999999999 H
   0.3252166666666667    0.8024600000000000    0.7000900000000000 H
   0.1979833333333333    0.8664300000000000    0.6169700000000000 H
   0.2201733333333333    0.7103600000000000    0.5638500000000000 H
   0.1731633333333333    0.0000000000000000    0.4057000000000000 H
   0.1318933333333333    0.8262100000000000    0.4170950000000000 H
   0.1601800000000000    0.9900800000000000    0.5942499999999999 H
   0.2014500000000000    0.1738300000000000    0.5828750000000000 H
   0.1749400000000000    0.2367900000000000    0.3231600000000000 H
   0.1652333333333333    0.0976500000000000    0.3054850000000000 H
   0.1353600000000000    0.1336200000000000    0.3830000000000000 H
   0.1131700000000000    0.2896900000000000    0.4361050000000000 H
   0.0317866666666667    0.0467400000000000    0.2448300000000000 H
   0.0081266666666667    0.1975800000000000    0.2998800000000000 H
   0.4123233333333333    0.5249200000000001    0.0725250000000000 H
   0.3659300000000000    0.4953900000000000    0.0550800000000000 H
   0.3491100000000000    0.0951100000000000    0.9950049999999999 H
   0.3993800000000000    0.0243600000000000    0.0501450000000000 H
   0.3780133333333333    0.4061900000000000    0.1330100000000000 H
   0.4299800000000000    0.3396900000000000    0.1862650000000000 H
   0.6666666666666666    0.5188700000000001    0.1556000000000000 H
   0.6086266666666666    0.3955200000000000    0.1673000000000000 H
   0.6635033333333333    0.4811700000000000    0.3443700000000000 H
   0.7247199999999999    0.6045199999999999    0.3326700000000000 H
   0.9210233333333333    0.4751300000000000    0.4274500000000000 H
   0.9674133333333332    0.5046600000000000    0.4448900000000000 H
   0.9553300000000000    0.5938500000000000    0.3669600000000000 H
   0.9033666666666667    0.6603599999999999    0.3137050000000000 H
   0.9842366666666666    0.9049300000000000    0.5000000000000000 H
   0.9339666666666666    0.9756800000000000    0.4498250000000000 H
   0.1584066666666666    0.7632600000000000    0.1768150000000000 H
   0.1681133333333333    0.9024000000000000    0.1944850000000000 H
   0.3015600000000000    0.9533100000000000    0.2551400000000000 H
   0.3252166666666667    0.8024600000000000    0.2000900000000000 H
   0.1979833333333333    0.8664300000000000    0.1169700000000000 H
   0.2201733333333333    0.7103600000000000    0.0638500000000000 H
   0.1731633333333333    0.0000000000000000    0.9056999999999999 H
   0.1318933333333333    0.8262100000000000    0.9170950000000000 H
   0.1601800000000000    0.9900800000000000    0.0942500000000000 H
   0.2014500000000000    0.1738300000000000    0.0828750000000000 H
   0.0888771332896549    0.3842368553986218    0.9211619724933920 H
   0.1000903755278623    0.4524063130319976    0.9488489528946811 H
   0.0789900000000000    0.5249200000000001    0.5725250000000000 H
   0.0325966666666667    0.4953900000000000    0.5550800000000000 H
   0.0157766666666667    0.0951100000000000    0.4950050000000000 H
   0.0660466666666667    0.0243600000000000    0.5501450000000000 H
   0.0446800000000000    0.4061900000000000    0.6330100000000000 H
   0.0966466666666667    0.3396900000000000    0.6862650000000000 H
   0.3333333333333333    0.5188700000000001    0.6556000000000000 H
   0.2752933333333333    0.3955200000000000    0.6673000000000000 H
   0.3301700000000000    0.4811700000000000    0.8443700000000001 H
   0.3913866666666667    0.6045199999999999    0.8326700000000000 H
   0.5876900000000000    0.4751300000000000    0.9274500000000000 H
   0.6340800000000000    0.5046600000000000    0.9448900000000000 H
   0.6219966666666666    0.5938500000000000    0.8669600000000000 H
   0.5700333333333333    0.6603599999999999    0.8137050000000000 H
   0.6509033333333333    0.9049300000000000    0.0000000000000000 H
   0.6006333333333334    0.9756800000000000    0.9498249999999999 H
   0.0457743012054326    0.9081487643567498    0.7204884112244571 H
   0.1749400000000000    0.2367900000000000    0.8231600000000000 H
   0.1652333333333333    0.0976500000000000    0.8054850000000000 H
   0.1533865408450694    1.0271523383202090    0.8306288988689212 H
   0.1022347594850906    0.9775809649457173    0.7817536521617857 H
   0.8250733333333333    0.7632600000000000    0.6768149999999999 H
   0.8347800000000000    0.9024000000000000    0.6944850000000000 H
   0.9682266666666666    0.9533100000000000    0.7551399999999999 H
   0.9918833333333332    0.8024600000000000    0.7000900000000000 H
   0.8646499999999999    0.8664300000000000    0.6169700000000000 H
   0.8868400000000000    0.7103600000000000    0.5638500000000000 H
   0.8398300000000000    0.0000000000000000    0.4057000000000000 H
   0.7985599999999999    0.8262100000000000    0.4170950000000000 H
   0.8268466666666666    0.9900800000000000    0.5942499999999999 H
   0.8681166666666666    0.1738300000000000    0.5828750000000000 H
   0.8416066666666666    0.2367900000000000    0.3231600000000000 H
   0.8319000000000000    0.0976500000000000    0.3054850000000000 H
   0.8020266666666667    0.1336200000000000    0.3830000000000000 H
   0.7798366666666666    0.2896900000000000    0.4361050000000000 H
   0.6984533333333333    0.0467400000000000    0.2448300000000000 H
   0.6747933333333332    0.1975800000000000    0.2998800000000000 H
   0.0789900000000000    0.5249200000000001    0.0725250000000000 H
   0.0325966666666667    0.4953900000000000    0.0550800000000000 H
   0.0157766666666667    0.0951100000000000    0.9950049999999999 H
   0.0660466666666667    0.0243600000000000    0.0501450000000000 H
   0.0446800000000000    0.4061900000000000    0.1330100000000000 H
   0.0966466666666667    0.3396900000000000    0.1862650000000000 H
   0.3333333333333333    0.5188700000000001    0.1556000000000000 H
   0.2752933333333333    0.3955200000000000    0.1673000000000000 H
   0.3301700000000000    0.4811700000000000    0.3443700000000000 H
   0.3913866666666667    0.6045199999999999    0.3326700000000000 H
   0.5876900000000000    0.4751300000000000    0.4274500000000000 H
   0.6340800000000000    0.5046600000000000    0.4448900000000000 H
   0.6219966666666666    0.5938500000000000    0.3669600000000000 H
   0.5700333333333333    0.6603599999999999    0.3137050000000000 H
   0.6509033333333333    0.9049300000000000    0.5000000000000000 H
   0.6006333333333334    0.9756800000000000    0.4498250000000000 H
   0.8250733333333333    0.7632600000000000    0.1768150000000000 H
   0.8347800000000000    0.9024000000000000    0.1944850000000000 H
   0.9682266666666666    0.9533100000000000    0.2551400000000000 H
   0.9918833333333332    0.8024600000000000    0.2000900000000000 H
   0.8646499999999999    0.8664300000000000    0.1169700000000000 H
   0.8868400000000000    0.7103600000000000    0.0638500000000000 H
   0.8398300000000000    0.0000000000000000    0.9056999999999999 H
   0.7985599999999999    0.8262100000000000    0.9170950000000000 H
   0.8268466666666666    0.9900800000000000    0.0942500000000000 H
   0.8681166666666666    0.1738300000000000    0.0828750000000000 H
   0.8416066666666666    0.2367900000000000    0.8231600000000000 H
   0.8319000000000000    0.0976500000000000    0.8054850000000000 H
   0.8020266666666667    0.1336200000000000    0.8830000000000000 H
   0.7798366666666666    0.2896900000000000    0.9361050000000000 H
   0.6984533333333333    0.0467400000000000    0.7448300000000000 H
   0.6747933333333332    0.1975800000000000    0.7998799999999999 H
   0.7456566666666666    0.5249200000000001    0.5725250000000000 H
   0.6992633333333333    0.4953900000000000    0.5550800000000000 H
   0.6824433333333333    0.0951100000000000    0.4950050000000000 H
   0.7327133333333333    0.0243600000000000    0.5501450000000000 H
   0.7113466666666666    0.4061900000000000    0.6330100000000000 H
   0.7633133333333333    0.3396900000000000    0.6862650000000000 H
   0.0000000000000000    0.5188700000000001    0.6556000000000000 H
   0.9419599999999999    0.3955200000000000    0.6673000000000000 H
   0.9968366666666666    0.4811700000000000    0.8443700000000001 H
   0.0580533333333333    0.6045199999999999    0.8326700000000000 H
   0.2543566666666667    0.4751300000000000    0.9274500000000000 H
   0.3007466666666667    0.5046600000000000    0.9448900000000000 H
   0.2886633333333333    0.5938500000000000    0.8669600000000000 H
   0.2367000000000000    0.6603599999999999    0.8137050000000000 H
   0.3175700000000000    0.9049300000000000    0.0000000000000000 H
   0.2673000000000000    0.9756800000000000    0.9498249999999999 H
   0.4917400000000000    0.7632600000000000    0.6768149999999999 H
   0.5014466666666666    0.9024000000000000    0.6944850000000000 H
   0.6348933333333333    0.9533100000000000    0.7551399999999999 H
   0.6585500000000000    0.8024600000000000    0.7000900000000000 H
   0.5313166666666667    0.8664300000000000    0.6169700000000000 H
   0.5535066666666666    0.7103600000000000    0.5638500000000000 H
   0.5064966666666666    0.0000000000000000    0.4057000000000000 H
   0.4652266666666666    0.8262100000000000    0.4170950000000000 H
   0.4935133333333333    0.9900800000000000    0.5942499999999999 H
   0.5347833333333334    0.1738300000000000    0.5828750000000000 H
   0.5082733333333334    0.2367900000000000    0.3231600000000000 H
   0.4985666666666666    0.0976500000000000    0.3054850000000000 H
   0.4686933333333333    0.1336200000000000    0.3830000000000000 H
   0.4465033333333333    0.2896900000000000    0.4361050000000000 H
   0.3651200000000000    0.0467400000000000    0.2448300000000000 H
   0.3414600000000000    0.1975800000000000    0.2998800000000000 H
   0.7456566666666666    0.5249200000000001    0.0725250000000000 H
   0.6992633333333333    0.4953900000000000    0.0550800000000000 H
   0.6824433333333333    0.0951100000000000    0.9950049999999999 H
   0.7327133333333333    0.0243600000000000    0.0501450000000000 H
   0.7113466666666666    0.4061900000000000    0.1330100000000000 H
   0.7633133333333333    0.3396900000000000    0.1862650000000000 H
   0.0000000000000000    0.5188700000000001    0.1556000000000000 H
   0.9419599999999999    0.3955200000000000    0.1673000000000000 H
   0.9968366666666666    0.4811700000000000    0.3443700000000000 H
   0.0580533333333333    0.6045199999999999    0.3326700000000000 H
   0.2543566666666667    0.4751300000000000    0.4274500000000000 H
   0.3007466666666667    0.5046600000000000    0.4448900000000000 H
   0.2886633333333333    0.5938500000000000    0.3669600000000000 H
   0.2367000000000000    0.6603599999999999    0.3137050000000000 H
   0.3175700000000000    0.9049300000000000    0.5000000000000000 H
   0.2673000000000000    0.9756800000000000    0.4498250000000000 H
   0.4917400000000000    0.7632600000000000    0.1768150000000000 H
   0.5014466666666666    0.9024000000000000    0.1944850000000000 H
   0.6348933333333333    0.9533100000000000    0.2551400000000000 H
   0.6585500000000000    0.8024600000000000    0.2000900000000000 H
   0.5313166666666667    0.8664300000000000    0.1169700000000000 H
   0.5535066666666666    0.7103600000000000    0.0638500000000000 H
   0.5064966666666666    0.0000000000000000    0.9056999999999999 H
   0.4652266666666666    0.8262100000000000    0.9170950000000000 H
   0.4935133333333333    0.9900800000000000    0.0942500000000000 H
   0.5347833333333334    0.1738300000000000    0.0828750000000000 H
   0.5082733333333334    0.2367900000000000    0.8231600000000000 H
   0.4985666666666666    0.0976500000000000    0.8054850000000000 H
   0.4686933333333333    0.1336200000000000    0.8830000000000000 H
   0.4465033333333333    0.2896900000000000    0.9361050000000000 H
   0.3651200000000000    0.0467400000000000    0.7448300000000000 H
   0.3414600000000000    0.1975800000000000    0.7998799999999999 H
   0.4477633333333333    0.1338800000000000    0.6551500000000000 C
   0.3277566666666666    0.2894200000000000    0.5273200000000000 C
   0.3666466666666667    0.1473500000000000    0.5371800000000000 C
   0.3947466666666666    0.1081900000000000    0.5680300000000000 C
   0.3830800000000000    0.3236900000000000    0.6142100000000000 C
   0.4119466666666666    0.2859200000000000    0.6445250000000000 C
   0.4175766666666667    0.1771300000000000    0.6221000000000000 C
   0.3600900000000000    0.2544400000000000    0.5601800000000000 C
   0.5957233333333334    0.3581400000000000    0.7645600000000000 C
   0.7376233333333333    0.6419000000000000    0.7354100000000000 C
   0.6666666666666666    0.5094700000000000    0.6967449999999999 C
   0.6341166666666667    0.4416000000000000    0.7033050000000001 C
   0.6321866666666667    0.4317300000000000    0.7567250000000000 C
   0.6650266666666667    0.4905700000000000    0.8032250000000001 C
   0.6992266666666667    0.5584400000000000    0.7966650000000000 C
   0.7011600000000000    0.5683200000000000    0.7432449999999999 C
   0.8855833333333333    0.8661700000000000    0.8448200000000000 C
   0.0055866666666667    0.7106200000000000    0.9726500000000000 C
   0.9502633333333332    0.6763500000000000    0.8857600000000000 C
   0.9214000000000000    0.7141300000000000    0.8554450000000000 C
   0.9157666666666666    0.8229100000000000    0.8778699999999999 C
   0.9666999999999999    0.8526899999999999    0.9627900000000000 C
   0.9385999999999999    0.8918600000000000    0.9319400000000000 C
   0.9732566666666667    0.7456000000000000    0.9397900000000000 C
   0.2887266666666666    0.6568900000000000    0.5951800000000000 C
   0.2367766666666667    0.0172100000000000    0.7227049999999999 C
   0.2841833333333333    0.9006400000000000    0.7129550000000000 C
   0.2972733333333333    0.8163000000000000    0.6821699999999999 C
   0.2254600000000000    0.8512200000000000    0.6358400000000000 C
   0.2380700000000000    0.7645300000000000    0.6056049999999999 C
   0.2743200000000000    0.7476800000000000    0.6281099999999999 C
   0.2484900000000000    0.9202300000000000    0.6898900000000000 C
   0.2141233333333333    0.2129600000000000    0.4857700000000000 C
   0.1192200000000000    0.7870800000000000    0.5142000000000000 C
   0.1699400000000000    0.0000000000000000    0.4468100000000000 C
   0.1472233333333333    0.9025500000000000    0.4531800000000000 C
   0.1634033333333333    0.9948300000000000    0.5531600000000000 C
   0.1861166666666667    0.0974900000000000    0.5467900000000000 C
   0.1438333333333333    0.8964900000000000    0.5065450000000000 C
   0.1895066666666667    0.1035500000000000    0.4934250000000000 C
   0.0446166666666667    0.3431500000000000    0.4047900000000000 C
   0.0965666666666667    0.9828300000000000    0.2772650000000000 C
   0.1078833333333333    0.1488300000000000    0.3641250000000000 C
   0.0952733333333333    0.2355100000000000    0.3943650000000000 C
   0.0590233333333333    0.2523700000000000    0.3718600000000000 C
   0.0491600000000000    0.0994000000000000    0.2870150000000000 C
   0.0360700000000000    0.1837500000000000    0.3177950000000000 C
   0.0848566666666667    0.0798200000000000    0.3100750000000000 C
   0.4477633333333333    0.1338800000000000    0.1551500000000000 C
   0.3277566666666666    0.2894200000000000    0.0273200000000000 C
   0.3666466666666667    0.1473500000000000    0.0371800000000000 C
   0.3947466666666666    0.1081900000000000    0.0680300000000000 C
   0.3830800000000000    0.3236900000000000    0.1142100000000000 C
   0.4119466666666666    0.2859200000000000    0.1445250000000000 C
   0.4175766666666667    0.1771300000000000    0.1221000000000000 C
   0.3600900000000000    0.2544400000000000    0.0601800000000000 C
   0.5957233333333334    0.3581400000000000    0.2645600000000000 C
   0.7376233333333333    0.6419000000000000    0.2354100000000000 C
   0.6666666666666666    0.5094700000000000    0.1967450000000000 C
   0.6341166666666667    0.4416000000000000    0.2033050000000000 C
   0.6321866666666667    0.4317300000000000    0.2567250000000000 C
   0.6650266666666667    0.4905700000000000    0.3032250000000000 C
   0.6992266666666667    0.5584400000000000    0.2966650000000000 C
   0.7011600000000000    0.5683200000000000    0.2432450000000000 C
   0.8855833333333333    0.8661700000000000    0.3448200000000000 C
   0.0055866666666667    0.7106200000000000    0.4726500000000000 C
   0.9502633333333332    0.6763500000000000    0.3857600000000000 C
   0.9214000000000000    0.7141300000000000    0.3554450000000000 C
   0.9157666666666666    0.8229100000000000    0.3778700000000000 C
   0.9666999999999999    0.8526899999999999    0.4627900000000000 C
   0.9385999999999999    0.8918600000000000    0.4319400000000000 C
   0.9732566666666667    0.7456000000000000    0.4397900000000000 C
   0.2887266666666666    0.6568900000000000    0.0951800000000000 C
   0.2367766666666667    0.0172100000000000    0.2227050000000000 C
   0.2841833333333333    0.9006400000000000    0.2129550000000000 C
   0.2972733333333333    0.8163000000000000    0.1821700000000000 C
   0.2254600000000000    0.8512200000000000    0.1358400000000000 C
   0.2380700000000000    0.7645300000000000    0.1056050000000000 C
   0.2743200000000000    0.7476800000000000    0.1281100000000000 C
   0.2484900000000000    0.9202300000000000    0.1898900000000000 C
   0.2141233333333333    0.2129600000000000    0.9857700000000000 C
   0.1192200000000000    0.7870800000000000    0.0142000000000000 C
   0.1699400000000000    0.0000000000000000    0.9468099999999999 C
   0.1472233333333333    0.9025500000000000    0.9531800000000000 C
   0.1634033333333333    0.9948300000000000    0.0531600000000000 C
   0.1861166666666667    0.0974900000000000    0.0467900000000000 C
   0.1438333333333333    0.8964900000000000    0.0065450000000000 C
   0.1895066666666667    0.1035500000000000    0.9934250000000000 C
   0.1144300000000000    0.1338800000000000    0.6551500000000000 C
   0.9944233333333332    0.2894200000000000    0.5273200000000000 C
   0.0333133333333333    0.1473500000000000    0.5371800000000000 C
   0.0614133333333333    0.1081900000000000    0.5680300000000000 C
   0.0497466666666667    0.3236900000000000    0.6142100000000000 C
   0.0786133333333333    0.2859200000000000    0.6445250000000000 C
   0.0842433333333333    0.1771300000000000    0.6221000000000000 C
   0.0267566666666667    0.2544400000000000    0.5601800000000000 C
   0.2623900000000000    0.3581400000000000    0.7645600000000000 C
   0.4042900000000000    0.6419000000000000    0.7354100000000000 C
   0.3333333333333333    0.5094700000000000    0.6967449999999999 C
   0.3007833333333333    0.4416000000000000    0.7033050000000001 C
   0.2988533333333333    0.4317300000000000    0.7567250000000000 C
   0.3316933333333333    0.4905700000000000    0.8032250000000001 C
   0.3658933333333333    0.5584400000000000    0.7966650000000000 C
   0.3678266666666666    0.5683200000000000    0.7432449999999999 C
   0.5522499999999999    0.8661700000000000    0.8448200000000000 C
   0.6722533333333333    0.7106200000000000    0.9726500000000000 C
   0.6169300000000000    0.6763500000000000    0.8857600000000000 C
   0.5880666666666666    0.7141300000000000    0.8554450000000000 C
   0.5824333333333334    0.8229100000000000    0.8778699999999999 C
   0.6333666666666666    0.8526899999999999    0.9627900000000000 C
   0.6052666666666666    0.8918600000000000    0.9319400000000000 C
   0.6399233333333333    0.7456000000000000    0.9397900000000000 C
   0.9553933333333333    0.6568900000000000    0.5951800000000000 C
   0.9034433333333333    0.0172100000000000    0.7227049999999999 C
   0.9508500000000000    0.9006400000000000    0.7129550000000000 C
   0.9639399999999999    0.8163000000000000    0.6821699999999999 C
   0.8921266666666666    0.8512200000000000    0.6358400000000000 C
   0.9047366666666666    0.7645300000000000    0.6056049999999999 C
   0.9409866666666666    0.7476800000000000    0.6281099999999999 C
   0.9151566666666666    0.9202300000000000    0.6898900000000000 C
   0.8807900000000000    0.2129600000000000    0.4857700000000000 C
   0.7858866666666666    0.7870800000000000    0.5142000000000000 C
   0.8366066666666666    0.0000000000000000    0.4468100000000000 C
   0.8138900000000000    0.9025500000000000    0.4531800000000000 C
   0.8300700000000000    0.9948300000000000    0.5531600000000000 C
   0.8527833333333332    0.0974900000000000    0.5467900000000000 C
   0.8105000000000000    0.8964900000000000    0.5065450000000000 C
   0.8561733333333332    0.1035500000000000    0.4934250000000000 C
   0.7112833333333333    0.3431500000000000    0.4047900000000000 C
   0.7632333333333333    0.9828300000000000    0.2772650000000000 C
   0.7745500000000000    0.1488300000000000    0.3641250000000000 C
   0.7619400000000000    0.2355100000000000    0.3943650000000000 C
   0.7256899999999999    0.2523700000000000    0.3718600000000000 C
   0.7158266666666666    0.0994000000000000    0.2870150000000000 C
   0.7027366666666667    0.1837500000000000    0.3177950000000000 C
   0.7515233333333333    0.0798200000000000    0.3100750000000000 C
   0.1144300000000000    0.1338800000000000    0.1551500000000000 C
   0.9944233333333332    0.2894200000000000    0.0273200000000000 C
   0.0333133333333333    0.1473500000000000    0.0371800000000000 C
   0.0614133333333333    0.1081900000000000    0.0680300000000000 C
   0.0497466666666667    0.3236900000000000    0.1142100000000000 C
   0.0786133333333333    0.2859200000000000    0.1445250000000000 C
   0.0842433333333333    0.1771300000000000    0.1221000000000000 C
   0.0267566666666667    0.2544400000000000    0.0601800000000000 C
   0.2623900000000000    0.3581400000000000    0.2645600000000000 C
   0.4042900000000000    0.6419000000000000    0.2354100000000000 C
   0.3333333333333333    0.5094700000000000    0.1967450000000000 C
   0.3007833333333333    0.4416000000000000    0.2033050000000000 C
   0.2988533333333333    0.4317300000000000    0.2567250000000000 C
   0.3316933333333333    0.4905700000000000    0.3032250000000000 C
   0.3658933333333333    0.5584400000000000    0.2966650000000000 C
   0.3678266666666666    0.5683200000000000    0.2432450000000000 C
   0.5522499999999999    0.8661700000000000    0.3448200000000000 C
   0.6722533333333333    0.7106200000000000    0.4726500000000000 C
   0.6169300000000000    0.6763500000000000    0.3857600000000000 C
   0.5880666666666666    0.7141300000000000    0.3554450000000000 C
   0.5824333333333334    0.8229100000000000    0.3778700000000000 C
   0.6333666666666666    0.8526899999999999    0.4627900000000000 C
   0.6052666666666666    0.8918600000000000    0.4319400000000000 C
   0.6399233333333333    0.7456000000000000    0.4397900000000000 C
   0.9553933333333333    0.6568900000000000    0.0951800000000000 C
   0.9034433333333333    0.0172100000000000    0.2227050000000000 C
   0.9508500000000000    0.9006400000000000    0.2129550000000000 C
   0.9639399999999999    0.8163000000000000    0.1821700000000000 C
   0.8921266666666666    0.8512200000000000    0.1358400000000000 C
   0.9047366666666666    0.7645300000000000    0.1056050000000000 C
   0.9409866666666666    0.7476800000000000    0.1281100000000000 C
   0.9151566666666666    0.9202300000000000    0.1898900000000000 C
   0.8807900000000000    0.2129600000000000    0.9857700000000000 C
   0.7858866666666666    0.7870800000000000    0.0142000000000000 C
   0.8366066666666666    0.0000000000000000    0.9468099999999999 C
   0.8138900000000000    0.9025500000000000    0.9531800000000000 C
   0.8300700000000000    0.9948300000000000    0.0531600000000000 C
   0.8527833333333332    0.0974900000000000    0.0467900000000000 C
   0.8105000000000000    0.8964900000000000    0.0065450000000000 C
   0.8561733333333332    0.1035500000000000    0.9934250000000000 C
   0.7112833333333333    0.3431500000000000    0.9047900000000000 C
   0.7632333333333333    0.9828300000000000    0.7772650000000000 C
   0.7745500000000000    0.1488300000000000    0.8641250000000000 C
   0.7619400000000000    0.2355100000000000    0.8943650000000001 C
   0.7256899999999999    0.2523700000000000    0.8718600000000001 C
   0.7158266666666666    0.0994000000000000    0.7870150000000000 C
   0.7027366666666667    0.1837500000000000    0.8177950000000000 C
   0.7515233333333333    0.0798200000000000    0.8100750000000000 C
   0.7810966666666667    0.1338800000000000    0.6551500000000000 C
   0.6610900000000000    0.2894200000000000    0.5273200000000000 C
   0.6999799999999999    0.1473500000000000    0.5371800000000000 C
   0.7280799999999999    0.1081900000000000    0.5680300000000000 C
   0.7164133333333333    0.3236900000000000    0.6142100000000000 C
   0.7452799999999999    0.2859200000000000    0.6445250000000000 C
   0.7509100000000000    0.1771300000000000    0.6221000000000000 C
   0.6934233333333333    0.2544400000000000    0.5601800000000000 C
   0.9290566666666666    0.3581400000000000    0.7645600000000000 C
   0.0709566666666667    0.6419000000000000    0.7354100000000000 C
   0.0000000000000000    0.5094700000000000    0.6967449999999999 C
   0.9674499999999999    0.4416000000000000    0.7033050000000001 C
   0.9655199999999999    0.4317300000000000    0.7567250000000000 C
   0.9983599999999999    0.4905700000000000    0.8032250000000001 C
   0.0325600000000000    0.5584400000000000    0.7966650000000000 C
   0.0344933333333333    0.5683200000000000    0.7432449999999999 C
   0.2189166666666666    0.8661700000000000    0.8448200000000000 C
   0.3389200000000000    0.7106200000000000    0.9726500000000000 C
   0.2835966666666667    0.6763500000000000    0.8857600000000000 C
   0.2547333333333333    0.7141300000000000    0.8554450000000000 C
   0.2491000000000000    0.8229100000000000    0.8778699999999999 C
   0.3000333333333333    0.8526899999999999    0.9627900000000000 C