B1 H12 C12 N8
1.0
  12.9255823267389793    0.0000000000000000   -1.8897858383142137
 -19.5592875552821006   33.3953535402316248   -5.6231927099047017
   0.0000000000000000    0.0000000000000000   17.8359999999999985
B H C N
1 12 12 8
direct
   0.2831600000000000    0.3257333333333333    0.0475700000000000 B
   0.9807800000000000    0.2955400000000000    0.1883300000000000 H
   0.0439100000000000    0.2541766666666667    0.9791299999999999 H
   0.2397800000000000    0.3137833333333333    0.8787000000000000 H
   0.2444100000000000    0.2075966666666667    0.8944900000000000 H
   0.2932400000000000    0.2518700000000000    0.0425300000000000 H
   0.3280700000000000    0.2883500000000000    0.1696700000000000 H
   0.2162500000000000    0.3489600000000000    0.1875800000000000 H
   0.4229100000000000    0.4369000000000000    0.9313000000000000 H
   0.4582800000000000    0.3763766666666666    0.9699000000000000 H
   0.1538700000000000    0.3691733333333333    0.0402100000000000 H
   0.5410500000000000    0.3370966666666667    0.2809800000000000 H
   0.5096100000000000    0.4009566666666666    0.1155800000000000 H
   0.1475000000000000    0.3217733333333333    0.1448400000000000 C
   0.0314700000000000    0.2958100000000000    0.1452000000000000 C
   0.0617500000000000    0.2729300000000000    0.0362300000000000 C
   0.2476300000000000    0.2908733333333333    0.9022300000000000 C
   0.2504300000000000    0.2363533333333333    0.9126100000000000 C
   0.2766500000000000    0.2585533333333333    0.9867700000000000 C
   0.3980900000000000    0.3186366666666667    0.1739000000000000 C
   0.3722900000000000    0.4137133333333333    0.9596600000000000 C
   0.3903500000000000    0.3839166666666666    0.9786100000000000 C
   0.2313600000000000    0.3795600000000000    0.0155400000000000 C
   0.5030000000000000    0.3432433333333333    0.2299200000000000 C
   0.4902300000000000    0.3771033333333333    0.1451400000000000 C
   0.9790600000000000    0.2654200000000000    0.0773200000000000 N
   0.1664900000000000    0.3070033333333333    0.0752900000000000 N
   0.2323300000000000    0.2569833333333333    0.8595800000000000 N
   0.2756800000000000    0.2934400000000000    0.9802500000000000 N
   0.2724800000000000    0.4107100000000000    0.9831400000000000 N
   0.3001200000000000    0.3620700000000000    0.0143900000000000 N
   0.3903800000000000    0.3401700000000000    0.1197000000000000 N
   0.5602700000000000    0.3801266666666667    0.2113000000000000 N
