Zn18 B11 H185 C228 N88 O52
1.0
  12.9255823267389793    0.0000000000000000   -1.8897858383142137
 -19.5592875552821006   33.3953535402316248   -5.6231927099047017
   0.0000000000000000    0.0000000000000000   17.8359999999999985
Zn B H C N O
18 11 185 228 88 52
direct
   0.1935100000000000    0.4443500000000000    0.9588800000000000 Zn
   0.6669000000000000    0.6019633333333333    0.5409500000000000 Zn
   0.2608800000000000    0.2465033333333333    0.7500900000000000 Zn
   0.1935100000000000    0.1110166666666667    0.9588800000000000 Zn
   0.6669000000000000    0.2686300000000000    0.5409500000000000 Zn
   0.2608800000000000    0.9131699999999999    0.7500900000000000 Zn
   0.1935100000000000    0.7776833333333333    0.9588800000000000 Zn
   0.6669000000000000    0.9352966666666667    0.5409500000000000 Zn
   0.2608800000000000    0.5798366666666667    0.7500900000000000 Zn
   0.8064800000000000    0.5556566666666667    0.0411400000000000 Zn
   0.3330900000000000    0.3980433333333333    0.4590800000000000 Zn
   0.7391100000000000    0.0868366666666667    0.2499400000000000 Zn
   0.8064800000000000    0.2223233333333333    0.0411400000000000 Zn
   0.3330900000000000    0.0647100000000000    0.4590800000000000 Zn
   0.7391100000000000    0.7535033333333333    0.2499400000000000 Zn
   0.8064800000000000    0.8889899999999999    0.0411400000000000 Zn
   0.3330900000000000    0.7313766666666666    0.4590800000000000 Zn
   0.7391100000000000    0.4201700000000000    0.2499400000000000 Zn
   0.7168200000000000    0.3409400000000000    0.9524600000000000 B
   0.9773200000000000    0.7610600000000000    0.5473100000000000 B
   0.7168200000000000    0.0076066666666667    0.9524600000000000 B
   0.9773200000000000    0.4277266666666666    0.5473100000000000 B
   0.7168200000000000    0.6742733333333333    0.9524600000000000 B
   0.9773200000000000    0.0943933333333333    0.5473100000000000 B
   0.2831600000000000    0.6590666666666667    0.0475700000000000 B
   0.0226700000000000    0.2389466666666667    0.4527100000000000 B
   0.0226700000000000    0.9056133333333333    0.4527100000000000 B
   0.2831600000000000    0.9923999999999999    0.0475700000000000 B
   0.0226700000000000    0.5722800000000000    0.4527100000000000 B
   0.2423061265587699    0.3878521167875895    1.0069151337426034 H
   0.2435201317949308    0.2817698409496865    0.8907734066048234 H
   0.7602100000000001    0.3528933333333333    0.1213300000000000 H
   0.7067400000000000    0.4148033333333333    0.9574900000000000 H
   0.7555700000000000    0.4590766666666666    0.1055300000000000 H
   0.4903700000000000    0.2657200000000000    0.8844600000000000 H
   0.6719300000000000    0.3783200000000000    0.8303500000000000 H
   0.4589400000000000    0.3295633333333333    0.7190400000000000 H
   0.8461200000000000    0.2975000000000000    0.9598100000000001 H
   0.5417100000000000    0.2903000000000000    0.0300000000000000 H
   0.5770800000000000    0.2297766666666667    0.0687100000000000 H
   0.9560800000000000    0.4125000000000000    0.0208900000000000 H
   0.0192100000000000    0.3711300000000000    0.8117000000000000 H
   0.7837400000000000    0.3177100000000000    0.8124500000000000 H
   0.9409500000000000    0.7464266666666666    0.3783700000000000 H
   0.7564200000000000    0.7645333333333333    0.5424400000000000 H
   0.6231600000000000    0.7479733333333333    0.3944000000000000 H
   0.2028500000000000    0.8365633333333333    0.6154500000000001 H
   0.8655600000000000    0.7761000000000000    0.6694099999999999 H
   0.0120700000000000    0.8470833333333333    0.7809800000000000 H
   0.1078600000000000    0.7180099999999999    0.5402500000000000 H
   0.1284100000000000    0.8194699999999999    0.4693600000000000 H
   0.3100200000000000    0.8078299999999999    0.4310300000000000 H
   0.7629700000000000    0.6812166666666666    0.4788000000000000 H
   0.8858700000000000    0.6601033333333333    0.6883700000000000 H
   0.0465900000000000    0.7386366666666666    0.6874000000000000 H
   0.4117400000000000    0.5008266666666666    0.6051200000000000 H
   0.2724000000000000    0.4521933333333333    0.6713300000000000 H
   0.4969400000000000    0.5292200000000000    0.8947500000000000 H
   0.6430100000000000    0.5755766666666666    0.8285300000000000 H
   0.3949000000000000    0.5526900000000000    0.1176700000000000 H
   0.5474100000000000    0.6045966666666667    0.2378300000000000 H
   0.3415000000000000    0.5350900000000000    0.3819600000000000 H
   0.1852600000000000    0.4844499999999999    0.2618100000000000 H
   0.7602100000000001    0.0195600000000000    0.1213300000000000 H
   0.7067400000000000    0.0814700000000000    0.9574900000000000 H
   0.7555700000000000    0.1257433333333333    0.1055300000000000 H
   0.4903700000000000    0.9323866666666666    0.8844600000000000 H
   0.6719300000000000    0.0449866666666667    0.8303500000000000 H
   0.4589400000000000    0.9962299999999999    0.7190400000000000 H
   0.8461200000000000    0.9641666666666666    0.9598100000000001 H
   0.5417100000000000    0.9569666666666666    0.0300000000000000 H
   0.5770800000000000    0.8964433333333333    0.0687100000000000 H
   0.9560800000000000    0.0791666666666667    0.0208900000000000 H
   0.0192100000000000    0.0377966666666667    0.8117000000000000 H
   0.7837400000000000    0.9843766666666667    0.8124500000000000 H
   0.9409500000000000    0.4130933333333333    0.3783700000000000 H
   0.7564200000000000    0.4312000000000000    0.5424400000000000 H
   0.6231600000000000    0.4146400000000000    0.3944000000000000 H
   0.2028500000000000    0.5032300000000000    0.6154500000000001 H
   0.8655600000000000    0.4427666666666666    0.6694099999999999 H
   0.0120700000000000    0.5137499999999999    0.7809800000000000 H
   0.1078600000000000    0.3846766666666667    0.5402500000000000 H
   0.1284100000000000    0.4861366666666667    0.4693600000000000 H
   0.3100200000000000    0.4744966666666666    0.4310300000000000 H
   0.7629700000000000    0.3478833333333333    0.4788000000000000 H
   0.8858700000000000    0.3267700000000000    0.6883700000000000 H
   0.0465900000000000    0.4053033333333333    0.6874000000000000 H
   0.4117400000000000    0.1674933333333333    0.6051200000000000 H
   0.2724000000000000    0.1188600000000000    0.6713300000000000 H
   0.4969400000000000    0.1958866666666667    0.8947500000000000 H
   0.6430100000000000    0.2422433333333333    0.8285300000000000 H
   0.3949000000000000    0.2193566666666667    0.1176700000000000 H
   0.5474100000000000    0.2712633333333333    0.2378300000000000 H
   0.3415000000000000    0.2017566666666666    0.3819600000000000 H
   0.1852600000000000    0.1511166666666666    0.2618100000000000 H
   0.7602100000000001    0.6862266666666667    0.1213300000000000 H
   0.7067400000000000    0.7481366666666667    0.9574900000000000 H
   0.7555700000000000    0.7924099999999999    0.1055300000000000 H
   0.4903700000000000    0.5990533333333332    0.8844600000000000 H
   0.6719300000000000    0.7116533333333332    0.8303500000000000 H
   0.4589400000000000    0.6628966666666667    0.7190400000000000 H
   0.8461200000000000    0.6308333333333334    0.9598100000000001 H
   0.5417100000000000    0.6236333333333333    0.0300000000000000 H
   0.5770800000000000    0.5631100000000000    0.0687100000000000 H
   0.9560800000000000    0.7458333333333333    0.0208900000000000 H
   0.0192100000000000    0.7044633333333333    0.8117000000000000 H
   0.7837400000000000    0.6510433333333333    0.8124500000000000 H
   0.9409500000000000    0.0797600000000000    0.3783700000000000 H
   0.7564200000000000    0.0978666666666667    0.5424400000000000 H
   0.6231600000000000    0.0813066666666667    0.3944000000000000 H
   0.2028500000000000    0.1698966666666666    0.6154500000000001 H
   0.8655600000000000    0.1094333333333333    0.6694099999999999 H
   0.0120700000000000    0.1804166666666667    0.7809800000000000 H
   0.1078600000000000    0.0513433333333333    0.5402500000000000 H
   0.1284100000000000    0.1528033333333333    0.4693600000000000 H
   0.3100200000000000    0.1411633333333333    0.4310300000000000 H
   0.7629700000000000    0.0145500000000000    0.4788000000000000 H
   0.8858700000000000    0.9934366666666666    0.6883700000000000 H
   0.0465900000000000    0.0719700000000000    0.6874000000000000 H
   0.4117400000000000    0.8341600000000000    0.6051200000000000 H
   0.2724000000000000    0.7855266666666666    0.6713300000000000 H
   0.4969400000000000    0.8625533333333333    0.8947500000000000 H
   0.6430100000000000    0.9089099999999999    0.8285300000000000 H
   0.3949000000000000    0.8860233333333333    0.1176700000000000 H
   0.5474100000000000    0.9379299999999999    0.2378300000000000 H
   0.3415000000000000    0.8684233333333333    0.3819600000000000 H
   0.1852600000000000    0.8177833333333333    0.2618100000000000 H
   0.2397800000000000    0.6471166666666666    0.8787000000000000 H
   0.2932400000000000    0.5852033333333333    0.0425300000000000 H
   0.2444100000000000    0.5409299999999999    0.8944900000000000 H
   0.5096100000000000    0.7342900000000000    0.1155800000000000 H
   0.3280700000000000    0.6216833333333334    0.1696700000000000 H
   0.5410500000000000    0.6704300000000000    0.2809800000000000 H
   0.1538700000000000    0.7025066666666666    0.0402100000000000 H
   0.4582800000000000    0.7097100000000000    0.9699000000000000 H
   0.4229100000000000    0.7702333333333333    0.9313000000000000 H
   0.0439100000000000    0.5875100000000000    0.9791299999999999 H
   0.9807800000000000    0.6288733333333333    0.1883300000000000 H
   0.2162500000000000    0.6822933333333333    0.1875800000000000 H
   0.0590400000000000    0.2535833333333333    0.6216500000000000 H
   0.2435600000000000    0.2354733333333333    0.4575000000000000 H
   0.3768300000000000    0.2520333333333333    0.6056200000000000 H
   0.7971400000000000    0.1634433333333333    0.3845800000000000 H
   0.1344300000000000    0.2239100000000000    0.3306100000000000 H
   0.9879300000000000    0.1529266666666667    0.2190400000000000 H
   0.8921300000000000    0.2819966666666667    0.4597000000000000 H
   0.8715800000000000    0.1805400000000000    0.5306700000000000 H
   0.6899700000000000    0.1921800000000000    0.5690000000000000 H
   0.2370300000000000    0.3187900000000000    0.5212200000000000 H
   0.1141100000000000    0.3399066666666666    0.3116600000000000 H
   0.9533900000000000    0.2613733333333333    0.3125800000000000 H
   0.5030400000000000    0.4707900000000000    0.1052800000000000 H
   0.3569700000000000    0.4244300000000000    0.1715000000000000 H
   0.5882500000000001    0.4991800000000000    0.3949100000000000 H
   0.7275900000000000    0.5478133333333333    0.3286900000000000 H
   0.6051000000000000    0.4473133333333333    0.8823500000000000 H
   0.4526000000000000    0.3954066666666666    0.7621900000000000 H
   0.6584800000000000    0.4649200000000000    0.6180700000000000 H
   0.8147200000000000    0.5155600000000000    0.7382200000000000 H
   1.0397046247527093    0.2709278139060690    0.0471847039413614 H
   0.0590400000000000    0.9202500000000000    0.6216500000000000 H
   0.2435600000000000    0.9021399999999999    0.4575000000000000 H
   0.3768300000000000    0.9187000000000000    0.6056200000000000 H
   0.7971400000000000    0.8301099999999999    0.3845800000000000 H
   0.1344300000000000    0.8905766666666666    0.3306100000000000 H
   0.9879300000000000    0.8195933333333333    0.2190400000000000 H
   0.8921300000000000    0.9486633333333333    0.4597000000000000 H
   0.8715800000000000    0.8472066666666667    0.5306700000000000 H
   0.6899700000000000    0.8588466666666666    0.5690000000000000 H
   0.2370300000000000    0.9854566666666666    0.5212200000000000 H
   0.1141100000000000    0.0065733333333333    0.3116600000000000 H
   0.9533900000000000    0.9280400000000000    0.3125800000000000 H
   0.5030400000000000    0.1374566666666667    0.1052800000000000 H
   0.3569700000000000    0.0910966666666667    0.1715000000000000 H
   0.5882500000000001    0.1658466666666666    0.3949100000000000 H
   0.7275900000000000    0.2144800000000000    0.3286900000000000 H
   0.6051000000000000    0.1139800000000000    0.8823500000000000 H
   0.4526000000000000    0.0620733333333333    0.7621900000000000 H
   0.6584800000000000    0.1315866666666667    0.6180700000000000 H
   0.8147200000000000    0.1822266666666667    0.7382200000000000 H
   0.5090202869619501    0.3779144312904287    0.1628893630126016 H
   0.5200037894384285    0.3541942052346319    0.2243916158661858 H
   0.2397800000000000    0.9804499999999999    0.8787000000000000 H
   0.2932400000000000    0.9185366666666666    0.0425300000000000 H
   0.2444100000000000    0.8742633333333333    0.8944900000000000 H
   0.5096100000000000    0.0676233333333333    0.1155800000000000 H
   0.3280700000000000    0.9550166666666666    0.1696700000000000 H
   0.5410500000000000    0.0037633333333333    0.2809800000000000 H
   0.1538700000000000    0.0358400000000000    0.0402100000000000 H
   0.4582800000000000    0.0430433333333333    0.9699000000000000 H
   0.4229100000000000    0.1035666666666667    0.9313000000000000 H
   0.0439100000000000    0.9208433333333332    0.9791299999999999 H
   0.9807800000000000    0.9622066666666667    0.1883300000000000 H
   0.2162500000000000    0.0156266666666667    0.1875800000000000 H
   0.0590400000000000    0.5869166666666666    0.6216500000000000 H
   0.2435600000000000    0.5688066666666667    0.4575000000000000 H
   0.3768300000000000    0.5853666666666666    0.6056200000000000 H
   0.7971400000000000    0.4967766666666666    0.3845800000000000 H
   0.1344300000000000    0.5572433333333333    0.3306100000000000 H
   0.9879300000000000    0.4862600000000000    0.2190400000000000 H
   0.8921300000000000    0.6153299999999999    0.4597000000000000 H
   0.8715800000000000    0.5138733333333333    0.5306700000000000 H
   0.6899700000000000    0.5255133333333333    0.5690000000000000 H
   0.2370300000000000    0.6521233333333334    0.5212200000000000 H
   0.1141100000000000    0.6732399999999999    0.3116600000000000 H
   0.9533900000000000    0.5947066666666667    0.3125800000000000 H
   0.5030400000000000    0.8041233333333333    0.1052800000000000 H
   0.3569700000000000    0.7577633333333333    0.1715000000000000 H
   0.5882500000000001    0.8325133333333332    0.3949100000000000 H
   0.7275900000000000    0.8811466666666666    0.3286900000000000 H
   0.6051000000000000    0.7806466666666666    0.8823500000000000 H
   0.4526000000000000    0.7287399999999999    0.7621900000000000 H
   0.6584800000000000    0.7982533333333333    0.6180700000000000 H
   0.8147200000000000    0.8488933333333333    0.7382200000000000 H
   0.7523600000000000    0.3758000000000000    0.0977900000000000 C
   0.7233300000000000    0.4081200000000000    0.0132500000000000 C
   0.7495500000000000    0.4303200000000000    0.0874000000000000 C
   0.5097600000000000    0.2895700000000000    0.8548900000000000 C
   0.6019000000000000    0.3480366666666667    0.8260400000000000 C
   0.4970000000000000    0.3234300000000000    0.7701000000000000 C
   0.7686200000000000    0.2871166666666666    0.9844900000000000 C
   0.6096400000000000    0.2827566666666667    0.0214200000000000 C
   0.6277000000000000    0.2529600000000000    0.0403700000000000 C
   0.9382400000000000    0.3937433333333333    0.9638000000000000 C
   0.9685200000000000    0.3708633333333333    0.8548000000000000 C
   0.8524900000000000    0.3448966666666666    0.8551900000000000 C
   0.8724800000000000    0.7490866666666667    0.4019700000000000 C
   0.7761400000000001    0.7588999999999999    0.4866100000000000 C
   0.7093300000000000    0.7500199999999999    0.4124800000000000 C
   0.1314800000000000    0.8301166666666666    0.6450100000000000 C
   0.9563199999999999    0.7994366666666666    0.6737800000000000 C
   0.0303000000000000    0.8343966666666667    0.7298400000000000 C
   0.1387300000000000    0.7438600000000000    0.5154500000000000 C
   0.1512700000000000    0.7968499999999999    0.4781800000000000 C
   0.2406700000000000    0.7909066666666666    0.4593900000000000 C
   0.8189400000000000    0.6871566666666666    0.5360000000000000 C
   0.8869800000000000    0.6770133333333332    0.6451700000000000 C
   0.9650800000000000    0.7157233333333333    0.6447000000000001 C
   0.6131400000000000    0.5729166666666666    0.6745000000000000 C
   0.2805000000000000    0.4621833333333333    0.8252800000000000 C
   0.4297400000000000    0.5068066666666666    0.6685500000000000 C
   0.3518300000000000    0.4800400000000000    0.7051800000000000 C
   0.3726600000000000    0.4888633333333333    0.7867600000000000 C
   0.4789900000000000    0.5232166666666667    0.8313000000000000 C
   0.5593900000000001    0.5491400000000000    0.7946800000000001 C
   0.5329600000000000    0.5422100000000000    0.7131000000000000 C
   0.1930800000000000    0.4836033333333333    0.1115000000000000 C
   0.5496600000000000    0.6020699999999999    0.3879900000000000 C
   0.3820400000000000    0.5500466666666667    0.1760000000000000 C
   0.4665000000000000    0.5785600000000000    0.2422800000000000 C
   0.4518700000000000    0.5732233333333333    0.3168200000000000 C
   0.3496000000000000    0.5393533333333334    0.3236100000000000 C
   0.2637600000000000    0.5113000000000000    0.2573400000000000 C
   0.2798900000000000    0.5161300000000000    0.1828000000000000 C
   0.7523600000000000    0.0424666666666667    0.0977900000000000 C
   0.7233300000000000    0.0747866666666667    0.0132500000000000 C
   0.7495500000000000    0.0969866666666667    0.0874000000000000 C
   0.5097600000000000    0.9562366666666666    0.8548900000000000 C
   0.6019000000000000    0.0147033333333333    0.8260400000000000 C
   0.4970000000000000    0.9900966666666666    0.7701000000000000 C
   0.7686200000000000    0.9537833333333332    0.9844900000000000 C
   0.6096400000000000    0.9494233333333333    0.0214200000000000 C
   0.6277000000000000    0.9196266666666666    0.0403700000000000 C
   0.9382400000000000    0.0604100000000000    0.9638000000000000 C
   0.9685200000000000    0.0375300000000000    0.8548000000000000 C
   0.8524900000000000    0.0115633333333333    0.8551900000000000 C
   0.8724800000000000    0.4157533333333333    0.4019700000000000 C
   0.7761400000000001    0.4255666666666666    0.4866100000000000 C
   0.7093300000000000    0.4166866666666666    0.4124800000000000 C
   0.1314800000000000    0.4967833333333333    0.6450100000000000 C
   0.9563199999999999    0.4661033333333333    0.6737800000000000 C
   0.0303000000000000    0.5010633333333333    0.7298400000000000 C
   0.1387300000000000    0.4105266666666667    0.5154500000000000 C
   0.1512700000000000    0.4635166666666666    0.4781800000000000 C
   0.2406700000000000    0.4575733333333333    0.4593900000000000 C
   0.8189400000000000    0.3538233333333333    0.5360000000000000 C
   0.8869800000000000    0.3436800000000000    0.6451700000000000 C
   0.9650800000000000    0.3823900000000000    0.6447000000000001 C
   0.6131400000000000    0.2395833333333333    0.6745000000000000 C
   0.2805000000000000    0.1288500000000000    0.8252800000000000 C
   0.4297400000000000    0.1734733333333333    0.6685500000000000 C
   0.3518300000000000    0.1467066666666667    0.7051800000000000 C
   0.3726600000000000    0.1555300000000000    0.7867600000000000 C
   0.4789900000000000    0.1898833333333333    0.8313000000000000 C
   0.5593900000000001    0.2158066666666666    0.7946800000000001 C
   0.5329600000000000    0.2088766666666667    0.7131000000000000 C
   0.1930800000000000    0.1502700000000000    0.1115000000000000 C
   0.5496600000000000    0.2687366666666666    0.3879900000000000 C
   0.3820400000000000    0.2167133333333333    0.1760000000000000 C
   0.4665000000000000    0.2452266666666666    0.2422800000000000 C
   0.4518700000000000    0.2398900000000000    0.3168200000000000 C
   0.3496000000000000    0.2060200000000000    0.3236100000000000 C
   0.2637600000000000    0.1779666666666667    0.2573400000000000 C
   0.2798900000000000    0.1827966666666667    0.1828000000000000 C
   0.7523600000000000    0.7091333333333333    0.0977900000000000 C
   0.7233300000000000    0.7414533333333333    0.0132500000000000 C
   0.7495500000000000    0.7636533333333333    0.0874000000000000 C
   0.5097600000000000    0.6229033333333334    0.8548900000000000 C
   0.6019000000000000    0.6813699999999999    0.8260400000000000 C
   0.4970000000000000    0.6567633333333334    0.7701000000000000 C
   0.7686200000000000    0.6204499999999999    0.9844900000000000 C
   0.6096400000000000    0.6160900000000000    0.0214200000000000 C
   0.6277000000000000    0.5862933333333333    0.0403700000000000 C
   0.9382400000000000    0.7270766666666666    0.9638000000000000 C
   0.9685200000000000    0.7041966666666666    0.8548000000000000 C
   0.8524900000000000    0.6782300000000000    0.8551900000000000 C
   0.8724800000000000    0.0824200000000000    0.4019700000000000 C
   0.7761400000000001    0.0922333333333333    0.4866100000000000 C
   0.7093300000000000    0.0833533333333333    0.4124800000000000 C
   0.1314800000000000    0.1634500000000000    0.6450100000000000 C
   0.9563199999999999    0.1327700000000000    0.6737800000000000 C
   0.0303000000000000    0.1677300000000000    0.7298400000000000 C
   0.1387300000000000    0.0771933333333333    0.5154500000000000 C
   0.1512700000000000    0.1301833333333333    0.4781800000000000 C
   0.2406700000000000    0.1242400000000000    0.4593900000000000 C
   0.8189400000000000    0.0204900000000000    0.5360000000000000 C
   0.8869800000000000    0.0103466666666667    0.6451700000000000 C
   0.9650800000000000    0.0490566666666667    0.6447000000000001 C
   0.6131400000000000    0.9062500000000000    0.6745000000000000 C
   0.2805000000000000    0.7955166666666666    0.8252800000000000 C
   0.4297400000000000    0.8401399999999999    0.6685500000000000 C
   0.3518300000000000    0.8133733333333333    0.7051800000000000 C
   0.3726600000000000    0.8221966666666667    0.7867600000000000 C
   0.4789900000000000    0.8565499999999999    0.8313000000000000 C
   0.5593900000000001    0.8824733333333332    0.7946800000000001 C
   0.5329600000000000    0.8755433333333333    0.7131000000000000 C
   0.1930800000000000    0.8169366666666666    0.1115000000000000 C
   0.5496600000000000    0.9354033333333333    0.3879900000000000 C
   0.3820400000000000    0.8833799999999999    0.1760000000000000 C
   0.4665000000000000    0.9118933333333332    0.2422800000000000 C
   0.4518700000000000    0.9065566666666667    0.3168200000000000 C
   0.3496000000000000    0.8726866666666666    0.3236100000000000 C
   0.2637600000000000    0.8446333333333333    0.2573400000000000 C
   0.2798900000000000    0.8494633333333332    0.1828000000000000 C
   0.2476300000000000    0.6242066666666666    0.9022300000000000 C
   0.2766500000000000    0.5918866666666667    0.9867700000000000 C
   0.2504300000000000    0.5696866666666667    0.9126100000000000 C
   0.4902300000000000    0.7104366666666666    0.1451400000000000 C
   0.3980900000000000    0.6519699999999999    0.1739000000000000 C
   0.5030000000000000    0.6765766666666666    0.2299200000000000 C
   0.2313600000000000    0.7128933333333333    0.0155400000000000 C
   0.3903500000000000    0.7172499999999999    0.9786100000000000 C
   0.3722900000000000    0.7470466666666666    0.9596600000000000 C
   0.0617500000000000    0.6062633333333334    0.0362300000000000 C
   0.0314700000000000    0.6291433333333334    0.1452000000000000 C
   0.1475000000000000    0.6551066666666666    0.1448400000000000 C
   0.1275100000000000    0.2509233333333333    0.5980600000000000 C
   0.2238500000000000    0.2411066666666666    0.5134100000000000 C
   0.2906600000000000    0.2499866666666666    0.5875400000000000 C
   0.8685100000000000    0.1698900000000000    0.3550100000000000 C
   0.0436700000000000    0.2005700000000000    0.3262500000000000 C
   0.9696900000000001    0.1656133333333333    0.2701800000000000 C
   0.8612600000000000    0.2561466666666666    0.4845800000000000 C
   0.8487300000000000    0.2031566666666667    0.5218000000000000 C
   0.7593200000000000    0.2091000000000000    0.5406400000000000 C
   0.1810500000000000    0.3128533333333333    0.4640200000000000 C
   0.1130000000000000    0.3229933333333333    0.3548600000000000 C
   0.0349000000000000    0.2842866666666666    0.3553300000000000 C
   0.7194900000000000    0.5378200000000000    0.1747000000000000 C
   0.3868500000000000    0.4270900000000000    0.3254600000000000 C
   0.5210000000000000    0.4767899999999999    0.1687100000000000 C
   0.4405900000000000    0.4508666666666666    0.2053500000000000 C
   0.4670400000000000    0.4577933333333333    0.2869300000000000 C
   0.5702500000000000    0.4932033333333333    0.3314800000000000 C
   0.6481600000000000    0.5199666666666667    0.2948500000000000 C
   0.6273300000000001    0.5111466666666666    0.2132600000000000 C
   0.8069000000000000    0.5164066666666667    0.8884500000000000 C
   0.4503400000000000    0.3979333333333333    0.6120300000000000 C
   0.6179600000000000    0.4499600000000000    0.8240100000000000 C
   0.5335000000000000    0.4214400000000000    0.7577000000000000 C
   0.5481300000000000    0.4267833333333333    0.6832000000000000 C
   0.6504000000000000    0.4606533333333333    0.6764100000000000 C
   0.7362200000000000    0.4887133333333333    0.7426800000000000 C
   0.7201000000000000    0.4838766666666666    0.8172199999999999 C
   0.1275100000000000    0.9175899999999999    0.5980600000000000 C
   0.2238500000000000    0.9077733333333333    0.5134100000000000 C
   0.2906600000000000    0.9166533333333333    0.5875400000000000 C
   0.8685100000000000    0.8365566666666666    0.3550100000000000 C
   0.0436700000000000    0.8672366666666667    0.3262500000000000 C
   0.9696900000000001    0.8322799999999999    0.2701800000000000 C
   0.8612600000000000    0.9228133333333333    0.4845800000000000 C
   0.8487300000000000    0.8698233333333333    0.5218000000000000 C
   0.7593200000000000    0.8757666666666666    0.5406400000000000 C
   0.1810500000000000    0.9795199999999999    0.4640200000000000 C
   0.1130000000000000    0.9896600000000000    0.3548600000000000 C
   0.0349000000000000    0.9509533333333333    0.3553300000000000 C
   0.7194900000000000    0.2044866666666666    0.1747000000000000 C
   0.3868500000000000    0.0937566666666667    0.3254600000000000 C
   0.5210000000000000    0.1434566666666666    0.1687100000000000 C
   0.4405900000000000    0.1175333333333333    0.2053500000000000 C
   0.4670400000000000    0.1244600000000000    0.2869300000000000 C
   0.5702500000000000    0.1598700000000000    0.3314800000000000 C
   0.6481600000000000    0.1866333333333333    0.2948500000000000 C
   0.6273300000000001    0.1778133333333333    0.2132600000000000 C
   0.8069000000000000    0.1830733333333333    0.8884500000000000 C
   0.4503400000000000    0.0646000000000000    0.6120300000000000 C
   0.6179600000000000    0.1166266666666667    0.8240100000000000 C
   0.5335000000000000    0.0881066666666667    0.7577000000000000 C
   0.5481300000000000    0.0934500000000000    0.6832000000000000 C
   0.6504000000000000    0.1273200000000000    0.6764100000000000 C
   0.7362200000000000    0.1553800000000000    0.7426800000000000 C
   0.7201000000000000    0.1505433333333333    0.8172199999999999 C
   0.2476300000000000    0.9575399999999999    0.9022300000000000 C
   0.2766500000000000    0.9252199999999999    0.9867700000000000 C
   0.2504300000000000    0.9030199999999999    0.9126100000000000 C
   0.4902300000000000    0.0437700000000000    0.1451400000000000 C
   0.3980900000000000    0.9853033333333333    0.1739000000000000 C
   0.5030000000000000    0.0099100000000000    0.2299200000000000 C
   0.2313600000000000    0.0462266666666667    0.0155400000000000 C
   0.3903500000000000    0.0505833333333333    0.9786100000000000 C
   0.3722900000000000    0.0803800000000000    0.9596600000000000 C
   0.0617500000000000    0.9395966666666666    0.0362300000000000 C
   0.0314700000000000    0.9624766666666666    0.1452000000000000 C
   0.1475000000000000    0.9884400000000000    0.1448400000000000 C
   0.1275100000000000    0.5842566666666666    0.5980600000000000 C
   0.2238500000000000    0.5744400000000000    0.5134100000000000 C
   0.2906600000000000    0.5833199999999999    0.5875400000000000 C
   0.8685100000000000    0.5032233333333334    0.3550100000000000 C
   0.0436700000000000    0.5339033333333333    0.3262500000000000 C
   0.9696900000000001    0.4989466666666666    0.2701800000000000 C
   0.8612600000000000    0.5894800000000000    0.4845800000000000 C
   0.8487300000000000    0.5364899999999999    0.5218000000000000 C
   0.7593200000000000    0.5424333333333333    0.5406400000000000 C
   0.1810500000000000    0.6461866666666667    0.4640200000000000 C
   0.1130000000000000    0.6563266666666666    0.3548600000000000 C
   0.0349000000000000    0.6176199999999999    0.3553300000000000 C
   0.7194900000000000    0.8711533333333332    0.1747000000000000 C
   0.3868500000000000    0.7604233333333333    0.3254600000000000 C
   0.5210000000000000    0.8101233333333333    0.1687100000000000 C
   0.4405900000000000    0.7842000000000000    0.2053500000000000 C
   0.4670400000000000    0.7911266666666666    0.2869300000000000 C
   0.5702500000000000    0.8265366666666666    0.3314800000000000 C
   0.6481600000000000    0.8532999999999999    0.2948500000000000 C
   0.6273300000000001    0.8444799999999999    0.2132600000000000 C
   0.8069000000000000    0.8497399999999999    0.8884500000000000 C
   0.4503400000000000    0.7312666666666666    0.6120300000000000 C