Zn12 H191 Pd12 C282 N47 O96
1.0
  11.8039941587792967    0.0000000000000000   -0.0117430619625863
   4.6177994534741789   34.0018561635155265    0.0173678753647858
   0.0000000000000000    0.0000000000000000   27.3270000000000017
Zn H Pd C N O
12 191 12 282 47 96
direct
   0.7495600000000000    0.9165800000000000    0.6621700000000000 Zn
   0.7495600000000000    0.5832466666666667    0.6621700000000000 Zn
   0.7495600000000000    0.2499133333333333    0.6621700000000000 Zn
   0.7501600000000000    0.9166933333333332    0.1568100000000000 Zn
   0.7501600000000000    0.5833599999999999    0.1568100000000000 Zn
   0.7501600000000000    0.2500266666666666    0.1568100000000000 Zn
   0.2503900000000000    0.4167600000000000    0.3378300000000000 Zn
   0.2503900000000000    0.7500933333333333    0.3378300000000000 Zn
   0.2503900000000000    0.0834266666666667    0.3378300000000000 Zn
   0.2497800000000000    0.4166466666666666    0.8431900000000000 Zn
   0.2497800000000000    0.0833133333333333    0.8431900000000000 Zn
   0.2497800000000000    0.7499800000000000    0.8431900000000000 Zn
   0.8533700000000000    0.8597999999999999    0.5218200000000000 H
   0.5369800000000000    0.8157000000000000    0.5535700000000000 H
   0.8752900000000000    0.8148566666666666    0.4484700000000000 H
   0.5700499999999999    0.7723133333333333    0.4796300000000000 H
   0.6463400000000000    0.9731566666666667    0.5212900000000000 H
   0.9627800000000000    0.0170533333333333    0.5538000000000000 H
   0.6247700000000000    0.0183433333333333    0.4481400000000000 H
   0.9299900000000000    0.0607133333333333    0.4800300000000000 H
   0.5029700000000000    0.9649266666666666    0.7735900000000000 H
   0.5338300000000000    0.8391866666666666    0.7909100000000000 H
   0.3938500000000000    0.8495900000000000    0.8600800000000000 H
   0.3599600000000000    0.9716233333333333    0.8418400000000000 H
   0.9960700000000000    0.8683633333333333    0.7737800000000000 H
   0.9654700000000001    0.9941066666666666    0.7909200000000000 H
   0.1057600000000000    0.9836699999999999    0.8601300000000000 H
   0.1395200000000000    0.8616433333333333    0.8420200000000000 H
   0.8533700000000000    0.5264666666666666    0.5218200000000000 H
   0.5369800000000000    0.4823666666666666    0.5535700000000000 H
   0.8752900000000000    0.4815233333333333    0.4484700000000000 H
   0.5700499999999999    0.4389800000000000    0.4796300000000000 H
   0.6463400000000000    0.6398233333333333    0.5212900000000000 H
   0.9627800000000000    0.6837200000000000    0.5538000000000000 H
   0.6247700000000000    0.6850100000000000    0.4481400000000000 H
   0.9299900000000000    0.7273799999999999    0.4800300000000000 H
   0.5029700000000000    0.6315933333333332    0.7735900000000000 H
   0.5338300000000000    0.5058533333333333    0.7909100000000000 H
   0.3938500000000000    0.5162566666666666    0.8600800000000000 H
   0.3599600000000000    0.6382900000000000    0.8418400000000000 H
   0.9960700000000000    0.5350300000000000    0.7737800000000000 H
   0.9654700000000001    0.6607733333333332    0.7909200000000000 H
   0.1057600000000000    0.6503366666666666    0.8601300000000000 H
   0.1395200000000000    0.5283099999999999    0.8420200000000000 H
   0.8533700000000000    0.1931333333333333    0.5218200000000000 H
   0.5369800000000000    0.1490333333333333    0.5535700000000000 H
   0.8752900000000000    0.1481900000000000    0.4484700000000000 H
   0.5700499999999999    0.1056466666666667    0.4796300000000000 H
   0.6463400000000000    0.3064900000000000    0.5212900000000000 H
   0.9627800000000000    0.3503866666666666    0.5538000000000000 H
   0.6247700000000000    0.3516766666666666    0.4481400000000000 H
   0.9299900000000000    0.3940466666666667    0.4800300000000000 H
   0.5029700000000000    0.2982600000000000    0.7735900000000000 H
   0.5338300000000000    0.1725200000000000    0.7909100000000000 H
   0.3938500000000000    0.1829233333333333    0.8600800000000000 H
   0.3599600000000000    0.3049566666666667    0.8418400000000000 H
   0.9960700000000000    0.2016966666666667    0.7737800000000000 H
   0.9654700000000001    0.3274400000000000    0.7909200000000000 H
   0.1057600000000000    0.3170033333333333    0.8601300000000000 H
   0.1395200000000000    0.1949766666666666    0.8420200000000000 H
   0.9261100000000000    0.8782599999999999    0.0173600000000000 H
   0.0500900000000000    0.9869566666666666    0.0538000000000000 H
   0.0621000000000000    0.8718466666666667    0.9458700000000000 H
   0.1817900000000000    0.9766699999999999    0.9816100000000000 H
   0.5746400000000000    0.9550233333333333    0.0170500000000000 H
   0.4504400000000000    0.8464400000000000    0.0539200000000000 H
   0.4382800000000000    0.9614133333333332    0.9455500000000000 H
   0.3183100000000000    0.8567066666666666    0.9816500000000000 H
   0.9823000000000000    0.9895166666666666    0.2880800000000000 H
   0.6169500000000000    0.9961833333333333    0.2724800000000000 H
   0.5951200000000000    0.0436166666666667    0.3426900000000000 H
   0.9496900000000000    0.0361733333333333    0.3585800000000000 H
   0.5186300000000000    0.8439366666666666    0.2880000000000000 H
   0.8839800000000000    0.8370166666666666    0.2725000000000000 H
   0.5512300000000000    0.7972800000000000    0.3586600000000000 H
   0.9058200000000000    0.7896099999999999    0.3428300000000000 H
   0.9261100000000000    0.5449266666666667    0.0173600000000000 H
   0.0500900000000000    0.6536233333333332    0.0538000000000000 H
   0.0621000000000000    0.5385133333333333    0.9458700000000000 H
   0.1817900000000000    0.6433366666666667    0.9816100000000000 H
   0.5746400000000000    0.6216900000000000    0.0170500000000000 H
   0.4504400000000000    0.5131066666666666    0.0539200000000000 H
   0.4382800000000000    0.6280800000000000    0.9455500000000000 H
   0.3183100000000000    0.5233733333333332    0.9816500000000000 H
   0.9823000000000000    0.6561833333333333    0.2880800000000000 H
   0.6169500000000000    0.6628499999999999    0.2724800000000000 H
   0.5951200000000000    0.7102833333333333    0.3426900000000000 H
   0.9496900000000000    0.7028399999999999    0.3585800000000000 H
   0.5186300000000000    0.5106033333333333    0.2880000000000000 H
   0.8839800000000000    0.5036833333333333    0.2725000000000000 H
   0.5512300000000000    0.4639466666666666    0.3586600000000000 H
   0.9058200000000000    0.4562766666666667    0.3428300000000000 H
   0.9261100000000000    0.2115933333333333    0.0173600000000000 H
   0.0500900000000000    0.3202900000000000    0.0538000000000000 H
   0.0621000000000000    0.2051800000000000    0.9458700000000000 H
   0.1817900000000000    0.3100033333333333    0.9816100000000000 H
   0.5746400000000000    0.2883566666666667    0.0170500000000000 H
   0.4504400000000000    0.1797733333333333    0.0539200000000000 H
   0.4382800000000000    0.2947466666666667    0.9455500000000000 H
   0.3183100000000000    0.1900400000000000    0.9816500000000000 H
   0.9823000000000000    0.3228500000000000    0.2880800000000000 H
   0.6169500000000000    0.3295166666666667    0.2724800000000000 H
   0.5951200000000000    0.3769500000000000    0.3426900000000000 H
   0.9496900000000000    0.3695066666666666    0.3585800000000000 H
   0.5186300000000000    0.1772700000000000    0.2880000000000000 H
   0.8839800000000000    0.1703500000000000    0.2725000000000000 H
   0.5512300000000000    0.1306133333333333    0.3586600000000000 H
   0.9058200000000000    0.1229433333333333    0.3428300000000000 H
   0.3425743683111132    0.2085143177313142    0.5169699300097909 H
   0.2192872543250694    0.1908204935094878    0.5300216190690964 H
   0.1466000000000000    0.4735400000000000    0.4781800000000000 H
   0.4630000000000000    0.5176333333333333    0.4464300000000000 H
   0.4299400000000000    0.5610166666666667    0.5203700000000000 H
   0.1247000000000000    0.5184800000000001    0.5515000000000000 H
   0.0372100000000000    0.3162800000000000    0.4460000000000000 H
   0.0700100000000000    0.2726166666666666    0.5199700000000000 H
   0.3752200000000000    0.3149966666666666    0.5518600000000000 H
   0.3536400000000000    0.3601866666666667    0.4787200000000000 H
   0.4661400000000000    0.4941533333333333    0.2090900000000000 H
   0.6061200000000000    0.4837466666666667    0.1399000000000000 H
   0.6399899999999999    0.3617166666666666    0.1581000000000000 H
   0.4969800000000000    0.3684100000000000    0.2264100000000000 H
   0.0038800000000000    0.4649733333333333    0.2262200000000000 H
   0.0344900000000000    0.3392333333333333    0.2090800000000000 H
   0.8942000000000000    0.3496666666666666    0.1398700000000000 H
   0.8604300000000000    0.4716933333333333    0.1579800000000000 H
   0.1466000000000000    0.8068733333333333    0.4781800000000000 H
   0.4630000000000000    0.8509666666666666    0.4464300000000000 H
   0.4299400000000000    0.8943500000000000    0.5203700000000000 H
   0.1247000000000000    0.8518133333333333    0.5515000000000000 H
   0.0372100000000000    0.6496133333333334    0.4460000000000000 H
   0.0700100000000000    0.6059500000000000    0.5199700000000000 H
   0.3752200000000000    0.6483300000000000    0.5518600000000000 H
   0.3536400000000000    0.6935199999999999    0.4787200000000000 H
   0.4661400000000000    0.8274866666666666    0.2090900000000000 H
   0.6061200000000000    0.8170799999999999    0.1399000000000000 H
   0.6399899999999999    0.6950499999999999    0.1581000000000000 H
   0.4969800000000000    0.7017433333333333    0.2264100000000000 H
   0.0038800000000000    0.7983066666666666    0.2262200000000000 H
   0.0344900000000000    0.6725666666666666    0.2090800000000000 H
   0.8942000000000000    0.6829999999999999    0.1398700000000000 H
   0.8604300000000000    0.8050266666666666    0.1579800000000000 H
   0.3086483817742366    0.1291505907920987    0.4087282091285100 H
   0.0372100000000000    0.9829466666666666    0.4460000000000000 H
   0.0700100000000000    0.9392833333333332    0.5199700000000000 H
   0.3752200000000000    0.9816633333333333    0.5518600000000000 H
   0.3536400000000000    0.0268533333333333    0.4787200000000000 H
   0.4661400000000000    0.1608200000000000    0.2090900000000000 H
   0.6061200000000000    0.1504133333333333    0.1399000000000000 H
   0.6399899999999999    0.0283833333333333    0.1581000000000000 H
   0.4969800000000000    0.0350766666666667    0.2264100000000000 H
   0.0038800000000000    0.1316400000000000    0.2262200000000000 H
   0.0344900000000000    0.0059000000000000    0.2090800000000000 H
   0.8942000000000000    0.0163333333333333    0.1398700000000000 H
   0.8604300000000000    0.1383600000000000    0.1579800000000000 H
   0.9498600000000000    0.3463766666666667    0.9461000000000001 H
   0.8181600000000000    0.3566666666666666    0.0183900000000000 H
   0.9378600000000000    0.4614900000000000    0.0541000000000000 H
   0.0738400000000000    0.4550733333333333    0.9826400000000000 H
   0.4253200000000000    0.3783133333333333    0.9829500000000000 H
   0.5495200000000000    0.4868966666666666    0.9460800000000000 H
   0.5616700000000000    0.3719200000000000    0.0544500000000000 H
   0.6816500000000000    0.4766266666666666    0.0183500000000000 H
   0.0176600000000000    0.3438166666666667    0.7119200000000000 H
   0.3830100000000000    0.3371600000000000    0.7275000000000000 H
   0.0503000000000000    0.2971566666666666    0.6414200000000000 H
   0.4048600000000000    0.2897233333333333    0.6573200000000000 H
   0.4813300000000000    0.4893999999999999    0.7119600000000000 H
   0.1159800000000000    0.4963266666666666    0.7275000000000000 H
   0.4487500000000000    0.5360533333333333    0.6413500000000000 H
   0.0941600000000000    0.5437300000000000    0.6571700000000000 H
   0.9498600000000000    0.0130433333333333    0.9461000000000001 H
   0.8181600000000000    0.0233333333333333    0.0183900000000000 H
   0.9378600000000000    0.1281566666666666    0.0541000000000000 H
   0.0738400000000000    0.1217400000000000    0.9826400000000000 H
   0.4253200000000000    0.0449800000000000    0.9829500000000000 H
   0.5495200000000000    0.1535633333333333    0.9460800000000000 H
   0.5616700000000000    0.0385866666666667    0.0544500000000000 H
   0.6816500000000000    0.1432933333333333    0.0183500000000000 H
   0.0176600000000000    0.0104833333333333    0.7119200000000000 H
   0.3830100000000000    0.0038266666666667    0.7275000000000000 H
   0.0503000000000000    0.9638233333333333    0.6414200000000000 H
   0.4048600000000000    0.9563900000000000    0.6573200000000000 H
   0.4813300000000000    0.1560666666666667    0.7119600000000000 H
   0.1159800000000000    0.1629933333333333    0.7275000000000000 H
   0.4487500000000000    0.2027200000000000    0.6413500000000000 H
   0.0941600000000000    0.2103966666666667    0.6571700000000000 H
   0.9498600000000000    0.6797099999999999    0.9461000000000001 H
   0.8181600000000000    0.6899999999999999    0.0183900000000000 H
   0.9378600000000000    0.7948233333333332    0.0541000000000000 H
   0.0738400000000000    0.7884066666666666    0.9826400000000000 H
   0.4253200000000000    0.7116466666666666    0.9829500000000000 H
   0.5495200000000000    0.8202300000000000    0.9460800000000000 H
   0.5616700000000000    0.7052533333333333    0.0544500000000000 H
   0.6816500000000000    0.8099600000000000    0.0183500000000000 H
   0.0176600000000000    0.6771499999999999    0.7119200000000000 H
   0.3830100000000000    0.6704933333333333    0.7275000000000000 H
   0.0503000000000000    0.6304900000000000    0.6414200000000000 H
   0.4048600000000000    0.6230566666666666    0.6573200000000000 H
   0.4813300000000000    0.8227333333333333    0.7119600000000000 H
   0.1159800000000000    0.8296600000000000    0.7275000000000000 H
   0.4487500000000000    0.8693866666666666    0.6413500000000000 H
   0.0941600000000000    0.8770633333333333    0.6571700000000000 H
   0.2499400000000000    0.9166466666666666    0.9071000000000000 Pd
   0.2499400000000000    0.5833133333333334    0.9071000000000000 Pd
   0.2499400000000000    0.2499800000000000    0.9071000000000000 Pd
   0.7503300000000001    0.7499333333333333    0.4071000000000000 Pd
   0.7503300000000001    0.4166000000000000    0.4071000000000000 Pd
   0.7503300000000001    0.0832666666666667    0.4071000000000000 Pd
   0.7500100000000000    0.4166900000000000    0.0929000000000000 Pd
   0.7500100000000000    0.7500233333333333    0.0929000000000000 Pd
   0.7500100000000000    0.0833566666666667    0.0929000000000000 Pd
   0.2496600000000000    0.5833999999999999    0.5928600000000001 Pd
   0.2496600000000000    0.2500666666666667    0.5928600000000001 Pd
   0.2496600000000000    0.9167333333333333    0.5928600000000001 Pd
   0.6705600000000000    0.8699800000000000    0.5853100000000000 C
   0.7892700000000000    0.8407466666666666    0.5132900000000000 C
   0.6135300000000000    0.8158766666666666    0.5314500000000000 C
   0.8022100000000000    0.8159366666666666    0.4730000000000000 C
   0.6316400000000000    0.7914566666666666    0.4910000000000000 C
   0.6926300000000000    0.8412966666666666    0.5431600000000000 C
   0.8288800000000000    0.9626600000000000    0.5850900000000000 C
   0.7106000000000000    0.9921800000000000    0.5129600000000000 C
   0.8863200000000000    0.0169300000000000    0.5315500000000000 C
   0.6978300000000000    0.0171400000000000    0.4727700000000000 C
   0.8683800000000000    0.0415100000000000    0.4912400000000000 C
   0.8071800000000000    0.9914733333333332    0.5429900000000000 C
   0.6043300000000000    0.8955933333333332    0.7316300000000000 C
   0.4793800000000000    0.9389866666666666    0.7917200000000000 C
   0.4978700000000000    0.8688666666666667    0.8015300000000000 C
   0.4204200000000000    0.8742866666666667    0.8398800000000000 C
   0.4016900000000000    0.9428500000000000    0.8301100000000000 C
   0.5264000000000000    0.9015066666666667    0.7759600000000000 C
   0.8947900000000000    0.9377333333333333    0.7317000000000000 C
   0.0198300000000000    0.8942933333333333    0.7918800000000000 C
   0.0014700000000000    0.9644233333333333    0.8015900000000000 C
   0.0790700000000000    0.9589866666666667    0.8399500000000000 C
   0.0977200000000000    0.8904166666666666    0.8302600000000000 C
   0.9727700000000000    0.9317833333333333    0.7760700000000000 C
   0.6705600000000000    0.5366466666666667    0.5853100000000000 C
   0.7892700000000000    0.5074133333333333    0.5132900000000000 C
   0.6135300000000000    0.4825433333333333    0.5314500000000000 C
   0.8022100000000000    0.4826033333333333    0.4730000000000000 C
   0.6316400000000000    0.4581233333333333    0.4910000000000000 C
   0.6926300000000000    0.5079633333333333    0.5431600000000000 C
   0.8288800000000000    0.6293266666666666    0.5850900000000000 C
   0.7106000000000000    0.6588466666666666    0.5129600000000000 C
   0.8863200000000000    0.6835966666666666    0.5315500000000000 C
   0.6978300000000000    0.6838066666666667    0.4727700000000000 C
   0.8683800000000000    0.7081766666666667    0.4912400000000000 C
   0.8071800000000000    0.6581399999999999    0.5429900000000000 C
   0.6043300000000000    0.5622600000000000    0.7316300000000000 C
   0.4793800000000000    0.6056533333333334    0.7917200000000000 C
   0.4978700000000000    0.5355333333333333    0.8015300000000000 C
   0.4204200000000000    0.5409533333333333    0.8398800000000000 C
   0.4016900000000000    0.6095166666666667    0.8301100000000000 C
   0.5264000000000000    0.5681733333333333    0.7759600000000000 C
   0.8947900000000000    0.6044000000000000    0.7317000000000000 C
   0.0198300000000000    0.5609600000000000    0.7918800000000000 C
   0.0014700000000000    0.6310899999999999    0.8015900000000000 C
   0.0790700000000000    0.6256533333333333    0.8399500000000000 C
   0.0977200000000000    0.5570833333333334    0.8302600000000000 C
   0.9727700000000000    0.5984499999999999    0.7760700000000000 C
   0.6705600000000000    0.2033133333333333    0.5853100000000000 C
   0.7892700000000000    0.1740800000000000    0.5132900000000000 C
   0.6135300000000000    0.1492100000000000    0.5314500000000000 C
   0.8022100000000000    0.1492700000000000    0.4730000000000000 C
   0.6316400000000000    0.1247900000000000    0.4910000000000000 C
   0.6926300000000000    0.1746300000000000    0.5431600000000000 C
   0.8288800000000000    0.2959933333333333    0.5850900000000000 C
   0.7106000000000000    0.3255133333333333    0.5129600000000000 C
   0.8863200000000000    0.3502633333333333    0.5315500000000000 C
   0.6978300000000000    0.3504733333333333    0.4727700000000000 C
   0.8683800000000000    0.3748433333333333    0.4912400000000000 C
   0.8071800000000000    0.3248066666666666    0.5429900000000000 C
   0.6043300000000000    0.2289266666666666    0.7316300000000000 C
   0.4793800000000000    0.2723200000000000    0.7917200000000000 C
   0.4978700000000000    0.2022000000000000    0.8015300000000000 C
   0.4204200000000000    0.2076200000000000    0.8398800000000000 C
   0.4016900000000000    0.2761833333333333    0.8301100000000000 C
   0.5264000000000000    0.2348400000000000    0.7759600000000000 C
   0.8947900000000000    0.2710666666666667    0.7317000000000000 C
   0.0198300000000000    0.2276266666666667    0.7918800000000000 C
   0.0014700000000000    0.2977566666666667    0.8015900000000000 C
   0.0790700000000000    0.2923200000000000    0.8399500000000000 C
   0.0977200000000000    0.2237500000000000    0.8302600000000000 C
   0.9727700000000000    0.2651166666666667    0.7760700000000000 C
   0.8910300000000000    0.9405833333333333    0.0820400000000000 C
   0.9819000000000000    0.9004900000000000    0.0103400000000000 C
   0.0517300000000000    0.9608766666666666    0.0310800000000000 C
   0.0569000000000000    0.8966600000000000    0.9710200000000000 C
   0.1257100000000000    0.9552466666666666    0.9916400000000000 C
   0.9773900000000000    0.9334033333333333    0.0409700000000000 C
   0.6093600000000000    0.8927733333333333    0.0820200000000000 C
   0.5187200000000000    0.9328233333333333    0.0101200000000000 C
   0.4487100000000000    0.8724933333333333    0.0310600000000000 C
   0.4435100000000000    0.9366366666666666    0.9707900000000000 C
   0.3745500000000000    0.8781033333333332    0.9916100000000000 C
   0.5231000000000000    0.8999599999999999    0.0408600000000000 C
   0.8189000000000000    0.9643066666666666    0.2286000000000000 C
   0.8954900000000000    0.0006433333333333    0.2993200000000000 C
   0.6917600000000000    0.0047766666666667    0.2906000000000000 C
   0.6792600000000000    0.0305566666666667    0.3299400000000000 C
   0.8784200000000000    0.0264666666666667    0.3385300000000000 C
   0.8012300000000000    0.9902033333333333    0.2738400000000000 C
   0.6817100000000000    0.8690300000000000    0.2286500000000000 C
   0.6054400000000000    0.8327333333333333    0.2993300000000000 C
   0.8091600000000000    0.8284733333333333    0.2906300000000000 C
   0.6225100000000000    0.8069100000000000    0.3385800000000000 C
   0.8216800000000000    0.8026966666666666    0.3300200000000000 C
   0.6996400000000000    0.8431133333333333    0.2738400000000000 C
   0.8910300000000000    0.6072500000000000    0.0820400000000000 C
   0.9819000000000000    0.5671566666666666    0.0103400000000000 C
   0.0517300000000000    0.6275433333333333    0.0310800000000000 C
   0.0569000000000000    0.5633266666666666    0.9710200000000000 C
   0.1257100000000000    0.6219133333333333    0.9916400000000000 C
   0.9773900000000000    0.6000699999999999    0.0409700000000000 C
   0.6093600000000000    0.5594399999999999    0.0820200000000000 C
   0.5187200000000000    0.5994900000000000    0.0101200000000000 C
   0.4487100000000000    0.5391600000000000    0.0310600000000000 C
   0.4435100000000000    0.6033033333333333    0.9707900000000000 C
   0.3745500000000000    0.5447700000000000    0.9916100000000000 C
   0.5231000000000000    0.5666266666666666    0.0408600000000000 C
   0.8189000000000000    0.6309733333333334    0.2286000000000000 C
   0.8954900000000000    0.6673100000000000    0.2993200000000000 C
   0.6917600000000000    0.6714433333333333    0.2906000000000000 C
   0.6792600000000000    0.6972233333333333    0.3299400000000000 C
   0.8784200000000000    0.6931333333333333    0.3385300000000000 C
   0.8012300000000000    0.6568700000000000    0.2738400000000000 C
   0.6817100000000000    0.5356966666666667    0.2286500000000000 C
   0.6054400000000000    0.4994000000000000    0.2993300000000000 C
   0.8091600000000000    0.4951400000000000    0.2906300000000000 C
   0.6225100000000000    0.4735766666666666    0.3385800000000000 C
   0.8216800000000000    0.4693633333333333    0.3300200000000000 C
   0.6996400000000000    0.5097800000000000    0.2738400000000000 C
   0.8910300000000000    0.2739166666666666    0.0820400000000000 C
   0.9819000000000000    0.2338233333333333    0.0103400000000000 C
   0.0517300000000000    0.2942100000000000    0.0310800000000000 C
   0.0569000000000000    0.2299933333333333    0.9710200000000000 C
   0.1257100000000000    0.2885799999999999    0.9916400000000000 C
   0.9773900000000000    0.2667366666666666    0.0409700000000000 C
   0.6093600000000000    0.2261066666666667    0.0820200000000000 C
   0.5187200000000000    0.2661566666666667    0.0101200000000000 C
   0.4487100000000000    0.2058266666666667    0.0310600000000000 C
   0.4435100000000000    0.2699700000000000    0.9707900000000000 C
   0.3745500000000000    0.2114366666666667    0.9916100000000000 C
   0.5231000000000000    0.2332933333333333    0.0408600000000000 C
   0.8189000000000000    0.2976400000000000    0.2286000000000000 C
   0.8954900000000000    0.3339766666666666    0.2993200000000000 C
   0.6917600000000000    0.3381100000000000    0.2906000000000000 C
   0.6792600000000000    0.3638900000000000    0.3299400000000000 C
   0.8784200000000000    0.3598000000000000    0.3385300000000000 C
   0.8012300000000000    0.3235366666666666    0.2738400000000000 C
   0.6817100000000000    0.2023633333333333    0.2286500000000000 C
   0.6054400000000000    0.1660666666666666    0.2993300000000000 C
   0.8091600000000000    0.1618066666666667    0.2906300000000000 C
   0.6225100000000000    0.1402433333333333    0.3385800000000000 C
   0.8216800000000000    0.1360300000000000    0.3300200000000000 C
   0.6996400000000000    0.1764466666666667    0.2738400000000000 C
   0.3294000000000000    0.4633566666666666    0.4146900000000000 C
   0.2107100000000000    0.4925933333333333    0.4867100000000000 C
   0.3864500000000000    0.5174566666666667    0.4685500000000000 C
   0.3683500000000000    0.5418799999999999    0.5089399999999999 C
   0.1977700000000000    0.5174000000000000    0.5270000000000000 C
   0.3073400000000000    0.4920400000000000    0.4568400000000000 C
   0.1711000000000000    0.3706766666666667    0.4149100000000000 C
   0.1136700000000000    0.3164033333333333    0.4684500000000000 C
   0.1316100000000000    0.2918233333333333    0.5087600000000000 C
   0.3021600000000000    0.3161966666666667    0.5272300000000000 C
   0.2893800000000000    0.3333333333333333    0.4870500000000000 C
   0.1928100000000000    0.3418633333333333    0.4570100000000000 C
   0.3956200000000000    0.4377466666666666    0.2683700000000000 C
   0.5020900000000000    0.4644699999999999    0.1984800000000000 C
   0.5795400000000001    0.4590500000000000    0.1601300000000000 C
   0.5982700000000000    0.3904866666666666    0.1690000000000000 C
   0.5205800000000000    0.3943533333333333    0.2082800000000000 C
   0.4735600000000000    0.4318299999999999    0.2240400000000000 C
   0.1051600000000000    0.3956066666666667    0.2683000000000000 C
   0.9801200000000000    0.4390433333333333    0.2081200000000000 C
   0.9984900000000000    0.3689166666666667    0.1984100000000000 C
   0.9208800000000000    0.3743500000000000    0.1600500000000000 C
   0.9022300000000000    0.4429200000000000    0.1697400000000000 C
   0.0271800000000000    0.4015533333333333    0.2239300000000000 C
   0.3294000000000000    0.7966899999999999    0.4146900000000000 C
   0.2107100000000000    0.8259266666666666    0.4867100000000000 C
   0.3864500000000000    0.8507899999999999    0.4685500000000000 C
   0.3683500000000000    0.8752133333333333    0.5089399999999999 C
   0.1977700000000000    0.8507333333333333    0.5270000000000000 C
   0.3073400000000000    0.8253733333333333    0.4568400000000000 C
   0.1711000000000000    0.7040099999999999    0.4149100000000000 C
   0.1136700000000000    0.6497366666666666    0.4684500000000000 C
   0.1316100000000000    0.6251566666666666    0.5087600000000000 C
   0.3021600000000000    0.6495299999999999    0.5272300000000000 C
   0.2893800000000000    0.6666666666666666    0.4870500000000000 C
   0.1928100000000000    0.6751966666666667    0.4570100000000000 C
   0.3956200000000000    0.7710800000000000    0.2683700000000000 C
   0.5020900000000000    0.7978033333333333    0.1984800000000000 C
   0.5795400000000001    0.7923833333333332    0.1601300000000000 C
   0.5982700000000000    0.7238199999999999    0.1690000000000000 C
   0.5205800000000000    0.7276866666666666    0.2082800000000000 C
   0.4735600000000000    0.7651633333333333    0.2240400000000000 C
   0.1051600000000000    0.7289399999999999    0.2683000000000000 C
   0.9801200000000000    0.7723766666666666    0.2081200000000000 C
   0.9984900000000000    0.7022499999999999    0.1984100000000000 C
   0.9208800000000000    0.7076833333333333    0.1600500000000000 C
   0.9022300000000000    0.7762533333333332    0.1697400000000000 C
   0.0271800000000000    0.7348866666666667    0.2239300000000000 C
   0.1711000000000000    0.0373433333333333    0.4149100000000000 C
   0.1136700000000000    0.9830699999999999    0.4684500000000000 C
   0.1316100000000000    0.9584900000000000    0.5087600000000000 C
   0.3021600000000000    0.9828633333333333    0.5272300000000000 C
   0.2893800000000000    0.0000000000000000    0.4870500000000000 C
   0.1928100000000000    0.0085300000000000    0.4570100000000000 C
   0.3956200000000000    0.1044133333333333    0.2683700000000000 C
   0.5020900000000000    0.1311366666666667    0.1984800000000000 C
   0.5795400000000001    0.1257166666666666    0.1601300000000000 C
   0.5982700000000000    0.0571533333333333    0.1690000000000000 C
   0.5205800000000000    0.0610200000000000    0.2082800000000000 C
   0.4735600000000000    0.0984966666666666    0.2240400000000000 C
   0.1051600000000000    0.0622733333333333    0.2683000000000000 C
   0.9801200000000000    0.1057100000000000    0.2081200000000000 C
   0.9984900000000000    0.0355833333333333    0.1984100000000000 C
   0.9208800000000000    0.0410166666666667    0.1600500000000000 C
   0.9022300000000000    0.1095866666666667    0.1697400000000000 C
   0.0271800000000000    0.0682200000000000    0.2239300000000000 C
   0.1089200000000000    0.3927566666666666    0.9179600000000000 C
   0.9482200000000000    0.3724600000000000    0.9689200000000000 C
   0.8742500000000000    0.3780866666666666    0.0083600000000000 C
   0.9430500000000001    0.4366766666666666    0.0289900000000000 C
   0.0000000000000000    0.4328466666666667    0.9896600000000000 C
   0.0225600000000000    0.3999366666666666    0.9590300000000000 C
   0.3905800000000000    0.4405633333333333    0.9179800000000000 C
   0.4812300000000000    0.4005100000000000    0.9898800000000000 C
   0.5512400000000000    0.4608400000000000    0.9689400000000000 C
   0.5564500000000000    0.3966999999999999    0.0292100000000000 C
   0.6254000000000000    0.4552333333333333    0.0083900000000000 C