H4 C6 N1 O2
1.0
  11.8039941587792967    0.0000000000000000   -0.0117430619625863
   4.6177994534741789   34.0018561635155265    0.0173678753647858
   0.0000000000000000    0.0000000000000000   27.3270000000000017
H C N O
4 6 1 2
direct
   0.1247000000000000    0.1851466666666667    0.5515000000000000 H
   0.1466000000000000    0.1402066666666666    0.4781800000000000 H
   0.4630000000000000    0.1843000000000000    0.4464300000000000 H
   0.4299400000000000    0.2276833333333333    0.5203700000000000 H
   0.3683500000000000    0.2085466666666667    0.5089399999999999 C
   0.3864500000000000    0.1841233333333333    0.4685500000000000 C
   0.3073400000000000    0.1587066666666667    0.4568400000000000 C
   0.2107100000000000    0.1592600000000000    0.4867100000000000 C
   0.1977700000000000    0.1840666666666667    0.5270000000000000 C
   0.3294000000000000    0.1300233333333333    0.4146900000000000 C
   0.2753900000000000    0.2084300000000000    0.5379000000000000 N
   0.2407100000000000    0.1262933333333333    0.3892100000000000 O
   0.4296000000000000    0.1129100000000000    0.4101800000000000 O
