H12 O8
1.0
  35.5964714162508074    0.0000000000000000    2.2891314317966072
   0.2244781597897944   29.8949506360560129    0.1111396578709649
   0.0000000000000000    0.0000000000000000   31.1722000000000001
H O
12 8
direct
   0.1394414550990790    0.9388697599761853    0.3141728330013945 H
   0.1620764164381961    0.8864590795528895    0.3593869140039738 H
   0.1728841896722112    0.8667106905509906    0.3805182268523885 H
   0.0956239685828471    0.7879429168810561    0.3206105168604469 H
   0.1555120390830617    0.7962774695692311    0.3386278731320718 H
   0.2056460954833905    0.8044414670992197    0.3532538695964950 H
   0.1906158104265587    0.7825582394886318    0.1920699452942711 H
   0.1894333062988417    0.8202242672704460    0.2034828956851266 H
   0.2288723115434701    0.9314760833548279    0.1706729846189751 H
   0.1363534071866910    0.9271806913376571    0.1451358984337170 H
   0.1700324608281802    0.8739074589145233    0.1556507374459463 H
   0.1773544081717573    0.9114399068911153    0.1513953696981390 H
   0.1514316666666667    0.9581999999999999    0.3340400000000000 O
   0.1684333333333333    0.8967075000000000    0.3699200000000000 O
   0.1209900000000000    0.7965700000000000    0.3262800000000000 O
   0.1801516666666667    0.8046575000000000    0.3441350000000000 O
   0.1818916666666666    0.7957025000000000    0.1659800000000000 O
   0.2123350000000000    0.9573325000000000    0.1737400000000000 O
   0.1531733333333333    0.9492475000000000    0.1558800000000000 O
   0.1648933333333333    0.8571975000000001    0.1300950000000000 O
