C2 O4
1.0
  13.0749999999999993    0.0000000000000000    0.0000000000000008
   0.0243909639134290   13.9749787127346785   -0.0002439097629554
   0.0000000000000000    0.0000000000000000   33.8479999999999990
C O
2 4
direct
   0.0329500000000000    0.5834800000000000    0.6290000000000000 C
   0.0760700000000000    0.4841000000000000    0.6403500000000000 C
   0.0000000000000000    0.6407900000000000    0.6564800000000000 O
   0.0799800000000000    0.4664700000000000    0.6770350000000001 O
   0.1024500000000000    0.4308800000000000    0.6119100000000000 O
   0.0226500000000000    0.6038500000000000    0.5926899999999999 O
