H6 O4
1.0
  13.0749999999999993    0.0000000000000000    0.0000000000000008
   0.0243909639134290   13.9749787127346785   -0.0002439097629554
   0.0000000000000000    0.0000000000000000   33.8479999999999990
H O
6 4
direct
   0.1268812353540630    0.3781771712684139    0.5958030587625872 H
   0.0896630408968034    0.4373548013171791    0.7027819651054148 H
   0.1176119164082940    0.3852907875465515    0.6522251589315738 H
   0.0017409919679109    0.6449070155230123    0.5710305286579902 H
  -0.0311164494455991    0.6981746167539908    0.6672705966589518 H
  -0.0404545465793227    0.7202267166694194    0.6145734642645843 H
   0.1024500000000000    0.4308800000000000    0.6119100000000000 O
   0.0799800000000000    0.4664700000000000    0.6770350000000001 O
   0.0226500000000000    0.6038500000000000    0.5926899999999999 O
   0.0000000000000000    0.6407900000000000    0.6564800000000000 O
