H3 C2 N4
1.0
  13.0749999999999993    0.0000000000000000    0.0000000000000008
   0.0243909639134290   13.9749787127346785   -0.0002439097629554
   0.0000000000000000    0.0000000000000000   33.8479999999999990
H C N
3 2 4
direct
   0.2610400000000000    0.6411000000000000    0.2476150000000000 H
   0.2751900000000000    0.3874900000000000    0.3415500000000000 H
   0.1518900000000000    0.3483300000000000    0.3325500000000000 H
   0.2016800000000000    0.4531700000000000    0.2965450000000000 C
   0.2256300000000000    0.5790900000000000    0.2611450000000000 C
   0.1301500000000000    0.5520800000000000    0.2544100000000000 N
   0.1140900000000000    0.4702600000000000    0.2768850000000000 N
   0.2739800000000000    0.5202100000000000    0.2871500000000000 N
   0.2172700000000000    0.3777300000000000    0.3213050000000000 N
