H4 C8 O4
1.0
  31.9637238768055703    0.0000000000000000   18.3369260217553816
  10.6178823886559623   30.1537003161139801   18.3567270183618767
   0.0000000000000000    0.0000000000000000   36.8659999999999997
H C O
4 8 4
direct
   0.3321900000000000    0.4758500000000000    0.2159050000000000 H
   0.2159600000000000    0.4760350000000000    0.3321650000000000 H
   0.2840500000000000    0.5239700000000000    0.1678200000000000 H
   0.1678200000000000    0.5241550000000000    0.2840500000000000 H
   0.2961900000000000    0.4866250000000000    0.2304450000000000 C
   0.2304800000000000    0.4867300000000000    0.2961700000000000 C
   0.3055000000000000    0.4444350000000000    0.3054000000000000 C
   0.2768300000000000    0.4731700000000000    0.2767500000000000 C
   0.2695300000000000    0.5132750000000000    0.2038200000000000 C
   0.2038200000000000    0.5133799999999999    0.2695400000000000 C
   0.1945100000000000    0.5555700000000000    0.1945550000000000 C
   0.2231800000000000    0.5268350000000001    0.2232000000000000 C
   0.3473950000000000    0.4333600000000000    0.2856300000000000 O
   0.2857100000000000    0.4333500000000000    0.3473250000000000 O
   0.2143000000000000    0.5666500000000000    0.1526600000000000 O
   0.1526150000000000    0.5666450000000000    0.2143550000000000 O
