H6 O4
1.0
  31.9627259332041902    0.0000000000000000   18.3185630145728524
   5.3083971878092058   15.0791342032461451    9.1668868748856926
   0.0000000000000000    0.0000000000000000   36.8599999999999994
H O
6 4
direct
   0.0566420734436908    0.1136536871564320    0.2462323060973417 H
   0.0565271919692856    0.1126160993521759    0.1402625773719088 H
   0.0526910608121254    0.1053439174727195    0.1971200761142585 H
   0.9433640061767988    0.8863449076780799    0.2537332004319921 H
   0.9434801152369783    0.8874020881761231    0.3597208388651069 H
   0.9473164113478474    0.8946660235374650    0.3028511753284615 H
   0.0665750000000000    0.1333600000000000    0.2141150000000000 O
   0.0665000000000000    0.1327400000000000    0.1524700000000000 O
   0.9334350000000000    0.8666500000000000    0.2858500000000000 O
   0.9335100000000001    0.8672800000000001    0.3475100000000000 O
