H10 C12 N2
1.0
  11.7359733949341845    0.0000000000000000    0.0249894657203087
   5.8541560154578720   12.5511135102154174    3.2654016598829618
   0.0000000000000000    0.0000000000000000   28.6999999999999993
H C N
10 12 2
direct
   0.9171600000000000    0.3407200000000000    0.3074300000000000 H
   0.9225700000000000    0.1647300000000000    0.3084450000000000 H
   0.3285900000000000    0.0394900000000000    0.3204250000000000 H
   0.3052300000000000    0.2212600000000000    0.3214850000000000 H
   0.8650500000000000    0.8782700000000000    0.3167250000000000 H
   0.8900800000000000    0.6961000000000001    0.3157550000000000 H
   0.2711100000000000    0.5982800000000000    0.3003900000000000 H
   0.2651900000000000    0.7696499999999999    0.3039800000000000 H
   0.2397700000000000    0.9193300000000000    0.3158650000000000 H
   0.9508400000000000    0.0063300000000000    0.3101850000000000 H
   0.0064400000000000    0.2713200000000000    0.3109400000000000 C
   0.0107300000000000    0.1723200000000000    0.3113000000000000 C
   0.1276000000000000    0.0848800000000000    0.3142400000000000 C
   0.2352900000000000    0.1041300000000000    0.3177950000000000 C
   0.2228300000000000    0.2054100000000000    0.3179900000000000 C
   0.0627100000000000    0.8416800000000000    0.3106150000000000 C
   0.9574600000000000    0.8177300000000000    0.3136900000000000 C
   0.9701500000000000    0.7167300000000000    0.3126950000000000 C
   0.1824900000000000    0.6611900000000001    0.3048000000000000 C
   0.1781200000000000    0.7593600000000000    0.3062800000000000 C
   0.1426000000000000    0.9782999999999999    0.3137150000000000 C
   0.0479600000000000    0.9481100000000000    0.3113950000000000 C
   0.1104300000000000    0.2889600000000000    0.3140000000000000 N
   0.0810900000000000    0.6387400000000000    0.3079550000000000 N
