H2 C6 N2 O4
1.0
  11.7359733949341845    0.0000000000000000    0.0249894657203087
   5.8541560154578720   12.5511135102154174    3.2654016598829618
   0.0000000000000000    0.0000000000000000   28.6999999999999993
H C N O
2 6 2 4
direct
   0.4032200000000000    0.3972400000000000    0.3545850000000000 H
   0.6112900000000000    0.3635400000000000    0.3215050000000000 H
   0.4480800000000000    0.3768600000000000    0.2255700000000000 C
   0.3292600000000000    0.4021500000000000    0.2430600000000000 C
   0.4157500000000000    0.3923700000000000    0.3174000000000000 C
   0.5313600000000001    0.3715900000000000    0.2989750000000000 C
   0.4729500000000000    0.3641400000000000    0.1747600000000000 C
   0.2138400000000000    0.4219700000000000    0.2117050000000000 C
   0.5487600000000000    0.3628200000000000    0.2537050000000000 N
   0.3148700000000000    0.4085900000000000    0.2890650000000000 N
   0.4370600000000000    0.4534400000000000    0.1428500000000000 O
   0.5297500000000001    0.2719500000000000    0.1698850000000000 O
   0.2294200000000000    0.3830300000000000    0.1763000000000000 O
   0.1073600000000000    0.4781400000000000    0.2253050000000000 O
