H18 C26 N4
1.0
  30.9329124118216683    0.0000000000000000   -9.4612729573017269
  -6.9898306064240678   26.0203751393919873  -14.1531163246406226
   0.0000000000000000    0.0000000000000000   30.4600000000000009
H C N
18 26 4
direct
   0.2956600000000000    0.3010050000000000    0.4656700000000000 H
   0.2932966666666666    0.0347350000000000    0.4561700000000000 H
   0.2982566666666666    0.1290050000000000    0.3629550000000000 H
   0.2825733333333333    0.0338950000000000    0.3167350000000000 H
   0.2777666666666667    0.2391700000000000    0.3637700000000000 H
   0.2073633333333333    0.2008900000000000    0.2849250000000000 H
   0.1472666666666667    0.1261950000000000    0.3434300000000000 H
   0.2167600000000000    0.1589350000000000    0.4241000000000000 H
   0.3572066666666667    0.3704700000000000    0.4916900000000000 H
   0.3095433333333333    0.1295450000000000    0.5083600000000000 H
   0.3733933333333333    0.4652800000000000    0.5438750000000000 H
   0.3684033333333333    0.3709850000000000    0.6370650000000000 H
   0.3840300000000000    0.4660950000000000    0.6832800000000000 H
   0.3889600000000000    0.2608750000000000    0.6362950000000001 H
   0.4593766666666667    0.2991300000000000    0.7151100000000000 H
   0.5194600000000000    0.3737800000000000    0.6565550000000000 H
   0.4499466666666666    0.3410750000000000    0.5759250000000000 H
   0.3710166666666667    0.1989950000000000    0.5343400000000000 H
   0.3130466666666666    0.2783800000000000    0.4801800000000000 C
   0.2944000000000000    0.0570200000000000    0.4368100000000000 C
   0.3037066666666667    0.1103150000000000    0.4658600000000000 C
   0.3050866666666666    0.1384550000000000    0.4403100000000000 C
   0.2970733333333333    0.1099150000000000    0.3853800000000000 C
   0.2882866666666666    0.0566700000000000    0.3591600000000000 C
   0.3171400000000000    0.1954950000000000    0.4705650000000000 C
   0.2957500000000000    0.2248350000000000    0.4504450000000000 C
   0.2541633333333333    0.2021450000000000    0.4015350000000000 C
   0.2501000000000000    0.2140400000000000    0.3613850000000000 C
   0.2103500000000000    0.1928300000000000    0.3168600000000000 C
   0.1772866666666666    0.1509600000000000    0.3493850000000000 C
   0.2162433333333333    0.1694250000000000    0.3943100000000000 C
   0.3722833333333333    0.4429900000000000    0.5632250000000000 C
   0.3630066666666666    0.3897000000000000    0.5341800000000000 C
   0.3616000000000000    0.3615600000000000    0.5597250000000000 C
   0.3695900000000000    0.3900850000000000    0.6146450000000000 C
   0.3783466666666667    0.4433250000000000    0.6408650000000000 C
   0.3495600000000000    0.3045150000000000    0.5294650000000000 C
   0.3709466666666666    0.2751800000000000    0.5495900000000000 C
   0.4125466666666666    0.2978700000000000    0.5984950000000000 C
   0.4166233333333333    0.2859900000000000    0.6386600000000000 C
   0.4563833333333333    0.3071900000000000    0.6831700000000001 C
   0.4894400000000000    0.3490350000000000    0.6506250000000000 C
   0.4504700000000000    0.3305800000000000    0.6057150000000000 C
   0.3536400000000000    0.2216400000000000    0.5198450000000000 C
   0.2867066666666667    0.0298000000000000    0.3839550000000000 N
   0.1737666666666667    0.1619300000000000    0.3103650000000000 N
   0.3799066666666667    0.4701950000000000    0.6160650000000000 N
   0.4929800000000000    0.3380550000000000    0.6896450000000001 N
