H8 O4
1.0
  30.9329124118216683    0.0000000000000000   -9.4612729573017269
  -6.9898306064240678   26.0203751393919873  -14.1531163246406226
   0.0000000000000000    0.0000000000000000   30.4600000000000009
H O
8 4
direct
   0.2922704969456747    0.0494855450859530    0.4221798157795020 H
   0.2878490371855168    0.0492275290136102    0.3660277360665253 H
   0.1763106202179765    0.1540018265744691    0.3385653032875309 H
   0.2002458501135406    0.1842955608703892    0.3150661106101352 H
   0.4904217872516412    0.3459897954737229    0.6614468470505768 H
   0.4664913196710503    0.3157149020397205    0.6849583927007028 H
   0.3743937877079052    0.4505214706506639    0.5778533002823407 H
   0.3787787834210791    0.4507679340968352    0.6339954515965198 H
   0.2867066666666667    0.0298000000000000    0.3839550000000000 O
   0.1737666666666667    0.1619300000000000    0.3103650000000000 O
   0.4929800000000000    0.3380550000000000    0.6896450000000001 O
   0.3799066666666667    0.4701950000000000    0.6160650000000000 O
