H10 C12 N2
1.0
  38.7518387585759072    0.0000000000000000   -4.3926066098996639
  -0.0460895389794587   18.3428535775433588   -0.0569858508888306
   0.0000000000000000    0.0000000000000000   37.5020000000000024
H C N
10 12 2
direct
   0.0900300000000000    0.1122700000000000    0.0769050000000000 H
   0.1376700000000000    0.1017500000000000    0.0386550000000000 H
   0.1072633333333333    0.8766400000000000    0.0192500000000000 H
   0.0616933333333333    0.8958800000000000    0.0600100000000000 H
   0.1813000000000000    0.0751700000000000    0.0132000000000000 H
   0.1516633333333333    0.9258000000000000    0.9863150000000001 H
   0.2429233333333333    0.8883000000000000    0.9227900000000000 H
   0.1951333333333333    0.8992100000000000    0.9608250000000000 H
   0.2259366666666667    0.1240600000000000    0.9804100000000000 H
   0.2715833333333333    0.1044700000000000    0.9398000000000000 H
   0.0953500000000000    0.0607600000000000    0.0641400000000000 C
   0.1215700000000000    0.0544800000000000    0.0424150000000000 C
   0.1270033333333333    0.9874400000000000    0.0255300000000000 C
   0.1047366666666667    0.9296400000000000    0.0319000000000000 C
   0.0792166666666667    0.9396900000000000    0.0543900000000000 C
   0.1536633333333333    0.9765000000000000    0.0018250000000000 C
   0.2376300000000000    0.9398700000000000    0.9355200000000000 C
   0.2113433333333333    0.9463500000000000    0.9571499999999999 C
   0.2059866666666667    0.0134300000000000    0.9740350000000000 C
   0.2283866666666667    0.0710500000000000    0.9677600000000000 C
   0.2539633333333333    0.0608000000000000    0.9453500000000000 C
   0.1792966666666667    0.0244800000000000    0.9976900000000000 C
   0.0743900000000000    0.0044000000000000    0.0704300000000000 N
   0.2587166666666667    0.9960500000000000    0.9293150000000000 N
