H2 O2
1.0
  38.7518387585759072    0.0000000000000000   -4.3926066098996639
  -0.0460895389794587   18.3428535775433588   -0.0569858508888306
   0.0000000000000000    0.0000000000000000   37.5020000000000024
H O
2 2
direct
   0.0207845197597004    0.8818529039674811    0.1223241211450632 H
   0.0685235820611257    0.6401707530954119    0.1462227308292943 H
   0.0191700000000000    0.9168300000000000    0.1025600000000000 O
   0.0695800000000000    0.5967700000000000    0.1311500000000000 O
