H4 C12 S2 O4
1.0
  27.6785324397236039    0.0000000000000000   -3.1036665386552476
  -5.0451186816045643   26.3051121641196808  -13.7506187323191931
   0.0000000000000000    0.0000000000000000   30.0820000000000007
H C S O
4 12 2 4
direct
   0.2030500000000000    0.3316850000000000    0.4425800000000000 H
   0.0172450000000000    0.3029950000000000    0.4024550000000000 H
   0.1994650000000000    0.3428650000000000    0.3542500000000000 H
   0.1890500000000000    0.3206600000000000    0.5287650000000000 H
   0.1346800000000000    0.3159100000000000    0.4654000000000000 C
   0.0863700000000000    0.3197650000000000    0.3811500000000000 C
   0.1255850000000000    0.3354250000000000    0.3175350000000000 C
   0.0818550000000000    0.3075500000000000    0.4533550000000000 C
   0.1629950000000000    0.3255450000000000    0.4339800000000000 C
   0.1601900000000000    0.3364050000000000    0.3542600000000000 C
   0.0572800000000000    0.3094300000000000    0.4113500000000000 C
   0.1392150000000000    0.3276100000000000    0.3916000000000000 C
   0.1319500000000000    0.3392900000000000    0.2711200000000000 C
   0.1127100000000000    0.3042950000000000    0.5326700000000000 C
   0.1507600000000000    0.3139900000000000    0.5112550000000000 C
   0.1160500000000000    0.3043800000000000    0.5822000000000001 C
   0.0652650000000000    0.3241400000000000    0.3268600000000000 S
   0.0547800000000000    0.2961400000000000    0.4975200000000000 S
   0.1748150000000000    0.3434600000000000    0.2610100000000000 O
   0.0918200000000000    0.3365050000000000    0.2438950000000000 O
   0.0751450000000000    0.2929300000000000    0.5937900000000000 O
   0.1584600000000000    0.3170100000000000    0.6094950000000000 O
