H6 O4
1.0
  27.6785324397236039    0.0000000000000000   -3.1036665386552476
  -5.0451186816045643   26.3051121641196808  -13.7506187323191931
   0.0000000000000000    0.0000000000000000   30.0820000000000007
H O
6 4
direct
   0.1892088857988296    0.3223654757556252    0.5987633411359370 H
   0.0428446718075485    0.2802811913555235    0.5721956792078550 H
   0.1144499737132239    0.2997756735367195    0.5800721836111102 H
   0.0598733136316359    0.3374676234903328    0.2539038783394569 H
   0.2062808609741837    0.3493066212970373    0.2821349500419068 H
   0.1356089927271073    0.3446413626968342    0.2732932193751035 H
   0.1584600000000000    0.3170100000000000    0.6094950000000000 O
   0.0751450000000000    0.2929300000000000    0.5937900000000000 O
   0.0918200000000000    0.3365050000000000    0.2438950000000000 O
   0.1748150000000000    0.3434600000000000    0.2610100000000000 O
