Zn32 H252 C532 S62 N32 O124
1.0
  27.6785324397236039    0.0000000000000000   -3.1036665386552476
  -5.0451186816045643   26.3051121641196808  -13.7506187323191931
   0.0000000000000000    0.0000000000000000   30.0820000000000007
Zn H C S N O
32 252 532 62 32 124
direct
   0.1773250000000000    0.3325000000000000    0.1861600000000000 Zn
   0.4273150000000000    0.1863100000000000    0.3323000000000000 Zn
   0.3226900000000000    0.1675100000000000    0.3138350000000000 Zn
   0.0727000000000000    0.3136950000000000    0.1676800000000000 Zn
   0.6773250000000000    0.3325000000000000    0.1861600000000000 Zn
   0.9273150000000000    0.1863100000000000    0.3323000000000000 Zn
   0.8226899999999999    0.1675100000000000    0.3138350000000000 Zn
   0.5727000000000000    0.3136950000000000    0.1676800000000000 Zn
   0.1773250000000000    0.8325000000000000    0.1861600000000000 Zn
   0.4273150000000000    0.6863100000000000    0.3323000000000000 Zn
   0.3226900000000000    0.6675100000000000    0.3138350000000000 Zn
   0.0727000000000000    0.8136950000000001    0.1676800000000000 Zn
   0.6773250000000000    0.8325000000000000    0.1861600000000000 Zn
   0.9273150000000000    0.6863100000000000    0.3323000000000000 Zn
   0.8226899999999999    0.6675100000000000    0.3138350000000000 Zn
   0.5727000000000000    0.8136950000000001    0.1676800000000000 Zn
   0.1773250000000000    0.3325000000000000    0.6861600000000000 Zn
   0.4273150000000000    0.1863100000000000    0.8323000000000000 Zn
   0.3226900000000000    0.1675100000000000    0.8138350000000000 Zn
   0.0727000000000000    0.3136950000000000    0.6676800000000001 Zn
   0.6773250000000000    0.3325000000000000    0.6861600000000000 Zn
   0.9273150000000000    0.1863100000000000    0.8323000000000000 Zn
   0.8226899999999999    0.1675100000000000    0.8138350000000000 Zn
   0.5727000000000000    0.3136950000000000    0.6676800000000001 Zn
   0.1773250000000000    0.8325000000000000    0.6861600000000000 Zn
   0.4273150000000000    0.6863100000000000    0.8323000000000000 Zn
   0.3226900000000000    0.6675100000000000    0.8138350000000000 Zn
   0.0727000000000000    0.8136950000000001    0.6676800000000001 Zn
   0.6773250000000000    0.8325000000000000    0.6861600000000000 Zn
   0.9273150000000000    0.6863100000000000    0.8323000000000000 Zn
   0.8226899999999999    0.6675100000000000    0.8138350000000000 Zn
   0.5727000000000000    0.8136950000000001    0.6676800000000001 Zn
   0.1890500000000000    0.3206600000000000    0.0287650000000000 H
   0.0000000000000000    0.2995750000000000    0.2290500000000000 H
   0.4894350000000000    0.3282850000000000    0.1065650000000000 H
   0.4154050000000000    0.3053550000000000    0.2373950000000000 H
   0.4010250000000000    0.3353000000000000    0.1093550000000000 H
   0.0608950000000000    0.4707550000000000    0.1787600000000000 H
   0.2466150000000000    0.2709800000000000    0.2001150000000000 H
   0.2611750000000000    0.3935850000000000    0.1716750000000000 H
   0.3340650000000000    0.2624450000000000    0.1943200000000000 H
   0.0468950000000000    0.0570150000000000    0.1681550000000000 H
   0.2327250000000000    0.0979200000000000    0.1969450000000000 H
   0.3495850000000000    0.3906350000000000    0.1646900000000000 H
   0.0504850000000000    0.1455450000000000    0.1574550000000000 H
   0.3109600000000000    0.1793500000000000    0.4712300000000000 H
   0.4971100000000000    0.2004350000000000    0.2709450000000000 H
   0.0105800000000000    0.1717250000000000    0.3934000000000000 H
   0.0846100000000000    0.1946550000000000    0.2626000000000000 H
   0.2969600000000000    0.1683250000000000    0.0574150000000000 H
   0.4827650000000000    0.1970150000000000    0.0975400000000000 H
   0.0989850000000000    0.1647100000000000    0.3906000000000000 H
   0.3005450000000000    0.1571500000000000    0.1457450000000000 H
   0.4391150000000000    0.0292550000000000    0.3212350000000000 H
   0.2534000000000000    0.2290300000000000    0.2998800000000000 H
   0.2388350000000000    0.1064200000000000    0.3283200000000000 H
   0.1659450000000000    0.2375650000000000    0.3056750000000000 H
   0.4531150000000000    0.4429950000000000    0.3318450000000000 H
   0.2672850000000000    0.4020900000000000    0.3030500000000000 H
   0.1504250000000000    0.1093750000000000    0.3353050000000000 H
   0.4495250000000000    0.3544650000000000    0.3425450000000000 H
   0.6890499999999999    0.3206600000000000    0.0287650000000000 H
   0.5000000000000000    0.2995750000000000    0.2290500000000000 H
   0.9894350000000001    0.3282850000000000    0.1065650000000000 H
   0.9154050000000000    0.3053550000000000    0.2373950000000000 H
   0.7030500000000000    0.3316850000000000    0.4425800000000000 H
   0.5172450000000000    0.3029950000000000    0.4024550000000000 H
   0.9010250000000000    0.3353000000000000    0.1093550000000000 H
   0.6994650000000000    0.3428650000000000    0.3542500000000000 H
   0.5608950000000000    0.4707550000000000    0.1787600000000000 H
   0.7466150000000000    0.2709800000000000    0.2001150000000000 H
   0.7611749999999999    0.3935850000000000    0.1716750000000000 H
   0.8340650000000001    0.2624450000000000    0.1943200000000000 H
   0.5468950000000000    0.0570150000000000    0.1681550000000000 H
   0.7327250000000000    0.0979200000000000    0.1969450000000000 H
   0.8495850000000000    0.3906350000000000    0.1646900000000000 H
   0.5504850000000000    0.1455450000000000    0.1574550000000000 H
   0.8109600000000000    0.1793500000000000    0.4712300000000000 H
   0.9971099999999999    0.2004350000000000    0.2709450000000000 H
   0.5105800000000000    0.1717250000000000    0.3934000000000000 H
   0.5846100000000000    0.1946550000000000    0.2626000000000000 H
   0.7969600000000000    0.1683250000000000    0.0574150000000000 H
   0.9827650000000000    0.1970150000000000    0.0975400000000000 H
   0.5989850000000000    0.1647100000000000    0.3906000000000000 H
   0.8005450000000001    0.1571500000000000    0.1457450000000000 H
   0.9391149999999999    0.0292550000000000    0.3212350000000000 H
   0.7534000000000001    0.2290300000000000    0.2998800000000000 H
   0.7388350000000000    0.1064200000000000    0.3283200000000000 H
   0.6659450000000000    0.2375650000000000    0.3056750000000000 H
   0.9531149999999999    0.4429950000000000    0.3318450000000000 H
   0.7672850000000000    0.4020900000000000    0.3030500000000000 H
   0.6504250000000000    0.1093750000000000    0.3353050000000000 H
   0.9495250000000000    0.3544650000000000    0.3425450000000000 H
   0.1890500000000000    0.8206599999999999    0.0287650000000000 H
   0.0000000000000000    0.7995749999999999    0.2290500000000000 H
   0.4894350000000000    0.8282849999999999    0.1065650000000000 H
   0.4154050000000000    0.8053550000000000    0.2373950000000000 H
   0.2030500000000000    0.8316850000000000    0.4425800000000000 H
   0.0172450000000000    0.8029950000000000    0.4024550000000000 H
   0.4010250000000000    0.8352999999999999    0.1093550000000000 H
   0.1994650000000000    0.8428650000000000    0.3542500000000000 H
   0.0608950000000000    0.9707550000000000    0.1787600000000000 H
   0.2466150000000000    0.7709800000000000    0.2001150000000000 H
   0.2611750000000000    0.8935850000000001    0.1716750000000000 H
   0.3340650000000000    0.7624450000000000    0.1943200000000000 H
   0.0468950000000000    0.5570150000000000    0.1681550000000000 H
   0.2327250000000000    0.5979200000000000    0.1969450000000000 H
   0.3495850000000000    0.8906350000000001    0.1646900000000000 H
   0.0504850000000000    0.6455450000000000    0.1574550000000000 H
   0.3109600000000000    0.6793500000000000    0.4712300000000000 H
   0.4971100000000000    0.7004350000000000    0.2709450000000000 H
   0.0105800000000000    0.6717250000000000    0.3934000000000000 H
   0.0846100000000000    0.6946550000000000    0.2626000000000000 H
   0.2969600000000000    0.6683250000000001    0.0574150000000000 H
   0.4827650000000000    0.6970149999999999    0.0975400000000000 H
   0.0989850000000000    0.6647100000000000    0.3906000000000000 H
   0.3005450000000000    0.6571500000000000    0.1457450000000000 H
   0.4391150000000000    0.5292550000000000    0.3212350000000000 H
   0.2534000000000000    0.7290300000000001    0.2998800000000000 H
   0.2388350000000000    0.6064200000000000    0.3283200000000000 H
   0.1659450000000000    0.7375650000000000    0.3056750000000000 H
   0.4531150000000000    0.9429950000000000    0.3318450000000000 H
   0.2672850000000000    0.9020900000000001    0.3030500000000000 H
   0.1504250000000000    0.6093750000000000    0.3353050000000000 H
   0.4495250000000000    0.8544650000000000    0.3425450000000000 H
   0.6890499999999999    0.8206599999999999    0.0287650000000000 H
   0.5000000000000000    0.7995749999999999    0.2290500000000000 H
   0.9894350000000001    0.8282849999999999    0.1065650000000000 H
   0.9154050000000000    0.8053550000000000    0.2373950000000000 H
   0.7030500000000000    0.8316850000000000    0.4425800000000000 H
   0.5172450000000000    0.8029950000000000    0.4024550000000000 H
   0.9010250000000000    0.8352999999999999    0.1093550000000000 H
   0.6994650000000000    0.8428650000000000    0.3542500000000000 H
   0.5608950000000000    0.9707550000000000    0.1787600000000000 H
   0.7466150000000000    0.7709800000000000    0.2001150000000000 H
   0.7611749999999999    0.8935850000000001    0.1716750000000000 H
   0.8340650000000001    0.7624450000000000    0.1943200000000000 H
   0.5468950000000000    0.5570150000000000    0.1681550000000000 H
   0.7327250000000000    0.5979200000000000    0.1969450000000000 H
   0.8495850000000000    0.8906350000000001    0.1646900000000000 H
   0.5504850000000000    0.6455450000000000    0.1574550000000000 H
   0.8109600000000000    0.6793500000000000    0.4712300000000000 H
   0.9971099999999999    0.7004350000000000    0.2709450000000000 H
   0.5105800000000000    0.6717250000000000    0.3934000000000000 H
   0.5846100000000000    0.6946550000000000    0.2626000000000000 H
   0.7969600000000000    0.6683250000000001    0.0574150000000000 H
   0.9827650000000000    0.6970149999999999    0.0975400000000000 H
   0.5989850000000000    0.6647100000000000    0.3906000000000000 H
   0.8005450000000001    0.6571500000000000    0.1457450000000000 H
   0.9391149999999999    0.5292550000000000    0.3212350000000000 H
   0.7534000000000001    0.7290300000000001    0.2998800000000000 H
   0.7388350000000000    0.6064200000000000    0.3283200000000000 H
   0.6659450000000000    0.7375650000000000    0.3056750000000000 H
   0.9531149999999999    0.9429950000000000    0.3318450000000000 H
   0.7672850000000000    0.9020900000000001    0.3030500000000000 H
   0.6504250000000000    0.6093750000000000    0.3353050000000000 H
   0.9495250000000000    0.8544650000000000    0.3425450000000000 H
   0.0000000000000000    0.2995750000000000    0.7290500000000000 H
   0.4894350000000000    0.3282850000000000    0.6065650000000000 H
   0.4154050000000000    0.3053550000000000    0.7373950000000000 H
   0.2030500000000000    0.3316850000000000    0.9425800000000000 H
   0.0172450000000000    0.3029950000000000    0.9024550000000000 H
   0.4010250000000000    0.3353000000000000    0.6093550000000000 H
   0.1994650000000000    0.3428650000000000    0.8542500000000000 H
   0.0608950000000000    0.4707550000000000    0.6787600000000000 H
   0.2466150000000000    0.2709800000000000    0.7001150000000000 H
   0.2611750000000000    0.3935850000000000    0.6716750000000000 H
   0.3340650000000000    0.2624450000000000    0.6943200000000000 H
   0.0468950000000000    0.0570150000000000    0.6681550000000001 H
   0.2327250000000000    0.0979200000000000    0.6969450000000000 H
   0.3495850000000000    0.3906350000000000    0.6646900000000000 H
   0.0504850000000000    0.1455450000000000    0.6574550000000000 H
   0.3109600000000000    0.1793500000000000    0.9712300000000000 H
   0.4971100000000000    0.2004350000000000    0.7709450000000000 H
   0.0105800000000000    0.1717250000000000    0.8934000000000000 H
   0.0846100000000000    0.1946550000000000    0.7625999999999999 H
   0.2969600000000000    0.1683250000000000    0.5574150000000000 H
   0.4827650000000000    0.1970150000000000    0.5975400000000000 H
   0.0989850000000000    0.1647100000000000    0.8906000000000001 H
   0.3005450000000000    0.1571500000000000    0.6457450000000000 H
   0.4391150000000000    0.0292550000000000    0.8212349999999999 H
   0.2534000000000000    0.2290300000000000    0.7998799999999999 H
   0.2388350000000000    0.1064200000000000    0.8283199999999999 H
   0.1659450000000000    0.2375650000000000    0.8056749999999999 H
   0.4531150000000000    0.4429950000000000    0.8318449999999999 H
   0.2672850000000000    0.4020900000000000    0.8030500000000000 H
   0.1504250000000000    0.1093750000000000    0.8353050000000000 H
   0.4495250000000000    0.3544650000000000    0.8425450000000000 H
   0.6890499999999999    0.3206600000000000    0.5287650000000000 H
   0.5000000000000000    0.2995750000000000    0.7290500000000000 H
   0.9894350000000001    0.3282850000000000    0.6065650000000000 H
   0.9154050000000000    0.3053550000000000    0.7373950000000000 H
   0.7030500000000000    0.3316850000000000    0.9425800000000000 H
   0.5172450000000000    0.3029950000000000    0.9024550000000000 H
   0.9010250000000000    0.3353000000000000    0.6093550000000000 H
   0.6994650000000000    0.3428650000000000    0.8542500000000000 H
   0.5608950000000000    0.4707550000000000    0.6787600000000000 H
   0.7466150000000000    0.2709800000000000    0.7001150000000000 H
   0.7611749999999999    0.3935850000000000    0.6716750000000000 H
   0.8340650000000001    0.2624450000000000    0.6943200000000000 H
   0.5468950000000000    0.0570150000000000    0.6681550000000001 H
   0.7327250000000000    0.0979200000000000    0.6969450000000000 H
   0.8495850000000000    0.3906350000000000    0.6646900000000000 H
   0.5504850000000000    0.1455450000000000    0.6574550000000000 H
   0.8109600000000000    0.1793500000000000    0.9712300000000000 H
   0.9971099999999999    0.2004350000000000    0.7709450000000000 H
   0.5105800000000000    0.1717250000000000    0.8934000000000000 H
   0.5846100000000000    0.1946550000000000    0.7625999999999999 H
   0.7969600000000000    0.1683250000000000    0.5574150000000000 H
   0.9827650000000000    0.1970150000000000    0.5975400000000000 H
   0.5989850000000000    0.1647100000000000    0.8906000000000001 H
   0.8005450000000001    0.1571500000000000    0.6457450000000000 H
   0.9391149999999999    0.0292550000000000    0.8212349999999999 H
   0.7534000000000001    0.2290300000000000    0.7998799999999999 H
   0.7388350000000000    0.1064200000000000    0.8283199999999999 H
   0.6659450000000000    0.2375650000000000    0.8056749999999999 H
   0.9531149999999999    0.4429950000000000    0.8318449999999999 H
   0.7672850000000000    0.4020900000000000    0.8030500000000000 H
   0.6504250000000000    0.1093750000000000    0.8353050000000000 H
   0.9495250000000000    0.3544650000000000    0.8425450000000000 H
   0.1890500000000000    0.8206599999999999    0.5287650000000000 H
   0.0000000000000000    0.7995749999999999    0.7290500000000000 H
   0.4894350000000000    0.8282849999999999    0.6065650000000000 H
   0.4154050000000000    0.8053550000000000    0.7373950000000000 H
   0.2030500000000000    0.8316850000000000    0.9425800000000000 H
   0.0172450000000000    0.8029950000000000    0.9024550000000000 H
   0.4010250000000000    0.8352999999999999    0.6093550000000000 H
   0.1994650000000000    0.8428650000000000    0.8542500000000000 H
   0.0608950000000000    0.9707550000000000    0.6787600000000000 H
   0.2466150000000000    0.7709800000000000    0.7001150000000000 H
   0.2611750000000000    0.8935850000000001    0.6716750000000000 H
   0.3340650000000000    0.7624450000000000    0.6943200000000000 H
   0.0468950000000000    0.5570150000000000    0.6681550000000001 H
   0.2327250000000000    0.5979200000000000    0.6969450000000000 H
   0.3495850000000000    0.8906350000000001    0.6646900000000000 H
   0.0504850000000000    0.6455450000000000    0.6574550000000000 H
   0.3109600000000000    0.6793500000000000    0.9712300000000000 H
   0.4971100000000000    0.7004350000000000    0.7709450000000000 H
   0.0105800000000000    0.6717250000000000    0.8934000000000000 H
   0.0846100000000000    0.6946550000000000    0.7625999999999999 H
   0.2969600000000000    0.6683250000000001    0.5574150000000000 H
   0.4827650000000000    0.6970149999999999    0.5975400000000000 H
   0.0989850000000000    0.6647100000000000    0.8906000000000001 H
   0.3005450000000000    0.6571500000000000    0.6457450000000000 H
   0.4391150000000000    0.5292550000000000    0.8212349999999999 H
   0.2534000000000000    0.7290300000000001    0.7998799999999999 H
   0.2388350000000000    0.6064200000000000    0.8283199999999999 H
   0.1659450000000000    0.7375650000000000    0.8056749999999999 H
   0.4531150000000000    0.9429950000000000    0.8318449999999999 H
   0.2672850000000000    0.9020900000000001    0.8030500000000000 H
   0.1504250000000000    0.6093750000000000    0.8353050000000000 H
   0.4495250000000000    0.8544650000000000    0.8425450000000000 H
   0.6890499999999999    0.8206599999999999    0.5287650000000000 H
   0.5000000000000000    0.7995749999999999    0.7290500000000000 H
   0.9894350000000001    0.8282849999999999    0.6065650000000000 H
   0.9154050000000000    0.8053550000000000    0.7373950000000000 H
   0.7030500000000000    0.8316850000000000    0.9425800000000000 H
   0.5172450000000000    0.8029950000000000    0.9024550000000000 H
   0.9010250000000000    0.8352999999999999    0.6093550000000000 H
   0.6994650000000000    0.8428650000000000    0.8542500000000000 H
   0.5608950000000000    0.9707550000000000    0.6787600000000000 H
   0.7466150000000000    0.7709800000000000    0.7001150000000000 H
   0.7611749999999999    0.8935850000000001    0.6716750000000000 H
   0.8340650000000001    0.7624450000000000    0.6943200000000000 H
   0.5468950000000000    0.5570150000000000    0.6681550000000001 H
   0.7327250000000000    0.5979200000000000    0.6969450000000000 H
   0.8495850000000000    0.8906350000000001    0.6646900000000000 H
   0.5504850000000000    0.6455450000000000    0.6574550000000000 H
   0.8109600000000000    0.6793500000000000    0.9712300000000000 H
   0.9971099999999999    0.7004350000000000    0.7709450000000000 H
   0.5105800000000000    0.6717250000000000    0.8934000000000000 H
   0.5846100000000000    0.6946550000000000    0.7625999999999999 H
   0.7969600000000000    0.6683250000000001    0.5574150000000000 H
   0.9827650000000000    0.6970149999999999    0.5975400000000000 H
   0.5989850000000000    0.6647100000000000    0.8906000000000001 H
   0.8005450000000001    0.6571500000000000    0.6457450000000000 H
   0.9391149999999999    0.5292550000000000    0.8212349999999999 H
   0.7534000000000001    0.7290300000000001    0.7998799999999999 H
   0.7388350000000000    0.6064200000000000    0.8283199999999999 H
   0.6659450000000000    0.7375650000000000    0.8056749999999999 H
   0.9531149999999999    0.9429950000000000    0.8318449999999999 H
   0.7672850000000000    0.9020900000000001    0.8030500000000000 H
   0.6504250000000000    0.6093750000000000    0.8353050000000000 H
   0.9495250000000000    0.8544650000000000    0.8425450000000000 H
   0.1127100000000000    0.3042950000000000    0.0326700000000000 C
   0.1507600000000000    0.3139900000000000    0.0112550000000000 C
   0.4787750000000000    0.3073750000000000    0.2034800000000000 C
   0.4009250000000000    0.3215750000000000    0.1743150000000000 C
   0.4713800000000000    0.3241050000000000    0.1351300000000000 C
   0.1160500000000000    0.3043800000000000    0.0822000000000000 C
   0.4301000000000000    0.3105400000000000    0.2076800000000000 C
   0.4224600000000000    0.3282300000000000    0.1372450000000000 C
   0.1372400000000000    0.4671050000000000    0.1950450000000000 C
   0.0991850000000000    0.4884150000000000    0.1854650000000000 C
   0.2709800000000000    0.2965350000000000    0.1923800000000000 C
   0.3491200000000000    0.3255950000000000    0.1782700000000000 C
   0.2789850000000000    0.3649550000000000    0.1758050000000000 C
   0.1152650000000000    0.0344050000000000    0.1837700000000000 C
   0.1635950000000000    0.1190200000000000    0.1803300000000000 C
   0.1243800000000000    0.1826450000000000    0.1650600000000000 C
   0.1339200000000000    0.4175400000000000    0.1948000000000000 C
   0.1681000000000000    0.0466750000000000    0.1921650000000000 C
   0.3196250000000000    0.2922300000000000    0.1892050000000000 C
   0.0869600000000000    0.0657850000000000    0.1743150000000000 C
   0.0897700000000000    0.1456950000000000    0.1638900000000000 C
   0.1926850000000000    0.0888300000000000    0.1904900000000000 C
   0.3279050000000000    0.3627550000000000    0.1717000000000000 C
   0.1107450000000000    0.1083450000000000    0.1724550000000000 C
   0.1180350000000000    0.2291200000000000    0.1614250000000000 C
   0.3873050000000000    0.1957150000000000    0.4673250000000000 C
   0.3492500000000000    0.1860200000000000    0.4887400000000000 C
   0.0212350000000000    0.1926350000000000    0.2965150000000000 C
   0.0990900000000000    0.1784350000000000    0.3256500000000000 C
   0.0286350000000000    0.1759050000000000    0.3648650000000000 C
   0.3653300000000000    0.1841050000000000    0.0345950000000000 C
   0.4136400000000000    0.1802500000000000    0.1188500000000000 C
   0.3744250000000000    0.1645900000000000    0.1824650000000000 C
   0.3839650000000000    0.1956250000000000    0.4177950000000000 C
   0.4181550000000000    0.1924650000000000    0.0466400000000000 C
   0.0699100000000000    0.1894700000000000    0.2923200000000000 C
   0.3370200000000000    0.1744700000000000    0.0660200000000000 C
   0.3398200000000000    0.1636100000000000    0.1457350000000000 C
   0.4427300000000000    0.1905800000000000    0.0886150000000000 C
   0.0775500000000000    0.1717800000000000    0.3627550000000000 C
   0.3607950000000000    0.1724050000000000    0.1083950000000000 C
   0.3680650000000000    0.1607200000000000    0.2288750000000000 C
   0.3627750000000000    0.0329050000000000    0.3049500000000000 C
   0.4008250000000000    0.0115950000000000    0.3145300000000000 C
   0.2290350000000000    0.2034750000000000    0.3076150000000000 C
   0.1508900000000000    0.1744150000000000    0.3217250000000000 C
   0.2210300000000000    0.1350550000000000    0.3241900000000000 C
   0.3847450000000000    0.4656050000000000    0.3162000000000000 C
   0.3364200000000000    0.3809900000000000    0.3196700000000000 C
   0.3756350000000000    0.3173650000000000    0.3349400000000000 C
   0.3660950000000000    0.0824650000000000    0.3051800000000000 C
   0.3319100000000000    0.4533350000000000    0.3078300000000000 C
   0.1803900000000000    0.2077800000000000    0.3107900000000000 C
   0.4130550000000000    0.4342250000000000    0.3256850000000000 C
   0.4102450000000000    0.3543150000000000    0.3361100000000000 C
   0.3073250000000000    0.4111800000000000    0.3095000000000000 C
   0.1721100000000000    0.1372550000000000    0.3282950000000000 C
   0.3892700000000000    0.3916650000000000    0.3275450000000000 C
   0.3819750000000000    0.2708900000000000    0.3385750000000000 C
   0.6127100000000000    0.3042950000000000    0.0326700000000000 C
   0.6507600000000000    0.3139900000000000    0.0112550000000000 C
   0.9787750000000000    0.3073750000000000    0.2034800000000000 C
   0.9009250000000000    0.3215750000000000    0.1743150000000000 C
   0.9713800000000000    0.3241050000000000    0.1351300000000000 C
   0.6346800000000000    0.3159100000000000    0.4654000000000000 C
   0.5863700000000001    0.3197650000000000    0.3811500000000000 C
   0.6255850000000001    0.3354250000000000    0.3175350000000000 C
   0.6160500000000000    0.3043800000000000    0.0822000000000000 C
   0.5818550000000000    0.3075500000000000    0.4533550000000000 C
   0.9300999999999999    0.3105400000000000    0.2076800000000000 C
   0.6629950000000000    0.3255450000000000    0.4339800000000000 C
   0.6601900000000001    0.3364050000000000    0.3542600000000000 C
   0.5572800000000000    0.3094300000000000    0.4113500000000000 C
   0.9224600000000001    0.3282300000000000    0.1372450000000000 C
   0.6392150000000000    0.3276100000000000    0.3916000000000000 C
   0.6319500000000000    0.3392900000000000    0.2711200000000000 C
   0.6372400000000000    0.4671050000000000    0.1950450000000000 C
   0.5991850000000000    0.4884150000000000    0.1854650000000000 C
   0.7709800000000000    0.2965350000000000    0.1923800000000000 C
   0.8491200000000000    0.3255950000000000    0.1782700000000000 C
   0.7789850000000000    0.3649550000000000    0.1758050000000000 C
   0.6152650000000000    0.0344050000000000    0.1837700000000000 C
   0.6635949999999999    0.1190200000000000    0.1803300000000000 C
   0.6243800000000000    0.1826450000000000    0.1650600000000000 C
   0.6339200000000000    0.4175400000000000    0.1948000000000000 C
   0.6681000000000000    0.0466750000000000    0.1921650000000000 C
   0.8196250000000000    0.2922300000000000    0.1892050000000000 C
   0.5869600000000000    0.0657850000000000    0.1743150000000000 C
   0.5897700000000000    0.1456950000000000    0.1638900000000000 C
   0.6926850000000000    0.0888300000000000    0.1904900000000000 C
   0.8279050000000000    0.3627550000000000    0.1717000000000000 C
   0.6107450000000000    0.1083450000000000    0.1724550000000000 C
   0.6180350000000000    0.2291200000000000    0.1614250000000000 C
   0.8873050000000000    0.1957150000000000    0.4673250000000000 C
   0.8492500000000001    0.1860200000000000    0.4887400000000000 C
   0.5212350000000000    0.1926350000000000    0.2965150000000000 C
   0.5990900000000000    0.1784350000000000    0.3256500000000000 C
   0.5286350000000000    0.1759050000000000    0.3648650000000000 C
   0.8653299999999999    0.1841050000000000    0.0345950000000000 C
   0.9136400000000000    0.1802500000000000    0.1188500000000000 C
   0.8744250000000000    0.1645900000000000    0.1824650000000000 C
   0.8839650000000000    0.1956250000000000    0.4177950000000000 C
   0.9181550000000001    0.1924650000000000    0.0466400000000000 C
   0.5699100000000000    0.1894700000000000    0.2923200000000000 C
   0.8370200000000000    0.1744700000000000    0.0660200000000000 C
   0.8398200000000000    0.1636100000000000    0.1457350000000000 C
   0.9427300000000001    0.1905800000000000    0.0886150000000000 C
   0.5775500000000000    0.1717800000000000    0.3627550000000000 C
   0.8607950000000000    0.1724050000000000    0.1083950000000000 C
   0.8680650000000000    0.1607200000000000    0.2288750000000000 C
   0.8627750000000001    0.0329050000000000    0.3049500000000000 C
   0.9008250000000000    0.0115950000000000    0.3145300000000000 C
   0.7290350000000000    0.2034750000000000    0.3076150000000000 C
   0.6508900000000000    0.1744150000000000    0.3217250000000000 C
   0.7210300000000001    0.1350550000000000    0.3241900000000000 C
   0.8847450000000000    0.4656050000000000    0.3162000000000000 C
   0.8364199999999999    0.3809900000000000    0.3196700000000000 C
   0.8756349999999999    0.3173650000000000    0.3349400000000000 C
   0.8660950000000001    0.0824650000000000    0.3051800000000000 C
   0.8319099999999999    0.4533350000000000    0.3078300000000000 C
   0.6803900000000001    0.2077800000000000    0.3107900000000000 C
   0.9130549999999999    0.4342250000000000    0.3256850000000000 C
   0.9102450000000000    0.3543150000000000    0.3361100000000000 C
   0.8073250000000001    0.4111800000000000    0.3095000000000000 C
   0.6721100000000000    0.1372550000000000    0.3282950000000000 C
   0.8892700000000000    0.3916650000000000    0.3275450000000000 C
   0.8819750000000000    0.2708900000000000    0.3385750000000000 C
   0.1127100000000000    0.8042950000000000    0.0326700000000000 C
   0.1507600000000000    0.8139900000000000    0.0112550000000000 C
   0.4787750000000000    0.8073750000000000    0.2034800000000000 C
   0.4009250000000000    0.8215749999999999    0.1743150000000000 C
   0.4713800000000000    0.8241050000000000    0.1351300000000000 C
   0.1346800000000000    0.8159100000000000    0.4654000000000000 C
   0.0863700000000000    0.8197650000000001    0.3811500000000000 C
   0.1255850000000000    0.8354250000000000    0.3175350000000000 C
   0.1160500000000000    0.8043800000000000    0.0822000000000000 C
   0.0818550000000000    0.8075500000000000    0.4533550000000000 C
   0.4301000000000000    0.8105400000000000    0.2076800000000000 C
   0.1629950000000000    0.8255450000000000    0.4339800000000000 C
   0.1601900000000000    0.8364050000000001    0.3542600000000000 C
   0.0572800000000000    0.8094300000000000    0.4113500000000000 C
   0.4224600000000000    0.8282300000000000    0.1372450000000000 C
   0.1392150000000000    0.8276100000000000    0.3916000000000000 C
   0.1319500000000000    0.8392900000000000    0.2711200000000000 C
   0.1372400000000000    0.9671050000000000    0.1950450000000000 C
   0.0991850000000000    0.9884150000000000    0.1854650000000000 C
   0.2709800000000000    0.7965350000000000    0.1923800000000000 C
   0.3491200000000000    0.8255950000000001    0.1782700000000000 C
   0.2789850000000000    0.8649549999999999    0.1758050000000000 C
   0.1152650000000000    0.5344050000000000    0.1837700000000000 C
   0.1635950000000000    0.6190200000000000    0.1803300000000000 C
   0.1243800000000000    0.6826449999999999    0.1650600000000000 C