H7 C15 O6
1.0
  15.3754069622350240    0.0000000000000000    1.4325588105396498
   2.0406884582853224    9.2141387981716445    3.7846348336727353
   0.0000000000000000    0.0000000000000000   26.9259999999999984
H C O
7 15 6
direct
   0.6397650000000000    0.7561900000000000    0.1634550000000000 H
   0.6727550000000000    0.6323900000000000    0.0260200000000000 H
   0.7004650000000000    0.2667100000000000    0.2631650000000000 H
   0.6566149999999999    0.3097100000000000    0.1823100000000000 H
   0.5336600000000000    0.6524700000000000    0.3281950000000000 H
   0.5560500000000000    0.7078300000000000    0.2310550000000000 H
   0.6714050000000000    0.2106800000000000    0.3600400000000000 H
   0.6609650000000000    0.8618800000000000    0.0578800000000000 C
   0.6566650000000001    0.7091100000000000    0.0918550000000000 C
   0.6459350000000000    0.6711300000000000    0.1472450000000000 C
   0.6652800000000000    0.4598200000000000    0.1022900000000000 C
   0.6723550000000000    0.3461400000000000    0.0787900000000000 C
   0.6652200000000000    0.6034400000000000    0.0691250000000000 C
   0.6622450000000000    0.3516700000000000    0.2768550000000000 C
   0.6569350000000000    0.4223400000000000    0.1578450000000000 C
   0.5698250000000000    0.5686000000000000    0.3134700000000000 C
   0.6009949999999999    0.4282600000000000    0.3504100000000000 C
   0.6452700000000000    0.5279199999999999    0.1812000000000000 C
   0.5838200000000000    0.5994200000000000    0.2590100000000000 C
   0.6309200000000000    0.4920400000000000    0.2394800000000000 C
   0.6469950000000000    0.3197300000000000    0.3314700000000000 C
   0.5850450000000000    0.3965800000000000    0.4089400000000000 C
   0.6401700000000000   -0.0430400000000000    0.0798650000000000 O
   0.6845900000000000    0.8941200000000000    0.0086750000000000 O
   0.6444350000000000    0.3889600000000000    0.0292800000000000 O
   0.7040950000000000    0.2151000000000000    0.1042000000000000 O
   0.5440350000000000    0.5066200000000000    0.4211350000000000 O
   0.6107850000000000    0.2678100000000000    0.4415100000000000 O
