H9 O6
1.0
  15.3754069622350240    0.0000000000000000    1.4325588105396498
   2.0406884582853224    9.2141387981716445    3.7846348336727353
   0.0000000000000000    0.0000000000000000   26.9259999999999984
H O
9 6
direct
   0.7113807261171305    0.8982566683148887    0.0391034885366685 H
   0.6461426567815803   -0.0272247849562025    0.1126406110609847 H
   0.7125418422020728    0.9681346992305672    0.1620638086920588 H
   0.6190638903922489    0.4872173126177787    0.0059729296256647 H
   0.7266588625144097    0.1719519918323540    0.1404859887854327 H
   0.6736062438592382    0.3331769501123762    0.0761916237017246 H
   0.7803155394759744    0.3424670767177618    0.1053970665917066 H
   0.5623341348754183    0.5146784885796130    0.3848549532259939 H
   0.6348999949540135    0.2510564115520599    0.4092855151235980 H
   0.6845900000000000    0.8941200000000000    0.0086750000000000 O
   0.6401700000000000   -0.0430400000000000    0.0798650000000000 O
   0.6444350000000000    0.3889600000000000    0.0292800000000000 O
   0.7040950000000000    0.2151000000000000    0.1042000000000000 O
   0.5440350000000000    0.5066200000000000    0.4211350000000000 O
   0.6107850000000000    0.2678100000000000    0.4415100000000000 O
