H4 C8 O4
1.0
  30.8799999247473131    0.0000000000000000   -0.0021558306903115
   0.0015441296777888   32.9349619250757328  -13.4619716464370480
   0.0000000000000000    0.0000000000000000   36.6360000000000028
H C O
4 8 4
direct
   0.8339650000000001    0.3313350000000000    0.6531250000000000 H
   0.8763300000000001    0.3914550000000000    0.6963250000000000 H
   0.9390550000000000    0.3978100000000000    0.5940450000000000 H
   0.8950500000000000    0.3389650000000000    0.5507750000000000 H
   0.8331900000000000    0.2978000000000000    0.5734500000000000 C
   0.8611249999999999    0.3320150000000000    0.5991850000000000 C
   0.8565300000000000    0.3464200000000000    0.6403250000000000 C
   0.8804550000000000    0.3796700000000000    0.6644500000000000 C
   0.9103049999999999    0.3984550000000000    0.6479000000000000 C
   0.9357800000000001    0.4346200000000000    0.6737000000000000 C
   0.9158400000000000    0.3832700000000000    0.6068350000000000 C
   0.8912300000000000    0.3505700000000000    0.5826650000000000 C
   0.8336800000000000    0.2911200000000000    0.5361750000000000 O
   0.9686350000000000    0.4453100000000000    0.6594400000000000 O
   0.9218150000000001    0.4521350000000000    0.7093750000000000 O
   0.8112500000000000    0.2781850000000000    0.5892850000000001 O
