Zn144 H380 C760 O380
1.0
  30.8799999247473131    0.0000000000000000   -0.0021558306903115
   0.0015441296777888   32.9349619250757328  -13.4619716464370480
   0.0000000000000000    0.0000000000000000   36.6360000000000028
Zn H C O
144 380 760 380
direct
   0.0483250000000000    0.0014750000000000    0.0834000000000000 Zn
   0.2995400000000000    0.2483850000000000    0.4982950000000000 Zn
   0.4500450000000000    0.0000000000000000    0.0831400000000000 Zn
   0.0000000000000000    0.4986800000000000    0.3329950000000000 Zn
   0.2983300000000000    0.2485300000000000    0.1666000000000000 Zn
   0.0495400000000000    0.0016000000000000    0.2517150000000000 Zn
   0.2000400000000000    0.2499700000000000    0.1668500000000000 Zn
   0.2499900000000000    0.2486750000000000    0.0829950000000000 Zn
   0.4516850000000000    0.4985350000000000    0.4166000000000000 Zn
   0.2004650000000000    0.2516100000000000    0.0017100000000000 Zn
   0.0499600000000000    0.4999650000000000    0.4168550000000000 Zn
   0.4999850000000000    0.0013200000000000    0.1670050000000000 Zn
   0.2016800000000000    0.2514750000000000    0.3334000000000000 Zn
   0.4504700000000000    0.4984000000000000    0.2482850000000000 Zn
   0.2999650000000000    0.2500250000000000    0.3331450000000000 Zn
   0.0000000000000000    0.4999950000000000    0.4999950000000000 Zn
   0.2500050000000000    0.2499950000000000    0.2500000000000000 Zn
   0.2500150000000000    0.2513300000000000    0.4170100000000000 Zn
   0.5483250000000000    0.0014750000000000    0.0834000000000000 Zn
   0.7995399999999999    0.2483850000000000    0.4982950000000000 Zn
   0.9500450000000000    0.0000000000000000    0.0831400000000000 Zn
   0.5000000000000000    0.4986800000000000    0.3329950000000000 Zn
   0.7983300000000000    0.2485300000000000    0.1666000000000000 Zn
   0.5495400000000000    0.0016000000000000    0.2517150000000000 Zn
   0.7000400000000000    0.2499700000000000    0.1668500000000000 Zn
   0.7499899999999999    0.2486750000000000    0.0829950000000000 Zn
   0.9516850000000000    0.4985350000000000    0.4166000000000000 Zn
   0.7004650000000000    0.2516100000000000    0.0017100000000000 Zn
   0.5499600000000000    0.4999650000000000    0.4168550000000000 Zn
   0.9999850000000000    0.0013200000000000    0.1670050000000000 Zn
   0.7016800000000000    0.2514750000000000    0.3334000000000000 Zn
   0.9504699999999999    0.4984000000000000    0.2482850000000000 Zn
   0.7999650000000000    0.2500250000000000    0.3331450000000000 Zn
   0.5000000000000000    0.4999950000000000    0.4999950000000000 Zn
   0.7500050000000000    0.2499950000000000    0.2500000000000000 Zn
   0.7500150000000000    0.2513300000000000    0.4170100000000000 Zn
   0.0483250000000000    0.5014750000000000    0.0834000000000000 Zn
   0.2995400000000000    0.7483850000000000    0.4982950000000000 Zn
   0.4500450000000000    0.5000000000000000    0.0831400000000000 Zn
   0.0000000000000000    0.9986800000000000    0.3329950000000000 Zn
   0.2983300000000000    0.7485300000000000    0.1666000000000000 Zn
   0.0495400000000000    0.5016000000000000    0.2517150000000000 Zn
   0.2000400000000000    0.7499700000000000    0.1668500000000000 Zn
   0.2499900000000000    0.7486750000000000    0.0829950000000000 Zn
   0.4516850000000000    0.9985350000000000    0.4166000000000000 Zn
   0.2004650000000000    0.7516100000000000    0.0017100000000000 Zn
   0.0499600000000000    0.9999650000000000    0.4168550000000000 Zn
   0.4999850000000000    0.5013200000000000    0.1670050000000000 Zn
   0.2016800000000000    0.7514750000000000    0.3334000000000000 Zn
   0.4504700000000000    0.9984000000000000    0.2482850000000000 Zn
   0.2999650000000000    0.7500249999999999    0.3331450000000000 Zn
   0.0000000000000000    0.9999950000000000    0.4999950000000000 Zn
   0.2500050000000000    0.7499950000000000    0.2500000000000000 Zn
   0.2500150000000000    0.7513300000000001    0.4170100000000000 Zn
   0.5483250000000000    0.5014750000000000    0.0834000000000000 Zn
   0.7995399999999999    0.7483850000000000    0.4982950000000000 Zn
   0.9500450000000000    0.5000000000000000    0.0831400000000000 Zn
   0.5000000000000000    0.9986800000000000    0.3329950000000000 Zn
   0.7983300000000000    0.7485300000000000    0.1666000000000000 Zn
   0.5495400000000000    0.5016000000000000    0.2517150000000000 Zn
   0.7000400000000000    0.7499700000000000    0.1668500000000000 Zn
   0.7499899999999999    0.7486750000000000    0.0829950000000000 Zn
   0.9516850000000000    0.9985350000000000    0.4166000000000000 Zn
   0.7004650000000000    0.7516100000000000    0.0017100000000000 Zn
   0.5499600000000000    0.9999650000000000    0.4168550000000000 Zn
   0.9999850000000000    0.5013200000000000    0.1670050000000000 Zn
   0.7016800000000000    0.7514750000000000    0.3334000000000000 Zn
   0.9504699999999999    0.9984000000000000    0.2482850000000000 Zn
   0.7999650000000000    0.7500249999999999    0.3331450000000000 Zn
   0.5000000000000000    0.9999950000000000    0.4999950000000000 Zn
   0.7500050000000000    0.7499950000000000    0.2500000000000000 Zn
   0.7500150000000000    0.7513300000000001    0.4170100000000000 Zn
   0.0483250000000000    0.0014750000000000    0.5834000000000000 Zn
   0.2995400000000000    0.2483850000000000    0.9982949999999999 Zn
   0.4500450000000000    0.0000000000000000    0.5831400000000000 Zn
   0.0000000000000000    0.4986800000000000    0.8329949999999999 Zn
   0.2983300000000000    0.2485300000000000    0.6666000000000000 Zn
   0.0495400000000000    0.0016000000000000    0.7517150000000000 Zn
   0.2000400000000000    0.2499700000000000    0.6668499999999999 Zn
   0.2499900000000000    0.2486750000000000    0.5829950000000000 Zn
   0.4516850000000000    0.4985350000000000    0.9166000000000001 Zn
   0.2004650000000000    0.2516100000000000    0.5017100000000000 Zn
   0.0499600000000000    0.4999650000000000    0.9168550000000000 Zn
   0.4999850000000000    0.0013200000000000    0.6670050000000000 Zn
   0.2016800000000000    0.2514750000000000    0.8333999999999999 Zn
   0.4504700000000000    0.4984000000000000    0.7482850000000000 Zn
   0.2999650000000000    0.2500250000000000    0.8331450000000000 Zn
   0.0000000000000000    0.4999950000000000    0.9999950000000000 Zn
   0.2500050000000000    0.2499950000000000    0.7500000000000000 Zn
   0.2500150000000000    0.2513300000000000    0.9170100000000000 Zn
   0.5483250000000000    0.0014750000000000    0.5834000000000000 Zn
   0.7995399999999999    0.2483850000000000    0.9982949999999999 Zn
   0.9500450000000000    0.0000000000000000    0.5831400000000000 Zn
   0.5000000000000000    0.4986800000000000    0.8329949999999999 Zn
   0.7983300000000000    0.2485300000000000    0.6666000000000000 Zn
   0.5495400000000000    0.0016000000000000    0.7517150000000000 Zn
   0.7000400000000000    0.2499700000000000    0.6668499999999999 Zn
   0.7499899999999999    0.2486750000000000    0.5829950000000000 Zn
   0.9516850000000000    0.4985350000000000    0.9166000000000001 Zn
   0.7004650000000000    0.2516100000000000    0.5017100000000000 Zn
   0.5499600000000000    0.4999650000000000    0.9168550000000000 Zn
   0.9999850000000000    0.0013200000000000    0.6670050000000000 Zn
   0.7016800000000000    0.2514750000000000    0.8333999999999999 Zn
   0.9504699999999999    0.4984000000000000    0.7482850000000000 Zn
   0.7999650000000000    0.2500250000000000    0.8331450000000000 Zn
   0.5000000000000000    0.4999950000000000    0.9999950000000000 Zn
   0.7500050000000000    0.2499950000000000    0.7500000000000000 Zn
   0.7500150000000000    0.2513300000000000    0.9170100000000000 Zn
   0.0483250000000000    0.5014750000000000    0.5834000000000000 Zn
   0.2995400000000000    0.7483850000000000    0.9982949999999999 Zn
   0.4500450000000000    0.5000000000000000    0.5831400000000000 Zn
   0.0000000000000000    0.9986800000000000    0.8329949999999999 Zn
   0.2983300000000000    0.7485300000000000    0.6666000000000000 Zn
   0.0495400000000000    0.5016000000000000    0.7517150000000000 Zn
   0.2000400000000000    0.7499700000000000    0.6668499999999999 Zn
   0.2499900000000000    0.7486750000000000    0.5829950000000000 Zn
   0.4516850000000000    0.9985350000000000    0.9166000000000001 Zn
   0.2004650000000000    0.7516100000000000    0.5017100000000000 Zn
   0.0499600000000000    0.9999650000000000    0.9168550000000000 Zn
   0.4999850000000000    0.5013200000000000    0.6670050000000000 Zn
   0.2016800000000000    0.7514750000000000    0.8333999999999999 Zn
   0.4504700000000000    0.9984000000000000    0.7482850000000000 Zn
   0.2999650000000000    0.7500249999999999    0.8331450000000000 Zn
   0.0000000000000000    0.9999950000000000    0.9999950000000000 Zn
   0.2500050000000000    0.7499950000000000    0.7500000000000000 Zn
   0.2500150000000000    0.7513300000000001    0.9170100000000000 Zn
   0.5483250000000000    0.5014750000000000    0.5834000000000000 Zn
   0.7995399999999999    0.7483850000000000    0.9982949999999999 Zn
   0.9500450000000000    0.5000000000000000    0.5831400000000000 Zn
   0.5000000000000000    0.9986800000000000    0.8329949999999999 Zn
   0.7983300000000000    0.7485300000000000    0.6666000000000000 Zn
   0.5495400000000000    0.5016000000000000    0.7517150000000000 Zn
   0.7000400000000000    0.7499700000000000    0.6668499999999999 Zn
   0.7499899999999999    0.7486750000000000    0.5829950000000000 Zn
   0.9516850000000000    0.9985350000000000    0.9166000000000001 Zn
   0.7004650000000000    0.7516100000000000    0.5017100000000000 Zn
   0.5499600000000000    0.9999650000000000    0.9168550000000000 Zn
   0.9999850000000000    0.5013200000000000    0.6670050000000000 Zn
   0.7016800000000000    0.7514750000000000    0.8333999999999999 Zn
   0.9504699999999999    0.9984000000000000    0.7482850000000000 Zn
   0.7999650000000000    0.7500249999999999    0.8331450000000000 Zn
   0.5000000000000000    0.9999950000000000    0.9999950000000000 Zn
   0.7500050000000000    0.7499950000000000    0.7500000000000000 Zn
   0.7500150000000000    0.7513300000000001    0.9170100000000000 Zn
   0.4160550000000000    0.0813200000000000    0.4031300000000000 H
   0.3736800000000000    0.1414300000000000    0.4463000000000000 H
   0.3109400000000000    0.1477950000000000    0.3440550000000000 H
   0.3549550000000000    0.0889550000000000    0.3007800000000000 H
   0.0527450000000000    0.3866400000000000    0.4360350000000000 H
   0.1015900000000000    0.3323850000000000    0.3917700000000000 H
   0.1989650000000000    0.3662850000000000    0.4821950000000000 H
   0.1501350000000000    0.4206500000000000    0.0264450000000000 H
   0.3391850000000000    0.3304250000000000    0.4871050000000000 H
   0.3770500000000000    0.3935450000000000    0.0305400000000000 H
   0.4104650000000000    0.4203750000000000    0.4290650000000000 H
   0.3721800000000000    0.3575700000000000    0.3856300000000000 H
   0.1660400000000000    0.1686650000000000    0.3468700000000000 H
   0.1236800000000000    0.1085450000000000    0.3036750000000000 H
   0.0609500000000000    0.1021900000000000    0.4059550000000000 H
   0.1049550000000000    0.1610400000000000    0.4492250000000000 H
   0.3027950000000000    0.3633600000000000    0.3139800000000000 H
   0.3516550000000000    0.4176050000000000    0.3582350000000000 H
   0.4490200000000000    0.3836550000000000    0.2678100000000000 H
   0.4001700000000000    0.3293000000000000    0.2235650000000000 H
   0.0891750000000000    0.4195900000000000    0.2629000000000000 H
   0.1270450000000000    0.3564750000000000    0.2194500000000000 H
   0.1604550000000000    0.3296150000000000    0.3209250000000000 H
   0.1221700000000000    0.3924200000000000    0.3643600000000000 H
   0.0839500000000000    0.4186800000000000    0.0968500000000000 H
   0.1263200000000000    0.3585650000000000    0.0536650000000000 H
   0.1890600000000000    0.3522000000000000    0.1559450000000000 H
   0.1450500000000000    0.4110450000000000    0.1992000000000000 H
   0.4472550000000000    0.1133550000000000    0.0639700000000000 H
   0.3984050000000000    0.1676100000000000    0.1082350000000000 H
   0.3010350000000000    0.1337100000000000    0.0178100000000000 H
   0.3498650000000000    0.0793450000000000    0.4735600000000000 H
   0.1608200000000000    0.1695750000000000    0.0128500000000000 H
   0.1229500000000000    0.1064600000000000    0.4694550000000000 H
   0.0895350000000000    0.0796300000000000    0.0709300000000000 H
   0.1278200000000000    0.1424300000000000    0.1143650000000000 H
   0.3339650000000000    0.3313350000000000    0.1531250000000000 H
   0.3763300000000000    0.3914550000000000    0.1963250000000000 H
   0.4390550000000000    0.3978100000000000    0.0940450000000000 H
   0.3950500000000000    0.3389650000000000    0.0507750000000000 H
   0.1972050000000000    0.1366450000000000    0.1860200000000000 H
   0.1483400000000000    0.0824000000000000    0.1417650000000000 H
   0.0509750000000000    0.1163550000000000    0.2321950000000000 H
   0.0998300000000000    0.1707100000000000    0.2764400000000000 H
   0.4108300000000000    0.0804050000000000    0.2371000000000000 H
   0.3729650000000000    0.1435250000000000    0.2805450000000000 H
   0.3395450000000000    0.1703750000000000    0.1790500000000000 H
   0.3778250000000000    0.1075700000000000    0.1356350000000000 H
   0.9160550000000001    0.0813200000000000    0.4031300000000000 H
   0.8736800000000000    0.1414300000000000    0.4463000000000000 H
   0.8109400000000000    0.1477950000000000    0.3440550000000000 H
   0.8549550000000000    0.0889550000000000    0.3007800000000000 H
   0.5527450000000000    0.3866400000000000    0.4360350000000000 H
   0.6015900000000000    0.3323850000000000    0.3917700000000000 H
   0.6989650000000001    0.3662850000000000    0.4821950000000000 H
   0.6501350000000000    0.4206500000000000    0.0264450000000000 H
   0.8391850000000001    0.3304250000000000    0.4871050000000000 H
   0.8770500000000000    0.3935450000000000    0.0305400000000000 H
   0.9104650000000001    0.4203750000000000    0.4290650000000000 H
   0.8721800000000000    0.3575700000000000    0.3856300000000000 H
   0.6660400000000000    0.1686650000000000    0.3468700000000000 H
   0.6236800000000000    0.1085450000000000    0.3036750000000000 H
   0.5609499999999999    0.1021900000000000    0.4059550000000000 H
   0.6049550000000000    0.1610400000000000    0.4492250000000000 H
   0.8027949999999999    0.3633600000000000    0.3139800000000000 H
   0.8516550000000001    0.4176050000000000    0.3582350000000000 H
   0.9490200000000000    0.3836550000000000    0.2678100000000000 H
   0.9001700000000000    0.3293000000000000    0.2235650000000000 H
   0.5891750000000000    0.4195900000000000    0.2629000000000000 H
   0.6270450000000000    0.3564750000000000    0.2194500000000000 H
   0.6604550000000000    0.3296150000000000    0.3209250000000000 H
   0.6221700000000000    0.3924200000000000    0.3643600000000000 H
   0.5839500000000000    0.4186800000000000    0.0968500000000000 H
   0.6263200000000000    0.3585650000000000    0.0536650000000000 H
   0.6890600000000000    0.3522000000000000    0.1559450000000000 H
   0.6450500000000000    0.4110450000000000    0.1992000000000000 H
   0.9472550000000000    0.1133550000000000    0.0639700000000000 H
   0.8984050000000000    0.1676100000000000    0.1082350000000000 H
   0.8010349999999999    0.1337100000000000    0.0178100000000000 H
   0.8498650000000000    0.0793450000000000    0.4735600000000000 H
   0.6608200000000000    0.1695750000000000    0.0128500000000000 H
   0.6229500000000000    0.1064600000000000    0.4694550000000000 H
   0.5895350000000000    0.0796300000000000    0.0709300000000000 H
   0.6278200000000000    0.1424300000000000    0.1143650000000000 H
   0.8339650000000001    0.3313350000000000    0.1531250000000000 H
   0.8763300000000001    0.3914550000000000    0.1963250000000000 H
   0.9390550000000000    0.3978100000000000    0.0940450000000000 H
   0.8950500000000000    0.3389650000000000    0.0507750000000000 H
   0.6972050000000000    0.1366450000000000    0.1860200000000000 H
   0.6483400000000000    0.0824000000000000    0.1417650000000000 H
   0.5509750000000000    0.1163550000000000    0.2321950000000000 H
   0.5998300000000000    0.1707100000000000    0.2764400000000000 H
   0.9108300000000000    0.0804050000000000    0.2371000000000000 H
   0.8729650000000000    0.1435250000000000    0.2805450000000000 H
   0.8395450000000000    0.1703750000000000    0.1790500000000000 H
   0.8778250000000001    0.1075700000000000    0.1356350000000000 H
   0.4160550000000000    0.5813200000000001    0.4031300000000000 H
   0.3736800000000000    0.6414299999999999    0.4463000000000000 H
   0.3109400000000000    0.6477950000000000    0.3440550000000000 H
   0.3549550000000000    0.5889550000000000    0.3007800000000000 H
   0.0527450000000000    0.8866400000000000    0.4360350000000000 H
   0.1015900000000000    0.8323849999999999    0.3917700000000000 H
   0.1989650000000000    0.8662850000000000    0.4821950000000000 H
   0.1501350000000000    0.9206500000000000    0.0264450000000000 H
   0.3391850000000000    0.8304250000000000    0.4871050000000000 H
   0.3770500000000000    0.8935450000000000    0.0305400000000000 H
   0.4104650000000000    0.9203749999999999    0.4290650000000000 H
   0.3721800000000000    0.8575699999999999    0.3856300000000000 H
   0.1660400000000000    0.6686650000000001    0.3468700000000000 H
   0.1236800000000000    0.6085450000000000    0.3036750000000000 H
   0.0609500000000000    0.6021900000000000    0.4059550000000000 H
   0.1049550000000000    0.6610400000000000    0.4492250000000000 H
   0.3027950000000000    0.8633600000000000    0.3139800000000000 H
   0.3516550000000000    0.9176050000000000    0.3582350000000000 H
   0.4490200000000000    0.8836550000000001    0.2678100000000000 H
   0.4001700000000000    0.8292999999999999    0.2235650000000000 H
   0.0891750000000000    0.9195900000000000    0.2629000000000000 H
   0.1270450000000000    0.8564750000000000    0.2194500000000000 H
   0.1604550000000000    0.8296150000000000    0.3209250000000000 H
   0.1221700000000000    0.8924200000000000    0.3643600000000000 H
   0.0839500000000000    0.9186799999999999    0.0968500000000000 H
   0.1263200000000000    0.8585650000000000    0.0536650000000000 H
   0.1890600000000000    0.8522000000000001    0.1559450000000000 H
   0.1450500000000000    0.9110450000000000    0.1992000000000000 H
   0.4472550000000000    0.6133550000000000    0.0639700000000000 H
   0.3984050000000000    0.6676100000000000    0.1082350000000000 H
   0.3010350000000000    0.6337100000000000    0.0178100000000000 H
   0.3498650000000000    0.5793450000000000    0.4735600000000000 H
   0.1608200000000000    0.6695750000000000    0.0128500000000000 H
   0.1229500000000000    0.6064600000000000    0.4694550000000000 H
   0.0895350000000000    0.5796300000000000    0.0709300000000000 H
   0.1278200000000000    0.6424300000000001    0.1143650000000000 H
   0.3339650000000000    0.8313349999999999    0.1531250000000000 H
   0.3763300000000000    0.8914550000000000    0.1963250000000000 H
   0.4390550000000000    0.8978100000000000    0.0940450000000000 H
   0.3950500000000000    0.8389650000000000    0.0507750000000000 H
   0.1972050000000000    0.6366450000000000    0.1860200000000000 H
   0.1483400000000000    0.5824000000000000    0.1417650000000000 H
   0.0509750000000000    0.6163550000000000    0.2321950000000000 H
   0.0998300000000000    0.6707100000000000    0.2764400000000000 H
   0.4108300000000000    0.5804050000000001    0.2371000000000000 H
   0.3729650000000000    0.6435250000000000    0.2805450000000000 H
   0.3395450000000000    0.6703749999999999    0.1790500000000000 H
   0.3778250000000000    0.6075699999999999    0.1356350000000000 H
   0.9160550000000001    0.5813200000000001    0.4031300000000000 H
   0.8736800000000000    0.6414299999999999    0.4463000000000000 H
   0.8109400000000000    0.6477950000000000    0.3440550000000000 H
   0.8549550000000000    0.5889550000000000    0.3007800000000000 H
   0.5527450000000000    0.8866400000000000    0.4360350000000000 H
   0.6015900000000000    0.8323849999999999    0.3917700000000000 H
   0.6989650000000001    0.8662850000000000    0.4821950000000000 H
   0.6501350000000000    0.9206500000000000    0.0264450000000000 H
   0.8391850000000001    0.8304250000000000    0.4871050000000000 H
   0.8770500000000000    0.8935450000000000    0.0305400000000000 H
   0.9104650000000001    0.9203749999999999    0.4290650000000000 H
   0.8721800000000000    0.8575699999999999    0.3856300000000000 H
   0.6660400000000000    0.6686650000000001    0.3468700000000000 H
   0.6236800000000000    0.6085450000000000    0.3036750000000000 H
   0.5609499999999999    0.6021900000000000    0.4059550000000000 H
   0.6049550000000000    0.6610400000000000    0.4492250000000000 H
   0.8027949999999999    0.8633600000000000    0.3139800000000000 H
   0.8516550000000001    0.9176050000000000    0.3582350000000000 H
   0.9490200000000000    0.8836550000000001    0.2678100000000000 H
   0.9001700000000000    0.8292999999999999    0.2235650000000000 H
   0.5891750000000000    0.9195900000000000    0.2629000000000000 H
   0.6270450000000000    0.8564750000000000    0.2194500000000000 H
   0.6604550000000000    0.8296150000000000    0.3209250000000000 H
   0.6221700000000000    0.8924200000000000    0.3643600000000000 H
   0.5839500000000000    0.9186799999999999    0.0968500000000000 H
   0.6263200000000000    0.8585650000000000    0.0536650000000000 H
   0.6890600000000000    0.8522000000000001    0.1559450000000000 H
   0.6450500000000000    0.9110450000000000    0.1992000000000000 H
   0.9472550000000000    0.6133550000000000    0.0639700000000000 H
   0.8984050000000000    0.6676100000000000    0.1082350000000000 H
   0.8010349999999999    0.6337100000000000    0.0178100000000000 H
   0.8498650000000000    0.5793450000000000    0.4735600000000000 H
   0.6608200000000000    0.6695750000000000    0.0128500000000000 H
   0.6229500000000000    0.6064600000000000    0.4694550000000000 H
   0.5895350000000000    0.5796300000000000    0.0709300000000000 H
   0.6278200000000000    0.6424300000000001    0.1143650000000000 H
   0.8339650000000001    0.8313349999999999    0.1531250000000000 H
   0.8763300000000001    0.8914550000000000    0.1963250000000000 H
   0.9390550000000000    0.8978100000000000    0.0940450000000000 H
   0.8950500000000000    0.8389650000000000    0.0507750000000000 H
   0.6972050000000000    0.6366450000000000    0.1860200000000000 H
   0.6483400000000000    0.5824000000000000    0.1417650000000000 H
   0.5509750000000000    0.6163550000000000    0.2321950000000000 H
   0.5998300000000000    0.6707100000000000    0.2764400000000000 H
   0.9108300000000000    0.5804050000000001    0.2371000000000000 H
   0.8729650000000000    0.6435250000000000    0.2805450000000000 H
   0.8395450000000000    0.6703749999999999    0.1790500000000000 H
   0.8778250000000001    0.6075699999999999    0.1356350000000000 H
   0.4160550000000000    0.0813200000000000    0.9031300000000000 H
   0.3736800000000000    0.1414300000000000    0.9462999999999999 H
   0.3109400000000000    0.1477950000000000    0.8440550000000000 H
   0.3549550000000000    0.0889550000000000    0.8007800000000000 H
   0.0527450000000000    0.3866400000000000    0.9360350000000000 H
   0.1015900000000000    0.3323850000000000    0.8917700000000000 H
   0.1989650000000000    0.3662850000000000    0.9821949999999999 H
   0.1501350000000000    0.4206500000000000    0.5264450000000001 H
   0.3391850000000000    0.3304250000000000    0.9871050000000000 H
   0.3770500000000000    0.3935450000000000    0.5305400000000000 H
   0.4104650000000000    0.4203750000000000    0.9290650000000000 H
   0.3721800000000000    0.3575700000000000    0.8856299999999999 H
   0.1660400000000000    0.1686650000000000    0.8468700000000000 H
   0.1236800000000000    0.1085450000000000    0.8036749999999999 H
   0.0609500000000000    0.1021900000000000    0.9059550000000001 H
   0.1049550000000000    0.1610400000000000    0.9492250000000000 H
   0.3027950000000000    0.3633600000000000    0.8139799999999999 H
   0.3516550000000000    0.4176050000000000    0.8582350000000001 H
   0.4490200000000000    0.3836550000000000    0.7678100000000000 H
   0.4001700000000000    0.3293000000000000    0.7235650000000000 H
   0.0891750000000000    0.4195900000000000    0.7629000000000000 H
   0.1270450000000000    0.3564750000000000    0.7194500000000000 H
   0.1604550000000000    0.3296150000000000    0.8209250000000000 H
   0.1221700000000000    0.3924200000000000    0.8643600000000000 H
   0.0839500000000000    0.4186800000000000    0.5968500000000000 H
   0.1263200000000000    0.3585650000000000    0.5536650000000000 H
   0.1890600000000000    0.3522000000000000    0.6559450000000000 H
   0.1450500000000000    0.4110450000000000    0.6992000000000000 H
   0.4472550000000000    0.1133550000000000    0.5639700000000000 H
   0.3984050000000000    0.1676100000000000    0.6082350000000000 H
   0.3010350000000000    0.1337100000000000    0.5178100000000000 H
   0.3498650000000000    0.0793450000000000    0.9735600000000000 H
   0.1608200000000000    0.1695750000000000    0.5128500000000000 H
   0.1229500000000000    0.1064600000000000    0.9694550000000000 H
   0.0895350000000000    0.0796300000000000    0.5709300000000000 H
   0.1278200000000000    0.1424300000000000    0.6143650000000000 H
   0.3339650000000000    0.3313350000000000    0.6531250000000000 H
   0.3763300000000000    0.3914550000000000    0.6963250000000000 H
   0.4390550000000000    0.3978100000000000    0.5940450000000000 H
   0.3950500000000000    0.3389650000000000    0.5507750000000000 H
   0.1972050000000000    0.1366450000000000    0.6860200000000000 H
   0.1483400000000000    0.0824000000000000    0.6417650000000000 H
   0.0509750000000000    0.1163550000000000    0.7321950000000000 H
   0.0998300000000000    0.1707100000000000    0.7764400000000000 H
   0.4108300000000000    0.0804050000000000    0.7371000000000000 H
   0.3729650000000000    0.1435250000000000    0.7805450000000000 H
   0.3395450000000000    0.1703750000000000    0.6790499999999999 H
   0.3778250000000000    0.1075700000000000    0.6356350000000000 H
   0.9160550000000001    0.0813200000000000    0.9031300000000000 H
   0.8736800000000000    0.1414300000000000    0.9462999999999999 H
   0.8109400000000000    0.1477950000000000    0.8440550000000000 H
   0.8549550000000000    0.0889550000000000    0.8007800000000000 H
   0.5527450000000000    0.3866400000000000    0.9360350000000000 H
   0.6015900000000000    0.3323850000000000    0.8917700000000000 H
   0.6989650000000001    0.3662850000000000    0.9821949999999999 H
   0.6501350000000000    0.4206500000000000    0.5264450000000001 H
   0.8391850000000001    0.3304250000000000    0.9871050000000000 H
   0.8770500000000000    0.3935450000000000    0.5305400000000000 H
   0.9104650000000001    0.4203750000000000    0.9290650000000000 H
   0.8721800000000000    0.3575700000000000    0.8856299999999999 H
   0.6660400000000000    0.1686650000000000    0.8468700000000000 H
   0.6236800000000000    0.1085450000000000    0.8036749999999999 H
   0.5609499999999999    0.1021900000000000    0.9059550000000001 H
   0.6049550000000000    0.1610400000000000    0.9492250000000000 H
   0.8027949999999999    0.3633600000000000    0.8139799999999999 H
   0.8516550000000001    0.4176050000000000    0.8582350000000001 H
   0.9490200000000000    0.3836550000000000    0.7678100000000000 H
   0.9001700000000000    0.3293000000000000    0.7235650000000000 H
   0.5891750000000000    0.4195900000000000    0.7629000000000000 H
   0.6270450000000000    0.3564750000000000    0.7194500000000000 H
   0.6604550000000000    0.3296150000000000    0.8209250000000000 H
   0.6221700000000000    0.3924200000000000    0.8643600000000000 H
   0.5839500000000000    0.4186800000000000    0.5968500000000000 H
   0.6263200000000000    0.3585650000000000    0.5536650000000000 H
   0.6890600000000000    0.3522000000000000    0.6559450000000000 H
   0.6450500000000000    0.4110450000000000    0.6992000000000000 H
   0.9472550000000000    0.1133550000000000    0.5639700000000000 H
   0.8984050000000000    0.1676100000000000    0.6082350000000000 H
   0.8010349999999999    0.1337100000000000    0.5178100000000000 H
   0.8498650000000000    0.0793450000000000    0.9735600000000000 H
   0.6608200000000000    0.1695750000000000    0.5128500000000000 H
   0.6229500000000000    0.1064600000000000    0.9694550000000000 H
   0.5895350000000000    0.0796300000000000    0.5709300000000000 H
   0.6278200000000000    0.1424300000000000    0.6143650000000000 H
   0.6972050000000000    0.1366450000000000    0.6860200000000000 H
   0.6483400000000000    0.0824000000000000    0.6417650000000000 H
   0.5509750000000000    0.1163550000000000    0.7321950000000000 H
   0.5998300000000000    0.1707100000000000    0.7764400000000000 H
   0.9108300000000000    0.0804050000000000    0.7371000000000000 H
   0.8729650000000000    0.1435250000000000    0.7805450000000000 H
   0.8395450000000000    0.1703750000000000    0.6790499999999999 H
   0.8778250000000001    0.1075700000000000    0.6356350000000000 H
   0.4160550000000000    0.5813200000000001    0.9031300000000000 H
   0.3736800000000000    0.6414299999999999    0.9462999999999999 H
   0.3109400000000000    0.6477950000000000    0.8440550000000000 H
   0.3549550000000000    0.5889550000000000    0.8007800000000000 H
   0.0527450000000000    0.8866400000000000    0.9360350000000000 H
   0.1015900000000000    0.8323849999999999    0.8917700000000000 H
   0.1989650000000000    0.8662850000000000    0.9821949999999999 H