H7 C11 N2 O2
1.0
  17.0049995622883756    0.0000000000000000   -0.0038583120778170
  -3.7383628922418990   18.3582369854212608   -0.0016349371747293
   0.0000000000000000    0.0000000000000000   19.3679999999999986
H C N O
7 11 2 2
direct
   0.5765800000000000    0.5692900000000000    0.7665700000000000 H
   0.6245200000000000    0.6626500000000000    0.8584400000000000 H
   0.3862700000000000    0.6826800000000000    0.7228800000000000 H
   0.6229200000000000    0.7222900000000000    0.9574100000000000 H
   0.6616500000000000    0.8267800000000000    0.0376300000000000 H
   0.5366900000000000    0.9550700000000000    0.9228800000000000 H
   0.4918800000000000    0.8555199999999999    0.8389300000000000 H
   0.4483400000000000    0.5664900000000000    0.6794600000000000 C
   0.4779000000000000    0.6188900000000001    0.7375400000000000 C
   0.5449100000000000    0.6132300000000001    0.7773300000000000 C
   0.5708200000000000    0.6648900000000000    0.8284700000000000 C
   0.5289300000000000    0.7214800000000000    0.8387900000000000 C
   0.4394600000000000    0.6768600000000000    0.7520100000000000 C
   0.5539700000000000    0.7801700000000000    0.8901800000000000 C
   0.6025800000000000    0.7728800000000000    0.9473000000000000 C
   0.6244000000000000    0.8309600000000000    0.9926100000000000 C
   0.5543700000000000    0.9027100000000000    0.9294900000000000 C
   0.5294200000000000    0.8469500000000000    0.8824000000000000 C
   0.4636600000000000    0.7270500000000000    0.8007600000000000 N
   0.6015600000000000    0.8952700000000000    0.9839000000000000 N
   0.3868800000000000    0.5809700000000000    0.6468900000000000 O
   0.4832500000000000    0.5154100000000000    0.6661899999999999 O
