H3 O2
1.0
  17.0049995622883756    0.0000000000000000   -0.0038583120778170
  -3.7383628922418990   18.3582369854212608   -0.0016349371747293
   0.0000000000000000    0.0000000000000000   19.3679999999999986
H O
3 2
direct
   0.4333265230503881    0.5700271810320596    0.6715037854824460 H
   0.5673133055711052    0.9006693516963546    0.9444136121238362 H
   0.6181375251162921    0.8485930893069727    0.9902218145255212 H
   0.3868800000000000    0.5809700000000000    0.6468900000000000 O
   0.6015600000000000    0.8952700000000000    0.9839000000000000 O
