H5 O4
1.0
  12.9255823267389793    0.0000000000000000   -1.8897858383142137
  -6.5197625184273669   11.1317845134105422   -1.8743975699682338
   0.0000000000000000    0.0000000000000000   35.6719999999999970
H O
5 4
direct
   0.0630704300268141    0.5201610899052597    0.3621760289875258 H
   0.1339770174717441    0.5091784256077152    0.3314192717384707 H
   0.1635761527722837    0.2425952076459090    0.2534108213343290 H
   0.8451838557139200    0.2430866225678307    0.1952660764209752 H
   0.8128454435912346    1.0394305071127077    0.2734898954363922 H
   0.1407700000000000    0.5604000000000000    0.3556700000000000 O
   0.2320000000000000    0.2729300000000000    0.2415300000000000 O
   0.7708400000000000    0.2317200000000000    0.1796900000000000 O
   0.7960600000000000    0.9787300000000000    0.2886100000000000 O
