H3 O2
1.0
  18.0409999752697878    0.0000000000000000    0.0009446245506239
   3.2666669034701989    8.4141287913221081    0.0001575334182772
   0.0000000000000000    0.0000000000000000   39.0339999999999989
H O
3 2
direct
   0.5178904217278746    1.1570117764027934    0.5365167979909333 H
   0.3935054503250442    0.2617909999280678    0.5497935779170867 H
   0.4011254307050127    0.7753035827421754    0.5106671633004380 H
   0.5225100000000000    1.0569400000000000    0.5471600000000000 O
   0.4218000000000000    0.3274400000000000    0.5583000000000000 O
