Al48 P47 H3 O206
1.0
  18.0409999752697878    0.0000000000000000    0.0009446245506239
   3.2666669034701989    8.4141287913221081    0.0001575334182772
   0.0000000000000000    0.0000000000000000   39.0339999999999989
Al P H O
48 47 3 206
direct
   0.0834600000000000    0.8564000000000001    0.0414150000000000 Al
   0.0983850000000000    0.5194100000000000    0.9132400000000001 Al
   0.1473700000000000    0.9984200000000000    0.9088100000000000 Al
   0.1515300000000000    0.9803200000000000    0.1632250000000000 Al
   0.1025800000000000    0.5012400000000000    0.1588100000000000 Al
   0.1665600000000000    0.6434700000000000    0.7914150000000000 Al
   0.0834600000000000    0.8564000000000001    0.5414150000000000 Al
   0.0983850000000000    0.5194100000000000    0.4132400000000000 Al
   0.1473700000000000    0.9984200000000000    0.4088100000000000 Al
   0.1515300000000000    0.9803200000000000    0.6632250000000000 Al
   0.1025800000000000    0.5012400000000000    0.6588100000000000 Al
   0.1665600000000000    0.6434700000000000    0.2914150000000000 Al
   0.4015550000000000    0.4803500000000000    0.0881500000000000 Al
   0.3526100000000000    0.0012700000000000    0.0925900000000000 Al
   0.3484900000000000    0.0194500000000000    0.3381650000000000 Al
   0.3974450000000000    0.4984900000000000    0.3425850000000000 Al
   0.3334550000000000    0.3563100000000000    0.2099750000000000 Al
   0.4164800000000000    0.1433900000000000    0.4599750000000000 Al
   0.3526100000000000    0.0012700000000000    0.5925900000000000 Al
   0.3484900000000000    0.0194500000000000    0.8381650000000000 Al
   0.3974450000000000    0.4984900000000000    0.8425849999999999 Al
   0.3334550000000000    0.3563100000000000    0.7099750000000000 Al
   0.4164800000000000    0.1433900000000000    0.9599750000000000 Al
   0.4015550000000000    0.4803500000000000    0.5881500000000000 Al
   0.5834600000000000    0.8564000000000001    0.0414150000000000 Al
   0.5983849999999999    0.5194100000000000    0.9132400000000001 Al
   0.6473700000000000    0.9984200000000000    0.9088100000000000 Al
   0.6515299999999999    0.9803200000000000    0.1632250000000000 Al
   0.6025800000000000    0.5012400000000000    0.1588100000000000 Al
   0.6665600000000000    0.6434700000000000    0.7914150000000000 Al
   0.5834600000000000    0.8564000000000001    0.5414150000000000 Al
   0.5983849999999999    0.5194100000000000    0.4132400000000000 Al
   0.6473700000000000    0.9984200000000000    0.4088100000000000 Al
   0.6515299999999999    0.9803200000000000    0.6632250000000000 Al
   0.6025800000000000    0.5012400000000000    0.6588100000000000 Al
   0.6665600000000000    0.6434700000000000    0.2914150000000000 Al
   0.9015550000000000    0.4803500000000000    0.5881500000000000 Al
   0.8526100000000000    0.0012700000000000    0.5925900000000000 Al
   0.8484900000000000    0.0194500000000000    0.8381650000000000 Al
   0.8974450000000000    0.4984900000000000    0.8425849999999999 Al
   0.8334550000000001    0.3563100000000000    0.7099750000000000 Al
   0.9164800000000000    0.1433900000000000    0.9599750000000000 Al
   0.9015550000000000    0.4803500000000000    0.0881500000000000 Al
   0.8526100000000000    0.0012700000000000    0.0925900000000000 Al
   0.8484900000000000    0.0194500000000000    0.3381650000000000 Al
   0.8974450000000000    0.4984900000000000    0.3425850000000000 Al
   0.8334550000000001    0.3563100000000000    0.2099750000000000 Al
   0.9164800000000000    0.1433900000000000    0.4599750000000000 Al
   0.7456849999999999    0.7957100000000000    0.0796350000000000 P
   0.7456849999999999    0.7957100000000000    0.5796350000000000 P
   0.2456850000000000    0.7957100000000000    0.0796350000000000 P
   0.2456850000000000    0.7957100000000000    0.5796350000000000 P
   0.2542500000000000    0.2040400000000000    0.9217600000000000 P
   0.7542500000000000    0.2040400000000000    0.9217600000000000 P
   0.2542500000000000    0.2040400000000000    0.4217600000000000 P
   0.7542500000000000    0.2040400000000000    0.4217600000000000 P
   0.0043600000000000    0.7041400000000000    0.8296650000000000 P
   0.0043600000000000    0.7041400000000000    0.3296650000000000 P
   0.5043600000000000    0.7041400000000000    0.3296650000000000 P
   0.5043600000000000    0.7041400000000000    0.8296650000000000 P
   0.9956600000000000    0.2956600000000000    0.6717350000000000 P
   0.9956600000000000    0.2956600000000000    0.1717350000000000 P
   0.4956600000000000    0.2956600000000000    0.6717350000000000 P
   0.4956600000000000    0.2956600000000000    0.1717350000000000 P
   0.0649200000000000    0.8330700000000000    0.9598450000000001 P
   0.2437700000000000    0.8076600000000000    0.8461600000000000 P
   0.1849650000000000    0.6666666666666666    0.2098400000000000 P
   0.0062700000000000    0.6921400000000000    0.0961700000000000 P
   0.0649200000000000    0.8330700000000000    0.4598450000000000 P
   0.2437700000000000    0.8076600000000000    0.3461600000000000 P
   0.1849650000000000    0.6666666666666666    0.7098400000000000 P
   0.0062700000000000    0.6921400000000000    0.5961700000000000 P
   0.4350100000000000    0.1666400000000000    0.0415450000000000 P
   0.2562500000000000    0.1920700000000000    0.1552300000000000 P
   0.3150650000000000    0.3331500000000000    0.2915550000000000 P
   0.4936850000000000    0.3076000000000000    0.4052200000000000 P
   0.2562500000000000    0.1920700000000000    0.6552300000000000 P
   0.3150650000000000    0.3331500000000000    0.7915550000000000 P
   0.4936850000000000    0.3076000000000000    0.9052200000000000 P
   0.5649200000000000    0.8330700000000000    0.9598450000000001 P
   0.7437700000000000    0.8076600000000000    0.8461600000000000 P
   0.6849650000000000    0.6666666666666666    0.2098400000000000 P
   0.5062700000000000    0.6921400000000000    0.0961700000000000 P
   0.5649200000000000    0.8330700000000000    0.4598450000000000 P
   0.7437700000000000    0.8076600000000000    0.3461600000000000 P
   0.6849650000000000    0.6666666666666666    0.7098400000000000 P
   0.5062700000000000    0.6921400000000000    0.5961700000000000 P
   0.9350100000000000    0.1666400000000000    0.5415449999999999 P
   0.7562500000000000    0.1920700000000000    0.6552300000000000 P
   0.8150649999999999    0.3331500000000000    0.7915550000000000 P
   0.9936849999999999    0.3076000000000000    0.9052200000000000 P
   0.9350100000000000    0.1666400000000000    0.0415450000000000 P
   0.7562500000000000    0.1920700000000000    0.1552300000000000 P
   0.8150649999999999    0.3331500000000000    0.2915550000000000 P
   0.9936849999999999    0.3076000000000000    0.4052200000000000 P
   0.5178904217278746    1.1570117764027934    0.5365167979909333 H
   0.3935054503250442    0.2617909999280678    0.5497935779170867 H
   0.4011254307050127    0.7753035827421754    0.5106671633004380 H
   0.6342099999999999    0.9268200000000000    0.1208100000000000 O
   0.7081700000000000    0.7810800000000000    0.1165300000000000 O
   0.6832000000000000    0.8242000000000000    0.0516400000000000 O
   0.8112250000000000    0.6325499999999999    0.0761900000000000 O
   0.7770900000000001    0.9319700000000000    0.0793300000000000 O
   0.6342099999999999    0.9268200000000000    0.6208100000000000 O
   0.7081700000000000    0.7810800000000000    0.6165300000000000 O
   0.6832000000000000    0.8242000000000000    0.5516400000000000 O
   0.8112250000000000    0.6325499999999999    0.5761900000000000 O
   0.7770900000000001    0.9319700000000000    0.5793300000000000 O
   0.1342100000000000    0.9268200000000000    0.1208100000000000 O
   0.2081700000000000    0.7810800000000000    0.1165300000000000 O
   0.1832000000000000    0.8242000000000000    0.0516400000000000 O
   0.3112250000000000    0.6325499999999999    0.0761900000000000 O
   0.2770900000000000    0.9319700000000000    0.0793300000000000 O
   0.1342100000000000    0.9268200000000000    0.6208100000000000 O
   0.2081700000000000    0.7810800000000000    0.6165300000000000 O
   0.1832000000000000    0.8242000000000000    0.5516400000000000 O
   0.3112250000000000    0.6325499999999999    0.5761900000000000 O
   0.2770900000000000    0.9319700000000000    0.5793300000000000 O
   0.3657450000000000    0.0729200000000000    0.8805950000000000 O
   0.2917500000000000    0.2186100000000000    0.8848549999999999 O
   0.3167350000000000    0.1756400000000000    0.9497500000000000 O
   0.1886950000000000    0.3671800000000000    0.9251950000000000 O
   0.2228650000000000    0.0677600000000000    0.9220800000000000 O
   0.8657450000000000    0.0729200000000000    0.8805950000000000 O
   0.7917500000000000    0.2186100000000000    0.8848549999999999 O
   0.8167350000000000    0.1756400000000000    0.9497500000000000 O
   0.6886950000000001    0.3671800000000000    0.9251950000000000 O
   0.7228650000000000    0.0677600000000000    0.9220800000000000 O
   0.3657450000000000    0.0729200000000000    0.3805950000000000 O
   0.2917500000000000    0.2186100000000000    0.3848550000000000 O
   0.3167350000000000    0.1756400000000000    0.4497500000000000 O
   0.1886950000000000    0.3671800000000000    0.4251950000000000 O
   0.2228650000000000    0.0677600000000000    0.4220800000000000 O
   0.8657450000000000    0.0729200000000000    0.3805950000000000 O
   0.7917500000000000    0.2186100000000000    0.3848550000000000 O
   0.8167350000000000    0.1756400000000000    0.4497500000000000 O
   0.6886950000000001    0.3671800000000000    0.4251950000000000 O
   0.7228650000000000    0.0677600000000000    0.4220800000000000 O
   0.1158000000000000    0.5729700000000000    0.8708400000000001 O
   0.0418750000000000    0.7187800000000000    0.8665600000000000 O
   0.0668450000000000    0.6756200000000000    0.8016700000000000 O
   0.9388400000000000    0.8673000000000000    0.8262149999999999 O
   0.9729800000000000    0.5678600000000000    0.8293750000000000 O
   0.1158000000000000    0.5729700000000000    0.3708400000000000 O
   0.0418750000000000    0.7187800000000000    0.3665600000000000 O
   0.0668450000000000    0.6756200000000000    0.3016700000000000 O
   0.9388400000000000    0.8673000000000000    0.3262150000000000 O
   0.9729800000000000    0.5678600000000000    0.3293750000000000 O
   0.6158000000000000    0.5729700000000000    0.3708400000000000 O
   0.5418750000000000    0.7187800000000000    0.3665600000000000 O
   0.5668450000000000    0.6756200000000000    0.3016700000000000 O
   0.4388400000000000    0.8673000000000000    0.3262150000000000 O
   0.4729800000000000    0.5678600000000000    0.3293750000000000 O
   0.6158000000000000    0.5729700000000000    0.8708400000000001 O
   0.5418750000000000    0.7187800000000000    0.8665600000000000 O
   0.5668450000000000    0.6756200000000000    0.8016700000000000 O
   0.4388400000000000    0.8673000000000000    0.8262149999999999 O
   0.4729800000000000    0.5678600000000000    0.8293750000000000 O
   0.8842099999999999    0.4268100000000000    0.6305600000000000 O
   0.9581649999999999    0.2810500000000000    0.6348350000000000 O
   0.9331700000000001    0.3241400000000000    0.6997250000000000 O
   0.0612000000000000    0.1325100000000000    0.6751800000000000 O
   0.0270350000000000    0.4319500000000000    0.6720450000000000 O
   0.8842099999999999    0.4268100000000000    0.1305600000000000 O
   0.9581649999999999    0.2810500000000000    0.1348350000000000 O
   0.9331700000000001    0.3241400000000000    0.1997250000000000 O
   0.0612000000000000    0.1325100000000000    0.1751800000000000 O
   0.0270350000000000    0.4319500000000000    0.1720450000000000 O
   0.3842100000000000    0.4268100000000000    0.6305600000000000 O
   0.4581650000000000    0.2810500000000000    0.6348350000000000 O
   0.4331700000000000    0.3241400000000000    0.6997250000000000 O
   0.5612000000000000    0.1325100000000000    0.6751800000000000 O
   0.5270350000000000    0.4319500000000000    0.6720450000000000 O
   0.3842100000000000    0.4268100000000000    0.1305600000000000 O
   0.4581650000000000    0.2810500000000000    0.1348350000000000 O
   0.4331700000000000    0.3241400000000000    0.1997250000000000 O
   0.5612000000000000    0.1325100000000000    0.1751800000000000 O
   0.5270350000000000    0.4319500000000000    0.1720450000000000 O
   0.5225100000000000    1.0569400000000000    0.5471600000000000 O
   0.0781050000000000    0.6722500000000000    0.9431050000000001 O
   0.9774250000000000    0.9428400000000000    0.9542250000000000 O
   0.1213150000000000    0.9099699999999999    0.9444100000000000 O
   0.0833600000000000    0.8050400000000000    0.0000000000000000 O
   0.2023300000000000    0.7686400000000000    0.8149550000000000 O
   0.1848900000000000    0.8587300000000000    0.8762350000000000 O
   0.2710050000000000    0.9451300000000000    0.8360300000000001 O
   0.3157350000000000    0.6607300000000000    0.8574400000000000 O
   0.1717750000000000    0.8273600000000000    0.1930600000000000 O
   0.1665400000000000    0.6948100000000000    0.2481600000000000 O
   0.2724650000000000    0.5568400000000000    0.2042250000000000 O
   0.1285800000000000    0.5896100000000000    0.1944400000000000 O
   0.0476750000000000    0.7312900000000000    0.0649700000000000 O
   0.0651450000000000    0.6410100000000000    0.1262400000000000 O
   0.9790650000000001    0.5546400000000000    0.0860250000000000 O
   0.9342850000000000    0.8390000000000000    0.1074650000000000 O
   0.0781050000000000    0.6722500000000000    0.4431050000000000 O
   0.9774250000000000    0.9428400000000000    0.4542250000000000 O
   0.1213150000000000    0.9099699999999999    0.4444100000000000 O
   0.0833600000000000    0.8050400000000000    0.5000000000000000 O
   0.2023300000000000    0.7686400000000000    0.3149550000000000 O
   0.1848900000000000    0.8587300000000000    0.3762350000000000 O
   0.2710050000000000    0.9451300000000000    0.3360300000000000 O
   0.3157350000000000    0.6607300000000000    0.3574400000000000 O
   0.1717750000000000    0.8273600000000000    0.6930600000000000 O
   0.1665400000000000    0.6948100000000000    0.7481599999999999 O
   0.2724650000000000    0.5568400000000000    0.7042250000000000 O
   0.1285800000000000    0.5896100000000000    0.6944399999999999 O
   0.0476750000000000    0.7312900000000000    0.5649700000000000 O
   0.0651450000000000    0.6410100000000000    0.6262400000000000 O
   0.9790650000000001    0.5546400000000000    0.5860250000000000 O
   0.9342850000000000    0.8390000000000000    0.6074650000000000 O
   0.4218000000000000    0.3274400000000000    0.0583000000000000 O
   0.4165650000000000    0.1947500000000000    0.0032250000000000 O
   0.5225100000000000    0.0569400000000000    0.0471600000000000 O
   0.3786500000000000    0.0896200000000000    0.0569700000000000 O
   0.2976650000000000    0.2311700000000000    0.1864350000000000 O
   0.3151300000000000    0.1410100000000000    0.1251550000000000 O
   0.2290500000000000    0.0545400000000000    0.1653600000000000 O
   0.1842600000000000    0.3389500000000000    0.1439550000000000 O
   0.3282400000000000    0.1724100000000000    0.3083300000000000 O
   0.3334750000000000    0.3049500000000000    0.2532250000000000 O
   0.2275700000000000    0.4429500000000000    0.2971700000000000 O
   0.3714700000000000    0.4101200000000000    0.3069450000000000 O
   0.4522650000000000    0.2685300000000000    0.4364250000000000 O
   0.4348450000000000    0.3585800000000000    0.3751350000000000 O
   0.5208450000000000    0.4451900000000000    0.4153450000000000 O
   0.5657000000000000    0.1607300000000000    0.3939550000000000 O
   0.2976650000000000    0.2311700000000000    0.6864350000000000 O
   0.3151300000000000    0.1410100000000000    0.6251550000000000 O
   0.2290500000000000    0.0545400000000000    0.6653600000000000 O
   0.1842600000000000    0.3389500000000000    0.6439550000000001 O
   0.3282400000000000    0.1724100000000000    0.8083300000000000 O
   0.3334750000000000    0.3049500000000000    0.7532250000000000 O
   0.2275700000000000    0.4429500000000000    0.7971699999999999 O
   0.3714700000000000    0.4101200000000000    0.8069450000000000 O
   0.4522650000000000    0.2685300000000000    0.9364250000000001 O
   0.4348450000000000    0.3585800000000000    0.8751350000000000 O
   0.5208450000000000    0.4451900000000000    0.9153450000000001 O
   0.5657000000000000    0.1607300000000000    0.8939550000000001 O
   0.4218000000000000    0.3274400000000000    0.5583000000000000 O
   0.5781050000000000    0.6722500000000000    0.9431050000000001 O
   0.4774250000000000    0.9428400000000000    0.9542250000000000 O
   0.6213150000000001    0.9099699999999999    0.9444100000000000 O
   0.5833600000000000    0.8050400000000000    0.0000000000000000 O
   0.7023300000000000    0.7686400000000000    0.8149550000000000 O
   0.6848900000000000    0.8587300000000000    0.8762350000000000 O
   0.7710049999999999    0.9451300000000000    0.8360300000000001 O
   0.8157350000000000    0.6607300000000000    0.8574400000000000 O
   0.6717750000000000    0.8273600000000000    0.1930600000000000 O
   0.6665400000000000    0.6948100000000000    0.2481600000000000 O
   0.7724650000000000    0.5568400000000000    0.2042250000000000 O
   0.6285800000000000    0.5896100000000000    0.1944400000000000 O
   0.5476750000000000    0.7312900000000000    0.0649700000000000 O
   0.5651450000000000    0.6410100000000000    0.1262400000000000 O
   0.4790650000000000    0.5546400000000000    0.0860250000000000 O
   0.4342850000000000    0.8390000000000000    0.1074650000000000 O
   0.5781050000000000    0.6722500000000000    0.4431050000000000 O
   0.4774250000000000    0.9428400000000000    0.4542250000000000 O
   0.6213150000000001    0.9099699999999999    0.4444100000000000 O
   0.5833600000000000    0.8050400000000000    0.5000000000000000 O
   0.7023300000000000    0.7686400000000000    0.3149550000000000 O
   0.6848900000000000    0.8587300000000000    0.3762350000000000 O
   0.7710049999999999    0.9451300000000000    0.3360300000000000 O
   0.8157350000000000    0.6607300000000000    0.3574400000000000 O
   0.6717750000000000    0.8273600000000000    0.6930600000000000 O
   0.6665400000000000    0.6948100000000000    0.7481599999999999 O
   0.7724650000000000    0.5568400000000000    0.7042250000000000 O
   0.6285800000000000    0.5896100000000000    0.6944399999999999 O
   0.5476750000000000    0.7312900000000000    0.5649700000000000 O
   0.5651450000000000    0.6410100000000000    0.6262400000000000 O
   0.4790650000000000    0.5546400000000000    0.5860250000000000 O
   0.4342850000000000    0.8390000000000000    0.6074650000000000 O
   0.9218000000000000    0.3274400000000000    0.5583000000000000 O
   0.9165650000000001    0.1947500000000000    0.5032250000000000 O
   0.0225100000000000    0.0569400000000000    0.5471600000000000 O
   0.8786499999999999    0.0896200000000000    0.5569700000000000 O
   0.7976650000000001    0.2311700000000000    0.6864350000000000 O
   0.8151300000000000    0.1410100000000000    0.6251550000000000 O
   0.7290500000000000    0.0545400000000000    0.6653600000000000 O
   0.6842600000000000    0.3389500000000000    0.6439550000000001 O
   0.8282400000000000    0.1724100000000000    0.8083300000000000 O
   0.8334750000000000    0.3049500000000000    0.7532250000000000 O
   0.7275700000000001    0.4429500000000000    0.7971699999999999 O
   0.8714700000000000    0.4101200000000000    0.8069450000000000 O
   0.9522649999999999    0.2685300000000000    0.9364250000000001 O
   0.9348449999999999    0.3585800000000000    0.8751350000000000 O
   0.0208450000000000    0.4451900000000000    0.9153450000000001 O
   0.0657000000000000    0.1607300000000000    0.8939550000000001 O
   0.9218000000000000    0.3274400000000000    0.0583000000000000 O
   0.9165650000000001    0.1947500000000000    0.0032250000000000 O
   0.0225100000000000    0.0569400000000000    0.0471600000000000 O
   0.8786499999999999    0.0896200000000000    0.0569700000000000 O
   0.7976650000000001    0.2311700000000000    0.1864350000000000 O
   0.8151300000000000    0.1410100000000000    0.1251550000000000 O
   0.7290500000000000    0.0545400000000000    0.1653600000000000 O
   0.6842600000000000    0.3389500000000000    0.1439550000000000 O
   0.8282400000000000    0.1724100000000000    0.3083300000000000 O
   0.8334750000000000    0.3049500000000000    0.2532250000000000 O
   0.7275700000000001    0.4429500000000000    0.2971700000000000 O
   0.8714700000000000    0.4101200000000000    0.3069450000000000 O
   0.9522649999999999    0.2685300000000000    0.4364250000000000 O
   0.9348449999999999    0.3585800000000000    0.3751350000000000 O
   0.0208450000000000    0.4451900000000000    0.4153450000000000 O
   0.0657000000000000    0.1607300000000000    0.3939550000000000 O
