P1 O4
1.0
  18.0409999752697878    0.0000000000000000    0.0009446245506239
   3.2666669034701989    8.4141287913221081    0.0001575334182772
   0.0000000000000000    0.0000000000000000   39.0339999999999989
P O
1 4
direct
   0.4350100000000000    0.1666400000000000    0.5415449999999999 P
   0.4218000000000000    0.3274400000000000    0.5583000000000000 O
   0.3786500000000000    0.0896200000000000    0.5569700000000000 O
   0.4165650000000000    0.1947500000000000    0.5032250000000000 O
   0.5225100000000000    1.0569400000000000    0.5471600000000000 O
