H4 O3
1.0
  25.5290362129179300    0.0000000000000000   -8.4399558079130461
  -1.8925869271521598   28.3362756661864061   -0.3836666431486899
   0.0000000000000000    0.0000000000000000   38.0900000000000034
H O
4 3
direct
   0.3154551957269244    0.9879003911769291    0.6747595251759309 H
   0.3133610607431438    0.9654624909646548    0.7117885403588922 H
   0.4602939895728548    0.8061512506905165    0.8340038673074813 H
   0.4122092234977608    0.7620774390733477    0.6517548515118475 H
   0.3055150000000000    0.9935800000000000    0.6969850000000000 O
   0.4726350000000000    0.8144450000000000    0.8604900000000000 O
   0.4198650000000000    0.7324150000000000    0.6417750000000000 O
