H12 C15 N6
1.0
  25.5290362129179300    0.0000000000000000   -8.4399558079130461
  -1.8925869271521598   28.3362756661864061   -0.3836666431486899
   0.0000000000000000    0.0000000000000000   38.0900000000000034
H C N
12 15 6
direct
   0.3144350000000000    0.0113050000000000    0.6441150000000000 H
   0.4721500000000000    0.7771000000000000    0.8111400000000000 H
   0.4479000000000000    0.8659550000000000    0.8927450000000000 H
   0.3751400000000000    0.8839550000000000    0.8250900000000000 H
   0.3618100000000000    0.6987550000000000    0.7035050000000000 H
   0.4050500000000000    0.6597999999999999    0.6533150000000000 H
   0.4192650000000000    0.8077150000000000    0.6477800000000000 H
   0.4091250000000000    0.7609699999999999    0.7550300000000000 H
   0.3760200000000000    0.9053500000000000    0.7705450000000000 H
   0.3443000000000000    0.8457049999999999    0.6601900000000001 H
   0.3086350000000000    0.9493800000000000    0.7429550000000000 H
   0.3529200000000000    0.9224650000000000    0.6470850000000000 H
   0.4559100000000000    0.8032049999999999    0.8245950000000000 C
   0.4419450000000000    0.8498850000000000    0.8656450000000000 C
   0.4063000000000000    0.8598749999999999    0.8324950000000000 C
   0.3811200000000000    0.7152350000000001    0.6851950000000000 C
   0.4019950000000000    0.6964850000000000    0.6599550000000001 C
   0.4095050000000000    0.7725550000000000    0.6552800000000000 C
   0.3780300000000000    0.8002150000000000    0.7056300000000000 C
   0.3942650000000000    0.7942650000000000    0.7438600000000000 C
   0.3932150000000000    0.8324750000000001    0.7670650000000000 C
   0.3745200000000000    0.8751249999999999    0.7523900000000000 C
   0.3560300000000000    0.8793100000000000    0.7141000000000000 C
   0.3577450000000000    0.8421000000000001    0.6901700000000000 C
   0.3161550000000000    0.9554500000000000    0.7170600000000000 C
   0.3391600000000000    0.9419800000000000    0.6665650000000000 C
   0.3196300000000000    0.9855149999999999    0.6654249999999999 C
   0.4726350000000000    0.8144450000000000    0.8604900000000000 N
   0.4154000000000000    0.8299400000000000    0.8062000000000000 N
   0.3859500000000000    0.7640250000000000    0.6819000000000000 N
   0.4198650000000000    0.7324150000000000    0.6417750000000000 N
   0.3370200000000000    0.9230350000000000    0.6996800000000000 N
   0.3055150000000000    0.9935800000000000    0.6969850000000000 N
