H4 O3
1.0
  25.5290362129179300    0.0000000000000000   -8.4399558079130461
  -1.8925869271521598   28.3362756661864061   -0.3836666431486899
   0.0000000000000000    0.0000000000000000   38.0900000000000034
H O
4 3
direct
   0.9888698873958206    0.1721268776168315    0.8815693108166055 H
   0.8056818312265354    0.0722561011348750    0.7712635165393199 H
   0.8477892296650879    0.9624103031137193    0.8309092103477129 H
   0.8347914809390432    1.0121894972567769    0.8082954868912163 H
   0.9832449999999999    0.2024600000000000    0.8695400000000000 O
   0.7961199999999999    0.0391250000000000    0.7730950000000000 O
   0.8250050000000000    0.9782800000000000    0.8101700000000001 O
