H8 O4
1.0
  31.4999999952022769    0.0000000000000000    0.0005497787143508
  -7.8659055682606516   13.6428381767013960    0.0002748544505904
   0.0000000000000000    0.0000000000000000   32.8280000000000030
H O
8 4
direct
   0.9714484958967252    0.3299468056687040    0.2194341036766320 H
   0.9723258311550160    0.2848559206136864    0.2390309069347986 H
   0.9155474054435092    0.6872054954565329    0.5969764561930646 H
   0.9400311407505453    0.6499459130198237    0.5639056207977691 H
   0.0810200717406145    0.5469954022819657    0.3712883397129321 H
   0.1486415867537671    0.5555783447732668    0.3778380146729394 H
   0.0742389554004738    0.6168846105007674    0.4417431922745145 H
   0.0957814804661367    0.6302452845676019    0.4884819404635714 H
   0.9545150000000000    0.2922400000000000    0.1951250000000000 O
   0.9218150000000001    0.6599600000000000    0.5857250000000001 O
   0.1140600000000000    0.5570800000000000    0.3749300000000000 O
   0.1070150000000000    0.6351800000000000    0.4516500000000000 O
