H6 O4
1.0
  13.1669992760329961    0.0000000000000000    0.0043663424695674
  -8.6039287107005258   38.8322468097015872    0.0097186214969215
   0.0000000000000000    0.0000000000000000   22.4070000000000000
H O
6 4
direct
   0.0632297882462829    0.7040277204772671    0.9900910961545193 H
   0.0334447813518933    0.7040127172776521    0.8131024324501577 H
   0.0370210463146488    0.7036212043467730    0.9021866993807302 H
   0.4116814017526529    0.7059289449329793    0.7971675922327285 H
   0.4522752519385931    0.7291848790149262    0.9697572293984458 H
   0.4436503177057963    0.7180840796905389    0.8839308343133417 H
   0.0917400000000000    0.7052566666666666    0.9500300000000000 O
   0.0747300000000000    0.7052466666666666    0.8492000000000000 O
   0.3849700000000000    0.7097666666666667    0.8363500000000000 O
   0.4090400000000000    0.7230566666666667    0.9347000000000000 O
