H6 C12 O4
1.0
  13.1669992760329961    0.0000000000000000    0.0043663424695674
  -8.6039287107005258   38.8322468097015872    0.0097186214969215
   0.0000000000000000    0.0000000000000000   22.4070000000000000
H C O
6 12 4
direct
   0.9033400000000000    0.7080833333333333    0.8148500000000000 H
   0.7525100000000000    0.7172400000000000    0.0169600000000000 H
   0.9381900000000000    0.7127833333333333    0.0000000000000000 H
   0.7317900000000001    0.7098000000000000    0.7685400000000000 H
   0.5449100000000000    0.7118866666666667    0.7805299999999999 H
   0.5807700000000000    0.7186633333333333    0.9707300000000000 H
   0.0406200000000000    0.7065566666666666    0.9022300000000000 C
   0.9299400000000000    0.7097466666666666    0.9088300000000000 C
   0.8688800000000000    0.7099400000000000    0.8586400000000000 C
   0.7637800000000000    0.7123966666666667    0.8635699999999999 C
   0.7207600000000000    0.7149700000000000    0.9219400000000000 C
   0.7855300000000000    0.7151133333333333    0.9727600000000000 C
   0.8875800000000000    0.7125966666666667    0.9664300000000000 C
   0.6988000000000000    0.7117500000000000    0.8127900000000000 C
   0.5958800000000000    0.7131466666666666    0.8190800000000000 C
   0.5533500000000000    0.7158233333333333    0.8766600000000000 C
   0.6151700000000000    0.7168433333333333    0.9269100000000000 C
   0.4404500000000000    0.7164733333333333    0.8831000000000000 C
   0.4090400000000000    0.7230566666666667    0.9347000000000000 O
   0.3849700000000000    0.7097666666666667    0.8363500000000000 O
   0.0747300000000000    0.7052466666666666    0.8492000000000000 O
   0.0917400000000000    0.7052566666666666    0.9500300000000000 O
