H4 O2
1.0
  13.1669992760329961    0.0000000000000000    0.0043663424695674
  -8.6039287107005258   38.8322468097015872    0.0097186214969215
   0.0000000000000000    0.0000000000000000   22.4070000000000000
H O
4 2
direct
   0.2985876921323971    0.7313492210596229    0.0698881381317813 H
   0.2025047202984706    0.6957573397555696    0.0661582292244443 H
   0.1722226256502738    0.6857418496476734    0.7151467639311240 H
   0.2650202523129251    0.7223691643005260    0.7141512612853304 H
   0.2522400000000000    0.7140066666666667    0.0458100000000000 O
   0.2188500000000000    0.7042233333333333    0.7367899999999999 O
