H12 C24 N4 O4
1.0
  13.1669992760329961    0.0000000000000000    0.0043663424695674
  -8.6039287107005258   38.8322468097015872    0.0097186214969215
   0.0000000000000000    0.0000000000000000   22.4070000000000000
H C N O
12 24 4 4
direct
   0.1042700000000000    0.6590900000000000    0.7337000000000000 H
   0.0986300000000000    0.6564200000000000    0.6225100000000000 H
   0.1205000000000000    0.6658666666666666    0.1564000000000000 H
   0.3368000000000000    0.7500866666666666    0.6198000000000000 H
   0.3321000000000000    0.7492566666666667    0.7300000000000000 H
   0.4802800000000000    0.7028799999999999    0.4513900000000000 H
   0.4876400000000000    0.7062966666666666    0.3394000000000000 H
   0.9778300000000000    0.7106600000000000    0.3323500000000000 H
   0.9719500000000000    0.7084033333333333    0.4437400000000000 H
   0.3664600000000000    0.7573599999999999    0.1661500000000000 H
   0.3701400000000000    0.7576600000000000    0.0543200000000000 H
   0.1328500000000000    0.6701900000000000    0.0455700000000000 H
   0.1546500000000000    0.6787766666666666    0.7069900000000000 C
   0.1517100000000000    0.6773533333333333    0.6449500000000000 C
   0.2178800000000000    0.7032133333333332    0.6129800000000000 C
   0.2842600000000000    0.7296300000000000    0.6437200000000000 C
   0.2824600000000000    0.7292233333333333    0.7056000000000000 C
   0.1254000000000000    0.7043466666666667    0.5186100000000000 C
   0.1326000000000000    0.7068300000000000    0.4528500000000000 C
   0.2279500000000000    0.7068866666666667    0.4234300000000000 C
   0.3188400000000000    0.7046766666666666    0.4555400000000000 C
   0.3162100000000000    0.7021400000000000    0.5212100000000000 C
   0.4115200000000000    0.7046233333333333    0.4256000000000000 C
   0.4156800000000000    0.7065666666666667    0.3632100000000000 C
   0.3270700000000000    0.7083366666666666    0.3305000000000000 C
   0.2320000000000000    0.7085433333333333    0.3599200000000000 C
   0.1404100000000000    0.7098566666666666    0.3276000000000000 C
   0.0480800000000000    0.7101499999999999    0.3575900000000000 C
   0.0443900000000000    0.7087666666666667    0.4201200000000000 C
   0.1414800000000000    0.7104166666666666    0.2617000000000000 C
   0.3333333333333333    0.7095399999999999    0.2647700000000000 C
   0.2428900000000000    0.7115000000000000    0.1698300000000000 C
   0.3136600000000000    0.7376400000000000    0.1409500000000000 C
   0.3160500000000000    0.7378833333333333    0.0789600000000000 C
   0.1836800000000000    0.6888500000000000    0.0738600000000000 C
   0.1768900000000000    0.6866399999999999    0.1357200000000000 C
   0.2188500000000000    0.7042233333333333    0.7367899999999999 N
   0.2193300000000000    0.7032333333333333    0.5489100000000000 N
   0.2386700000000000    0.7103166666666666    0.2339500000000000 N
   0.2522400000000000    0.7140066666666667    0.0458100000000000 N
   0.0448400000000000    0.7036533333333332    0.5466299999999999 O
   0.3911400000000000    0.6992799999999999    0.5516600000000000 O
   0.0642600000000000    0.7111099999999999    0.2314000000000000 O
   0.4132700000000000    0.7095733333333333    0.2368800000000000 O
