Zn12 H138 C276 N24 O68
1.0
  13.1669992760329961    0.0000000000000000    0.0043663424695674
  -8.6039287107005258   38.8322468097015872    0.0097186214969215
   0.0000000000000000    0.0000000000000000   22.4070000000000000
Zn H C N O
12 138 276 24 68
direct
   0.2531600000000000    0.0485133333333333    0.9534800000000000 Zn
   0.7731500000000000    0.2936000000000000    0.3283600000000000 Zn
   0.7468100000000000    0.2847833333333333    0.4534800000000000 Zn
   0.2268900000000000    0.0397200000000000    0.8283000000000000 Zn
   0.2531600000000000    0.3818466666666667    0.9534800000000000 Zn
   0.7731500000000000    0.6269333333333333    0.3283600000000000 Zn
   0.7468100000000000    0.6181166666666666    0.4534800000000000 Zn
   0.2268900000000000    0.3730533333333333    0.8283000000000000 Zn
   0.2531600000000000    0.7151799999999999    0.9534800000000000 Zn
   0.7731500000000000    0.9602666666666666    0.3283600000000000 Zn
   0.7468100000000000    0.9514499999999999    0.4534800000000000 Zn
   0.2268900000000000    0.7063866666666666    0.8283000000000000 Zn
   0.1042700000000000    0.3257566666666666    0.7337000000000000 H
   0.0986300000000000    0.3230866666666666    0.6225100000000000 H
   0.3368000000000000    0.0834200000000000    0.6198000000000000 H
   0.3321000000000000    0.0825900000000000    0.7300000000000000 H
   0.4802800000000000    0.0362133333333333    0.4513900000000000 H
   0.4876400000000000    0.0396300000000000    0.3394000000000000 H
   0.9778300000000000    0.0439933333333333    0.3323500000000000 H
   0.9719500000000000    0.0417366666666667    0.4437400000000000 H
   0.3664600000000000    0.0906933333333333    0.1661500000000000 H
   0.3701400000000000    0.0909933333333333    0.0543200000000000 H
   0.1328500000000000    0.0035233333333333    0.0455700000000000 H
   0.1205000000000000    0.3325333333333333    0.1564000000000000 H
   0.2362800000000000    0.1443100000000000    0.7781700000000000 H
   0.2274200000000000    0.2058766666666667    0.7645999999999999 H
   0.2702900000000000    0.1588466666666667    0.9672900000000000 H
   0.2247300000000000    0.2632733333333333    0.8093600000000000 H
   0.2633000000000000    0.2781500000000000    0.9983900000000000 H
   0.2762200000000000    0.2169666666666667    0.0115000000000000 H
   0.9033400000000000    0.0414166666666667    0.8148500000000000 H
   0.7525100000000000    0.0505733333333333    0.0169600000000000 H
   0.9381900000000000    0.0461166666666667    0.0000000000000000 H
   0.7317900000000001    0.0431333333333333    0.7685400000000000 H
   0.5449100000000000    0.0452200000000000    0.7805299999999999 H
   0.5807700000000000    0.0519966666666667    0.9707300000000000 H
   0.8957500000000000    0.0075400000000000    0.2335700000000000 H
   0.9012800000000000    0.0101833333333333    0.1223500000000000 H
   0.6631800000000000    0.2498366666666667    0.1199700000000000 H
   0.6679800000000000    0.2506900000000000    0.2321200000000000 H
   0.5196300000000000    0.2970800000000000    0.9514899999999999 H
   0.5122300000000000    0.2936933333333333    0.8395500000000000 H
   0.0220300000000000    0.2893000000000000    0.8322100000000000 H
   0.0279500000000000    0.2915433333333333    0.9435900000000000 H
   0.6334000000000000    0.2426100000000000    0.6662300000000000 H
   0.6297100000000000    0.2422966666666667    0.5544100000000000 H
   0.8669300000000000    0.3297900000000000    0.5454599999999999 H
   0.8792900000000000    0.0007866666666667    0.6563000000000000 H
   0.7638200000000001    0.1890566666666667    0.2781000000000000 H
   0.7726600000000000    0.1274966666666666    0.2645900000000000 H
   0.7296700000000000    0.1744233333333333    0.4672900000000000 H
   0.7753000000000000    0.0700733333333333    0.3092800000000000 H
   0.7365800000000000    0.0551033333333333    0.4983100000000000 H
   0.7236500000000000    0.1162833333333333    0.5114400000000000 H
   0.0967600000000000    0.2919100000000000    0.3148500000000000 H
   0.2472900000000000    0.2826900000000000    0.5169500000000000 H
   0.0616500000000000    0.2871600000000000    0.5049200000000000 H
   0.2683700000000000    0.2901933333333333    0.2685500000000000 H
   0.4552400000000000    0.2881066666666666    0.2805500000000000 H
   0.4191100000000000    0.2812800000000000    0.4707500000000000 H
   0.1042700000000000    0.6590900000000000    0.7337000000000000 H
   0.0986300000000000    0.6564200000000000    0.6225100000000000 H
   0.3368000000000000    0.4167533333333333    0.6198000000000000 H
   0.3321000000000000    0.4159233333333333    0.7300000000000000 H
   0.4802800000000000    0.3695466666666666    0.4513900000000000 H
   0.4876400000000000    0.3729633333333333    0.3394000000000000 H
   0.9778300000000000    0.3773266666666666    0.3323500000000000 H
   0.9719500000000000    0.3750700000000000    0.4437400000000000 H
   0.3664600000000000    0.4240266666666667    0.1661500000000000 H
   0.3701400000000000    0.4243266666666666    0.0543200000000000 H
   0.1328500000000000    0.3368566666666666    0.0455700000000000 H
   0.1205000000000000    0.6658666666666666    0.1564000000000000 H
   0.2362800000000000    0.4776433333333333    0.7781700000000000 H
   0.2274200000000000    0.5392100000000000    0.7645999999999999 H
   0.2702900000000000    0.4921800000000000    0.9672900000000000 H
   0.2247300000000000    0.5966066666666666    0.8093600000000000 H
   0.2633000000000000    0.6114833333333334    0.9983900000000000 H
   0.2762200000000000    0.5503000000000000    0.0115000000000000 H
   0.9033400000000000    0.3747500000000000    0.8148500000000000 H
   0.7525100000000000    0.3839066666666666    0.0169600000000000 H
   0.9381900000000000    0.3794500000000000    0.0000000000000000 H
   0.7317900000000001    0.3764666666666666    0.7685400000000000 H
   0.5449100000000000    0.3785533333333333    0.7805299999999999 H
   0.5807700000000000    0.3853300000000000    0.9707300000000000 H
   0.8957500000000000    0.3408733333333333    0.2335700000000000 H
   0.9012800000000000    0.3435166666666666    0.1223500000000000 H
   0.6631800000000000    0.5831700000000000    0.1199700000000000 H
   0.6679800000000000    0.5840233333333333    0.2321200000000000 H
   0.5196300000000000    0.6304133333333333    0.9514899999999999 H
   0.5122300000000000    0.6270266666666666    0.8395500000000000 H
   0.0220300000000000    0.6226333333333334    0.8322100000000000 H
   0.0279500000000000    0.6248766666666666    0.9435900000000000 H
   0.6334000000000000    0.5759433333333333    0.6662300000000000 H
   0.6297100000000000    0.5756300000000000    0.5544100000000000 H
   0.8669300000000000    0.6631233333333333    0.5454599999999999 H
   0.8792900000000000    0.3341200000000000    0.6563000000000000 H
   0.7638200000000001    0.5223899999999999    0.2781000000000000 H
   0.7726600000000000    0.4608300000000000    0.2645900000000000 H
   0.7296700000000000    0.5077566666666666    0.4672900000000000 H
   0.7753000000000000    0.4034066666666666    0.3092800000000000 H
   0.7365800000000000    0.3884366666666667    0.4983100000000000 H
   0.7236500000000000    0.4496166666666667    0.5114400000000000 H
   0.0967600000000000    0.6252433333333334    0.3148500000000000 H
   0.2472900000000000    0.6160233333333334    0.5169500000000000 H
   0.0616500000000000    0.6204933333333333    0.5049200000000000 H
   0.2683700000000000    0.6235266666666666    0.2685500000000000 H
   0.4552400000000000    0.6214400000000000    0.2805500000000000 H
   0.4191100000000000    0.6146133333333332    0.4707500000000000 H
   0.1042700000000000    0.9924233333333332    0.7337000000000000 H
   0.0986300000000000    0.9897533333333333    0.6225100000000000 H
   0.3368000000000000    0.7500866666666666    0.6198000000000000 H
   0.3321000000000000    0.7492566666666667    0.7300000000000000 H
   0.4802800000000000    0.7028799999999999    0.4513900000000000 H
   0.4876400000000000    0.7062966666666666    0.3394000000000000 H
   0.9778300000000000    0.7106600000000000    0.3323500000000000 H
   0.9719500000000000    0.7084033333333333    0.4437400000000000 H
   0.3664600000000000    0.7573599999999999    0.1661500000000000 H
   0.3701400000000000    0.7576600000000000    0.0543200000000000 H
   0.1328500000000000    0.6701900000000000    0.0455700000000000 H
   0.1205000000000000    0.9992000000000000    0.1564000000000000 H
   0.2362800000000000    0.8109766666666667    0.7781700000000000 H
   0.2274200000000000    0.8725433333333332    0.7645999999999999 H
   0.2702900000000000    0.8255133333333333    0.9672900000000000 H
   0.2247300000000000    0.9299400000000000    0.8093600000000000 H
   0.2633000000000000    0.9448166666666666    0.9983900000000000 H
   0.2762200000000000    0.8836333333333333    0.0115000000000000 H
   0.8957500000000000    0.6742066666666666    0.2335700000000000 H
   0.9012800000000000    0.6768500000000000    0.1223500000000000 H
   0.6631800000000000    0.9165033333333332    0.1199700000000000 H
   0.6679800000000000    0.9173566666666666    0.2321200000000000 H
   0.5196300000000000    0.9637466666666666    0.9514899999999999 H
   0.5122300000000000    0.9603599999999999    0.8395500000000000 H
   0.0220300000000000    0.9559666666666666    0.8322100000000000 H
   0.0279500000000000    0.9582100000000000    0.9435900000000000 H
   0.6334000000000000    0.9092766666666666    0.6662300000000000 H
   0.6297100000000000    0.9089633333333333    0.5544100000000000 H
   0.8669300000000000    0.9964566666666665    0.5454599999999999 H
   0.8792900000000000    0.6674533333333333    0.6563000000000000 H
   0.7638200000000001    0.8557233333333333    0.2781000000000000 H
   0.7726600000000000    0.7941633333333333    0.2645900000000000 H
   0.7296700000000000    0.8410899999999999    0.4672900000000000 H
   0.7753000000000000    0.7367400000000000    0.3092800000000000 H
   0.7365800000000000    0.7217700000000000    0.4983100000000000 H
   0.7236500000000000    0.7829499999999999    0.5114400000000000 H
   0.0967600000000000    0.9585766666666666    0.3148500000000000 H
   0.2472900000000000    0.9493566666666666    0.5169500000000000 H
   0.0616500000000000    0.9538266666666666    0.5049200000000000 H
   0.2683700000000000    0.9568599999999999    0.2685500000000000 H
   0.4552400000000000    0.9547733333333333    0.2805500000000000 H
   0.4191100000000000    0.9479466666666666    0.4707500000000000 H
   0.1546500000000000    0.0121100000000000    0.7069900000000000 C
   0.1517100000000000    0.0106866666666667    0.6449500000000000 C
   0.2178800000000000    0.0365466666666667    0.6129800000000000 C
   0.2842600000000000    0.0629633333333333    0.6437200000000000 C
   0.2824600000000000    0.0625566666666667    0.7056000000000000 C
   0.1254000000000000    0.0376800000000000    0.5186100000000000 C
   0.1326000000000000    0.0401633333333333    0.4528500000000000 C
   0.2279500000000000    0.0402200000000000    0.4234300000000000 C
   0.3188400000000000    0.0380100000000000    0.4555400000000000 C
   0.3162100000000000    0.0354733333333333    0.5212100000000000 C
   0.4115200000000000    0.0379566666666667    0.4256000000000000 C
   0.4156800000000000    0.0399000000000000    0.3632100000000000 C
   0.3270700000000000    0.0416700000000000    0.3305000000000000 C
   0.2320000000000000    0.0418766666666667    0.3599200000000000 C
   0.1404100000000000    0.0431900000000000    0.3276000000000000 C
   0.0480800000000000    0.0434833333333333    0.3575900000000000 C
   0.0443900000000000    0.0421000000000000    0.4201200000000000 C
   0.1414800000000000    0.0437500000000000    0.2617000000000000 C
   0.3333333333333333    0.0428733333333333    0.2647700000000000 C
   0.2428900000000000    0.0448333333333333    0.1698300000000000 C
   0.3136600000000000    0.0709733333333333    0.1409500000000000 C
   0.3160500000000000    0.0712166666666667    0.0789600000000000 C
   0.1836800000000000    0.0221833333333333    0.0738600000000000 C
   0.1768900000000000    0.0199733333333333    0.1357200000000000 C
   0.2546900000000000    0.1107533333333333    0.8811700000000000 C
   0.2540600000000000    0.1482300000000000    0.8738899999999999 C
   0.2424600000000000    0.1616966666666667    0.8161600000000000 C
   0.2374600000000000    0.1956566666666666    0.8089400000000000 C
   0.2440000000000000    0.2180266666666666    0.8589200000000000 C
   0.2577000000000000    0.2046566666666667    0.9173000000000000 C
   0.2619600000000000    0.1695700000000000    0.9232399999999999 C
   0.2358800000000000    0.2527933333333333    0.8532600000000000 C
   0.2417000000000000    0.2739300000000000    0.9028000000000000 C
   0.2575900000000000    0.2608300000000000    0.9603300000000000 C
   0.2650500000000000    0.2270800000000000    0.9672500000000001 C
   0.2320200000000000    0.3106433333333333    0.8963100000000001 C
   0.0406200000000000    0.0398900000000000    0.9022300000000000 C
   0.9299400000000000    0.0430800000000000    0.9088300000000000 C
   0.8688800000000000    0.0432733333333333    0.8586400000000000 C
   0.7637800000000000    0.0457300000000000    0.8635699999999999 C
   0.7207600000000000    0.0483033333333333    0.9219400000000000 C
   0.7855300000000000    0.0484466666666667    0.9727600000000000 C
   0.8875800000000000    0.0459300000000000    0.9664300000000000 C
   0.6988000000000000    0.0450833333333333    0.8127900000000000 C
   0.5958800000000000    0.0464800000000000    0.8190800000000000 C
   0.5533500000000000    0.0491566666666667    0.8766600000000000 C
   0.6151700000000000    0.0501766666666667    0.9269100000000000 C
   0.4404500000000000    0.0498066666666667    0.8831000000000000 C
   0.8453600000000000    0.3211766666666667    0.2069000000000000 C
   0.8482400000000000    0.3225866666666666    0.1448600000000000 C
   0.7820500000000000    0.2967166666666666    0.1129000000000000 C
   0.7157200000000000    0.2703033333333333    0.1437800000000000 C
   0.7175800000000000    0.2707200000000000    0.2056600000000000 C
   0.8745100000000000    0.2956033333333333    0.0185600000000000 C
   0.8673000000000000    0.2931166666666666    0.9527900000000000 C
   0.7719400000000000    0.2930666666666666    0.9234100000000000 C
   0.6810600000000000    0.2952733333333333    0.9555600000000000 C
   0.6837100000000000    0.2978100000000000    0.0212400000000000 C
   0.5883800000000000    0.2953400000000000    0.9256700000000000 C
   0.5842000000000001    0.2934066666666666    0.8632800000000000 C
   0.6728000000000000    0.2916366666666667    0.8305000000000000 C
   0.7678700000000001    0.2914200000000000    0.8599000000000000 C
   0.8594500000000000    0.2901100000000000    0.8275400000000001 C
   0.9517900000000000    0.2898100000000000    0.8574800000000000 C
   0.9555000000000000    0.2911866666666666    0.9200100000000000 C
   0.8583700000000000    0.2895600000000000    0.7616000000000001 C
   0.6665600000000000    0.2904433333333333    0.7647900000000000 C
   0.7569500000000000    0.2884766666666667    0.6698200000000000 C
   0.6861800000000000    0.2623300000000000    0.6409899999999999 C
   0.6837900000000000    0.2620800000000000    0.5790000000000000 C
   0.8161200000000000    0.3111233333333333    0.5738000000000000 C
   0.8229200000000000    0.3133400000000000    0.6356500000000000 C
   0.7453300000000000    0.2225600000000000    0.3811000000000000 C
   0.7459700000000000    0.1850900000000000    0.3738900000000000 C
   0.7576100000000000    0.1716500000000000    0.3161400000000000 C
   0.7625900000000000    0.1376933333333333    0.3089000000000000 C
   0.7560000000000000    0.1152966666666667    0.3588700000000000 C
   0.7422700000000000    0.1286400000000000    0.4172000000000000 C
   0.7380200000000000    0.1637233333333333    0.4232200000000000 C
   0.7641200000000000    0.0805300000000000    0.3531900000000000 C
   0.7582700000000000    0.0593700000000000    0.4027500000000000 C
   0.7423200000000000    0.0724433333333333    0.4602500000000000 C
   0.7348700000000000    0.1061866666666667    0.4672000000000000 C
   0.7679700000000000    0.0226633333333333    0.3962200000000000 C
   0.9593600000000000    0.2934200000000000    0.4022400000000000 C
   0.0700300000000000    0.2902233333333333    0.4088300000000000 C
   0.1311600000000000    0.2900366666666667    0.3586500000000000 C
   0.2362500000000000    0.2875766666666666    0.3635800000000000 C
   0.2791900000000000    0.2849866666666667    0.4219500000000000 C
   0.2143500000000000    0.2848300000000000    0.4727000000000000 C
   0.1123100000000000    0.2873533333333333    0.4664300000000000 C
   0.3013000000000000    0.2882333333333333    0.3128000000000000 C
   0.4042100000000000    0.2868333333333333    0.3191000000000000 C
   0.4466700000000000    0.2841500000000000    0.3766000000000000 C
   0.3847700000000000    0.2831100000000000    0.4269000000000000 C
   0.5595599999999999    0.2835066666666667    0.3831900000000000 C
   0.1546500000000000    0.3454433333333333    0.7069900000000000 C
   0.1517100000000000    0.3440200000000000    0.6449500000000000 C
   0.2178800000000000    0.3698800000000000    0.6129800000000000 C
   0.2842600000000000    0.3962966666666666    0.6437200000000000 C
   0.2824600000000000    0.3958900000000000    0.7056000000000000 C
   0.1254000000000000    0.3710133333333333    0.5186100000000000 C
   0.1326000000000000    0.3734966666666666    0.4528500000000000 C
   0.2279500000000000    0.3735533333333333    0.4234300000000000 C
   0.3188400000000000    0.3713433333333333    0.4555400000000000 C
   0.3162100000000000    0.3688066666666666    0.5212100000000000 C
   0.4115200000000000    0.3712900000000000    0.4256000000000000 C
   0.4156800000000000    0.3732333333333333    0.3632100000000000 C
   0.3270700000000000    0.3750033333333333    0.3305000000000000 C
   0.2320000000000000    0.3752100000000000    0.3599200000000000 C
   0.1404100000000000    0.3765233333333333    0.3276000000000000 C
   0.0480800000000000    0.3768166666666666    0.3575900000000000 C
   0.0443900000000000    0.3754333333333333    0.4201200000000000 C
   0.1414800000000000    0.3770833333333333    0.2617000000000000 C
   0.3333333333333333    0.3762066666666666    0.2647700000000000 C
   0.2428900000000000    0.3781666666666667    0.1698300000000000 C
   0.3136600000000000    0.4043066666666666    0.1409500000000000 C
   0.3160500000000000    0.4045500000000000    0.0789600000000000 C
   0.1836800000000000    0.3555166666666666    0.0738600000000000 C
   0.1768900000000000    0.3533066666666667    0.1357200000000000 C
   0.2546900000000000    0.4440866666666666    0.8811700000000000 C
   0.2540600000000000    0.4815633333333333    0.8738899999999999 C
   0.2424600000000000    0.4950300000000000    0.8161600000000000 C
   0.2374600000000000    0.5289900000000000    0.8089400000000000 C
   0.2440000000000000    0.5513600000000000    0.8589200000000000 C
   0.2577000000000000    0.5379900000000000    0.9173000000000000 C
   0.2619600000000000    0.5029033333333333    0.9232399999999999 C
   0.2358800000000000    0.5861266666666667    0.8532600000000000 C
   0.2417000000000000    0.6072633333333333    0.9028000000000000 C
   0.2575900000000000    0.5941633333333334    0.9603300000000000 C
   0.2650500000000000    0.5604133333333333    0.9672500000000001 C
   0.2320200000000000    0.6439766666666666    0.8963100000000001 C
   0.0406200000000000    0.3732233333333333    0.9022300000000000 C
   0.9299400000000000    0.3764133333333333    0.9088300000000000 C
   0.8688800000000000    0.3766066666666666    0.8586400000000000 C
   0.7637800000000000    0.3790633333333333    0.8635699999999999 C
   0.7207600000000000    0.3816366666666666    0.9219400000000000 C
   0.7855300000000000    0.3817800000000000    0.9727600000000000 C
   0.8875800000000000    0.3792633333333333    0.9664300000000000 C
   0.6988000000000000    0.3784166666666666    0.8127900000000000 C
   0.5958800000000000    0.3798133333333333    0.8190800000000000 C
   0.5533500000000000    0.3824900000000000    0.8766600000000000 C
   0.6151700000000000    0.3835100000000000    0.9269100000000000 C
   0.4404500000000000    0.3831400000000000    0.8831000000000000 C
   0.8453600000000000    0.6545099999999999    0.2069000000000000 C
   0.8482400000000000    0.6559199999999999    0.1448600000000000 C
   0.7820500000000000    0.6300500000000000    0.1129000000000000 C
   0.7157200000000000    0.6036366666666666    0.1437800000000000 C
   0.7175800000000000    0.6040533333333333    0.2056600000000000 C
   0.8745100000000000    0.6289366666666667    0.0185600000000000 C
   0.8673000000000000    0.6264500000000000    0.9527900000000000 C
   0.7719400000000000    0.6264000000000000    0.9234100000000000 C
   0.6810600000000000    0.6286066666666666    0.9555600000000000 C
   0.6837100000000000    0.6311433333333333    0.0212400000000000 C
   0.5883800000000000    0.6286733333333333    0.9256700000000000 C
   0.5842000000000001    0.6267400000000000    0.8632800000000000 C
   0.6728000000000000    0.6249700000000000    0.8305000000000000 C
   0.7678700000000001    0.6247533333333333    0.8599000000000000 C
   0.8594500000000000    0.6234433333333333    0.8275400000000001 C
   0.9517900000000000    0.6231433333333334    0.8574800000000000 C
   0.9555000000000000    0.6245200000000000    0.9200100000000000 C
   0.8583700000000000    0.6228933333333333    0.7616000000000001 C
   0.6665600000000000    0.6237766666666666    0.7647900000000000 C
   0.7569500000000000    0.6218100000000000    0.6698200000000000 C
   0.6861800000000000    0.5956633333333332    0.6409899999999999 C
   0.6837900000000000    0.5954133333333333    0.5790000000000000 C
   0.8161200000000000    0.6444566666666667    0.5738000000000000 C
   0.8229200000000000    0.6466733333333332    0.6356500000000000 C
   0.7453300000000000    0.5558933333333334    0.3811000000000000 C
   0.7459700000000000    0.5184233333333333    0.3738900000000000 C
   0.7576100000000000    0.5049833333333333    0.3161400000000000 C
   0.7625900000000000    0.4710266666666666    0.3089000000000000 C
   0.7560000000000000    0.4486300000000000    0.3588700000000000 C
   0.7422700000000000    0.4619733333333333    0.4172000000000000 C
   0.7380200000000000    0.4970566666666666    0.4232200000000000 C
   0.7641200000000000    0.4138633333333333    0.3531900000000000 C
   0.7582700000000000    0.3927033333333333    0.4027500000000000 C
   0.7423200000000000    0.4057766666666667    0.4602500000000000 C
   0.7348700000000000    0.4395200000000000    0.4672000000000000 C
   0.7679700000000000    0.3559966666666666    0.3962200000000000 C
   0.9593600000000000    0.6267533333333333    0.4022400000000000 C
   0.0700300000000000    0.6235566666666666    0.4088300000000000 C
   0.1311600000000000    0.6233700000000000    0.3586500000000000 C
   0.2362500000000000    0.6209100000000000    0.3635800000000000 C
   0.2791900000000000    0.6183200000000000    0.4219500000000000 C
   0.2143500000000000    0.6181633333333333    0.4727000000000000 C
   0.1123100000000000    0.6206866666666666    0.4664300000000000 C
   0.3013000000000000    0.6215666666666666    0.3128000000000000 C
   0.4042100000000000    0.6201666666666666    0.3191000000000000 C
   0.4466700000000000    0.6174833333333334    0.3766000000000000 C
   0.3847700000000000    0.6164433333333332    0.4269000000000000 C
   0.5595599999999999    0.6168400000000001    0.3831900000000000 C
   0.1546500000000000    0.6787766666666666    0.7069900000000000 C
   0.1517100000000000    0.6773533333333333    0.6449500000000000 C
   0.2178800000000000    0.7032133333333332    0.6129800000000000 C
   0.2842600000000000    0.7296300000000000    0.6437200000000000 C
   0.2824600000000000    0.7292233333333333    0.7056000000000000 C
   0.1254000000000000    0.7043466666666667    0.5186100000000000 C
   0.1326000000000000    0.7068300000000000    0.4528500000000000 C
   0.2279500000000000    0.7068866666666667    0.4234300000000000 C
   0.3188400000000000    0.7046766666666666    0.4555400000000000 C
   0.3162100000000000    0.7021400000000000    0.5212100000000000 C
   0.4115200000000000    0.7046233333333333    0.4256000000000000 C
   0.4156800000000000    0.7065666666666667    0.3632100000000000 C
   0.3270700000000000    0.7083366666666666    0.3305000000000000 C
   0.2320000000000000    0.7085433333333333    0.3599200000000000 C
   0.1404100000000000    0.7098566666666666    0.3276000000000000 C
   0.0480800000000000    0.7101499999999999    0.3575900000000000 C
   0.0443900000000000    0.7087666666666667    0.4201200000000000 C
   0.1414800000000000    0.7104166666666666    0.2617000000000000 C
   0.3333333333333333    0.7095399999999999    0.2647700000000000 C
   0.2428900000000000    0.7115000000000000    0.1698300000000000 C
   0.3136600000000000    0.7376400000000000    0.1409500000000000 C
   0.3160500000000000    0.7378833333333333    0.0789600000000000 C
   0.1836800000000000    0.6888500000000000    0.0738600000000000 C
   0.1768900000000000    0.6866399999999999    0.1357200000000000 C
   0.2546900000000000    0.7774200000000000    0.8811700000000000 C
   0.2540600000000000    0.8148966666666666    0.8738899999999999 C
   0.2424600000000000    0.8283633333333333    0.8161600000000000 C
   0.2374600000000000    0.8623233333333333    0.8089400000000000 C
   0.2440000000000000    0.8846933333333333    0.8589200000000000 C
   0.2577000000000000    0.8713233333333332    0.9173000000000000 C
   0.2619600000000000    0.8362366666666666    0.9232399999999999 C
   0.2358800000000000    0.9194599999999999    0.8532600000000000 C
   0.2417000000000000    0.9405966666666666    0.9028000000000000 C
   0.2575900000000000    0.9274966666666666    0.9603300000000000 C
   0.2650500000000000    0.8937466666666666    0.9672500000000001 C
   0.2320200000000000    0.9773099999999999    0.8963100000000001 C
   0.8453600000000000    0.9878433333333333    0.2069000000000000 C
   0.8482400000000000    0.9892533333333333    0.1448600000000000 C
   0.7820500000000000    0.9633833333333333    0.1129000000000000 C
   0.7157200000000000    0.9369700000000000    0.1437800000000000 C
   0.7175800000000000    0.9373866666666666    0.2056600000000000 C
   0.8745100000000000    0.9622700000000000    0.0185600000000000 C
   0.8673000000000000    0.9597833333333332    0.9527900000000000 C
   0.7719400000000000    0.9597333333333333    0.9234100000000000 C
   0.6810600000000000    0.9619400000000000    0.9555600000000000 C
   0.6837100000000000    0.9644766666666666    0.0212400000000000 C
   0.5883800000000000    0.9620066666666667    0.9256700000000000 C
   0.5842000000000001    0.9600733333333333    0.8632800000000000 C
   0.6728000000000000    0.9583033333333333    0.8305000000000000 C
   0.7678700000000001    0.9580866666666666    0.8599000000000000 C
   0.8594500000000000    0.9567766666666666    0.8275400000000001 C
   0.9517900000000000    0.9564766666666666    0.8574800000000000 C
   0.9555000000000000    0.9578533333333332    0.9200100000000000 C
   0.8583700000000000    0.9562266666666666    0.7616000000000001 C
   0.6665600000000000    0.9571099999999999    0.7647900000000000 C
   0.7569500000000000    0.9551433333333332    0.6698200000000000 C
   0.6861800000000000    0.9289966666666666    0.6409899999999999 C
   0.6837900000000000    0.9287466666666666    0.5790000000000000 C
   0.8161200000000000    0.9777899999999999    0.5738000000000000 C
   0.8229200000000000    0.9800066666666666    0.6356500000000000 C
   0.7453300000000000    0.8892266666666666    0.3811000000000000 C
   0.7459700000000000    0.8517566666666666    0.3738900000000000 C
   0.7576100000000000    0.8383166666666666    0.3161400000000000 C
   0.7625900000000000    0.8043600000000000    0.3089000000000000 C
   0.7560000000000000    0.7819633333333333    0.3588700000000000 C
   0.7422700000000000    0.7953066666666666    0.4172000000000000 C
   0.7380200000000000    0.8303900000000000    0.4232200000000000 C
   0.7641200000000000    0.7471966666666666    0.3531900000000000 C
   0.7582700000000000    0.7260366666666667    0.4027500000000000 C
   0.7423200000000000    0.7391099999999999    0.4602500000000000 C
   0.7348700000000000    0.7728533333333333    0.4672000000000000 C
   0.7679700000000000    0.6893300000000000    0.3962200000000000 C
   0.9593600000000000    0.9600866666666666    0.4022400000000000 C
   0.0700300000000000    0.9568900000000000    0.4088300000000000 C
   0.1311600000000000    0.9567033333333332    0.3586500000000000 C
   0.2362500000000000    0.9542433333333333    0.3635800000000000 C
   0.2791900000000000    0.9516533333333332    0.4219500000000000 C
   0.2143500000000000    0.9514966666666667    0.4727000000000000 C
   0.1123100000000000    0.9540200000000000    0.4664300000000000 C
   0.3013000000000000    0.9549000000000000    0.3128000000000000 C
   0.4042100000000000    0.9535000000000000    0.3191000000000000 C
   0.4466700000000000    0.9508166666666666    0.3766000000000000 C
   0.3847700000000000    0.9497766666666666    0.4269000000000000 C
   0.5595599999999999    0.9501733333333333    0.3831900000000000 C
   0.2188500000000000    0.0375566666666667    0.7367899999999999 N
   0.2193300000000000    0.0365666666666667    0.5489100000000000 N
   0.2386700000000000    0.0436500000000000    0.2339500000000000 N
   0.2522400000000000    0.0473400000000000    0.0458100000000000 N
   0.7811900000000001    0.2957300000000000    0.2367000000000000 N
   0.7805600000000000    0.2966900000000000    0.0480000000000000 N
   0.7611900000000000    0.2896633333333333    0.7339300000000000 N
   0.7475800000000000    0.2859566666666666    0.5458000000000000 N
   0.2188500000000000    0.3708900000000000    0.7367899999999999 N
   0.2193300000000000    0.3699000000000000    0.5489100000000000 N
   0.2386700000000000    0.3769833333333333    0.2339500000000000 N