H8 O5
1.0
  17.4339999893785986    0.0000000000000000    0.0006085614034613
  -5.0049975720595636   11.8254505243040455   -0.0004482354584042
   0.0000000000000000    0.0000000000000000   17.8750000000000000
H O
8 5
direct
   0.3604335673041807    0.7728868528064746    0.5631621206911283 H
   0.4335696492885343   -0.1587905626905756    0.3440658679297276 H
   0.3944932247057792    0.8020129221544112    0.4512502592954509 H
   0.1081671103597013    0.2434810965353514    0.3248599102394287 H
   0.0546075220853474    0.1998024264526513    0.2320005240305101 H
   0.0059710049953218   -0.0046543086770620    0.2575184580343058 H
   0.9316233877295834    0.0576059274074850    0.1055229567301268 H
   0.9979347903830774    0.0187820661096939    0.1386997548604580 H
   0.3896500000000000    0.8119400000000000    0.5187900000000000 O
   0.4297200000000000   -0.1509000000000000    0.3977500000000000 O
   0.0799400000000000    0.2163800000000000    0.2817400000000000 O
  -0.0403600000000000    0.0169300000000000    0.2683000000000000 O
   0.9162000000000000    0.0568600000000000    0.1577200000000000 O
