H2 O2
1.0
   9.5871503859265701    0.0000000000000000    1.6611584745676851
   9.3930694318407166   24.7360605730011933    1.6999264623610313
   0.0000000000000000    0.0000000000000000   20.9349999999999987
H O
2 2
direct
   0.3176024900628608    0.9164784312360360   -0.0092599728657887 H
   0.6823288091649163    0.0835490160745364    1.0092695269208591 H
   0.3875800000000000    0.9202000000000000    0.0169600000000000 O
   0.6123600000000000    0.0798200000000000    0.9830500000000000 O
