H7 O4
1.0
  21.3078503187301855    0.0000000000000000    6.7551553494046281
  -2.4553563479160885   14.6864369251005318    7.6926845541587028
   0.0000000000000000    0.0000000000000000   36.5240000000000009
H O
7 4
direct
   0.4808880349653460    0.2416007050043355    0.7834938531499419 H
   0.4865275984030339    0.0871984721363269    0.9021537959643315 H
   0.4912252367403384    0.1606324826254136    0.8410985916534540 H
   0.7203049906716060    0.0514978744776195    0.6690832120499974 H
   0.6767709674133530   -0.0165843469065824    0.7170588447722558 H
   0.6097046128881841    0.8977527404159273    0.7580995680865190 H
   0.5440455679047623    0.8325623925554939    0.7667474883405450 H
   0.4614000000000000    0.2173200000000000    0.8149100000000000 O
   0.4650500000000000    0.1280200000000000    0.8832949999999999 O
   0.6852300000000000    0.0000000000000000    0.6863350000000000 O
   0.5812000000000000    0.8800100000000000    0.7464050000000000 O
