Zn32 H228 C384 N45 O126
1.0
  21.3078503187301855    0.0000000000000000    6.7551553494046281
  -2.4553563479160885   14.6864369251005318    7.6926845541587028
   0.0000000000000000    0.0000000000000000   36.5240000000000009
Zn H C N O
32 228 384 45 126
direct
   0.7897400000000000    0.7888900000000000    0.3238800000000000 Zn
   0.2986500000000000    0.4663700000000000    0.0800300000000000 Zn
   0.7972500000000000    0.4658100000000000    0.0802150000000000 Zn
   0.2084700000000000    0.4355200000000000    0.1767200000000000 Zn
   0.7084300000000000    0.4356600000000000    0.1767750000000000 Zn
   0.2026500000000000    0.6260300000000000    0.4200150000000000 Zn
   0.7009500000000000    0.6255900000000000    0.4202950000000000 Zn
   0.3854400000000000    0.2888200000000000    0.3239000000000000 Zn
   0.8854100000000000    0.2886800000000000    0.3239600000000000 Zn
   0.1203100000000000    0.9658099999999999    0.0800300000000000 Zn
   0.6203200000000000    0.9655500000000000    0.0801000000000000 Zn
   0.1144000000000000    0.9359800000000000    0.1764950000000000 Zn
   0.6143999999999999    0.9357200000000000    0.1765950000000000 Zn
   0.3795800000000000    0.1259200000000000    0.4204500000000000 Zn
   0.8794100000000000    0.1258900000000000    0.4204500000000000 Zn
   0.2914700000000000    0.7893200000000000    0.3235350000000000 Zn
   0.7897400000000000    0.7888900000000000    0.8238799999999999 Zn
   0.2986500000000000    0.4663700000000000    0.5800300000000000 Zn
   0.7972500000000000    0.4658100000000000    0.5802150000000000 Zn
   0.2084700000000000    0.4355200000000000    0.6767200000000000 Zn
   0.7084300000000000    0.4356600000000000    0.6767750000000000 Zn
   0.2026500000000000    0.6260300000000000    0.9200150000000000 Zn
   0.7009500000000000    0.6255900000000000    0.9202950000000000 Zn
   0.3854400000000000    0.2888200000000000    0.8239000000000001 Zn
   0.8854100000000000    0.2886800000000000    0.8239600000000000 Zn
   0.1203100000000000    0.9658099999999999    0.5800300000000000 Zn
   0.6203200000000000    0.9655500000000000    0.5801000000000001 Zn
   0.1144000000000000    0.9359800000000000    0.6764950000000001 Zn
   0.6143999999999999    0.9357200000000000    0.6765950000000001 Zn
   0.3795800000000000    0.1259200000000000    0.9204500000000000 Zn
   0.8794100000000000    0.1258900000000000    0.9204500000000000 Zn
   0.2914700000000000    0.7893200000000000    0.8235350000000000 Zn
   0.3784300000000000    0.4934200000000000    0.3475950000000000 H
   0.8782900000000000    0.4936000000000000    0.3475150000000000 H
   0.3604500000000000    0.2997000000000000    0.4804500000000000 H
   0.8601500000000000    0.2998300000000000    0.4804050000000000 H
   0.3183900000000000    0.5679200000000000    0.4499500000000000 H
   0.8174700000000000    0.5677700000000000    0.4499550000000000 H
   0.4758300000000000    0.0000000000000000    0.3169250000000000 H
   0.9745500000000000    0.0000000000000000    0.3173400000000000 H
   0.3809800000000000    0.8584200000000000    0.3740700000000000 H
   0.8793900000000000    0.8580700000000000    0.3744300000000000 H
   0.4645700000000000    0.0170200000000000    0.1797700000000000 H
   0.9636800000000000    0.0161800000000000    0.1802150000000000 H
   0.4197400000000000    0.0000000000000000    0.1288950000000000 H
   0.9193400000000000    0.0000000000000000    0.1291500000000000 H
   0.3133700000000000    0.9005000000000000    0.1596450000000000 H
   0.8129300000000000    0.8997000000000001    0.1597150000000000 H
   0.2600700000000000    0.8164800000000000    0.2410450000000000 H
   0.7590900000000000    0.8161600000000000    0.2410400000000000 H
   0.0166200000000000    0.1058200000000000    0.2410000000000000 H
   0.5175700000000000    0.1068100000000000    0.2405500000000000 H
   0.0158600000000000    0.0634700000000000    0.2050550000000000 H
   0.5167500000000000    0.0644700000000000    0.2046100000000000 H
   0.4978900000000000    0.1884900000000000    0.1435900000000000 H
   0.9973600000000000    0.1877000000000000    0.1438050000000000 H
   0.4295200000000000    0.3011300000000000    0.1138750000000000 H
   0.9292899999999999    0.3006400000000000    0.1138700000000000 H
   0.3160900000000000    0.2369100000000000    0.2452950000000000 H
   0.8158100000000000    0.2373900000000000    0.2451350000000000 H
   0.3825000000000000    0.1265200000000000    0.2748050000000000 H
   0.8818700000000000    0.1266700000000000    0.2748550000000000 H
   0.1213400000000000    0.1879600000000000    0.1526850000000000 H
   0.6212700000000000    0.1877000000000000    0.1527000000000000 H
   0.1396500000000000    0.2598200000000000    0.0198000000000000 H
   0.6397000000000000    0.2596100000000000    0.0198350000000000 H
   0.1824900000000000    0.4670800000000000    0.0501350000000000 H
   0.6817600000000000    0.4669800000000000    0.0502950000000000 H
   0.0249200000000000    0.6430900000000001    0.1829800000000000 H
   0.5244799999999999    0.6427500000000000    0.1828950000000000 H
   0.1195100000000000    0.6060800000000000    0.1260000000000000 H
   0.6194100000000000    0.6060900000000000    0.1259500000000000 H
   0.0353900000000000    0.3763500000000000    0.3203600000000000 H
   0.5351700000000000    0.3763000000000000    0.3203000000000000 H
   0.0799600000000000    0.2591800000000000    0.3714100000000000 H
   0.5798700000000000    0.2594000000000000    0.3713850000000000 H
   0.1861500000000000    0.2192800000000000    0.3408650000000000 H
   0.6861400000000000    0.2196700000000000    0.3408400000000000 H
   0.2395500000000000    0.2976200000000000    0.2594750000000000 H
   0.7395100000000000    0.2979800000000000    0.2594450000000000 H
   0.4823300000000000    0.5873699999999999    0.2592500000000000 H
   0.9828900000000000    0.5878200000000000    0.2593300000000000 H
   0.4828400000000000    0.4730000000000000    0.2952200000000000 H
   0.9833400000000000    0.4734700000000000    0.2953350000000000 H
   0.0021100000000000    0.4750000000000000    0.3565000000000000 H
   0.5012300000000000    0.4744800000000000    0.3564850000000000 H
   0.0703500000000000    0.5279400000000000    0.3864600000000000 H
   0.5691700000000000    0.5274100000000000    0.3865900000000000 H
   0.1841000000000000    0.7271200000000000    0.2551650000000000 H
   0.6833800000000000    0.7264699999999999    0.2553950000000000 H
   0.1178400000000000    0.6759800000000000    0.2254700000000000 H
   0.6173500000000000    0.6754500000000000    0.2255200000000000 H
   0.2751500000000000    0.9933999999999999    0.3477500000000000 H
   0.7745700000000000    0.9929900000000000    0.3478600000000000 H
   0.1601200000000000    0.7997700000000000    0.4802300000000000 H
   0.6597900000000000    0.7995500000000000    0.4804500000000000 H
   0.2323100000000000    0.0678700000000000    0.4501700000000000 H
   0.7324000000000001    0.0676000000000000    0.4502150000000000 H
   0.2080100000000000    0.5090900000000000    0.3169850000000000 H
   0.7080700000000000    0.5091300000000000    0.3169000000000000 H
   0.2461700000000000    0.3583800000000000    0.3742200000000000 H
   0.7460900000000000    0.3582800000000000    0.3741950000000000 H
   0.3552800000000000    0.5171700000000000    0.1799450000000000 H
   0.8553100000000000    0.5169700000000000    0.1799250000000000 H
   0.4505200000000000    0.5019000000000000    0.1291300000000000 H
   0.9505900000000000    0.5017000000000000    0.1291000000000000 H
   0.0263000000000000    0.4005000000000000    0.1600300000000000 H
   0.5262000000000000    0.4006200000000000    0.1599850000000000 H
   0.9986800000000000    0.3161300000000000    0.2414600000000000 H
   0.4986300000000000    0.3162100000000000    0.2414150000000000 H
   0.2419500000000000    0.6065700000000001    0.2406350000000000 H
   0.7420300000000000    0.6065500000000000    0.2405850000000000 H
   0.2781100000000000    0.5640300000000000    0.2047550000000000 H
   0.7781800000000000    0.5639800000000000    0.2047200000000000 H
   0.3573800000000000    0.6880300000000000    0.1435800000000000 H
   0.8574900000000000    0.6878600000000000    0.1435450000000000 H
   0.4553500000000000    0.8005600000000000    0.1137150000000000 H
   0.9554400000000000    0.8004400000000000    0.1136600000000000 H
   0.4391600000000000    0.7369200000000000    0.2450200000000000 H
   0.9391699999999999    0.7370300000000000    0.2449550000000000 H
   0.3433400000000000    0.6267100000000000    0.2746700000000000 H
   0.8433900000000000    0.6267500000000000    0.2746200000000000 H
   0.2246500000000000    0.6882700000000000    0.1526250000000000 H
   0.7246600000000000    0.6880900000000000    0.1526350000000000 H
   0.3400400000000000    0.7603600000000000    0.0201650000000000 H
   0.8400000000000000    0.7603000000000000    0.0201450000000000 H
   0.2676600000000000    0.9678900000000000    0.0503450000000000 H
   0.7676800000000000    0.9677600000000000    0.0504150000000000 H
   0.2913700000000000    0.1431000000000000    0.1836450000000000 H
   0.7913800000000000    0.1430800000000000    0.1835900000000000 H
   0.2536300000000000    0.1065300000000000    0.1263400000000000 H
   0.7535900000000000    0.1063200000000000    0.1263550000000000 H
   0.1442300000000000    0.8763300000000001    0.3205700000000000 H
   0.6440600000000000    0.8766900000000000    0.3206400000000000 H
   0.0489800000000000    0.7591400000000000    0.3713450000000000 H
   0.5489000000000001    0.7593900000000000    0.3714200000000000 H
   0.4734000000000000    0.7194000000000000    0.3405250000000000 H
   0.9732700000000000    0.7196100000000000    0.3404000000000000 H
   0.5011000000000000    0.7977600000000000    0.2590950000000000 H
   0.0000000000000000    0.7982100000000000    0.2550000000000000 H
   0.2572400000000000    0.0878100000000000    0.2599800000000000 H
   0.7573200000000000    0.0878900000000000    0.2599200000000000 H
   0.2211700000000000    0.9733600000000000    0.2955000000000000 H
   0.7211600000000000    0.9734699999999999    0.2958250000000000 H
   0.1418600000000000    0.9748200000000000    0.3570000000000000 H
   0.6419200000000000    0.9749500000000000    0.3569500000000000 H
   0.0440000000000000    0.0275900000000000    0.3868550000000000 H
   0.5441100000000000    0.0278000000000000    0.3868200000000000 H
   0.0600700000000000    0.2263600000000000    0.2555200000000000 H
   0.5602600000000000    0.2267200000000000    0.2554950000000000 H
   0.1557800000000000    0.1754800000000000    0.2258750000000000 H
   0.6559300000000000    0.1757700000000000    0.2258450000000000 H
   0.3784300000000000    0.4934200000000000    0.8475950000000000 H
   0.8782900000000000    0.4936000000000000    0.8475150000000000 H
   0.3604500000000000    0.2997000000000000    0.9804500000000000 H
   0.8601500000000000    0.2998300000000000    0.9804050000000000 H
   0.3183900000000000    0.5679200000000000    0.9499500000000001 H
   0.8174700000000000    0.5677700000000000    0.9499550000000000 H
   0.4758300000000000    0.0000000000000000    0.8169250000000000 H
   0.9745500000000000    0.0000000000000000    0.8173400000000000 H
   0.3809800000000000    0.8584200000000000    0.8740700000000000 H
   0.8793900000000000    0.8580700000000000    0.8744300000000000 H
   0.4645700000000000    0.0170200000000000    0.6797700000000000 H
   0.9636800000000000    0.0161800000000000    0.6802150000000000 H
   0.4197400000000000    0.0000000000000000    0.6288950000000000 H
   0.9193400000000000    0.0000000000000000    0.6291500000000000 H
   0.3133700000000000    0.9005000000000000    0.6596450000000000 H
   0.8129300000000000    0.8997000000000001    0.6597150000000001 H
   0.2600700000000000    0.8164800000000000    0.7410450000000000 H
   0.7590900000000000    0.8161600000000000    0.7410400000000000 H
   0.0166200000000000    0.1058200000000000    0.7410000000000000 H
   0.5175700000000000    0.1068100000000000    0.7405500000000000 H
   0.0158600000000000    0.0634700000000000    0.7050550000000000 H
   0.5167500000000000    0.0644700000000000    0.7046100000000000 H
   0.4978900000000000    0.1884900000000000    0.6435900000000000 H
   0.9973600000000000    0.1877000000000000    0.6438050000000000 H
   0.4295200000000000    0.3011300000000000    0.6138749999999999 H
   0.9292899999999999    0.3006400000000000    0.6138700000000000 H
   0.3160900000000000    0.2369100000000000    0.7452950000000000 H
   0.8158100000000000    0.2373900000000000    0.7451350000000000 H
   0.3825000000000000    0.1265200000000000    0.7748050000000000 H
   0.8818700000000000    0.1266700000000000    0.7748550000000001 H
   0.1213400000000000    0.1879600000000000    0.6526850000000000 H
   0.6212700000000000    0.1877000000000000    0.6527000000000001 H
   0.1396500000000000    0.2598200000000000    0.5198000000000000 H
   0.6397000000000000    0.2596100000000000    0.5198350000000000 H
   0.1824900000000000    0.4670800000000000    0.5501350000000000 H
   0.6817600000000000    0.4669800000000000    0.5502950000000000 H
   0.0249200000000000    0.6430900000000001    0.6829800000000000 H
   0.5244799999999999    0.6427500000000000    0.6828950000000000 H
   0.1195100000000000    0.6060800000000000    0.6260000000000000 H
   0.6194100000000000    0.6060900000000000    0.6259500000000000 H
   0.0353900000000000    0.3763500000000000    0.8203600000000000 H
   0.5351700000000000    0.3763000000000000    0.8203000000000000 H
   0.0799600000000000    0.2591800000000000    0.8714100000000000 H
   0.5798700000000000    0.2594000000000000    0.8713850000000001 H
   0.1861500000000000    0.2192800000000000    0.8408650000000000 H
   0.6861400000000000    0.2196700000000000    0.8408400000000000 H
   0.2395500000000000    0.2976200000000000    0.7594750000000000 H
   0.7395100000000000    0.2979800000000000    0.7594449999999999 H
   0.4823300000000000    0.5873699999999999    0.7592500000000000 H
   0.9828900000000000    0.5878200000000000    0.7593300000000001 H
   0.4828400000000000    0.4730000000000000    0.7952200000000000 H
   0.9833400000000000    0.4734700000000000    0.7953350000000000 H
   0.0021100000000000    0.4750000000000000    0.8565000000000000 H
   0.5012300000000000    0.4744800000000000    0.8564849999999999 H
   0.0703500000000000    0.5279400000000000    0.8864600000000000 H
   0.5691700000000000    0.5274100000000000    0.8865900000000000 H
   0.1841000000000000    0.7271200000000000    0.7551650000000000 H
   0.6833800000000000    0.7264699999999999    0.7553950000000000 H
   0.1178400000000000    0.6759800000000000    0.7254700000000001 H
   0.6173500000000000    0.6754500000000000    0.7255199999999999 H
   0.2751500000000000    0.9933999999999999    0.8477500000000000 H
   0.7745700000000000    0.9929900000000000    0.8478600000000001 H
   0.1601200000000000    0.7997700000000000    0.9802299999999999 H
   0.6597900000000000    0.7995500000000000    0.9804500000000000 H
   0.2323100000000000    0.0678700000000000    0.9501700000000000 H
   0.7324000000000001    0.0676000000000000    0.9502150000000000 H
   0.2080100000000000    0.5090900000000000    0.8169850000000001 H
   0.7080700000000000    0.5091300000000000    0.8169000000000000 H
   0.2461700000000000    0.3583800000000000    0.8742200000000000 H
   0.7460900000000000    0.3582800000000000    0.8741950000000001 H
   0.3552800000000000    0.5171700000000000    0.6799450000000000 H
   0.8553100000000000    0.5169700000000000    0.6799250000000000 H
   0.4505200000000000    0.5019000000000000    0.6291300000000000 H
   0.9505900000000000    0.5017000000000000    0.6291000000000000 H
   0.0263000000000000    0.4005000000000000    0.6600300000000000 H
   0.5262000000000000    0.4006200000000000    0.6599850000000000 H
   0.9986800000000000    0.3161300000000000    0.7414600000000000 H
   0.4986300000000000    0.3162100000000000    0.7414149999999999 H
   0.2419500000000000    0.6065700000000001    0.7406349999999999 H
   0.7420300000000000    0.6065500000000000    0.7405850000000000 H
   0.2781100000000000    0.5640300000000000    0.7047550000000000 H
   0.7781800000000000    0.5639800000000000    0.7047200000000000 H
   0.3573800000000000    0.6880300000000000    0.6435800000000000 H
   0.8574900000000000    0.6878600000000000    0.6435450000000000 H
   0.4553500000000000    0.8005600000000000    0.6137150000000000 H
   0.9554400000000000    0.8004400000000000    0.6136600000000000 H
   0.4391600000000000    0.7369200000000000    0.7450200000000000 H
   0.9391699999999999    0.7370300000000000    0.7449550000000000 H
   0.3433400000000000    0.6267100000000000    0.7746700000000000 H
   0.8433900000000000    0.6267500000000000    0.7746200000000000 H
   0.2246500000000000    0.6882700000000000    0.6526250000000000 H
   0.7246600000000000    0.6880900000000000    0.6526350000000000 H
   0.3400400000000000    0.7603600000000000    0.5201650000000000 H
   0.8400000000000000    0.7603000000000000    0.5201450000000000 H
   0.2676600000000000    0.9678900000000000    0.5503450000000000 H
   0.7676800000000000    0.9677600000000000    0.5504150000000000 H
   0.2913700000000000    0.1431000000000000    0.6836450000000001 H
   0.2536300000000000    0.1065300000000000    0.6263400000000000 H
   0.1442300000000000    0.8763300000000001    0.8205700000000000 H
   0.0489800000000000    0.7591400000000000    0.8713450000000000 H
   0.9732700000000000    0.7196100000000000    0.8404000000000000 H
   0.0000000000000000    0.7982100000000000    0.7550000000000000 H
   0.2572400000000000    0.0878100000000000    0.7599800000000000 H
   0.2211700000000000    0.9733600000000000    0.7955000000000000 H
   0.1418600000000000    0.9748200000000000    0.8570000000000000 H
   0.0440000000000000    0.0275900000000000    0.8868549999999999 H
   0.0600700000000000    0.2263600000000000    0.7555200000000000 H
   0.1557800000000000    0.1754800000000000    0.7258750000000000 H
   0.6747100000000000    0.4432300000000000    0.4835100000000000 C
   0.1621300000000000    0.3552700000000000    0.1374350000000000 C
   0.6614300000000000    0.3549400000000000    0.1376700000000000 C
   0.1101100000000000    0.1143700000000000    0.1024350000000000 C
   0.2647000000000000    0.3960400000000000    0.3386900000000000 C
   0.7646500000000001    0.3959400000000000    0.3386700000000000 C
   0.3259400000000000    0.4338700000000000    0.2718500000000000 C
   0.8259200000000000    0.4337300000000000    0.2718600000000000 C
   0.3785900000000000    0.4297100000000000    0.2378450000000000 C
   0.3678600000000000    0.4765000000000000    0.3816500000000000 C
   0.8675900000000000    0.4766300000000000    0.3816050000000000 C
   0.3727000000000000    0.3895900000000000    0.4121500000000000 C
   0.8724800000000000    0.3897300000000000    0.4121200000000000 C
   0.3580800000000000    0.3677000000000000    0.4562900000000000 C
   0.8577399999999999    0.3678100000000000    0.4562000000000000 C
   0.3401600000000000    0.4328300000000000    0.4695500000000000 C
   0.8396100000000000    0.4328500000000000    0.4695200000000000 C
   0.3338800000000000    0.5187300000000000    0.4389300000000000 C
   0.8331900000000000    0.5186700000000000    0.4389150000000000 C
   0.3469500000000000    0.5404900000000000    0.3951500000000000 C
   0.8463800000000000    0.5404800000000000    0.3951200000000000 C
   0.3255000000000000    0.4106000000000000    0.0167500000000000 C
   0.8247900000000000    0.4105400000000000    0.0167400000000000 C
   0.3384100000000000    0.6305100000000000    0.3626350000000000 C
   0.8376100000000000    0.6304300000000000    0.3625000000000000 C
   0.3896700000000000    0.3193700000000000    0.3979050000000000 C
   0.8895100000000000    0.3194900000000000    0.3978450000000000 C
   0.4447300000000000    0.9710600000000000    0.3107000000000000 C
   0.9434000000000000    0.9704300000000000    0.3110500000000000 C
   0.3976800000000000    0.8961300000000000    0.3385400000000000 C
   0.8961700000000000    0.8957000000000001    0.3389000000000000 C
   0.4026900000000000    0.9339700000000000    0.2716800000000000 C
   0.9013400000000000    0.9335100000000000    0.2720250000000000 C
   0.3837800000000000    0.9298000000000000    0.2376000000000000 C
   0.8826200000000000    0.9292500000000000    0.2379050000000000 C
   0.4181000000000000    0.9760799999999999    0.1925850000000000 C
   0.9172100000000000    0.9753200000000000    0.1929300000000000 C
   0.3930500000000000    0.9664500000000000    0.1639500000000000 C
   0.8924299999999999    0.9656000000000000    0.1642050000000000 C
   0.3348200000000000    0.9104300000000000    0.1806150000000000 C
   0.8341800000000000    0.9097100000000000    0.1807600000000000 C
   0.3043900000000000    0.8637400000000000    0.2258300000000000 C
   0.8034600000000000    0.8632500000000000    0.2255000000000000 C
   0.4859000000000000    0.0796000000000000    0.2295900000000000 C
   0.9849599999999999    0.0788000000000000    0.2299450000000000 C
   0.4446800000000000    0.1483900000000000    0.2112450000000000 C
   0.9440499999999999    0.1479600000000000    0.2114050000000000 C
   0.4577300000000000    0.1988200000000000    0.1659050000000000 C
   0.9572400000000000    0.1982900000000000    0.1660450000000000 C
   0.4197800000000000    0.2622500000000000    0.1490750000000000 C
   0.9194600000000001    0.2619200000000000    0.1490850000000000 C
   0.3678000000000000    0.2761900000000000    0.1773850000000000 C
   0.8675300000000000    0.2761900000000000    0.1772900000000000 C
   0.3552100000000000    0.2261500000000000    0.2226800000000000 C
   0.8548800000000000    0.2263600000000000    0.2226000000000000 C
   0.3932900000000000    0.1631900000000000    0.2394350000000000 C
   0.8927600000000000    0.1631900000000000    0.2394800000000000 C
   0.3267800000000000    0.3441200000000000    0.1591250000000000 C
   0.8264700000000000    0.3440500000000000    0.1589800000000000 C
   0.1321100000000000    0.2391700000000000    0.1185750000000000 C
   0.6319600000000000    0.2389300000000000    0.1186400000000000 C
   0.1272200000000000    0.2132400000000000    0.0880850000000000 C
   0.6272200000000000    0.2130000000000000    0.0881000000000000 C
   0.1420700000000000    0.2795500000000000    0.0439000000000000 C
   0.6420100000000000    0.2793200000000000    0.0439950000000000 C
   0.1603100000000000    0.3712200000000000    0.0306000000000000 C
   0.6600200000000001    0.3710200000000000    0.0307100000000000 C
   0.1667100000000000    0.3958700000000000    0.0611500000000000 C
   0.6662100000000000    0.3957100000000000    0.0613350000000000 C
   0.1534100000000000    0.3301100000000000    0.1050150000000000 C
   0.6529700000000001    0.3299100000000000    0.1051450000000000 C
   0.1751700000000000    0.4434100000000000    0.4833700000000000 C
   0.6101900000000000    0.1141500000000000    0.1024600000000000 C
   0.0558200000000000    0.5922500000000001    0.1893000000000000 C
   0.5554700000000000    0.5920200000000000    0.1892000000000000 C
   0.1027300000000000    0.5727500000000000    0.1615450000000000 C
   0.6025500000000000    0.5727000000000000    0.1614800000000000 C
   0.0974500000000000    0.4768300000000000    0.2284650000000000 C
   0.5971900000000000    0.4767600000000000    0.2284200000000000 C
   0.1161700000000000    0.4044400000000000    0.2626250000000000 C
   0.6159700000000000    0.4044900000000000    0.2625900000000000 C
   0.0817800000000000    0.3609000000000000    0.3076250000000000 C
   0.5816000000000000    0.3609600000000000    0.3075950000000000 C
   0.1066900000000000    0.2940200000000000    0.3363600000000000 C
   0.6065800000000000    0.2942200000000000    0.3363350000000000 C
   0.1648200000000000    0.2711300000000000    0.3198000000000000 C
   0.6647600000000000    0.2714300000000000    0.3197750000000000 C
   0.1952900000000000    0.3146300000000000    0.2745950000000000 C
   0.6952199999999999    0.3149000000000000    0.2745700000000000 C
   0.0144000000000000    0.5385300000000000    0.2704150000000000 C
   0.5138300000000000    0.5381200000000000    0.2703400000000000 C
   0.0555000000000000    0.5704399999999999    0.2889350000000000 C
   0.5548100000000000    0.5699800000000000    0.2889350000000000 C
   0.0423300000000000    0.5300300000000000    0.3342900000000000 C
   0.5414600000000001    0.5295100000000000    0.3343100000000000 C
   0.0802100000000000    0.5596700000000000    0.3512000000000000 C
   0.5791700000000000    0.5591100000000000    0.3513600000000000 C
   0.1322600000000000    0.6303299999999999    0.3230300000000000 C
   0.6312400000000000    0.6297400000000000    0.3232100000000000 C
   0.1449200000000000    0.6710900000000000    0.2777150000000000 C
   0.6441500000000000    0.6704800000000000    0.2778750000000000 C
   0.1069300000000000    0.6417400000000000    0.2608500000000000 C
   0.6063000000000000    0.6412099999999999    0.2609100000000000 C
   0.1733800000000000    0.6616600000000000    0.3413100000000000 C
   0.6720600000000000    0.6611900000000001    0.3415900000000000 C
   0.2515600000000000    0.9764699999999999    0.3817800000000000 C
   0.7511400000000000    0.9760900000000000    0.3819000000000000 C
   0.2163200000000000    0.8895600000000000    0.4121400000000000 C
   0.7158400000000000    0.8892400000000000    0.4123150000000000 C
   0.1866300000000000    0.8677300000000000    0.4561700000000000 C
   0.6863500000000000    0.8674600000000000    0.4563550000000000 C
   0.1910000000000000    0.9328700000000000    0.4695000000000000 C
   0.6909100000000000    0.9326300000000000    0.4696450000000000 C
   0.2279400000000000    0.0186900000000000    0.4390900000000000 C
   0.7279000000000000    0.0184000000000000    0.4391700000000000 C
   0.2588100000000000    0.0404200000000000    0.3953750000000000 C
   0.7586500000000000    0.0400600000000000    0.3954450000000000 C
   0.1579700000000000    0.9106400000000000    0.0166200000000000 C
   0.6579500000000000    0.9105000000000000    0.0167350000000000 C
   0.2998200000000000    0.1303900000000000    0.3630150000000000 C
   0.7996799999999999    0.1300200000000000    0.3630300000000000 C
   0.2140100000000000    0.8194000000000000    0.3977350000000000 C
   0.7131100000000000    0.8190400000000000    0.3979950000000000 C
   0.2452600000000000    0.4709200000000000    0.3108000000000000 C
   0.7452900000000000    0.4709000000000000    0.3107650000000000 C
   0.8785900000000000    0.4295600000000000    0.2378450000000000 C
   0.3889700000000000    0.4761700000000000    0.1928000000000000 C
   0.8889899999999999    0.4759900000000000    0.1928000000000000 C
   0.4423900000000000    0.4666300000000000    0.1642050000000000 C
   0.9424300000000000    0.4664500000000000    0.1642150000000000 C
   0.4839800000000000    0.4104800000000000    0.1809350000000000 C
   0.9840300000000000    0.4103300000000000    0.1809650000000000 C
   0.4694900000000000    0.3635800000000000    0.2261650000000000 C
   0.9695100000000000    0.3634700000000000    0.2262000000000000 C
   0.2843900000000000    0.5793199999999999    0.2296700000000000 C
   0.7844600000000000    0.5792800000000000    0.2296000000000000 C
   0.3438400000000000    0.6482000000000000    0.2111950000000000 C
   0.8439100000000000    0.6481400000000000    0.2111500000000000 C
   0.3755900000000000    0.6984600000000000    0.1658450000000000 C
   0.8756900000000000    0.6983500000000000    0.1658000000000000 C
   0.4303200000000000    0.7618400000000000    0.1489200000000000 C
   0.9304000000000000    0.7617500000000000    0.1488700000000000 C
   0.4544800000000000    0.7758900000000000    0.1771550000000000 C
   0.9545400000000001    0.7758900000000000    0.1770900000000000 C
   0.4222700000000000    0.7260799999999999    0.2224600000000000 C
   0.9223100000000000    0.7261300000000001    0.2224000000000000 C
   0.3674900000000000    0.6632000000000000    0.2393000000000000 C
   0.8675500000000000    0.6632000000000000    0.2392500000000000 C
   0.0138200000000000    0.8436900000000001    0.1587500000000000 C
   0.5137800000000000    0.8436000000000000    0.1588300000000000 C
   0.2483000000000000    0.7395600000000000    0.1186150000000000 C
   0.7483100000000000    0.7393999999999999    0.1186300000000000 C
   0.2836200000000000    0.7135899999999999    0.0882350000000000 C
   0.7836100000000000    0.7134500000000000    0.0882300000000000 C
   0.3134300000000000    0.7800200000000000    0.0442400000000000 C
   0.8134200000000000    0.7799199999999999    0.0442400000000000 C
   0.3090600000000000    0.8718200000000000    0.0309450000000000 C
   0.8090700000000000    0.8717300000000000    0.0309800000000000 C
   0.2720300000000000    0.8965600000000000    0.0613850000000000 C
   0.7720500000000000    0.8964299999999999    0.0614400000000000 C
   0.2410700000000000    0.8306700000000000    0.1050700000000000 C
   0.7411000000000000    0.8305000000000000    0.1051000000000000 C
   0.3422300000000000    0.9439500000000000    0.4838850000000000 C
   0.8421999999999999    0.9439000000000000    0.4839150000000000 C
   0.2000800000000000    0.8557399999999999    0.1374500000000000 C
   0.7000800000000000    0.8554900000000000    0.1375300000000000 C
   0.2860400000000000    0.6146700000000000    0.1025400000000000 C
   0.7859000000000000    0.6145000000000000    0.1025450000000000 C
   0.2542200000000000    0.0923800000000000    0.1897900000000000 C
   0.7542000000000000    0.0923600000000000    0.1897700000000000 C
   0.2349900000000000    0.0731200000000000    0.1618650000000000 C
   0.7349500000000000    0.0730000000000000    0.1618800000000000 C
   0.1736300000000000    0.9771200000000000    0.2286550000000000 C
   0.6735700000000000    0.9771400000000000    0.2286850000000000 C
   0.1209800000000000    0.9047200000000000    0.2626500000000000 C
   0.6209300000000000    0.9047400000000000    0.2627050000000000 C