H8 C12 N6
1.0
  22.1785933531246116    0.0000000000000000   -0.4897477684858606
  -0.0000249479497339   16.1829999605437784   -0.0011297865304829
   0.0000000000000000    0.0000000000000000   35.9739999999999966
H C N
8 12 6
direct
   0.0909450000000000    0.0000000000000000    0.4040550000000000 H
   0.0960950000000000    0.9999900000000000    0.3340500000000000 H
   0.0954350000000000    0.0000000000000000    0.0995000000000000 H
   0.0986000000000000    0.9999900000000000    0.1696500000000000 H
   0.9045750000000000    0.9999800000000000    0.4005050000000000 H
   0.9014000000000000    0.9999900000000000    0.3303500000000000 H
   0.9090600000000000    0.0000100000000000    0.0959450000000000 H
   0.9039150000000000    0.0000100000000000    0.1659500000000000 H
   0.0503900000000000    0.9999700000000000    0.3863900000000000 C
   0.0529400000000000    0.0000100000000000    0.3478350000000000 C
   0.0543800000000000    0.0000200000000000    0.1156050000000000 C
   0.0011700000000000    0.0000200000000000    0.1731150000000000 C
   0.0558550000000000    0.9999700000000000    0.1542350000000000 C
   0.0005600000000000    0.9999500000000000    0.2141050000000000 C
   0.9456249999999999    0.0000000000000000    0.3843950000000000 C
   0.9988349999999999    0.0000300000000000    0.3268850000000000 C
   0.9441500000000000    0.9999700000000000    0.3457650000000000 C
   0.9994449999999999    0.9999700000000000    0.2858950000000000 C
   0.9496200000000000    0.9999900000000000    0.1136100000000000 C
   0.9470700000000001    0.0000300000000000    0.1521650000000000 C
   0.0537600000000000    0.9999600000000000    0.2694500000000000 N
   0.0022750000000000    0.9999900000000000    0.0956700000000000 N
   0.0543300000000000    0.9999900000000000    0.2326500000000000 N
   0.9977350000000000    0.9999800000000000    0.4043300000000000 N
   0.9456750000000000    0.0000200000000000    0.2673450000000000 N
   0.9462500000000000    0.9999900000000000    0.2305450000000000 N
