H16 C34 O8
1.0
  22.1785933531246116    0.0000000000000000   -0.4897477684858606
  -0.0000249479497339   16.1829999605437784   -0.0011297865304829
   0.0000000000000000    0.0000000000000000   35.9739999999999966
H C O
16 34 8
direct
   0.8831150000000000    0.7939600000000000    0.0596900000000000 H
   0.8244549999999999    0.6620000000000000    0.0600650000000000 H
   0.6273500000000000    0.7985300000000000    0.0593500000000000 H
   0.6864000000000000    0.6669100000000000    0.0594750000000000 H
   0.6273550000000000    0.2015000000000000    0.0593550000000000 H
   0.6864049999999999    0.3331200000000000    0.0594800000000000 H
   0.8831100000000001    0.2060700000000000    0.0596900000000000 H
   0.8244500000000000    0.3380300000000000    0.0600700000000000 H
   0.8725800000000000    0.7985100000000001    0.9406450000000000 H
   0.8135550000000000    0.6668700000000000    0.9405500000000000 H
   0.6169650000000000    0.7939300000000000    0.9403049999999999 H
   0.6756250000000000    0.6619699999999999    0.9399600000000000 H
   0.6169600000000000    0.2060700000000000    0.9403049999999999 H
   0.6756200000000000    0.3380300000000000    0.9399649999999999 H
   0.8725849999999999    0.2014900000000000    0.9406500000000000 H
   0.8135600000000001    0.3331300000000000    0.9405550000000000 H
   0.8811350000000000    0.8042700000000000    0.0001550000000000 C
   0.7818350000000001    0.5760600000000000    0.0000000000000000 C
   0.8152800000000000    0.6559000000000000    0.0000000000000000 C
   0.8671750000000000    0.7658199999999999    0.0337900000000000 C
   0.8345650000000000    0.6923400000000000    0.0338600000000000 C
   0.5804650000000000    0.8804900000000000    0.0000000000000000 C
   0.6387650000000000    0.7684100000000000    0.0333700000000000 C
   0.6715100000000001    0.6950600000000000    0.0333050000000000 C
   0.5804650000000000    0.1195300000000000    0.0000000000000000 C
   0.6387650000000000    0.2316200000000000    0.0333700000000000 C
   0.6715100000000001    0.3049700000000000    0.0333100000000000 C
   0.8811350000000000    0.1957500000000000    0.0001600000000000 C
   0.7818350000000001    0.4239600000000000    0.0000000000000000 C
   0.8152800000000000    0.3441100000000000    0.0000000000000000 C
   0.8671750000000000    0.2342000000000000    0.0337900000000000 C
   0.8345600000000000    0.3076800000000000    0.0338650000000000 C
   0.8122150000000000    0.5000100000000000    0.0005000000000000 C
   0.9195300000000000    0.8804999999999999    0.9998800000000000 C
   0.8612050000000000    0.7683900000000000    0.9666350000000000 C
   0.8284650000000000    0.6950400000000000    0.9667150000000000 C
   0.6188650000000000    0.8042600000000000    0.9998350000000000 C
   0.7181800000000000    0.5760600000000000    0.9997700000000000 C
   0.6847400000000000    0.6559100000000000    0.9997100000000000 C
   0.6328750000000000    0.7658000000000000    0.9662150000000000 C
   0.6654800000000000    0.6923200000000000    0.9661550000000000 C
   0.6188650000000000    0.1957600000000000    0.9998400000000001 C
   0.7181800000000000    0.4239600000000000    0.9997700000000000 C
   0.6847350000000000    0.3441200000000000    0.9997150000000000 C
   0.6328700000000000    0.2342000000000000    0.9662150000000000 C
   0.6654800000000000    0.3076900000000000    0.9661600000000000 C
   0.9195300000000000    0.1195200000000000    0.9998850000000000 C
   0.8612100000000000    0.2316100000000000    0.9666350000000000 C
   0.8284650000000000    0.3049600000000000    0.9667150000000000 C
   0.6878000000000000    0.5000100000000000    0.9995450000000000 C
   0.9373050000000001   -0.0907500000000000    0.0312600000000000 O
   0.5672350000000000   -0.0901500000000000    0.0317850000000000 O
   0.5672400000000000    0.0901800000000000    0.0317850000000000 O
   0.9373100000000000    0.0907700000000000    0.0312600000000000 O
   0.9327600000000000   -0.0901700000000000    0.9681949999999999 O
   0.5627100000000000   -0.0907600000000000    0.9687200000000000 O
   0.5627100000000000    0.0907700000000000    0.9687200000000000 O
   0.9327600000000000    0.0901800000000000    0.9681949999999999 O
