Zn24 H345 C253 Br24 N46 O46
1.0
  20.9749997955407892    0.0000000000000000   -0.0029286624753263
  -0.0018930294324172   15.6278076029457988   -9.0438245196238238
   0.0000000000000000    0.0000000000000000   36.1159999999999997
Zn H C Br N O
24 345 253 24 46 46
direct
   0.9610300000000001    0.9234200000000000    0.2350000000000000 Zn
   0.1276900000000000    0.5505100000000001    0.0382350000000000 Zn
   0.6276900000000000    0.5505100000000001    0.0382350000000000 Zn
   0.2943400000000000    0.5256900000000000    0.2246450000000000 Zn
   0.7943500000000000    0.5256900000000000    0.2246450000000000 Zn
   0.2110200000000000    0.0765300000000000    0.2630050000000000 Zn
   0.7110200000000000    0.0765300000000000    0.2630050000000000 Zn
   0.3776700000000000    0.4495600000000000    0.4617850000000000 Zn
   0.8776700000000000    0.4495600000000000    0.4617850000000000 Zn
   0.0443500000000000    0.4742500000000000    0.2753700000000000 Zn
   0.5443600000000000    0.4742500000000000    0.2753700000000000 Zn
   0.4610300000000000    0.9234200000000000    0.2369950000000000 Zn
   0.9610300000000001    0.9234200000000000    0.7350000000000000 Zn
   0.1276900000000000    0.5505100000000001    0.5382350000000000 Zn
   0.6276900000000000    0.5505100000000001    0.5382350000000000 Zn
   0.2943400000000000    0.5256900000000000    0.7246450000000000 Zn
   0.7943500000000000    0.5256900000000000    0.7246450000000000 Zn
   0.2110200000000000    0.0765300000000000    0.7630049999999999 Zn
   0.7110200000000000    0.0765300000000000    0.7630049999999999 Zn
   0.3776700000000000    0.4495600000000000    0.9617850000000000 Zn
   0.8776700000000000    0.4495600000000000    0.9617850000000000 Zn
   0.0443500000000000    0.4742500000000000    0.7753700000000000 Zn
   0.5443600000000000    0.4742500000000000    0.7753700000000000 Zn
   0.4610300000000000    0.9234200000000000    0.7369950000000001 Zn
   0.4099200000000000    0.0711400000000000    0.2760000000000000 H
   0.9099200000000000    0.0711400000000000    0.2760000000000000 H
   0.3068700000000000    0.2942500000000000    0.3955600000000000 H
   0.8068700000000000    0.2942500000000000    0.3955600000000000 H
   0.4909600000000000    0.3350400000000000    0.4430950000000000 H
   0.9909700000000000    0.3350400000000000    0.4430950000000000 H
   0.0228400000000000    0.1846800000000000    0.3909350000000000 H
   0.5228500000000000    0.1846700000000000    0.3909350000000000 H
   0.3301600000000000    0.1431300000000000    0.3413900000000000 H
   0.8301600000000000    0.1431300000000000    0.3413500000000000 H
   0.4919700000000000    0.0413500000000000    0.3336250000000000 H
   0.9919700000000000    0.0413500000000000    0.3336250000000000 H
   0.4094100000000000    0.0163400000000000    0.3230550000000000 H
   0.9094100000000001    0.0163400000000000    0.3230550000000000 H
   0.0248100000000000    0.1498400000000000    0.3127500000000000 H
   0.5248100000000000    0.1498400000000000    0.3127550000000000 H
   0.0300400000000000    0.1957200000000000    0.2613650000000000 H
   0.5300400000000000    0.1957200000000000    0.2613650000000000 H
   0.4215000000000000    0.0707300000000000    0.2112150000000000 H
   0.9215000000000000    0.0707300000000000    0.2112000000000000 H
   0.0012900000000000    0.0632800000000000    0.1944950000000000 H
   0.5012900000000000    0.0632800000000000    0.1944950000000000 H
   0.4541700000000000    0.1510300000000000    0.2017350000000000 H
   0.9541700000000000    0.1510300000000000    0.2017350000000000 H
   0.4304500000000000    0.2744900000000000    0.2769700000000000 H
   0.9304600000000000    0.2744900000000000    0.2769700000000000 H
   0.4545000000000000    0.2686700000000000    0.3224500000000000 H
   0.9545000000000000    0.2686600000000000    0.3224950000000000 H
   0.3910300000000000    0.2033300000000000    0.2900050000000000 H
   0.8910300000000000    0.2033300000000000    0.2900050000000000 H
   0.0765500000000000    0.4809200000000000    0.4643800000000000 H
   0.5765600000000000    0.4809200000000000    0.4643800000000000 H
   0.4735200000000000    0.4971800000000000    0.3529050000000000 H
   0.9735200000000001    0.4971900000000000    0.3529100000000000 H
   0.1576500000000000    0.5517000000000000    0.3327700000000000 H
   0.6576600000000000    0.5517100000000000    0.3327500000000000 H
   0.1894200000000000    0.5976600000000000    0.4079300000000000 H
   0.6894200000000000    0.5976700000000000    0.4079350000000000 H
   0.9967000000000000    0.5398500000000001    0.4284300000000000 H
   0.4967000000000000    0.5398500000000001    0.4284300000000000 H
   0.1584300000000000    0.6262600000000000    0.4795050000000000 H
   0.6584300000000000    0.6262600000000000    0.4795050000000000 H
   0.0758700000000000    0.6298800000000000    0.4919150000000000 H
   0.5758700000000000    0.6298800000000000    0.4919150000000000 H
   0.1914700000000000    0.4759000000000000    0.4251300000000000 H
   0.6914700000000000    0.4759000000000000    0.4251300000000000 H
   0.1967500000000000    0.3270600000000000    0.4020000000000000 H
   0.6967500000000000    0.3270600000000000    0.4020000000000000 H
   0.0881600000000000    0.3515600000000000    0.4643900000000000 H
   0.5881700000000000    0.3515600000000000    0.4643900000000000 H
   0.1679700000000000    0.3256200000000000    0.4681350000000000 H
   0.6679700000000000    0.3256200000000000    0.4681350000000000 H
   0.1209100000000000    0.2522700000000000    0.4241900000000000 H
   0.6209100000000000    0.2522700000000000    0.4241500000000000 H
   0.0972300000000000    0.2793900000000000    0.3625500000000000 H
   0.5972300000000000    0.2793900000000000    0.3625650000000000 H
   0.1212300000000000    0.3764300000000000    0.3656150000000000 H
   0.6212299999999999    0.3764300000000000    0.3656150000000000 H
   0.0577200000000000    0.3766400000000000    0.3981850000000000 H
   0.5577299999999999    0.3766300000000000    0.3981850000000000 H
   0.2432500000000000    0.4479300000000000    0.2595650000000000 H
   0.1402200000000000    0.2088600000000000    0.2516350000000000 H
   0.3242900000000000    0.1137700000000000    0.2243200000000000 H
   0.3560700000000000    0.2179600000000000    0.2012900000000000 H
   0.1634100000000000    0.3170700000000000    0.2302400000000000 H
   0.3251400000000000    0.3324200000000000    0.1869500000000000 H
   0.2425700000000000    0.3535800000000000    0.1851000000000000 H
   0.3582200000000000    0.3745600000000000    0.2621250000000000 H
   0.3634800000000000    0.4774900000000000    0.3365300000000000 H
   0.2547900000000000    0.5775200000000000    0.3242350000000000 H
   0.3345600000000000    0.6111400000000000    0.3372750000000000 H
   0.2874900000000000    0.5966100000000000    0.3738950000000000 H
   0.2640700000000000    0.4461000000000000    0.3603400000000000 H
   0.2880400000000000    0.3550700000000000    0.3117950000000000 H
   0.2244800000000000    0.4199800000000000    0.3117450000000000 H
   0.1599100000000000    0.9288000000000000    0.2239000000000000 H
   0.6599200000000000    0.9288000000000000    0.2239200000000000 H
   0.0569700000000000    0.7057000000000000    0.1044600000000000 H
   0.5569700000000000    0.7057000000000000    0.1044600000000000 H
   0.2409800000000000    0.6651800000000000    0.0568350000000000 H
   0.7409900000000000    0.6651800000000000    0.0568350000000000 H
   0.2728100000000000    0.8156000000000000    0.1089850000000000 H
   0.7728200000000000    0.8156000000000000    0.1089850000000000 H
   0.0802100000000000    0.8568600000000000    0.1586150000000000 H
   0.5802200000000000    0.8568600000000000    0.1586150000000000 H
   0.2419800000000000    0.9587900000000000    0.1664100000000000 H
   0.7419900000000000    0.9587900000000000    0.1664100000000000 H
   0.1594200000000000    0.9837700000000000    0.1769650000000000 H
   0.6594200000000000    0.9837700000000000    0.1769650000000000 H
   0.2748100000000000    0.8501600000000000    0.1871900000000000 H
   0.7748100000000000    0.8501600000000000    0.1871900000000000 H
   0.2801000000000000    0.8042800000000000    0.2386000000000000 H
   0.7801000000000000    0.8042700000000000    0.2385950000000000 H
   0.1714100000000000    0.9290000000000000    0.2886350000000000 H
   0.6714100000000000    0.9290000000000000    0.2886350000000000 H
   0.2511700000000000    0.9366400000000000    0.3054400000000000 H
   0.7511800000000000    0.9366400000000000    0.3054350000000000 H
   0.2041400000000000    0.8487700000000000    0.2981500000000000 H
   0.7041400000000000    0.8487700000000000    0.2981500000000000 H
   0.1806400000000000    0.7252200000000000    0.2228750000000000 H
   0.6806400000000000    0.7252200000000000    0.2228750000000000 H
   0.2047000000000000    0.7311500000000000    0.1773850000000000 H
   0.7047000000000000    0.7311500000000000    0.1773850000000000 H
   0.1411200000000000    0.7962800000000000    0.2098100000000000 H
   0.6411200000000000    0.7962800000000000    0.2098050000000000 H
   0.3265700000000000    0.5191400000000000    0.0356350000000000 H
   0.8265700000000000    0.5191400000000000    0.0356350000000000 H
   0.2234800000000000    0.5027800000000000    0.1470500000000000 H
   0.7234800000000000    0.5027800000000000    0.1470500000000000 H
   0.4075900000000000    0.4482900000000000    0.1672750000000000 H
   0.9076000000000000    0.4482900000000000    0.1672750000000000 H
   0.4394000000000000    0.4024500000000000    0.0921450000000000 H
   0.9394100000000000    0.4024500000000000    0.0921450000000000 H
   0.2467000000000000    0.4602300000000000    0.0715850000000000 H
   0.7467000000000000    0.4602300000000000    0.0715850000000000 H
   0.4084500000000000    0.3738600000000000    0.0205700000000000 H
   0.9084500000000000    0.3738600000000000    0.0205700000000000 H
   0.3258900000000000    0.3701800000000000    0.0081200000000000 H
   0.8259000000000000    0.3701800000000000    0.0081200000000000 H
   0.4414900000000000    0.5242400000000000    0.0749000000000000 H
   0.9415000000000000    0.5242400000000000    0.0749000000000000 H
   0.4467400000000000    0.6730699999999999    0.0980000000000000 H
   0.9467400000000000    0.6730699999999999    0.0980000000000000 H
   0.3382300000000000    0.6485000000000000    0.0355700000000000 H
   0.8382300000000000    0.6485000000000000    0.0355500000000000 H
   0.4180300000000000    0.6745400000000000    0.0319000000000000 H
   0.9180400000000000    0.6745400000000000    0.0319000000000000 H
   0.3709100000000000    0.7478200000000000    0.0758100000000000 H
   0.8709200000000000    0.7478200000000000    0.0758100000000000 H
   0.3471700000000000    0.7206399999999999    0.1374050000000000 H
   0.8471700000000000    0.7206399999999999    0.1374050000000000 H
   0.3711300000000000    0.6235900000000000    0.1343450000000000 H
   0.8711300000000000    0.6235900000000000    0.1343450000000000 H
   0.3076900000000000    0.6234000000000000    0.1017350000000000 H
   0.8076900000000000    0.6234000000000000    0.1017000000000000 H
   0.4932500000000000    0.5519400000000000    0.2404200000000000 H
   0.9932600000000000    0.5519400000000000    0.2404200000000000 H
   0.3901700000000000    0.7911600000000000    0.2484250000000000 H
   0.8901700000000000    0.7911700000000000    0.2484000000000000 H
   0.0743400000000000    0.8859700000000000    0.2755300000000000 H
   0.5743400000000000    0.8859700000000000    0.2755300000000000 H
   0.1061400000000000    0.7817600000000000    0.2985500000000000 H
   0.6061400000000000    0.7817600000000000    0.2985500000000000 H
   0.4133700000000000    0.6829400000000000    0.2698100000000000 H
   0.9133800000000000    0.6829400000000000    0.2698150000000000 H
   0.0751200000000000    0.6675100000000000    0.3130000000000000 H
   0.5751200000000000    0.6675100000000000    0.3130350000000000 H
   0.4925500000000000    0.6463300000000000    0.3148650000000000 H
   0.9925600000000000    0.6463300000000000    0.3148500000000000 H
   0.1082200000000000    0.6253400000000000    0.2378750000000000 H
   0.6082200000000000    0.6253400000000000    0.2378750000000000 H
   0.1134400000000000    0.5224600000000000    0.1634800000000000 H
   0.6134500000000001    0.5224500000000000    0.1634750000000000 H
   0.0048300000000000    0.4222900000000000    0.1757500000000000 H
   0.5048300000000000    0.4222900000000000    0.1757500000000000 H
   0.0846100000000000    0.3887700000000000    0.1627300000000000 H
   0.5846200000000000    0.3887700000000000    0.1627300000000000 H
   0.0375100000000000    0.4032500000000000    0.1260950000000000 H
   0.5375100000000000    0.4032400000000000    0.1260950000000000 H
   0.0139400000000000    0.5537200000000000    0.1396600000000000 H
   0.5139500000000000    0.5537200000000000    0.1396600000000000 H
   0.0379500000000000    0.6447900000000000    0.1881950000000000 H
   0.5379500000000000    0.6447900000000000    0.1881500000000000 H
   0.4744300000000000    0.5798300000000000    0.1882700000000000 H
   0.9744400000000000    0.5798300000000000    0.1882500000000000 H
   0.4099200000000000    0.0711400000000000    0.7760000000000000 H
   0.9099200000000000    0.0711400000000000    0.7760000000000000 H
   0.3068700000000000    0.2942500000000000    0.8955600000000000 H
   0.8068700000000000    0.2942500000000000    0.8955600000000000 H
   0.4909600000000000    0.3350400000000000    0.9430950000000000 H
   0.9909700000000000    0.3350400000000000    0.9430950000000000 H
   0.0228400000000000    0.1846800000000000    0.8909350000000000 H
   0.5228500000000000    0.1846700000000000    0.8909350000000000 H
   0.3301600000000000    0.1431300000000000    0.8413900000000001 H
   0.8301600000000000    0.1431300000000000    0.8413500000000000 H
   0.4919700000000000    0.0413500000000000    0.8336250000000001 H
   0.9919700000000000    0.0413500000000000    0.8336250000000001 H
   0.4094100000000000    0.0163400000000000    0.8230550000000000 H
   0.9094100000000001    0.0163400000000000    0.8230550000000000 H
   0.0248100000000000    0.1498400000000000    0.8127500000000000 H
   0.5248100000000000    0.1498400000000000    0.8127550000000000 H
   0.0300400000000000    0.1957200000000000    0.7613650000000001 H
   0.5300400000000000    0.1957200000000000    0.7613650000000001 H
   0.4215000000000000    0.0707300000000000    0.7112150000000000 H
   0.9215000000000000    0.0707300000000000    0.7112000000000001 H
   0.0012900000000000    0.0632800000000000    0.6944950000000000 H
   0.5012900000000000    0.0632800000000000    0.6944950000000000 H
   0.4541700000000000    0.1510300000000000    0.7017350000000000 H
   0.9541700000000000    0.1510300000000000    0.7017350000000000 H
   0.4304500000000000    0.2744900000000000    0.7769699999999999 H
   0.9304600000000000    0.2744900000000000    0.7769699999999999 H
   0.4545000000000000    0.2686700000000000    0.8224500000000000 H
   0.9545000000000000    0.2686600000000000    0.8224950000000000 H
   0.3910300000000000    0.2033300000000000    0.7900050000000001 H
   0.8910300000000000    0.2033300000000000    0.7900050000000001 H
   0.0765500000000000    0.4809200000000000    0.9643800000000000 H
   0.5765600000000000    0.4809200000000000    0.9643800000000000 H
   0.4735200000000000    0.4971800000000000    0.8529050000000000 H
   0.9735200000000001    0.4971900000000000    0.8529100000000001 H
   0.1576500000000000    0.5517000000000000    0.8327700000000000 H
   0.6576600000000000    0.5517100000000000    0.8327500000000000 H
   0.1894200000000000    0.5976600000000000    0.9079300000000000 H
   0.6894200000000000    0.5976700000000000    0.9079349999999999 H
   0.9967000000000000    0.5398500000000001    0.9284300000000000 H
   0.4967000000000000    0.5398500000000001    0.9284300000000000 H
   0.1584300000000000    0.6262600000000000    0.9795050000000001 H
   0.6584300000000000    0.6262600000000000    0.9795050000000001 H
   0.0758700000000000    0.6298800000000000    0.9919150000000000 H
   0.5758700000000000    0.6298800000000000    0.9919150000000000 H
   0.1914700000000000    0.4759000000000000    0.9251300000000000 H
   0.6914700000000000    0.4759000000000000    0.9251300000000000 H
   0.1967500000000000    0.3270600000000000    0.9020000000000000 H
   0.6967500000000000    0.3270600000000000    0.9020000000000000 H
   0.0881600000000000    0.3515600000000000    0.9643900000000001 H
   0.5881700000000000    0.3515600000000000    0.9643900000000001 H
   0.1679700000000000    0.3256200000000000    0.9681350000000000 H
   0.6679700000000000    0.3256200000000000    0.9681350000000000 H
   0.1209100000000000    0.2522700000000000    0.9241900000000001 H
   0.6209100000000000    0.2522700000000000    0.9241500000000000 H
   0.0972300000000000    0.2793900000000000    0.8625499999999999 H
   0.5972300000000000    0.2793900000000000    0.8625650000000000 H
   0.1212300000000000    0.3764300000000000    0.8656150000000000 H
   0.6212299999999999    0.3764300000000000    0.8656150000000000 H
   0.0577200000000000    0.3766400000000000    0.8981850000000000 H
   0.5577299999999999    0.3766300000000000    0.8981850000000000 H
   0.2432500000000000    0.4479300000000000    0.7595650000000000 H
   0.7432500000000000    0.4479300000000000    0.7595650000000000 H
   0.1402200000000000    0.2088600000000000    0.7516350000000001 H
   0.6402200000000000    0.2088600000000000    0.7516400000000000 H
   0.3242900000000000    0.1137700000000000    0.7243200000000000 H
   0.8242900000000000    0.1137700000000000    0.7243200000000000 H
   0.3560700000000000    0.2179600000000000    0.7012900000000000 H
   0.8560700000000000    0.2179700000000000    0.7012900000000000 H
   0.1634100000000000    0.3170700000000000    0.7302400000000000 H
   0.6634100000000001    0.3170700000000000    0.7302400000000000 H
   0.3251400000000000    0.3324200000000000    0.6869499999999999 H
   0.8251400000000000    0.3324200000000000    0.6869700000000000 H
   0.2425700000000000    0.3535800000000000    0.6851000000000000 H
   0.7425800000000000    0.3535800000000000    0.6851000000000000 H
   0.3582200000000000    0.3745600000000000    0.7621249999999999 H
   0.8582300000000000    0.3745600000000000    0.7621249999999999 H
   0.3634800000000000    0.4774900000000000    0.8365300000000000 H
   0.8634800000000000    0.4775000000000000    0.8365300000000000 H
   0.2547900000000000    0.5775200000000000    0.8242350000000001 H
   0.7547900000000000    0.5775200000000000    0.8242350000000001 H
   0.3345600000000000    0.6111400000000000    0.8372750000000000 H
   0.8345600000000000    0.6111400000000000    0.8372750000000000 H
   0.2874900000000000    0.5966100000000000    0.8738950000000000 H
   0.7874900000000000    0.5966100000000000    0.8738950000000000 H
   0.2640700000000000    0.4461000000000000    0.8603400000000000 H
   0.7640700000000000    0.4461000000000000    0.8603450000000000 H
   0.2880400000000000    0.3550700000000000    0.8117950000000000 H
   0.7880500000000000    0.3550700000000000    0.8118000000000001 H
   0.2244800000000000    0.4199800000000000    0.8117449999999999 H
   0.7244800000000000    0.4199900000000000    0.8115000000000000 H
   0.1599100000000000    0.9288000000000000    0.7239000000000000 H
   0.6599200000000000    0.9288000000000000    0.7239200000000000 H
   0.0569700000000000    0.7057000000000000    0.6044600000000000 H
   0.5569700000000000    0.7057000000000000    0.6044600000000000 H
   0.2409800000000000    0.6651800000000000    0.5568350000000000 H
   0.7409900000000000    0.6651800000000000    0.5568350000000000 H
   0.2728100000000000    0.8156000000000000    0.6089850000000000 H
   0.7728200000000000    0.8156000000000000    0.6089850000000000 H
   0.0802100000000000    0.8568600000000000    0.6586150000000000 H
   0.5802200000000000    0.8568600000000000    0.6586150000000000 H
   0.2419800000000000    0.9587900000000000    0.6664099999999999 H
   0.7419900000000000    0.9587900000000000    0.6664099999999999 H
   0.1594200000000000    0.9837700000000000    0.6769650000000000 H
   0.6594200000000000    0.9837700000000000    0.6769650000000000 H
   0.2748100000000000    0.8501600000000000    0.6871900000000000 H
   0.7748100000000000    0.8501600000000000    0.6871900000000000 H
   0.2801000000000000    0.8042800000000000    0.7386000000000000 H
   0.7801000000000000    0.8042700000000000    0.7385950000000000 H
   0.1714100000000000    0.9290000000000000    0.7886350000000000 H
   0.6714100000000000    0.9290000000000000    0.7886350000000000 H
   0.2511700000000000    0.9366400000000000    0.8054399999999999 H
   0.7511800000000000    0.9366400000000000    0.8054350000000000 H
   0.2041400000000000    0.8487700000000000    0.7981500000000000 H
   0.7041400000000000    0.8487700000000000    0.7981500000000000 H
   0.1806400000000000    0.7252200000000000    0.7228749999999999 H
   0.6806400000000000    0.7252200000000000    0.7228749999999999 H
   0.2047000000000000    0.7311500000000000    0.6773850000000000 H
   0.7047000000000000    0.7311500000000000    0.6773850000000000 H
   0.1411200000000000    0.7962800000000000    0.7098100000000001 H
   0.6411200000000000    0.7962800000000000    0.7098050000000000 H
   0.3265700000000000    0.5191400000000000    0.5356350000000000 H
   0.8265700000000000    0.5191400000000000    0.5356350000000000 H
   0.2234800000000000    0.5027800000000000    0.6470500000000000 H
   0.7234800000000000    0.5027800000000000    0.6470500000000000 H
   0.4075900000000000    0.4482900000000000    0.6672750000000001 H
   0.9076000000000000    0.4482900000000000    0.6672750000000001 H
   0.4394000000000000    0.4024500000000000    0.5921450000000000 H
   0.9394100000000000    0.4024500000000000    0.5921450000000000 H
   0.2467000000000000    0.4602300000000000    0.5715850000000000 H
   0.7467000000000000    0.4602300000000000    0.5715850000000000 H
   0.4084500000000000    0.3738600000000000    0.5205700000000000 H
   0.9084500000000000    0.3738600000000000    0.5205700000000000 H
   0.3258900000000000    0.3701800000000000    0.5081200000000000 H
   0.8259000000000000    0.3701800000000000    0.5081200000000000 H
   0.4414900000000000    0.5242400000000000    0.5749000000000000 H
   0.9415000000000000    0.5242400000000000    0.5749000000000000 H
   0.4467400000000000    0.6730699999999999    0.5980000000000000 H
   0.9467400000000000    0.6730699999999999    0.5980000000000000 H
   0.3382300000000000    0.6485000000000000    0.5355700000000000 H
   0.8382300000000000    0.6485000000000000    0.5355500000000000 H
   0.4180300000000000    0.6745400000000000    0.5319000000000000 H
   0.9180400000000000    0.6745400000000000    0.5319000000000000 H
   0.3709100000000000    0.7478200000000000    0.5758100000000000 H
   0.8709200000000000    0.7478200000000000    0.5758100000000000 H
   0.3471700000000000    0.7206399999999999    0.6374050000000000 H
   0.8471700000000000    0.7206399999999999    0.6374050000000000 H
   0.3711300000000000    0.6235900000000000    0.6343449999999999 H
   0.8711300000000000    0.6235900000000000    0.6343449999999999 H
   0.3076900000000000    0.6234000000000000    0.6017350000000000 H
   0.8076900000000000    0.6234000000000000    0.6017000000000000 H
   0.4932500000000000    0.5519400000000000    0.7404200000000000 H
   0.9932600000000000    0.5519400000000000    0.7404200000000000 H
   0.3901700000000000    0.7911600000000000    0.7484250000000000 H
   0.8901700000000000    0.7911700000000000    0.7484000000000000 H
   0.0743400000000000    0.8859700000000000    0.7755300000000001 H
   0.5743400000000000    0.8859700000000000    0.7755300000000001 H
   0.1061400000000000    0.7817600000000000    0.7985500000000000 H
   0.6061400000000000    0.7817600000000000    0.7985500000000000 H
   0.4133700000000000    0.6829400000000000    0.7698100000000000 H
   0.9133800000000000    0.6829400000000000    0.7698150000000000 H
   0.0751200000000000    0.6675100000000000    0.8129999999999999 H
   0.5751200000000000    0.6675100000000000    0.8130350000000000 H
   0.4925500000000000    0.6463300000000000    0.8148650000000000 H
   0.9925600000000000    0.6463300000000000    0.8148500000000001 H
   0.1082200000000000    0.6253400000000000    0.7378750000000001 H
   0.6082200000000000    0.6253400000000000    0.7378750000000001 H
   0.1134400000000000    0.5224600000000000    0.6634800000000000 H
   0.6134500000000001    0.5224500000000000    0.6634750000000000 H
   0.0048300000000000    0.4222900000000000    0.6757500000000000 H
   0.5048300000000000    0.4222900000000000    0.6757500000000000 H
   0.0846100000000000    0.3887700000000000    0.6627300000000000 H
   0.5846200000000000    0.3887700000000000    0.6627300000000000 H
   0.0375100000000000    0.4032500000000000    0.6260950000000001 H
   0.5375100000000000    0.4032400000000000    0.6260950000000001 H
   0.0139400000000000    0.5537200000000000    0.6396600000000000 H
   0.5139500000000000    0.5537200000000000    0.6396600000000000 H
   0.0379500000000000    0.6447900000000000    0.6881950000000000 H
   0.5379500000000000    0.6447900000000000    0.6881500000000000 H
   0.4744300000000000    0.5798300000000000    0.6882699999999999 H
   0.9744400000000000    0.5798300000000000    0.6882500000000000 H
   0.9294800000000000    0.1510500000000000    0.3609000000000000 C
   0.3679300000000000    0.1829500000000000    0.3630050000000000 C
   0.8679300000000000    0.1829500000000000    0.3630050000000000 C
   0.4467600000000000    0.0618200000000000    0.3261850000000000 C
   0.2711500000000000    0.4214300000000000    0.3259500000000000 C
   0.1042400000000000    0.7326800000000000    0.1069950000000000 C
   0.6042400000000000    0.7326800000000000    0.1069950000000000 C
   0.2072900000000000    0.7102400000000000    0.0800950000000000 C
   0.3541600000000000    0.2673500000000000    0.3930050000000000 C
   0.8541700000000000    0.2673500000000000    0.3930050000000000 C
   0.4572700000000000    0.2899300000000000    0.4198550000000000 C
   0.9572700000000000    0.2899300000000000    0.4198550000000000 C
   0.4743600000000000    0.2061100000000000    0.3906200000000000 C
   0.9743600000000000    0.2061100000000000    0.3906200000000000 C
   0.4294800000000000    0.1510500000000000    0.3609000000000000 C
   0.9467700000000000    0.0618200000000000    0.3261850000000000 C
   0.0637400000000000    0.0486300000000000    0.2562800000000000 C
   0.5637500000000000    0.0486300000000000    0.2562800000000000 C
   0.0064100000000000    0.1060100000000000    0.2803600000000000 C
   0.5064100000000000    0.1060100000000000    0.2803600000000000 C
   0.4862800000000000    0.1620700000000000    0.2612300000000000 C
   0.9862900000000000    0.1620700000000000    0.2612300000000000 C
   0.4643800000000000    0.1087400000000000    0.2146950000000000 C
   0.9643800000000000    0.1087400000000000    0.2145000000000000 C
   0.4376500000000000    0.2305100000000000    0.2893050000000000 C
   0.9376500000000000    0.2305100000000000    0.2893050000000000 C
   0.0208000000000000    0.5190000000000000    0.3664100000000000 C
   0.5208000000000000    0.5189900000000000    0.3664000000000000 C
   0.1239200000000000    0.5502400000000000    0.3552600000000000 C
   0.6239200000000000    0.5502400000000000    0.3552600000000000 C
   0.1409500000000000    0.5755400000000001    0.3971550000000000 C
   0.6409600000000000    0.5755400000000001    0.3971550000000000 C
   0.0960400000000000    0.5710200000000000    0.4246000000000000 C
   0.5960400000000000    0.5710200000000000    0.4246000000000000 C
   0.0345100000000000    0.5433300000000000    0.4085900000000000 C
   0.5345100000000000    0.5433200000000000    0.4085500000000000 C
   0.1132900000000000    0.5907500000000000    0.4691900000000000 C
   0.6132900000000000    0.5907500000000000    0.4691900000000000 C
   0.2303900000000000    0.4639900000000000    0.4756500000000000 C
   0.7303900000000000    0.4639900000000000    0.4756500000000000 C
   0.1730600000000000    0.4548200000000000    0.4469650000000000 C
   0.6730699999999999    0.4548300000000000    0.4469650000000000 C
   0.1529700000000000    0.3604000000000000    0.4188400000000000 C
   0.6529700000000001    0.3604000000000000    0.4188400000000000 C
   0.1310700000000000    0.3205500000000000    0.4454050000000000 C
   0.6310700000000000    0.3205500000000000    0.4454050000000000 C
   0.1043700000000000    0.3481100000000000    0.3846100000000000 C
   0.6043700000000000    0.3481100000000000    0.3846100000000000 C
   0.1874900000000000    0.2139400000000000    0.2407050000000000 C
   0.2905700000000000    0.1602300000000000    0.2250500000000000 C
   0.3076100000000000    0.2186400000000000    0.2123750000000000 C
   0.2627200000000000    0.2780800000000000    0.2146250000000000 C
   0.2012000000000000    0.2738800000000000    0.2285050000000000 C
   0.2799800000000000    0.3474100000000000    0.2047000000000000 C
   0.3970500000000000    0.4875400000000000    0.2680450000000000 C
   0.3397700000000000    0.4393200000000000    0.2726450000000000 C
   0.3196800000000000    0.4776400000000000    0.3198450000000000 C
   0.2976900000000000    0.5706700000000000    0.3397650000000000 C
   0.7072900000000000    0.7102400000000000    0.0800950000000000 C
   0.2243600000000000    0.7940900000000000    0.1093250000000000 C
   0.7243600000000000    0.7940900000000000    0.1093200000000000 C
   0.1794900000000000    0.8490600000000000    0.1390750000000000 C
   0.6794900000000000    0.8490700000000000    0.1390750000000000 C
   0.1179700000000000    0.8171000000000000    0.1369850000000000 C
   0.6179700000000000    0.8171000000000000    0.1369850000000000 C
   0.1967800000000000    0.9382800000000000    0.1738200000000000 C
   0.6967800000000000    0.9382800000000000    0.1738200000000000 C