Al144 P142 C284 O426 F144
1.0
  30.7379722424116579    0.0000000000000000   -0.0413088940872993
  -1.4597928126585422   21.6177155036036837   -0.0476481832124302
   0.0000000000000000    0.0000000000000000   36.8070000000000022
Al P C O F
144 142 284 426 144
direct
   0.0000166666666667    0.4997900000000000    0.1666833333333333 Al
   0.1664433333333333    0.9991000000000000    0.1666700000000000 Al
   0.1666700000000000    0.4998800000000000    0.1666666666666667 Al
   0.0000533333333333    0.0000300000000000    0.3333000000000000 Al
   0.0000066666666667    0.5000000000000000    0.0000000000000000 Al
   0.1667166666666667    0.0000400000000000    0.1000000000000000 Al
   0.1666666666666667    0.5000000000000000    0.3000000000000000 Al
   0.1274466666666667    0.0469100000000000    0.2498466666666667 Al
   0.1275900000000000    0.5470100000000000    0.2500700000000000 Al
   0.2940400000000000    0.0475500000000000    0.2499500000000000 Al
   0.2942566666666667    0.5470000000000000    0.2500666666666667 Al
   0.0390800000000000    0.4529400000000000    0.0832633333333333 Al
   0.0392500000000000    0.9524400000000000    0.0833766666666667 Al
   0.2057400000000000    0.4529600000000000    0.0832700000000000 Al
   0.2059933333333333    0.9524400000000000    0.0833533333333333 Al
   0.3331400000000000    0.9999200000000000    0.1666633333333333 Al
   0.3333500000000000    0.4997900000000000    0.1666833333333333 Al
   0.4997766666666666    0.9991000000000000    0.1666700000000000 Al
   0.5000033333333334    0.4998800000000000    0.1666666666666667 Al
   0.3333866666666667    0.0000300000000000    0.3333000000000000 Al
   0.3333400000000000    0.5000000000000000    0.0000000000000000 Al
   0.5000500000000000    0.0000400000000000    0.1000000000000000 Al
   0.5000000000000000    0.5000000000000000    0.3000000000000000 Al
   0.4607800000000000    0.0469100000000000    0.2498466666666667 Al
   0.4609233333333333    0.5470100000000000    0.2500700000000000 Al
   0.6273733333333333    0.0475500000000000    0.2499500000000000 Al
   0.6275900000000000    0.5470000000000000    0.2500666666666667 Al
   0.3724133333333333    0.4529400000000000    0.0832633333333333 Al
   0.3725833333333333    0.9524400000000000    0.0833766666666667 Al
   0.5390733333333333    0.4529600000000000    0.0832700000000000 Al
   0.5393266666666666    0.9524400000000000    0.0833533333333333 Al
   0.6664733333333333    0.9999200000000000    0.1666633333333333 Al
   0.6666833333333333    0.4997900000000000    0.1666833333333333 Al
   0.8331100000000000    0.9991000000000000    0.1666700000000000 Al
   0.8333366666666666    0.4998800000000000    0.1666666666666667 Al
   0.6667200000000000    0.0000300000000000    0.3333000000000000 Al
   0.6666733333333333    0.5000000000000000    0.0000000000000000 Al
   0.8333833333333333    0.0000400000000000    0.1000000000000000 Al
   0.8333333333333333    0.5000000000000000    0.3000000000000000 Al
   0.7941133333333332    0.0469100000000000    0.2498466666666667 Al
   0.7942566666666666    0.5470100000000000    0.2500700000000000 Al
   0.9607066666666666    0.0475500000000000    0.2499500000000000 Al
   0.9609233333333334    0.5470000000000000    0.2500666666666667 Al
   0.7057466666666666    0.4529400000000000    0.0832633333333333 Al
   0.7059166666666666    0.9524400000000000    0.0833766666666667 Al
   0.8724066666666666    0.4529600000000000    0.0832700000000000 Al
   0.8726600000000000    0.9524400000000000    0.0833533333333333 Al
   0.9998066666666666    0.9999200000000000    0.1666633333333333 Al
   0.0000166666666667    0.4997900000000000    0.5000166666666667 Al
   0.1664433333333333    0.9991000000000000    0.5000033333333334 Al
   0.1666700000000000    0.4998800000000000    0.5000000000000000 Al
   0.0000533333333333    0.0000300000000000    0.6666333333333333 Al
   0.0000066666666667    0.5000000000000000    0.3333333333333333 Al
   0.1667166666666667    0.0000400000000000    0.4333333333333333 Al
   0.1666666666666667    0.5000000000000000    0.6333333333333333 Al
   0.1274466666666667    0.0469100000000000    0.5831800000000000 Al
   0.1275900000000000    0.5470100000000000    0.5834033333333333 Al
   0.2940400000000000    0.0475500000000000    0.5832833333333334 Al
   0.2942566666666667    0.5470000000000000    0.5833999999999999 Al
   0.0390800000000000    0.4529400000000000    0.4165966666666666 Al
   0.0392500000000000    0.9524400000000000    0.4167100000000000 Al
   0.2057400000000000    0.4529600000000000    0.4166033333333333 Al
   0.2059933333333333    0.9524400000000000    0.4166866666666666 Al
   0.3331400000000000    0.9999200000000000    0.4999966666666666 Al
   0.3333500000000000    0.4997900000000000    0.5000166666666667 Al
   0.4997766666666666    0.9991000000000000    0.5000033333333334 Al
   0.5000033333333334    0.4998800000000000    0.5000000000000000 Al
   0.3333866666666667    0.0000300000000000    0.6666333333333333 Al
   0.3333400000000000    0.5000000000000000    0.3333333333333333 Al
   0.5000500000000000    0.0000400000000000    0.4333333333333333 Al
   0.5000000000000000    0.5000000000000000    0.6333333333333333 Al
   0.4607800000000000    0.0469100000000000    0.5831800000000000 Al
   0.4609233333333333    0.5470100000000000    0.5834033333333333 Al
   0.6273733333333333    0.0475500000000000    0.5832833333333334 Al
   0.6275900000000000    0.5470000000000000    0.5833999999999999 Al
   0.3724133333333333    0.4529400000000000    0.4165966666666666 Al
   0.3725833333333333    0.9524400000000000    0.4167100000000000 Al
   0.5390733333333333    0.4529600000000000    0.4166033333333333 Al
   0.5393266666666666    0.9524400000000000    0.4166866666666666 Al
   0.6664733333333333    0.9999200000000000    0.4999966666666666 Al
   0.6666833333333333    0.4997900000000000    0.5000166666666667 Al
   0.8331100000000000    0.9991000000000000    0.5000033333333334 Al
   0.8333366666666666    0.4998800000000000    0.5000000000000000 Al
   0.6667200000000000    0.0000300000000000    0.6666333333333333 Al
   0.6666733333333333    0.5000000000000000    0.3333333333333333 Al
   0.8333833333333333    0.0000400000000000    0.4333333333333333 Al
   0.8333333333333333    0.5000000000000000    0.6333333333333333 Al
   0.7941133333333332    0.0469100000000000    0.5831800000000000 Al
   0.7942566666666666    0.5470100000000000    0.5834033333333333 Al
   0.9607066666666666    0.0475500000000000    0.5832833333333334 Al
   0.9609233333333334    0.5470000000000000    0.5833999999999999 Al
   0.7057466666666666    0.4529400000000000    0.4165966666666666 Al
   0.7059166666666666    0.9524400000000000    0.4167100000000000 Al
   0.8724066666666666    0.4529600000000000    0.4166033333333333 Al
   0.8726600000000000    0.9524400000000000    0.4166866666666666 Al
   0.9998066666666666    0.9999200000000000    0.4999966666666666 Al
   0.0000166666666667    0.4997900000000000    0.8333499999999999 Al
   0.1664433333333333    0.9991000000000000    0.8333366666666666 Al
   0.1666700000000000    0.4998800000000000    0.8333333333333333 Al
   0.0000533333333333    0.0000300000000000    0.9999666666666667 Al
   0.0000066666666667    0.5000000000000000    0.6666666666666666 Al
   0.1667166666666667    0.0000400000000000    0.7666666666666666 Al
   0.1666666666666667    0.5000000000000000    0.9666666666666666 Al
   0.1274466666666667    0.0469100000000000    0.9165133333333333 Al
   0.1275900000000000    0.5470100000000000    0.9167366666666666 Al
   0.2940400000000000    0.0475500000000000    0.9166166666666666 Al
   0.2942566666666667    0.5470000000000000    0.9167333333333333 Al
   0.0390800000000000    0.4529400000000000    0.7499300000000000 Al
   0.0392500000000000    0.9524400000000000    0.7500433333333333 Al
   0.2057400000000000    0.4529600000000000    0.7499366666666666 Al
   0.2059933333333333    0.9524400000000000    0.7500199999999999 Al
   0.3331400000000000    0.9999200000000000    0.8333299999999999 Al
   0.3333500000000000    0.4997900000000000    0.8333499999999999 Al
   0.4997766666666666    0.9991000000000000    0.8333366666666666 Al
   0.5000033333333334    0.4998800000000000    0.8333333333333333 Al
   0.3333866666666667    0.0000300000000000    0.9999666666666667 Al
   0.3333400000000000    0.5000000000000000    0.6666666666666666 Al
   0.5000500000000000    0.0000400000000000    0.7666666666666666 Al
   0.5000000000000000    0.5000000000000000    0.9666666666666666 Al
   0.4607800000000000    0.0469100000000000    0.9165133333333333 Al
   0.4609233333333333    0.5470100000000000    0.9167366666666666 Al
   0.6273733333333333    0.0475500000000000    0.9166166666666666 Al
   0.6275900000000000    0.5470000000000000    0.9167333333333333 Al
   0.3724133333333333    0.4529400000000000    0.7499300000000000 Al
   0.3725833333333333    0.9524400000000000    0.7500433333333333 Al
   0.5390733333333333    0.4529600000000000    0.7499366666666666 Al
   0.5393266666666666    0.9524400000000000    0.7500199999999999 Al
   0.6664733333333333    0.9999200000000000    0.8333299999999999 Al
   0.6666833333333333    0.4997900000000000    0.8333499999999999 Al
   0.8331100000000000    0.9991000000000000    0.8333366666666666 Al
   0.8333366666666666    0.4998800000000000    0.8333333333333333 Al
   0.6667200000000000    0.0000300000000000    0.9999666666666667 Al
   0.6666733333333333    0.5000000000000000    0.6666666666666666 Al
   0.8333833333333333    0.0000400000000000    0.7666666666666666 Al
   0.8333333333333333    0.5000000000000000    0.9666666666666666 Al
   0.7941133333333332    0.0469100000000000    0.9165133333333333 Al
   0.7942566666666666    0.5470100000000000    0.9167366666666666 Al
   0.9607066666666666    0.0475500000000000    0.9166166666666666 Al
   0.9609233333333334    0.5470000000000000    0.9167333333333333 Al
   0.7057466666666666    0.4529400000000000    0.7499300000000000 Al
   0.7059166666666666    0.9524400000000000    0.7500433333333333 Al
   0.8724066666666666    0.4529600000000000    0.7499366666666666 Al
   0.8726600000000000    0.9524400000000000    0.7500199999999999 Al
   0.9998066666666666    0.9999200000000000    0.8333299999999999 Al
   0.0751666666666667    0.4156900000000000    0.1590800000000000 P
   0.0753733333333333    0.9161800000000000    0.1593800000000000 P
   0.2418000000000000    0.4157100000000000    0.1590866666666667 P
   0.2423433333333333    0.9161700000000000    0.1592800000000000 P
   0.0912233333333333    0.0839600000000000    0.3256233333333333 P
   0.0910666666666667    0.5832700000000000    0.3259300000000000 P
   0.2578733333333333    0.0840200000000000    0.3258000000000000 P
   0.2577300000000000    0.5832700000000000    0.3259233333333333 P
   0.0910333333333333    0.0832300000000000    0.1738233333333333 P
   0.0915100000000000    0.5839700000000000    0.1742366666666667 P
   0.2573933333333333    0.0832000000000000    0.1739533333333333 P
   0.2582100000000000    0.5839299999999999    0.1742200000000000 P
   0.0756066666666667    0.4167200000000000    0.0073933333333333 P
   0.0755400000000000    0.9160300000000000    0.0075533333333333 P
   0.2422733333333333    0.4167500000000000    0.0074066666666667 P
   0.2422033333333333    0.9160199999999999    0.0075033333333333 P
   0.4085000000000000    0.4156900000000000    0.1590800000000000 P
   0.4087066666666667    0.9161800000000000    0.1593800000000000 P
   0.5751333333333333    0.4157100000000000    0.1590866666666667 P
   0.5756766666666666    0.9161700000000000    0.1592800000000000 P
   0.4245566666666666    0.0839600000000000    0.3256233333333333 P
   0.4244000000000000    0.5832700000000000    0.3259300000000000 P
   0.5912066666666667    0.0840200000000000    0.3258000000000000 P
   0.5910633333333333    0.5832700000000000    0.3259233333333333 P
   0.4243666666666667    0.0832300000000000    0.1738233333333333 P
   0.4248433333333333    0.5839700000000000    0.1742366666666667 P
   0.5907266666666666    0.0832000000000000    0.1739533333333333 P
   0.5915433333333333    0.5839299999999999    0.1742200000000000 P
   0.4089400000000000    0.4167200000000000    0.0073933333333333 P
   0.4088733333333333    0.9160300000000000    0.0075533333333333 P
   0.5756066666666666    0.4167500000000000    0.0074066666666667 P
   0.5755366666666666    0.9160199999999999    0.0075033333333333 P
   0.7418333333333333    0.4156900000000000    0.1590800000000000 P
   0.7420399999999999    0.9161800000000000    0.1593800000000000 P
   0.9084666666666666    0.4157100000000000    0.1590866666666667 P
   0.9090099999999999    0.9161700000000000    0.1592800000000000 P
   0.7578900000000000    0.0839600000000000    0.3256233333333333 P
   0.7577333333333333    0.5832700000000000    0.3259300000000000 P
   0.9245399999999999    0.0840200000000000    0.3258000000000000 P
   0.9243966666666666    0.5832700000000000    0.3259233333333333 P
   0.7576999999999999    0.0832300000000000    0.1738233333333333 P
   0.7581766666666666    0.5839700000000000    0.1742366666666667 P
   0.9240599999999999    0.0832000000000000    0.1739533333333333 P
   0.9248766666666666    0.5839299999999999    0.1742200000000000 P
   0.7422733333333333    0.4167200000000000    0.0073933333333333 P
   0.7422066666666667    0.9160300000000000    0.0075533333333333 P
   0.9089400000000000    0.4167500000000000    0.0074066666666667 P
   0.9088700000000000    0.9160199999999999    0.0075033333333333 P
   0.0751666666666667    0.4156900000000000    0.4924133333333333 P
   0.0753733333333333    0.9161800000000000    0.4927133333333333 P
   0.2418000000000000    0.4157100000000000    0.4924200000000000 P
   0.2423433333333333    0.9161700000000000    0.4926133333333333 P
   0.0912233333333333    0.0839600000000000    0.6589566666666666 P
   0.0910666666666667    0.5832700000000000    0.6592633333333333 P
   0.2578733333333333    0.0840200000000000    0.6591333333333333 P
   0.2577300000000000    0.5832700000000000    0.6592566666666666 P
   0.0910333333333333    0.0832300000000000    0.5071566666666667 P
   0.0915100000000000    0.5839700000000000    0.5075700000000000 P
   0.2573933333333333    0.0832000000000000    0.5072866666666667 P
   0.2582100000000000    0.5839299999999999    0.5075533333333333 P
   0.0756066666666667    0.4167200000000000    0.3407266666666666 P
   0.0755400000000000    0.9160300000000000    0.3408866666666667 P
   0.2422733333333333    0.4167500000000000    0.3407400000000000 P
   0.2422033333333333    0.9160199999999999    0.3408366666666666 P
   0.4085000000000000    0.4156900000000000    0.4924133333333333 P
   0.4087066666666667    0.9161800000000000    0.4927133333333333 P
   0.5751333333333333    0.4157100000000000    0.4924200000000000 P
   0.4245566666666666    0.0839600000000000    0.6589566666666666 P
   0.4244000000000000    0.5832700000000000    0.6592633333333333 P
   0.5912066666666667    0.0840200000000000    0.6591333333333333 P
   0.5910633333333333    0.5832700000000000    0.6592566666666666 P
   0.4243666666666667    0.0832300000000000    0.5071566666666667 P
   0.4248433333333333    0.5839700000000000    0.5075700000000000 P
   0.5907266666666666    0.0832000000000000    0.5072866666666667 P
   0.4089400000000000    0.4167200000000000    0.3407266666666666 P
   0.4088733333333333    0.9160300000000000    0.3408866666666667 P
   0.5756066666666666    0.4167500000000000    0.3407400000000000 P
   0.5755366666666666    0.9160199999999999    0.3408366666666666 P
   0.7418333333333333    0.4156900000000000    0.4924133333333333 P
   0.7420399999999999    0.9161800000000000    0.4927133333333333 P
   0.9084666666666666    0.4157100000000000    0.4924200000000000 P
   0.9090099999999999    0.9161700000000000    0.4926133333333333 P
   0.7578900000000000    0.0839600000000000    0.6589566666666666 P
   0.7577333333333333    0.5832700000000000    0.6592633333333333 P
   0.9245399999999999    0.0840200000000000    0.6591333333333333 P
   0.9243966666666666    0.5832700000000000    0.6592566666666666 P
   0.7576999999999999    0.0832300000000000    0.5071566666666667 P
   0.7581766666666666    0.5839700000000000    0.5075700000000000 P
   0.9240599999999999    0.0832000000000000    0.5072866666666667 P
   0.9248766666666666    0.5839299999999999    0.5075533333333333 P
   0.7422733333333333    0.4167200000000000    0.3407266666666666 P
   0.7422066666666667    0.9160300000000000    0.3408866666666667 P
   0.9089400000000000    0.4167500000000000    0.3407400000000000 P
   0.9088700000000000    0.9160199999999999    0.3408366666666666 P
   0.0751666666666667    0.4156900000000000    0.8257466666666666 P
   0.0753733333333333    0.9161800000000000    0.8260466666666666 P
   0.2418000000000000    0.4157100000000000    0.8257533333333333 P
   0.2423433333333333    0.9161700000000000    0.8259466666666666 P
   0.0912233333333333    0.0839600000000000    0.9922899999999999 P
   0.0910666666666667    0.5832700000000000    0.9925966666666666 P
   0.2578733333333333    0.0840200000000000    0.9924666666666666 P
   0.2577300000000000    0.5832700000000000    0.9925900000000000 P
   0.0910333333333333    0.0832300000000000    0.8404900000000000 P
   0.0915100000000000    0.5839700000000000    0.8409033333333333 P
   0.2573933333333333    0.0832000000000000    0.8406199999999999 P
   0.2582100000000000    0.5839299999999999    0.8408866666666666 P
   0.0756066666666667    0.4167200000000000    0.6740600000000000 P
   0.0755400000000000    0.9160300000000000    0.6742199999999999 P
   0.2422733333333333    0.4167500000000000    0.6740733333333333 P
   0.2422033333333333    0.9160199999999999    0.6741699999999999 P
   0.4085000000000000    0.4156900000000000    0.8257466666666666 P
   0.4087066666666667    0.9161800000000000    0.8260466666666666 P
   0.5751333333333333    0.4157100000000000    0.8257533333333333 P
   0.5756766666666666    0.9161700000000000    0.8259466666666666 P
   0.4245566666666666    0.0839600000000000    0.9922899999999999 P
   0.4244000000000000    0.5832700000000000    0.9925966666666666 P
   0.5912066666666667    0.0840200000000000    0.9924666666666666 P
   0.5910633333333333    0.5832700000000000    0.9925900000000000 P
   0.4243666666666667    0.0832300000000000    0.8404900000000000 P
   0.4248433333333333    0.5839700000000000    0.8409033333333333 P
   0.5907266666666666    0.0832000000000000    0.8406199999999999 P
   0.5915433333333333    0.5839299999999999    0.8408866666666666 P
   0.4089400000000000    0.4167200000000000    0.6740600000000000 P
   0.4088733333333333    0.9160300000000000    0.6742199999999999 P
   0.5756066666666666    0.4167500000000000    0.6740733333333333 P
   0.5755366666666666    0.9160199999999999    0.6741699999999999 P
   0.7418333333333333    0.4156900000000000    0.8257466666666666 P
   0.7420399999999999    0.9161800000000000    0.8260466666666666 P
   0.9084666666666666    0.4157100000000000    0.8257533333333333 P
   0.9090099999999999    0.9161700000000000    0.8259466666666666 P
   0.7578900000000000    0.0839600000000000    0.9922899999999999 P
   0.7577333333333333    0.5832700000000000    0.9925966666666666 P
   0.9245399999999999    0.0840200000000000    0.9924666666666666 P
   0.9243966666666666    0.5832700000000000    0.9925900000000000 P
   0.7576999999999999    0.0832300000000000    0.8404900000000000 P
   0.7581766666666666    0.5839700000000000    0.8409033333333333 P
   0.9240599999999999    0.0832000000000000    0.8406199999999999 P
   0.9248766666666666    0.5839299999999999    0.8408866666666666 P
   0.7422733333333333    0.4167200000000000    0.6740600000000000 P
   0.7422066666666667    0.9160300000000000    0.6742199999999999 P
   0.9089400000000000    0.4167500000000000    0.6740733333333333 P
   0.9088700000000000    0.9160199999999999    0.6741699999999999 P
   0.0819666666666667    0.2804800000000000    0.1660000000000000 C
   0.0811033333333333    0.7807400000000000    0.1656733333333333 C
   0.2482600000000000    0.2804300000000000    0.1660100000000000 C
   0.2484733333333333    0.7807900000000000    0.1654700000000000 C
   0.0785366666666667    0.3364700000000000    0.1647333333333333 C
   0.0778400000000000    0.8367500000000000    0.1645166666666666 C
   0.2450300000000000    0.3364600000000000    0.1647566666666667 C
   0.2453533333333333    0.8368200000000000    0.1642766666666667 C
   0.0851766666666667    0.2194400000000000    0.3325033333333333 C
   0.0849166666666667    0.7188099999999999    0.3322933333333333 C
   0.2518466666666667    0.2194700000000000    0.3327333333333333 C
   0.2515700000000000    0.7188099999999999    0.3322333333333333 C
   0.0883266666666667    0.1633900000000000    0.3310133333333333 C
   0.0880766666666667    0.6627500000000000    0.3309600000000000 C
   0.2549900000000000    0.1634200000000000    0.3313000000000000 C
   0.2547366666666666    0.6627500000000000    0.3309433333333333 C
   0.0854933333333333    0.2187600000000000    0.1674366666666667 C
   0.0847033333333333    0.7190800000000001    0.1671333333333333 C
   0.2516100000000000    0.2186800000000000    0.1674400000000000 C
   0.2518533333333333    0.7190900000000000    0.1669966666666667 C
   0.0886633333333333    0.1627100000000000    0.1685666666666667 C
   0.0881800000000000    0.6631200000000000    0.1684500000000000 C
   0.2546433333333333    0.1626000000000000    0.1685866666666667 C
   0.2550533333333333    0.6630800000000000    0.1683866666666667 C
   0.0817866666666667    0.2811900000000000    0.0009033333333333 C
   0.0815500000000000    0.7805700000000000    0.0006166666666667 C
   0.2484600000000000    0.2812200000000000    0.0010533333333333 C
   0.2482033333333333    0.7805700000000000    0.0005566666666667 C
   0.0786033333333333    0.3372400000000000    0.0000000000000000 C
   0.0784266666666667    0.8366300000000000    0.0000000000000000 C
   0.2452700000000000    0.3372700000000000    0.0000000000000000 C
   0.2450766666666667    0.8366300000000000    0.0000000000000000 C
   0.4153000000000000    0.2804800000000000    0.1660000000000000 C
   0.4144366666666667    0.7807400000000000    0.1656733333333333 C
   0.5815933333333333    0.2804300000000000    0.1660100000000000 C
   0.5818066666666666    0.7807900000000000    0.1654700000000000 C
   0.4118700000000000    0.3364700000000000    0.1647333333333333 C
   0.4111733333333333    0.8367500000000000    0.1645166666666666 C
   0.5783633333333333    0.3364600000000000    0.1647566666666667 C
   0.5786866666666667    0.8368200000000000    0.1642766666666667 C
   0.4185099999999999    0.2194400000000000    0.3325033333333333 C
   0.4182500000000000    0.7188099999999999    0.3322933333333333 C
   0.5851800000000000    0.2194700000000000    0.3327333333333333 C
   0.5849033333333333    0.7188099999999999    0.3322333333333333 C
   0.4216600000000000    0.1633900000000000    0.3310133333333333 C
   0.4214100000000000    0.6627500000000000    0.3309600000000000 C
   0.5883233333333333    0.1634200000000000    0.3313000000000000 C
   0.5880699999999999    0.6627500000000000    0.3309433333333333 C
   0.4188266666666666    0.2187600000000000    0.1674366666666667 C
   0.4180366666666666    0.7190800000000001    0.1671333333333333 C
   0.5849433333333334    0.2186800000000000    0.1674400000000000 C
   0.5851866666666666    0.7190900000000000    0.1669966666666667 C
   0.4219966666666666    0.1627100000000000    0.1685666666666667 C
   0.4215133333333333    0.6631200000000000    0.1684500000000000 C
   0.5879766666666666    0.1626000000000000    0.1685866666666667 C
   0.5883866666666666    0.6630800000000000    0.1683866666666667 C
   0.4151200000000000    0.2811900000000000    0.0009033333333333 C
   0.4148833333333333    0.7805700000000000    0.0006166666666667 C
   0.5817933333333334    0.2812200000000000    0.0010533333333333 C
   0.5815366666666666    0.7805700000000000    0.0005566666666667 C
   0.4119366666666666    0.3372400000000000    0.0000000000000000 C
   0.4117600000000000    0.8366300000000000    0.0000000000000000 C
   0.5786033333333334    0.3372700000000000    0.0000000000000000 C
   0.5784100000000000    0.8366300000000000    0.0000000000000000 C
   0.7486333333333333    0.2804800000000000    0.1660000000000000 C
   0.7477699999999999    0.7807400000000000    0.1656733333333333 C
   0.9149266666666667    0.2804300000000000    0.1660100000000000 C
   0.9151400000000000    0.7807900000000000    0.1654700000000000 C
   0.7452033333333333    0.3364700000000000    0.1647333333333333 C
   0.7445066666666666    0.8367500000000000    0.1645166666666666 C
   0.9116966666666666    0.3364600000000000    0.1647566666666667 C
   0.9120199999999999    0.8368200000000000    0.1642766666666667 C
   0.7518433333333333    0.2194400000000000    0.3325033333333333 C
   0.7515833333333333    0.7188099999999999    0.3322933333333333 C
   0.9185133333333333    0.2194700000000000    0.3327333333333333 C
   0.9182366666666666    0.7188099999999999    0.3322333333333333 C
   0.7549933333333333    0.1633900000000000    0.3310133333333333 C
   0.7547433333333333    0.6627500000000000    0.3309600000000000 C
   0.9216566666666666    0.1634200000000000    0.3313000000000000 C
   0.9214033333333332    0.6627500000000000    0.3309433333333333 C
   0.7521599999999999    0.2187600000000000    0.1674366666666667 C
   0.7513700000000000    0.7190800000000001    0.1671333333333333 C
   0.9182766666666666    0.2186800000000000    0.1674400000000000 C
   0.9185200000000000    0.7190900000000000    0.1669966666666667 C
   0.7553299999999999    0.1627100000000000    0.1685666666666667 C
   0.7548466666666667    0.6631200000000000    0.1684500000000000 C
   0.9213100000000000    0.1626000000000000    0.1685866666666667 C
   0.9217199999999999    0.6630800000000000    0.1683866666666667 C
   0.7484533333333333    0.2811900000000000    0.0009033333333333 C
   0.7482166666666666    0.7805700000000000    0.0006166666666667 C
   0.9151266666666666    0.2812200000000000    0.0010533333333333 C
   0.9148700000000000    0.7805700000000000    0.0005566666666667 C
   0.7452700000000000    0.3372400000000000    0.0000000000000000 C
   0.7450933333333333    0.8366300000000000    0.0000000000000000 C
   0.9119366666666666    0.3372700000000000    0.0000000000000000 C
   0.9117433333333334    0.8366300000000000    0.0000000000000000 C
   0.0819666666666667    0.2804800000000000    0.4993333333333333 C
   0.0811033333333333    0.7807400000000000    0.4990066666666667 C
   0.2482600000000000    0.2804300000000000    0.4993433333333333 C
   0.2484733333333333    0.7807900000000000    0.4988033333333333 C
   0.0785366666666667    0.3364700000000000    0.4980666666666667 C
   0.0778400000000000    0.8367500000000000    0.4978500000000000 C
   0.2450300000000000    0.3364600000000000    0.4980900000000000 C
   0.2453533333333333    0.8368200000000000    0.4976100000000000 C
   0.0851766666666667    0.2194400000000000    0.6658366666666666 C
   0.0849166666666667    0.7188099999999999    0.6656266666666666 C
   0.2518466666666667    0.2194700000000000    0.6660666666666666 C
   0.2515700000000000    0.7188099999999999    0.6655666666666666 C
   0.0883266666666667    0.1633900000000000    0.6643466666666666 C
   0.0880766666666667    0.6627500000000000    0.6642933333333333 C
   0.2549900000000000    0.1634200000000000    0.6646333333333333 C
   0.2547366666666666    0.6627500000000000    0.6642766666666666 C
   0.0854933333333333    0.2187600000000000    0.5007699999999999 C
   0.0847033333333333    0.7190800000000001    0.5004666666666666 C
   0.2516100000000000    0.2186800000000000    0.5007733333333333 C
   0.2518533333333333    0.7190900000000000    0.5003299999999999 C
   0.0886633333333333    0.1627100000000000    0.5019000000000000 C
   0.0881800000000000    0.6631200000000000    0.5017833333333332 C
   0.2546433333333333    0.1626000000000000    0.5019199999999999 C
   0.2550533333333333    0.6630800000000000    0.5017199999999999 C
   0.0817866666666667    0.2811900000000000    0.3342366666666666 C
   0.0815500000000000    0.7805700000000000    0.3339500000000000 C
   0.2484600000000000    0.2812200000000000    0.3343866666666667 C
   0.2482033333333333    0.7805700000000000    0.3338900000000000 C
   0.0786033333333333    0.3372400000000000    0.3333333333333333 C
   0.0784266666666667    0.8366300000000000    0.3333333333333333 C
   0.2452700000000000    0.3372700000000000    0.3333333333333333 C
   0.2450766666666667    0.8366300000000000    0.3333333333333333 C
   0.4153000000000000    0.2804800000000000    0.4993333333333333 C
   0.4144366666666667    0.7807400000000000    0.4990066666666667 C
   0.5815933333333333    0.2804300000000000    0.4993433333333333 C
   0.4118700000000000    0.3364700000000000    0.4980666666666667 C
   0.4111733333333333    0.8367500000000000    0.4978500000000000 C
   0.5783633333333333    0.3364600000000000    0.4980900000000000 C
   0.4185099999999999    0.2194400000000000    0.6658366666666666 C
   0.4182500000000000    0.7188099999999999    0.6656266666666666 C
   0.5851800000000000    0.2194700000000000    0.6660666666666666 C
   0.5849033333333333    0.7188099999999999    0.6655666666666666 C
   0.4216600000000000    0.1633900000000000    0.6643466666666666 C
   0.4214100000000000    0.6627500000000000    0.6642933333333333 C
   0.5883233333333333    0.1634200000000000    0.6646333333333333 C
   0.5880699999999999    0.6627500000000000    0.6642766666666666 C
   0.4188266666666666    0.2187600000000000    0.5007699999999999 C
   0.4180366666666666    0.7190800000000001    0.5004666666666666 C
   0.5849433333333334    0.2186800000000000    0.5007733333333333 C
   0.4219966666666666    0.1627100000000000    0.5019000000000000 C
   0.4215133333333333    0.6631200000000000    0.5017833333333332 C
   0.5879766666666666    0.1626000000000000    0.5019199999999999 C
   0.4151200000000000    0.2811900000000000    0.3342366666666666 C