H8 C10 N2
1.0
  24.3800488262716328    0.0000000000000000   11.3629055803791257
   5.2348895067257022   12.1776755066539373    2.9107030262487923
   0.0000000000000000    0.0000000000000000   27.9239999999999995
H C N
8 10 2
direct
   0.0789900000000000    0.8288300000000000    0.0084200000000000 H
   0.8228300000000000    0.1802800000000000    0.0526500000000000 H
   0.9953250000000000    0.8437100000000000    0.0572400000000000 H
   0.8924550000000000    0.8698300000000000    0.1175350000000000 H
   0.1771900000000000    0.8196600000000001    0.9473549999999999 H
   0.0047000000000000    0.1562500000000000    0.9427850000000000 H
   0.1075700000000000    0.1301200000000000    0.8824500000000000 H
   0.9210350000000000    0.1711100000000000    0.9915849999999999 H
   0.9693550000000000    0.0052400000000000    0.0180550000000000 C
   0.8621200000000000    0.1067300000000000    0.0529300000000000 C
   0.9185600000000000    0.1000500000000000    0.0178500000000000 C
   0.9588400000000000    0.9205500000000000    0.0544850000000000 C
   0.9009350000000000    0.9340400000000000    0.0883700000000000 C
   0.0306650000000000    0.9947100000000000    0.9819599999999999 C
   0.1379000000000000    0.8932099999999999    0.9470799999999999 C
   0.0814650000000000    0.8998900000000000    0.9821299999999999 C
   0.0411800000000000    0.0794100000000000    0.9455000000000000 C
   0.0990900000000000    0.0659100000000000    0.9116450000000000 C
   0.8525000000000000    0.0259400000000000    0.0885150000000000 N
   0.1475250000000000    0.9740100000000000    0.9114949999999999 N
