H10 C4 N2
1.0
  28.1435572035832955    0.0000000000000000   -0.5000919201854325
  -0.8280444840298853   31.4398940851771158  -12.6138177505984572
   0.0000000000000000    0.0000000000000000   33.8860000000000028
H C N
10 4 2
direct
   0.1088850000000000    0.4285950000000000    0.4969150000000000 H
   0.1588950000000000    0.3901550000000000    0.4408000000000000 H
   0.1896750000000000    0.3709550000000000    0.4760000000000000 H
   0.0845000000000000    0.3531250000000000    0.4477000000000000 H
   0.1306850000000000    0.3156000000000000    0.4315950000000000 H
   0.1655000000000000    0.3968600000000000    0.5522600000000000 H
   0.1193150000000000    0.4343850000000000    0.5683800000000000 H
   0.1411200000000000    0.3213900000000000    0.5030600000000000 H
   0.0911050000000000    0.3598350000000000    0.5591450000000000 H
   0.0603250000000000    0.3790300000000000    0.5238750000000000 H
   0.1547500000000000    0.3805150000000000    0.4681750000000000 C
   0.1184800000000000    0.3437850000000000    0.4577350000000000 C
   0.1315200000000000    0.4062000000000000    0.5422400000000001 C
   0.0952500000000000    0.3694700000000000    0.5318000000000001 C
   0.1094600000000000    0.3317950000000000    0.4948750000000000 N
   0.1405450000000000    0.4181900000000000    0.5051000000000000 N
