Cd128 H1274 C508 Br256 N254 O2
1.0
  28.1435572035832955    0.0000000000000000   -0.5000919201854325
  -0.8280444840298853   31.4398940851771158  -12.6138177505984572
   0.0000000000000000    0.0000000000000000   33.8860000000000028
Cd H C Br N O
128 1274 508 256 254 2
direct
   0.9374899999999999    0.9818950000000000    0.5180950000000000 Cd
   0.4374900000000000    0.4818950000000000    0.0180950000000000 Cd
   0.0625100000000000    0.0180950000000000    0.7318900000000000 Cd
   0.5625100000000000    0.5180950000000000    0.2318900000000000 Cd
   0.6875000000000000    0.7318950000000000    0.2680900000000000 Cd
   0.1875000000000000    0.2318950000000000    0.7680899999999999 Cd
   0.3125000000000000    0.2680900000000000    0.9818850000000000 Cd
   0.8125000000000000    0.7680899999999999    0.4818850000000000 Cd
   0.6875000000000000    0.9818950000000000    0.5180950000000000 Cd
   0.1875000000000000    0.4818950000000000    0.0180950000000000 Cd
   0.0625050000000000    0.2680900000000000    0.9818850000000000 Cd
   0.5625050000000000    0.7680899999999999    0.4818850000000000 Cd
   0.3125000000000000    0.5180950000000000    0.2318900000000000 Cd
   0.8125000000000000    0.0180950000000000    0.7318900000000000 Cd
   0.4374950000000000    0.7319000000000000    0.2680900000000000 Cd
   0.9374950000000000    0.2319000000000000    0.7680899999999999 Cd
   0.4374900000000000    0.9818950000000000    0.5180950000000000 Cd
   0.9374899999999999    0.4818950000000000    0.0180950000000000 Cd
   0.0625100000000000    0.5180950000000000    0.2318900000000000 Cd
   0.5625100000000000    0.0180950000000000    0.7318900000000000 Cd
   0.1875000000000000    0.7318950000000000    0.2680900000000000 Cd
   0.6875000000000000    0.2318950000000000    0.7680899999999999 Cd
   0.8125000000000000    0.2680900000000000    0.9818850000000000 Cd
   0.3125000000000000    0.7680899999999999    0.4818850000000000 Cd
   0.1875000000000000    0.9818950000000000    0.5180950000000000 Cd
   0.6875000000000000    0.4818950000000000    0.0180950000000000 Cd
   0.5625050000000000    0.2680900000000000    0.9818850000000000 Cd
   0.0625050000000000    0.7680899999999999    0.4818850000000000 Cd
   0.3125000000000000    0.0180950000000000    0.7318900000000000 Cd
   0.8125000000000000    0.5180950000000000    0.2318900000000000 Cd
   0.9374950000000000    0.7319000000000000    0.2680900000000000 Cd
   0.4374950000000000    0.2319000000000000    0.7680899999999999 Cd
   0.3125050000000000    0.5180950000000000    0.4818850000000000 Cd
   0.8125050000000000    0.0180950000000000    0.9818850000000000 Cd
   0.0625050000000000    0.2680900000000000    0.2318900000000000 Cd
   0.5625050000000000    0.7680899999999999    0.7318900000000000 Cd
   0.4374950000000000    0.7319000000000000    0.5180950000000000 Cd
   0.9374950000000000    0.2319000000000000    0.0180950000000000 Cd
   0.6875000000000000    0.9818950000000000    0.7680899999999999 Cd
   0.1875000000000000    0.4818950000000000    0.2680900000000000 Cd
   0.4374900000000000    0.9818950000000000    0.7680899999999999 Cd
   0.9374899999999999    0.4818950000000000    0.2680900000000000 Cd
   0.8125000000000000    0.2680950000000000    0.2318900000000000 Cd
   0.3125000000000000    0.7680950000000000    0.7318900000000000 Cd
   0.5625100000000000    0.0180950000000000    0.9818850000000000 Cd
   0.0625100000000000    0.5180950000000000    0.4818850000000000 Cd
   0.1875000000000000    0.7319000000000000    0.5180500000000000 Cd
   0.6875000000000000    0.2319000000000000    0.0180500000000000 Cd
   0.3125050000000000    0.0180950000000000    0.9818850000000000 Cd
   0.8125050000000000    0.5180950000000000    0.4818850000000000 Cd
   0.5625050000000000    0.2680900000000000    0.2318900000000000 Cd
   0.0625050000000000    0.7680899999999999    0.7318900000000000 Cd
   0.4374950000000000    0.2319000000000000    0.0180950000000000 Cd
   0.9374950000000000    0.7319000000000000    0.5180950000000000 Cd
   0.1875000000000000    0.9818950000000000    0.7680899999999999 Cd
   0.6875000000000000    0.4818950000000000    0.2680900000000000 Cd
   0.4374900000000000    0.4818950000000000    0.2680900000000000 Cd
   0.9374899999999999    0.9818950000000000    0.7680899999999999 Cd
   0.8125000000000000    0.7680950000000000    0.7318900000000000 Cd
   0.3125000000000000    0.2680950000000000    0.2318900000000000 Cd
   0.0625100000000000    0.0180950000000000    0.9818850000000000 Cd
   0.5625100000000000    0.5180950000000000    0.4818850000000000 Cd
   0.1875000000000000    0.2319000000000000    0.0180500000000000 Cd
   0.6875000000000000    0.7319000000000000    0.5180500000000000 Cd
   0.3125050000000000    0.0180950000000000    0.4818850000000000 Cd
   0.8125050000000000    0.5180950000000000    0.9818850000000000 Cd
   0.5625050000000000    0.2680900000000000    0.7318900000000000 Cd
   0.0625050000000000    0.7680899999999999    0.2318900000000000 Cd
   0.4374950000000000    0.2319000000000000    0.5180950000000000 Cd
   0.9374950000000000    0.7319000000000000    0.0180950000000000 Cd
   0.6875000000000000    0.4818950000000000    0.7680899999999999 Cd
   0.1875000000000000    0.9818950000000000    0.2680900000000000 Cd
   0.9374899999999999    0.9818950000000000    0.2680900000000000 Cd
   0.4374900000000000    0.4818950000000000    0.7680899999999999 Cd
   0.8125000000000000    0.7680950000000000    0.2318900000000000 Cd
   0.3125000000000000    0.2680950000000000    0.7318900000000000 Cd
   0.0625100000000000    0.0180950000000000    0.4818850000000000 Cd
   0.5625100000000000    0.5180950000000000    0.9818850000000000 Cd
   0.1875000000000000    0.2319000000000000    0.5180500000000000 Cd
   0.6875000000000000    0.7319000000000000    0.0180500000000000 Cd
   0.3125050000000000    0.5180950000000000    0.9818850000000000 Cd
   0.8125050000000000    0.0180950000000000    0.4818850000000000 Cd
   0.0625050000000000    0.2680900000000000    0.7318900000000000 Cd
   0.5625050000000000    0.7680899999999999    0.2318900000000000 Cd
   0.4374950000000000    0.7319000000000000    0.0180950000000000 Cd
   0.9374950000000000    0.2319000000000000    0.5180950000000000 Cd
   0.6875000000000000    0.9818950000000000    0.2680900000000000 Cd
   0.1875000000000000    0.4818950000000000    0.7680899999999999 Cd
   0.4374900000000000    0.9818950000000000    0.2680900000000000 Cd
   0.9374899999999999    0.4818950000000000    0.7680899999999999 Cd
   0.8125000000000000    0.2680950000000000    0.7318900000000000 Cd
   0.3125000000000000    0.7680950000000000    0.2318900000000000 Cd
   0.5625100000000000    0.0180950000000000    0.4818850000000000 Cd
   0.0625100000000000    0.5180950000000000    0.9818850000000000 Cd
   0.1875000000000000    0.7319000000000000    0.0180500000000000 Cd
   0.6875000000000000    0.2319000000000000    0.5180500000000000 Cd
   0.9374899999999999    0.9818950000000000    0.0180950000000000 Cd
   0.4374900000000000    0.4818950000000000    0.5180950000000000 Cd
   0.0625100000000000    0.0180950000000000    0.2318900000000000 Cd
   0.5625100000000000    0.5180950000000000    0.7318900000000000 Cd
   0.6875000000000000    0.7318950000000000    0.7680899999999999 Cd
   0.1875000000000000    0.2318950000000000    0.2680900000000000 Cd
   0.3125000000000000    0.2680900000000000    0.4818850000000000 Cd
   0.8125000000000000    0.7680899999999999    0.9818850000000000 Cd
   0.6875000000000000    0.9818950000000000    0.0180950000000000 Cd
   0.1875000000000000    0.4818950000000000    0.5180950000000000 Cd
   0.0625050000000000    0.2680900000000000    0.4818850000000000 Cd
   0.5625050000000000    0.7680899999999999    0.9818850000000000 Cd
   0.3125000000000000    0.5180950000000000    0.7318900000000000 Cd
   0.8125000000000000    0.0180950000000000    0.2318900000000000 Cd
   0.4374950000000000    0.7319000000000000    0.7680899999999999 Cd
   0.9374950000000000    0.2319000000000000    0.2680900000000000 Cd
   0.4374900000000000    0.9818950000000000    0.0180950000000000 Cd
   0.9374899999999999    0.4818950000000000    0.5180950000000000 Cd
   0.5625100000000000    0.0180950000000000    0.2318900000000000 Cd
   0.0625100000000000    0.5180950000000000    0.7318900000000000 Cd
   0.1875000000000000    0.7318950000000000    0.7680899999999999 Cd
   0.6875000000000000    0.2318950000000000    0.2680900000000000 Cd
   0.8125000000000000    0.2680900000000000    0.4818850000000000 Cd
   0.3125000000000000    0.7680899999999999    0.9818850000000000 Cd
   0.1875000000000000    0.9818950000000000    0.0180950000000000 Cd
   0.6875000000000000    0.4818950000000000    0.5180950000000000 Cd
   0.5625050000000000    0.2680900000000000    0.4818850000000000 Cd
   0.0625050000000000    0.7680899999999999    0.9818850000000000 Cd
   0.3125000000000000    0.0180950000000000    0.2318900000000000 Cd
   0.8125000000000000    0.5180950000000000    0.7318900000000000 Cd
   0.9374950000000000    0.7319000000000000    0.7680899999999999 Cd
   0.4374950000000000    0.2319000000000000    0.2680900000000000 Cd
   0.2556750000000000    0.1816100000000000    0.8155900000000000 H
   0.2094950000000000    0.1977300000000000    0.8531250000000000 H
   0.2661150000000000    0.2530650000000000    0.8213850000000000 H
   0.2161050000000000    0.3091500000000000    0.8598300000000000 H
   0.1853300000000000    0.2738800000000000    0.8790300000000000 H
   0.2443250000000000    0.3183800000000000    0.9343800000000000 H
   0.2905050000000000    0.3022600000000000    0.8968499999999999 H
   0.2338900000000000    0.2469250000000000    0.9285900000000000 H
   0.2838950000000000    0.1908400000000000    0.8901399999999999 H
   0.3146750000000000    0.2261100000000000    0.8709000000000000 H
   0.3411050000000000    0.3598350000000000    0.0591450000000000 H
   0.3103250000000000    0.3790300000000000    0.0238800000000000 H
   0.3911150000000000    0.3213900000000000    0.0030600000000000 H
   0.3806800000000000    0.3156000000000000    0.9316000000000000 H
   0.3345000000000000    0.3531250000000000    0.9477200000000000 H
   0.4088950000000000    0.3901550000000000    0.9408350000000000 H
   0.4396700000000000    0.3709550000000000    0.9761000000000000 H
   0.3588800000000000    0.4285950000000000    0.9969200000000000 H
   0.3693150000000000    0.4343850000000000    0.0683800000000000 H
   0.4155000000000000    0.3968600000000000    0.0522600000000000 H
   0.6193200000000000    0.6843900000000001    0.3183750000000000 H
   0.6655050000000000    0.6468600000000000    0.3022550000000000 H
   0.6088850000000000    0.6786000000000000    0.2469200000000000 H
   0.6588950000000000    0.6401600000000001    0.1908350000000000 H
   0.6896750000000000    0.6209600000000000    0.2261000000000000 H
   0.6306849999999999    0.5656050000000000    0.1816000000000000 H
   0.5845000000000000    0.6031299999999999    0.1977200000000000 H
   0.6411200000000000    0.5713950000000000    0.2530550000000000 H
   0.5911100000000000    0.6098350000000000    0.3091400000000000 H
   0.5603300000000000    0.6290300000000000    0.2738700000000000 H
   0.5056900000000000    0.4316100000000000    0.0655950000000000 H
   0.4594950000000000    0.4477200000000000    0.1031250000000000 H
   0.5161200000000000    0.5030750000000000    0.0713900000000000 H
   0.4660900000000000    0.5591500000000000    0.1098400000000000 H
   0.4353200000000000    0.5238750000000000    0.1290350000000000 H
   0.4943050000000000    0.5683800000000000    0.1843900000000000 H
   0.5405050000000000    0.5522700000000000    0.1468600000000000 H
   0.4838800000000000    0.4969150000000000    0.1785900000000000 H
   0.5339100000000000    0.4408400000000000    0.1401400000000000 H
   0.5646800000000000    0.4761150000000000    0.1209500000000000 H
   0.7443250000000000    0.8183800000000000    0.4343800000000000 H
   0.7905050000000000    0.8022600000000000    0.3968500000000000 H
   0.7338899999999999    0.7469250000000001    0.4285900000000000 H
   0.7838950000000000    0.6908400000000000    0.3901400000000000 H
   0.8146750000000000    0.7261100000000000    0.3709000000000000 H
   0.7556750000000000    0.6816100000000000    0.3155900000000000 H
   0.7094950000000000    0.6977300000000000    0.3531250000000000 H
   0.7661150000000000    0.7530650000000000    0.3213850000000000 H
   0.7161050000000000    0.8091500000000000    0.3598300000000000 H
   0.6853300000000000    0.7738800000000000    0.3790300000000000 H
   0.8411050000000000    0.8598350000000000    0.5591450000000000 H
   0.8103250000000000    0.8790300000000000    0.5238800000000000 H
   0.8911150000000000    0.8213900000000001    0.5030600000000000 H
   0.8806800000000000    0.8156000000000000    0.4316000000000000 H
   0.8345000000000000    0.8531250000000000    0.4477200000000000 H
   0.9088950000000000    0.8901550000000000    0.4408350000000000 H
   0.9396700000000000    0.8709549999999999    0.4761000000000000 H
   0.8588800000000000    0.9285950000000001    0.4969200000000000 H
   0.8693150000000001    0.9343850000000000    0.5683800000000000 H
   0.9155000000000000    0.8968600000000000    0.5522600000000000 H
   0.1193200000000000    0.1843900000000000    0.8183750000000001 H
   0.1655050000000000    0.1468600000000000    0.8022549999999999 H
   0.1088850000000000    0.1786000000000000    0.7469200000000000 H
   0.1588950000000000    0.1401600000000000    0.6908350000000000 H
   0.1896750000000000    0.1209600000000000    0.7261000000000000 H
   0.1306850000000000    0.0656050000000000    0.6816000000000000 H
   0.0845000000000000    0.1031300000000000    0.6977200000000000 H
   0.1411200000000000    0.0713950000000000    0.7530550000000000 H
   0.0911100000000000    0.1098350000000000    0.8091400000000000 H
   0.0603300000000000    0.1290300000000000    0.7738700000000001 H
   0.0056900000000000    0.9316100000000000    0.5655950000000000 H
   0.9594950000000000    0.9477200000000000    0.6031250000000000 H
   0.0161200000000000    0.0030750000000000    0.5713900000000000 H
   0.9660900000000000    0.0591500000000000    0.6098399999999999 H
   0.9353199999999999    0.0238750000000000    0.6290350000000000 H
   0.9943050000000000    0.0683800000000000    0.6843900000000001 H
   0.0405050000000000    0.0522700000000000    0.6468600000000000 H
   0.9838800000000000    0.9969150000000000    0.6785900000000000 H
   0.0339100000000000    0.9408400000000000    0.6401399999999999 H
   0.0646800000000000    0.9761150000000001    0.6209500000000000 H
   0.2838900000000000    0.4408400000000000    0.1401450000000000 H
   0.3146700000000000    0.4761050000000000    0.1205000000000000 H
   0.2338850000000000    0.4969200000000000    0.1785950000000000 H
   0.2443250000000000    0.5683850000000000    0.1843850000000000 H
   0.2905050000000000    0.5522650000000000    0.1468550000000000 H
   0.2556750000000000    0.4316050000000000    0.0655950000000000 H
   0.2094950000000000    0.4477250000000000    0.1031300000000000 H
   0.2661150000000000    0.5030700000000000    0.0713900000000000 H
   0.2161050000000000    0.5591500000000000    0.1098350000000000 H
   0.1853300000000000    0.5238850000000000    0.1290350000000000 H
   0.3693200000000000    0.6843900000000001    0.3183750000000000 H
   0.4155000000000000    0.6468600000000000    0.3022550000000000 H
   0.3588850000000000    0.6786000000000000    0.2469200000000000 H
   0.4088950000000000    0.6401600000000001    0.1908000000000000 H
   0.4396750000000000    0.6209600000000000    0.2261050000000000 H
   0.3411050000000000    0.6098350000000000    0.3091400000000000 H
   0.3103250000000000    0.6290300000000000    0.2738750000000000 H
   0.3911150000000000    0.5713950000000000    0.2530550000000000 H
   0.3806850000000000    0.5656050000000000    0.1816050000000000 H
   0.3345000000000000    0.6031299999999999    0.1977200000000000 H
   0.6896750000000000    0.8709549999999999    0.4760000000000000 H
   0.6588950000000000    0.8901550000000000    0.4408000000000000 H
   0.6088850000000000    0.9285950000000001    0.4969150000000000 H
   0.6193150000000001    0.9343850000000000    0.5683800000000000 H
   0.6655000000000000    0.8968600000000000    0.5522600000000000 H
   0.5911050000000000    0.8598350000000000    0.5591450000000000 H
   0.5603250000000000    0.8790300000000000    0.5238750000000000 H
   0.6411200000000000    0.8213900000000001    0.5030600000000000 H
   0.6306849999999999    0.8156000000000000    0.4315950000000000 H
   0.5845000000000000    0.8531250000000000    0.4477000000000000 H
   0.4660900000000000    0.8091450000000000    0.3598350000000000 H
   0.4353150000000000    0.7738700000000001    0.3790000000000000 H
   0.5161200000000000    0.7530700000000000    0.3213850000000000 H
   0.5056950000000000    0.6816150000000000    0.3155900000000000 H
   0.4595000000000000    0.6977250000000000    0.3531000000000000 H
   0.4943050000000000    0.8183750000000001    0.4343850000000000 H
   0.5405050000000000    0.8022650000000000    0.3968550000000000 H
   0.4838800000000000    0.7469200000000000    0.4285850000000000 H
   0.5339150000000000    0.6908449999999999    0.3901350000000000 H
   0.5646850000000000    0.7261200000000000    0.3709450000000000 H
   0.7838900000000000    0.9408400000000000    0.6401450000000000 H
   0.8146700000000000    0.9761050000000000    0.6205000000000001 H
   0.7338850000000000    0.9969200000000000    0.6785950000000001 H
   0.7443250000000000    0.0683850000000000    0.6843850000000000 H
   0.7905050000000000    0.0522650000000000    0.6468550000000000 H
   0.7556750000000000    0.9316050000000000    0.5655950000000000 H
   0.7094950000000000    0.9477249999999999    0.6031299999999999 H
   0.7661150000000000    0.0030700000000000    0.5713900000000000 H
   0.7161050000000000    0.0591500000000000    0.6098350000000000 H
   0.6853300000000000    0.0238850000000000    0.6290350000000000 H
   0.8693200000000000    0.1843900000000000    0.8183750000000001 H
   0.9155000000000000    0.1468600000000000    0.8022549999999999 H
   0.8588850000000000    0.1786000000000000    0.7469200000000000 H
   0.9088950000000000    0.1401600000000000    0.6908000000000000 H
   0.9396750000000000    0.1209600000000000    0.7261050000000000 H
   0.8411050000000000    0.1098350000000000    0.8091400000000000 H
   0.8103250000000000    0.1290300000000000    0.7738750000000000 H
   0.8911150000000000    0.0713950000000000    0.7530550000000000 H
   0.8806849999999999    0.0656050000000000    0.6816050000000000 H
   0.8345000000000000    0.1031300000000000    0.6977200000000000 H
   0.1896750000000000    0.3709550000000000    0.9760000000000000 H
   0.1588950000000000    0.3901550000000000    0.9408000000000001 H
   0.1088850000000000    0.4285950000000000    0.9969150000000000 H
   0.1193150000000000    0.4343850000000000    0.0683800000000000 H
   0.1655000000000000    0.3968600000000000    0.0522600000000000 H
   0.0911050000000000    0.3598350000000000    0.0591450000000000 H
   0.0603250000000000    0.3790300000000000    0.0238750000000000 H
   0.1411200000000000    0.3213900000000000    0.0030600000000000 H
   0.1306850000000000    0.3156000000000000    0.9315950000000000 H
   0.0845000000000000    0.3531250000000000    0.9477000000000000 H
   0.9660900000000000    0.3091450000000000    0.8598350000000000 H
   0.9353150000000000    0.2738700000000000    0.8790000000000000 H
   0.0161200000000000    0.2530700000000000    0.8213850000000000 H
   0.0056950000000000    0.1816150000000000    0.8155900000000000 H
   0.9595000000000000    0.1977250000000000    0.8531000000000000 H
   0.9943050000000000    0.3183750000000000    0.9343850000000000 H
   0.0405050000000000    0.3022650000000000    0.8968550000000000 H
   0.9838800000000000    0.2469200000000000    0.9285850000000000 H
   0.0339150000000000    0.1908450000000000    0.8901350000000000 H
   0.0646850000000000    0.2261200000000000    0.8709450000000001 H
   0.2443250000000000    0.8183800000000000    0.4343800000000000 H
   0.2905050000000000    0.8022600000000000    0.3968500000000000 H
   0.2338900000000000    0.7469250000000001    0.4285900000000000 H
   0.2838950000000000    0.6908400000000000    0.3901400000000000 H
   0.3146750000000000    0.7261100000000000    0.3709000000000000 H
   0.2556750000000000    0.6816100000000000    0.3155900000000000 H
   0.2094950000000000    0.6977300000000000    0.3531250000000000 H
   0.2661150000000000    0.7530650000000000    0.3213850000000000 H
   0.2161050000000000    0.8091500000000000    0.3598300000000000 H
   0.1853300000000000    0.7738800000000000    0.3790300000000000 H
   0.3411050000000000    0.8598350000000000    0.5591450000000000 H
   0.3103250000000000    0.8790300000000000    0.5238800000000000 H
   0.3911150000000000    0.8213900000000001    0.5030600000000000 H
   0.3806800000000000    0.8156000000000000    0.4316000000000000 H
   0.3345000000000000    0.8531250000000000    0.4477200000000000 H
   0.4088950000000000    0.8901550000000000    0.4408350000000000 H
   0.4396700000000000    0.8709549999999999    0.4761000000000000 H
   0.3588800000000000    0.9285950000000001    0.4969200000000000 H
   0.3693150000000000    0.9343850000000000    0.5683800000000000 H
   0.4155000000000000    0.8968600000000000    0.5522600000000000 H
   0.6193200000000000    0.1843900000000000    0.8183750000000001 H
   0.6655050000000000    0.1468600000000000    0.8022549999999999 H
   0.6088850000000000    0.1786000000000000    0.7469200000000000 H
   0.6588950000000000    0.1401600000000000    0.6908350000000000 H
   0.6896750000000000    0.1209600000000000    0.7261000000000000 H
   0.6306849999999999    0.0656050000000000    0.6816000000000000 H
   0.5845000000000000    0.1031300000000000    0.6977200000000000 H
   0.6411200000000000    0.0713950000000000    0.7530550000000000 H
   0.5911100000000000    0.1098350000000000    0.8091400000000000 H
   0.5603300000000000    0.1290300000000000    0.7738700000000001 H
   0.5056900000000000    0.9316100000000000    0.5655950000000000 H
   0.4594950000000000    0.9477200000000000    0.6031250000000000 H
   0.5161200000000000    0.0030750000000000    0.5713900000000000 H
   0.4660900000000000    0.0591500000000000    0.6098399999999999 H
   0.4353200000000000    0.0238750000000000    0.6290350000000000 H
   0.4943050000000000    0.0683800000000000    0.6843900000000001 H
   0.5405050000000000    0.0522700000000000    0.6468600000000000 H
   0.4838800000000000    0.9969150000000000    0.6785900000000000 H
   0.5339100000000000    0.9408400000000000    0.6401399999999999 H
   0.5646800000000000    0.9761150000000001    0.6209500000000000 H
   0.7443250000000000    0.3183800000000000    0.9343800000000000 H
   0.7905050000000000    0.3022600000000000    0.8968499999999999 H
   0.7338899999999999    0.2469250000000000    0.9285900000000000 H
   0.7838950000000000    0.1908400000000000    0.8901399999999999 H
   0.8146750000000000    0.2261100000000000    0.8709000000000000 H
   0.7556750000000000    0.1816100000000000    0.8155900000000000 H
   0.7094950000000000    0.1977300000000000    0.8531250000000000 H
   0.7661150000000000    0.2530650000000000    0.8213850000000000 H
   0.7161050000000000    0.3091500000000000    0.8598300000000000 H
   0.6853300000000000    0.2738800000000000    0.8790300000000000 H
   0.8411050000000000    0.3598350000000000    0.0591450000000000 H
   0.8103250000000000    0.3790300000000000    0.0238800000000000 H
   0.8911150000000000    0.3213900000000000    0.0030600000000000 H
   0.8806800000000000    0.3156000000000000    0.9316000000000000 H
   0.8345000000000000    0.3531250000000000    0.9477200000000000 H
   0.9088950000000000    0.3901550000000000    0.9408350000000000 H
   0.9396700000000000    0.3709550000000000    0.9761000000000000 H
   0.8588800000000000    0.4285950000000000    0.9969200000000000 H
   0.8693150000000001    0.4343850000000000    0.0683800000000000 H
   0.9155000000000000    0.3968600000000000    0.0522600000000000 H
   0.1193200000000000    0.6843900000000001    0.3183750000000000 H
   0.1655050000000000    0.6468600000000000    0.3022550000000000 H
   0.1088850000000000    0.6786000000000000    0.2469200000000000 H
   0.1588950000000000    0.6401600000000001    0.1908350000000000 H
   0.1896750000000000    0.6209600000000000    0.2261000000000000 H
   0.1306850000000000    0.5656050000000000    0.1816000000000000 H
   0.0845000000000000    0.6031299999999999    0.1977200000000000 H
   0.1411200000000000    0.5713950000000000    0.2530550000000000 H
   0.0911100000000000    0.6098350000000000    0.3091400000000000 H
   0.0603300000000000    0.6290300000000000    0.2738700000000000 H
   0.0056900000000000    0.4316100000000000    0.0655950000000000 H
   0.9594950000000000    0.4477200000000000    0.1031250000000000 H
   0.0161200000000000    0.5030750000000000    0.0713900000000000 H
   0.9660900000000000    0.5591500000000000    0.1098400000000000 H
   0.9353199999999999    0.5238750000000000    0.1290350000000000 H
   0.9943050000000000    0.5683800000000000    0.1843900000000000 H
   0.0405050000000000    0.5522700000000000    0.1468600000000000 H
   0.9838800000000000    0.4969150000000000    0.1785900000000000 H
   0.0339100000000000    0.4408400000000000    0.1401400000000000 H
   0.0646800000000000    0.4761150000000000    0.1209500000000000 H
   0.7838900000000000    0.4408400000000000    0.1401450000000000 H
   0.8146700000000000    0.4761050000000000    0.1205000000000000 H
   0.7338850000000000    0.4969200000000000    0.1785950000000000 H
   0.7443250000000000    0.5683850000000000    0.1843850000000000 H
   0.7905050000000000    0.5522650000000000    0.1468550000000000 H
   0.7556750000000000    0.4316050000000000    0.0655950000000000 H
   0.7094950000000000    0.4477250000000000    0.1031300000000000 H
   0.7661150000000000    0.5030700000000000    0.0713900000000000 H
   0.7161050000000000    0.5591500000000000    0.1098350000000000 H
   0.6853300000000000    0.5238850000000000    0.1290350000000000 H
   0.8693200000000000    0.6843900000000001    0.3183750000000000 H
   0.9155000000000000    0.6468600000000000    0.3022550000000000 H
   0.8588850000000000    0.6786000000000000    0.2469200000000000 H
   0.9088950000000000    0.6401600000000001    0.1908000000000000 H
   0.9396750000000000    0.6209600000000000    0.2261050000000000 H
   0.8411050000000000    0.6098350000000000    0.3091400000000000 H
   0.8103250000000000    0.6290300000000000    0.2738750000000000 H
   0.8911150000000000    0.5713950000000000    0.2530550000000000 H
   0.8806849999999999    0.5656050000000000    0.1816050000000000 H
   0.8345000000000000    0.6031299999999999    0.1977200000000000 H
   0.1896750000000000    0.8709549999999999    0.4760000000000000 H
   0.1588950000000000    0.8901550000000000    0.4408000000000000 H
   0.1088850000000000    0.9285950000000001    0.4969150000000000 H
   0.1193150000000000    0.9343850000000000    0.5683800000000000 H
   0.1655000000000000    0.8968600000000000    0.5522600000000000 H
   0.0911050000000000    0.8598350000000000    0.5591450000000000 H
   0.0603250000000000    0.8790300000000000    0.5238750000000000 H
   0.1411200000000000    0.8213900000000001    0.5030600000000000 H
   0.1306850000000000    0.8156000000000000    0.4315950000000000 H
   0.0845000000000000    0.8531250000000000    0.4477000000000000 H
   0.9660900000000000    0.8091450000000000    0.3598350000000000 H
   0.9353150000000000    0.7738700000000001    0.3790000000000000 H
   0.0161200000000000    0.7530700000000000    0.3213850000000000 H
   0.0056950000000000    0.6816150000000000    0.3155900000000000 H
   0.9595000000000000    0.6977250000000000    0.3531000000000000 H
   0.9943050000000000    0.8183750000000001    0.4343850000000000 H
   0.0405050000000000    0.8022650000000000    0.3968550000000000 H
   0.9838800000000000    0.7469200000000000    0.4285850000000000 H
   0.0339150000000000    0.6908449999999999    0.3901350000000000 H
   0.0646850000000000    0.7261200000000000    0.3709450000000000 H
   0.2838900000000000    0.9408400000000000    0.6401450000000000 H
   0.3146700000000000    0.9761050000000000    0.6205000000000001 H
   0.2338850000000000    0.9969200000000000    0.6785950000000001 H
   0.2443250000000000    0.0683850000000000    0.6843850000000000 H
   0.2905050000000000    0.0522650000000000    0.6468550000000000 H
   0.2556750000000000    0.9316050000000000    0.5655950000000000 H
   0.2094950000000000    0.9477249999999999    0.6031299999999999 H
   0.2661150000000000    0.0030700000000000    0.5713900000000000 H
   0.2161050000000000    0.0591500000000000    0.6098350000000000 H
   0.1853300000000000    0.0238850000000000    0.6290350000000000 H
   0.3693200000000000    0.1843900000000000    0.8183750000000001 H
   0.4155000000000000    0.1468600000000000    0.8022549999999999 H
   0.3588850000000000    0.1786000000000000    0.7469200000000000 H
   0.4088950000000000    0.1401600000000000    0.6908000000000000 H
   0.4396750000000000    0.1209600000000000    0.7261050000000000 H
   0.3411050000000000    0.1098350000000000    0.8091400000000000 H
   0.3103250000000000    0.1290300000000000    0.7738750000000000 H
   0.3911150000000000    0.0713950000000000    0.7530550000000000 H
   0.3806850000000000    0.0656050000000000    0.6816050000000000 H
   0.3345000000000000    0.1031300000000000    0.6977200000000000 H
   0.6896750000000000    0.3709550000000000    0.9760000000000000 H
   0.6588950000000000    0.3901550000000000    0.9408000000000001 H
   0.6088850000000000    0.4285950000000000    0.9969150000000000 H
   0.6193150000000001    0.4343850000000000    0.0683800000000000 H
   0.6655000000000000    0.3968600000000000    0.0522600000000000 H
   0.5911050000000000    0.3598350000000000    0.0591450000000000 H
   0.5603250000000000    0.3790300000000000    0.0238750000000000 H