C5 O4
1.0
  14.5438660296857503    0.0000000000000000   -4.3866207849041254
  -7.0269796526866504   28.3648672436937765   -8.9698655067038686
   0.0000000000000000    0.0000000000000000   22.5799999999999983
C O
5 4
direct
   0.7893700000000000    0.7326450000000000    0.1234200000000000 C
   0.7739500000000000    0.7419400000000000    0.0600100000000000 C
   0.8350500000000000    0.8293900000000001    0.1233100000000000 C
   0.7868700000000000    0.7883249999999999    0.0599900000000000 C
   0.7621200000000000    0.7961800000000000    0.2000000000000000 C
   0.8338600000000000    0.7011800000000000    0.1313700000000000 O
   0.7517100000000000    0.7557900000000000    0.1620900000000000 O
   0.7986200000000000    0.8648950000000000    0.1312800000000000 O
  -0.0888600000000000    0.8255700000000000    0.1619700000000000 O
