H6 O4
1.0
  14.5438660296857503    0.0000000000000000   -4.3866207849041254
  -7.0269796526866504   28.3648672436937765   -8.9698655067038686
   0.0000000000000000    0.0000000000000000   22.5799999999999983
H O
6 4
direct
  -0.0628622385268654    0.7979747099234386    0.1546461571823805 H
   0.7404243024492314    0.8669687986801692    0.1011823104579274 H
  -0.1669533233354895    0.8283528488647617    0.1215816431286042 H
   0.7184083813849846    0.7797134341115570    0.1547624401766431 H
   0.8621827281211500    0.6841139517132551    0.1012650274746878 H
   0.7897438252822296    0.7328724655019215    0.1216628469285763 H
  -0.0888600000000000    0.8255700000000000    0.1619700000000000 O
   0.7986200000000000    0.8648950000000000    0.1312800000000000 O
   0.7517100000000000    0.7557900000000000    0.1620900000000000 O
   0.8338600000000000    0.7011800000000000    0.1313700000000000 O
