H1 C10 O8
1.0
  14.5438660296857503    0.0000000000000000   -4.3866207849041254
  -7.0269796526866504   28.3648672436937765   -8.9698655067038686
   0.0000000000000000    0.0000000000000000   22.5799999999999983
H C O
1 10 8
direct
   0.7728100000000000    0.0821000000000000    0.9999400000000001 H
   0.7107000000000000    0.0175100000000000    0.8766000000000000 C
   0.7262000000000000    0.0082450000000000    0.9400400000000000 C
   0.8349400000000000    0.0792950000000000    0.1232300000000000 C
   0.7866800000000000    0.0382650000000000    0.0599000000000000 C
   0.7619800000000000    0.0461350000000000    0.9999500000000000 C
   0.6650199999999999    0.9208149999999999    0.8767000000000000 C
   0.7132900000000000    0.9618550000000000    0.9399999999999999 C
   0.7890000000000000    0.9825900000000001    0.1233300000000000 C
   0.7737100000000000    0.9918750000000001    0.0599200000000000 C
   0.7379700000000000    0.9539850000000001    0.0000000000000000 C
   0.6661800000000000    0.0489650000000000    0.8686500000000000 O
   0.7511300000000000    0.0056900000000000    0.1618900000000000 O
   0.7987000000000000    0.1148550000000000    0.1312300000000000 O
  -0.0890700000000000    0.0753700000000000    0.1618800000000000 O
   0.7482500000000000    0.9943150000000001    0.8378700000000000 O
   0.7012699999999999    0.8852700000000000    0.8687200000000000 O
   0.5889700000000000    0.9247500000000000    0.8381000000000000 O
   0.8336400000000000    0.9511950000000000    0.1313700000000000 O
