Ga64 H33 C150 O128
1.0
  14.5438660296857503    0.0000000000000000   -4.3866207849041254
  -7.0269796526866504   28.3648672436937765   -8.9698655067038686
   0.0000000000000000    0.0000000000000000   22.5799999999999983
Ga H C O
64 33 150 128
direct
   0.0001800000000000    0.8753500000000001    0.2501400000000000 Ga
   0.2503300000000000    0.0000800000000000    0.2500000000000000 Ga
   0.0001700000000000    0.8753350000000000    0.7501600000000000 Ga
   0.2499000000000000    0.0000350000000000    0.7499800000000000 Ga
   0.5000700000000000    0.8751599999999999    0.7500700000000000 Ga
   0.5001500000000000    0.6253299999999999    0.7501600000000000 Ga
   0.0000800000000000    0.1251800000000000    0.7500800000000000 Ga
   0.2495000000000000    0.2499850000000000    0.7498000000000000 Ga
   0.2494000000000000    0.2499650000000000    0.2498200000000000 Ga
   0.0000000000000000    0.1250000000000000    0.2500200000000000 Ga
   0.7494900000000000    0.9999899999999999    0.7498500000000000 Ga
   0.8552700000000000    0.9277500000000001    0.2102200000000000 Ga
   0.7493900000000000    0.9999650000000000    0.2498200000000000 Ga
   0.7498899999999999    0.7500300000000000    0.7499000000000000 Ga
   0.5001800000000000    0.6253700000000000    0.2501400000000000 Ga
   0.7503300000000001    0.7500750000000000    0.2500800000000000 Ga
   0.5000200000000000    0.8750350000000000    0.2500300000000000 Ga
   0.8554800000000000    0.6776949999999999    0.2102100000000000 Ga
   0.5000700000000000    0.3751600000000000    0.7500700000000000 Ga
   0.7494900000000000    0.4999900000000000    0.7498500000000000 Ga
   0.7493900000000000    0.4999650000000000    0.2498200000000000 Ga
   0.5000200000000000    0.3750350000000000    0.2500300000000000 Ga
   0.0000800000000000    0.6251800000000001    0.7500800000000000 Ga
   0.2495000000000000    0.7499850000000000    0.7498000000000000 Ga
   0.2494000000000000    0.7499650000000000    0.2498200000000000 Ga
   0.0000000000000000    0.6250000000000000    0.2500200000000000 Ga
   0.0001800000000000    0.3753500000000000    0.2501400000000000 Ga
   0.2503300000000000    0.5000800000000000    0.2500000000000000 Ga
   0.0001700000000000    0.3753350000000000    0.7501600000000000 Ga
   0.2499000000000000    0.5000350000000000    0.7499800000000000 Ga
   0.5001500000000000    0.1253300000000000    0.7501600000000000 Ga
   0.7498899999999999    0.2500300000000000    0.7499000000000000 Ga
   0.5001800000000000    0.1253700000000000    0.2501400000000000 Ga
   0.7503300000000001    0.2500750000000000    0.2500800000000000 Ga
   0.8552999999999999    0.4277550000000000    0.7102000000000001 Ga
   0.8552999999999999    0.9277550000000000    0.7102000000000001 Ga
   0.1444100000000000    0.3223950000000000    0.2897600000000000 Ga
   0.1444100000000000    0.8223950000000000    0.2897600000000000 Ga
   0.3552800000000000    0.6777550000000000    0.2102200000000000 Ga
   0.3552800000000000    0.1777550000000000    0.2102200000000000 Ga
   0.3554800000000000    0.4276950000000000    0.2102000000000000 Ga
   0.3554800000000000    0.9276949999999999    0.2102000000000000 Ga
   0.8552700000000000    0.4277500000000000    0.2102200000000000 Ga
   0.3553000000000000    0.6777550000000000    0.7102300000000000 Ga
   0.3553000000000000    0.1777550000000000    0.7102300000000000 Ga
   0.8553800000000000    0.1777300000000000    0.7102100000000000 Ga
   0.8553800000000000    0.6777299999999999    0.7102100000000000 Ga
   0.1446100000000000    0.0723300000000000    0.2897400000000000 Ga
   0.1446100000000000    0.5723300000000000    0.2897400000000000 Ga
   0.6446000000000000    0.3223300000000000    0.2897300000000000 Ga
   0.6446000000000000    0.8223300000000000    0.2897300000000000 Ga
   0.8554800000000000    0.1776950000000000    0.2102100000000000 Ga
   0.3553900000000000    0.9277200000000000    0.7102100000000000 Ga
   0.3553900000000000    0.4277200000000000    0.7102100000000000 Ga
   0.1444300000000000    0.3224000000000000    0.7897600000000000 Ga
   0.1444300000000000    0.8224000000000000    0.7897600000000000 Ga
   0.6445100000000000    0.3223600000000000    0.7897500000000000 Ga
   0.6445100000000000    0.8223600000000000    0.7897500000000000 Ga
   0.6444000000000000    0.5724000000000000    0.2897600000000000 Ga
   0.6444000000000000    0.0724000000000000    0.2897600000000000 Ga
   0.1445100000000000    0.5723700000000000    0.7897400000000000 Ga
   0.1445100000000000    0.0723700000000000    0.7897400000000000 Ga
   0.6444200000000000    0.5724000000000000    0.7897000000000000 Ga
   0.6444200000000000    0.0724000000000000    0.7897000000000000 Ga
   0.2273000000000000    0.9180800000000000    0.5001100000000001 H
   0.2730100000000000    0.0821550000000000    0.5000100000000000 H
   0.2273900000000000    0.9180900000000001    0.0001000000000000 H
   0.5631458878884453    0.9523997355405335    0.8454978428410930 H
   0.7594189129822508    0.8831703824347908    0.8988369163071962 H
   0.6670291685018535    0.9219314709354560    0.8785289835219657 H
  -0.0632479374357967    0.0477190234365363    0.1545027991903699 H
   0.7405766642372474    0.1169791745742538    0.1011148535616685 H
  -0.1670893512560799    0.0782212940639609    0.1214562328973873 H
   0.2728100000000000    0.3321050000000000    0.9999400000000001 H
   0.2727800000000000    0.3320850000000000    0.4999000000000000 H
   0.2271900000000000    0.1680350000000000    0.5000599999999999 H
   0.7815547444306884    0.9703872885545909    0.8451715252466172 H
   0.6379152290570027    0.0660599110777324    0.8987738592179204 H
   0.7102949652215388    1.0172707121053122    0.8783214908889049 H
   0.7272000000000000    0.9180400000000000    0.5000599999999999 H
   0.7727600000000000    0.0821000000000000    0.4999100000000000 H
   0.8374507208896036    0.9204264708566011    0.1342676472316857 H
   0.7478935377498609   -0.0245186069202385    0.1680186035049814 H
   0.7730200000000000    0.8321600000000000    0.5000100000000000 H
   0.7273100000000000    0.6680900000000000    0.5001100000000001 H
   0.7985006348532938    0.6232099388122851    0.1979103208060508 H
   0.7728100000000000    0.5821000000000001    0.9999400000000001 H
   0.7272000000000000    0.4180400000000000    0.5000599999999999 H
   0.7727600000000000    0.5821000000000001    0.4999100000000000 H
   0.2728100000000000    0.8321050000000000    0.9999400000000001 H
   0.2727800000000000    0.8320850000000000    0.4999000000000000 H
   0.2271900000000000    0.6680349999999999    0.5000599999999999 H
   0.2273000000000000    0.4180800000000000    0.5001100000000001 H
   0.2730100000000000    0.5821550000000000    0.5000100000000000 H
   0.2273900000000000    0.4180900000000000    0.0001000000000000 H
   0.7730200000000000    0.3321600000000000    0.5000100000000000 H
   0.7273100000000000    0.1680900000000000    0.5001100000000001 H
   0.3350500000000000    0.0793950000000000    0.6233200000000000 C
   0.2892400000000000    0.9826400000000000    0.6234100000000000 C
   0.1651300000000000    0.9208799999999999    0.3768200000000000 C
   0.2110000000000000    0.0175450000000000    0.3766700000000000 C
   0.2621400000000000    0.0461950000000000    0.4000000000000000 C
   0.2381500000000000    0.9540450000000000    0.5000900000000000 C
   0.2134700000000000    0.9619050000000000    0.4401400000000000 C
   0.2739300000000000    0.9919400000000000    0.5600100000000000 C
   0.2621900000000000    0.0461900000000000    0.5000300000000000 C
   0.2868500000000000    0.0383350000000000    0.5599900000000000 C
   0.2264100000000000    0.0082950000000000    0.4401000000000000 C
   0.3350600000000000    0.0794000000000000    0.1233200000000000 C
   0.2108700000000000    0.0175500000000000    0.8766600000000000 C
   0.2893800000000000    0.9826500000000000    0.1234200000000000 C
   0.1651300000000000    0.9208900000000000    0.8768200000000000 C
   0.2382100000000000    0.9540550000000000    0.0000000000000000 C
   0.2134500000000000    0.9619200000000000    0.9401500000000000 C
   0.2739700000000000    0.9919450000000001    0.0600100000000000 C
   0.2263900000000000    0.0083050000000000    0.9401200000000000 C
   0.2868900000000000    0.0383400000000000    0.0599900000000000 C
   0.7108600000000000    0.7675400000000000    0.8766600000000000 C
   0.7134300000000000    0.7119100000000000    0.9401500000000000 C
   0.7381900000000000    0.7040500000000001    0.9000000000000000 C
   0.6651100000000000    0.6708800000000000    0.8768200000000000 C
   0.7263700000000000    0.7582949999999999    0.9401200000000000 C
   0.2890100000000000    0.2326000000000000    0.1233300000000000 C
   0.3349500000000000    0.3293050000000000    0.1232400000000000 C
   0.2107100000000000    0.2675150000000000    0.8766000000000000 C
   0.1650400000000000    0.1708300000000000    0.8767500000000000 C
   0.2132900000000000    0.2118700000000000    0.9400700000000000 C
   0.2380000000000000    0.2040000000000000    0.0000000000000000 C
   0.2737100000000000    0.2418900000000000    0.0599200000000000 C
   0.2619800000000000    0.2961400000000000    0.9999500000000000 C
   0.2262400000000000    0.2582550000000000    0.9400400000000000 C
   0.2867100000000000    0.2882750000000000    0.0599000000000000 C
   0.3349700000000000    0.3293350000000000    0.6232400000000000 C
   0.2890700000000000    0.2326100000000000    0.6233500000000000 C
   0.2106500000000000    0.2674850000000000    0.3765800000000000 C
   0.1650100000000000    0.1707750000000000    0.3767400000000000 C
   0.2619800000000000    0.2961200000000000    0.4999400000000000 C
   0.2261600000000000    0.2582250000000000    0.4400200000000000 C
   0.2867100000000000    0.2882800000000000    0.5599100000000000 C
   0.2380000000000000    0.2039950000000000    0.5000200000000000 C
   0.2737700000000000    0.2418950000000000    0.5599400000000000 C
   0.2132800000000000    0.2118400000000000    0.4400000000000000 C
   0.6650199999999999    0.9207850000000000    0.3767000000000000 C
   0.8349600000000000    0.0793450000000000    0.6232400000000000 C
   0.7890600000000000    0.9826150000000000    0.6233500000000000 C
   0.7106400000000000    0.0175000000000000    0.3765800000000000 C
   0.7380100000000001    0.9540050000000000    0.5000200000000000 C
   0.7132800000000000    0.9618450000000001    0.4400600000000000 C
   0.7737600000000000    0.9919000000000000    0.5599400000000000 C
   0.7619600000000000    0.0461350000000000    0.4999500000000000 C
   0.7867000000000000    0.0382900000000000    0.5599100000000000 C
   0.7261600000000000    0.0082400000000000    0.4400000000000000 C
   0.8350500000000000    0.8293900000000001    0.1233100000000000 C
   0.7621200000000000    0.7961800000000000    0.2000000000000000 C
   0.7893700000000000    0.7326450000000000    0.1234200000000000 C
   0.7739500000000000    0.7419400000000000    0.0600100000000000 C
   0.7868700000000000    0.7883249999999999    0.0599900000000000 C
   0.7892300000000000    0.7326500000000000    0.6234100000000000 C
   0.7110100000000000    0.7675500000000000    0.3766700000000000 C
   0.8350500000000000    0.8294000000000000    0.6233200000000000 C
   0.6651300000000000    0.6708950000000000    0.3768200000000000 C
   0.7621900000000000    0.7961950000000000    0.5000400000000000 C
   0.7264300000000000    0.7583050000000000    0.4401200000000000 C
   0.7868600000000000    0.7883400000000000    0.5600000000000001 C
   0.7381600000000000    0.7040600000000000    0.5000900000000000 C
   0.7739200000000001    0.7419550000000000    0.5600000000000001 C
   0.7134700000000000    0.7119200000000000    0.4401000000000000 C
   0.7107000000000000    0.5175100000000000    0.8766000000000000 C
   0.7890000000000000    0.4825900000000000    0.1233300000000000 C
   0.8349400000000000    0.5792950000000000    0.1232300000000000 C
   0.6650199999999999    0.4208150000000000    0.8767000000000000 C
   0.7619800000000000    0.5461350000000000    0.9999500000000000 C
   0.7262000000000000    0.5082449999999999    0.9400400000000000 C
   0.7866800000000000    0.5382650000000000    0.0599000000000000 C
   0.7737100000000000    0.4918750000000000    0.0599200000000000 C
   0.7379700000000000    0.4539850000000000    0.0000000000000000 C
   0.7132900000000000    0.4618550000000000    0.9399999999999999 C
   0.6650199999999999    0.4207850000000000    0.3767000000000000 C
   0.8349600000000000    0.5793450000000000    0.6232400000000000 C
   0.7890600000000000    0.4826150000000000    0.6233500000000000 C
   0.7106400000000000    0.5175000000000000    0.3765800000000000 C
   0.7380100000000001    0.4540050000000000    0.5000200000000000 C
   0.7132800000000000    0.4618450000000000    0.4400600000000000 C
   0.7737600000000000    0.4919000000000000    0.5599400000000000 C
   0.7619600000000000    0.5461350000000000    0.4999500000000000 C
   0.7867000000000000    0.5382900000000000    0.5599100000000000 C
   0.7261600000000000    0.5082400000000000    0.4400000000000000 C
   0.2890100000000000    0.7326000000000000    0.1233300000000000 C
   0.3349500000000000    0.8293050000000000    0.1232400000000000 C
   0.2107100000000000    0.7675149999999999    0.8766000000000000 C
   0.1650400000000000    0.6708300000000000    0.8767500000000000 C
   0.2132900000000000    0.7118700000000000    0.9400700000000000 C
   0.2380000000000000    0.7040000000000000    0.0000000000000000 C
   0.2737100000000000    0.7418899999999999    0.0599200000000000 C
   0.2619800000000000    0.7961400000000001    0.9999500000000000 C
   0.2262400000000000    0.7582550000000000    0.9400400000000000 C
   0.2867100000000000    0.7882750000000001    0.0599000000000000 C
   0.3349700000000000    0.8293349999999999    0.6232400000000000 C
   0.2890700000000000    0.7326100000000000    0.6233500000000000 C
   0.2106500000000000    0.7674850000000000    0.3765800000000000 C
   0.1650100000000000    0.6707750000000000    0.3767400000000000 C
   0.2619800000000000    0.7961199999999999    0.4999400000000000 C
   0.2261600000000000    0.7582249999999999    0.4400200000000000 C
   0.2867100000000000    0.7882800000000000    0.5599100000000000 C
   0.2380000000000000    0.7039950000000000    0.5000200000000000 C
   0.2737700000000000    0.7418950000000000    0.5599400000000000 C
   0.2132800000000000    0.7118400000000000    0.4400000000000000 C
   0.3350500000000000    0.5793950000000000    0.6233200000000000 C
   0.2892400000000000    0.4826400000000000    0.6234100000000000 C
   0.1651300000000000    0.4208800000000000    0.3768200000000000 C
   0.2110000000000000    0.5175450000000000    0.3766700000000000 C
   0.2621400000000000    0.5461950000000000    0.4000000000000000 C
   0.2381500000000000    0.4540450000000000    0.5000900000000000 C
   0.2134700000000000    0.4619050000000000    0.4401400000000000 C
   0.2739300000000000    0.4919400000000000    0.5600100000000000 C
   0.2621900000000000    0.5461900000000000    0.5000300000000000 C
   0.2868500000000000    0.5383350000000000    0.5599900000000000 C
   0.2264100000000000    0.5082950000000001    0.4401000000000000 C
   0.3350600000000000    0.5794000000000000    0.1233200000000000 C
   0.2108700000000000    0.5175500000000000    0.8766600000000000 C
   0.2893800000000000    0.4826500000000000    0.1234200000000000 C
   0.1651300000000000    0.4208900000000000    0.8768200000000000 C
   0.2382100000000000    0.4540550000000000    0.0000000000000000 C
   0.2134500000000000    0.4619200000000000    0.9401500000000000 C
   0.2739700000000000    0.4919450000000000    0.0600100000000000 C
   0.2263900000000000    0.5083050000000000    0.9401200000000000 C
   0.2868900000000000    0.5383400000000000    0.0599900000000000 C
   0.7108600000000000    0.2675400000000000    0.8766600000000000 C
   0.7134300000000000    0.2119100000000000    0.9401500000000000 C
   0.7381900000000000    0.2040500000000000    0.9000000000000000 C
   0.6651100000000000    0.1708800000000000    0.8768200000000000 C
   0.7263700000000000    0.2582950000000000    0.9401200000000000 C
   0.8350500000000000    0.3293900000000000    0.1233100000000000 C
   0.7621200000000000    0.2961800000000000    0.2000000000000000 C
   0.7893700000000000    0.2326450000000000    0.1234200000000000 C
   0.7739500000000000    0.2419400000000000    0.0600100000000000 C
   0.7868700000000000    0.2883250000000000    0.0599900000000000 C
   0.7892300000000000    0.2326500000000000    0.6234100000000000 C
   0.7110100000000000    0.2675500000000000    0.3766700000000000 C
   0.8350500000000000    0.3294000000000000    0.6233200000000000 C
   0.6651300000000000    0.1708950000000000    0.3768200000000000 C
   0.7621900000000000    0.2961950000000000    0.5000400000000000 C
   0.7264300000000000    0.2583050000000000    0.4401200000000000 C
   0.7868600000000000    0.2883400000000000    0.5600000000000001 C
   0.7381600000000000    0.2040600000000000    0.5000900000000000 C
   0.7739200000000001    0.2419550000000000    0.5600000000000001 C
   0.7134700000000000    0.2119200000000000    0.4401000000000000 C
   0.2986300000000000    0.1149000000000000    0.6312900000000000 O
   0.4111000000000000    0.0755600000000000    0.6619900000000000 O
   0.3338000000000000    0.9512050000000001    0.6310000000000000 O
   0.2514900000000000    0.0057700000000000    0.6620400000000000 O
   0.2012400000000000    0.8852900000000000    0.3687000000000000 O
   0.0891700000000000    0.9248950000000000    0.3382000000000000 O
   0.1663500000000000    0.0489350000000000    0.3686400000000000 O
   0.2487300000000000    0.9943949999999999    0.3380400000000000 O
   0.2986300000000000    0.1149050000000000    0.1312800000000000 O
   0.4111500000000000    0.0755850000000000    0.1619700000000000 O
   0.1662900000000000    0.0489750000000000    0.8686700000000001 O
   0.2485000000000000    0.9943700000000000    0.8379799999999999 O
   0.3338800000000000    0.9511849999999999    0.1313700000000000 O
   0.2517100000000000    0.0057950000000000    0.1620900000000000 O
   0.2012600000000000    0.8853050000000000    0.8687700000000000 O
   0.0891300000000000    0.9248799999999999    0.8382300000000000 O
   0.5889700000000000    0.9247500000000000    0.8381000000000000 O
   0.7012699999999999    0.8852700000000000    0.8687200000000000 O
   0.6662800000000000    0.7989649999999999    0.8686700000000001 O
   0.7484800000000000    0.7443700000000000    0.8379799999999999 O
   0.7012400000000000    0.6353000000000000    0.8687800000000000 O
   0.5891000000000000    0.6748700000000000    0.8382300000000000 O
  -0.0890700000000000    0.0753700000000000    0.1618800000000000 O
   0.7987000000000000    0.1148550000000000    0.1312300000000000 O
   0.3336400000000000    0.2012050000000000    0.1313700000000000 O
   0.2511300000000000    0.2556900000000000    0.1618900000000000 O
   0.2987100000000000    0.3648650000000000    0.1312300000000000 O
   0.4109600000000000    0.3253900000000000    0.1618800000000000 O
   0.1662000000000000    0.2989750000000000    0.8686500000000000 O
   0.2482500000000000    0.2443250000000000    0.8378800000000000 O
   0.2012700000000000    0.1352750000000000    0.8687200000000000 O
   0.0889800000000000    0.1747650000000000    0.8381500000000000 O
   0.2986500000000000    0.3648700000000000    0.6312300000000000 O
   0.4109900000000000    0.3254550000000000    0.6619000000000000 O
   0.3337000000000000    0.2012100000000000    0.6313800000000001 O
   0.2512400000000000    0.2557150000000000    0.6619300000000000 O
   0.1661400000000000    0.2989450000000000    0.3686000000000000 O
   0.2481700000000000    0.2442950000000000    0.3378400000000000 O
   0.2013400000000000    0.1352500000000000    0.3687200000000000 O
   0.0889300000000000    0.1746550000000000    0.3381300000000000 O
   0.7482500000000000    0.9943150000000001    0.8378700000000000 O
   0.6661800000000000    0.0489650000000000    0.8686500000000000 O
   0.7013300000000000    0.8852550000000000    0.3687200000000000 O
   0.5889300000000000    0.9246750000000000    0.3381400000000000 O
   0.7986400000000000    0.1148850000000000    0.6312300000000000 O
   0.9109900000000000    0.0754700000000000    0.6619000000000000 O
   0.8336900000000000    0.9512149999999999    0.6313800000000001 O
   0.7512200000000000    0.0057200000000000    0.6619300000000000 O
   0.6661400000000000    0.0489600000000000    0.3686400000000000 O
   0.7481700000000000    0.9942949999999999    0.3378500000000000 O
   0.7986200000000000    0.8648950000000000    0.1312800000000000 O
   0.9111399999999999    0.8255700000000000    0.1619700000000000 O
   0.7517100000000000    0.7557900000000000    0.1620900000000000 O
   0.8338600000000000    0.7011800000000000    0.1313700000000000 O
   0.8336400000000000    0.9511950000000000    0.1313700000000000 O
   0.7511300000000000    0.0056900000000000    0.1618900000000000 O
   0.8337900000000000    0.7012150000000000    0.6314000000000000 O
   0.7514900000000000    0.7557700000000001    0.6620400000000000 O
   0.6663600000000000    0.7989450000000000    0.3686400000000000 O
   0.7487300000000000    0.7444050000000000    0.3380500000000000 O
   0.7986300000000000    0.8649050000000000    0.6312900000000000 O
   0.9111000000000000    0.8255650000000000    0.6620000000000000 O
   0.7012400000000000    0.6353050000000000    0.3687700000000000 O
   0.5891700000000000    0.6749100000000000    0.3382000000000000 O
   0.6661800000000000    0.5489650000000000    0.8686500000000000 O
   0.7482500000000000    0.4943150000000000    0.8378700000000000 O
   0.8336400000000000    0.4511950000000000    0.1313700000000000 O
   0.7511300000000000    0.5056900000000000    0.1618900000000000 O
   0.7987000000000000    0.6148550000000000    0.1312300000000000 O
   0.9109300000000000    0.5753700000000000    0.1618800000000000 O
   0.7012699999999999    0.3852700000000000    0.8687200000000000 O
   0.5889700000000000    0.4247500000000000    0.8381000000000000 O
   0.7013300000000000    0.3852550000000000    0.3687200000000000 O
   0.5889300000000000    0.4246750000000000    0.3381400000000000 O
   0.7986400000000000    0.6148850000000000    0.6312300000000000 O
   0.9109900000000000    0.5754700000000000    0.6619000000000000 O
   0.8336900000000000    0.4512150000000000    0.6313800000000001 O
   0.7512200000000000    0.5057199999999999    0.6619300000000000 O
   0.6661400000000000    0.5489600000000000    0.3686400000000000 O
   0.7481700000000000    0.4942950000000000    0.3378500000000000 O
   0.3336400000000000    0.7012050000000000    0.1313700000000000 O
   0.2511300000000000    0.7556900000000000    0.1618900000000000 O
   0.2987100000000000    0.8648650000000000    0.1312300000000000 O
   0.4109600000000000    0.8253900000000001    0.1618800000000000 O
   0.1662000000000000    0.7989750000000000    0.8686500000000000 O
   0.2482500000000000    0.7443250000000000    0.8378800000000000 O
   0.2012700000000000    0.6352750000000000    0.8687200000000000 O
   0.0889800000000000    0.6747650000000001    0.8381500000000000 O
   0.2986500000000000    0.8648700000000000    0.6312300000000000 O
   0.4109900000000000    0.8254550000000000    0.6619000000000000 O
   0.3337000000000000    0.7012100000000000    0.6313800000000001 O
   0.2512400000000000    0.7557150000000000    0.6619300000000000 O
   0.1661400000000000    0.7989450000000000    0.3686000000000000 O
   0.2481700000000000    0.7442950000000000    0.3378400000000000 O
   0.2013400000000000    0.6352500000000000    0.3687200000000000 O
   0.0889300000000000    0.6746550000000000    0.3381300000000000 O
   0.2986300000000000    0.6149000000000000    0.6312900000000000 O
   0.4111000000000000    0.5755600000000000    0.6619900000000000 O
   0.3338000000000000    0.4512050000000000    0.6310000000000000 O
   0.2514900000000000    0.5057700000000001    0.6620400000000000 O
   0.2012400000000000    0.3852900000000000    0.3687000000000000 O
   0.0891700000000000    0.4248950000000000    0.3382000000000000 O
   0.1663500000000000    0.5489350000000000    0.3686400000000000 O
   0.2487300000000000    0.4943950000000000    0.3380400000000000 O
   0.2986300000000000    0.6149050000000000    0.1312800000000000 O
   0.4111500000000000    0.5755850000000000    0.1619700000000000 O
   0.1662900000000000    0.5489750000000000    0.8686700000000001 O
   0.2485000000000000    0.4943700000000000    0.8379799999999999 O
   0.3338800000000000    0.4511850000000000    0.1313700000000000 O
   0.2517100000000000    0.5057950000000000    0.1620900000000000 O
   0.2012600000000000    0.3853050000000000    0.8687700000000000 O
   0.0891300000000000    0.4248800000000000    0.8382300000000000 O
   0.6662800000000000    0.2989650000000000    0.8686700000000001 O
   0.7484800000000000    0.2443700000000000    0.8379799999999999 O
   0.7012400000000000    0.1353000000000000    0.8687800000000000 O
   0.5891000000000000    0.1748700000000000    0.8382300000000000 O
   0.7986200000000000    0.3648950000000000    0.1312800000000000 O
   0.9111399999999999    0.3255700000000000    0.1619700000000000 O
   0.7517100000000000    0.2557900000000000    0.1620900000000000 O
   0.8338600000000000    0.2011800000000000    0.1313700000000000 O
   0.8337900000000000    0.2012150000000000    0.6314000000000000 O
   0.7514900000000000    0.2557700000000000    0.6620400000000000 O
   0.6663600000000000    0.2989450000000000    0.3686400000000000 O
   0.7487300000000000    0.2444050000000000    0.3380500000000000 O
   0.7986300000000000    0.3649050000000000    0.6312900000000000 O
   0.9111000000000000    0.3255650000000000    0.6620000000000000 O
   0.7012400000000000    0.1353050000000000    0.3687700000000000 O
   0.5891700000000000    0.1749100000000000    0.3382000000000000 O
