H8 C12 N2
1.0
  14.8259999796768405    0.0000000000000000    0.0007762875443462
   0.0003449065428875   20.7379479518030791   -6.5872297386189604
   0.0000000000000000    0.0000000000000000   25.4959999999999987
H C N
8 12 2
direct
   0.0000000000000000    0.4854100000000000    0.8782250000000000 H
   0.0000100000000000    0.3999400000000000    0.7861750000000001 H
   0.0000000000000000    0.2578500000000000    0.8739000000000000 H
   0.0000000000000000    0.3494000000000000    0.9612849999999999 H
   0.0000000000000000    0.0143800000000000    0.6218200000000000 H
   0.0000000000000000    0.1001000000000000    0.7137000000000000 H
   0.0000000000000000    0.2417400000000000    0.6255600000000000 H
   0.0000000000000000    0.1499600000000000    0.5383300000000000 H
   0.0000000000000000    0.4342500000000000    0.8748000000000000 C
   0.0000000000000000    0.3868300000000000    0.8241000000000001 C
   0.0000100000000000    0.3214400000000000    0.8223849999999999 C
   0.0000000000000000    0.2715000000000000    0.7716550000000000 C
   0.0000000000000000    0.3075100000000000    0.8728950000000000 C
   0.0000000000000000    0.3582000000000000    0.9214700000000000 C
   0.9999900000000000    0.0655100000000000    0.6251100000000001 C
   0.0000100000000000    0.1130600000000000    0.6757000000000000 C
   0.9999900000000000    0.1784000000000000    0.6772850000000000 C
   0.0000000000000000    0.2284500000000000    0.7279500000000000 C
   0.0000100000000000    0.1921400000000000    0.6266950000000000 C
   0.9999900000000000    0.1413100000000000    0.5782050000000000 C
   0.0000000000000000    0.4204800000000000    0.9228600000000000 N
   0.0000100000000000    0.0790900000000000    0.5769700000000000 N
