Zn8 H88 C180 N46
1.0
  14.8259999796768405    0.0000000000000000    0.0007762875443462
   0.0003449065428875   20.7379479518030791   -6.5872297386189604
   0.0000000000000000    0.0000000000000000   25.4959999999999987
Zn H C N
8 88 180 46
direct
   0.0000000000000000    0.4991700000000000    0.0000000000000000 Zn
   0.5000000000000000    0.9999900000000000    0.0001050000000000 Zn
   0.5000000000000000    0.5008000000000000    0.4999750000000000 Zn
   0.0000000000000000    0.0000000000000000    0.4998500000000000 Zn
   0.0000000000000000    0.4991700000000000    0.5000000000000000 Zn
   0.5000000000000000    0.9999900000000000    0.5001050000000000 Zn
   0.5000000000000000    0.5008000000000000    0.9999750000000001 Zn
   0.0000000000000000    0.0000000000000000    0.9998500000000000 Zn
   0.1051800000000000    0.3089800000000000    0.0107300000000000 H
   0.1045600000000000    0.8090600000000000    0.0108900000000000 H
   0.6043800000000000    0.3087700000000000    0.0104500000000000 H
   0.6050100000000000    0.8088300000000000    0.0106500000000000 H
   0.1050100000000000    0.1911200000000000    0.4893200000000000 H
   0.1043900000000000    0.6911900000000000    0.4894900000000000 H
   0.6045600000000000    0.1909000000000000    0.4890800000000000 H
   0.6051800000000001    0.6909800000000000    0.4892450000000000 H
   0.3954400000000000    0.1909000000000000    0.4890900000000000 H
   0.3948200000000000    0.6909800000000000    0.4892550000000000 H
   0.8949900000000000    0.1911300000000000    0.4893300000000000 H
   0.8956100000000000    0.6911900000000000    0.4894950000000000 H
   0.3956100000000000    0.3087700000000000    0.0100000000000000 H
   0.3949900000000000    0.8088400000000000    0.0106600000000000 H
   0.8948100000000000    0.3089800000000000    0.0107400000000000 H
   0.8954299999999999    0.8090600000000000    0.0109000000000000 H
   0.0000000000000000    0.4854100000000000    0.3782250000000000 H
   0.0000000000000000    0.9854900000000000    0.3778000000000000 H
   0.4999900000000000    0.4859600000000000    0.3775000000000000 H
   0.5000000000000000    0.9855900000000000    0.3781500000000000 H
   0.0000100000000000    0.3999400000000000    0.2861750000000000 H
   0.0000100000000000    0.8997600000000000    0.2859000000000000 H
   0.5000000000000000    0.4001200000000000    0.2859750000000000 H
   0.5000000000000000    0.8998699999999999    0.2862500000000000 H
   0.0000000000000000    0.2578500000000000    0.3739000000000000 H
   0.0000100000000000    0.7581700000000000    0.3741450000000000 H
   0.5000000000000000    0.2587300000000000    0.3744000000000000 H
   0.4999900000000000    0.7582300000000000    0.3744250000000000 H
   0.0000000000000000    0.3494000000000000    0.4612850000000000 H
   0.0000000000000000    0.8499600000000000    0.4613400000000000 H
   0.4999900000000000    0.3506300000000000    0.4615300000000000 H
   0.5000000000000000    0.8500200000000000    0.4616550000000000 H
   0.0000000000000000    0.0143800000000000    0.1218200000000000 H
   0.0000100000000000    0.5140100000000000    0.1221500000000000 H
   0.5000000000000000    0.0144800000000000    0.1221800000000000 H
   0.5000000000000000    0.5145500000000000    0.1217650000000000 H
   0.0000000000000000    0.1001000000000000    0.2137000000000000 H
   0.0000000000000000    0.5998500000000000    0.2140150000000000 H
   0.4999900000000000    0.1002100000000000    0.2140650000000000 H
   0.5000000000000000    0.6000300000000000    0.2138150000000000 H
   0.0000000000000000    0.2417400000000000    0.1255600000000000 H
   0.0000000000000000    0.7412400000000000    0.1255800000000000 H
   0.5000000000000000    0.2418000000000000    0.1258350000000000 H
   0.5000000000000000    0.7421100000000000    0.1260850000000000 H
   0.0000000000000000    0.1499600000000000    0.0383300000000000 H
   0.0000100000000000    0.6493300000000000    0.0384550000000000 H
   0.5000000000000000    0.1500100000000000    0.0386400000000000 H
   0.5000000000000000    0.6505600000000000    0.0387000000000000 H
   0.1051800000000000    0.3089800000000000    0.5107300000000000 H
   0.1045600000000000    0.8090600000000000    0.5108900000000000 H
   0.6043800000000000    0.3087700000000000    0.5104500000000000 H
   0.6050100000000000    0.8088300000000000    0.5106500000000000 H
   0.1050100000000000    0.1911200000000000    0.9893200000000000 H
   0.1043900000000000    0.6911900000000000    0.9894900000000000 H
   0.6045600000000000    0.1909000000000000    0.9890800000000000 H
   0.6051800000000001    0.6909800000000000    0.9892449999999999 H
   0.3954400000000000    0.1909000000000000    0.9890900000000000 H
   0.3948200000000000    0.6909800000000000    0.9892550000000000 H
   0.8949900000000000    0.1911300000000000    0.9893300000000000 H
   0.8956100000000000    0.6911900000000000    0.9894950000000000 H
   0.3956100000000000    0.3087700000000000    0.5100000000000000 H
   0.3949900000000000    0.8088400000000000    0.5106600000000000 H
   0.8948100000000000    0.3089800000000000    0.5107400000000000 H
   0.8954299999999999    0.8090600000000000    0.5109000000000000 H
   0.0000000000000000    0.9854900000000000    0.8778000000000000 H
   0.4999900000000000    0.4859600000000000    0.8774999999999999 H
   0.5000000000000000    0.9855900000000000    0.8781500000000000 H
   0.0000100000000000    0.8997600000000000    0.7859000000000000 H
   0.5000000000000000    0.4001200000000000    0.7859750000000000 H
   0.5000000000000000    0.8998699999999999    0.7862500000000000 H
   0.0000100000000000    0.7581700000000000    0.8741449999999999 H
   0.5000000000000000    0.2587300000000000    0.8744000000000001 H
   0.4999900000000000    0.7582300000000000    0.8744250000000000 H
   0.0000000000000000    0.8499600000000000    0.9613400000000000 H
   0.4999900000000000    0.3506300000000000    0.9615300000000000 H
   0.5000000000000000    0.8500200000000000    0.9616549999999999 H
   0.0000100000000000    0.5140100000000000    0.6221500000000000 H
   0.5000000000000000    0.0144800000000000    0.6221800000000000 H
   0.5000000000000000    0.5145500000000000    0.6217650000000000 H
   0.0000000000000000    0.5998500000000000    0.7140150000000001 H
   0.4999900000000000    0.1002100000000000    0.7140649999999999 H
   0.5000000000000000    0.6000300000000000    0.7138150000000000 H
   0.0000000000000000    0.7412400000000000    0.6255800000000000 H
   0.5000000000000000    0.2418000000000000    0.6258350000000000 H
   0.5000000000000000    0.7421100000000000    0.6260850000000000 H
   0.0000100000000000    0.6493300000000000    0.5384550000000000 H
   0.5000000000000000    0.1500100000000000    0.5386400000000000 H
   0.5000000000000000    0.6505600000000000    0.5387000000000000 H
   0.1706200000000000    0.4237100000000000    0.0287050000000000 C
   0.1703000000000000    0.9239400000000000    0.0286500000000000 C
   0.6700800000000000    0.4240100000000000    0.0285750000000000 C
   0.6704000000000000    0.9238800000000000    0.0287450000000000 C
   0.1693600000000000    0.2833500000000000    0.0058200000000000 C
   0.1687400000000000    0.7834200000000000    0.0059850000000000 C
   0.6686299999999999    0.2832400000000000    0.0056950000000000 C
   0.6692600000000000    0.7833000000000000    0.0058550000000000 C
   0.1704100000000000    0.0760900000000000    0.4712300000000000 C
   0.1700900000000000    0.5759600000000000    0.4714000000000000 C
   0.6703000000000000    0.0760200000000000    0.4713250000000000 C
   0.6706200000000000    0.5762500000000000    0.4712800000000000 C
   0.1692700000000000    0.2166600000000000    0.4941250000000000 C
   0.1686400000000000    0.7167300000000000    0.4942850000000000 C
   0.6687300000000000    0.2165400000000000    0.4939900000000000 C
   0.6693600000000000    0.7166200000000000    0.4941500000000000 C
   0.3297100000000000    0.0760300000000000    0.4713250000000000 C
   0.3293800000000000    0.5762500000000000    0.4712850000000000 C
   0.8295900000000000    0.0760900000000000    0.4712300000000000 C
   0.8299100000000000    0.5759600000000000    0.4714150000000000 C
   0.3312600000000000    0.2165400000000000    0.4940000000000000 C
   0.3306400000000000    0.7166200000000000    0.4941600000000000 C
   0.8307300000000000    0.2166600000000000    0.4941250000000000 C
   0.8313600000000000    0.7167300000000000    0.4942900000000000 C
   0.3299100000000000    0.4240100000000000    0.0285750000000000 C
   0.3295900000000000    0.9238800000000000    0.0287450000000000 C
   0.8293700000000001    0.4237200000000000    0.0287000000000000 C
   0.8296900000000000    0.9239400000000000    0.0286500000000000 C
   0.3313600000000000    0.2832400000000000    0.0056950000000000 C
   0.3307300000000000    0.7833000000000000    0.0058650000000000 C
   0.8306300000000000    0.2833500000000000    0.0058300000000000 C
   0.8312500000000000    0.7834200000000000    0.0059850000000000 C
   0.2503800000000000    0.3890700000000000    0.0234550000000000 C
   0.2499000000000000    0.8891300000000000    0.0235550000000000 C
   0.7496000000000000    0.3890700000000000    0.0234600000000000 C
   0.7500900000000000    0.8891300000000000    0.0235550000000000 C
   0.2504000000000000    0.3185600000000000    0.0117500000000000 C
   0.2497900000000000    0.8186200000000000    0.0119000000000000 C
   0.7495800000000000    0.3185500000000000    0.0117600000000000 C
   0.7502100000000000    0.8186200000000000    0.0119050000000000 C
   0.2501000000000000    0.1108300000000000    0.4764200000000000 C
   0.2496200000000000    0.6108900000000000    0.4765300000000000 C
   0.7499100000000000    0.1108300000000000    0.4764200000000000 C
   0.7503900000000000    0.6108900000000000    0.4765000000000000 C
   0.2502200000000000    0.1813400000000000    0.4880750000000000 C
   0.2496000000000000    0.6814100000000000    0.4882000000000000 C
   0.7497800000000000    0.1813400000000000    0.4880750000000000 C
   0.7504100000000000    0.6814100000000000    0.4882000000000000 C
   0.0000000000000000    0.4342500000000000    0.3748000000000000 C
   0.0000400000000000    0.9343700000000000    0.3745350000000000 C
   0.5000200000000000    0.4348600000000000    0.3745950000000000 C
   0.5000000000000000    0.9344600000000000    0.3748700000000000 C
   0.0000000000000000    0.3868300000000000    0.3241000000000000 C
   0.9999700000000000    0.8868000000000000    0.3239500000000000 C
   0.4999800000000000    0.3872300000000000    0.3240400000000000 C
   0.5000000000000000    0.8869100000000000    0.3242800000000000 C
   0.0000100000000000    0.3214400000000000    0.3223850000000000 C
   0.0000400000000000    0.8214600000000000    0.3223700000000000 C
   0.5000200000000000    0.3219100000000000    0.3225350000000000 C
   0.4999900000000000    0.8215700000000000    0.3225000000000000 C
   0.0000000000000000    0.2715000000000000    0.2716550000000000 C
   0.9999900000000000    0.7713600000000000    0.2717200000000000 C
   0.4999900000000000    0.2717700000000000    0.2719100000000000 C
   0.5000000000000000    0.7715200000000000    0.2720350000000000 C
   0.0000000000000000    0.3075100000000000    0.3728950000000000 C
   0.9999700000000000    0.8077700000000000    0.3729850000000000 C
   0.4999800000000000    0.3083000000000000    0.3731850000000000 C
   0.5000000000000000    0.8078400000000000    0.3732900000000000 C
   0.0000000000000000    0.3582000000000000    0.4214700000000000 C
   0.0000000000000000    0.8586100000000000    0.4214650000000000 C
   0.5000200000000000    0.3592000000000000    0.4216250000000000 C
   0.4999900000000000    0.8586600000000000    0.4217800000000000 C
   0.9999900000000000    0.0655100000000000    0.1251100000000000 C
   0.9999600000000000    0.5651100000000000    0.1253950000000000 C
   0.4999900000000000    0.0656000000000000    0.1254450000000000 C
   0.5000100000000000    0.5657100000000000    0.1251900000000000 C
   0.0000100000000000    0.1130600000000000    0.1757000000000000 C
   0.0000400000000000    0.6127400000000000    0.1755000000000000 C
   0.5000000000000000    0.1131700000000000    0.1760300000000000 C
   0.4999900000000000    0.6131300000000000    0.1758500000000000 C
   0.9999900000000000    0.1784000000000000    0.1772850000000000 C
   0.9999600000000000    0.6780600000000000    0.1774500000000000 C
   0.4999900000000000    0.1785100000000000    0.1776100000000000 C
   0.5000100000000000    0.6785300000000000    0.1776000000000000 C
   0.0000000000000000    0.2284500000000000    0.2279500000000000 C
   0.0000200000000000    0.7282000000000000    0.2280750000000000 C
   0.5000000000000000    0.2286100000000000    0.2282600000000000 C
   0.4999900000000000    0.7284700000000000    0.2283300000000000 C
   0.0000100000000000    0.1921400000000000    0.1266950000000000 C
   0.0000400000000000    0.6916600000000001    0.1268000000000000 C
   0.5000000000000000    0.1922000000000000    0.1269950000000000 C
   0.4999900000000000    0.6924500000000000    0.1270900000000000 C
   0.9999900000000000    0.1413100000000000    0.0782050000000000 C
   0.9999600000000000    0.6407600000000000    0.0783600000000000 C
   0.4999900000000000    0.1413600000000000    0.0785150000000000 C
   0.5000100000000000    0.6417600000000000    0.0785150000000000 C
   0.1706200000000000    0.4237100000000000    0.5287050000000000 C
   0.1703000000000000    0.9239400000000000    0.5286500000000000 C
   0.6700800000000000    0.4240100000000000    0.5285750000000000 C
   0.6704000000000000    0.9238800000000000    0.5287450000000000 C
   0.1693600000000000    0.2833500000000000    0.5058200000000000 C
   0.1687400000000000    0.7834200000000000    0.5059850000000000 C
   0.6686299999999999    0.2832400000000000    0.5056950000000000 C
   0.6692600000000000    0.7833000000000000    0.5058550000000001 C
   0.1704100000000000    0.0760900000000000    0.9712300000000000 C
   0.1700900000000000    0.5759600000000000    0.9714000000000000 C
   0.6703000000000000    0.0760200000000000    0.9713250000000000 C
   0.6706200000000000    0.5762500000000000    0.9712799999999999 C
   0.1692700000000000    0.2166600000000000    0.9941249999999999 C
   0.1686400000000000    0.7167300000000000    0.9942850000000000 C
   0.6687300000000000    0.2165400000000000    0.9939899999999999 C
   0.6693600000000000    0.7166200000000000    0.9941500000000000 C
   0.3297100000000000    0.0760300000000000    0.9713250000000000 C
   0.3293800000000000    0.5762500000000000    0.9712850000000000 C
   0.8295900000000000    0.0760900000000000    0.9712300000000000 C
   0.8299100000000000    0.5759600000000000    0.9714149999999999 C
   0.3312600000000000    0.2165400000000000    0.9940000000000000 C
   0.3306400000000000    0.7166200000000000    0.9941599999999999 C
   0.8307300000000000    0.2166600000000000    0.9941249999999999 C
   0.8313600000000000    0.7167300000000000    0.9942900000000000 C
   0.3299100000000000    0.4240100000000000    0.5285750000000000 C
   0.3295900000000000    0.9238800000000000    0.5287450000000000 C
   0.8293700000000001    0.4237200000000000    0.5286999999999999 C
   0.8296900000000000    0.9239400000000000    0.5286500000000000 C
   0.3313600000000000    0.2832400000000000    0.5056950000000000 C
   0.3307300000000000    0.7833000000000000    0.5058650000000000 C
   0.8306300000000000    0.2833500000000000    0.5058300000000000 C
   0.8312500000000000    0.7834200000000000    0.5059850000000000 C
   0.2503800000000000    0.3890700000000000    0.5234550000000000 C
   0.2499000000000000    0.8891300000000000    0.5235550000000000 C
   0.7496000000000000    0.3890700000000000    0.5234600000000000 C
   0.7500900000000000    0.8891300000000000    0.5235550000000000 C
   0.2504000000000000    0.3185600000000000    0.5117500000000000 C
   0.2497900000000000    0.8186200000000000    0.5119000000000000 C
   0.7495800000000000    0.3185500000000000    0.5117600000000000 C
   0.7502100000000000    0.8186200000000000    0.5119050000000001 C
   0.2501000000000000    0.1108300000000000    0.9764200000000001 C
   0.2496200000000000    0.6108900000000000    0.9765300000000000 C
   0.7499100000000000    0.1108300000000000    0.9764200000000001 C
   0.7503900000000000    0.6108900000000000    0.9764999999999999 C
   0.2502200000000000    0.1813400000000000    0.9880750000000000 C
   0.2496000000000000    0.6814100000000000    0.9882000000000000 C
   0.7497800000000000    0.1813400000000000    0.9880750000000000 C
   0.7504100000000000    0.6814100000000000    0.9882000000000000 C
   0.0000400000000000    0.9343700000000000    0.8745350000000001 C
   0.5000200000000000    0.4348600000000000    0.8745950000000000 C
   0.5000000000000000    0.9344600000000000    0.8748700000000000 C
   0.9999700000000000    0.8868000000000000    0.8239500000000000 C
   0.4999800000000000    0.3872300000000000    0.8240400000000000 C
   0.5000000000000000    0.8869100000000000    0.8242800000000000 C
   0.0000400000000000    0.8214600000000000    0.8223700000000000 C
   0.5000200000000000    0.3219100000000000    0.8225350000000000 C
   0.4999900000000000    0.8215700000000000    0.8225000000000000 C
   0.9999900000000000    0.7713600000000000    0.7717200000000000 C
   0.4999900000000000    0.2717700000000000    0.7719100000000000 C
   0.5000000000000000    0.7715200000000000    0.7720350000000000 C
   0.9999700000000000    0.8077700000000000    0.8729850000000000 C
   0.4999800000000000    0.3083000000000000    0.8731850000000000 C
   0.5000000000000000    0.8078400000000000    0.8732900000000000 C
   0.0000000000000000    0.8586100000000000    0.9214650000000000 C
   0.5000200000000000    0.3592000000000000    0.9216250000000000 C
   0.4999900000000000    0.8586600000000000    0.9217800000000000 C
   0.9999600000000000    0.5651100000000000    0.6253950000000000 C
   0.4999900000000000    0.0656000000000000    0.6254450000000000 C
   0.5000100000000000    0.5657100000000000    0.6251900000000000 C
   0.0000400000000000    0.6127400000000000    0.6755000000000000 C
   0.5000000000000000    0.1131700000000000    0.6760300000000000 C
   0.4999900000000000    0.6131300000000000    0.6758500000000001 C
   0.9999600000000000    0.6780600000000000    0.6774500000000000 C
   0.4999900000000000    0.1785100000000000    0.6776100000000000 C
   0.5000100000000000    0.6785300000000000    0.6776000000000000 C
   0.0000200000000000    0.7282000000000000    0.7280750000000000 C
   0.5000000000000000    0.2286100000000000    0.7282600000000000 C
   0.4999900000000000    0.7284700000000000    0.7283300000000000 C
   0.0000400000000000    0.6916600000000001    0.6268000000000000 C
   0.5000000000000000    0.1922000000000000    0.6269950000000000 C
   0.4999900000000000    0.6924500000000000    0.6270900000000000 C
   0.9999600000000000    0.6407600000000000    0.5783600000000000 C
   0.4999900000000000    0.1413600000000000    0.5785150000000000 C
   0.5000100000000000    0.6417600000000000    0.5785150000000000 C
   0.1016000000000000    0.4519800000000000    0.0338700000000000 N
   0.1014800000000000    0.9524200000000000    0.0336750000000000 N
   0.6014699999999999    0.4527500000000000    0.0336300000000000 N
   0.6015700000000000    0.9523600000000000    0.0338600000000000 N
   0.1015800000000000    0.0476000000000000    0.4661150000000000 N
   0.1014900000000000    0.5472100000000000    0.4663500000000000 N
   0.6014800000000000    0.0475400000000000    0.4663000000000000 N
   0.6016100000000000    0.5479800000000000    0.4661150000000000 N
   0.3985200000000000    0.0475400000000000    0.4663000000000000 N
   0.3984000000000000    0.5479800000000000    0.4661200000000000 N
   0.8984300000000000    0.0476100000000000    0.4661150000000000 N
   0.8985200000000000    0.5472100000000000    0.4663600000000000 N
   0.3985100000000000    0.4527500000000000    0.0336350000000000 N
   0.3984200000000000    0.9523600000000000    0.0338650000000000 N
   0.8983800000000000    0.4519800000000000    0.0338500000000000 N
   0.8985000000000000    0.9524300000000000    0.0336800000000000 N
   0.0000000000000000    0.4204800000000000    0.4228600000000000 N
   0.9999800000000000    0.9208400000000000    0.4226950000000000 N
   0.4999800000000000    0.4214100000000000    0.4227500000000000 N
   0.5000000000000000    0.9208800000000000    0.4230100000000000 N
   0.0000100000000000    0.0790900000000000    0.0769700000000000 N
   0.0000300000000000    0.5785600000000000    0.0772000000000000 N
   0.5000000000000000    0.0791300000000000    0.0772850000000000 N
   0.4999900000000000    0.5794800000000000    0.0771300000000000 N
   0.1016000000000000    0.4519800000000000    0.5338700000000000 N
   0.1014800000000000    0.9524200000000000    0.5336750000000000 N
   0.6014699999999999    0.4527500000000000    0.5336300000000000 N
   0.6015700000000000    0.9523600000000000    0.5338600000000000 N
   0.1015800000000000    0.0476000000000000    0.9661150000000001 N
   0.1014900000000000    0.5472100000000000    0.9663500000000000 N
   0.6014800000000000    0.0475400000000000    0.9662999999999999 N
   0.6016100000000000    0.5479800000000000    0.9661150000000001 N
   0.3985200000000000    0.0475400000000000    0.9662999999999999 N
   0.3984000000000000    0.5479800000000000    0.9661200000000000 N
   0.8984300000000000    0.0476100000000000    0.9661150000000001 N
   0.8985200000000000    0.5472100000000000    0.9663600000000000 N
   0.3985100000000000    0.4527500000000000    0.5336350000000000 N
   0.3984200000000000    0.9523600000000000    0.5338650000000000 N
   0.8983800000000000    0.4519800000000000    0.5338500000000000 N
   0.8985000000000000    0.9524300000000000    0.5336800000000000 N
   0.9999800000000000    0.9208400000000000    0.9226950000000000 N
   0.4999800000000000    0.4214100000000000    0.9227500000000000 N
   0.5000000000000000    0.9208800000000000    0.9230100000000000 N
   0.0000300000000000    0.5785600000000000    0.5772000000000000 N
   0.5000000000000000    0.0791300000000000    0.5772850000000000 N
   0.4999900000000000    0.5794800000000000    0.5771300000000000 N
