H5 O3
1.0
  27.7647400391246997    0.0000000000000000   10.3123777355091910
   6.9063604720687382   19.8523512157681417    2.5626082875920764
   0.0000000000000000    0.0000000000000000   21.1720000000000006
H O
5 3
direct
   0.6853671729964643    0.4667283316870523    0.2117086632752810 H
   0.6520253454618994    0.5473377280633742    0.2029227802978281 H
   0.6078056702687693    0.4353520841559614    0.4266417766578935 H
   0.5600745537503461    0.5717081319164667    0.4160883422840735 H
   0.6730986771457614    0.5012562709159197    0.4635522160733091 H
   0.6811700000000001    0.5073299999999999    0.1838000000000000 O
   0.5775950000000000    0.4479500000000000    0.4134000000000000 O
   0.5361600000000000    0.5583600000000000    0.4035300000000000 O
