Zn32 H92 C184 O100
1.0
  31.9602028506849010    0.0000000000000000   18.3430622782313222
   5.3109123408596162   15.0783344869568499    9.1788014036230674
   0.0000000000000000    0.0000000000000000   36.8680000000000021
Zn H C O
32 92 184 100
direct
   0.1902400000000000    0.2066300000000000    0.1033150000000000 Zn
   0.1031900000000000    0.2063500000000000    0.1031500000000000 Zn
   0.1032950000000000    0.2067300000000000    0.1902350000000000 Zn
   0.3097750000000000    0.7933700000000000    0.3966750000000000 Zn
   0.3967150000000000    0.6195300000000000    0.3966250000000000 Zn
   0.3968200000000000    0.7936400000000000    0.3968250000000000 Zn
   0.3967150000000000    0.7932700000000000    0.3097500000000000 Zn
   0.1032950000000000    0.3804600000000000    0.1033650000000000 Zn
   0.6902400000000000    0.2066300000000000    0.1033150000000000 Zn
   0.6031900000000000    0.2063500000000000    0.1031500000000000 Zn
   0.6032950000000000    0.2067300000000000    0.1902350000000000 Zn
   0.8097750000000000    0.7933700000000000    0.3966750000000000 Zn
   0.8967149999999999    0.6195300000000000    0.3966250000000000 Zn
   0.8968200000000000    0.7936400000000000    0.3968250000000000 Zn
   0.8967149999999999    0.7932700000000000    0.3097500000000000 Zn
   0.6032950000000000    0.3804600000000000    0.1033650000000000 Zn
   0.1902400000000000    0.2066300000000000    0.6033150000000000 Zn
   0.1031900000000000    0.2063500000000000    0.6031500000000000 Zn
   0.1032950000000000    0.2067300000000000    0.6902349999999999 Zn
   0.3097750000000000    0.7933700000000000    0.8966750000000000 Zn
   0.3967150000000000    0.6195300000000000    0.8966250000000000 Zn
   0.3968200000000000    0.7936400000000000    0.8968250000000000 Zn
   0.3967150000000000    0.7932700000000000    0.8097500000000000 Zn
   0.1032950000000000    0.3804600000000000    0.6033650000000000 Zn
   0.6902400000000000    0.2066300000000000    0.6033150000000000 Zn
   0.6031900000000000    0.2063500000000000    0.6031500000000000 Zn
   0.6032950000000000    0.2067300000000000    0.6902349999999999 Zn
   0.8097750000000000    0.7933700000000000    0.8966750000000000 Zn
   0.8967149999999999    0.6195300000000000    0.8966250000000000 Zn
   0.8968200000000000    0.7936400000000000    0.8968250000000000 Zn
   0.8967149999999999    0.7932700000000000    0.8097500000000000 Zn
   0.6032950000000000    0.3804600000000000    0.6033650000000000 Zn
   0.0241500000000000    0.5679999999999999    0.0242800000000000 H
   0.2840700000000000    0.0480400000000000    0.1678250000000000 H
   0.0239850000000000    0.3356800000000000    0.0237500000000000 H
   0.1678100000000000    0.0483500000000000    0.2840900000000000 H
   0.0239800000000000    0.0475900000000000    0.1678350000000000 H
   0.2840700000000000    0.3356700000000000    0.0240150000000000 H
   0.0241500000000000    0.0485500000000000    0.2840000000000000 H
   0.1678100000000000    0.5681700000000000    0.0241750000000000 H
   0.0240850000000000    0.3356700000000000    0.2840850000000000 H
   0.2840700000000000    0.0483700000000000    0.0241850000000000 H
   0.0240900000000000    0.5681500000000000    0.1678250000000000 H
   0.1678150000000000    0.0477900000000000    0.0238850000000000 H
   0.2159450000000000    0.9516300000000000    0.4758050000000000 H
   0.4759250000000000    0.4318400000000000    0.3321650000000000 H
   0.3321950000000000    0.9522100000000000    0.4761050000000000 H
   0.4759250000000000    0.6643300000000000    0.2159050000000000 H
   0.3322000000000000    0.4318200000000000    0.4758150000000000 H
   0.2159450000000000    0.6643300000000000    0.4759750000000000 H
   0.3322050000000000    0.9516500000000000    0.2159050000000000 H
   0.4758600000000000    0.4320000000000000    0.4757100000000000 H
   0.2159450000000000    0.9519500000000000    0.3321650000000000 H
   0.4760300000000000    0.6643100000000000    0.4762100000000000 H
   0.5241500000000000    0.5679999999999999    0.0242800000000000 H
   0.7840700000000000    0.0480400000000000    0.1678250000000000 H
   0.5239850000000000    0.3356800000000000    0.0237500000000000 H
   0.6678100000000000    0.0483500000000000    0.2840900000000000 H
   0.7840700000000000    0.3356700000000000    0.0240150000000000 H
   0.6678100000000000    0.5681700000000000    0.0241750000000000 H
   0.5240850000000000    0.3356700000000000    0.2840850000000000 H
   0.7840700000000000    0.0483700000000000    0.0241850000000000 H
   0.5240899999999999    0.5681500000000000    0.1678250000000000 H
   0.6678150000000000    0.0477900000000000    0.0238850000000000 H
   0.7159450000000001    0.9516300000000000    0.4758050000000000 H
   0.9759249999999999    0.4318400000000000    0.3321650000000000 H
   0.8321950000000000    0.9522100000000000    0.4761050000000000 H
   0.9759249999999999    0.6643300000000000    0.2159050000000000 H
   0.9760350000000000    0.9524000000000000    0.3321550000000000 H
   0.8322000000000001    0.4318200000000000    0.4758150000000000 H
   0.9758599999999999    0.9514500000000000    0.2159900000000000 H
   0.7159450000000001    0.6643300000000000    0.4759750000000000 H
   0.8322050000000000    0.9516500000000000    0.2159050000000000 H
   0.9758599999999999    0.4320000000000000    0.4757100000000000 H
   0.7159450000000001    0.9519500000000000    0.3321650000000000 H
   0.9760300000000000    0.6643100000000000    0.4762100000000000 H
   0.0241500000000000    0.5679999999999999    0.5242800000000000 H
   0.2840700000000000    0.0480400000000000    0.6678250000000000 H
   0.0239850000000000    0.3356800000000000    0.5237500000000000 H
   0.1678100000000000    0.0483500000000000    0.7840900000000000 H
   0.0239800000000000    0.0475900000000000    0.6678350000000000 H
   0.2840700000000000    0.3356700000000000    0.5240150000000000 H
   0.0241500000000000    0.0485500000000000    0.7840000000000000 H
   0.1678100000000000    0.5681700000000000    0.5241749999999999 H
   0.0240850000000000    0.3356700000000000    0.7840849999999999 H
   0.2840700000000000    0.0483700000000000    0.5241850000000000 H
   0.0240900000000000    0.5681500000000000    0.6678250000000000 H
   0.1678150000000000    0.0477900000000000    0.5238850000000000 H
   0.2159450000000000    0.9516300000000000    0.9758050000000000 H
   0.4759250000000000    0.4318400000000000    0.8321650000000000 H
   0.3321950000000000    0.9522100000000000    0.9761050000000000 H
   0.4759250000000000    0.6643300000000000    0.7159050000000000 H
   0.4760350000000000    0.9524000000000000    0.8321550000000000 H
   0.3322000000000000    0.4318200000000000    0.9758150000000000 H
   0.4758600000000000    0.9514500000000000    0.7159900000000000 H
   0.2159450000000000    0.6643300000000000    0.9759750000000000 H
   0.3322050000000000    0.9516500000000000    0.7159050000000000 H
   0.4758600000000000    0.4320000000000000    0.9757100000000001 H
   0.2159450000000000    0.9519500000000000    0.8321650000000000 H
   0.4760300000000000    0.6643100000000000    0.9762100000000000 H
   0.5241500000000000    0.5679999999999999    0.5242800000000000 H
   0.7840700000000000    0.0480400000000000    0.6678250000000000 H
   0.5239850000000000    0.3356800000000000    0.5237500000000000 H
   0.6678100000000000    0.0483500000000000    0.7840900000000000 H
   0.5239800000000000    0.0475900000000000    0.6678350000000000 H
   0.7840700000000000    0.3356700000000000    0.5240150000000000 H
   0.5241500000000000    0.0485500000000000    0.7840000000000000 H
   0.6678100000000000    0.5681700000000000    0.5241749999999999 H
   0.5240850000000000    0.3356700000000000    0.7840849999999999 H
   0.7840700000000000    0.0483700000000000    0.5241850000000000 H
   0.5240899999999999    0.5681500000000000    0.6678250000000000 H
   0.6678150000000000    0.0477900000000000    0.5238850000000000 H
   0.7159450000000001    0.9516300000000000    0.9758050000000000 H
   0.9759249999999999    0.4318400000000000    0.8321650000000000 H
   0.8321950000000000    0.9522100000000000    0.9761050000000000 H
   0.9759249999999999    0.6643300000000000    0.7159050000000000 H
   0.9760350000000000    0.9524000000000000    0.8321550000000000 H
   0.8322000000000001    0.4318200000000000    0.9758150000000000 H
   0.9758599999999999    0.9514500000000000    0.7159900000000000 H
   0.7159450000000001    0.6643300000000000    0.9759750000000000 H
   0.8322050000000000    0.9516500000000000    0.7159050000000000 H
   0.9758599999999999    0.4320000000000000    0.9757100000000001 H
   0.7159450000000001    0.9519500000000000    0.8321650000000000 H
   0.9760300000000000    0.6643100000000000    0.9762100000000000 H
   0.0133800000000000    0.5389699999999999    0.0134550000000000 C
   0.2695350000000000    0.0266200000000000    0.2038000000000000 C
   0.0132800000000000    0.4076700000000000    0.0131700000000000 C
   0.2038150000000000    0.0267900000000000    0.2695400000000000 C
   0.0132800000000000    0.0263600000000000    0.2038300000000000 C
   0.2695400000000000    0.4076600000000000    0.0133000000000000 C
   0.0133800000000000    0.0269000000000000    0.2694500000000000 C
   0.2038200000000000    0.5390900000000000    0.0133900000000000 C
   0.0133400000000000    0.4076500000000000    0.2695400000000000 C
   0.2695200000000000    0.0268000000000000    0.0134000000000000 C
   0.0133400000000000    0.5390700000000000    0.2038200000000000 C
   0.2038200000000000    0.0264700000000000    0.0132300000000000 C
   0.2304900000000000    0.9731900000000000    0.4865900000000000 C
   0.4866700000000000    0.4609200000000000    0.2961700000000000 C
   0.2961900000000000    0.9735300000000000    0.4867600000000000 C
   0.4866700000000000    0.5923400000000000    0.2304500000000000 C
   0.2961950000000000    0.4609100000000000    0.4866000000000000 C
   0.2304750000000000    0.5923400000000000    0.4866900000000000 C
   0.2961950000000000    0.9732100000000000    0.2304500000000000 C
   0.4866300000000000    0.4610300000000000    0.4865350000000000 C
   0.2304750000000000    0.9733800000000000    0.2961700000000000 C
   0.4867300000000000    0.5923300000000000    0.4868200000000000 C
   0.0554950000000000    0.3889100000000000    0.0554700000000000 C
   0.0268350000000000    0.4462900000000000    0.0268000000000000 C
   0.1945150000000000    0.1112000000000000    0.1945500000000000 C
   0.2231800000000000    0.0537400000000000    0.2232000000000000 C
   0.0554950000000000    0.1109600000000000    0.1944500000000000 C
   0.0268300000000000    0.0536100000000000    0.2231400000000000 C
   0.1945150000000000    0.3891000000000000    0.0556050000000000 C
   0.2231850000000000    0.4464000000000000    0.0268650000000000 C
   0.0555650000000000    0.3891000000000000    0.1945500000000000 C
   0.0268550000000000    0.4463900000000000    0.2231950000000000 C
   0.1944750000000000    0.1109500000000000    0.0554700000000000 C
   0.2231550000000000    0.0536300000000000    0.0268000000000000 C
   0.3055350000000000    0.8890400000000001    0.4445200000000000 C
   0.2768550000000000    0.9463600000000000    0.4731800000000000 C
   0.4444450000000000    0.6109000000000000    0.3054400000000000 C
   0.4731550000000000    0.5536100000000000    0.2767950000000000 C
   0.3054950000000000    0.6109000000000000    0.4443900000000000 C
   0.2768300000000000    0.5535900000000000    0.4731250000000000 C
   0.3054950000000000    0.8888000000000000    0.3054400000000000 C
   0.2768300000000000    0.9462600000000000    0.2767900000000000 C
   0.4445150000000000    0.6110900000000000    0.4445200000000000 C
   0.4731800000000000    0.5537100000000000    0.4731900000000000 C
   0.5133799999999999    0.5389699999999999    0.0134550000000000 C
   0.7695350000000001    0.0266200000000000    0.2038000000000000 C
   0.5132800000000000    0.4076700000000000    0.0131700000000000 C
   0.7038150000000000    0.0267900000000000    0.2695400000000000 C
   0.7695400000000000    0.4076600000000000    0.0133000000000000 C
   0.7038200000000000    0.5390900000000000    0.0133900000000000 C
   0.5133400000000000    0.4076500000000000    0.2695400000000000 C
   0.7695200000000000    0.0268000000000000    0.0134000000000000 C
   0.5133400000000000    0.5390700000000000    0.2038200000000000 C
   0.7038200000000000    0.0264700000000000    0.0132300000000000 C
   0.7304900000000000    0.9731900000000000    0.4865900000000000 C
   0.9866699999999999    0.4609200000000000    0.2961700000000000 C
   0.7961900000000000    0.9735300000000000    0.4867600000000000 C
   0.9866699999999999    0.5923400000000000    0.2304500000000000 C
   0.9867349999999999    0.9736399999999999    0.2961500000000000 C
   0.7961950000000000    0.4609100000000000    0.4866000000000000 C
   0.9866300000000000    0.9730900000000000    0.2305100000000000 C
   0.7304750000000000    0.5923400000000000    0.4866900000000000 C
   0.7961950000000000    0.9732100000000000    0.2304500000000000 C
   0.9866300000000000    0.4610300000000000    0.4865350000000000 C
   0.7304750000000000    0.9733800000000000    0.2961700000000000 C
   0.9867300000000000    0.5923300000000000    0.4868200000000000 C
   0.5554950000000000    0.3889100000000000    0.0554700000000000 C
   0.5268350000000001    0.4462900000000000    0.0268000000000000 C
   0.6945150000000000    0.1112000000000000    0.1945500000000000 C
   0.7231799999999999    0.0537400000000000    0.2232000000000000 C
   0.6945150000000000    0.3891000000000000    0.0556050000000000 C
   0.7231850000000000    0.4464000000000000    0.0268650000000000 C
   0.5555650000000000    0.3891000000000000    0.1945500000000000 C
   0.5268550000000000    0.4463900000000000    0.2231950000000000 C
   0.6944750000000000    0.1109500000000000    0.0554700000000000 C
   0.7231550000000000    0.0536300000000000    0.0268000000000000 C
   0.8055350000000000    0.8890400000000001    0.4445200000000000 C
   0.7768550000000001    0.9463600000000000    0.4731800000000000 C
   0.9444450000000000    0.6109000000000000    0.3054400000000000 C
   0.9731550000000000    0.5536100000000000    0.2767950000000000 C
   0.9445200000000000    0.8890400000000001    0.3055400000000000 C
   0.9731799999999999    0.9463800000000000    0.2768500000000000 C
   0.8054950000000001    0.6109000000000000    0.4443900000000000 C
   0.7768300000000000    0.5535900000000000    0.4731250000000000 C
   0.8054950000000001    0.8888000000000000    0.3054400000000000 C
   0.7768300000000000    0.9462600000000000    0.2767900000000000 C
   0.9445150000000000    0.6110900000000000    0.4445200000000000 C
   0.9731799999999999    0.5537100000000000    0.4731900000000000 C
   0.0133800000000000    0.5389699999999999    0.5134550000000000 C
   0.2695350000000000    0.0266200000000000    0.7038000000000000 C
   0.0132800000000000    0.4076700000000000    0.5131700000000000 C
   0.2038150000000000    0.0267900000000000    0.7695400000000000 C
   0.0132800000000000    0.0263600000000000    0.7038300000000000 C
   0.2695400000000000    0.4076600000000000    0.5133000000000000 C
   0.0133800000000000    0.0269000000000000    0.7694500000000000 C
   0.2038200000000000    0.5390900000000000    0.5133900000000000 C
   0.0133400000000000    0.4076500000000000    0.7695400000000000 C
   0.2695200000000000    0.0268000000000000    0.5134000000000000 C
   0.0133400000000000    0.5390700000000000    0.7038200000000000 C
   0.2038200000000000    0.0264700000000000    0.5132300000000000 C
   0.2304900000000000    0.9731900000000000    0.9865900000000001 C
   0.4866700000000000    0.4609200000000000    0.7961700000000000 C
   0.2961900000000000    0.9735300000000000    0.9867600000000001 C
   0.4866700000000000    0.5923400000000000    0.7304500000000000 C
   0.4867350000000000    0.9736399999999999    0.7961500000000000 C
   0.2961950000000000    0.4609100000000000    0.9865999999999999 C
   0.4866300000000000    0.9730900000000000    0.7305100000000000 C
   0.2304750000000000    0.5923400000000000    0.9866900000000001 C
   0.2961950000000000    0.9732100000000000    0.7304500000000000 C
   0.4866300000000000    0.4610300000000000    0.9865349999999999 C
   0.2304750000000000    0.9733800000000000    0.7961700000000000 C
   0.4867300000000000    0.5923300000000000    0.9868200000000000 C
   0.0554950000000000    0.3889100000000000    0.5554700000000000 C
   0.0268350000000000    0.4462900000000000    0.5268000000000000 C
   0.1945150000000000    0.1112000000000000    0.6945500000000000 C
   0.2231800000000000    0.0537400000000000    0.7232000000000001 C
   0.0554950000000000    0.1109600000000000    0.6944500000000000 C
   0.0268300000000000    0.0536100000000000    0.7231400000000000 C
   0.1945150000000000    0.3891000000000000    0.5556050000000000 C
   0.2231850000000000    0.4464000000000000    0.5268650000000000 C
   0.0555650000000000    0.3891000000000000    0.6945500000000000 C
   0.0268550000000000    0.4463900000000000    0.7231950000000000 C
   0.1944750000000000    0.1109500000000000    0.5554700000000000 C
   0.2231550000000000    0.0536300000000000    0.5268000000000000 C
   0.3055350000000000    0.8890400000000001    0.9445200000000000 C
   0.2768550000000000    0.9463600000000000    0.9731799999999999 C
   0.4444450000000000    0.6109000000000000    0.8054399999999999 C
   0.4731550000000000    0.5536100000000000    0.7767950000000000 C
   0.4445200000000000    0.8890400000000001    0.8055399999999999 C
   0.4731800000000000    0.9463800000000000    0.7768500000000000 C
   0.3054950000000000    0.6109000000000000    0.9443900000000001 C
   0.2768300000000000    0.5535900000000000    0.9731250000000000 C
   0.3054950000000000    0.8888000000000000    0.8054399999999999 C
   0.2768300000000000    0.9462600000000000    0.7767900000000000 C
   0.4445150000000000    0.6110900000000000    0.9445200000000000 C
   0.4731800000000000    0.5537100000000000    0.9731900000000000 C
   0.5133799999999999    0.5389699999999999    0.5134550000000000 C
   0.7695350000000001    0.0266200000000000    0.7038000000000000 C
   0.5132800000000000    0.4076700000000000    0.5131700000000000 C
   0.7038150000000000    0.0267900000000000    0.7695400000000000 C
   0.5132800000000000    0.0263600000000000    0.7038300000000000 C
   0.7695400000000000    0.4076600000000000    0.5133000000000000 C
   0.5133799999999999    0.0269000000000000    0.7694500000000000 C
   0.7038200000000000    0.5390900000000000    0.5133900000000000 C
   0.5133400000000000    0.4076500000000000    0.7695400000000000 C
   0.7695200000000000    0.0268000000000000    0.5134000000000000 C
   0.5133400000000000    0.5390700000000000    0.7038200000000000 C
   0.7038200000000000    0.0264700000000000    0.5132300000000000 C
   0.7304900000000000    0.9731900000000000    0.9865900000000001 C
   0.9866699999999999    0.4609200000000000    0.7961700000000000 C
   0.7961900000000000    0.9735300000000000    0.9867600000000001 C
   0.9866699999999999    0.5923400000000000    0.7304500000000000 C
   0.9867349999999999    0.9736399999999999    0.7961500000000000 C
   0.7961950000000000    0.4609100000000000    0.9865999999999999 C
   0.9866300000000000    0.9730900000000000    0.7305100000000000 C
   0.7304750000000000    0.5923400000000000    0.9866900000000001 C
   0.7961950000000000    0.9732100000000000    0.7304500000000000 C
   0.9866300000000000    0.4610300000000000    0.9865349999999999 C
   0.7304750000000000    0.9733800000000000    0.7961700000000000 C
   0.9867300000000000    0.5923300000000000    0.9868200000000000 C
   0.5554950000000000    0.3889100000000000    0.5554700000000000 C
   0.5268350000000001    0.4462900000000000    0.5268000000000000 C
   0.6945150000000000    0.1112000000000000    0.6945500000000000 C
   0.7231799999999999    0.0537400000000000    0.7232000000000001 C
   0.5554950000000000    0.1109600000000000    0.6944500000000000 C
   0.5268300000000000    0.0536100000000000    0.7231400000000000 C
   0.6945150000000000    0.3891000000000000    0.5556050000000000 C
   0.7231850000000000    0.4464000000000000    0.5268650000000000 C
   0.5555650000000000    0.3891000000000000    0.6945500000000000 C
   0.5268550000000000    0.4463900000000000    0.7231950000000000 C
   0.6944750000000000    0.1109500000000000    0.5554700000000000 C
   0.7231550000000000    0.0536300000000000    0.5268000000000000 C
   0.8055350000000000    0.8890400000000001    0.9445200000000000 C
   0.7768550000000001    0.9463600000000000    0.9731799999999999 C
   0.9444450000000000    0.6109000000000000    0.8054399999999999 C
   0.9731550000000000    0.5536100000000000    0.7767950000000000 C
   0.9445200000000000    0.8890400000000001    0.8055399999999999 C
   0.9731799999999999    0.9463800000000000    0.7768500000000000 C
   0.8054950000000001    0.6109000000000000    0.9443900000000001 C
   0.7768300000000000    0.5535900000000000    0.9731250000000000 C
   0.8054950000000001    0.8888000000000000    0.8054399999999999 C
   0.7768300000000000    0.9462600000000000    0.7767900000000000 C
   0.9445150000000000    0.6110900000000000    0.9445200000000000 C
   0.9731799999999999    0.5537100000000000    0.9731900000000000 C
   0.0666300000000000    0.4285000000000000    0.0665500000000000 O
   0.2143150000000000    0.1334300000000000    0.1526600000000000 O
   0.0664500000000000    0.3051200000000000    0.0664500000000000 O
   0.1526150000000000    0.1332900000000000    0.2143500000000000 O
   0.0664450000000000    0.1329900000000000    0.1525550000000000 O
   0.2143150000000000    0.3053200000000000    0.0667050000000000 O
   0.0666200000000000    0.1331500000000000    0.2142500000000000 O
   0.1526150000000000    0.4287000000000000    0.0666500000000000 O
   0.0666350000000000    0.3053100000000000    0.2143500000000000 O
   0.2142900000000000    0.1331700000000000    0.0665800000000000 O
   0.0666300000000000    0.4286900000000000    0.1526550000000000 O
   0.1525600000000000    0.1329300000000000    0.0664600000000000 O
   0.2857200000000000    0.8668300000000000    0.4334100000000000 O
   0.4333800000000000    0.5713100000000000    0.3473350000000000 O
   0.3474550000000000    0.8670600000000001    0.4335300000000000 O
   0.4333750000000000    0.6946800000000000    0.2856400000000000 O
   0.3474000000000000    0.5713000000000000    0.4333000000000000 O
   0.2856950000000000    0.6946700000000000    0.4332850000000000 O
   0.3474000000000000    0.8667100000000000    0.2856400000000000 O
   0.4333850000000000    0.5714900000000001    0.4334250000000000 O
   0.2856950000000000    0.8665600000000000    0.3473000000000000 O
   0.4335600000000000    0.6948800000000001    0.4335100000000000 O
   0.1249850000000000    0.2500000000000000    0.1249950000000000 O
   0.3750300000000000    0.7500000000000000    0.3749950000000000 O
   0.5666300000000000    0.4285000000000000    0.0665500000000000 O
   0.7143150000000000    0.1334300000000000    0.1526600000000000 O
   0.5664500000000000    0.3051200000000000    0.0664500000000000 O
   0.6526149999999999    0.1332900000000000    0.2143500000000000 O
   0.7143150000000000    0.3053200000000000    0.0667050000000000 O
   0.6526149999999999    0.4287000000000000    0.0666500000000000 O
   0.5666350000000000    0.3053100000000000    0.2143500000000000 O
   0.7142900000000000    0.1331700000000000    0.0665800000000000 O
   0.5666300000000000    0.4286900000000000    0.1526550000000000 O
   0.6525600000000000    0.1329300000000000    0.0664600000000000 O
   0.7857200000000000    0.8668300000000000    0.4334100000000000 O
   0.9333800000000000    0.5713100000000000    0.3473350000000000 O
   0.8474550000000001    0.8670600000000001    0.4335300000000000 O
   0.9333750000000001    0.6946800000000000    0.2856400000000000 O
   0.9335650000000000    0.8670000000000000    0.3474350000000000 O
   0.8473999999999999    0.5713000000000000    0.4333000000000000 O
   0.9333899999999999    0.8668400000000001    0.2857400000000000 O
   0.7856950000000000    0.6946700000000000    0.4332850000000000 O
   0.8473999999999999    0.8667100000000000    0.2856400000000000 O
   0.9333850000000000    0.5714900000000001    0.4334250000000000 O
   0.7856950000000000    0.8665600000000000    0.3473000000000000 O
   0.9335599999999999    0.6948800000000001    0.4335100000000000 O
   0.6249850000000000    0.2500000000000000    0.1249950000000000 O
   0.8750300000000000    0.7500000000000000    0.3749950000000000 O
   0.0666300000000000    0.4285000000000000    0.5665500000000000 O
   0.2143150000000000    0.1334300000000000    0.6526600000000000 O
   0.0664500000000000    0.3051200000000000    0.5664500000000000 O
   0.1526150000000000    0.1332900000000000    0.7143500000000000 O
   0.0664450000000000    0.1329900000000000    0.6525550000000000 O
   0.2143150000000000    0.3053200000000000    0.5667050000000000 O
   0.0666200000000000    0.1331500000000000    0.7142500000000001 O
   0.1526150000000000    0.4287000000000000    0.5666500000000000 O
   0.0666350000000000    0.3053100000000000    0.7143500000000000 O
   0.2142900000000000    0.1331700000000000    0.5665800000000000 O
   0.0666300000000000    0.4286900000000000    0.6526550000000000 O
   0.1525600000000000    0.1329300000000000    0.5664600000000000 O
   0.2857200000000000    0.8668300000000000    0.9334100000000001 O
   0.4333800000000000    0.5713100000000000    0.8473349999999999 O
   0.3474550000000000    0.8670600000000001    0.9335300000000000 O
   0.4333750000000000    0.6946800000000000    0.7856400000000000 O
   0.4335650000000000    0.8670000000000000    0.8474349999999999 O
   0.3474000000000000    0.5713000000000000    0.9333000000000000 O
   0.4333900000000000    0.8668400000000001    0.7857400000000000 O
   0.2856950000000000    0.6946700000000000    0.9332849999999999 O
   0.3474000000000000    0.8667100000000000    0.7856400000000000 O
   0.4333850000000000    0.5714900000000001    0.9334249999999999 O
   0.2856950000000000    0.8665600000000000    0.8472999999999999 O
   0.4335600000000000    0.6948800000000001    0.9335100000000001 O
   0.1249850000000000    0.2500000000000000    0.6249950000000000 O
   0.3750300000000000    0.7500000000000000    0.8749950000000000 O
   0.5666300000000000    0.4285000000000000    0.5665500000000000 O
   0.7143150000000000    0.1334300000000000    0.6526600000000000 O
   0.5664500000000000    0.3051200000000000    0.5664500000000000 O
   0.6526149999999999    0.1332900000000000    0.7143500000000000 O
   0.5664450000000000    0.1329900000000000    0.6525550000000000 O
   0.7143150000000000    0.3053200000000000    0.5667050000000000 O
   0.5666200000000000    0.1331500000000000    0.7142500000000001 O
   0.6526149999999999    0.4287000000000000    0.5666500000000000 O
   0.5666350000000000    0.3053100000000000    0.7143500000000000 O
   0.7142900000000000    0.1331700000000000    0.5665800000000000 O
   0.5666300000000000    0.4286900000000000    0.6526550000000000 O
   0.6525600000000000    0.1329300000000000    0.5664600000000000 O
   0.7857200000000000    0.8668300000000000    0.9334100000000001 O
   0.9333800000000000    0.5713100000000000    0.8473349999999999 O
   0.8474550000000001    0.8670600000000001    0.9335300000000000 O
   0.9333750000000001    0.6946800000000000    0.7856400000000000 O
   0.9335650000000000    0.8670000000000000    0.8474349999999999 O
   0.8473999999999999    0.5713000000000000    0.9333000000000000 O
   0.9333899999999999    0.8668400000000001    0.7857400000000000 O
   0.7856950000000000    0.6946700000000000    0.9332849999999999 O
   0.8473999999999999    0.8667100000000000    0.7856400000000000 O
   0.9333850000000000    0.5714900000000001    0.9334249999999999 O
   0.7856950000000000    0.8665600000000000    0.8472999999999999 O
   0.9335599999999999    0.6948800000000001    0.9335100000000001 O
   0.6249850000000000    0.2500000000000000    0.6249950000000000 O
   0.8750300000000000    0.7500000000000000    0.8749950000000000 O
