H4 C12 N4
1.0
  29.6519999593536809    0.0000000000000000    0.0015525750886924
   0.0003449065428875   20.7379479518030791   -6.5872297386189604
   0.0000000000000000    0.0000000000000000   38.2439999999999998
H C N
4 12 4
direct
   0.0525900000000000    0.3089800000000000    0.0071533333333333 H
   0.1978050000000000    0.3087700000000000    0.0066666666666667 H
   0.0525050000000000    0.1911200000000000    0.9928800000000000 H
   0.1977200000000000    0.1909000000000000    0.9927266666666666 H
   0.0853100000000000    0.4237100000000000    0.0191366666666667 C
   0.0846800000000000    0.2833500000000000    0.0038800000000000 C
   0.1649550000000000    0.4240100000000000    0.0190500000000000 C
   0.1656800000000000    0.2832400000000000    0.0037966666666667 C
   0.1251900000000000    0.3890700000000000    0.0156366666666667 C
   0.1252000000000000    0.3185600000000000    0.0078333333333333 C
   0.0852050000000000    0.0760900000000000    0.9808199999999999 C
   0.0846350000000000    0.2166600000000000    0.9960833333333332 C
   0.1648550000000000    0.0760300000000000    0.9808833333333333 C
   0.1656300000000000    0.2165400000000000    0.9960000000000000 C
   0.1250500000000000    0.1108300000000000    0.9842799999999999 C
   0.1251100000000000    0.1813400000000000    0.9920499999999999 C
   0.0508000000000000    0.4519800000000000    0.0225800000000000 N
   0.1992550000000000    0.4527500000000000    0.0224233333333333 N
   0.0507900000000000    0.0476000000000000    0.9774099999999999 N
   0.1992600000000000    0.0475400000000000    0.9775333333333333 N
