H6 O4
1.0
  34.0584478843744307    0.0000000000000000   -8.0636299336806676
  -4.2371995328661605   10.6364264841961500   -5.2532828559834366
   0.0000000000000000    0.0000000000000000   25.1960000000000015
H O
6 4
direct
   0.6557551663342146    0.2802475617023971    0.2476172443217628 H
   0.6900775072563015    0.4275128100870905    0.2137639168660539 H
   0.6214322038772434    0.5565990756880772    0.1394081045268925 H
   0.6223490120597188    0.6104319478699126    0.1340886212084181 H
   0.5605767935273596    0.4473286271451328    0.1440476115361398 H
   0.5686382560842106    0.3976907449536045    0.2805527741980611 H
   0.6798999999999999    0.2812000000000000    0.2348750000000000 O
   0.7131175000000000    0.4033900000000000    0.2043050000000000 O
   0.5941000000000000    0.5819000000000000    0.1340100000000000 O
   0.5358800000000000    0.4701900000000000    0.1391700000000000 O
