Ca48 H288 C235 O192
1.0
  34.0584478843744307    0.0000000000000000   -8.0636299336806676
  -4.2371995328661605   10.6364264841961500   -5.2532828559834366
   0.0000000000000000    0.0000000000000000   25.1960000000000015
Ca H C O
48 288 235 192
direct
   0.3967475000000000    0.1968400000000000    0.2870550000000000 Ca
   0.2467825000000000    0.5739700000000000    0.1882450000000000 Ca
   0.3473225000000000    0.3760000000000000    0.9015949999999999 Ca
   0.1032550000000000    0.8031700000000001    0.7129300000000001 Ca
   0.2532225000000000    0.4260300000000000    0.8117400000000000 Ca
   0.1526800000000000    0.6240000000000000    0.0983900000000000 Ca
   0.3967475000000000    0.1968400000000000    0.7870550000000001 Ca
   0.2467825000000000    0.5739700000000000    0.6882450000000000 Ca
   0.3473225000000000    0.3760000000000000    0.4015950000000000 Ca
   0.1032550000000000    0.8031700000000001    0.2129300000000000 Ca
   0.2532225000000000    0.4260300000000000    0.3117400000000000 Ca
   0.1526800000000000    0.6240000000000000    0.5983900000000000 Ca
   0.6467475000000000    0.1968400000000000    0.7870550000000001 Ca
   0.4967825000000000    0.5739700000000000    0.6882450000000000 Ca
   0.5973225000000000    0.3760000000000000    0.4015950000000000 Ca
   0.3532550000000000    0.8031700000000001    0.2129300000000000 Ca
   0.5032225000000000    0.4260300000000000    0.3117400000000000 Ca
   0.4026800000000000    0.6240000000000000    0.5983900000000000 Ca
   0.8967475000000000    0.1968400000000000    0.2870550000000000 Ca
   0.7467825000000000    0.5739700000000000    0.1882450000000000 Ca
   0.8473225000000000    0.3760000000000000    0.9015949999999999 Ca
   0.3532550000000000    0.8031700000000001    0.7129300000000001 Ca
   0.5032225000000000    0.4260300000000000    0.8117400000000000 Ca
   0.4026800000000000    0.6240000000000000    0.0983900000000000 Ca
   0.6032550000000000    0.8031700000000001    0.7129300000000001 Ca
   0.5973225000000000    0.3760000000000000    0.9015949999999999 Ca
   0.7532225000000000    0.4260300000000000    0.8117400000000000 Ca
   0.6526800000000000    0.6240000000000000    0.0983900000000000 Ca
   0.4967825000000000    0.5739700000000000    0.1882450000000000 Ca
   0.8967475000000000    0.1968400000000000    0.7870550000000001 Ca
   0.7467825000000000    0.5739700000000000    0.6882450000000000 Ca
   0.8473225000000000    0.3760000000000000    0.4015950000000000 Ca
   0.6032550000000000    0.8031700000000001    0.2129300000000000 Ca
   0.6467475000000000    0.1968400000000000    0.2870550000000000 Ca
   0.7532225000000000    0.4260300000000000    0.3117400000000000 Ca
   0.6526800000000000    0.6240000000000000    0.5983900000000000 Ca
   0.1467475000000000    0.1968400000000000    0.2870550000000000 Ca
   0.9967825000000000    0.5739700000000000    0.1882450000000000 Ca
   0.0973225000000000    0.3760000000000000    0.9015949999999999 Ca
   0.8532550000000000    0.8031700000000001    0.7129300000000001 Ca
   0.0032225000000000    0.4260300000000000    0.8117400000000000 Ca
   0.9026800000000000    0.6240000000000000    0.0983900000000000 Ca
   0.1467475000000000    0.1968400000000000    0.7870550000000001 Ca
   0.9967825000000000    0.5739700000000000    0.6882450000000000 Ca
   0.0973225000000000    0.3760000000000000    0.4015950000000000 Ca
   0.8532550000000000    0.8031700000000001    0.2129300000000000 Ca
   0.0032225000000000    0.4260300000000000    0.3117400000000000 Ca
   0.9026800000000000    0.6240000000000000    0.5983900000000000 Ca
   0.2651450000000000    0.0980700000000000    0.1415800000000000 H
   0.2462650000000000    0.2196800000000000    0.1770100000000000 H
   0.2249300000000000    0.1211700000000000    0.2404300000000000 H
   0.2401600000000000    0.9953500000000000    0.1997150000000000 H
   0.1848175000000000    0.9264500000000000    0.0994350000000000 H
   0.1728675000000000    0.0650000000000000    0.1344450000000000 H
   0.3655000000000000    0.1988800000000000    0.1369350000000000 H
   0.3949025000000000    0.2693200000000000    0.1025950000000000 H
   0.3953700000000000    0.4810400000000000    0.1798450000000000 H
   0.3599125000000000    0.3992500000000000    0.2022250000000000 H
   0.3060425000000000    0.2830700000000000    0.0931900000000000 H
   0.3425525000000000    0.3538600000000000    0.0675350000000000 H
   0.2030375000000000    0.2732300000000000    0.0377450000000000 H
   0.1565150000000000    0.2051300000000000    0.9685600000000000 H
   0.1946425000000000    0.3593500000000000    0.9394549999999999 H
   0.2412325000000000    0.4035400000000000    0.0023900000000000 H
   0.2403775000000000    0.1847600000000000    0.9518350000000000 H
   0.1911850000000000    0.1344400000000000    0.8910899999999999 H
   0.2348600000000000    0.9019300000000000    0.8584050000000000 H
   0.2537400000000000    0.7803200000000000    0.8229750000000000 H
   0.2750725000000000    0.8788300000000000    0.7595550000000000 H
   0.2598450000000000    0.0046500000000000    0.8002700000000000 H
   0.3151850000000000    0.0735600000000000    0.9005500000000000 H
   0.3271350000000000    0.9350000000000001    0.8655400000000000 H
   0.1939625000000000    0.7169300000000000    0.9067950000000000 H
   0.1574500000000000    0.6461400000000000    0.9324500000000000 H
   0.1046350000000000    0.5189600000000000    0.8201400000000000 H
   0.1400900000000000    0.6007500000000000    0.7977600000000000 H
   0.1345025000000000    0.8011200000000001    0.8630500000000000 H
   0.1051000000000000    0.7306900000000000    0.8973949999999999 H
   0.2969650000000000    0.7267700000000000    0.9622450000000000 H
   0.3434875000000000    0.7948700000000000    0.0314250000000000 H
   0.3053600000000000    0.6406500000000001    0.0605350000000000 H
   0.2587700000000000    0.5964600000000000    0.9976000000000000 H
   0.2596250000000000    0.8152400000000000    0.0481500000000000 H
   0.3088200000000000    0.8655700000000000    0.1088950000000000 H
   0.2651450000000000    0.0980700000000000    0.6415800000000000 H
   0.2462650000000000    0.2196800000000000    0.6770100000000000 H
   0.2249300000000000    0.1211700000000000    0.7404300000000000 H
   0.2401600000000000    0.9953500000000000    0.6997150000000000 H
   0.1848175000000000    0.9264500000000000    0.5994349999999999 H
   0.1728675000000000    0.0650000000000000    0.6344450000000000 H
   0.3655000000000000    0.1988800000000000    0.6369350000000000 H
   0.3949025000000000    0.2693200000000000    0.6025950000000000 H
   0.3953700000000000    0.4810400000000000    0.6798450000000000 H
   0.3599125000000000    0.3992500000000000    0.7022250000000000 H
   0.3060425000000000    0.2830700000000000    0.5931900000000000 H
   0.3425525000000000    0.3538600000000000    0.5675350000000000 H
   0.2030375000000000    0.2732300000000000    0.5377450000000000 H
   0.1565150000000000    0.2051300000000000    0.4685600000000000 H
   0.1946425000000000    0.3593500000000000    0.4394550000000000 H
   0.2412325000000000    0.4035400000000000    0.5023900000000000 H
   0.2403775000000000    0.1847600000000000    0.4518350000000000 H
   0.1911850000000000    0.1344400000000000    0.3910900000000000 H
   0.2348600000000000    0.9019300000000000    0.3584050000000000 H
   0.2537400000000000    0.7803200000000000    0.3229750000000000 H
   0.2750725000000000    0.8788300000000000    0.2595550000000000 H
   0.2598450000000000    0.0046500000000000    0.3002700000000000 H
   0.3151850000000000    0.0735600000000000    0.4005500000000000 H
   0.3271350000000000    0.9350000000000001    0.3655400000000000 H
   0.1939625000000000    0.7169300000000000    0.4067950000000000 H
   0.1574500000000000    0.6461400000000000    0.4324500000000000 H
   0.1046350000000000    0.5189600000000000    0.3201400000000000 H
   0.1400900000000000    0.6007500000000000    0.2977600000000000 H
   0.1345025000000000    0.8011200000000001    0.3630500000000000 H
   0.1051000000000000    0.7306900000000000    0.3973950000000000 H
   0.2969650000000000    0.7267700000000000    0.4622450000000000 H
   0.3434875000000000    0.7948700000000000    0.5314250000000000 H
   0.3053600000000000    0.6406500000000001    0.5605350000000000 H
   0.2587700000000000    0.5964600000000000    0.4976000000000000 H
   0.2596250000000000    0.8152400000000000    0.5481500000000000 H
   0.3088200000000000    0.8655700000000000    0.6088950000000000 H
   0.5151450000000000    0.0980700000000000    0.6415800000000000 H
   0.4962650000000000    0.2196800000000000    0.6770100000000000 H
   0.4749300000000000    0.1211700000000000    0.7404300000000000 H
   0.4901600000000000    0.9953500000000000    0.6997150000000000 H
   0.4348175000000000    0.9264500000000000    0.5994349999999999 H
   0.4228675000000000    0.0650000000000000    0.6344450000000000 H
   0.6155000000000000    0.1988800000000000    0.6369350000000000 H
   0.6449024999999999    0.2693200000000000    0.6025950000000000 H
   0.6453700000000000    0.4810400000000000    0.6798450000000000 H
   0.6099125000000000    0.3992500000000000    0.7022250000000000 H
   0.5560425000000000    0.2830700000000000    0.5931900000000000 H
   0.5925525000000000    0.3538600000000000    0.5675350000000000 H
   0.4530375000000000    0.2732300000000000    0.5377450000000000 H
   0.4065150000000000    0.2051300000000000    0.4685600000000000 H
   0.4446425000000000    0.3593500000000000    0.4394550000000000 H
   0.4912325000000000    0.4035400000000000    0.5023900000000000 H
   0.4903775000000000    0.1847600000000000    0.4518350000000000 H
   0.4411850000000000    0.1344400000000000    0.3910900000000000 H
   0.4848600000000000    0.9019300000000000    0.3584050000000000 H
   0.5037400000000000    0.7803200000000000    0.3229750000000000 H
   0.5250725000000001    0.8788300000000000    0.2595550000000000 H
   0.5098450000000000    0.0046500000000000    0.3002700000000000 H
   0.5651850000000000    0.0735600000000000    0.4005500000000000 H
   0.5771350000000000    0.9350000000000001    0.3655400000000000 H
   0.4439625000000000    0.7169300000000000    0.4067950000000000 H
   0.4074500000000000    0.6461400000000000    0.4324500000000000 H
   0.3546350000000000    0.5189600000000000    0.3201400000000000 H
   0.3900900000000000    0.6007500000000000    0.2977600000000000 H
   0.3845025000000000    0.8011200000000001    0.3630500000000000 H
   0.3551000000000000    0.7306900000000000    0.3973950000000000 H
   0.5469650000000000    0.7267700000000000    0.4622450000000000 H
   0.5934874999999999    0.7948700000000000    0.5314250000000000 H
   0.5553600000000000    0.6406500000000001    0.5605350000000000 H
   0.5087699999999999    0.5964600000000000    0.4976000000000000 H
   0.5096250000000000    0.8152400000000000    0.5481500000000000 H
   0.5588200000000000    0.8655700000000000    0.6088950000000000 H
   0.7651450000000000    0.0980700000000000    0.1415800000000000 H
   0.7462650000000000    0.2196800000000000    0.1770100000000000 H
   0.7249300000000000    0.1211700000000000    0.2404300000000000 H
   0.7401600000000000    0.9953500000000000    0.1997150000000000 H
   0.6848175000000000    0.9264500000000000    0.0994350000000000 H
   0.6728675000000000    0.0650000000000000    0.1344450000000000 H
   0.8655000000000000    0.1988800000000000    0.1369350000000000 H
   0.8949024999999999    0.2693200000000000    0.1025950000000000 H
   0.8953700000000000    0.4810400000000000    0.1798450000000000 H
   0.8599125000000000    0.3992500000000000    0.2022250000000000 H
   0.8060425000000000    0.2830700000000000    0.0931900000000000 H
   0.8425525000000000    0.3538600000000000    0.0675350000000000 H
   0.7030375000000000    0.2732300000000000    0.0377450000000000 H
   0.6565150000000000    0.2051300000000000    0.9685600000000000 H
   0.6946425000000001    0.3593500000000000    0.9394549999999999 H
   0.7412325000000000    0.4035400000000000    0.0023900000000000 H
   0.7403775000000000    0.1847600000000000    0.9518350000000000 H
   0.6911849999999999    0.1344400000000000    0.8910899999999999 H
   0.4848600000000000    0.9019300000000000    0.8584050000000000 H
   0.5037400000000000    0.7803200000000000    0.8229750000000000 H
   0.5250725000000001    0.8788300000000000    0.7595550000000000 H
   0.5098450000000000    0.0046500000000000    0.8002700000000000 H
   0.5651850000000000    0.0735600000000000    0.9005500000000000 H
   0.5771350000000000    0.9350000000000001    0.8655400000000000 H
   0.4439625000000000    0.7169300000000000    0.9067950000000000 H
   0.4074500000000000    0.6461400000000000    0.9324500000000000 H
   0.3546350000000000    0.5189600000000000    0.8201400000000000 H
   0.3900900000000000    0.6007500000000000    0.7977600000000000 H
   0.3845025000000000    0.8011200000000001    0.8630500000000000 H
   0.3551000000000000    0.7306900000000000    0.8973949999999999 H
   0.5469650000000000    0.7267700000000000    0.9622450000000000 H
   0.5934874999999999    0.7948700000000000    0.0314250000000000 H
   0.5553600000000000    0.6406500000000001    0.0605350000000000 H
   0.5087699999999999    0.5964600000000000    0.9976000000000000 H
   0.5096250000000000    0.8152400000000000    0.0481500000000000 H
   0.5588200000000000    0.8655700000000000    0.1088950000000000 H
   0.7348600000000001    0.9019300000000000    0.8584050000000000 H
   0.7537400000000000    0.7803200000000000    0.8229750000000000 H
   0.7750725000000001    0.8788300000000000    0.7595550000000000 H
   0.7598450000000000    0.0046500000000000    0.8002700000000000 H
   0.8151850000000000    0.0735600000000000    0.9005500000000000 H
   0.8271350000000000    0.9350000000000001    0.8655400000000000 H
   0.4530375000000000    0.2732300000000000    0.0377450000000000 H
   0.4065150000000000    0.2051300000000000    0.9685600000000000 H
   0.4446425000000000    0.3593500000000000    0.9394549999999999 H
   0.4912325000000000    0.4035400000000000    0.0023900000000000 H
   0.4903775000000000    0.1847600000000000    0.9518350000000000 H
   0.4411850000000000    0.1344400000000000    0.8910899999999999 H
   0.6939625000000000    0.7169300000000000    0.9067950000000000 H
   0.6574500000000000    0.6461400000000000    0.9324500000000000 H
   0.6046350000000000    0.5189600000000000    0.8201400000000000 H
   0.6400900000000000    0.6007500000000000    0.7977600000000000 H
   0.6345025000000000    0.8011200000000001    0.8630500000000000 H
   0.6051000000000000    0.7306900000000000    0.8973949999999999 H
   0.7969650000000000    0.7267700000000000    0.9622450000000000 H
   0.8434874999999999    0.7948700000000000    0.0314250000000000 H
   0.8053600000000000    0.6406500000000001    0.0605350000000000 H
   0.7587699999999999    0.5964600000000000    0.9976000000000000 H
   0.7596250000000000    0.8152400000000000    0.0481500000000000 H
   0.8088200000000000    0.8655700000000000    0.1088950000000000 H
   0.5605767935273596    0.4473286271451328    0.1440476115361398 H
   0.6214322038772434    0.5565990756880772    0.1394081045268925 H
   0.6223490120597188    0.6104319478699126    0.1340886212084181 H
   0.7651450000000000    0.0980700000000000    0.6415800000000000 H
   0.7462650000000000    0.2196800000000000    0.6770100000000000 H
   0.7249300000000000    0.1211700000000000    0.7404300000000000 H
   0.7401600000000000    0.9953500000000000    0.6997150000000000 H
   0.6848175000000000    0.9264500000000000    0.5994349999999999 H
   0.6728675000000000    0.0650000000000000    0.6344450000000000 H
   0.8655000000000000    0.1988800000000000    0.6369350000000000 H
   0.8949024999999999    0.2693200000000000    0.6025950000000000 H
   0.8953700000000000    0.4810400000000000    0.6798450000000000 H
   0.8599125000000000    0.3992500000000000    0.7022250000000000 H
   0.8060425000000000    0.2830700000000000    0.5931900000000000 H
   0.8425525000000000    0.3538600000000000    0.5675350000000000 H
   0.7030375000000000    0.2732300000000000    0.5377450000000000 H
   0.6565150000000000    0.2051300000000000    0.4685600000000000 H
   0.6946425000000001    0.3593500000000000    0.4394550000000000 H
   0.7412325000000000    0.4035400000000000    0.5023900000000000 H
   0.7403775000000000    0.1847600000000000    0.4518350000000000 H
   0.6911849999999999    0.1344400000000000    0.3910900000000000 H
   0.7348600000000001    0.9019300000000000    0.3584050000000000 H
   0.7537400000000000    0.7803200000000000    0.3229750000000000 H
   0.7750725000000001    0.8788300000000000    0.2595550000000000 H
   0.7598450000000000    0.0046500000000000    0.3002700000000000 H
   0.8151850000000000    0.0735600000000000    0.4005500000000000 H
   0.8271350000000000    0.9350000000000001    0.3655400000000000 H
   0.6900775072563015    0.4275128100870905    0.2137639168660539 H
   0.6557551663342146    0.2802475617023971    0.2476172443217628 H
   0.4749300000000000    0.1211700000000000    0.2404300000000000 H
   0.4901600000000000    0.9953500000000000    0.1997150000000000 H
   0.4348175000000000    0.9264500000000000    0.0994350000000000 H
   0.4228675000000000    0.0650000000000000    0.1344450000000000 H
   0.6939625000000000    0.7169300000000000    0.4067950000000000 H
   0.6574500000000000    0.6461400000000000    0.4324500000000000 H
   0.6345025000000000    0.8011200000000001    0.3630500000000000 H
   0.6051000000000000    0.7306900000000000    0.3973950000000000 H
   0.5151450000000000    0.0980700000000000    0.1415800000000000 H
   0.4962650000000000    0.2196800000000000    0.1770100000000000 H
   0.6046350000000000    0.5189600000000000    0.3201400000000000 H
   0.6400900000000000    0.6007500000000000    0.2977600000000000 H
   0.5686382560842106    0.3976907449536045    0.2805527741980611 H
   0.7969650000000000    0.7267700000000000    0.4622450000000000 H
   0.8434874999999999    0.7948700000000000    0.5314250000000000 H
   0.8053600000000000    0.6406500000000001    0.5605350000000000 H
   0.7587699999999999    0.5964600000000000    0.4976000000000000 H
   0.7596250000000000    0.8152400000000000    0.5481500000000000 H
   0.8088200000000000    0.8655700000000000    0.6088950000000000 H
   0.0151450000000000    0.0980700000000000    0.1415800000000000 H
   0.9962650000000000    0.2196800000000000    0.1770100000000000 H
   0.9749300000000000    0.1211700000000000    0.2404300000000000 H
   0.9901600000000000    0.9953500000000000    0.1997150000000000 H
   0.9348175000000000    0.9264500000000000    0.0994350000000000 H
   0.9228675000000000    0.0650000000000000    0.1344450000000000 H
   0.1155000000000000    0.1988800000000000    0.1369350000000000 H
   0.1449025000000000    0.2693200000000000    0.1025950000000000 H
   0.1453700000000000    0.4810400000000000    0.1798450000000000 H
   0.1099125000000000    0.3992500000000000    0.2022250000000000 H
   0.0560425000000000    0.2830700000000000    0.0931900000000000 H
   0.0925525000000000    0.3538600000000000    0.0675350000000000 H
   0.9530375000000000    0.2732300000000000    0.0377450000000000 H
   0.9065150000000000    0.2051300000000000    0.9685600000000000 H
   0.9446425000000001    0.3593500000000000    0.9394549999999999 H
   0.9912325000000000    0.4035400000000000    0.0023900000000000 H
   0.9903775000000000    0.1847600000000000    0.9518350000000000 H
   0.9411849999999999    0.1344400000000000    0.8910899999999999 H
   0.9848600000000001    0.9019300000000000    0.8584050000000000 H
   0.0037400000000000    0.7803200000000000    0.8229750000000000 H
   0.0250725000000000    0.8788300000000000    0.7595550000000000 H
   0.0098450000000000    0.0046500000000000    0.8002700000000000 H
   0.0651850000000000    0.0735600000000000    0.9005500000000000 H
   0.0771350000000000    0.9350000000000001    0.8655400000000000 H
   0.9439625000000000    0.7169300000000000    0.9067950000000000 H
   0.9074500000000000    0.6461400000000000    0.9324500000000000 H
   0.8546350000000000    0.5189600000000000    0.8201400000000000 H
   0.8900900000000000    0.6007500000000000    0.7977600000000000 H
   0.8845025000000000    0.8011200000000001    0.8630500000000000 H
   0.8551000000000000    0.7306900000000000    0.8973949999999999 H
   0.0469650000000000    0.7267700000000000    0.9622450000000000 H
   0.0934875000000000    0.7948700000000000    0.0314250000000000 H
   0.0553600000000000    0.6406500000000001    0.0605350000000000 H
   0.0087700000000000    0.5964600000000000    0.9976000000000000 H
   0.0096250000000000    0.8152400000000000    0.0481500000000000 H
   0.0588200000000000    0.8655700000000000    0.1088950000000000 H
   0.0151450000000000    0.0980700000000000    0.6415800000000000 H
   0.9962650000000000    0.2196800000000000    0.6770100000000000 H
   0.9749300000000000    0.1211700000000000    0.7404300000000000 H
   0.9901600000000000    0.9953500000000000    0.6997150000000000 H
   0.9348175000000000    0.9264500000000000    0.5994349999999999 H
   0.9228675000000000    0.0650000000000000    0.6344450000000000 H
   0.1155000000000000    0.1988800000000000    0.6369350000000000 H
   0.1449025000000000    0.2693200000000000    0.6025950000000000 H
   0.1453700000000000    0.4810400000000000    0.6798450000000000 H
   0.1099125000000000    0.3992500000000000    0.7022250000000000 H
   0.0560425000000000    0.2830700000000000    0.5931900000000000 H
   0.0925525000000000    0.3538600000000000    0.5675350000000000 H
   0.9530375000000000    0.2732300000000000    0.5377450000000000 H
   0.9065150000000000    0.2051300000000000    0.4685600000000000 H
   0.9446425000000001    0.3593500000000000    0.4394550000000000 H
   0.9912325000000000    0.4035400000000000    0.5023900000000000 H
   0.9903775000000000    0.1847600000000000    0.4518350000000000 H
   0.9411849999999999    0.1344400000000000    0.3910900000000000 H
   0.9848600000000001    0.9019300000000000    0.3584050000000000 H
   0.0037400000000000    0.7803200000000000    0.3229750000000000 H
   0.0250725000000000    0.8788300000000000    0.2595550000000000 H
   0.0098450000000000    0.0046500000000000    0.3002700000000000 H
   0.0651850000000000    0.0735600000000000    0.4005500000000000 H
   0.0771350000000000    0.9350000000000001    0.3655400000000000 H
   0.9439625000000000    0.7169300000000000    0.4067950000000000 H
   0.9074500000000000    0.6461400000000000    0.4324500000000000 H
   0.8546350000000000    0.5189600000000000    0.3201400000000000 H
   0.8900900000000000    0.6007500000000000    0.2977600000000000 H
   0.8845025000000000    0.8011200000000001    0.3630500000000000 H
   0.8551000000000000    0.7306900000000000    0.3973950000000000 H
   0.0469650000000000    0.7267700000000000    0.4622450000000000 H
   0.0934875000000000    0.7948700000000000    0.5314250000000000 H
   0.0553600000000000    0.6406500000000001    0.5605350000000000 H
   0.0087700000000000    0.5964600000000000    0.4976000000000000 H
   0.0096250000000000    0.8152400000000000    0.5481500000000000 H
   0.0588200000000000    0.8655700000000000    0.6088950000000000 H
   0.2592525000000000    0.1526100000000000    0.1838950000000000 C
   0.3008375000000000    0.2248400000000000    0.2402150000000000 C
   0.2277425000000000    0.0652800000000000    0.1954350000000000 C
   0.1836925000000000    0.9961700000000000    0.1429200000000000 C
   0.1522850000000000    0.9311300000000000    0.1623700000000000 C
   0.3882250000000000    0.2860200000000000    0.1453450000000000 C
   0.4292525000000000    0.3251000000000000    0.1972650000000000 C
   0.3702250000000000    0.3909100000000000    0.1630550000000000 C
   0.3329850000000000    0.3676800000000000    0.1079200000000000 C
   0.3194250000000000    0.4803500000000000    0.1277350000000000 C
   0.1845550000000000    0.2903800000000000    0.0026650000000000 C
   0.1695775000000000    0.3946700000000000    0.0349300000000000 C
   0.2113625000000000    0.3254600000000000    0.9677050000000000 C
   0.2209400000000000    0.2148000000000000    0.9243250000000001 C
   0.2444875000000000    0.2544200000000000    0.8877900000000001 C
   0.2407475000000000    0.8473800000000000    0.8160900000000000 C
   0.1991675000000000    0.7751700000000000    0.7597700000000001 C
   0.2722600000000000    0.9347200000000000    0.8045500000000000 C
   0.3163075000000000    0.0038300000000000    0.8570650000000000 C
   0.3477200000000000    0.0688800000000000    0.8376150000000000 C
   0.1670175000000000    0.6323200000000000    0.8920650000000000 C
   0.1805775000000000    0.5196499999999999    0.8722500000000000 C
   0.1297775000000000    0.6091000000000000    0.8369350000000000 C
   0.1117800000000000    0.7139799999999999    0.8546400000000001 C
   0.0707525000000000    0.6749000000000001    0.8027200000000000 C
   0.3154475000000000    0.7096200000000000    0.9973250000000000 C
   0.3304250000000000    0.6053300000000000    0.9650550000000000 C
   0.2886400000000000    0.6745400000000000    0.0322800000000000 C
   0.2790650000000000    0.7852000000000000    0.0756600000000000 C
   0.2555150000000000    0.7455700000000000    0.1121900000000000 C
   0.2592525000000000    0.1526100000000000    0.6838950000000000 C
   0.3008375000000000    0.2248400000000000    0.7402150000000001 C
   0.2277425000000000    0.0652800000000000    0.6954350000000000 C
   0.1836925000000000    0.9961700000000000    0.6429199999999999 C
   0.1522850000000000    0.9311300000000000    0.6623700000000000 C
   0.3882250000000000    0.2860200000000000    0.6453450000000001 C
   0.4292525000000000    0.3251000000000000    0.6972650000000000 C
   0.3702250000000000    0.3909100000000000    0.6630549999999999 C
   0.3329850000000000    0.3676800000000000    0.6079200000000000 C
   0.3194250000000000    0.4803500000000000    0.6277349999999999 C
   0.1845550000000000    0.2903800000000000    0.5026650000000000 C
   0.1695775000000000    0.3946700000000000    0.5349300000000000 C
   0.2113625000000000    0.3254600000000000    0.4677050000000000 C
   0.2209400000000000    0.2148000000000000    0.4243250000000000 C
   0.2444875000000000    0.2544200000000000    0.3877900000000000 C
   0.2407475000000000    0.8473800000000000    0.3160900000000000 C
   0.1991675000000000    0.7751700000000000    0.2597700000000000 C
   0.2722600000000000    0.9347200000000000    0.3045500000000000 C
   0.3163075000000000    0.0038300000000000    0.3570650000000000 C
   0.3477200000000000    0.0688800000000000    0.3376150000000000 C
   0.1670175000000000    0.6323200000000000    0.3920650000000000 C
   0.1805775000000000    0.5196499999999999    0.3722500000000000 C
   0.1297775000000000    0.6091000000000000    0.3369350000000000 C
   0.1117800000000000    0.7139799999999999    0.3546400000000000 C
   0.0707525000000000    0.6749000000000001    0.3027200000000000 C
   0.3154475000000000    0.7096200000000000    0.4973250000000000 C
   0.3304250000000000    0.6053300000000000    0.4650550000000000 C
   0.2886400000000000    0.6745400000000000    0.5322800000000000 C
   0.2790650000000000    0.7852000000000000    0.5756600000000001 C
   0.2555150000000000    0.7455700000000000    0.6121900000000000 C
   0.5092525000000000    0.1526100000000000    0.6838950000000000 C
   0.5508375000000000    0.2248400000000000    0.7402150000000001 C
   0.4777425000000000    0.0652800000000000    0.6954350000000000 C
   0.4336925000000000    0.9961700000000000    0.6429199999999999 C
   0.4022850000000000    0.9311300000000000    0.6623700000000000 C
   0.6382250000000000    0.2860200000000000    0.6453450000000001 C
   0.6792525000000000    0.3251000000000000    0.6972650000000000 C
   0.6202250000000000    0.3909100000000000    0.6630549999999999 C
   0.5829850000000000    0.3676800000000000    0.6079200000000000 C
   0.5694250000000000    0.4803500000000000    0.6277349999999999 C
   0.4345550000000000    0.2903800000000000    0.5026650000000000 C
   0.4195775000000000    0.3946700000000000    0.5349300000000000 C
   0.4613625000000000    0.3254600000000000    0.4677050000000000 C
   0.4709400000000000    0.2148000000000000    0.4243250000000000 C
   0.4944875000000000    0.2544200000000000    0.3877900000000000 C
   0.4907475000000000    0.8473800000000000    0.3160900000000000 C
   0.4491675000000000    0.7751700000000000    0.2597700000000000 C
   0.5222599999999999    0.9347200000000000    0.3045500000000000 C
   0.5663075000000000    0.0038300000000000    0.3570650000000000 C
   0.5977200000000000    0.0688800000000000    0.3376150000000000 C
   0.4170175000000000    0.6323200000000000    0.3920650000000000 C
   0.4305775000000000    0.5196499999999999    0.3722500000000000 C
   0.3797775000000000    0.6091000000000000    0.3369350000000000 C
   0.3617800000000000    0.7139799999999999    0.3546400000000000 C
   0.3207525000000000    0.6749000000000001    0.3027200000000000 C
   0.5654475000000000    0.7096200000000000    0.4973250000000000 C
   0.5804250000000000    0.6053300000000000    0.4650550000000000 C
   0.5386400000000000    0.6745400000000000    0.5322800000000000 C
   0.5290650000000000    0.7852000000000000    0.5756600000000001 C
   0.5055150000000000    0.7455700000000000    0.6121900000000000 C
   0.7592525000000000    0.1526100000000000    0.1838950000000000 C
   0.8008375000000000    0.2248400000000000    0.2402150000000000 C
   0.7277425000000000    0.0652800000000000    0.1954350000000000 C
   0.6836925000000000    0.9961700000000000    0.1429200000000000 C
   0.6522850000000000    0.9311300000000000    0.1623700000000000 C
   0.8882250000000000    0.2860200000000000    0.1453450000000000 C
   0.9292525000000000    0.3251000000000000    0.1972650000000000 C
   0.8702250000000000    0.3909100000000000    0.1630550000000000 C
   0.8329850000000000    0.3676800000000000    0.1079200000000000 C
   0.8194250000000000    0.4803500000000000    0.1277350000000000 C