H3 O2
1.0
  23.0864912093129817    0.0000000000000000   -0.0201467693309736
  -0.5233878437265779   14.6576576557515565   -0.0051197487238280
   0.0000000000000000    0.0000000000000000   15.8130000000000006
H O
3 2
direct
   0.2017720609333433    0.6114997713795457    0.6711613000600152 H
   0.1739760869298045    0.3321817006800716    0.7199863907845663 H
   0.1874939280748313    0.4720870250916887    0.6964205919509522 H
   0.1975700000000000    0.5458200000000000    0.6775099999999999 O
   0.1825633333333333    0.3950200000000000    0.7038700000000000 O
