H8 O4
1.0
  22.9579999999999984    0.0000000000000000    0.0000000000000014
   0.0000000000000060   37.5450000000000017    0.0000000000000023
   0.0000000000000000    0.0000000000000000   29.7040000000000006
H O
8 4
direct
   0.7328733122358367    0.6268752966249697    0.1040105283065235 H
   0.7639312536939961    0.6169051455022054    0.0456673121849618 H
   0.7328733122358366    0.6268752966249697    0.8959744716934767 H
   0.7639312536939962    0.6169051455022054    0.9543176878150382 H
   0.2360487463060040    0.3831048544977946    0.0456673121849619 H
   0.2685001858976075    0.3993795214612396    0.0597235053927368 H
   0.2360487463060040    0.3831048544977946    0.9543176878150381 H
   0.2685084886122405    0.3993762799449920    0.9402574475526111 H
   0.7483800000000000    0.6259399999999999    0.0741350000000000 O
   0.7483800000000000    0.6259399999999999    0.9258500000000001 O
   0.2516000000000000    0.3740700000000000    0.0741350000000000 O
   0.2516000000000000    0.3740700000000000    0.9258500000000001 O
