H4 O2
1.0
  22.9579999999999984    0.0000000000000000    0.0000000000000014
   0.0000000000000060   37.5450000000000017    0.0000000000000023
   0.0000000000000000    0.0000000000000000   29.7040000000000006
H O
4 2
direct
   0.6327887604747157    0.3549061658843629    0.1322538740217026 H
   0.6327782724972901    0.3117670207498469    0.1177341691301679 H
   0.3671965653542590    0.3549042688884319    0.1177367638439773 H
   0.3672017275027099    0.3117670207498469    0.1322558308698321 H
   0.6547900000000000    0.3333333333333333    0.1250000000000000 O
   0.3451900000000000    0.3333333333333333    0.1249900000000000 O
