C1 N1
1.0
  14.9499999999999993    0.0000000000000000    0.0000000000000009
   0.0000000000000024   14.8919999999999995    0.0000000000000009
   0.0000000000000000    0.0000000000000000   13.0809999999999995
C N
1 1
direct
   0.0012700000000000    0.3375900000000000    0.5989000000000000 C
   0.0005900000000000    0.3939200000000000    0.6611000000000000 N
