Zn8 Ni6 C23 N23
1.0
  14.9499999999999993    0.0000000000000000    0.0000000000000009
   0.0000000000000024   14.8919999999999995    0.0000000000000009
   0.0000000000000000    0.0000000000000000   13.0809999999999995
Zn Ni C N
8 6 23 23
direct
   0.0000500000000000    0.5000700000000000    0.7507100000000000 Zn
   0.5001100000000001    0.9999800000000000    0.7507000000000000 Zn
   0.5000700000000000    0.5000300000000000    0.7507900000000000 Zn
   0.0001200000000000    0.0000200000000000    0.2491900000000000 Zn
   0.0001100000000000    0.5000700000000000    0.2492800000000000 Zn
   0.5000599999999999    0.9999800000000000    0.2492700000000000 Zn
   0.5000500000000000    0.5000300000000000    0.2490000000000000 Zn
   0.0000800000000000    0.0000200000000000    0.7507800000000000 Zn
   0.2502500000000000    0.9982400000000000    0.9999200000000000 Ni
   0.2501000000000000    0.5017500000000000    0.9999500000000000 Ni
   0.0017800000000000    0.2500300000000000    0.4999900000000000 Ni
   0.0018200000000000    0.7501500000000000    0.4999900000000000 Ni
   0.5017900000000000    0.2500600000000000    0.4999900000000000 Ni
   0.4982200000000000    0.7499700000000000    0.4999900000000000 Ni
   0.3376100000000000    0.9988700000000000    0.9010000000000000 C
   0.3374500000000000    0.5012500000000000    0.9012900000000000 C
   0.1627600000000000    0.9986900000000000    0.9013500000000000 C
   0.1626000000000000    0.5013400000000000    0.9014200000000000 C
   0.0013000000000000    0.3375900000000000    0.4010800000000000 C
   0.0013700000000000    0.8377100000000000    0.4011700000000000 C
   0.5013200000000000    0.3376100000000000    0.4010700000000000 C
   0.4985900000000000    0.8375800000000000    0.4012000000000000 C
   0.0014000000000000    0.1624700000000000    0.4010600000000000 C
   0.0014200000000000    0.6625200000000000    0.4012000000000000 C
   0.5014200000000000    0.1624900000000000    0.4010700000000000 C
   0.4986300000000000    0.6624000000000000    0.4011600000000000 C
   0.1627200000000000    0.9986800000000000    0.0984400000000000 C
   0.1626600000000000    0.5013200000000000    0.0985400000000000 C
   0.3375800000000000    0.9988500000000000    0.0985900000000000 C
   0.3375100000000000    0.5012200000000000    0.0985500000000000 C
   0.0013000000000000    0.8377100000000000    0.5988000000000000 C
   0.5013800000000000    0.3376000000000000    0.5989300000000000 C
   0.4986200000000000    0.8375700000000000    0.5987900000000000 C
   0.0013200000000000    0.1624700000000000    0.5989200000000000 C
   0.0013700000000000    0.6625300000000000    0.5987800000000000 C
   0.5014800000000000    0.1624800000000000    0.5988900000000000 C
   0.4987000000000000    0.6623900000000000    0.5988000000000000 C
   0.3941700000000000    0.9997400000000000    0.8395700000000000 N
   0.3940400000000000    0.5004200000000000    0.8395800000000000 N
   0.1060300000000000    0.9994200000000000    0.8398300000000000 N
   0.1059000000000000    0.5006000000000000    0.8398600000000001 N
   0.0006500000000000    0.3939100000000000    0.3387900000000000 N
   0.0007600000000000    0.8941300000000000    0.3390000000000000 N
   0.5007200000000001    0.3939100000000000    0.3387000000000000 N
   0.4992400000000000    0.8940700000000000    0.3391000000000000 N
   0.0008100000000000    0.1061600000000000    0.3387500000000000 N
   0.0008200000000000    0.6060300000000000    0.3391200000000000 N
   0.5008500000000000    0.1061500000000000    0.3388000000000000 N
   0.4992900000000000    0.6059700000000000    0.3390100000000000 N
   0.1059800000000000    0.9994200000000000    0.1599500000000000 N
   0.1059800000000000    0.5005800000000000    0.1601300000000000 N
   0.3941100000000000    0.9997000000000000    0.1603500000000000 N
   0.3941200000000000    0.5003800000000000    0.1602300000000000 N
   0.0006400000000000    0.8941400000000000    0.6609000000000000 N
   0.5008100000000000    0.3938900000000000    0.6612600000000000 N
   0.4992800000000000    0.8940500000000000    0.6608900000000000 N
   0.0006700000000000    0.1061700000000000    0.6612400000000000 N
   0.0007500000000000    0.6060300000000000    0.6608700000000000 N
   0.5009600000000000    0.1061300000000000    0.6611500000000000 N
   0.4994000000000000    0.6059500000000000    0.6609500000000000 N
