H3 O2
1.0
  39.9449999939160278    0.0000000000000000   -0.0006971717696783
  -0.0040594075971909   14.5369985475674248    0.0050743701641994
   0.0000000000000000    0.0000000000000000   14.5370000000000008
H O
3 2
direct
   0.0230015607535578    0.0974558615446959    0.4972725968606151 H
   0.0438003649394119    0.1227029122707280    0.4168387964830009 H
   0.1443326289387515    0.4251956211382793    0.1454812437536423 H
   0.0240833333333333    0.1135000000000000    0.4557200000000000 O
   0.1342100000000000    0.4615800000000000    0.0961400000000000 O
