H8 C10 N3 O2
1.0
  39.9449999939160278    0.0000000000000000   -0.0006971717696783
  -0.0040594075971909   14.5369985475674248    0.0050743701641994
   0.0000000000000000    0.0000000000000000   14.5370000000000008
H C N O
8 10 3 2
direct
   0.1612200000000000    0.3048600000000000    0.3086400000000000 H
   0.1204733333333333    0.2169600000000000    0.4070200000000000 H
   0.0392133333333333    0.3229100000000000    0.2410500000000000 H
   0.0798966666666667    0.4102200000000000    0.1472300000000000 H
   0.0226200000000000    0.3325300000000000    0.4305700000000000 H
   0.0923933333333333    0.0338600000000000    0.4156400000000000 H
   0.0859100000000000    0.0775000000000000    0.3033600000000000 H
   0.0576966666666667    0.9930900000000000    0.3487000000000000 H
   0.1476866666666667    0.4131400000000000    0.1618300000000000 C
   0.1230333333333333    0.3632100000000000    0.2224100000000000 C
   0.1344100000000000    0.3081700000000000    0.2952500000000000 C
   0.1118633333333333    0.2595400000000000    0.3499800000000000 C
   0.0776566666666667    0.2664700000000000    0.3306300000000000 C
   0.0657533333333333    0.3205600000000000    0.2582800000000000 C
   0.0886366666666667    0.3689200000000000    0.2047100000000000 C
   0.0271166666666667    0.2590500000000000    0.4315600000000000 C
   0.0509500000000000    0.1260400000000000    0.4027400000000000 C
   0.0730500000000000    0.0535300000000000    0.3655000000000000 C
   0.0089433333333333    0.1972500000000000    0.4742400000000000 N
   0.0240833333333333    0.1135000000000000    0.4557200000000000 N
   0.0536800000000000    0.2188000000000000    0.3864800000000000 N
   0.1342100000000000    0.4615800000000000    0.0961400000000000 O
   0.1783633333333333    0.4057500000000000    0.1760700000000000 O
