H10 C8 N4
1.0
  39.6509917323455454    0.0000000000000000   -0.0256054967835345
  -0.0165390842791033   29.6579699793144229    0.0388222201299288
   0.0000000000000000    0.0000000000000000   21.9420000000000002
H C N
10 8 4
direct
   0.1138566666666667    0.5520600000000000    0.2837200000000000 H
   0.0676566666666667    0.5996750000000000    0.1229500000000000 H
   0.1126866666666667    0.6648000000000001    0.1644400000000000 H
   0.1427500000000000    0.6287199999999999    0.3191600000000000 H
   0.1434866666666667    0.6737850000000000    0.2662400000000000 H
   0.1869666666666666    0.5877800000000000    0.2579500000000000 H
   0.1857200000000000    0.6299049999999999    0.2017500000000000 H
   0.2181300000000000    0.7041550000000000    0.2207700000000000 H
   0.2133400000000000    0.6096150000000000    0.3656400000000000 H
   0.2593166666666666    0.6781349999999999    0.3942700000000000 H
   0.1078566666666667    0.5731900000000000    0.2448800000000000 C
   0.0848233333333333    0.5992950000000000    0.1613300000000000 C
   0.1069333333333333    0.6314350000000000    0.1813900000000000 C
   0.1469266666666666    0.6372599999999999    0.2710000000000000 C
   0.1825033333333334    0.6238800000000000    0.2506700000000000 C
   0.2227600000000000    0.6885250000000001    0.2646200000000000 C
   0.2208166666666667    0.6397349999999999    0.3411600000000000 C
   0.2434200000000000    0.6732850000000000    0.3546100000000000 C
   0.0855000000000000    0.5631500000000000    0.2014500000000000 N
   0.1212166666666667    0.6146850000000000    0.2344800000000000 N
   0.2079566666666667    0.6497150000000000    0.2838700000000000 N
   0.2445266666666667    0.7034500000000000    0.3063000000000000 N
