H4 O2
1.0
  39.6509917323455454    0.0000000000000000   -0.0256054967835345
  -0.0165390842791033   29.6579699793144229    0.0388222201299288
   0.0000000000000000    0.0000000000000000   21.9420000000000002
H O
4 2
direct
   0.1018888437333924    0.5705099518898132    0.2332869233640031 H
   0.0850224215148493    0.5886604546981821    0.1731340657769798 H
   0.2437458267922528    0.6821662336038901    0.3403864828309655 H
   0.2285474007097222    0.6924933134269191    0.2757020303942369 H
   0.0855000000000000    0.5631500000000000    0.2014500000000000 O
   0.2445266666666667    0.7034500000000000    0.3063000000000000 O
