H4 O3
1.0
  39.6509917323455454    0.0000000000000000   -0.0256054967835345
  -0.0165390842791033   29.6579699793144229    0.0388222201299288
   0.0000000000000000    0.0000000000000000   21.9420000000000002
H O
4 3
direct
   0.1320252316334458    0.7519908728824745    0.1892164107889275 H
   0.2781817753719640    0.7878198567058059    0.8930575070547117 H
   0.2526562713536942    0.6566847796211298    0.8752929945369250 H
   0.2629826208059085    0.7169239842345083    0.8866223435897690 H
   0.1422366666666667    0.7539500000000000    0.2297400000000000 O
   0.2787766666666667    0.7581300000000000    0.8746000000000000 O
   0.2636166666666667    0.6852800000000000    0.8669500000000000 O
