H8 O5
1.0
  10.3934558511704029    0.0000000000000000   -0.0302938900060648
  -0.0466228453397986   17.8838959833951137   -0.0393289384119215
   0.0000000000000000    0.0000000000000000   21.0090000000000003
H O
8 5
direct
   0.3917685545451752    0.4335290286475073    0.3904415125842517 H
   0.1524903495720229    0.5358622240410257    0.4941299544634495 H
   0.2840900037822915    0.4966973594362425    0.4417632430047204 H
   0.4635232294838603    0.5778876312203570    0.3826331226453665 H
   0.4919441913685992    0.6691871313781416    0.3978841830128279 H
   0.4707208316650858    0.8135365356191593    0.4339102955628713 H
   0.2564628316869740    0.7077743470288180    0.5481046254378997 H
   0.3658759263068553    0.7489666498349302    0.4847102420274807 H
   0.3122700000000000    0.4272700000000000    0.4139300000000000 O
   0.1719700000000000    0.4878700000000000    0.4748900000000000 O
   0.5118400000000000    0.6237400000000000    0.3738700000000000 O
   0.4205400000000000    0.8187000000000000    0.4725200000000000 O
   0.2945100000000000    0.7563100000000000    0.5396200000000000 O
