Zn72 H290 C388 O252
1.0
  31.1204999810403073    0.0000000000000000   -0.0010863103795084
  -0.2117084872785219   39.5109299004372474   -0.0151713265100432
   0.0000000000000000    0.0000000000000000   19.9939999999999998
Zn H C O
72 290 388 252
direct
   0.8126666666666666    0.4621200000000000    0.0140200000000000 Zn
   0.6873333333333334    0.5378799999999999    0.5140400000000001 Zn
   0.7888033333333333    0.5600499999999999    0.5138600000000000 Zn
   0.7111866666666666    0.4399600000000000    0.0138400000000000 Zn
   0.8549233333333333    0.2946466666666666    0.4860600000000000 Zn
   0.9783999999999999    0.3720233333333333    0.9860700000000000 Zn
   0.9555533333333333    0.2725600000000000    0.4859700000000000 Zn
   0.8777766666666666    0.3941100000000000    0.9859900000000000 Zn
   0.4793333333333333    0.7954533333333333    0.0140200000000000 Zn
   0.3540000000000000    0.8712133333333333    0.5140400000000001 Zn
   0.4554700000000000    0.8933833333333333    0.5138600000000000 Zn
   0.3778533333333333    0.7732933333333333    0.0138400000000000 Zn
   0.5215900000000000    0.6279800000000000    0.4860600000000000 Zn
   0.6450666666666667    0.7053566666666666    0.9860700000000000 Zn
   0.6222200000000000    0.6058933333333333    0.4859700000000000 Zn
   0.5444433333333333    0.7274433333333333    0.9859900000000000 Zn
   0.1460000000000000    0.1287866666666667    0.0140200000000000 Zn
   0.0206666666666667    0.2045466666666667    0.5140400000000001 Zn
   0.1221366666666667    0.2267166666666667    0.5138600000000000 Zn
   0.0445200000000000    0.1066266666666667    0.0138400000000000 Zn
   0.1882566666666667    0.9613133333333332    0.4860600000000000 Zn
   0.3117333333333333    0.0386900000000000    0.9860700000000000 Zn
   0.2888866666666666    0.9392266666666667    0.4859700000000000 Zn
   0.2111100000000000    0.0607766666666667    0.9859900000000000 Zn
   0.4793333333333333    0.4621200000000000    0.0140200000000000 Zn
   0.3540000000000000    0.5378799999999999    0.5140400000000001 Zn
   0.4554700000000000    0.5600499999999999    0.5138600000000000 Zn
   0.3778533333333333    0.4399600000000000    0.0138400000000000 Zn
   0.5215900000000000    0.2946466666666666    0.4860600000000000 Zn
   0.6450666666666667    0.3720233333333333    0.9860700000000000 Zn
   0.6222200000000000    0.2725600000000000    0.4859700000000000 Zn
   0.5444433333333333    0.3941100000000000    0.9859900000000000 Zn
   0.1460000000000000    0.7954533333333333    0.0140200000000000 Zn
   0.0206666666666667    0.8712133333333333    0.5140400000000001 Zn
   0.1221366666666667    0.8933833333333333    0.5138600000000000 Zn
   0.0445200000000000    0.7732933333333333    0.0138400000000000 Zn
   0.1882566666666667    0.6279800000000000    0.4860600000000000 Zn
   0.3117333333333333    0.7053566666666666    0.9860700000000000 Zn
   0.2888866666666666    0.6058933333333333    0.4859700000000000 Zn
   0.2111100000000000    0.7274433333333333    0.9859900000000000 Zn
   0.8126666666666666    0.1287866666666667    0.0140200000000000 Zn
   0.6873333333333334    0.2045466666666667    0.5140400000000001 Zn
   0.7888033333333333    0.2267166666666667    0.5138600000000000 Zn
   0.7111866666666666    0.1066266666666667    0.0138400000000000 Zn
   0.8549233333333333    0.9613133333333332    0.4860600000000000 Zn
   0.9783999999999999    0.0386900000000000    0.9860700000000000 Zn
   0.9555533333333333    0.9392266666666667    0.4859700000000000 Zn
   0.8777766666666666    0.0607766666666667    0.9859900000000000 Zn
   0.1460000000000000    0.4621200000000000    0.0140200000000000 Zn
   0.0206666666666667    0.5378799999999999    0.5140400000000001 Zn
   0.1221366666666667    0.5600499999999999    0.5138600000000000 Zn
   0.0445200000000000    0.4399600000000000    0.0138400000000000 Zn
   0.1882566666666667    0.2946466666666666    0.4860600000000000 Zn
   0.3117333333333333    0.3720233333333333    0.9860700000000000 Zn
   0.2888866666666666    0.2725600000000000    0.4859700000000000 Zn
   0.2111100000000000    0.3941100000000000    0.9859900000000000 Zn
   0.8126666666666666    0.7954533333333333    0.0140200000000000 Zn
   0.6873333333333334    0.8712133333333333    0.5140400000000001 Zn
   0.7888033333333333    0.8933833333333333    0.5138600000000000 Zn
   0.7111866666666666    0.7732933333333333    0.0138400000000000 Zn
   0.8549233333333333    0.6279800000000000    0.4860600000000000 Zn
   0.9783999999999999    0.7053566666666666    0.9860700000000000 Zn
   0.9555533333333333    0.6058933333333333    0.4859700000000000 Zn
   0.8777766666666666    0.7274433333333333    0.9859900000000000 Zn
   0.4793333333333333    0.1287866666666667    0.0140200000000000 Zn
   0.3540000000000000    0.2045466666666667    0.5140400000000001 Zn
   0.4554700000000000    0.2267166666666667    0.5138600000000000 Zn
   0.3778533333333333    0.1066266666666667    0.0138400000000000 Zn
   0.5215900000000000    0.9613133333333332    0.4860600000000000 Zn
   0.6450666666666667    0.0386900000000000    0.9860700000000000 Zn
   0.6222200000000000    0.9392266666666667    0.4859700000000000 Zn
   0.5444433333333333    0.0607766666666667    0.9859900000000000 Zn
   0.6822366666666666    0.4911099999999999    0.3254300000000000 H
   0.6890200000000000    0.4728533333333333    0.2055300000000000 H
   0.8192633333333332    0.5092500000000000    0.2021400000000000 H
   0.8126300000000000    0.5271633333333333    0.3220400000000000 H
   0.9328166666666666    0.4794666666666667    0.1259400000000000 H
   0.8754400000000000    0.4800833333333333    0.1215900000000000 H
   0.9026366666666666    0.4408566666666667    0.1312700000000000 H
   0.9083333333333332    0.4873466666666667    0.0078400000000000 H
   0.6808633333333333    0.4905266666666667    0.7019300000000001 H
   0.6874933333333333    0.4725933333333333    0.8217800000000000 H
   0.8178599999999999    0.5087100000000000    0.8253100000000000 H
   0.8110766666666667    0.5269900000000000    0.7054500000000000 H
   0.5670666666666666    0.5198366666666666    0.6248500000000000 H
   0.6244433333333332    0.5191900000000000    0.6206100000000000 H
   0.5972999999999999    0.5583800000000000    0.6312300000000000 H
   0.5916500000000000    0.5126633333333332    0.5066200000000000 H
   0.9831900000000000    0.3247633333333333    0.1728600000000000 H
   0.9772099999999999    0.3058999999999999    0.2924600000000000 H
   0.8475133333333333    0.3422433333333333    0.2991800000000000 H
   0.8533066666666667    0.3607400000000000    0.1795900000000000 H
   0.7922000000000000    0.3132066666666666    0.3794100000000000 H
   0.7348266666666666    0.3124200000000000    0.3747300000000000 H
   0.7647100000000000    0.2739533333333333    0.3685700000000000 H
   0.7590633333333333    0.3196833333333333    0.4931100000000000 H
   0.9859166666666666    0.3245400000000000    0.7990800000000000 H
   0.9801000000000000    0.3060633333333333    0.6794500000000000 H
   0.8502433333333332    0.3421433333333333    0.6726700000000000 H
   0.8562133333333333    0.3609933333333333    0.7923100000000000 H
   0.0985033333333333    0.3540400000000000    0.8749200000000000 H
   0.0411300000000000    0.3532433333333333    0.8795900000000000 H
   0.0686000000000000    0.3924833333333333    0.8685400000000000 H
   0.0742566666666667    0.3469800000000000    0.9933300000000000 H
   0.3489033333333333    0.8244433333333333    0.3254300000000000 H
   0.3556866666666667    0.8061866666666666    0.2055300000000000 H
   0.4859300000000000    0.8425833333333332    0.2021400000000000 H
   0.4792966666666666    0.8604966666666666    0.3220400000000000 H
   0.5994833333333334    0.8128000000000000    0.1259400000000000 H
   0.5421066666666666    0.8134166666666667    0.1215900000000000 H
   0.5693033333333333    0.7741899999999999    0.1312700000000000 H
   0.5750000000000000    0.8206800000000000    0.0078400000000000 H
   0.3475300000000000    0.8238599999999999    0.7019300000000001 H
   0.3541600000000000    0.8059266666666667    0.8217800000000000 H
   0.4845266666666667    0.8420433333333333    0.8253100000000000 H
   0.4777433333333333    0.8603233333333333    0.7054500000000000 H
   0.2337333333333333    0.8531700000000000    0.6248500000000000 H
   0.2911100000000000    0.8525233333333333    0.6206100000000000 H
   0.2639666666666667    0.8917133333333332    0.6312300000000000 H
   0.2583166666666666    0.8459966666666666    0.5066200000000000 H
   0.6498566666666666    0.6580966666666666    0.1728600000000000 H
   0.6438766666666667    0.6392333333333333    0.2924600000000000 H
   0.5141800000000000    0.6755766666666666    0.2991800000000000 H
   0.5199733333333333    0.6940733333333333    0.1795900000000000 H
   0.4588666666666666    0.6465399999999999    0.3794100000000000 H
   0.4014933333333333    0.6457533333333333    0.3747300000000000 H
   0.4313766666666666    0.6072866666666666    0.3685700000000000 H
   0.4257299999999999    0.6530166666666666    0.4931100000000000 H
   0.6525833333333333    0.6578733333333333    0.7990800000000000 H
   0.6467666666666667    0.6393966666666666    0.6794500000000000 H
   0.5169100000000000    0.6754766666666666    0.6726700000000000 H
   0.5228800000000000    0.6943266666666666    0.7923100000000000 H
   0.7651699999999999    0.6873733333333333    0.8749200000000000 H
   0.7077966666666666    0.6865766666666666    0.8795900000000000 H
   0.7352666666666666    0.7258166666666667    0.8685400000000000 H
   0.7409233333333333    0.6803133333333333    0.9933300000000000 H
   0.0155700000000000    0.1577766666666666    0.3254300000000000 H
   0.0223533333333333    0.1395200000000000    0.2055300000000000 H
   0.1525966666666667    0.1759166666666667    0.2021400000000000 H
   0.1459633333333333    0.1938300000000000    0.3220400000000000 H
   0.2661500000000000    0.1461333333333333    0.1259400000000000 H
   0.2087733333333333    0.1467500000000000    0.1215900000000000 H
   0.2359700000000000    0.1075233333333333    0.1312700000000000 H
   0.2416666666666666    0.1540133333333333    0.0078400000000000 H
   0.0141966666666667    0.1571933333333333    0.7019300000000001 H
   0.0208266666666667    0.1392600000000000    0.8217800000000000 H
   0.1511933333333333    0.1753766666666667    0.8253100000000000 H
   0.1444100000000000    0.1936566666666666    0.7054500000000000 H
   0.9004000000000000    0.1865033333333333    0.6248500000000000 H
   0.9577766666666666    0.1858566666666667    0.6206100000000000 H
   0.9306333333333333    0.2250466666666666    0.6312300000000000 H
   0.9249833333333333    0.1793300000000000    0.5066200000000000 H
   0.3165233333333333    0.9914299999999999    0.1728600000000000 H
   0.3105433333333333    0.9725666666666666    0.2924600000000000 H
   0.1808466666666667    0.0089100000000000    0.2991800000000000 H
   0.1866400000000000    0.0274066666666667    0.1795900000000000 H
   0.1255333333333333    0.9798733333333333    0.3794100000000000 H
   0.0681600000000000    0.9790866666666667    0.3747300000000000 H
   0.0980433333333333    0.9406200000000000    0.3685700000000000 H
   0.0923966666666667    0.9863499999999999    0.4931100000000000 H
   0.3192500000000000    0.9912066666666666    0.7990800000000000 H
   0.3134333333333333    0.9727299999999999    0.6794500000000000 H
   0.1835766666666667    0.0088100000000000    0.6726700000000000 H
   0.1895466666666667    0.0276600000000000    0.7923100000000000 H
   0.4318366666666666    0.0207066666666667    0.8749200000000000 H
   0.3744633333333333    0.0199100000000000    0.8795900000000000 H
   0.4019333333333333    0.0591500000000000    0.8685400000000000 H
   0.4075900000000000    0.0136466666666667    0.9933300000000000 H
   0.3489033333333333    0.4911099999999999    0.3254300000000000 H
   0.3556866666666667    0.4728533333333333    0.2055300000000000 H
   0.4859300000000000    0.5092500000000000    0.2021400000000000 H
   0.4792966666666666    0.5271633333333333    0.3220400000000000 H
   0.5994833333333334    0.4794666666666667    0.1259400000000000 H
   0.5421066666666666    0.4800833333333333    0.1215900000000000 H
   0.5693033333333333    0.4408566666666667    0.1312700000000000 H
   0.5750000000000000    0.4873466666666667    0.0078400000000000 H
   0.3475300000000000    0.4905266666666667    0.7019300000000001 H
   0.3541600000000000    0.4725933333333333    0.8217800000000000 H
   0.4845266666666667    0.5087100000000000    0.8253100000000000 H
   0.4777433333333333    0.5269900000000000    0.7054500000000000 H
   0.2337333333333333    0.5198366666666666    0.6248500000000000 H
   0.2911100000000000    0.5191900000000000    0.6206100000000000 H
   0.2639666666666667    0.5583800000000000    0.6312300000000000 H
   0.2583166666666666    0.5126633333333332    0.5066200000000000 H
   0.5288363826018232    0.3693758873544851    1.0961632261658063 H
   0.6487321059991266    0.3389551978959684    1.0908964185157355 H
   0.5891313020539971    0.3516373045235480    1.1021178912305751 H
   0.6336576724480423    0.2948574997992958    0.3733979228821543 H
   0.5159766360369143    0.3297875510156293    0.3830376188728828 H
   0.5736054004969983    0.3150596013194134    0.3696733697537034 H
   0.4588666666666666    0.3132066666666666    0.3794100000000000 H
   0.4014933333333333    0.3124200000000000    0.3747300000000000 H
   0.4313766666666666    0.2739533333333333    0.3685700000000000 H
   0.4257299999999999    0.3196833333333333    0.4931100000000000 H
   0.6525833333333333    0.3245400000000000    0.7990800000000000 H
   0.6467666666666667    0.3060633333333333    0.6794500000000000 H
   0.5169100000000000    0.3421433333333333    0.6726700000000000 H
   0.5228800000000000    0.3609933333333333    0.7923100000000000 H
   0.7651699999999999    0.3540400000000000    0.8749200000000000 H
   0.7077966666666666    0.3532433333333333    0.8795900000000000 H
   0.7352666666666666    0.3924833333333333    0.8685400000000000 H
   0.7409233333333333    0.3469800000000000    0.9933300000000000 H
   0.0155700000000000    0.8244433333333333    0.3254300000000000 H
   0.0223533333333333    0.8061866666666666    0.2055300000000000 H
   0.1525966666666667    0.8425833333333332    0.2021400000000000 H
   0.1459633333333333    0.8604966666666666    0.3220400000000000 H
   0.2661500000000000    0.8128000000000000    0.1259400000000000 H
   0.2087733333333333    0.8134166666666667    0.1215900000000000 H
   0.2359700000000000    0.7741899999999999    0.1312700000000000 H
   0.2416666666666666    0.8206800000000000    0.0078400000000000 H
   0.0141966666666667    0.8238599999999999    0.7019300000000001 H
   0.0208266666666667    0.8059266666666667    0.8217800000000000 H
   0.1511933333333333    0.8420433333333333    0.8253100000000000 H
   0.1444100000000000    0.8603233333333333    0.7054500000000000 H
   0.9004000000000000    0.8531700000000000    0.6248500000000000 H
   0.9577766666666666    0.8525233333333333    0.6206100000000000 H
   0.9306333333333333    0.8917133333333332    0.6312300000000000 H
   0.9249833333333333    0.8459966666666666    0.5066200000000000 H
   0.3165233333333333    0.6580966666666666    0.1728600000000000 H
   0.3105433333333333    0.6392333333333333    0.2924600000000000 H
   0.1808466666666667    0.6755766666666666    0.2991800000000000 H
   0.1866400000000000    0.6940733333333333    0.1795900000000000 H
   0.1255333333333333    0.6465399999999999    0.3794100000000000 H
   0.0681600000000000    0.6457533333333333    0.3747300000000000 H
   0.0980433333333333    0.6072866666666666    0.3685700000000000 H
   0.0923966666666667    0.6530166666666666    0.4931100000000000 H
   0.3192500000000000    0.6578733333333333    0.7990800000000000 H
   0.3134333333333333    0.6393966666666666    0.6794500000000000 H
   0.1835766666666667    0.6754766666666666    0.6726700000000000 H
   0.1895466666666667    0.6943266666666666    0.7923100000000000 H
   0.4318366666666666    0.6873733333333333    0.8749200000000000 H
   0.3744633333333333    0.6865766666666666    0.8795900000000000 H
   0.4019333333333333    0.7258166666666667    0.8685400000000000 H
   0.4075900000000000    0.6803133333333333    0.9933300000000000 H
   0.6822366666666666    0.1577766666666666    0.3254300000000000 H
   0.6890200000000000    0.1395200000000000    0.2055300000000000 H
   0.8192633333333332    0.1759166666666667    0.2021400000000000 H
   0.8126300000000000    0.1938300000000000    0.3220400000000000 H
   0.9328166666666666    0.1461333333333333    0.1259400000000000 H
   0.8754400000000000    0.1467500000000000    0.1215900000000000 H
   0.9026366666666666    0.1075233333333333    0.1312700000000000 H
   0.9083333333333332    0.1540133333333333    0.0078400000000000 H
   0.6808633333333333    0.1571933333333333    0.7019300000000001 H
   0.6874933333333333    0.1392600000000000    0.8217800000000000 H
   0.8178599999999999    0.1753766666666667    0.8253100000000000 H
   0.8110766666666667    0.1936566666666666    0.7054500000000000 H
   0.5670666666666666    0.1865033333333333    0.6248500000000000 H
   0.6244433333333332    0.1858566666666667    0.6206100000000000 H
   0.5972999999999999    0.2250466666666666    0.6312300000000000 H
   0.5916500000000000    0.1793300000000000    0.5066200000000000 H
   0.9831900000000000    0.9914299999999999    0.1728600000000000 H
   0.9772099999999999    0.9725666666666666    0.2924600000000000 H
   0.8475133333333333    0.0089100000000000    0.2991800000000000 H
   0.8533066666666667    0.0274066666666667    0.1795900000000000 H
   0.7922000000000000    0.9798733333333333    0.3794100000000000 H
   0.7348266666666666    0.9790866666666667    0.3747300000000000 H
   0.7647100000000000    0.9406200000000000    0.3685700000000000 H
   0.7590633333333333    0.9863499999999999    0.4931100000000000 H
   0.9859166666666666    0.9912066666666666    0.7990800000000000 H
   0.9801000000000000    0.9727299999999999    0.6794500000000000 H
   0.8502433333333332    0.0088100000000000    0.6726700000000000 H
   0.8562133333333333    0.0276600000000000    0.7923100000000000 H
   0.0985033333333333    0.0207066666666667    0.8749200000000000 H
   0.0411300000000000    0.0199100000000000    0.8795900000000000 H
   0.0686000000000000    0.0591500000000000    0.8685400000000000 H
   0.0742566666666667    0.0136466666666667    0.9933300000000000 H
   0.0155700000000000    0.4911099999999999    0.3254300000000000 H
   0.0223533333333333    0.4728533333333333    0.2055300000000000 H
   0.1525966666666667    0.5092500000000000    0.2021400000000000 H
   0.1459633333333333    0.5271633333333333    0.3220400000000000 H
   0.2661500000000000    0.4794666666666667    0.1259400000000000 H
   0.2087733333333333    0.4800833333333333    0.1215900000000000 H
   0.2359700000000000    0.4408566666666667    0.1312700000000000 H
   0.2416666666666666    0.4873466666666667    0.0078400000000000 H
   0.0141966666666667    0.4905266666666667    0.7019300000000001 H
   0.0208266666666667    0.4725933333333333    0.8217800000000000 H
   0.1511933333333333    0.5087100000000000    0.8253100000000000 H
   0.1444100000000000    0.5269900000000000    0.7054500000000000 H
   0.9004000000000000    0.5198366666666666    0.6248500000000000 H
   0.9577766666666666    0.5191900000000000    0.6206100000000000 H
   0.9306333333333333    0.5583800000000000    0.6312300000000000 H
   0.9249833333333333    0.5126633333333332    0.5066200000000000 H
   0.3165233333333333    0.3247633333333333    0.1728600000000000 H
   0.3105433333333333    0.3058999999999999    0.2924600000000000 H
   0.1808466666666667    0.3422433333333333    0.2991800000000000 H
   0.1866400000000000    0.3607400000000000    0.1795900000000000 H
   0.1255333333333333    0.3132066666666666    0.3794100000000000 H
   0.0681600000000000    0.3124200000000000    0.3747300000000000 H
   0.0980433333333333    0.2739533333333333    0.3685700000000000 H
   0.0923966666666667    0.3196833333333333    0.4931100000000000 H
   0.3192500000000000    0.3245400000000000    0.7990800000000000 H
   0.3134333333333333    0.3060633333333333    0.6794500000000000 H
   0.1835766666666667    0.3421433333333333    0.6726700000000000 H
   0.1895466666666667    0.3609933333333333    0.7923100000000000 H
   0.4318366666666666    0.3540400000000000    0.8749200000000000 H
   0.3744633333333333    0.3532433333333333    0.8795900000000000 H
   0.4019333333333333    0.3924833333333333    0.8685400000000000 H
   0.4075900000000000    0.3469800000000000    0.9933300000000000 H
   0.6822366666666666    0.8244433333333333    0.3254300000000000 H
   0.6890200000000000    0.8061866666666666    0.2055300000000000 H
   0.8192633333333332    0.8425833333333332    0.2021400000000000 H
   0.8126300000000000    0.8604966666666666    0.3220400000000000 H
   0.9328166666666666    0.8128000000000000    0.1259400000000000 H
   0.8754400000000000    0.8134166666666667    0.1215900000000000 H
   0.9026366666666666    0.7741899999999999    0.1312700000000000 H
   0.9083333333333332    0.8206800000000000    0.0078400000000000 H
   0.6808633333333333    0.8238599999999999    0.7019300000000001 H
   0.6874933333333333    0.8059266666666667    0.8217800000000000 H
   0.8178599999999999    0.8420433333333333    0.8253100000000000 H
   0.8110766666666667    0.8603233333333333    0.7054500000000000 H
   0.5670666666666666    0.8531700000000000    0.6248500000000000 H
   0.6244433333333332    0.8525233333333333    0.6206100000000000 H
   0.5972999999999999    0.8917133333333332    0.6312300000000000 H
   0.5916500000000000    0.8459966666666666    0.5066200000000000 H
   0.9831900000000000    0.6580966666666666    0.1728600000000000 H
   0.9772099999999999    0.6392333333333333    0.2924600000000000 H
   0.8475133333333333    0.6755766666666666    0.2991800000000000 H
   0.8533066666666667    0.6940733333333333    0.1795900000000000 H
   0.7922000000000000    0.6465399999999999    0.3794100000000000 H
   0.7348266666666666    0.6457533333333333    0.3747300000000000 H
   0.7647100000000000    0.6072866666666666    0.3685700000000000 H
   0.7590633333333333    0.6530166666666666    0.4931100000000000 H
   0.9859166666666666    0.6578733333333333    0.7990800000000000 H
   0.9801000000000000    0.6393966666666666    0.6794500000000000 H
   0.8502433333333332    0.6754766666666666    0.6726700000000000 H
   0.8562133333333333    0.6943266666666666    0.7923100000000000 H
   0.0985033333333333    0.6873733333333333    0.8749200000000000 H
   0.0411300000000000    0.6865766666666666    0.8795900000000000 H
   0.0686000000000000    0.7258166666666667    0.8685400000000000 H
   0.0742566666666667    0.6803133333333333    0.9933300000000000 H
   0.3489033333333333    0.1577766666666666    0.3254300000000000 H
   0.3556866666666667    0.1395200000000000    0.2055300000000000 H
   0.4859300000000000    0.1759166666666667    0.2021400000000000 H
   0.4792966666666666    0.1938300000000000    0.3220400000000000 H
   0.5994833333333334    0.1461333333333333    0.1259400000000000 H
   0.5421066666666666    0.1467500000000000    0.1215900000000000 H
   0.5693033333333333    0.1075233333333333    0.1312700000000000 H
   0.5750000000000000    0.1540133333333333    0.0078400000000000 H
   0.3475300000000000    0.1571933333333333    0.7019300000000001 H
   0.3541600000000000    0.1392600000000000    0.8217800000000000 H
   0.4845266666666667    0.1753766666666667    0.8253100000000000 H
   0.4777433333333333    0.1936566666666666    0.7054500000000000 H
   0.2337333333333333    0.1865033333333333    0.6248500000000000 H
   0.2911100000000000    0.1858566666666667    0.6206100000000000 H
   0.2639666666666667    0.2250466666666666    0.6312300000000000 H
   0.2583166666666666    0.1793300000000000    0.5066200000000000 H
   0.6498566666666666    0.9914299999999999    0.1728600000000000 H
   0.6438766666666667    0.9725666666666666    0.2924600000000000 H
   0.5141800000000000    0.0089100000000000    0.2991800000000000 H
   0.5199733333333333    0.0274066666666667    0.1795900000000000 H
   0.4588666666666666    0.9798733333333333    0.3794100000000000 H
   0.4014933333333333    0.9790866666666667    0.3747300000000000 H
   0.4313766666666666    0.9406200000000000    0.3685700000000000 H
   0.4257299999999999    0.9863499999999999    0.4931100000000000 H
   0.6525833333333333    0.9912066666666666    0.7990800000000000 H
   0.6467666666666667    0.9727299999999999    0.6794500000000000 H
   0.5169100000000000    0.0088100000000000    0.6726700000000000 H
   0.5228800000000000    0.0276600000000000    0.7923100000000000 H
   0.7651699999999999    0.0207066666666667    0.8749200000000000 H
   0.7077966666666666    0.0199100000000000    0.8795900000000000 H
   0.7352666666666666    0.0591500000000000    0.8685400000000000 H
   0.7409233333333333    0.0136466666666667    0.9933300000000000 H
   0.7584233333333333    0.4783933333333333    0.1258800000000000 C
   0.7431633333333333    0.5215566666666667    0.4017900000000000 C
   0.7120966666666666    0.4948666666666666    0.2979900000000000 C
   0.7158000000000000    0.4848333333333333    0.2315800000000000 C
   0.7894233333333333    0.5053333333333333    0.2295400000000000 C
   0.7857766666666666    0.5152733333333332    0.2960100000000000 C
   0.7544866666666666    0.4899900000000000    0.1968900000000000 C
   0.7470966666666666    0.5101066666666667    0.3306900000000000 C
   0.9043033333333332    0.4659166666666666    0.1075300000000000 C
   0.9477000000000000    0.4437200000000000    0.0123500000000000 C
   0.9062800000000000    0.4620500000000000    0.0312600000000000 C
   0.7568933333333333    0.4783566666666667    0.9016900000000000 C
   0.7416199999999999    0.5215466666666666    0.6258300000000000 C
   0.7106966666666666    0.4944566666666667    0.7293400000000000 C
   0.7143400000000000    0.4845033333333333    0.7957900000000000 C
   0.7456100000000000    0.5098499999999999    0.6967500000000000 C
   0.7879999999999999    0.5049500000000000    0.7978499999999999 C
   0.7842966666666666    0.5149933333333333    0.7314600000000000 C
   0.7530000000000000    0.4897100000000000    0.8305300000000000 C
   0.5956166666666667    0.5334733333333332    0.6068400000000000 C
   0.5522966666666667    0.5562499999999999    0.5121000000000000 C
   0.5936999999999999    0.5378166666666666    0.5306900000000000 C
   0.9221999999999999    0.3554433333333333    0.0981400000000000 C
   0.9083899999999999    0.3110733333333333    0.3737400000000000 C
   0.9535933333333333    0.3283500000000000    0.2009400000000000 C
   0.9503400000000000    0.3179733333333333    0.2672200000000000 C
   0.8770366666666666    0.3383933333333333    0.2710700000000000 C
   0.8802166666666666    0.3486666666666666    0.2047200000000000 C
   0.9184966666666666    0.3436366666666666    0.1690900000000000 C
   0.9120166666666666    0.3229233333333333    0.3028100000000000 C
   0.7631933333333333    0.2988600000000000    0.3929400000000000 C
   0.7193400000000000    0.2759433333333333    0.4874200000000000 C
   0.7609933333333333    0.2945333333333333    0.4690700000000000 C
   0.9111199999999999    0.3112000000000000    0.5981600000000000 C
   0.9249399999999999    0.3556233333333333    0.8737200000000001 C
   0.9563466666666667    0.3283033333333333    0.7710500000000000 C
   0.9531533333333333    0.3180400000000000    0.7046800000000000 C
   0.9148166666666666    0.3229733333333333    0.6691500000000000 C
   0.8798066666666666    0.3384900000000000    0.7008000000000000 C
   0.8830566666666666    0.3488633333333333    0.7671000000000000 C
   0.9213366666666666    0.3438200000000000    0.8027400000000000 C
   0.0701300000000000    0.3676233333333333    0.8930500000000000 C
   0.1139833333333333    0.3907066666666666    0.9874300000000000 C
   0.0723266666666667    0.3720900000000000    0.9691500000000000 C
   0.4250900000000000    0.8117266666666666    0.1258800000000000 C
   0.4098300000000000    0.8548899999999999    0.4017900000000000 C
   0.3787633333333333    0.8281999999999999    0.2979900000000000 C
   0.3824666666666666    0.8181666666666666    0.2315800000000000 C
   0.4560900000000000    0.8386666666666667    0.2295400000000000 C
   0.4524433333333333    0.8486066666666666    0.2960100000000000 C
   0.4211533333333333    0.8233233333333333    0.1968900000000000 C
   0.4137633333333333    0.8434400000000000    0.3306900000000000 C
   0.5709700000000000    0.7992500000000000    0.1075300000000000 C
   0.6143666666666666    0.7770533333333333    0.0123500000000000 C
   0.5729466666666667    0.7953833333333333    0.0312600000000000 C
   0.4235599999999999    0.8116900000000000    0.9016900000000000 C
   0.4082866666666666    0.8548800000000000    0.6258300000000000 C
   0.3773633333333333    0.8277900000000000    0.7293400000000000 C
   0.3810066666666667    0.8178366666666667    0.7957900000000000 C
   0.4122766666666666    0.8431833333333333    0.6967500000000000 C
   0.4546666666666667    0.8382833333333333    0.7978499999999999 C
   0.4509633333333333    0.8483266666666667    0.7314600000000000 C
   0.4196666666666666    0.8230433333333333    0.8305300000000000 C
   0.2622833333333333    0.8668066666666666    0.6068400000000000 C
   0.2189633333333333    0.8895833333333333    0.5121000000000000 C
   0.2603666666666666    0.8711500000000000    0.5306900000000000 C
   0.5888666666666666    0.6887766666666666    0.0981400000000000 C
   0.5750566666666667    0.6444066666666666    0.3737400000000000 C
   0.6202600000000000    0.6616833333333333    0.2009400000000000 C
   0.6170066666666667    0.6513066666666667    0.2672200000000000 C
   0.5437033333333333    0.6717266666666666    0.2710700000000000 C
   0.5468833333333334    0.6819999999999999    0.2047200000000000 C
   0.5851633333333333    0.6769700000000000    0.1690900000000000 C
   0.5786833333333333    0.6562566666666667    0.3028100000000000 C