Cu8 H36 C36 Br8 N12
1.0
  11.4617098870346972    0.0000000000000000    5.7228426035888020
   5.6944163912569525   12.7826637298226000    2.8452644750992726
   0.0000000000000000    0.0000000000000000   14.1899999999999995
Cu H C Br N
8 36 36 8 12
direct
   0.6457600000000000    0.5355799999999999    0.9997200000000001 Cu
   0.4304800000000000    0.5004600000000000    0.9632900000000000 Cu
   0.8943300000000000    0.5003200000000000    0.0379200000000000 Cu
   0.6458000000000000    0.9987400000000000    0.5368700000000000 Cu
   0.1819200000000000    0.9985400000000000    0.4623300000000000 Cu
   0.8946300000000000    0.0370900000000000    0.5003000000000000 Cu
   0.4303400000000000    0.9636800000000000    0.5007000000000000 Cu
   0.1818100000000000    0.4621800000000000    0.9990500000000000 Cu
   0.7186600000000000    0.4104100000000000    0.2589700000000000 H
   0.7835400000000000    0.3693500000000000    0.1279400000000000 H
   0.3583000000000000    0.2414400000000000    0.0868000000000000 H
   0.2929300000000000    0.3705700000000000    0.1310000000000000 H
   0.3776300000000000    0.5947200000000000    0.7463900000000000 H
   0.2753100000000000    0.6366100000000000    0.8775700000000000 H
   0.6957700000000000    0.7532900000000000    0.9090000000000000 H
   0.7989700000000000    0.6235000000000001    0.8656199999999999 H
   0.2238400000000000    0.2449000000000000    0.9079199999999999 H
   0.1633000000000000    0.3738400000000000    0.8626000000000000 H
   0.6965100000000000    0.4120000000000000    0.7404100000000000 H
   0.6709600000000000    0.3722000000000000    0.8719600000000000 H
   0.3770400000000000    0.7486000000000000    0.5935300000000000 H
   0.2747000000000000    0.8783300000000001    0.6374700000000000 H
   0.6962100000000000    0.9067700000000000    0.7554200000000000 H
   0.7993100000000000    0.8641600000000000    0.6245500000000000 H
   0.7191100000000000    0.2558400000000000    0.4112400000000000 H
   0.7851600000000000    0.1267100000000000    0.3668800000000000 H
   0.3586500000000000    0.0870500000000000    0.2394000000000000 H
   0.2942000000000000    0.1283200000000000    0.3703200000000000 H
   0.3790000000000000    0.0895400000000000    0.7566500000000000 H
   0.4053400000000000    0.1298000000000000    0.6251300000000000 H
   0.8522600000000000    0.2559400000000000    0.5895100000000000 H
   0.9129200000000000    0.1273100000000000    0.6354500000000000 H
   0.6704599999999999    0.2606600000000000    0.2599100000000000 H
   0.8318000000000000    0.1850700000000000    0.1824800000000000 H
   0.4077300000000000    0.2364700000000000    0.2378100000000000 H
   0.2465900000000000    0.3124000000000000    0.3154000000000000 H
   0.1832000000000000    0.7475300000000000    0.7470900000000000 H
   0.1981000000000000    0.8212500000000000    0.8225600000000000 H
   0.8901200000000000    0.7545100000000000    0.7562800000000000 H
   0.8766300000000000    0.6800300000000000    0.6805400000000000 H
   0.1834200000000000    0.2394800000000000    0.7548500000000000 H
   0.2708500000000000    0.3144500000000000    0.6782000000000000 H
   0.8927500000000000    0.2627900000000000    0.7419900000000000 H
   0.8059400000000000    0.1875900000000000    0.8193800000000000 H
   0.9207800000000000    0.3300100000000000    0.1917000000000000 C
   0.1563200000000000    0.3068400000000000    0.1687300000000000 C
   0.7920500000000000    0.3449800000000000    0.2037000000000000 C
   0.2850100000000000    0.2949500000000000    0.1538900000000000 C
   0.4398100000000000    0.6719400000000000    0.8105800000000000 C
   0.6347600000000000    0.6902100000000000    0.8297500000000000 C
   0.3345100000000000    0.6599699999999999    0.8010800000000000 C
   0.7395300000000000    0.6996500000000000    0.8426800000000000 C
   0.3625500000000000    0.3089200000000000    0.8279300000000001 C
   0.5742900000000000    0.3317300000000000    0.8074300000000000 C
   0.2459200000000000    0.2978500000000000    0.8408000000000000 C
   0.6876300000000000    0.3470200000000000    0.7962399999999999 C
   0.4396300000000000    0.8107400000000000    0.6723300000000000 C
   0.6347500000000000    0.8288700000000000    0.6913400000000000 C
   0.3341300000000000    0.8019200000000000    0.6600200000000001 C
   0.7397600000000000    0.8411300000000000    0.7010700000000000 C
   0.9211900000000000    0.1909300000000000    0.3296900000000000 C
   0.1567000000000000    0.1677600000000000    0.3067300000000000 C
   0.7927600000000000    0.2024700000000000    0.3442000000000000 C
   0.2855700000000000    0.1526200000000000    0.2946100000000000 C
   0.5018400000000000    0.1693600000000000    0.6905300000000000 C
   0.7136400000000001    0.1920300000000000    0.6701200000000000 C
   0.3884000000000000    0.1546100000000000    0.7010999999999999 C
   0.8302600000000000    0.2033000000000000    0.6569800000000000 C
   0.9788900000000000    0.2545200000000000    0.2548200000000000 C
   0.0986000000000000    0.2432800000000000    0.2436600000000000 C
   0.7686200000000000    0.2452700000000000    0.2444600000000000 C
   0.3094200000000000    0.2521100000000000    0.2535000000000000 C
   0.4871400000000000    0.7460900000000000    0.7464000000000000 C
   0.5873800000000000    0.7547700000000001    0.7555400000000000 C
   0.2532300000000000    0.7608600000000000    0.7609300000000000 C
   0.8207400000000000    0.7406800000000000    0.7419600000000000 C
   0.4840000000000000    0.2450000000000000    0.7539500000000000 C
   0.5921900000000000    0.2559900000000000    0.7440900000000000 C
   0.2660600000000000    0.2546500000000000    0.7405500000000000 C
   0.8102400000000000    0.2471800000000000    0.7568000000000000 C
   0.0379000000000000    0.5867900000000000    0.9130300000000000 Br
   0.5389900000000000    0.4116600000000000    0.0863100000000000 Br
   0.2011200000000000    0.5844200000000001    0.0891000000000000 Br
   0.8754600000000000    0.4122100000000000    0.9132700000000000 Br
   0.5391899999999999    0.0857900000000000    0.4121000000000000 Br
   0.0371200000000000    0.9137300000000000    0.5881999999999999 Br
   0.8754000000000000    0.9132400000000001    0.4121400000000000 Br
   0.2009400000000000    0.0884500000000000    0.5854000000000000 Br
   0.0980400000000000    0.3766100000000000    0.1103500000000000 N
   0.9786800000000000    0.3888700000000000    0.1226000000000000 N
   0.5866000000000000    0.6214900000000000    0.8889000000000000 N
   0.4885800000000000    0.6119000000000000    0.8788000000000000 N
   0.4576000000000000    0.3902300000000000    0.8764400000000000 N
   0.3507500000000000    0.3782600000000000    0.8872800000000000 N
   0.5864900000000000    0.8884600000000000    0.6225000000000001 N
   0.4882900000000000    0.8790100000000000    0.6126900000000000 N
   0.0985200000000000    0.1092700000000000    0.3762700000000000 N
   0.9792400000000000    0.1214800000000000    0.3883700000000000 N
   0.7255200000000001    0.1222000000000000    0.6112800000000000 N
   0.6186199999999999    0.1103700000000000    0.6220300000000000 N
