Zn32 H504 C758 N126 O128
1.0
  22.9149932430620211    0.0000000000000000    0.0175974549865074
 -11.4961859504023014   24.4367907011089187   -4.9399478564018704
   0.0000000000000000    0.0000000000000000   36.3560000000000016
Zn H C N O
32 504 758 126 128
direct
   0.9910000000000000    0.1990750000000000    0.2015750000000000 Zn
   0.2921900000000000    0.3011400000000000    0.0484400000000000 Zn
   0.7921800000000000    0.3011400000000000    0.0484400000000000 Zn
   0.0089900000000000    0.3009600000000000    0.2984000000000000 Zn
   0.5089900000000001    0.3009600000000000    0.2984150000000000 Zn
   0.2078100000000000    0.1988950000000000    0.4515500000000000 Zn
   0.7078000000000000    0.1988900000000000    0.4515500000000000 Zn
   0.4910000000000000    0.1990750000000000    0.2015750000000000 Zn
   0.9910000000000000    0.6990750000000000    0.2015750000000000 Zn
   0.2921900000000000    0.8011400000000000    0.0484400000000000 Zn
   0.7921800000000000    0.8011400000000000    0.0484400000000000 Zn
   0.0089900000000000    0.8009600000000000    0.2984000000000000 Zn
   0.5089900000000001    0.8009600000000000    0.2984150000000000 Zn
   0.2078100000000000    0.6988950000000000    0.4515500000000000 Zn
   0.7078000000000000    0.6988900000000000    0.4515500000000000 Zn
   0.4910000000000000    0.6990750000000000    0.2015750000000000 Zn
   0.9910000000000000    0.1990750000000000    0.7015750000000001 Zn
   0.2921900000000000    0.3011400000000000    0.5484400000000000 Zn
   0.7921800000000000    0.3011400000000000    0.5484400000000000 Zn
   0.0089900000000000    0.3009600000000000    0.7984000000000000 Zn
   0.5089900000000001    0.3009600000000000    0.7984150000000000 Zn
   0.2078100000000000    0.1988950000000000    0.9515500000000000 Zn
   0.7078000000000000    0.1988900000000000    0.9515500000000000 Zn
   0.4910000000000000    0.1990750000000000    0.7015750000000001 Zn
   0.9910000000000000    0.6990750000000000    0.7015750000000001 Zn
   0.2921900000000000    0.8011400000000000    0.5484400000000000 Zn
   0.7921800000000000    0.8011400000000000    0.5484400000000000 Zn
   0.0089900000000000    0.8009600000000000    0.7984000000000000 Zn
   0.5089900000000001    0.8009600000000000    0.7984150000000000 Zn
   0.2078100000000000    0.6988950000000000    0.9515500000000000 Zn
   0.7078000000000000    0.6988900000000000    0.9515500000000000 Zn
   0.4910000000000000    0.6990750000000000    0.7015750000000001 Zn
   0.0756600000000000    0.3224900000000000    0.1480200000000000 H
   0.5756500000000000    0.3224900000000000    0.1480200000000000 H
   0.1183000000000000    0.3995350000000000    0.1127700000000000 H
   0.6182900000000000    0.3995350000000000    0.1127500000000000 H
   0.1186800000000000    0.0116150000000000    0.2119400000000000 H
   0.6186800000000000    0.0116200000000000    0.2119450000000000 H
   0.0740600000000000    0.4342400000000000    0.2468050000000000 H
   0.5740499999999999    0.4342400000000000    0.2468050000000000 H
   0.3951000000000000    0.1698450000000000    0.0692700000000000 H
   0.8950900000000001    0.1698500000000000    0.0692700000000000 H
   0.3104500000000000    0.1024300000000000    0.0195500000000000 H
   0.8104400000000000    0.1024300000000000    0.0195800000000000 H
   0.3109700000000000    0.4702900000000000    0.0674150000000000 H
   0.8109600000000000    0.4702900000000000    0.0674100000000000 H
   0.3937900000000000    0.0386750000000000    0.1182750000000000 H
   0.8937800000000000    0.0386750000000000    0.1182750000000000 H
   0.0703900000000000    0.1551900000000000    0.2433600000000000 H
   0.5703800000000000    0.1551900000000000    0.2433600000000000 H
   0.1794100000000000    0.1556950000000000    0.2439300000000000 H
   0.6794000000000000    0.1556950000000000    0.2439300000000000 H
   0.2145300000000000    0.2387800000000000    0.1499000000000000 H
   0.7145200000000000    0.2387800000000000    0.1499000000000000 H
   0.1038600000000000    0.2344350000000000    0.1538900000000000 H
   0.6038400000000000    0.2344350000000000    0.1538900000000000 H
   0.2464900000000000    0.1232800000000000    0.2173750000000000 H
   0.7464800000000000    0.1232800000000000    0.2173750000000000 H
   0.3582000000000000    0.1316550000000000    0.2202500000000000 H
   0.8581900000000000    0.1316550000000000    0.2202500000000000 H
   0.4267700000000000    0.2741300000000000    0.1780750000000000 H
   0.9267600000000000    0.2741300000000000    0.1780750000000000 H
   0.3172100000000000    0.2720050000000000    0.1726700000000000 H
   0.8172000000000000    0.2720050000000000    0.1726500000000000 H
   0.2529600000000000    0.1777000000000000    0.1019550000000000 H
   0.7529500000000000    0.1777000000000000    0.1019550000000000 H
   0.2187900000000000    0.1006450000000000    0.1371700000000000 H
   0.7187700000000000    0.1006450000000000    0.1371700000000000 H
   0.1070700000000000    0.4883500000000000    0.0380250000000000 H
   0.6070500000000000    0.4883550000000000    0.0380300000000000 H
   0.1396100000000000    0.0657300000000000    0.0031950000000000 H
   0.6395900000000000    0.0657300000000000    0.0031950000000000 H
   0.2256100000000000    0.3303450000000000    0.1808200000000000 H
   0.7256000000000000    0.3303450000000000    0.1808200000000000 H
   0.2082600000000000    0.3976200000000000    0.2305050000000000 H
   0.7082400000000000    0.3976200000000000    0.2305000000000000 H
   0.3406900000000000    0.0299050000000000    0.1824700000000000 H
   0.8406600000000000    0.0299100000000000    0.1824650000000000 H
   0.3552200000000000    0.4616550000000000    0.1316150000000000 H
   0.8552000000000000    0.4616550000000000    0.1316100000000000 H
   0.4154800000000000    0.3447800000000000    0.0065650000000000 H
   0.9154700000000000    0.3447800000000000    0.0065650000000000 H
   0.0240300000000000    0.3443500000000000    0.0060100000000000 H
   0.5240300000000000    0.3443500000000000    0.0060100000000000 H
   0.4757000000000000    0.2614750000000000    0.1001450000000000 H
   0.9756899999999999    0.2614800000000000    0.1001450000000000 H
   0.3693600000000000    0.2657900000000000    0.0961650000000000 H
   0.8693600000000000    0.2657950000000000    0.0961650000000000 H
   0.1236100000000000    0.3768350000000000    0.0325350000000000 H
   0.6236000000000000    0.3768300000000000    0.0325350000000000 H
   0.2269700000000000    0.3685400000000000    0.0296950000000000 H
   0.7269600000000001    0.3685400000000000    0.0296950000000000 H
   0.1525900000000000    0.2261950000000000    0.0720250000000000 H
   0.6525800000000000    0.2261950000000000    0.0720250000000000 H
   0.0451200000000000    0.2282500000000000    0.0774150000000000 H
   0.5451000000000000    0.2282550000000000    0.0774200000000000 H
   0.4243400000000000    0.1775450000000000    0.3519500000000000 H
   0.9243300000000000    0.1775450000000000    0.3519700000000000 H
   0.3817000000000000    0.1004950000000000    0.3872150000000000 H
   0.8816900000000000    0.1004950000000000    0.3872150000000000 H
   0.3813100000000000    0.4884150000000000    0.2880400000000000 H
   0.8812900000000000    0.4884150000000000    0.2880400000000000 H
   0.4259400000000000    0.0657950000000000    0.2531800000000000 H
   0.9259200000000000    0.0657950000000000    0.2531800000000000 H
   0.1049000000000000    0.3301900000000000    0.4307200000000000 H
   0.6048900000000000    0.3301850000000000    0.4307200000000000 H
   0.1895600000000000    0.3976050000000000    0.4804050000000000 H
   0.6895400000000000    0.3976050000000000    0.4804050000000000 H
   0.1890500000000000    0.0297450000000000    0.4325700000000000 H
   0.6890300000000000    0.0297450000000000    0.4325700000000000 H
   0.1062400000000000    0.4613600000000000    0.3817100000000000 H
   0.6062200000000000    0.4613600000000000    0.3817100000000000 H
   0.4296200000000000    0.3448450000000000    0.2566250000000000 H
   0.9296000000000000    0.3448450000000000    0.2566250000000000 H
   0.3205900000000000    0.3443350000000000    0.2560550000000000 H
   0.8205800000000000    0.3443400000000000    0.2560550000000000 H
   0.2854700000000000    0.2612550000000000    0.3500900000000000 H
   0.7854600000000000    0.2612550000000000    0.3500900000000000 H
   0.3961500000000000    0.2656000000000000    0.3461000000000000 H
   0.8961300000000000    0.2656000000000000    0.3461000000000000 H
   0.2535100000000000    0.3767500000000000    0.2826100000000000 H
   0.7534900000000000    0.3767550000000000    0.2826100000000000 H
   0.1418000000000000    0.3683800000000000    0.2797350000000000 H
   0.6417900000000000    0.3683800000000000    0.2797400000000000 H
   0.0732300000000000    0.2259050000000000    0.3219000000000000 H
   0.5732200000000000    0.2259050000000000    0.3219100000000000 H
   0.1828000000000000    0.2280300000000000    0.3273200000000000 H
   0.6827800000000001    0.2280300000000000    0.3273200000000000 H
   0.2470500000000000    0.3223300000000000    0.3980350000000000 H
   0.7470300000000000    0.3223350000000000    0.3980350000000000 H
   0.2812200000000000    0.3993850000000000    0.3628150000000000 H
   0.7812000000000000    0.3993900000000000    0.3628000000000000 H
   0.3929400000000000    0.0116800000000000    0.4619500000000000 H
   0.8929500000000000    0.0116800000000000    0.4619550000000000 H
   0.3604100000000000    0.4343050000000000    0.4967900000000000 H
   0.8604000000000001    0.4343050000000000    0.4967900000000000 H
   0.2743900000000000    0.1696900000000000    0.3191700000000000 H
   0.7743800000000000    0.1696900000000000    0.3191700000000000 H
   0.2917400000000000    0.1024200000000000    0.2694850000000000 H
   0.7917400000000000    0.1024200000000000    0.2694900000000000 H
   0.1593100000000000    0.4701300000000000    0.3175150000000000 H
   0.6593100000000000    0.4701300000000000    0.3175000000000000 H
   0.1447800000000000    0.0383800000000000    0.3683500000000000 H
   0.6447700000000000    0.0383800000000000    0.3683750000000000 H
   0.5845100000000000    0.1552550000000000    0.4934000000000000 H
   0.4759600000000000    0.1556800000000000    0.4939800000000000 H
   0.5242900000000000    0.2385550000000000    0.3998400000000000 H
   0.6306300000000000    0.2342450000000000    0.4038000000000000 H
   0.3763900000000000    0.1232000000000000    0.4674500000000000 H
   0.2730400000000000    0.1314950000000000    0.4702900000000000 H
   0.3474100000000000    0.2738450000000000    0.4279650000000000 H
   0.4548900000000000    0.2717800000000000    0.4225700000000000 H
   0.0756600000000000    0.8224899999999999    0.1480200000000000 H
   0.5756500000000000    0.8224899999999999    0.1480200000000000 H
   0.1183000000000000    0.8995350000000000    0.1127700000000000 H
   0.6182900000000000    0.8995350000000000    0.1127500000000000 H
   0.1186800000000000    0.5116150000000000    0.2119400000000000 H
   0.6186800000000000    0.5116200000000000    0.2119450000000000 H
   0.0740600000000000    0.9342400000000000    0.2468050000000000 H
   0.5740499999999999    0.9342400000000000    0.2468050000000000 H
   0.3951000000000000    0.6698450000000000    0.0692700000000000 H
   0.8950900000000001    0.6698500000000001    0.0692700000000000 H
   0.3104500000000000    0.6024300000000000    0.0195500000000000 H
   0.8104400000000000    0.6024300000000000    0.0195800000000000 H
   0.3109700000000000    0.9702900000000000    0.0674150000000000 H
   0.8109600000000000    0.9702900000000000    0.0674100000000000 H
   0.3937900000000000    0.5386750000000000    0.1182750000000000 H
   0.8937800000000000    0.5386750000000000    0.1182750000000000 H
   0.0703900000000000    0.6551899999999999    0.2433600000000000 H
   0.5703800000000000    0.6551899999999999    0.2433600000000000 H
   0.1794100000000000    0.6556950000000000    0.2439300000000000 H
   0.6794000000000000    0.6556950000000000    0.2439300000000000 H
   0.2145300000000000    0.7387800000000000    0.1499000000000000 H
   0.7145200000000000    0.7387800000000000    0.1499000000000000 H
   0.1038600000000000    0.7344349999999999    0.1538900000000000 H
   0.6038400000000000    0.7344349999999999    0.1538900000000000 H
   0.2464900000000000    0.6232800000000001    0.2173750000000000 H
   0.7464800000000000    0.6232800000000001    0.2173750000000000 H
   0.3582000000000000    0.6316550000000000    0.2202500000000000 H
   0.8581900000000000    0.6316550000000000    0.2202500000000000 H
   0.4267700000000000    0.7741300000000000    0.1780750000000000 H
   0.9267600000000000    0.7741300000000000    0.1780750000000000 H
   0.3172100000000000    0.7720050000000001    0.1726700000000000 H
   0.8172000000000000    0.7720050000000001    0.1726500000000000 H
   0.2529600000000000    0.6777000000000000    0.1019550000000000 H
   0.7529500000000000    0.6777000000000000    0.1019550000000000 H
   0.2187900000000000    0.6006450000000000    0.1371700000000000 H
   0.7187700000000000    0.6006450000000000    0.1371700000000000 H
   0.1070700000000000    0.9883500000000001    0.0380250000000000 H
   0.6070500000000000    0.9883550000000000    0.0380300000000000 H
   0.1396100000000000    0.5657300000000000    0.0031950000000000 H
   0.6395900000000000    0.5657300000000000    0.0031950000000000 H
   0.2256100000000000    0.8303450000000000    0.1808200000000000 H
   0.7256000000000000    0.8303450000000000    0.1808200000000000 H
   0.2082600000000000    0.8976200000000000    0.2305050000000000 H
   0.7082400000000000    0.8976200000000000    0.2305000000000000 H
   0.3406900000000000    0.5299050000000000    0.1824700000000000 H
   0.8406600000000000    0.5299100000000000    0.1824650000000000 H
   0.3552200000000000    0.9616549999999999    0.1316150000000000 H
   0.8552000000000000    0.9616549999999999    0.1316100000000000 H
   0.4154800000000000    0.8447800000000000    0.0065650000000000 H
   0.9154700000000000    0.8447800000000000    0.0065650000000000 H
   0.0240300000000000    0.8443499999999999    0.0060100000000000 H
   0.5240300000000000    0.8443499999999999    0.0060100000000000 H
   0.4757000000000000    0.7614750000000000    0.1001450000000000 H
   0.9756899999999999    0.7614799999999999    0.1001450000000000 H
   0.3693600000000000    0.7657900000000000    0.0961650000000000 H
   0.8693600000000000    0.7657950000000000    0.0961650000000000 H
   0.1236100000000000    0.8768350000000000    0.0325350000000000 H
   0.6236000000000000    0.8768300000000000    0.0325350000000000 H
   0.2269700000000000    0.8685400000000000    0.0296950000000000 H
   0.7269600000000001    0.8685400000000000    0.0296950000000000 H
   0.1525900000000000    0.7261950000000000    0.0720250000000000 H
   0.6525800000000000    0.7261950000000000    0.0720250000000000 H
   0.0451200000000000    0.7282500000000001    0.0774150000000000 H
   0.5451000000000000    0.7282550000000000    0.0774200000000000 H
   0.4243400000000000    0.6775450000000001    0.3519500000000000 H
   0.9243300000000000    0.6775450000000001    0.3519700000000000 H
   0.3817000000000000    0.6004950000000000    0.3872150000000000 H
   0.8816900000000000    0.6004950000000000    0.3872150000000000 H
   0.3813100000000000    0.9884150000000000    0.2880400000000000 H
   0.8812900000000000    0.9884150000000000    0.2880400000000000 H
   0.4259400000000000    0.5657950000000000    0.2531800000000000 H
   0.9259200000000000    0.5657950000000000    0.2531800000000000 H
   0.1049000000000000    0.8301900000000000    0.4307200000000000 H
   0.6048900000000000    0.8301850000000000    0.4307200000000000 H
   0.1895600000000000    0.8976050000000000    0.4804050000000000 H
   0.6895400000000000    0.8976050000000000    0.4804050000000000 H
   0.1890500000000000    0.5297450000000000    0.4325700000000000 H
   0.6890300000000000    0.5297450000000000    0.4325700000000000 H
   0.1062400000000000    0.9613600000000000    0.3817100000000000 H
   0.6062200000000000    0.9613600000000000    0.3817100000000000 H
   0.4296200000000000    0.8448450000000001    0.2566250000000000 H
   0.9296000000000000    0.8448450000000001    0.2566250000000000 H
   0.3205900000000000    0.8443350000000001    0.2560550000000000 H
   0.8205800000000000    0.8443400000000000    0.2560550000000000 H
   0.2854700000000000    0.7612550000000000    0.3500900000000000 H
   0.7854600000000000    0.7612550000000000    0.3500900000000000 H
   0.3961500000000000    0.7656000000000001    0.3461000000000000 H
   0.8961300000000000    0.7656000000000001    0.3461000000000000 H
   0.2535100000000000    0.8767499999999999    0.2826100000000000 H
   0.7534900000000000    0.8767550000000000    0.2826100000000000 H
   0.1418000000000000    0.8683799999999999    0.2797350000000000 H
   0.6417900000000000    0.8683799999999999    0.2797400000000000 H
   0.0732300000000000    0.7259050000000000    0.3219000000000000 H
   0.5732200000000000    0.7259050000000000    0.3219100000000000 H
   0.1828000000000000    0.7280300000000000    0.3273200000000000 H
   0.6827800000000001    0.7280300000000000    0.3273200000000000 H
   0.2470500000000000    0.8223300000000000    0.3980350000000000 H
   0.7470300000000000    0.8223350000000000    0.3980350000000000 H
   0.2812200000000000    0.8993850000000000    0.3628150000000000 H
   0.7812000000000000    0.8993900000000000    0.3628000000000000 H
   0.3929400000000000    0.5116800000000000    0.4619500000000000 H
   0.8929500000000000    0.5116800000000000    0.4619550000000000 H
   0.3604100000000000    0.9343049999999999    0.4967900000000000 H
   0.8604000000000001    0.9343049999999999    0.4967900000000000 H
   0.2743900000000000    0.6696900000000000    0.3191700000000000 H
   0.7743800000000000    0.6696900000000000    0.3191700000000000 H
   0.2917400000000000    0.6024200000000000    0.2694850000000000 H
   0.7917400000000000    0.6024200000000000    0.2694900000000000 H
   0.1593100000000000    0.9701299999999999    0.3175150000000000 H
   0.6593100000000000    0.9701299999999999    0.3175000000000000 H
   0.1447800000000000    0.5383800000000000    0.3683500000000000 H
   0.6447700000000000    0.5383800000000000    0.3683750000000000 H
   0.0845200000000000    0.6552500000000000    0.4934200000000000 H
   0.5845100000000000    0.6552550000000000    0.4934000000000000 H
   0.4759600000000000    0.6556800000000000    0.4939800000000000 H
   0.9759600000000000    0.6556800000000000    0.4939750000000000 H
   0.0243000000000000    0.7385550000000000    0.3998450000000000 H
   0.5242900000000000    0.7385550000000000    0.3998400000000000 H
   0.1306400000000000    0.7342450000000000    0.4038250000000000 H
   0.6306300000000000    0.7342450000000000    0.4038000000000000 H
   0.3763900000000000    0.6232000000000000    0.4674500000000000 H
   0.8763800000000000    0.6232000000000000    0.4674550000000000 H
   0.2730400000000000    0.6314950000000000    0.4702900000000000 H
   0.7730300000000000    0.6314950000000000    0.4702500000000000 H
   0.3474100000000000    0.7738450000000000    0.4279650000000000 H
   0.8474000000000000    0.7738450000000000    0.4279650000000000 H
   0.4548900000000000    0.7717800000000000    0.4225700000000000 H
   0.9548800000000000    0.7717800000000000    0.4225700000000000 H
   0.0756600000000000    0.3224900000000000    0.6480200000000000 H
   0.5756500000000000    0.3224900000000000    0.6480200000000000 H
   0.1183000000000000    0.3995350000000000    0.6127700000000000 H
   0.6182900000000000    0.3995350000000000    0.6127500000000000 H
   0.1186800000000000    0.0116150000000000    0.7119400000000000 H
   0.6186800000000000    0.0116200000000000    0.7119450000000001 H
   0.0740600000000000    0.4342400000000000    0.7468049999999999 H
   0.5740499999999999    0.4342400000000000    0.7468049999999999 H
   0.3951000000000000    0.1698450000000000    0.5692699999999999 H
   0.8950900000000001    0.1698500000000000    0.5692699999999999 H
   0.3104500000000000    0.1024300000000000    0.5195500000000000 H
   0.8104400000000000    0.1024300000000000    0.5195800000000000 H
   0.3109700000000000    0.4702900000000000    0.5674150000000000 H
   0.8109600000000000    0.4702900000000000    0.5674100000000000 H
   0.3937900000000000    0.0386750000000000    0.6182750000000000 H
   0.8937800000000000    0.0386750000000000    0.6182750000000000 H
   0.0703900000000000    0.1551900000000000    0.7433600000000000 H
   0.5703800000000000    0.1551900000000000    0.7433600000000000 H
   0.1794100000000000    0.1556950000000000    0.7439300000000000 H
   0.6794000000000000    0.1556950000000000    0.7439300000000000 H
   0.2145300000000000    0.2387800000000000    0.6499000000000000 H
   0.7145200000000000    0.2387800000000000    0.6499000000000000 H
   0.1038600000000000    0.2344350000000000    0.6538900000000000 H
   0.6038400000000000    0.2344350000000000    0.6538900000000000 H
   0.2464900000000000    0.1232800000000000    0.7173750000000000 H
   0.7464800000000000    0.1232800000000000    0.7173750000000000 H
   0.3582000000000000    0.1316550000000000    0.7202500000000001 H
   0.8581900000000000    0.1316550000000000    0.7202500000000001 H
   0.4267700000000000    0.2741300000000000    0.6780750000000000 H
   0.9267600000000000    0.2741300000000000    0.6780750000000000 H
   0.3172100000000000    0.2720050000000000    0.6726700000000000 H
   0.8172000000000000    0.2720050000000000    0.6726500000000000 H
   0.2529600000000000    0.1777000000000000    0.6019550000000000 H
   0.7529500000000000    0.1777000000000000    0.6019550000000000 H
   0.2187900000000000    0.1006450000000000    0.6371700000000000 H
   0.7187700000000000    0.1006450000000000    0.6371700000000000 H
   0.1070700000000000    0.4883500000000000    0.5380250000000000 H
   0.6070500000000000    0.4883550000000000    0.5380300000000000 H
   0.1396100000000000    0.0657300000000000    0.5031949999999999 H
   0.6395900000000000    0.0657300000000000    0.5031949999999999 H
   0.2256100000000000    0.3303450000000000    0.6808200000000000 H
   0.7256000000000000    0.3303450000000000    0.6808200000000000 H
   0.2082600000000000    0.3976200000000000    0.7305050000000000 H
   0.7082400000000000    0.3976200000000000    0.7305000000000000 H
   0.3406900000000000    0.0299050000000000    0.6824700000000000 H
   0.8406600000000000    0.0299100000000000    0.6824650000000000 H
   0.3552200000000000    0.4616550000000000    0.6316150000000000 H
   0.8552000000000000    0.4616550000000000    0.6316100000000000 H
   0.4154800000000000    0.3447800000000000    0.5065650000000000 H
   0.9154700000000000    0.3447800000000000    0.5065650000000000 H
   0.0240300000000000    0.3443500000000000    0.5060100000000000 H
   0.5240300000000000    0.3443500000000000    0.5060100000000000 H
   0.4757000000000000    0.2614750000000000    0.6001450000000000 H
   0.9756899999999999    0.2614800000000000    0.6001450000000000 H
   0.3693600000000000    0.2657900000000000    0.5961650000000001 H
   0.8693600000000000    0.2657950000000000    0.5961650000000001 H
   0.1236100000000000    0.3768350000000000    0.5325350000000000 H
   0.6236000000000000    0.3768300000000000    0.5325350000000000 H
   0.2269700000000000    0.3685400000000000    0.5296950000000000 H
   0.7269600000000001    0.3685400000000000    0.5296950000000000 H
   0.1525900000000000    0.2261950000000000    0.5720250000000000 H
   0.6525800000000000    0.2261950000000000    0.5720250000000000 H
   0.0451200000000000    0.2282500000000000    0.5774150000000000 H
   0.5451000000000000    0.2282550000000000    0.5774200000000000 H
   0.4243400000000000    0.1775450000000000    0.8519500000000000 H
   0.9243300000000000    0.1775450000000000    0.8519700000000000 H
   0.3817000000000000    0.1004950000000000    0.8872150000000000 H
   0.8816900000000000    0.1004950000000000    0.8872150000000000 H
   0.3813100000000000    0.4884150000000000    0.7880400000000001 H
   0.8812900000000000    0.4884150000000000    0.7880400000000001 H
   0.4259400000000000    0.0657950000000000    0.7531800000000000 H
   0.9259200000000000    0.0657950000000000    0.7531800000000000 H
   0.1049000000000000    0.3301900000000000    0.9307200000000000 H
   0.6048900000000000    0.3301850000000000    0.9307200000000000 H
   0.1895600000000000    0.3976050000000000    0.9804050000000000 H
   0.6895400000000000    0.3976050000000000    0.9804050000000000 H
   0.1890500000000000    0.0297450000000000    0.9325700000000000 H
   0.6890300000000000    0.0297450000000000    0.9325700000000000 H
   0.1062400000000000    0.4613600000000000    0.8817100000000000 H
   0.6062200000000000    0.4613600000000000    0.8817100000000000 H
   0.4296200000000000    0.3448450000000000    0.7566250000000000 H
   0.9296000000000000    0.3448450000000000    0.7566250000000000 H
   0.3205900000000000    0.3443350000000000    0.7560549999999999 H
   0.8205800000000000    0.3443400000000000    0.7560549999999999 H
   0.2854700000000000    0.2612550000000000    0.8500900000000000 H
   0.7854600000000000    0.2612550000000000    0.8500900000000000 H
   0.3961500000000000    0.2656000000000000    0.8461000000000001 H
   0.8961300000000000    0.2656000000000000    0.8461000000000001 H
   0.2535100000000000    0.3767500000000000    0.7826100000000000 H
   0.7534900000000000    0.3767550000000000    0.7826100000000000 H
   0.1418000000000000    0.3683800000000000    0.7797350000000001 H
   0.6417900000000000    0.3683800000000000    0.7797400000000000 H
   0.0732300000000000    0.2259050000000000    0.8219000000000001 H
   0.5732200000000000    0.2259050000000000    0.8219099999999999 H
   0.1828000000000000    0.2280300000000000    0.8273200000000001 H
   0.6827800000000001    0.2280300000000000    0.8273200000000001 H
   0.2470500000000000    0.3223300000000000    0.8980350000000000 H
   0.7470300000000000    0.3223350000000000    0.8980350000000000 H
   0.2812200000000000    0.3993850000000000    0.8628150000000000 H
   0.7812000000000000    0.3993900000000000    0.8628000000000000 H
   0.3929400000000000    0.0116800000000000    0.9619500000000001 H
   0.8929500000000000    0.0116800000000000    0.9619550000000000 H
   0.3604100000000000    0.4343050000000000    0.9967900000000001 H
   0.8604000000000001    0.4343050000000000    0.9967900000000001 H
   0.2743900000000000    0.1696900000000000    0.8191700000000000 H
   0.7743800000000000    0.1696900000000000    0.8191700000000000 H
   0.2917400000000000    0.1024200000000000    0.7694850000000000 H
   0.7917400000000000    0.1024200000000000    0.7694900000000000 H
   0.1593100000000000    0.4701300000000000    0.8175150000000000 H
   0.6593100000000000    0.4701300000000000    0.8175000000000000 H
   0.1447800000000000    0.0383800000000000    0.8683500000000000 H
   0.6447700000000000    0.0383800000000000    0.8683750000000000 H
   0.0845200000000000    0.1552500000000000    0.9934200000000000 H
   0.5845100000000000    0.1552550000000000    0.9934000000000001 H
   0.4759600000000000    0.1556800000000000    0.9939800000000000 H
   0.9759600000000000    0.1556800000000000    0.9939750000000001 H
   0.0243000000000000    0.2385550000000000    0.8998450000000000 H
   0.5242900000000000    0.2385550000000000    0.8998400000000000 H
   0.1306400000000000    0.2342450000000000    0.9038250000000000 H
   0.6306300000000000    0.2342450000000000    0.9037999999999999 H
   0.3763900000000000    0.1232000000000000    0.9674499999999999 H
   0.8763800000000000    0.1232000000000000    0.9674550000000000 H
   0.2730400000000000    0.1314950000000000    0.9702900000000000 H
   0.7730300000000000    0.1314950000000000    0.9702500000000001 H
   0.3474100000000000    0.2738450000000000    0.9279649999999999 H
   0.8474000000000000    0.2738450000000000    0.9279649999999999 H
   0.4548900000000000    0.2717800000000000    0.9225700000000000 H
   0.9548800000000000    0.2717800000000000    0.9225700000000000 H
   0.0756600000000000    0.8224899999999999    0.6480200000000000 H
   0.5756500000000000    0.8224899999999999    0.6480200000000000 H
   0.1183000000000000    0.8995350000000000    0.6127700000000000 H
   0.6182900000000000    0.8995350000000000    0.6127500000000000 H
   0.1186800000000000    0.5116150000000000    0.7119400000000000 H
   0.6186800000000000    0.5116200000000000    0.7119450000000001 H
   0.0740600000000000    0.9342400000000000    0.7468049999999999 H
   0.5740499999999999    0.9342400000000000    0.7468049999999999 H
   0.3951000000000000    0.6698450000000000    0.5692699999999999 H
   0.8950900000000001    0.6698500000000001    0.5692699999999999 H
   0.3104500000000000    0.6024300000000000    0.5195500000000000 H
   0.8104400000000000    0.6024300000000000    0.5195800000000000 H
   0.3109700000000000    0.9702900000000000    0.5674150000000000 H
   0.8109600000000000    0.9702900000000000    0.5674100000000000 H
   0.3937900000000000    0.5386750000000000    0.6182750000000000 H
   0.8937800000000000    0.5386750000000000    0.6182750000000000 H
   0.0703900000000000    0.6551899999999999    0.7433600000000000 H
   0.5703800000000000    0.6551899999999999    0.7433600000000000 H
   0.1794100000000000    0.6556950000000000    0.7439300000000000 H
   0.6794000000000000    0.6556950000000000    0.7439300000000000 H
   0.2145300000000000    0.7387800000000000    0.6499000000000000 H
   0.7145200000000000    0.7387800000000000    0.6499000000000000 H
   0.1038600000000000    0.7344349999999999    0.6538900000000000 H
   0.6038400000000000    0.7344349999999999    0.6538900000000000 H
   0.2464900000000000    0.6232800000000001    0.7173750000000000 H
   0.7464800000000000    0.6232800000000001    0.7173750000000000 H
   0.3582000000000000    0.6316550000000000    0.7202500000000001 H
   0.8581900000000000    0.6316550000000000    0.7202500000000001 H