H3 C8 O5
1.0
  18.2798941307748706    0.0000000000000000   -0.0622138864117165
  -4.2588008424730992   13.6399199859895486    0.1389178172636606
   0.0000000000000000    0.0000000000000000   30.6479999999999997
H C O
3 8 5
direct
   0.6853500000000000    0.9059500000000000    0.1016650000000000 H
   0.6181500000000000    0.5918200000000000    0.1107300000000000 H
   0.4815300000000000    0.5882200000000000    0.1155500000000000 H
   0.5052900000000000    0.7447700000000000    0.1111000000000000 C
   0.5641300000000000    0.8365500000000000    0.1075750000000000 C
   0.6406500000000001    0.8362200000000000    0.1045350000000000 C
   0.6609200000000000    0.7495900000000000    0.1052200000000000 C
   0.6026200000000000    0.6597400000000000    0.1099400000000000 C
   0.5267400000000000    0.6576900000000000    0.1128550000000000 C
   0.5499600000000000    0.9335500000000000    0.1074150000000000 C
   0.7419000000000000    0.7514900000000000    0.1013000000000000 C
   0.4308800000000000    0.7393200000000000    0.1131750000000000 O
   0.4852900000000000    0.9468100000000000    0.0981200000000000 O
   0.6074100000000000    0.0081200000000000    0.1166800000000000 O
   0.7923000000000000    0.8352300000000000    0.0943600000000000 O
   0.7573299999999999    0.6700400000000000    0.1041750000000000 O
