H1 C1 O2
1.0
  18.2798941307748706    0.0000000000000000   -0.0622138864117165
  -4.2588008424730992   13.6399199859895486    0.1389178172636606
   0.0000000000000000    0.0000000000000000   30.6479999999999997
H C O
1 1 2
direct
   0.6235400000000000    0.0939500000000000    0.5183650000000000 H
   0.5955600000000000    0.1530500000000000    0.5177400000000000 C
   0.5844800000000000    0.1893700000000000    0.4813550000000000 O
   0.5755300000000000    0.1819000000000000    0.5534650000000000 O
