H3 O2
1.0
  18.2798941307748706    0.0000000000000000   -0.0622138864117165
  -4.2588008424730992   13.6399199859895486    0.1389178172636606
   0.0000000000000000    0.0000000000000000   30.6479999999999997
H O
3 2
direct
   0.5662969753789366    0.2382136455101997    0.4663229433522486 H
   0.5542217681093942    0.2257819107079748    0.5695504932148984 H
   0.5342088578233181    0.2928977719667399    0.5193044704459601 H
   0.5844800000000000    0.1893700000000000    0.4813550000000000 O
   0.5755300000000000    0.1819000000000000    0.5534650000000000 O
