Zn32 H69 C136 O112
1.0
  18.2798941307748706    0.0000000000000000   -0.0622138864117165
  -4.2588008424730992   13.6399199859895486    0.1389178172636606
   0.0000000000000000    0.0000000000000000   30.6479999999999997
Zn H C O
32 69 136 112
direct
   0.6039099999999999    0.1607800000000000    0.9204950000000001 Zn
   0.9118600000000000    0.8645300000000000    0.8870050000000000 Zn
   0.1039000000000000    0.1607800000000000    0.9204950000000001 Zn
   0.4118600000000000    0.8645300000000000    0.8870050000000000 Zn
   0.8538700000000000    0.6627500000000000    0.8295000000000000 Zn
   0.1619800000000000    0.3657100000000000    0.8629800000000001 Zn
   0.3538700000000000    0.6627500000000000    0.8295000000000000 Zn
   0.6619800000000000    0.3657100000000000    0.8629800000000001 Zn
   0.8960800000000000    0.8392200000000000    0.0795100000000000 Zn
   0.3960800000000000    0.8392200000000000    0.0795100000000000 Zn
   0.0881300000000000    0.1354700000000000    0.1130000000000000 Zn
   0.6461200000000000    0.3372500000000000    0.1705050000000000 Zn
   0.3380100000000000    0.6343000000000000    0.1370000000000000 Zn
   0.1461200000000000    0.3372500000000000    0.1705050000000000 Zn
   0.8380100000000000    0.6343000000000000    0.1370000000000000 Zn
   0.5881300000000000    0.1354700000000000    0.1130000000000000 Zn
   0.6039099999999999    0.1607800000000000    0.4204950000000000 Zn
   0.9118600000000000    0.8645300000000000    0.3870050000000000 Zn
   0.1039000000000000    0.1607800000000000    0.4204950000000000 Zn
   0.4118600000000000    0.8645300000000000    0.3870050000000000 Zn
   0.8538700000000000    0.6627500000000000    0.3295000000000000 Zn
   0.1619800000000000    0.3657100000000000    0.3629800000000000 Zn
   0.3538700000000000    0.6627500000000000    0.3295000000000000 Zn
   0.6619800000000000    0.3657100000000000    0.3629800000000000 Zn
   0.3960800000000000    0.8392200000000000    0.5795100000000000 Zn
   0.0881300000000000    0.1354700000000000    0.6130000000000000 Zn
   0.8960800000000000    0.8392200000000000    0.5795100000000000 Zn
   0.5881300000000000    0.1354700000000000    0.6130000000000000 Zn
   0.6461200000000000    0.3372500000000000    0.6705050000000000 Zn
   0.3380100000000000    0.6343000000000000    0.6370000000000000 Zn
   0.1461200000000000    0.3372500000000000    0.6705050000000000 Zn
   0.8380100000000000    0.6343000000000000    0.6370000000000000 Zn
   0.6235400000000000    0.0939500000000000    0.0183650000000000 H
   0.1235000000000000    0.0939100000000000    0.0183650000000000 H
   0.8749800000000000    0.5954300000000000    0.7332550000000000 H
   0.3749800000000000    0.5954400000000000    0.7332550000000000 H
   0.0184500000000000    0.4117900000000000    0.8844500000000000 H
   0.8818400000000000    0.4081800000000000    0.8892700000000000 H
   0.8146300000000000    0.0940600000000000    0.8983449999999999 H
   0.5184500000000000    0.4117900000000000    0.8844500000000000 H
   0.3818300000000000    0.4081800000000000    0.8892700000000000 H
   0.3146300000000000    0.0940600000000000    0.8983400000000000 H
   0.2685900000000000    0.9125799999999999    0.8652400000000000 H
   0.1319400000000000    0.9092600000000000    0.8604600000000000 H
   0.0645300000000000    0.5954400000000000    0.8518000000000000 H
   0.7685900000000000    0.9125799999999999    0.8652400000000000 H
   0.6319399999999999    0.9092600000000000    0.8604600000000000 H
   0.5645300000000000    0.5954400000000000    0.8518000000000000 H
   0.8764000000000000    0.9060000000000000    0.9816400000000001 H
   0.3764200000000000    0.9060200000000000    0.9816400000000001 H
   0.7115403032031137    0.6140959977652470    0.1046422768838919 H
   0.7755171949885074    0.8924471549498044    0.0885287172743123 H
   0.7308855564350089    0.7601963132017157    0.0949867250456429 H
   0.9815400000000000    0.5882200000000000    0.1155550000000000 H
   0.1181500000000000    0.5918200000000000    0.1107000000000000 H
   0.1853500000000000    0.9059500000000000    0.1016650000000000 H
   0.5040781311507202    0.8921862536224979    0.1059820207481930 H
   0.4270666714821350    0.7924436351012831    0.1017353492712850 H
   0.4851884889584638    0.7432977081685745    0.1116605514771024 H
   0.6249800000000000    0.4045400000000000    0.2667550000000000 H
   0.1250000000000000    0.4045600000000000    0.2667550000000000 H
   0.2314000000000000    0.0874300000000000    0.1347650000000000 H
   0.3680500000000000    0.0907500000000000    0.1395450000000000 H
   0.4354600000000000    0.4045700000000000    0.1482000000000000 H
   0.6227395155513125   -0.0364483268254579    0.1230947396224422 H
   0.6593531603269194    0.0144467986821058    0.1261181336967848 H
   0.7314000000000001    0.0874300000000000    0.1347650000000000 H
   0.8680500000000000    0.0907500000000000    0.1395400000000000 H
   0.9354600000000000    0.4045700000000000    0.1482050000000000 H
   0.6235400000000000    0.0939500000000000    0.5183650000000000 H
   0.1235000000000000    0.0939100000000000    0.5183650000000000 H
   0.3749800000000000    0.5954400000000000    0.2332550000000000 H
   0.8749800000000000    0.5954300000000000    0.2332550000000000 H
   0.0184500000000000    0.4117900000000000    0.3844500000000000 H
   0.8818400000000000    0.4081800000000000    0.3892700000000000 H
   0.8146300000000000    0.0940600000000000    0.3983450000000000 H
   0.5184500000000000    0.4117900000000000    0.3844500000000000 H
   0.3818300000000000    0.4081800000000000    0.3892700000000000 H
   0.3146300000000000    0.0940600000000000    0.3983400000000000 H
   0.2685900000000000    0.9125799999999999    0.3652400000000000 H
   0.1319400000000000    0.9092600000000000    0.3604600000000000 H
   0.0645300000000000    0.5954400000000000    0.3518000000000000 H
   0.7685900000000000    0.9125799999999999    0.3652400000000000 H
   0.6319399999999999    0.9092600000000000    0.3604600000000000 H
   0.5645300000000000    0.5954400000000000    0.3518000000000000 H
   0.8764000000000000    0.9060000000000000    0.4816400000000000 H
   0.3764200000000000    0.9060200000000000    0.4816400000000000 H
   0.6249800000000000    0.4045400000000000    0.7667550000000001 H
   0.1250000000000000    0.4045600000000000    0.7667550000000001 H
   0.9815400000000000    0.5882200000000000    0.6155550000000000 H
   0.1181500000000000    0.5918200000000000    0.6107000000000000 H
   0.1853500000000000    0.9059500000000000    0.6016650000000000 H
   0.4815300000000000    0.5882200000000000    0.6155500000000000 H
   0.6181500000000000    0.5918200000000000    0.6107300000000000 H
   0.6853500000000000    0.9059500000000000    0.6016650000000000 H
   0.2314000000000000    0.0874300000000000    0.6347650000000000 H
   0.3680500000000000    0.0907500000000000    0.6395450000000000 H
   0.4354600000000000    0.4045700000000000    0.6482000000000000 H
   0.7314000000000001    0.0874300000000000    0.6347650000000000 H
   0.8680500000000000    0.0907500000000000    0.6395400000000000 H
   0.9354600000000000    0.4045700000000000    0.6482050000000000 H
   0.5955600000000000    0.1530500000000000    0.0177400000000000 C
   0.0955400000000000    0.1530400000000000    0.0177400000000000 C
   0.8459800000000000    0.6535200000000000    0.7326250000000000 C
   0.3459800000000000    0.6535200000000000    0.7326250000000000 C
   0.9500300000000000    0.0664600000000000    0.8925950000000000 C
   0.7580900000000000    0.2485100000000000    0.8987100000000000 C
   0.9946900000000000    0.2552400000000000    0.8888849999999999 C
   0.9732499999999999    0.3423100000000000    0.8871550000000000 C
   0.8973600000000000    0.3402600000000000    0.8900600000000001 C
   0.8593400000000000    0.1637800000000000    0.8954650000000000 C
   0.8390700000000000    0.2504100000000000    0.8947849999999999 C
   0.9358600000000000    0.1634600000000000    0.8924350000000000 C
   0.4500300000000000    0.0664600000000000    0.8925950000000000 C
   0.2580900000000000    0.2485100000000000    0.8987100000000000 C
   0.4947000000000000    0.2552400000000000    0.8888849999999999 C
   0.4732500000000000    0.3423100000000000    0.8871550000000000 C
   0.3973600000000000    0.3402600000000000    0.8900600000000001 C
   0.3593400000000000    0.1637800000000000    0.8954650000000000 C
   0.3390700000000000    0.2504100000000000    0.8947849999999999 C
   0.4358500000000000    0.1634600000000000    0.8924350000000000 C
   0.1999400000000000    0.5675800000000000    0.8574450000000000 C
   0.0081600000000000    0.7499500000000000    0.8512500000000001 C
   0.2446500000000000    0.7561600000000001    0.8609850000000000 C
   0.2233300000000000    0.8432500000000001    0.8626000000000000 C
   0.1474400000000000    0.8413500000000000    0.8597550000000000 C
   0.1092900000000000    0.6650199999999999    0.8545499999999999 C
   0.0891200000000000    0.7516900000000000    0.8551250000000000 C
   0.1857900000000000    0.6645500000000000    0.8575450000000000 C
   0.6999400000000000    0.5675800000000000    0.8574450000000000 C
   0.5081599999999999    0.7499500000000000    0.8512500000000001 C
   0.7446500000000000    0.7561600000000001    0.8609850000000000 C
   0.7233300000000000    0.8432500000000001    0.8626050000000001 C
   0.6474400000000000    0.8413500000000000    0.8597550000000000 C
   0.6092900000000000    0.6650199999999999    0.8545800000000000 C
   0.5891200000000000    0.7516900000000000    0.8551250000000000 C
   0.6857900000000000    0.6645500000000000    0.8575450000000000 C
   0.9044200000000000    0.8469400000000000    0.9822649999999999 C
   0.4044200000000000    0.8469500000000000    0.9822500000000001 C
   0.0499600000000000    0.9335500000000000    0.1074150000000000 C
   0.2418900000000000    0.7514900000000000    0.1013000000000000 C
   0.0000000000000000    0.7447700000000000    0.1111200000000000 C
   0.0267400000000000    0.6576900000000000    0.1128500000000000 C
   0.1026200000000000    0.6597400000000000    0.1099400000000000 C
   0.1406500000000000    0.8362200000000000    0.1045400000000000 C
   0.1609200000000000    0.7495900000000000    0.1052200000000000 C
   0.0641300000000000    0.8365500000000000    0.1075700000000000 C
   0.6540000000000000    0.3464700000000000    0.2673800000000000 C
   0.1540000000000000    0.3464800000000000    0.2673800000000000 C
   0.3000500000000000    0.4324300000000000    0.1425600000000000 C
   0.4918300000000000    0.2500600000000000    0.1487550000000000 C
   0.2553400000000000    0.2438400000000000    0.1390200000000000 C
   0.2766600000000000    0.1567500000000000    0.1374000000000000 C
   0.3525500000000000    0.1586500000000000    0.1402500000000000 C
   0.3907100000000000    0.3349900000000000    0.1454250000000000 C
   0.4108700000000000    0.2483200000000000    0.1448800000000000 C
   0.3142000000000000    0.3354600000000000    0.1424600000000000 C
   0.8000500000000000    0.4324300000000000    0.1425600000000000 C
   0.9918300000000000    0.2500600000000000    0.1487550000000000 C
   0.7553400000000000    0.2438400000000000    0.1390200000000000 C
   0.7766600000000000    0.1567500000000000    0.1374000000000000 C
   0.8525500000000000    0.1586500000000000    0.1402450000000000 C
   0.8907100000000000    0.3349900000000000    0.1454200000000000 C
   0.9108700000000000    0.2483200000000000    0.1448800000000000 C
   0.8142000000000000    0.3354600000000000    0.1424600000000000 C
   0.5955600000000000    0.1530500000000000    0.5177400000000000 C
   0.0955400000000000    0.1530400000000000    0.5177400000000000 C
   0.3459800000000000    0.6535200000000000    0.2326250000000000 C
   0.8459800000000000    0.6535200000000000    0.2326250000000000 C
   0.9500300000000000    0.0664600000000000    0.3925950000000000 C
   0.7580900000000000    0.2485100000000000    0.3987100000000000 C
   0.9946900000000000    0.2552400000000000    0.3888850000000000 C
   0.9732499999999999    0.3423100000000000    0.3871550000000000 C
   0.8973600000000000    0.3402600000000000    0.3900600000000000 C
   0.8593400000000000    0.1637800000000000    0.3954650000000000 C
   0.8390700000000000    0.2504100000000000    0.3947850000000000 C
   0.9358600000000000    0.1634600000000000    0.3924350000000000 C
   0.4500300000000000    0.0664600000000000    0.3925950000000000 C
   0.2580900000000000    0.2485100000000000    0.3987100000000000 C
   0.4947000000000000    0.2552400000000000    0.3888850000000000 C
   0.4732500000000000    0.3423100000000000    0.3871550000000000 C
   0.3973600000000000    0.3402600000000000    0.3900600000000000 C
   0.3593400000000000    0.1637800000000000    0.3954650000000000 C
   0.3390700000000000    0.2504100000000000    0.3947850000000000 C
   0.4358500000000000    0.1634600000000000    0.3924350000000000 C
   0.1999400000000000    0.5675800000000000    0.3574450000000000 C
   0.0081600000000000    0.7499500000000000    0.3512500000000000 C
   0.2446500000000000    0.7561600000000001    0.3609850000000000 C
   0.2233300000000000    0.8432500000000001    0.3626000000000000 C
   0.1474400000000000    0.8413500000000000    0.3597550000000000 C
   0.1092900000000000    0.6650199999999999    0.3545500000000000 C
   0.0891200000000000    0.7516900000000000    0.3551250000000000 C
   0.1857900000000000    0.6645500000000000    0.3575450000000000 C
   0.6999400000000000    0.5675800000000000    0.3574450000000000 C
   0.5081599999999999    0.7499500000000000    0.3512500000000000 C
   0.7446500000000000    0.7561600000000001    0.3609850000000000 C
   0.7233300000000000    0.8432500000000001    0.3626050000000000 C
   0.6474400000000000    0.8413500000000000    0.3597550000000000 C
   0.6092900000000000    0.6650199999999999    0.3545800000000000 C
   0.5891200000000000    0.7516900000000000    0.3551250000000000 C
   0.6857900000000000    0.6645500000000000    0.3575450000000000 C
   0.9044200000000000    0.8469400000000000    0.4822650000000000 C
   0.4044200000000000    0.8469500000000000    0.4822500000000000 C
   0.6540000000000000    0.3464700000000000    0.7673800000000000 C
   0.1540000000000000    0.3464800000000000    0.7673800000000000 C
   0.0499600000000000    0.9335500000000000    0.6074150000000000 C
   0.2418900000000000    0.7514900000000000    0.6012999999999999 C
   0.0000000000000000    0.7447700000000000    0.6111200000000000 C
   0.0267400000000000    0.6576900000000000    0.6128500000000000 C
   0.1026200000000000    0.6597400000000000    0.6099400000000000 C
   0.1406500000000000    0.8362200000000000    0.6045400000000000 C
   0.1609200000000000    0.7495900000000000    0.6052200000000000 C
   0.0641300000000000    0.8365500000000000    0.6075699999999999 C
   0.5499600000000000    0.9335500000000000    0.6074150000000000 C
   0.7419000000000000    0.7514900000000000    0.6012999999999999 C
   0.5052900000000000    0.7447700000000000    0.6111000000000000 C
   0.5267400000000000    0.6576900000000000    0.6128550000000000 C
   0.6026200000000000    0.6597400000000000    0.6099400000000000 C
   0.6406500000000001    0.8362200000000000    0.6045350000000000 C
   0.6609200000000000    0.7495900000000000    0.6052200000000000 C
   0.5641300000000000    0.8365500000000000    0.6075750000000000 C
   0.3000500000000000    0.4324300000000000    0.6425600000000000 C
   0.4918300000000000    0.2500600000000000    0.6487550000000000 C
   0.2553400000000000    0.2438400000000000    0.6390200000000000 C
   0.2766600000000000    0.1567500000000000    0.6374000000000000 C
   0.3525500000000000    0.1586500000000000    0.6402500000000000 C
   0.3907100000000000    0.3349900000000000    0.6454250000000000 C
   0.4108700000000000    0.2483200000000000    0.6448800000000000 C
   0.3142000000000000    0.3354600000000000    0.6424600000000000 C
   0.8000500000000000    0.4324300000000000    0.6425600000000000 C
   0.9918300000000000    0.2500600000000000    0.6487550000000000 C
   0.7553400000000000    0.2438400000000000    0.6390200000000000 C
   0.7766600000000000    0.1567500000000000    0.6374000000000000 C
   0.8525500000000000    0.1586500000000000    0.6402450000000000 C
   0.8907100000000000    0.3349900000000000    0.6454200000000000 C
   0.9108700000000000    0.2483200000000000    0.6448800000000000 C
   0.8142000000000000    0.3354600000000000    0.6424600000000000 C
   0.5844800000000000    0.1893700000000000    0.9813550000000000 O
   0.5755300000000000    0.1819000000000000    0.0534650000000000 O
   0.0844800000000000    0.1893700000000000    0.9813550000000000 O
   0.0755300000000000    0.1819000000000000    0.0534650000000000 O
   0.8251600000000000    0.6800100000000000    0.6962850000000000 O
   0.8346100000000000    0.6911300000000000    0.7682950000000000 O
   0.3251600000000000    0.6800000000000000    0.6962850000000000 O
   0.3346100000000000    0.6911300000000000    0.7682950000000000 O
   0.0147000000000000    0.0532000000000000    0.9018500000000000 O
   0.8925800000000000    0.9918800000000000    0.8833250000000000 O
   0.7426500000000000    0.3299600000000000    0.8958300000000000 O
   0.7076900000000000    0.1647800000000000    0.9056450000000000 O
   0.0691000000000000    0.2606900000000000    0.8868300000000000 O
   0.5147000000000000    0.0532000000000000    0.9018500000000000 O
   0.3925800000000000    0.9918800000000000    0.8833250000000000 O
   0.2426500000000000    0.3299600000000000    0.8958300000000000 O
   0.2076900000000000    0.1647700000000000    0.9056450000000000 O
   0.5691100000000000    0.2606900000000000    0.8868300000000000 O
   0.2646000000000000    0.5546600000000000    0.8482400000000000 O
   0.1424700000000000    0.4926200000000000    0.8666950000000000 O
   0.9927800000000000    0.8313199999999999    0.8540700000000000 O
   0.9577100000000000    0.6664700000000000    0.8444650000000000 O
   0.3190500000000000    0.7614100000000000    0.8629550000000000 O
   0.7645999999999999    0.5546600000000000    0.8482400000000000 O
   0.6424700000000000    0.4926200000000000    0.8666950000000000 O
   0.4927800000000000    0.8313199999999999    0.8540500000000000 O
   0.4577100000000000    0.6664700000000000    0.8444650000000000 O
   0.8190499999999999    0.7614100000000000    0.8629550000000000 O
   0.9155200000000000    0.8106300000000000    0.0186500000000000 O
   0.9244700000000000    0.8181100000000000    0.9465399999999999 O
   0.4244700000000000    0.8181100000000000    0.9465399999999999 O
   0.4155100000000000    0.8106300000000000    0.0186500000000000 O
   0.7573299999999999    0.6700400000000000    0.1041750000000000 O
   0.7923000000000000    0.8352300000000000    0.0943600000000000 O
   0.9852900000000000    0.9468100000000000    0.0981200000000000 O
   0.1074100000000000    0.0081200000000000    0.1166800000000000 O
   0.2573300000000000    0.6700400000000000    0.1041750000000000 O
   0.2923000000000000    0.8352300000000000    0.0943600000000000 O
   0.9308800000000000    0.7393200000000000    0.1131750000000000 O
   0.4852900000000000    0.9468100000000000    0.0981200000000000 O
   0.4308800000000000    0.7393200000000000    0.1131750000000000 O
   0.6748300000000000    0.3200000000000000    0.3037200000000000 O
   0.6653900000000000    0.3088800000000000    0.2317100000000000 O
   0.1748300000000000    0.3200000000000000    0.3037200000000000 O
   0.1653800000000000    0.3088800000000000    0.2317100000000000 O
   0.2353900000000000    0.4453500000000000    0.1517650000000000 O
   0.3575200000000000    0.5073800000000001    0.1333150000000000 O
   0.5072100000000000    0.1686800000000000    0.1459400000000000 O
   0.5422800000000000    0.3335400000000000    0.1555450000000000 O
   0.1809400000000000    0.2385900000000000    0.1370500000000000 O
   0.7353900000000000    0.4453500000000000    0.1517650000000000 O
   0.8575199999999999    0.5073800000000001    0.1333100000000000 O
   0.0000000000000000    0.1686800000000000    0.1459400000000000 O
   0.0422800000000000    0.3335400000000000    0.1555450000000000 O
   0.6074100000000000    0.0081200000000000    0.1166800000000000 O
   0.6809400000000000    0.2385900000000000    0.1370500000000000 O
   0.5844800000000000    0.1893700000000000    0.4813550000000000 O
   0.5755300000000000    0.1819000000000000    0.5534650000000000 O
   0.0844800000000000    0.1893700000000000    0.4813550000000000 O
   0.0755300000000000    0.1819000000000000    0.5534650000000000 O
   0.3251600000000000    0.6800000000000000    0.1962850000000000 O
   0.3346100000000000    0.6911300000000000    0.2682950000000000 O
   0.8251600000000000    0.6800100000000000    0.1962850000000000 O
   0.8346100000000000    0.6911300000000000    0.2682950000000000 O
   0.0147000000000000    0.0532000000000000    0.4018500000000000 O
   0.8925800000000000    0.9918800000000000    0.3833250000000000 O
   0.7426500000000000    0.3299600000000000    0.3958300000000000 O
   0.7076900000000000    0.1647800000000000    0.4056450000000000 O
   0.0691000000000000    0.2606900000000000    0.3868300000000000 O
   0.5147000000000000    0.0532000000000000    0.4018500000000000 O
   0.3925800000000000    0.9918800000000000    0.3833250000000000 O
   0.2426500000000000    0.3299600000000000    0.3958300000000000 O
   0.2076900000000000    0.1647700000000000    0.4056450000000000 O
   0.5691100000000000    0.2606900000000000    0.3868300000000000 O
   0.2646000000000000    0.5546600000000000    0.3482400000000000 O
   0.1424700000000000    0.4926200000000000    0.3666950000000000 O
   0.9927800000000000    0.8313199999999999    0.3540700000000000 O
   0.9577100000000000    0.6664700000000000    0.3444650000000000 O
   0.3190500000000000    0.7614100000000000    0.3629550000000000 O
   0.7645999999999999    0.5546600000000000    0.3482400000000000 O
   0.6424700000000000    0.4926200000000000    0.3666950000000000 O
   0.4927800000000000    0.8313199999999999    0.3540500000000000 O
   0.4577100000000000    0.6664700000000000    0.3444650000000000 O
   0.8190499999999999    0.7614100000000000    0.3629550000000000 O
   0.9155200000000000    0.8106300000000000    0.5186500000000001 O
   0.9244700000000000    0.8181100000000000    0.4465400000000000 O
   0.4244700000000000    0.8181100000000000    0.4465400000000000 O
   0.4155100000000000    0.8106300000000000    0.5186500000000001 O
   0.6748300000000000    0.3200000000000000    0.8037200000000000 O
   0.6653900000000000    0.3088800000000000    0.7317100000000000 O
   0.1748300000000000    0.3200000000000000    0.8037200000000000 O
   0.1653800000000000    0.3088800000000000    0.7317100000000000 O
   0.9852900000000000    0.9468100000000000    0.5981200000000000 O
   0.1074100000000000    0.0081200000000000    0.6166800000000000 O
   0.2573300000000000    0.6700400000000000    0.6041750000000000 O
   0.2923000000000000    0.8352300000000000    0.5943600000000000 O
   0.9308800000000000    0.7393200000000000    0.6131750000000000 O
   0.4852900000000000    0.9468100000000000    0.5981200000000000 O
   0.6074100000000000    0.0081200000000000    0.6166800000000000 O
   0.7573299999999999    0.6700400000000000    0.6041750000000000 O
   0.7923000000000000    0.8352300000000000    0.5943600000000000 O
   0.4308800000000000    0.7393200000000000    0.6131750000000000 O
   0.2353900000000000    0.4453500000000000    0.6517650000000000 O
   0.3575200000000000    0.5073800000000001    0.6333150000000000 O
   0.5072100000000000    0.1686800000000000    0.6459400000000000 O
   0.5422800000000000    0.3335400000000000    0.6555450000000000 O
   0.1809400000000000    0.2385900000000000    0.6370500000000000 O
   0.7353900000000000    0.4453500000000000    0.6517650000000000 O
   0.8575199999999999    0.5073800000000001    0.6333100000000000 O
   0.0000000000000000    0.1686800000000000    0.6459400000000000 O
   0.0422800000000000    0.3335400000000000    0.6555450000000000 O
   0.6809400000000000    0.2385900000000000    0.6370500000000000 O
