H16 C34 O8
1.0
  33.2678900296869173    0.0000000000000000   -0.7346216527287909
  -0.0000249479497339   16.1829999605437784   -0.0011297865304829
   0.0000000000000000    0.0000000000000000   17.9869999999999983
H C O
16 34 8
direct
   0.9150533333333333    0.7985100000000001    0.8812900000000000 H
   0.9220766666666667    0.7939600000000000    0.1193800000000000 H
   0.8829699999999999    0.6620000000000000    0.1201300000000000 H
   0.8757033333333333    0.6668700000000000    0.8811000000000000 H
   0.7515666666666666    0.7985300000000000    0.1187000000000000 H
   0.7446433333333333    0.7939300000000000    0.8806100000000000 H
   0.7837499999999999    0.6619699999999999    0.8799200000000000 H
   0.7909333333333333    0.6669100000000000    0.1189500000000000 H
   0.7515700000000000    0.2015000000000000    0.1187100000000000 H
   0.7446400000000000    0.2060700000000000    0.8806100000000000 H
   0.7837466666666666    0.3380300000000000    0.8799300000000000 H
   0.7909366666666666    0.3331200000000000    0.1189600000000000 H
   0.9150566666666666    0.2014900000000000    0.8813000000000000 H
   0.9220733333333333    0.2060700000000000    0.1193800000000000 H
   0.8829666666666667    0.3380300000000000    0.1201400000000000 H
   0.8757066666666666    0.3331300000000000    0.8811099999999999 H
   0.9207566666666667    0.8042700000000000    0.0003100000000000 C
   0.9463533333333333    0.8804999999999999    0.9997600000000000 C
   0.8545566666666666    0.5760600000000000    0.0000000000000000 C
   0.8768533333333333    0.6559000000000000    0.0000000000000000 C
   0.9074700000000000    0.7683900000000000    0.9332700000000000 C
   0.9114499999999999    0.7658199999999999    0.0675800000000000 C
   0.8897100000000000    0.6923400000000000    0.0677200000000000 C
   0.8856433333333333    0.6950400000000000    0.9334300000000000 C
   0.7459100000000000    0.8042600000000000    0.9996699999999999 C
   0.7203100000000000    0.8804900000000000    0.0000000000000000 C
   0.8121200000000000    0.5760600000000000    0.9995400000000000 C
   0.7898266666666667    0.6559100000000000    0.9994200000000000 C
   0.7591766666666666    0.7684100000000000    0.0667400000000000 C
   0.7552500000000000    0.7658000000000000    0.9324300000000000 C
   0.7769866666666666    0.6923200000000000    0.9323100000000000 C
   0.7810066666666666    0.6950600000000000    0.0666100000000000 C
   0.7459100000000000    0.1957600000000000    0.9996800000000000 C
   0.7203100000000000    0.1195300000000000    0.0000000000000000 C
   0.8121200000000000    0.4239600000000000    0.9995400000000000 C
   0.7898233333333333    0.3441200000000000    0.9994300000000000 C
   0.7591766666666666    0.2316200000000000    0.0667400000000000 C
   0.7552466666666666    0.2342000000000000    0.9324300000000000 C
   0.7769866666666666    0.3076900000000000    0.9323200000000000 C
   0.7810066666666666    0.3049700000000000    0.0666200000000000 C
   0.9207566666666667    0.1957500000000000    0.0003200000000000 C
   0.9463533333333333    0.1195200000000000    0.9997700000000000 C
   0.8545566666666666    0.4239600000000000    0.0000000000000000 C
   0.8768533333333333    0.3441100000000000    0.0000000000000000 C
   0.9074733333333332    0.2316100000000000    0.9332700000000000 C
   0.9114499999999999    0.2342000000000000    0.0675800000000000 C
   0.8897066666666666    0.3076800000000000    0.0677300000000000 C
   0.8856433333333333    0.3049600000000000    0.9334300000000000 C
   0.8748100000000000    0.5000100000000000    0.0010000000000000 C
   0.7918666666666666    0.5000100000000000    0.9990900000000000 C
   0.9551733333333332   -0.0901700000000000    0.9363899999999999 O
   0.9582033333333333   -0.0907500000000000    0.0625200000000000 O
   0.7114900000000000   -0.0901500000000000    0.0635700000000000 O
   0.7084733333333333   -0.0907600000000000    0.9374400000000001 O
   0.7114933333333333    0.0901800000000000    0.0635700000000000 O
   0.7084733333333333    0.0907700000000000    0.9374400000000001 O
   0.9551733333333332    0.0901800000000000    0.9363899999999999 O
   0.9582066666666667    0.0907700000000000    0.0625200000000000 O
