H12 O8
1.0
  33.2678900296869173    0.0000000000000000   -0.7346216527287909
  -0.0000249479497339   16.1829999605437784   -0.0011297865304829
   0.0000000000000000    0.0000000000000000   17.9869999999999983
H O
12 8
direct
   0.7308909943929799    0.0739411243914444    0.9073737302074708 H
   0.7308916915336747   -0.0739399258302268    0.9073736664602491 H
   0.7349027841595493   -0.0733550873498558    0.0928949259518467 H
   0.7349060263523461    0.0733864659235752    0.0928936593318603 H
   0.7586632261615448   -0.0547568121593049    1.0003037278116329 H
   0.7586651955308702    0.0547682146654783    1.0003037238406123 H
   0.9357915477275108    0.0739411402525912    0.0925906205248684 H
   0.9357878381355422   -0.0739216359434529    0.0925919435840610 H
   0.9317572568171077    0.0733866944318412    0.9070734669051854 H
   0.9317578982554762   -0.0733814880814003    0.9070715646057784 H
   0.9080061034733830   -0.0547593472966726   -0.0003318853365046 H
   0.9080048124531558    0.0547667405593553   -0.0003318752683288 H
   0.7084733333333333    0.0907700000000000    0.9374400000000001 O
   0.7084733333333333   -0.0907600000000000    0.9374400000000001 O
   0.7114900000000000   -0.0901500000000000    0.0635700000000000 O
   0.7114933333333333    0.0901800000000000    0.0635700000000000 O
   0.9582066666666667    0.0907700000000000    0.0625200000000000 O
   0.9582033333333333   -0.0907500000000000    0.0625200000000000 O
   0.9551733333333332    0.0901800000000000    0.9363899999999999 O
   0.9551733333333332   -0.0901700000000000    0.9363899999999999 O
