H8 C12 N6
1.0
  33.2678900296869173    0.0000000000000000   -0.7346216527287909
  -0.0000249479497339   16.1829999605437784   -0.0011297865304829
   0.0000000000000000    0.0000000000000000   17.9869999999999983
H C N
8 12 6
direct
   0.6030500000000000    0.9999800000000000    0.8010100000000000 H
   0.6009333333333333    0.9999900000000000    0.6607000000000000 H
   0.6060399999999999    0.0000100000000000    0.1918900000000000 H
   0.6026100000000000    0.0000100000000000    0.3319000000000000 H
   0.7272966666666666    0.0000000000000000    0.8081100000000000 H
   0.7307300000000000    0.9999900000000000    0.6681000000000000 H
   0.7302900000000000    0.0000000000000000    0.1990000000000000 H
   0.7323999999999999    0.9999900000000000    0.3393000000000000 H
   0.6304166666666666    0.0000000000000000    0.7687900000000000 C
   0.6658899999999999    0.0000300000000000    0.6537700000000000 C
   0.6294333333333333    0.9999700000000000    0.6915300000000000 C
   0.6662966666666665    0.9999700000000000    0.5717900000000000 C
   0.6330800000000000    0.9999900000000000    0.2272200000000000 C
   0.6313800000000001    0.0000300000000000    0.3043300000000000 C
   0.7002600000000000    0.9999700000000000    0.7727800000000000 C
   0.7019599999999999    0.0000100000000000    0.6956700000000000 C
   0.7029200000000000    0.0000200000000000    0.2312100000000000 C
   0.6674466666666666    0.0000200000000000    0.3462300000000000 C
   0.7039033333333333    0.9999700000000000    0.3084700000000000 C
   0.6670400000000000    0.9999500000000000    0.4282100000000000 C
   0.6651566666666666    0.9999800000000000    0.8086600000000000 N
   0.6304500000000000    0.0000200000000000    0.5346900000000000 N
   0.6308333333333334    0.9999900000000000    0.4610900000000000 N
   0.7025066666666666    0.9999600000000000    0.5389000000000000 N
   0.6681833333333334    0.9999900000000000    0.1913400000000000 N
   0.7028866666666667    0.9999900000000000    0.4653000000000000 N
