C1 O3
1.0
  25.9529999999999994    0.0000000000000000    0.0000000000000016
  -0.0002678207737052   15.3449999976628231    0.0000000000000009
   0.0000000000000000    0.0000000000000000   17.4209999999999994
C O
1 3
direct
   0.1833600000000000    0.7900199999999999    0.7499800000000000 C
   0.2024333333333333    0.8107900000000000    0.8158500000000000 O
   0.2024333333333333    0.8107900000000000    0.6841200000000000 O
   0.1401333333333333    0.7447500000000000    0.7499800000000000 O
