H2 C5 N2 O4
1.0
  25.9529999999999994    0.0000000000000000    0.0000000000000016
  -0.0002678207737052   15.3449999976628231    0.0000000000000009
   0.0000000000000000    0.0000000000000000   17.4209999999999994
H C N O
2 5 2 4
direct
   0.3160233333333333    0.4927700000000000    0.5985200000000001 H
   0.1601966666666667    0.4319600000000000    0.5536300000000000 H
   0.3149966666666666    0.3254100000000000    0.5029000000000000 C
   0.2759333333333333    0.3828600000000000    0.5382300000000000 C
   0.2810100000000000    0.4606900000000000    0.5800800000000000 C
   0.2308633333333333    0.4900300000000000    0.5911200000000000 C
   0.2112500000000000    0.5736700000000000    0.6227200000000001 C
   0.1994800000000000    0.4301500000000000    0.5563500000000000 N
   0.2257366666666666    0.3647500000000000    0.5235900000000000 N
   0.2975633333333333    0.2569700000000000    0.4670800000000000 O
   0.1628533333333333    0.5870800000000000    0.6196700000000001 O
   0.2449133333333333    0.6267000000000000    0.6471100000000000 O
   0.3620666666666666    0.3444600000000000    0.5031900000000000 O
