H3 O2
1.0
  25.9529999999999994    0.0000000000000000    0.0000000000000016
  -0.0002678207737052   15.3449999976628231    0.0000000000000009
   0.0000000000000000    0.0000000000000000   17.4209999999999994
H O
3 2
direct
   0.1951789675506064    0.8495181428558800    0.8585084757686076 H
   0.1031626703079889    0.7485028956755616    0.7574515595284335 H
   0.1263157155685116    0.8185167069391701    0.8312329351640932 H
   0.2024333333333333    0.8107900000000000    0.8158500000000000 O
   0.1401333333333333    0.7447500000000000    0.7499800000000000 O
