H4 C6 N5
1.0
  37.2479990412300808    0.0000000000000000    0.0084513030446694
  -0.0180445534589715   31.3239915774713644    0.0142143798194212
   0.0000000000000000    0.0000000000000000   30.9660000000000011
H C N
4 6 5
direct
   0.5757766666666666    0.6106500000000000    0.7942100000000001 H
   0.6107499999999999    0.5491050000000000    0.8240850000000000 H
   0.5523333333333333    0.5492600000000000    0.9378250000000000 H
   0.5141700000000000    0.6108200000000000    0.9122049999999999 H
   0.5222833333333333    0.6527350000000001    0.8356650000000000 C
   0.5421499999999999    0.6157150000000000    0.8510550000000000 C
   0.5695666666666667    0.5975550000000001    0.8259200000000000 C
   0.5888066666666667    0.5633450000000000    0.8423149999999999 C
   0.5557933333333334    0.5636050000000000    0.9059550000000001 C
   0.5352699999999999    0.5977850000000000    0.8917750000000000 C
   0.5055566666666667    0.7041100000000000    0.7964000000000000 N
   0.4866900000000000    0.7051300000000000    0.8334100000000000 N
   0.4966666666666666    0.6731300000000000    0.8588400000000000 N
   0.5280766666666666    0.6714300000000000    0.7969050000000000 N
   0.5823233333333333    0.5466050000000000    0.8817450000000000 N
