H5 O3
1.0
  37.2479990412300808    0.0000000000000000    0.0084513030446694
  -0.0180445534589715   31.3239915774713644    0.0142143798194212
   0.0000000000000000    0.0000000000000000   30.9660000000000011
H O
5 3
direct
   0.5870218970305005    0.5587367156232254    0.8531695192936812 H
   0.5630941139879742    0.5589267764369056    0.8992926592669109 H
   0.5004204064488462    0.7043876847396914    0.8064756002117419 H
   0.4940431501821885    0.6815448874878016    0.8521527940995377 H
   0.5222021324524693    0.6799548569325031    0.7967732664396905 H
   0.5823233333333333    0.5466050000000000    0.8817450000000000 O
   0.5055566666666667    0.7041100000000000    0.7964000000000000 O
   0.4866900000000000    0.7051300000000000    0.8334100000000000 O
