H6 O4
1.0
  16.3193723033649150    0.0000000000000000   -0.6911176630401364
  -0.7107620346546060   16.3146321353586181   -0.6490336031497282
   0.0000000000000000    0.0000000000000000   16.3440000000000012
H O
6 4
direct
   0.0150901223565993    0.4575510317580789    0.7660768250951228 H
   0.1291609256098609    0.6723161810001190    0.8449043546089356 H
   0.0653915023031472    0.5688153818523276    0.8062762684872117 H
   0.3958172655318447    0.5829753297344953    0.9227602168082513 H
   0.4869700621838809    0.5321949255068015    0.7009749585661508 H
   0.4491447505266094    0.5579889507720525    0.8135243987917763 H
   0.0626400000000000    0.4933200000000000    0.7812800000000000 O
   0.1270800000000000    0.6152200000000000    0.8260000000000000 O
   0.3917100000000000    0.5695200000000000    0.8643500000000000 O
   0.4439100000000000    0.5408400000000000    0.7390800000000000 O
