H2 O2
1.0
  16.4164104267610327    0.0000000000000000    4.3579460414433333
   2.8404229665900669   18.8045292291105142    7.9974895337472027
   0.0000000000000000    0.0000000000000000   14.1760000000000002
H O
2 2
direct
   0.8837565206106452    0.8611224515519509    0.8497027681849921 H
   0.6162531376211232    0.1388752970298840    0.1508101386099154 H
   0.9206600000000000    0.8256599999999999    0.8225500000000000 O
   0.5793400000000000    0.1743400000000000    0.1779500000000000 O
