Zn32 H290 C408 N64 O128
1.0
  22.0482144738848227    0.0000000000000000   -1.3083606206148892
  -0.1140052745803178   33.5703155207418362  -12.3901402185450511
   0.0000000000000000    0.0000000000000000   20.5410000000000004
Zn H C N O
32 290 408 64 128
direct
   0.0931500000000000    0.7749300000000000    0.1548000000000000 Zn
   0.0695800000000000    0.9687950000000001    0.7222400000000000 Zn
   0.5932800000000000    0.7748750000000000    0.1543100000000000 Zn
   0.5703900000000000    0.9687200000000000    0.7221000000000000 Zn
   0.5626400000000000    0.0248850000000000    0.6495200000000000 Zn
   0.0634300000000000    0.0249500000000000    0.6498400000000000 Zn
   0.0976900000000000    0.2190650000000000    0.2273500000000000 Zn
   0.5973900000000000    0.2188600000000000    0.2269400000000000 Zn
   0.0931500000000000    0.2749300000000000    0.1548000000000000 Zn
   0.0695800000000000    0.4687950000000000    0.7222400000000000 Zn
   0.5932800000000000    0.2748750000000000    0.1543100000000000 Zn
   0.5703900000000000    0.4687200000000000    0.7221000000000000 Zn
   0.5626400000000000    0.5248850000000000    0.6495200000000000 Zn
   0.0634300000000000    0.5249500000000000    0.6498400000000000 Zn
   0.0976900000000000    0.7190650000000001    0.2273500000000000 Zn
   0.5973900000000000    0.7188600000000001    0.2269400000000000 Zn
   0.9068800000000000    0.7250700000000000    0.8451800000000000 Zn
   0.9304300000000000    0.5312200000000000    0.2777500000000000 Zn
   0.4073300000000000    0.7251600000000000    0.8457200000000000 Zn
   0.4296300000000000    0.5312900000000000    0.2778900000000000 Zn
   0.9365900000000000    0.4750650000000000    0.3501500000000000 Zn
   0.4026300000000000    0.2811550000000000    0.7730000000000000 Zn
   0.4373700000000000    0.4751250000000000    0.3504700000000000 Zn
   0.9027800000000000    0.2809550000000000    0.7726900000000000 Zn
   0.9068800000000000    0.2250700000000000    0.8451800000000000 Zn
   0.9304300000000000    0.0312200000000000    0.2777500000000000 Zn
   0.4073300000000000    0.2251600000000000    0.8457200000000000 Zn
   0.4296300000000000    0.0312900000000000    0.2778900000000000 Zn
   0.4373700000000000    0.9751250000000000    0.3504700000000000 Zn
   0.9365900000000000    0.9750650000000001    0.3501500000000000 Zn
   0.9027800000000000    0.7809550000000001    0.7726900000000000 Zn
   0.4026300000000000    0.7811550000000000    0.7730000000000000 Zn
   0.0872300000000000    0.8021150000000000    0.4354100000000000 H
   0.0727300000000000    0.8582150000000000    0.5484900000000000 H
   0.0642800000000000    0.9413250000000000    0.4395600000000000 H
   0.0760600000000000    0.8857050000000000    0.3275000000000000 H
   0.1113600000000000    0.9331900000000000    0.9413600000000000 H
   0.9833700000000000    0.8558850000000000    0.7884500000000000 H
   0.0034600000000000    0.8943800000000000    0.7112800000000000 H
   0.1259100000000000    0.9684800000000000    0.8576000000000000 H
   0.0754700000000000    0.8091950000000000    0.9325800000000000 H
   0.0604000000000000    0.9094350000000000    0.1239600000000000 H
   0.0798400000000000    0.8623900000000000    0.1877800000000000 H
   0.0939600000000000    0.7664850000000001    0.0048000000000000 H
   0.9922800000000001    0.8547800000000000    0.9034799999999999 H
   0.0237000000000000    0.9119999999999999    0.0129700000000000 H
   0.8995000000000000    0.9476050000000000    0.0693000000000000 H
   0.8932800000000000    0.8918100000000000    0.9538000000000000 H
   0.9249400000000000    0.8072349999999999    0.0577700000000000 H
   0.9322400000000000    0.8629899999999999    0.1725000000000000 H
   0.7664700000000000    0.9535750000000001    0.7397500000000000 H
   0.8806100000000000    0.9565000000000000    0.7406900000000000 H
   0.8657300000000000    0.0385450000000000    0.6299200000000000 H
   0.7522700000000000    0.0363550000000000    0.6308200000000000 H
   0.5866300000000000    0.8020350000000001    0.4342000000000000 H
   0.5723200000000001    0.8579100000000000    0.5475800000000000 H
   0.5764500000000000    0.8861600000000001    0.3273800000000000 H
   0.5645400000000000    0.9415200000000000    0.4396000000000000 H
   0.6106800000000000    0.9331800000000000    0.9415500000000000 H
   0.4828500000000000    0.8561000000000001    0.7880900000000000 H
   0.5036000000000000    0.8945600000000000    0.7110000000000000 H
   0.6259100000000000    0.9684349999999999    0.8579000000000000 H
   0.5749600000000000    0.8093200000000000    0.9321800000000000 H
   0.5597200000000000    0.9093599999999999    0.1237800000000000 H
   0.5797200000000000    0.8622550000000000    0.1873900000000000 H
   0.5939600000000000    0.7665299999999999    0.0042000000000000 H
   0.4914000000000000    0.8548650000000000    0.9032200000000000 H
   0.5226499999999999    0.9119800000000000    0.0129000000000000 H
   0.3982100000000000    0.9476200000000000    0.0695100000000000 H
   0.3920400000000000    0.8917400000000000    0.9540999999999999 H
   0.4245000000000000    0.8073550000000000    0.0582900000000000 H
   0.4317800000000000    0.8631900000000000    0.1729600000000000 H
   0.3806600000000000    0.9563950000000000    0.7411500000000000 H
   0.2665000000000000    0.9535549999999999    0.7406000000000000 H
   0.2520600000000000    0.0366800000000000    0.6323800000000001 H
   0.3654900000000000    0.0387850000000000    0.6310000000000000 H
   0.5535600000000001    0.1770150000000000    0.4342200000000000 H
   0.7057300000000000    0.1170300000000000    0.3180200000000000 H
   0.6812500000000000    0.1532150000000000    0.2356800000000000 H
   0.5353400000000000    0.2104100000000000    0.3458900000000000 H
   0.5949400000000000    0.0626100000000000    0.4348800000000000 H
   0.6089000000000000    0.1598650000000000    0.6326000000000001 H
   0.5793800000000000    0.1117250000000000    0.6882800000000000 H
   0.5663600000000000    0.0187600000000000    0.4992000000000000 H
   0.6462200000000000    0.1658850000000000    0.5296300000000000 H
   0.6856300000000000    0.1104150000000000    0.4266700000000000 H
   0.0528900000000000    0.1770100000000000    0.4339000000000000 H
   0.2055600000000000    0.1172000000000000    0.3185400000000000 H
   0.0349400000000000    0.2103500000000000    0.3455000000000000 H
   0.1812500000000000    0.1532700000000000    0.2359800000000000 H
   0.0947200000000000    0.0627950000000000    0.4351700000000000 H
   0.1081000000000000    0.1601200000000000    0.6328200000000000 H
   0.0792400000000000    0.1118650000000000    0.6885800000000000 H
   0.0668100000000000    0.0188300000000000    0.4995600000000000 H
   0.1852000000000000    0.1107200000000000    0.4272500000000000 H
   0.1452600000000000    0.1662200000000000    0.5298400000000000 H
   0.3998300000000000    0.2920300000000000    0.1543900000000000 H
   0.2861500000000000    0.2937300000000000    0.1549800000000000 H
   0.2896500000000000    0.1963150000000000    0.2315600000000000 H
   0.4033300000000000    0.1953950000000000    0.2329700000000000 H
   0.8994200000000000    0.2920100000000000    0.1538300000000000 H
   0.7857400000000000    0.2934600000000000    0.1545100000000000 H
   0.7901200000000000    0.1967150000000000    0.2327900000000000 H
   0.9038100000000000    0.1960950000000000    0.2342100000000000 H
   0.0872300000000000    0.3021150000000000    0.4354100000000000 H
   0.0727300000000000    0.3582150000000000    0.5484900000000000 H
   0.0642800000000000    0.4413250000000000    0.4395600000000000 H
   0.0760600000000000    0.3857050000000000    0.3275000000000000 H
   0.1113600000000000    0.4331900000000000    0.9413600000000000 H
   0.9833700000000000    0.3558850000000000    0.7884500000000000 H
   0.0034600000000000    0.3943800000000000    0.7112800000000000 H
   0.1259100000000000    0.4684800000000000    0.8576000000000000 H
   0.0754700000000000    0.3091950000000000    0.9325800000000000 H
   0.0604000000000000    0.4094350000000000    0.1239600000000000 H
   0.0798400000000000    0.3623900000000000    0.1877800000000000 H
   0.0939600000000000    0.2664850000000000    0.0048000000000000 H
   0.9922800000000001    0.3547800000000000    0.9034799999999999 H
   0.0237000000000000    0.4120000000000000    0.0129700000000000 H
   0.8995000000000000    0.4476050000000000    0.0693000000000000 H
   0.8932800000000000    0.3918100000000000    0.9538000000000000 H
   0.9249400000000000    0.3072350000000000    0.0577700000000000 H
   0.9322400000000000    0.3629900000000000    0.1725000000000000 H
   0.7664700000000000    0.4535750000000000    0.7397500000000000 H
   0.8806100000000000    0.4565000000000000    0.7406900000000000 H
   0.8657300000000000    0.5385450000000001    0.6299200000000000 H
   0.7522700000000000    0.5363550000000000    0.6308200000000000 H
   0.5866300000000000    0.3020350000000000    0.4342000000000000 H
   0.5723200000000001    0.3579100000000000    0.5475800000000000 H
   0.5764500000000000    0.3861600000000000    0.3273800000000000 H
   0.5645400000000000    0.4415200000000000    0.4396000000000000 H
   0.6106800000000000    0.4331800000000000    0.9415500000000000 H
   0.4828500000000000    0.3561000000000000    0.7880900000000000 H
   0.5036000000000000    0.3945600000000000    0.7110000000000000 H
   0.6259100000000000    0.4684350000000000    0.8579000000000000 H
   0.5749600000000000    0.3093200000000000    0.9321800000000000 H
   0.5597200000000000    0.4093600000000000    0.1237800000000000 H
   0.5797200000000000    0.3622550000000000    0.1873900000000000 H
   0.5939600000000000    0.2665300000000000    0.0042000000000000 H
   0.4914000000000000    0.3548650000000000    0.9032200000000000 H
   0.5226499999999999    0.4119800000000000    0.0129000000000000 H
   0.3982100000000000    0.4476200000000000    0.0695100000000000 H
   0.3920400000000000    0.3917400000000000    0.9540999999999999 H
   0.4245000000000000    0.3073550000000000    0.0582900000000000 H
   0.4317800000000000    0.3631900000000000    0.1729600000000000 H
   0.3806600000000000    0.4563950000000000    0.7411500000000000 H
   0.2665000000000000    0.4535550000000000    0.7406000000000000 H
   0.2520600000000000    0.5366800000000000    0.6323800000000001 H
   0.3654900000000000    0.5387850000000000    0.6310000000000000 H
   0.5535600000000001    0.6770150000000000    0.4342200000000000 H
   0.7057300000000000    0.6170300000000000    0.3180200000000000 H
   0.6812500000000000    0.6532150000000000    0.2356800000000000 H
   0.5353400000000000    0.7104100000000000    0.3458900000000000 H
   0.5949400000000000    0.5626100000000001    0.4348800000000000 H
   0.6089000000000000    0.6598650000000000    0.6326000000000001 H
   0.5793800000000000    0.6117250000000000    0.6882800000000000 H
   0.5663600000000000    0.5187600000000000    0.4992000000000000 H
   0.6462200000000000    0.6658850000000001    0.5296300000000000 H
   0.6856300000000000    0.6104150000000000    0.4266700000000000 H
   0.0528900000000000    0.6770100000000000    0.4339000000000000 H
   0.2055600000000000    0.6172000000000000    0.3185400000000000 H
   0.0349400000000000    0.7103500000000000    0.3455000000000000 H
   0.1812500000000000    0.6532700000000000    0.2359800000000000 H
   0.0947200000000000    0.5627950000000000    0.4351700000000000 H
   0.1081000000000000    0.6601200000000000    0.6328200000000000 H
   0.0792400000000000    0.6118650000000000    0.6885800000000000 H
   0.0668100000000000    0.5188300000000000    0.4995600000000000 H
   0.1852000000000000    0.6107200000000000    0.4272500000000000 H
   0.1452600000000000    0.6662200000000000    0.5298400000000000 H
   0.3998300000000000    0.7920300000000000    0.1543900000000000 H
   0.2861500000000000    0.7937300000000000    0.1549800000000000 H
   0.2896500000000000    0.6963150000000000    0.2315600000000000 H
   0.4033300000000000    0.6953950000000000    0.2329700000000000 H
   0.8994200000000000    0.7920100000000000    0.1538300000000000 H
   0.7857400000000000    0.7934600000000001    0.1545100000000000 H
   0.7901200000000000    0.6967150000000000    0.2327900000000000 H
   0.9038100000000000    0.6960950000000000    0.2342100000000000 H
   0.1005300000000000    0.5524050000000000    0.9306900000000000 H
   0.1067600000000000    0.6082050000000000    0.0461900000000000 H
   0.0750900000000000    0.6927800000000000    0.9422300000000000 H
   0.0677900000000000    0.6370300000000000    0.8274899999999999 H
   0.6193600000000000    0.5436100000000000    0.2588400000000000 H
   0.7335199999999999    0.5464550000000000    0.2593900000000000 H
   0.7479700000000000    0.4633350000000000    0.3676200000000000 H
   0.6345300000000000    0.4612250000000000    0.3689100000000000 H
   0.9127999999999999    0.6979000000000000    0.5646099999999999 H
   0.9272800000000000    0.6418050000000000    0.4515200000000000 H
   0.9357300000000000    0.5586850000000000    0.5604300000000000 H
   0.9239600000000000    0.6143050000000000    0.6724800000000000 H
   0.8887000000000000    0.5668350000000000    0.0586400000000000 H
   0.0166700000000000    0.6441450000000000    0.2115700000000000 H
   0.9965700000000000    0.6056400000000000    0.2887400000000000 H
   0.8741300000000000    0.5315450000000000    0.1423900000000000 H
   0.9245800000000000    0.6908250000000000    0.0674300000000000 H
   0.9396400000000000    0.5905800000000000    0.8760500000000000 H
   0.9202100000000000    0.6376200000000000    0.8122200000000001 H
   0.9060900000000000    0.7335350000000000    0.9952000000000000 H
   0.0000000000000000    0.6452400000000000    0.0965300000000000 H
   0.9763600000000000    0.5880200000000000    0.9870400000000000 H
   0.1194000000000000    0.5435150000000000    0.2593000000000000 H
   0.2335500000000000    0.5464350000000000    0.2602400000000000 H
   0.1342900000000000    0.4614700000000000    0.3700800000000000 H
   0.2477500000000000    0.4636600000000000    0.3691700000000000 H
   0.4133900000000000    0.6979750000000000    0.5657700000000000 H
   0.4277000000000000    0.6420950000000000    0.4523900000000000 H
   0.4354800000000000    0.5584900000000000    0.5603000000000000 H
   0.4235700000000000    0.6138500000000000    0.6726000000000000 H
   0.3893400000000000    0.5668299999999999    0.0584400000000000 H
   0.5171700000000000    0.6439150000000000    0.2119000000000000 H
   0.4964200000000000    0.6054550000000000    0.2889000000000000 H
   0.3741100000000000    0.5315750000000000    0.1420900000000000 H
   0.4250400000000000    0.6906850000000000    0.0678100000000000 H
   0.4402600000000000    0.5906350000000000    0.8762200000000000 H
   0.4204100000000000    0.6377550000000000    0.8126000000000000 H
   0.4061900000000000    0.7334849999999999    0.9957900000000000 H
   0.5086200000000000    0.6451500000000000    0.0967700000000000 H
   0.4773600000000000    0.5880250000000000    0.9870900000000000 H
   0.6018000000000000    0.5524000000000000    0.9304800000000000 H
   0.6079800000000000    0.6082800000000000    0.0458900000000000 H
   0.5682500000000000    0.6368250000000000    0.8270300000000000 H
   0.5755400000000001    0.6926650000000000    0.9409999999999999 H
   0.9471600000000000    0.3230000000000000    0.5659800000000000 H
   0.7945200000000000    0.3827700000000000    0.6815000000000000 H
   0.9652300000000000    0.2896750000000000    0.6544000000000000 H
   0.8189400000000000    0.3467000000000000    0.7640600000000000 H
   0.9052900000000000    0.4372200000000000    0.5648400000000000 H
   0.8919200000000000    0.3398950000000000    0.3671800000000000 H
   0.9207800000000000    0.3881500000000000    0.3114300000000000 H
   0.9332100000000000    0.4811850000000000    0.5004400000000000 H
   0.8148300000000001    0.3892750000000000    0.5727900000000000 H
   0.8547600000000000    0.3337900000000000    0.4701700000000000 H
   0.2939627323570222    0.2071749709713746    0.8364819520365071 H
   0.2909101378346724    0.3022271402709313    0.7785902744169287 H
   0.2854389947421054    0.2549736766019070    0.8073151680705147 H
   0.4464700000000000    0.3230000000000000    0.5657500000000000 H
   0.2943000000000000    0.3829750000000000    0.6819700000000000 H
   0.3188000000000000    0.3467900000000000    0.7643100000000000 H
   0.4647100000000000    0.2896100000000000    0.6540899999999999 H
   0.4050800000000000    0.4374000000000000    0.5651000000000000 H
   0.3911300000000000    0.3401450000000000    0.3673900000000000 H
   0.4206400000000000    0.3882900000000000    0.3117100000000000 H
   0.4336600000000000    0.4812500000000000    0.5007900000000000 H
   0.3538100000000000    0.3341200000000000    0.4703500000000000 H
   0.3143900000000000    0.3895900000000000    0.5733100000000000 H
   1.0219162172192100    0.2268329999220248    0.8726852626722608 H
   1.0130369190425748    0.2889396788754542    0.7436502762077161 H
   1.0236255119013546    0.2586009554986753    0.8071992161144514 H
   0.6003200000000000    0.2080300000000000    0.8455700000000000 H
   0.7139900000000000    0.2063250000000000    0.8449800000000000 H
   0.7105100000000000    0.3037300000000000    0.7683700000000000 H
   0.5968100000000000    0.3046500000000000    0.7669000000000000 H
   0.1005300000000000    0.0524050000000000    0.9306900000000000 H
   0.1067600000000000    0.1082050000000000    0.0461900000000000 H
   0.0750900000000000    0.1927800000000000    0.9422300000000000 H
   0.0677900000000000    0.1370300000000000    0.8274899999999999 H
   0.6193600000000000    0.0436100000000000    0.2588400000000000 H
   0.7335199999999999    0.0464550000000000    0.2593900000000000 H
   0.7479700000000000    0.9633350000000001    0.3676200000000000 H
   0.6345300000000000    0.9612250000000000    0.3689100000000000 H
   0.9127999999999999    0.1979000000000000    0.5646099999999999 H
   0.9272800000000000    0.1418050000000000    0.4515200000000000 H
   0.9357300000000000    0.0586850000000000    0.5604300000000000 H
   0.9239600000000000    0.1143050000000000    0.6724800000000000 H
   0.8887000000000000    0.0668350000000000    0.0586400000000000 H
   0.0166700000000000    0.1441450000000000    0.2115700000000000 H
   0.9965700000000000    0.1056400000000000    0.2887400000000000 H
   0.8741300000000000    0.0315450000000000    0.1423900000000000 H
   0.9245800000000000    0.1908250000000000    0.0674300000000000 H
   0.9396400000000000    0.0905800000000000    0.8760500000000000 H
   0.9202100000000000    0.1376200000000000    0.8122200000000001 H
   0.9060900000000000    0.2335350000000000    0.9952000000000000 H
   0.0000000000000000    0.1452400000000000    0.0965300000000000 H
   0.9763600000000000    0.0880200000000000    0.9870400000000000 H
   0.1194000000000000    0.0435150000000000    0.2593000000000000 H
   0.2335500000000000    0.0464350000000000    0.2602400000000000 H
   0.1342900000000000    0.9614700000000000    0.3700800000000000 H
   0.2477500000000000    0.9636600000000000    0.3691700000000000 H
   0.4133900000000000    0.1979750000000000    0.5657700000000000 H
   0.4277000000000000    0.1420950000000000    0.4523900000000000 H
   0.4354800000000000    0.0584900000000000    0.5603000000000000 H
   0.4235700000000000    0.1138500000000000    0.6726000000000000 H
   0.3893400000000000    0.0668300000000000    0.0584400000000000 H
   0.5171700000000000    0.1439150000000000    0.2119000000000000 H
   0.4964200000000000    0.1054550000000000    0.2889000000000000 H
   0.3741100000000000    0.0315750000000000    0.1420900000000000 H
   0.4250400000000000    0.1906850000000000    0.0678100000000000 H
   0.4402600000000000    0.0906350000000000    0.8762200000000000 H
   0.4204100000000000    0.1377550000000000    0.8126000000000000 H
   0.4061900000000000    0.2334850000000000    0.9957900000000000 H
   0.5086200000000000    0.1451500000000000    0.0967700000000000 H
   0.4773600000000000    0.0880250000000000    0.9870900000000000 H
   0.6018000000000000    0.0524000000000000    0.9304800000000000 H
   0.6079800000000000    0.1082800000000000    0.0458900000000000 H
   0.5682500000000000    0.1368250000000000    0.8270300000000000 H
   0.5755400000000001    0.1926650000000000    0.9409999999999999 H
   0.4464700000000000    0.8230000000000000    0.5657500000000000 H
   0.2943000000000000    0.8829750000000001    0.6819700000000000 H
   0.3188000000000000    0.8467899999999999    0.7643100000000000 H
   0.4647100000000000    0.7896099999999999    0.6540899999999999 H
   0.4050800000000000    0.9374000000000000    0.5651000000000000 H
   0.3911300000000000    0.8401449999999999    0.3673900000000000 H
   0.4206400000000000    0.8882900000000000    0.3117100000000000 H
   0.4336600000000000    0.9812500000000000    0.5007900000000000 H
   0.3538100000000000    0.8341200000000000    0.4703500000000000 H
   0.3143900000000000    0.8895900000000000    0.5733100000000000 H
   0.9471600000000000    0.8230000000000000    0.5659800000000000 H
   0.7945200000000000    0.8827700000000001    0.6815000000000000 H
   0.9652300000000000    0.7896750000000000    0.6544000000000000 H
   0.8189400000000000    0.8467000000000000    0.7640600000000000 H
   0.9052900000000000    0.9372199999999999    0.5648400000000000 H
   0.8919200000000000    0.8398950000000001    0.3671800000000000 H
   0.9207800000000000    0.8881500000000000    0.3114300000000000 H
   0.9332100000000000    0.9811850000000000    0.5004400000000000 H
   0.8148300000000001    0.8892750000000000    0.5727900000000000 H
   0.8547600000000000    0.8337900000000000    0.4701700000000000 H
   0.6003200000000000    0.7080299999999999    0.8455700000000000 H
   0.7139900000000000    0.7063250000000000    0.8449800000000000 H
   0.7105100000000000    0.8037300000000001    0.7683700000000000 H
   0.5968100000000000    0.8046500000000000    0.7669000000000000 H
   0.2100600000000000    0.8032550000000001    0.7672600000000001 H
   0.0963700000000000    0.8038750000000000    0.7658000000000000 H
   0.1007600000000000    0.7079550000000000    0.8462000000000000 H
   0.2144400000000000    0.7065100000000000    0.8455300000000000 H
   0.0622400000000000    0.9368150000000000    0.5684900000000001 C
   0.0906700000000000    0.8072150000000000    0.3073300000000000 C
   0.0817000000000000    0.8327700000000000    0.4371900000000000 C
   0.0738100000000000    0.8637349999999999    0.4996000000000000 C
   0.0693100000000000    0.9108400000000000    0.4386100000000000 C
   0.0760300000000000    0.8798250000000001    0.3760900000000000 C
   0.0680700000000000    0.9031000000000000    0.5009000000000000 C
   0.0828600000000000    0.8405500000000000    0.3748400000000000 C
   0.0865700000000000    0.9237600000000000    0.8909000000000000 C
   0.0151800000000000    0.8806900000000000    0.8054900000000000 C
   0.0264000000000000    0.9018900000000001    0.7626800000000000 C
   0.0949700000000000    0.9432050000000001    0.8444400000000000 C
   0.0761000000000000    0.8222300000000000    0.9888600000000000 C
   0.0681000000000000    0.8779900000000000    0.0953600000000000 C
   0.0787700000000000    0.8520449999999999    0.1312300000000000 C
   0.0864600000000000    0.7983549999999999    0.0288900000000000 C
   0.0448300000000000    0.8919100000000000    0.8723200000000000 C
   0.0647400000000000    0.8629200000000000    0.0221900000000000 C
   0.9235800000000000    0.9424350000000000    0.1962300000000000 C
   0.9087300000000000    0.8129299999999999    0.9298400000000000 C
   0.9052400000000000    0.9167000000000001    0.0650000000000000 C
   0.9017400000000000    0.8857650000000000    0.0020300000000000 C
   0.9188499999999999    0.8380150000000000    0.0606600000000000 C
   0.9228300000000000    0.8689899999999999    0.1244200000000000 C
   0.9166700000000000    0.9086449999999999    0.1276900000000000 C
   0.9091900000000001    0.8461350000000001    0.9988000000000000 C
   0.6848400000000000    0.9937250000000000    0.6857600000000000 C
   0.9479500000000000    0.9993150000000000    0.6860000000000001 C
   0.7889800000000000    0.9718750000000000    0.7155899999999999 C
   0.8519500000000000    0.9735750000000001    0.7161999999999999 C
   0.8437600000000000    0.0200250000000000    0.6539700000000001 C
   0.7808200000000000    0.0187000000000000    0.6541400000000001 C
   0.7528500000000000    0.9945900000000000    0.6848700000000000 C
   0.8799300000000000    0.9976849999999999    0.6853900000000001 C
   0.5620400000000000    0.9366600000000000    0.5683000000000000 C
   0.5904700000000001    0.8075399999999999    0.3063600000000000 C
   0.5813400000000000    0.8327500000000000    0.4362700000000000 C
   0.5735200000000000    0.8635999999999999    0.4988700000000000 C
   0.5762000000000000    0.8801000000000000    0.3757000000000000 C
   0.5694100000000000    0.9109800000000000    0.4384500000000000 C
   0.5679600000000000    0.9030500000000000    0.5005800000000000 C
   0.5827400000000000    0.8407300000000000    0.3741100000000000 C
   0.5860600000000000    0.9237949999999999    0.8910400000000001 C
   0.5147400000000000    0.8808700000000000    0.8053000000000000 C
   0.5263500000000000    0.9020300000000000    0.7625300000000000 C
   0.5948400000000000    0.9432150000000000    0.8445800000000000 C
   0.5756200000000000    0.8222900000000000    0.9884700000000000 C
   0.5675300000000000    0.8779399999999999    0.0950800000000000 C
   0.5785000000000000    0.8519700000000000    0.1308400000000000 C
   0.5862700000000000    0.7983750000000001    0.0283800000000000 C
   0.5441800000000000    0.8920150000000000    0.8722299999999999 C
   0.5640400000000000    0.8629400000000000    0.0219100000000000 C
   0.4226400000000000    0.9425850000000000    0.1964700000000000 C
   0.4078700000000000    0.8129050000000000    0.9303800000000000 C
   0.4041300000000000    0.9167350000000001    0.0661800000000000 C
   0.4006300000000000    0.8857600000000000    0.0023700000000000 C
   0.4182100000000000    0.8381149999999999    0.0611400000000000 C
   0.4221800000000000    0.8691300000000000    0.1248500000000000 C
   0.4157400000000000    0.9087499999999999    0.1280100000000000 C
   0.4083200000000000    0.8461700000000000    0.9992000000000000 C
   0.1847900000000000    0.9939600000000000    0.6869900000000000 C
   0.4477800000000000    0.9994000000000001    0.6863500000000000 C
   0.3519300000000000    0.9735650000000000    0.7169600000000000 C
   0.2889600000000000    0.9719150000000000    0.7165100000000000 C
   0.2806600000000000    0.0189400000000000    0.6554500000000000 C
   0.3435600000000000    0.0202200000000000    0.6550700000000000 C
   0.2527900000000000    0.9947450000000000    0.6860800000000000 C
   0.3798000000000000    0.9977500000000000    0.6861600000000000 C
   0.5827100000000000    0.1710350000000000    0.3908900000000000 C
   0.6672800000000000    0.1373050000000000    0.3258900000000000 C
   0.6537500000000001    0.1571300000000000    0.2798000000000000 C
   0.5725600000000000    0.1894650000000000    0.3421000000000000 C
   0.5921900000000000    0.0746850000000000    0.4909800000000000 C
   0.5998200000000000    0.1288150000000000    0.6009600000000000 C
   0.5833500000000000    0.1023100000000000    0.6322900000000000 C
   0.5761500000000001    0.0501950000000000    0.5266999999999999 C
   0.6317500000000000    0.1444600000000000    0.3837900000000000 C
   0.6054000000000000    0.1148250000000000    0.5286300000000000 C
   0.0822000000000000    0.1710600000000000    0.3907700000000000 C
   0.1670500000000000    0.1374200000000000    0.3262100000000000 C
   0.0721800000000000    0.1894500000000000    0.3419100000000000 C
   0.1536300000000000    0.1571850000000000    0.2800900000000000 C
   0.0919900000000000    0.0748550000000000    0.4912700000000000 C
   0.0993000000000000    0.1290300000000000    0.6012000000000000 C
   0.0832000000000000    0.1024650000000000    0.6325900000000000 C
   0.0763200000000000    0.0503050000000000    0.5270700000000000 C
   0.1313300000000000    0.1445800000000000    0.3839600000000000 C
   0.1049000000000000    0.1150400000000000    0.5280000000000000 C
   0.2129500000000000    0.2456700000000000    0.1922400000000000 C
   0.4764900000000000    0.2426100000000000    0.1927300000000000 C
   0.3752700000000000    0.2713600000000000    0.1716000000000000 C
   0.3122400000000000    0.2722550000000000    0.1717700000000000 C
   0.4084600000000000    0.2437200000000000    0.1937300000000000 C
   0.3142600000000000    0.2173500000000000    0.2152000000000000 C
   0.3773400000000000    0.2168350000000000    0.2159600000000000 C
   0.2811100000000000    0.2450700000000000    0.1932400000000000 C
   0.7129900000000000    0.2455300000000000    0.1926000000000000 C
   0.9765000000000000    0.2432500000000000    0.1929200000000000 C
   0.8750400000000000    0.2714550000000000    0.1714900000000000 C
   0.8120300000000000    0.2722050000000000    0.1716000000000000 C
   0.9085000000000000    0.2441100000000000    0.1941200000000000 C
   0.8145500000000000    0.2176850000000000    0.2160900000000000 C
   0.8776400000000000    0.2173350000000000    0.2168500000000000 C
   0.7811500000000000    0.2451300000000000    0.1936500000000000 C
   0.0622400000000000    0.4368150000000000    0.5684900000000001 C
   0.0906700000000000    0.3072150000000000    0.3073300000000000 C
   0.0817000000000000    0.3327700000000000    0.4371900000000000 C
   0.0738100000000000    0.3637350000000000    0.4996000000000000 C
   0.0693100000000000    0.4108400000000000    0.4386100000000000 C
   0.0760300000000000    0.3798250000000000    0.3760900000000000 C
   0.0680700000000000    0.4031000000000000    0.5009000000000000 C
   0.0828600000000000    0.3405500000000000    0.3748400000000000 C
   0.0865700000000000    0.4237600000000000    0.8909000000000000 C
   0.0151800000000000    0.3806900000000000    0.8054900000000000 C