H6 O4
1.0
  35.5931715891814164    0.0000000000000000    0.7928052869958124
   1.7928486104905170   29.5701195167751187    3.8301914604230256
   0.0000000000000000    0.0000000000000000   20.3460000000000001
H O
6 4
direct
   0.6241550624983184    0.7613999142230508    0.6556356147163671 H
   0.5915486318523220    0.7847772968481534    0.8303645920248137 H
   0.6119275063103016    0.7796485792478652    0.7438997968550657 H
   0.6258490912938642    0.9052693892043341    0.8443477882305659 H
   0.6584602616845889    0.8818873226662607    0.6696274712045612 H
   0.6380794192389958    0.8870174717833132    0.7560865898211339 H
   0.6075800000000000    0.7515999999999999    0.6924550000000000 O
   0.5886175000000000    0.7658666666666666    0.7956799999999999 O
   0.6424250000000000    0.9150699999999999    0.8075300000000001 O
   0.6613900000000000    0.9007999999999999    0.7043100000000000 O
