Zn120 H238 C380 O428
1.0
  35.5931715891814164    0.0000000000000000    0.7928052869958124
   1.7928486104905170   29.5701195167751187    3.8301914604230256
   0.0000000000000000    0.0000000000000000   20.3460000000000001
Zn H C O
120 238 380 428
direct
   0.1763000000000000    0.2960766666666667    0.1754600000000000 Zn
   0.0610625000000000    0.0539600000000000    0.1643500000000000 Zn
   0.0737025000000000    0.0372600000000000    0.3245300000000000 Zn
   0.0000000000000000    0.0000000000000000    0.2499950000000000 Zn
   0.1889400000000000    0.2793766666666667    0.3356400000000000 Zn
   0.4263000000000000    0.2960766666666667    0.1754600000000000 Zn
   0.3110625000000000    0.0539600000000000    0.1643500000000000 Zn
   0.3237025000000000    0.0372600000000000    0.3245300000000000 Zn
   0.2500000000000000    0.0000000000000000    0.2499950000000000 Zn
   0.4389400000000000    0.2793766666666667    0.3356400000000000 Zn
   0.6763000000000000    0.2960766666666667    0.1754600000000000 Zn
   0.5610625000000000    0.0539600000000000    0.1643500000000000 Zn
   0.5737025000000000    0.0372600000000000    0.3245300000000000 Zn
   0.5000000000000000    0.0000000000000000    0.2499950000000000 Zn
   0.6889400000000000    0.2793766666666667    0.3356400000000000 Zn
   0.9263000000000000    0.2960766666666667    0.1754600000000000 Zn
   0.8110625000000000    0.0539600000000000    0.1643500000000000 Zn
   0.8237025000000000    0.0372600000000000    0.3245300000000000 Zn
   0.7500000000000000    0.0000000000000000    0.2499950000000000 Zn
   0.9389400000000000    0.2793766666666667    0.3356400000000000 Zn
   0.1763000000000000    0.6294100000000000    0.1754600000000000 Zn
   0.0610625000000000    0.3872933333333333    0.1643500000000000 Zn
   0.0737025000000000    0.3705933333333333    0.3245300000000000 Zn
   0.0000000000000000    0.3333333333333333    0.2499950000000000 Zn
   0.1889400000000000    0.6127100000000000    0.3356400000000000 Zn
   0.4263000000000000    0.6294100000000000    0.1754600000000000 Zn
   0.3110625000000000    0.3872933333333333    0.1643500000000000 Zn
   0.3237025000000000    0.3705933333333333    0.3245300000000000 Zn
   0.2500000000000000    0.3333333333333333    0.2499950000000000 Zn
   0.4389400000000000    0.6127100000000000    0.3356400000000000 Zn
   0.6763000000000000    0.6294100000000000    0.1754600000000000 Zn
   0.5610625000000000    0.3872933333333333    0.1643500000000000 Zn
   0.5737025000000000    0.3705933333333333    0.3245300000000000 Zn
   0.5000000000000000    0.3333333333333333    0.2499950000000000 Zn
   0.6889400000000000    0.6127100000000000    0.3356400000000000 Zn
   0.9263000000000000    0.6294100000000000    0.1754600000000000 Zn
   0.8110625000000000    0.3872933333333333    0.1643500000000000 Zn
   0.8237025000000000    0.3705933333333333    0.3245300000000000 Zn
   0.7500000000000000    0.3333333333333333    0.2499950000000000 Zn
   0.9389400000000000    0.6127100000000000    0.3356400000000000 Zn
   0.1763000000000000    0.9627433333333333    0.1754600000000000 Zn
   0.0610625000000000    0.7206266666666666    0.1643500000000000 Zn
   0.0737025000000000    0.7039266666666666    0.3245300000000000 Zn
   0.0000000000000000    0.6666666666666666    0.2499950000000000 Zn
   0.1889400000000000    0.9460433333333333    0.3356400000000000 Zn
   0.4263000000000000    0.9627433333333333    0.1754600000000000 Zn
   0.3110625000000000    0.7206266666666666    0.1643500000000000 Zn
   0.3237025000000000    0.7039266666666666    0.3245300000000000 Zn
   0.2500000000000000    0.6666666666666666    0.2499950000000000 Zn
   0.4389400000000000    0.9460433333333333    0.3356400000000000 Zn
   0.6763000000000000    0.9627433333333333    0.1754600000000000 Zn
   0.5610625000000000    0.7206266666666666    0.1643500000000000 Zn
   0.5737025000000000    0.7039266666666666    0.3245300000000000 Zn
   0.5000000000000000    0.6666666666666666    0.2499950000000000 Zn
   0.6889400000000000    0.9460433333333333    0.3356400000000000 Zn
   0.9263000000000000    0.9627433333333333    0.1754600000000000 Zn
   0.8110625000000000    0.7206266666666666    0.1643500000000000 Zn
   0.8237025000000000    0.7039266666666666    0.3245300000000000 Zn
   0.7500000000000000    0.6666666666666666    0.2499950000000000 Zn
   0.9389400000000000    0.9460433333333333    0.3356400000000000 Zn
   0.1763000000000000    0.2960766666666667    0.6754599999999999 Zn
   0.0610625000000000    0.0539600000000000    0.6643500000000000 Zn
   0.0737025000000000    0.0372600000000000    0.8245300000000000 Zn
   0.0000000000000000    0.0000000000000000    0.7499950000000000 Zn
   0.1889400000000000    0.2793766666666667    0.8356399999999999 Zn
   0.4263000000000000    0.2960766666666667    0.6754599999999999 Zn
   0.3110625000000000    0.0539600000000000    0.6643500000000000 Zn
   0.3237025000000000    0.0372600000000000    0.8245300000000000 Zn
   0.2500000000000000    0.0000000000000000    0.7499950000000000 Zn
   0.4389400000000000    0.2793766666666667    0.8356399999999999 Zn
   0.6763000000000000    0.2960766666666667    0.6754599999999999 Zn
   0.5610625000000000    0.0539600000000000    0.6643500000000000 Zn
   0.5737025000000000    0.0372600000000000    0.8245300000000000 Zn
   0.5000000000000000    0.0000000000000000    0.7499950000000000 Zn
   0.6889400000000000    0.2793766666666667    0.8356399999999999 Zn
   0.9263000000000000    0.2960766666666667    0.6754599999999999 Zn
   0.8110625000000000    0.0539600000000000    0.6643500000000000 Zn
   0.8237025000000000    0.0372600000000000    0.8245300000000000 Zn
   0.7500000000000000    0.0000000000000000    0.7499950000000000 Zn
   0.9389400000000000    0.2793766666666667    0.8356399999999999 Zn
   0.1763000000000000    0.6294100000000000    0.6754599999999999 Zn
   0.0610625000000000    0.3872933333333333    0.6643500000000000 Zn
   0.0737025000000000    0.3705933333333333    0.8245300000000000 Zn
   0.0000000000000000    0.3333333333333333    0.7499950000000000 Zn
   0.1889400000000000    0.6127100000000000    0.8356399999999999 Zn
   0.4263000000000000    0.6294100000000000    0.6754599999999999 Zn
   0.3110625000000000    0.3872933333333333    0.6643500000000000 Zn
   0.3237025000000000    0.3705933333333333    0.8245300000000000 Zn
   0.2500000000000000    0.3333333333333333    0.7499950000000000 Zn
   0.4389400000000000    0.6127100000000000    0.8356399999999999 Zn
   0.6763000000000000    0.6294100000000000    0.6754599999999999 Zn
   0.5610625000000000    0.3872933333333333    0.6643500000000000 Zn
   0.5737025000000000    0.3705933333333333    0.8245300000000000 Zn
   0.5000000000000000    0.3333333333333333    0.7499950000000000 Zn
   0.6889400000000000    0.6127100000000000    0.8356399999999999 Zn
   0.9263000000000000    0.6294100000000000    0.6754599999999999 Zn
   0.8110625000000000    0.3872933333333333    0.6643500000000000 Zn
   0.8237025000000000    0.3705933333333333    0.8245300000000000 Zn
   0.7500000000000000    0.3333333333333333    0.7499950000000000 Zn
   0.9389400000000000    0.6127100000000000    0.8356399999999999 Zn
   0.1763000000000000    0.9627433333333333    0.6754599999999999 Zn
   0.0610625000000000    0.7206266666666666    0.6643500000000000 Zn
   0.0737025000000000    0.7039266666666666    0.8245300000000000 Zn
   0.0000000000000000    0.6666666666666666    0.7499950000000000 Zn
   0.1889400000000000    0.9460433333333333    0.8356399999999999 Zn
   0.4263000000000000    0.9627433333333333    0.6754599999999999 Zn
   0.3110625000000000    0.7206266666666666    0.6643500000000000 Zn
   0.3237025000000000    0.7039266666666666    0.8245300000000000 Zn
   0.2500000000000000    0.6666666666666666    0.7499950000000000 Zn
   0.4389400000000000    0.9460433333333333    0.8356399999999999 Zn
   0.6763000000000000    0.9627433333333333    0.6754599999999999 Zn
   0.5610625000000000    0.7206266666666666    0.6643500000000000 Zn
   0.5737025000000000    0.7039266666666666    0.8245300000000000 Zn
   0.5000000000000000    0.6666666666666666    0.7499950000000000 Zn
   0.6889400000000000    0.9460433333333333    0.8356399999999999 Zn
   0.9263000000000000    0.9627433333333333    0.6754599999999999 Zn
   0.8110625000000000    0.7206266666666666    0.6643500000000000 Zn
   0.8237025000000000    0.7039266666666666    0.8245300000000000 Zn
   0.7500000000000000    0.6666666666666666    0.7499950000000000 Zn
   0.9389400000000000    0.9460433333333333    0.8356399999999999 Zn
   0.2175800000000000    0.1453600000000000    0.2921900000000000 H
   0.2191125000000000    0.3049300000000000    0.4770150000000000 H
   0.1084725000000000    0.1761866666666667    0.3179800000000000 H
   0.0928100000000000    0.0288766666666667    0.4628100000000000 H
   0.0324225000000000    0.1879766666666667    0.2078000000000000 H
   0.0308900000000000    0.0284066666666667    0.0229750000000000 H
   0.1415350000000000    0.1571466666666667    0.1820100000000000 H
   0.1571900000000000    0.3044500000000000    0.0371800000000000 H
   0.1766900000000000    0.0196400000000000    0.2585050000000000 H
   0.0733150000000000    0.3136933333333333    0.2414900000000000 H
   0.4675800000000000    0.1453600000000000    0.2921900000000000 H
   0.4691125000000000    0.3049300000000000    0.4770150000000000 H
   0.3584725000000000    0.1761866666666667    0.3179800000000000 H
   0.3428100000000000    0.0288766666666667    0.4628100000000000 H
   0.2824225000000000    0.1879766666666667    0.2078000000000000 H
   0.2808900000000000    0.0284066666666667    0.0229750000000000 H
   0.3915350000000000    0.1571466666666667    0.1820100000000000 H
   0.4071900000000000    0.3044500000000000    0.0371800000000000 H
   0.4266900000000000    0.0196400000000000    0.2585050000000000 H
   0.3233150000000000    0.3136933333333333    0.2414900000000000 H
   0.7175800000000000    0.1453600000000000    0.2921900000000000 H
   0.7191125000000000    0.3049300000000000    0.4770150000000000 H
   0.6084725000000000    0.1761866666666667    0.3179800000000000 H
   0.5928100000000001    0.0288766666666667    0.4628100000000000 H
   0.5324225000000000    0.1879766666666667    0.2078000000000000 H
   0.5308900000000000    0.0284066666666667    0.0229750000000000 H
   0.6415350000000000    0.1571466666666667    0.1820100000000000 H
   0.6571899999999999    0.3044500000000000    0.0371800000000000 H
   0.6766900000000000    0.0196400000000000    0.2585050000000000 H
   0.5733150000000000    0.3136933333333333    0.2414900000000000 H
   0.9675800000000000    0.1453600000000000    0.2921900000000000 H
   0.9691125000000000    0.3049300000000000    0.4770150000000000 H
   0.8584725000000000    0.1761866666666667    0.3179800000000000 H
   0.8428100000000001    0.0288766666666667    0.4628100000000000 H
   0.7824225000000000    0.1879766666666667    0.2078000000000000 H
   0.7808900000000000    0.0284066666666667    0.0229750000000000 H
   0.8915350000000000    0.1571466666666667    0.1820100000000000 H
   0.9071899999999999    0.3044500000000000    0.0371800000000000 H
   0.9266900000000000    0.0196400000000000    0.2585050000000000 H
   0.8233150000000000    0.3136933333333333    0.2414900000000000 H
   0.2175800000000000    0.4786933333333333    0.2921900000000000 H
   0.2191125000000000    0.6382633333333333    0.4770150000000000 H
   0.1084725000000000    0.5095200000000000    0.3179800000000000 H
   0.0928100000000000    0.3622100000000000    0.4628100000000000 H
   0.0324225000000000    0.5213099999999999    0.2078000000000000 H
   0.0308900000000000    0.3617400000000000    0.0229750000000000 H
   0.1415350000000000    0.4904800000000000    0.1820100000000000 H
   0.1571900000000000    0.6377833333333334    0.0371800000000000 H
   0.1766900000000000    0.3529733333333333    0.2585050000000000 H
   0.0733150000000000    0.6470266666666666    0.2414900000000000 H
   0.4675800000000000    0.4786933333333333    0.2921900000000000 H
   0.4691125000000000    0.6382633333333333    0.4770150000000000 H
   0.3584725000000000    0.5095200000000000    0.3179800000000000 H
   0.3428100000000000    0.3622100000000000    0.4628100000000000 H
   0.2824225000000000    0.5213099999999999    0.2078000000000000 H
   0.2808900000000000    0.3617400000000000    0.0229750000000000 H
   0.3915350000000000    0.4904800000000000    0.1820100000000000 H
   0.4071900000000000    0.6377833333333334    0.0371800000000000 H
   0.4266900000000000    0.3529733333333333    0.2585050000000000 H
   0.3233150000000000    0.6470266666666666    0.2414900000000000 H
   0.7175800000000000    0.4786933333333333    0.2921900000000000 H
   0.7191125000000000    0.6382633333333333    0.4770150000000000 H
   0.6084725000000000    0.5095200000000000    0.3179800000000000 H
   0.5928100000000001    0.3622100000000000    0.4628100000000000 H
   0.5324225000000000    0.5213099999999999    0.2078000000000000 H
   0.5308900000000000    0.3617400000000000    0.0229750000000000 H
   0.6415350000000000    0.4904800000000000    0.1820100000000000 H
   0.6571899999999999    0.6377833333333334    0.0371800000000000 H
   0.6766900000000000    0.3529733333333333    0.2585050000000000 H
   0.5733150000000000    0.6470266666666666    0.2414900000000000 H
   0.9675800000000000    0.4786933333333333    0.2921900000000000 H
   0.9691125000000000    0.6382633333333333    0.4770150000000000 H
   0.8584725000000000    0.5095200000000000    0.3179800000000000 H
   0.8428100000000001    0.3622100000000000    0.4628100000000000 H
   0.7824225000000000    0.5213099999999999    0.2078000000000000 H
   0.7808900000000000    0.3617400000000000    0.0229750000000000 H
   0.8915350000000000    0.4904800000000000    0.1820100000000000 H
   0.9071899999999999    0.6377833333333334    0.0371800000000000 H
   0.9266900000000000    0.3529733333333333    0.2585050000000000 H
   0.8233150000000000    0.6470266666666666    0.2414900000000000 H
   0.2175800000000000    0.8120266666666667    0.2921900000000000 H
   0.2191125000000000    0.9715966666666667    0.4770150000000000 H
   0.1084725000000000    0.8428533333333332    0.3179800000000000 H
   0.0928100000000000    0.6955433333333333    0.4628100000000000 H
   0.0324225000000000    0.8546433333333333    0.2078000000000000 H
   0.0308900000000000    0.6950733333333333    0.0229750000000000 H
   0.1415350000000000    0.8238133333333333    0.1820100000000000 H
   0.1571900000000000    0.9711166666666666    0.0371800000000000 H
   0.1766900000000000    0.6863066666666666    0.2585050000000000 H
   0.0733150000000000    0.9803599999999999    0.2414900000000000 H
   0.4675800000000000    0.8120266666666667    0.2921900000000000 H
   0.4691125000000000    0.9715966666666667    0.4770150000000000 H
   0.3584725000000000    0.8428533333333332    0.3179800000000000 H
   0.3428100000000000    0.6955433333333333    0.4628100000000000 H
   0.2824225000000000    0.8546433333333333    0.2078000000000000 H
   0.2808900000000000    0.6950733333333333    0.0229750000000000 H
   0.3915350000000000    0.8238133333333333    0.1820100000000000 H
   0.4071900000000000    0.9711166666666666    0.0371800000000000 H
   0.4266900000000000    0.6863066666666666    0.2585050000000000 H
   0.3233150000000000    0.9803599999999999    0.2414900000000000 H
   0.7175800000000000    0.8120266666666667    0.2921900000000000 H
   0.7191125000000000    0.9715966666666667    0.4770150000000000 H
   0.6084725000000000    0.8428533333333332    0.3179800000000000 H
   0.5928100000000001    0.6955433333333333    0.4628100000000000 H
   0.5324225000000000    0.8546433333333333    0.2078000000000000 H
   0.5308900000000000    0.6950733333333333    0.0229750000000000 H
   0.6415350000000000    0.8238133333333333    0.1820100000000000 H
   0.6571899999999999    0.9711166666666666    0.0371800000000000 H
   0.6766900000000000    0.6863066666666666    0.2585050000000000 H
   0.5733150000000000    0.9803599999999999    0.2414900000000000 H
   0.9675800000000000    0.8120266666666667    0.2921900000000000 H
   0.9691125000000000    0.9715966666666667    0.4770150000000000 H
   0.8584725000000000    0.8428533333333332    0.3179800000000000 H
   0.8428100000000001    0.6955433333333333    0.4628100000000000 H
   0.7824225000000000    0.8546433333333333    0.2078000000000000 H
   0.7808900000000000    0.6950733333333333    0.0229750000000000 H
   0.8915350000000000    0.8238133333333333    0.1820100000000000 H
   0.9071899999999999    0.9711166666666666    0.0371800000000000 H
   0.9266900000000000    0.6863066666666666    0.2585050000000000 H
   0.8233150000000000    0.9803599999999999    0.2414900000000000 H
   0.2175800000000000    0.1453600000000000    0.7921899999999999 H
   0.2191125000000000    0.3049300000000000    0.9770150000000000 H
   0.1084725000000000    0.1761866666666667    0.8179799999999999 H
   0.0928100000000000    0.0288766666666667    0.9628099999999999 H
   0.0324225000000000    0.1879766666666667    0.7078000000000000 H
   0.0308900000000000    0.0284066666666667    0.5229750000000000 H
   0.1415350000000000    0.1571466666666667    0.6820100000000000 H
   0.1571900000000000    0.3044500000000000    0.5371800000000000 H
   0.1766900000000000    0.0196400000000000    0.7585050000000000 H
   0.0733150000000000    0.3136933333333333    0.7414900000000000 H
   0.4675800000000000    0.1453600000000000    0.7921899999999999 H
   0.4691125000000000    0.3049300000000000    0.9770150000000000 H
   0.3584725000000000    0.1761866666666667    0.8179799999999999 H
   0.3428100000000000    0.0288766666666667    0.9628099999999999 H
   0.2824225000000000    0.1879766666666667    0.7078000000000000 H
   0.2808900000000000    0.0284066666666667    0.5229750000000000 H
   0.3915350000000000    0.1571466666666667    0.6820100000000000 H
   0.4071900000000000    0.3044500000000000    0.5371800000000000 H
   0.4266900000000000    0.0196400000000000    0.7585050000000000 H
   0.3233150000000000    0.3136933333333333    0.7414900000000000 H
   0.7175800000000000    0.1453600000000000    0.7921899999999999 H
   0.7191125000000000    0.3049300000000000    0.9770150000000000 H
   0.6084725000000000    0.1761866666666667    0.8179799999999999 H
   0.5928100000000001    0.0288766666666667    0.9628099999999999 H
   0.5324225000000000    0.1879766666666667    0.7078000000000000 H
   0.5308900000000000    0.0284066666666667    0.5229750000000000 H
   0.6415350000000000    0.1571466666666667    0.6820100000000000 H
   0.6571899999999999    0.3044500000000000    0.5371800000000000 H
   0.6766900000000000    0.0196400000000000    0.7585050000000000 H
   0.5733150000000000    0.3136933333333333    0.7414900000000000 H
   0.9675800000000000    0.1453600000000000    0.7921899999999999 H
   0.9691125000000000    0.3049300000000000    0.9770150000000000 H
   0.8584725000000000    0.1761866666666667    0.8179799999999999 H
   0.8428100000000001    0.0288766666666667    0.9628099999999999 H
   0.7824225000000000    0.1879766666666667    0.7078000000000000 H
   0.7808900000000000    0.0284066666666667    0.5229750000000000 H
   0.8915350000000000    0.1571466666666667    0.6820100000000000 H
   0.9071899999999999    0.3044500000000000    0.5371800000000000 H
   0.9266900000000000    0.0196400000000000    0.7585050000000000 H
   0.8233150000000000    0.3136933333333333    0.7414900000000000 H
   0.2175800000000000    0.4786933333333333    0.7921899999999999 H
   0.2191125000000000    0.6382633333333333    0.9770150000000000 H
   0.1084725000000000    0.5095200000000000    0.8179799999999999 H
   0.0928100000000000    0.3622100000000000    0.9628099999999999 H
   0.0324225000000000    0.5213099999999999    0.7078000000000000 H
   0.0308900000000000    0.3617400000000000    0.5229750000000000 H
   0.1415350000000000    0.4904800000000000    0.6820100000000000 H
   0.1571900000000000    0.6377833333333334    0.5371800000000000 H
   0.1766900000000000    0.3529733333333333    0.7585050000000000 H
   0.0733150000000000    0.6470266666666666    0.7414900000000000 H
   0.4675800000000000    0.4786933333333333    0.7921899999999999 H
   0.4691125000000000    0.6382633333333333    0.9770150000000000 H
   0.3584725000000000    0.5095200000000000    0.8179799999999999 H
   0.3428100000000000    0.3622100000000000    0.9628099999999999 H
   0.2824225000000000    0.5213099999999999    0.7078000000000000 H
   0.2808900000000000    0.3617400000000000    0.5229750000000000 H
   0.3915350000000000    0.4904800000000000    0.6820100000000000 H
   0.4071900000000000    0.6377833333333334    0.5371800000000000 H
   0.4266900000000000    0.3529733333333333    0.7585050000000000 H
   0.3233150000000000    0.6470266666666666    0.7414900000000000 H
   0.7175800000000000    0.4786933333333333    0.7921899999999999 H
   0.7191125000000000    0.6382633333333333    0.9770150000000000 H
   0.6084725000000000    0.5095200000000000    0.8179799999999999 H
   0.5928100000000001    0.3622100000000000    0.9628099999999999 H
   0.5324225000000000    0.5213099999999999    0.7078000000000000 H
   0.5308900000000000    0.3617400000000000    0.5229750000000000 H
   0.6415350000000000    0.4904800000000000    0.6820100000000000 H
   0.6571899999999999    0.6377833333333334    0.5371800000000000 H
   0.6766900000000000    0.3529733333333333    0.7585050000000000 H
   0.5733150000000000    0.6470266666666666    0.7414900000000000 H
   0.9675800000000000    0.4786933333333333    0.7921899999999999 H
   0.9691125000000000    0.6382633333333333    0.9770150000000000 H
   0.8584725000000000    0.5095200000000000    0.8179799999999999 H
   0.8428100000000001    0.3622100000000000    0.9628099999999999 H
   0.7824225000000000    0.5213099999999999    0.7078000000000000 H
   0.7808900000000000    0.3617400000000000    0.5229750000000000 H
   0.8915350000000000    0.4904800000000000    0.6820100000000000 H
   0.9071899999999999    0.6377833333333334    0.5371800000000000 H
   0.9266900000000000    0.3529733333333333    0.7585050000000000 H
   0.8233150000000000    0.6470266666666666    0.7414900000000000 H
   0.2175800000000000    0.8120266666666667    0.7921899999999999 H
   0.2191125000000000    0.9715966666666667    0.9770150000000000 H
   0.1084725000000000    0.8428533333333332    0.8179799999999999 H
   0.0928100000000000    0.6955433333333333    0.9628099999999999 H
   0.0324225000000000    0.8546433333333333    0.7078000000000000 H
   0.0308900000000000    0.6950733333333333    0.5229750000000000 H
   0.1415350000000000    0.8238133333333333    0.6820100000000000 H
   0.1571900000000000    0.9711166666666666    0.5371800000000000 H
   0.1766900000000000    0.6863066666666666    0.7585050000000000 H
   0.0733150000000000    0.9803599999999999    0.7414900000000000 H
   0.4675800000000000    0.8120266666666667    0.7921899999999999 H
   0.4691125000000000    0.9715966666666667    0.9770150000000000 H
   0.3584725000000000    0.8428533333333332    0.8179799999999999 H
   0.3428100000000000    0.6955433333333333    0.9628099999999999 H
   0.2824225000000000    0.8546433333333333    0.7078000000000000 H
   0.2808900000000000    0.6950733333333333    0.5229750000000000 H
   0.3915350000000000    0.8238133333333333    0.6820100000000000 H
   0.4071900000000000    0.9711166666666666    0.5371800000000000 H
   0.4266900000000000    0.6863066666666666    0.7585050000000000 H
   0.3233150000000000    0.9803599999999999    0.7414900000000000 H
   0.7175800000000000    0.8120266666666667    0.7921899999999999 H
   0.7191125000000000    0.9715966666666667    0.9770150000000000 H
   0.5928100000000001    0.6955433333333333    0.9628099999999999 H
   0.5324225000000000    0.8546433333333333    0.7078000000000000 H
   0.5308900000000000    0.6950733333333333    0.5229750000000000 H
   0.6571899999999999    0.9711166666666666    0.5371800000000000 H
   0.6766900000000000    0.6863066666666666    0.7585050000000000 H
   0.5733150000000000    0.9803599999999999    0.7414900000000000 H
   0.9675800000000000    0.8120266666666667    0.7921899999999999 H
   0.9691125000000000    0.9715966666666667    0.9770150000000000 H
   0.8584725000000000    0.8428533333333332    0.8179799999999999 H
   0.8428100000000001    0.6955433333333333    0.9628099999999999 H
   0.7824225000000000    0.8546433333333333    0.7078000000000000 H
   0.7808900000000000    0.6950733333333333    0.5229750000000000 H
   0.8915350000000000    0.8238133333333333    0.6820100000000000 H
   0.9071899999999999    0.9711166666666666    0.5371800000000000 H
   0.9266900000000000    0.6863066666666666    0.7585050000000000 H
   0.8233150000000000    0.9803599999999999    0.7414900000000000 H
   0.0038400000000000    0.1043800000000000    0.2310500000000000 C
   0.2412650000000000    0.1473366666666667    0.2572550000000000 C
   0.0100750000000000    0.0022600000000000    0.4054400000000000 C
   0.2433350000000000    0.3256566666666666    0.4731650000000000 C
   0.1440425000000000    0.2245233333333333    0.2600700000000000 C
   0.1241825000000000    0.1819933333333333    0.2713850000000000 C
   0.1368075000000000    0.3252733333333333    0.4094700000000000 C
   0.1181950000000000    0.0065833333333333    0.4696000000000000 C
   0.2461650000000000    0.2289566666666666    0.2689400000000000 C
   0.0087400000000000    0.1859966666666666    0.2427350000000000 C
   0.2399275000000000    0.3310766666666666    0.0945500000000000 C
   0.0066675000000000    0.0076800000000000    0.0268250000000000 C
   0.1059625000000000    0.1088100000000000    0.2399200000000000 C
   0.1258225000000000    0.1513400000000000    0.2286100000000000 C
   0.1131975000000000    0.0080600000000000    0.0905250000000000 C
   0.1318075000000000    0.3267466666666666    0.0303950000000000 C
   0.2538400000000000    0.1043800000000000    0.2310500000000000 C
   0.4912650000000000    0.1473366666666667    0.2572550000000000 C
   0.2600750000000000    0.0022600000000000    0.4054400000000000 C
   0.4933350000000000    0.3256566666666666    0.4731650000000000 C
   0.3940425000000000    0.2245233333333333    0.2600700000000000 C
   0.3741825000000000    0.1819933333333333    0.2713850000000000 C
   0.3868075000000000    0.3252733333333333    0.4094700000000000 C
   0.3681950000000000    0.0065833333333333    0.4696000000000000 C
   0.4961650000000000    0.2289566666666666    0.2689400000000000 C
   0.2587400000000000    0.1859966666666666    0.2427350000000000 C
   0.4899275000000000    0.3310766666666666    0.0945500000000000 C
   0.2566675000000000    0.0076800000000000    0.0268250000000000 C
   0.3559625000000000    0.1088100000000000    0.2399200000000000 C
   0.3758225000000000    0.1513400000000000    0.2286100000000000 C
   0.3631975000000000    0.0080600000000000    0.0905250000000000 C
   0.3818075000000000    0.3267466666666666    0.0303950000000000 C
   0.5038400000000000    0.1043800000000000    0.2310500000000000 C
   0.7412650000000001    0.1473366666666667    0.2572550000000000 C
   0.5100750000000001    0.0022600000000000    0.4054400000000000 C
   0.7433350000000000    0.3256566666666666    0.4731650000000000 C
   0.6440425000000000    0.2245233333333333    0.2600700000000000 C
   0.6241825000000000    0.1819933333333333    0.2713850000000000 C
   0.6368075000000000    0.3252733333333333    0.4094700000000000 C
   0.6181950000000001    0.0065833333333333    0.4696000000000000 C
   0.7461650000000000    0.2289566666666666    0.2689400000000000 C
   0.5087400000000000    0.1859966666666666    0.2427350000000000 C
   0.7399275000000000    0.3310766666666666    0.0945500000000000 C
   0.5066675000000000    0.0076800000000000    0.0268250000000000 C
   0.6059625000000000    0.1088100000000000    0.2399200000000000 C
   0.6258224999999999    0.1513400000000000    0.2286100000000000 C
   0.6131975000000001    0.0080600000000000    0.0905250000000000 C
   0.6318075000000000    0.3267466666666666    0.0303950000000000 C
   0.7538400000000000    0.1043800000000000    0.2310500000000000 C
   0.9912650000000001    0.1473366666666667    0.2572550000000000 C
   0.7600750000000001    0.0022600000000000    0.4054400000000000 C
   0.9933350000000000    0.3256566666666666    0.4731650000000000 C
   0.8940425000000000    0.2245233333333333    0.2600700000000000 C
   0.8741825000000000    0.1819933333333333    0.2713850000000000 C
   0.8868075000000000    0.3252733333333333    0.4094700000000000 C
   0.8681950000000001    0.0065833333333333    0.4696000000000000 C
   0.9961650000000000    0.2289566666666666    0.2689400000000000 C
   0.7587400000000000    0.1859966666666666    0.2427350000000000 C
   0.9899275000000000    0.3310766666666666    0.0945500000000000 C
   0.7566675000000000    0.0076800000000000    0.0268250000000000 C
   0.8559625000000000    0.1088100000000000    0.2399200000000000 C
   0.8758224999999999    0.1513400000000000    0.2286100000000000 C
   0.8631975000000001    0.0080600000000000    0.0905250000000000 C
   0.8818075000000000    0.3267466666666666    0.0303950000000000 C
   0.0038400000000000    0.4377133333333333    0.2310500000000000 C
   0.2412650000000000    0.4806700000000000    0.2572550000000000 C
   0.0100750000000000    0.3355933333333333    0.4054400000000000 C
   0.2433350000000000    0.6589900000000000    0.4731650000000000 C
   0.1440425000000000    0.5578566666666667    0.2600700000000000 C
   0.1241825000000000    0.5153266666666667    0.2713850000000000 C
   0.1368075000000000    0.6586066666666666    0.4094700000000000 C
   0.1181950000000000    0.3399166666666666    0.4696000000000000 C
   0.2461650000000000    0.5622900000000000    0.2689400000000000 C
   0.0087400000000000    0.5193300000000000    0.2427350000000000 C
   0.2399275000000000    0.6644099999999999    0.0945500000000000 C
   0.0066675000000000    0.3410133333333333    0.0268250000000000 C
   0.1059625000000000    0.4421433333333333    0.2399200000000000 C