H12 O8
1.0
  23.2849999432558690    0.0000000000000000    0.0016255996639894
   0.0114267641885183   27.7956442019573409   -2.9523442934819495
   0.0000000000000000    0.0000000000000000   31.5640000000000001
H O
12 8
direct
   0.4843353396198354    0.5971730819550869    0.4221317513867036 H
   0.5079364092783440    0.6947836623695272    0.4203849930869447 H
   0.5235715265991363    0.6479478132958310    0.3286857944156074 H
   0.5037662981981806    0.6048174607887783    0.0720607272656372 H
   0.4824047523630551    0.7026051121394421    0.0709017242809398 H
   0.5224353695807759    0.6510604728892592    0.1658358074035390 H
   0.1105172026665629    0.6004283543635157    0.0628960894592249 H
   0.0869046203758098    0.6982057210493702    0.0832451030291562 H
   0.0715580998736838    0.6494957497629662    0.1654629820371918 H
   0.1125244212927021    0.6958933010048797    0.4331917541853115 H
   0.0917309177512033    0.5979001627296835    0.4131784939461947 H
   0.0727912295596132    0.6479447742752963    0.3285029387216387 H
   0.4778100000000000    0.6066250000000000    0.4522050000000000 O
   0.4976500000000000    0.6854950000000000    0.4481500000000000 O
   0.4933000000000000    0.6142200000000000    0.0443700000000000 O
   0.4752000000000000    0.6934950000000000    0.0408650000000000 O
   0.1169600000000000    0.6104550000000000    0.0347850000000000 O
   0.0971800000000000    0.6893700000000000    0.0536700000000000 O
   0.1197200000000000    0.6857100000000000    0.4611500000000000 O
   0.1022000000000000    0.6063250000000000    0.4427700000000000 O
