H4 O2
1.0
  21.4956767899838717    0.0000000000000000   -2.0372391466268098
  -0.0077304026596004   12.5849942445347587    0.0092252860010745
   0.0000000000000000    0.0000000000000000   34.3479999999999990
H O
4 2
direct
   0.4040551240308799    0.5787751220486932    0.2557178567186751 H
   0.3618777478152949    0.5191477990163087    0.2822850374795829 H
   0.4726795702172258    0.8500530182381367    0.2930916125399083 H
   0.4653042235985523    0.7613419721161424    0.2620096489715928 H
   0.3741500000000000    0.5907600000000000    0.2749650000000000 O
   0.4429200000000000    0.7974599999999999    0.2816500000000000 O
