Zn32 H248 C217 N186
1.0
  21.4956767899838717    0.0000000000000000   -2.0372391466268098
  -0.0077304026596004   12.5849942445347587    0.0092252860010745
   0.0000000000000000    0.0000000000000000   34.3479999999999990
Zn H C N
32 248 217 186
direct
   0.6351100000000000    0.2641600000000000    0.1999200000000000 Zn
   0.3946900000000000    0.2598300000000000    0.2701750000000000 Zn
   0.8958400000000000    0.2594700000000000    0.2713300000000000 Zn
   0.1147300000000000    0.7644300000000001    0.0501200000000000 Zn
   0.6136700000000000    0.7642900000000000    0.0512350000000000 Zn
   0.3546600000000000    0.7597200000000000    0.4784800000000000 Zn
   0.8537500000000000    0.7594500000000000    0.4798600000000000 Zn
   0.3648600000000000    0.7358400000000000    0.3000650000000000 Zn
   0.8646300000000000    0.7356200000000001    0.3013150000000000 Zn
   0.1041300000000000    0.7405300000000000    0.2285000000000000 Zn
   0.6052800000000000    0.7401700000000000    0.2298100000000000 Zn
   0.3863000000000000    0.2357000000000000    0.4487450000000000 Zn
   0.8852400000000000    0.2355700000000000    0.4498600000000000 Zn
   0.1462200000000000    0.2405500000000000    0.0201250000000000 Zn
   0.6453100000000001    0.2402800000000000    0.0215100000000000 Zn
   0.1353400000000000    0.2643700000000000    0.1986650000000000 Zn
   0.6351100000000000    0.2641600000000000    0.6999200000000000 Zn
   0.3946900000000000    0.2598300000000000    0.7701750000000001 Zn
   0.8958400000000000    0.2594700000000000    0.7713300000000001 Zn
   0.1147300000000000    0.7644300000000001    0.5501199999999999 Zn
   0.6136700000000000    0.7642900000000000    0.5512350000000000 Zn
   0.3546600000000000    0.7597200000000000    0.9784800000000000 Zn
   0.8537500000000000    0.7594500000000000    0.9798600000000000 Zn
   0.3648600000000000    0.7358400000000000    0.8000650000000000 Zn
   0.8646300000000000    0.7356200000000001    0.8013150000000000 Zn
   0.1041300000000000    0.7405300000000000    0.7285000000000000 Zn
   0.6052800000000000    0.7401700000000000    0.7298100000000000 Zn
   0.3863000000000000    0.2357000000000000    0.9487449999999999 Zn
   0.8852400000000000    0.2355700000000000    0.9498599999999999 Zn
   0.1462200000000000    0.2405500000000000    0.5201249999999999 Zn
   0.6453100000000001    0.2402800000000000    0.5215100000000000 Zn
   0.1353400000000000    0.2643700000000000    0.6986650000000000 Zn
   0.4660700000000000    0.3634300000000000    0.3970350000000000 H
   0.9663200000000000    0.3634900000000000    0.3979450000000000 H
   0.4976300000000000    0.3211500000000000    0.3536400000000000 H
   0.9976100000000000    0.3212600000000000    0.3544300000000000 H
   0.4385500000000000    0.4195100000000000    0.3512700000000000 H
   0.9384500000000000    0.4194300000000000    0.3522150000000000 H
   0.2583300000000000    0.0530900000000000    0.3215150000000000 H
   0.7591700000000000    0.0519900000000000    0.3220500000000000 H
   0.3243000000000000    0.0136300000000000    0.2982700000000000 H
   0.8253700000000000    0.0137600000000000    0.2987750000000000 H
   0.2564300000000000    0.3270800000000000    0.1659650000000000 H
   0.7566000000000001    0.3275500000000000    0.1668500000000000 H
   0.3215900000000000    0.3710700000000000    0.1977950000000000 H
   0.8221000000000001    0.3714500000000000    0.1984650000000000 H
   0.3278400000000000    0.2547600000000000    0.1697650000000000 H
   0.8278900000000000    0.2549300000000000    0.1704900000000000 H
   0.4854000000000000    0.0145500000000000    0.1590000000000000 H
   0.9844700000000000    0.0157700000000000    0.1584750000000000 H
   0.0491200000000000    0.0944600000000000    0.1467000000000000 H
   0.5499200000000000    0.0936400000000000    0.1473750000000000 H
   0.0599700000000000    0.9906900000000000    0.1818900000000000 H
   0.5608500000000000    0.9900300000000000    0.1826350000000000 H
   0.0173100000000000    0.3740300000000000    0.2874800000000000 H
   0.5158300000000000    0.3738200000000000    0.2876500000000000 H
   0.0883800000000000    0.3017200000000000    0.2934400000000000 H
   0.5868700000000000    0.3016600000000000    0.2942950000000000 H
   0.1913200000000000    0.6195000000000001    0.1805900000000000 H
   0.6914100000000000    0.6184600000000000    0.1815200000000000 H
   0.2361300000000000    0.5081700000000000    0.1979150000000000 H
   0.7362700000000000    0.5073800000000001    0.1990850000000000 H
   0.1781200000000000    0.4927100000000000    0.1580550000000000 H
   0.6782600000000000    0.4913300000000000    0.1592600000000000 H
   0.2842100000000000    0.8632800000000000    0.3517300000000000 H
   0.7836600000000000    0.8638500000000000    0.3528750000000000 H
   0.2528900000000000    0.8213900000000000    0.3953000000000000 H
   0.7518700000000000    0.8213400000000000    0.3962100000000000 H
   0.3120400000000000    0.9197400000000000    0.3973600000000000 H
   0.8111100000000000    0.9195500000000000    0.3987000000000000 H
   0.4917600000000000    0.5533600000000000    0.4279300000000000 H
   0.9898400000000001    0.5513700000000000    0.4288850000000000 H
   0.4254900000000000    0.5138900000000000    0.4509100000000000 H
   0.9236400000000000    0.5133900000000000    0.4522600000000000 H
   0.4923300000000000    0.8267000000000000    0.0833900000000000 H
   0.9938900000000001    0.8286100000000000    0.0835050000000000 H
   0.4268900000000000    0.8699300000000000    0.0516300000000000 H
   0.9282200000000000    0.8721800000000000    0.0520100000000000 H
   0.4212400000000000    0.7533100000000000    0.0796550000000000 H
   0.9225000000000000    0.7561900000000000    0.0803550000000000 H
   0.2655300000000000    0.5164800000000001    0.0910000000000000 H
   0.7639300000000000    0.5155200000000000    0.0920250000000000 H
   0.2007600000000000    0.5948500000000000    0.1026150000000000 H
   0.6990600000000000    0.5938800000000000    0.1034750000000000 H
   0.1901000000000000    0.4906300000000000    0.0676300000000000 H
   0.6886600000000000    0.4899900000000000    0.0683500000000000 H
   0.2332800000000000    0.8741800000000000    0.4617400000000000 H
   0.7326100000000000    0.8739000000000000    0.4629150000000000 H
   0.1621100000000000    0.8020699999999999    0.4555650000000000 H
   0.6614400000000000    0.8018000000000000    0.4566750000000000 H
   0.0590000000000000    0.1193400000000000    0.0683400000000000 H
   0.5574700000000000    0.1189200000000000    0.0690450000000000 H
   0.0143200000000000    0.0075500000000000    0.0512650000000000 H
   0.5129300000000000    0.0072700000000000    0.0516600000000000 H
   0.0725600000000000    0.9927800000000000    0.0910300000000000 H
   0.5706800000000000    0.9922100000000000    0.0916800000000000 H
   0.0336600000000000    0.6365100000000000    0.1020000000000000 H
   0.5339000000000000    0.6365600000000000    0.1029450000000000 H
   0.0023600000000000    0.6787400000000000    0.1455450000000000 H
   0.5023300000000001    0.6788400000000000    0.1463400000000000 H
   0.0615200000000000    0.5805700000000000    0.1477600000000000 H
   0.5614200000000000    0.5804700000000000    0.1487050000000000 H
   0.2408100000000000    0.9479900000000000    0.1779250000000000 H
   0.7416400000000000    0.9469000000000000    0.1784600000000000 H
   0.1746100000000000    0.9862400000000000    0.2012050000000000 H
   0.6756700000000000    0.9863499999999999    0.2017100000000000 H
   0.2433600000000000    0.6724400000000000    0.3330950000000000 H
   0.7435500000000000    0.6729200000000000    0.3340150000000000 H
   0.1778600000000000    0.6285500000000001    0.3015100000000000 H
   0.6783800000000000    0.6289300000000000    0.3021850000000000 H
   0.1720700000000000    0.7450700000000000    0.3294850000000000 H
   0.6721300000000000    0.7452500000000000    0.3302150000000000 H
   0.0155100000000000    0.9842100000000000    0.3415050000000000 H
   0.9508600000000000    0.9055299999999999    0.3532800000000000 H
   0.9400100000000000    0.0000000000000000    0.3180900000000000 H
   0.9826600000000000    0.6259700000000000    0.2124950000000000 H
   0.9115900000000000    0.6982900000000000    0.2065400000000000 H
   0.8086500000000000    0.3804900000000000    0.3193850000000000 H
   0.7638400000000000    0.4918300000000000    0.3020650000000000 H
   0.8218600000000000    0.5072800000000000    0.3419250000000000 H
   0.2163100000000000    0.1361500000000000    0.1471100000000000 H
   0.7157600000000000    0.1367200000000000    0.1482500000000000 H
   0.2481000000000000    0.1786600000000000    0.1037750000000000 H
   0.7470700000000000    0.1786100000000000    0.1046850000000000 H
   0.1888600000000000    0.0804500000000000    0.1012850000000000 H
   0.6879300000000000    0.0802600000000000    0.1026250000000000 H
   0.0101300000000000    0.4486300000000000    0.0710950000000000 H
   0.5082000000000000    0.4466200000000000    0.0720550000000000 H
   0.0763300000000000    0.4866100000000000    0.0477200000000000 H
   0.5744600000000000    0.4861000000000000    0.0490700000000000 H
   0.0060800000000000    0.1713900000000000    0.4164500000000000 H
   0.5076400000000000    0.1732900000000000    0.4165950000000000 H
   0.0717500000000000    0.1278100000000000    0.4479750000000000 H
   0.5730900000000000    0.1300600000000000    0.4483550000000000 H
   0.0774800000000000    0.2438100000000000    0.4196250000000000 H
   0.5787400000000000    0.2466800000000000    0.4203300000000000 H
   0.2360400000000000    0.4844800000000000    0.4079600000000000 H
   0.7344400000000000    0.4835100000000000    0.4089500000000000 H
   0.3009100000000000    0.4061300000000000    0.3965100000000000 H
   0.7992100000000000    0.4051400000000000    0.3973650000000000 H
   0.3113000000000000    0.5100200000000000    0.4316000000000000 H
   0.8098700000000000    0.5093600000000000    0.4323500000000000 H
   0.2673600000000000    0.1261000000000000    0.0370650000000000 H
   0.7666900000000000    0.1258200000000000    0.0382400000000000 H
   0.3385400000000000    0.1982000000000000    0.0433050000000000 H
   0.8378600000000000    0.1979300000000000    0.0444150000000000 H
   0.4425000000000000    0.8810700000000000    0.4309000000000000 H
   0.9409700000000000    0.8806500000000000    0.4316450000000000 H
   0.4870500000000000    0.9927100000000000    0.4483200000000000 H
   0.9856500000000000    0.9924500000000001    0.4487150000000000 H
   0.4293000000000000    0.0077900000000000    0.4083000000000000 H
   0.9274100000000000    0.0072200000000000    0.4089500000000000 H
   0.4660700000000000    0.3634300000000000    0.8970350000000000 H
   0.9663200000000000    0.3634900000000000    0.8979450000000000 H
   0.4976300000000000    0.3211500000000000    0.8536400000000000 H
   0.9976100000000000    0.3212600000000000    0.8544300000000000 H
   0.4385500000000000    0.4195100000000000    0.8512700000000000 H
   0.9384500000000000    0.4194300000000000    0.8522149999999999 H
   0.2583300000000000    0.0530900000000000    0.8215150000000000 H
   0.7591700000000000    0.0519900000000000    0.8220499999999999 H
   0.3243000000000000    0.0136300000000000    0.7982700000000000 H
   0.8253700000000000    0.0137600000000000    0.7987750000000000 H
   0.2564300000000000    0.3270800000000000    0.6659650000000000 H
   0.7566000000000001    0.3275500000000000    0.6668499999999999 H
   0.3215900000000000    0.3710700000000000    0.6977949999999999 H
   0.8221000000000001    0.3714500000000000    0.6984650000000000 H
   0.3278400000000000    0.2547600000000000    0.6697649999999999 H
   0.8278900000000000    0.2549300000000000    0.6704900000000000 H
   0.4854000000000000    0.0145500000000000    0.6590000000000000 H
   0.9844700000000000    0.0157700000000000    0.6584750000000000 H
   0.0491200000000000    0.0944600000000000    0.6467000000000001 H
   0.5499200000000000    0.0936400000000000    0.6473750000000000 H
   0.0599700000000000    0.9906900000000000    0.6818900000000000 H
   0.5608500000000000    0.9900300000000000    0.6826350000000000 H
   0.0173100000000000    0.3740300000000000    0.7874800000000000 H
   0.5158300000000000    0.3738200000000000    0.7876500000000000 H
   0.0883800000000000    0.3017200000000000    0.7934399999999999 H
   0.5868700000000000    0.3016600000000000    0.7942950000000000 H
   0.1913200000000000    0.6195000000000001    0.6805900000000000 H
   0.6914100000000000    0.6184600000000000    0.6815200000000000 H
   0.2361300000000000    0.5081700000000000    0.6979150000000001 H
   0.7362700000000000    0.5073800000000001    0.6990850000000000 H
   0.1781200000000000    0.4927100000000000    0.6580550000000001 H
   0.6782600000000000    0.4913300000000000    0.6592600000000000 H
   0.2842100000000000    0.8632800000000000    0.8517300000000000 H
   0.7836600000000000    0.8638500000000000    0.8528750000000000 H
   0.2528900000000000    0.8213900000000000    0.8953000000000000 H
   0.7518700000000000    0.8213400000000000    0.8962100000000000 H
   0.3120400000000000    0.9197400000000000    0.8973599999999999 H
   0.8111100000000000    0.9195500000000000    0.8987000000000001 H
   0.4917600000000000    0.5533600000000000    0.9279299999999999 H
   0.9898400000000001    0.5513700000000000    0.9288850000000000 H
   0.4254900000000000    0.5138900000000000    0.9509099999999999 H
   0.9236400000000000    0.5133900000000000    0.9522600000000000 H
   0.4923300000000000    0.8267000000000000    0.5833900000000000 H
   0.9938900000000001    0.8286100000000000    0.5835049999999999 H
   0.4268900000000000    0.8699300000000000    0.5516300000000000 H
   0.9282200000000000    0.8721800000000000    0.5520100000000000 H
   0.4212400000000000    0.7533100000000000    0.5796550000000000 H
   0.9225000000000000    0.7561900000000000    0.5803550000000000 H
   0.2655300000000000    0.5164800000000001    0.5910000000000000 H
   0.7639300000000000    0.5155200000000000    0.5920250000000000 H
   0.2007600000000000    0.5948500000000000    0.6026150000000000 H
   0.6990600000000000    0.5938800000000000    0.6034750000000000 H
   0.1901000000000000    0.4906300000000000    0.5676300000000000 H
   0.6886600000000000    0.4899900000000000    0.5683500000000000 H
   0.2332800000000000    0.8741800000000000    0.9617400000000000 H
   0.7326100000000000    0.8739000000000000    0.9629150000000000 H
   0.1621100000000000    0.8020699999999999    0.9555650000000000 H
   0.6614400000000000    0.8018000000000000    0.9566749999999999 H
   0.0590000000000000    0.1193400000000000    0.5683400000000000 H
   0.5574700000000000    0.1189200000000000    0.5690450000000000 H
   0.0143200000000000    0.0075500000000000    0.5512650000000000 H
   0.5129300000000000    0.0072700000000000    0.5516600000000000 H
   0.0725600000000000    0.9927800000000000    0.5910299999999999 H
   0.5706800000000000    0.9922100000000000    0.5916800000000000 H
   0.0336600000000000    0.6365100000000000    0.6020000000000000 H
   0.5339000000000000    0.6365600000000000    0.6029450000000000 H
   0.0023600000000000    0.6787400000000000    0.6455450000000000 H
   0.5023300000000001    0.6788400000000000    0.6463400000000000 H
   0.0615200000000000    0.5805700000000000    0.6477600000000000 H
   0.5614200000000000    0.5804700000000000    0.6487050000000000 H
   0.2408100000000000    0.9479900000000000    0.6779250000000000 H
   0.7416400000000000    0.9469000000000000    0.6784600000000001 H
   0.1746100000000000    0.9862400000000000    0.7012050000000000 H
   0.6756700000000000    0.9863499999999999    0.7017100000000001 H
   0.2433600000000000    0.6724400000000000    0.8330949999999999 H
   0.7435500000000000    0.6729200000000000    0.8340150000000000 H
   0.1778600000000000    0.6285500000000001    0.8015099999999999 H
   0.6783800000000000    0.6289300000000000    0.8021849999999999 H
   0.1720700000000000    0.7450700000000000    0.8294850000000000 H
   0.6721300000000000    0.7452500000000000    0.8302149999999999 H
   0.0155100000000000    0.9842100000000000    0.8415049999999999 H
   0.5145700000000000    0.9854400000000000    0.8409350000000000 H
   0.4500500000000000    0.9063500000000000    0.8526100000000000 H
   0.9508600000000000    0.9055299999999999    0.8532800000000000 H
   0.4391200000000000    0.0000000000000000    0.8173500000000000 H
   0.9400100000000000    0.0000000000000000    0.8180900000000000 H
   0.4841400000000000    0.6261700000000000    0.7123250000000000 H
   0.9826600000000000    0.6259700000000000    0.7124950000000000 H
   0.4131000000000000    0.6983400000000000    0.7056850000000000 H
   0.9115900000000000    0.6982900000000000    0.7065399999999999 H
   0.3085500000000000    0.3815400000000000    0.8184650000000000 H
   0.8086500000000000    0.3804900000000000    0.8193850000000000 H
   0.2637000000000000    0.4926200000000000    0.8008999999999999 H
   0.7638400000000000    0.4918300000000000    0.8020650000000000 H
   0.3217100000000000    0.5086700000000000    0.8407249999999999 H
   0.8218600000000000    0.5072800000000000    0.8419250000000000 H
   0.2163100000000000    0.1361500000000000    0.6471100000000000 H
   0.7157600000000000    0.1367200000000000    0.6482500000000000 H
   0.2481000000000000    0.1786600000000000    0.6037750000000000 H
   0.7470700000000000    0.1786100000000000    0.6046850000000000 H
   0.1888600000000000    0.0804500000000000    0.6012850000000000 H
   0.6879300000000000    0.0802600000000000    0.6026250000000000 H
   0.0101300000000000    0.4486300000000000    0.5710950000000000 H
   0.5082000000000000    0.4466200000000000    0.5720550000000000 H
   0.0763300000000000    0.4866100000000000    0.5477200000000000 H
   0.5744600000000000    0.4861000000000000    0.5490699999999999 H
   0.0060800000000000    0.1713900000000000    0.9164500000000000 H
   0.5076400000000000    0.1732900000000000    0.9165950000000000 H
   0.0717500000000000    0.1278100000000000    0.9479750000000000 H
   0.5730900000000000    0.1300600000000000    0.9483550000000001 H
   0.0774800000000000    0.2438100000000000    0.9196250000000000 H
   0.5787400000000000    0.2466800000000000    0.9203300000000000 H
   0.2360400000000000    0.4844800000000000    0.9079600000000000 H
   0.7344400000000000    0.4835100000000000    0.9089499999999999 H
   0.3009100000000000    0.4061300000000000    0.8965099999999999 H
   0.7992100000000000    0.4051400000000000    0.8973650000000000 H
   0.3113000000000000    0.5100200000000000    0.9316000000000000 H
   0.8098700000000000    0.5093600000000000    0.9323500000000000 H
   0.2673600000000000    0.1261000000000000    0.5370650000000000 H
   0.7666900000000000    0.1258200000000000    0.5382400000000001 H
   0.3385400000000000    0.1982000000000000    0.5433050000000000 H
   0.8378600000000000    0.1979300000000000    0.5444150000000000 H
   0.4425000000000000    0.8810700000000000    0.9309000000000001 H
   0.9409700000000000    0.8806500000000000    0.9316450000000001 H
   0.4870500000000000    0.9927100000000000    0.9483200000000001 H
   0.9856500000000000    0.9924500000000001    0.9487150000000000 H
   0.4293000000000000    0.0077900000000000    0.9083000000000000 H
   0.9274100000000000    0.0072200000000000    0.9089499999999999 H
   0.5594400000000000    0.0332800000000000    0.0636950000000000 C
   0.0451800000000000    0.6544200000000000    0.1330700000000000 C
   0.5452500000000000    0.6544000000000000    0.1340050000000000 C
   0.0931700000000000    0.7394200000000000    0.1378250000000000 C
   0.4547200000000000    0.3455800000000000    0.3659700000000000 C
   0.9547900000000000    0.3455800000000000    0.3669000000000000 C
   0.4066700000000000    0.2607000000000000    0.3611450000000000 C
   0.9068000000000001    0.2605900000000000    0.3621550000000000 C
   0.3382700000000000    0.1485300000000000    0.3363100000000000 C
   0.8387000000000000    0.1481700000000000    0.3371100000000000 C
   0.2981200000000000    0.0834100000000000    0.3072500000000000 C
   0.7989000000000001    0.0830200000000000    0.3078950000000000 C
   0.2744200000000000    0.1422100000000000    0.2709450000000000 C
   0.7750800000000000    0.1423100000000000    0.2717250000000000 C
   0.2743600000000000    0.2356900000000000    0.2184150000000000 C
   0.7748200000000000    0.2363500000000000    0.2193400000000000 C
   0.2957600000000000    0.3009600000000000    0.1861550000000000 C
   0.7960500000000000    0.3014100000000000    0.1869700000000000 C
   0.0279500000000000    0.0535800000000000    0.1703950000000000 C
   0.5287400000000000    0.0526500000000000    0.1710350000000000 C
   0.0148700000000000    0.1294700000000000    0.2017250000000000 C
   0.5152000000000000    0.1285700000000000    0.2022450000000000 C
   0.0265500000000000    0.2530400000000000    0.2451000000000000 C
   0.5260500000000000    0.2525500000000000    0.2455300000000000 C
   0.0539000000000000    0.3384400000000000    0.2716850000000000 C
   0.5528300000000000    0.3382200000000000    0.2722300000000000 C
   0.0844600000000000    0.4262400000000000    0.2511600000000000 C
   0.5839000000000000    0.4260400000000000    0.2520000000000000 C
   0.1427300000000000    0.5090000000000000    0.2137500000000000 C
   0.6428199999999999    0.5084400000000000    0.2148800000000000 C
   0.1895100000000000    0.5338500000000000    0.1859900000000000 C
   0.6896400000000000    0.5329000000000000    0.1871150000000000 C
   0.2957200000000000    0.8457000000000000    0.3828050000000000 C
   0.7948600000000000    0.8457700000000000    0.3839350000000000 C
   0.3437300000000000    0.7608400000000000    0.3876850000000000 C
   0.8427500000000000    0.7607300000000000    0.3888300000000000 C
   0.4119700000000000    0.6487800000000000    0.4127900000000000 C
   0.9105500000000000    0.6479400000000000    0.4138900000000000 C
   0.4518300000000000    0.5836800000000000    0.4420200000000000 C
   0.9502100000000000    0.5825399999999999    0.4430700000000000 C
   0.4751900000000000    0.6423900000000000    0.4784050000000000 C
   0.9742600000000000    0.6418900000000000    0.4791300000000000 C
   0.4746900000000000    0.7354000000000001    0.0309500000000000 C
   0.9750700000000000    0.7365800000000000    0.0313400000000000 C
   0.4530600000000000    0.8001400000000000    0.0632300000000000 C
   0.9542400000000000    0.8022500000000000    0.0636200000000000 C
   0.2219900000000000    0.5538600000000000    0.0790000000000000 C
   0.7205000000000000    0.5530600000000000    0.0799100000000000 C
   0.2350400000000000    0.6295400000000000    0.0475550000000000 C
   0.7338700000000000    0.6289800000000000    0.0486100000000000 C
   0.2236000000000000    0.7530200000000000    0.0040550000000000 C
   0.7227400000000000    0.7527500000000000    0.0052250000000000 C
   0.1965100000000000    0.8385800000000000    0.4774150000000000 C
   0.6957900000000000    0.8383500000000000    0.4785550000000000 C
   0.1659300000000000    0.9263900000000000    0.4978600000000000 C
   0.6651100000000000    0.9261600000000000    0.4989350000000000 C
   0.1076100000000000    0.0089900000000000    0.0352250000000000 C
   0.6064700000000000    0.0086900000000000    0.0361050000000000 C
   0.0609400000000000    0.0336700000000000    0.0630450000000000 C
   0.5933000000000000    0.7392900000000000    0.1388000000000000 C
   0.1612800000000000    0.8518300000000000    0.1628700000000000 C
   0.6617000000000000    0.8514600000000000    0.1636700000000000 C
   0.2010800000000000    0.9169700000000000    0.1920800000000000 C
   0.7018500000000000    0.9165800000000000    0.1927300000000000 C
   0.2249000000000000    0.8576800000000000    0.2282550000000000 C
   0.7255500000000000    0.8577700000000000    0.2290350000000000 C
   0.2251500000000000    0.7636400000000000    0.2806400000000000 C
   0.7256100000000000    0.7643000000000000    0.2815650000000000 C
   0.2039100000000000    0.6985900000000000    0.3130050000000000 C
   0.7042200000000000    0.6990400000000000    0.3138250000000000 C
   0.9720299999999999    0.9464100000000000    0.3295500000000000 C
   0.9851000000000000    0.8705200000000000    0.2982550000000000 C
   0.9734100000000000    0.7469500000000000    0.2548750000000000 C
   0.9460700000000000    0.6615600000000000    0.2282900000000000 C
   0.9155100000000000    0.5737600000000000    0.2488150000000000 C
   0.8572300000000000    0.4910000000000000    0.2862000000000000 C
   0.8104600000000000    0.4661400000000000    0.3139850000000000 C
   0.2051100000000000    0.1542300000000000    0.1160500000000000 C
   0.7042400000000000    0.1543000000000000    0.1171800000000000 C
   0.1572200000000000    0.2392700000000000    0.1111550000000000 C
   0.6562400000000000    0.2391600000000000    0.1123000000000000 C
   0.0894200000000000    0.3520600000000000    0.0860950000000000 C
   0.5879900000000000    0.3512100000000000    0.0871900000000000 C
   0.0497600000000000    0.4174600000000000    0.0569150000000000 C
   0.5481300000000000    0.4163100000000000    0.0579650000000000 C
   0.0257100000000000    0.3581100000000000    0.0208500000000000 C
   0.5247700000000000    0.3575900000000000    0.0215800000000000 C
   0.0249000000000000    0.2634100000000000    0.4686400000000000 C
   0.5252800000000000    0.2645800000000000    0.4690300000000000 C
   0.0457300000000000    0.1977400000000000    0.4363650000000000 C
   0.5469200000000000    0.1998500000000000    0.4367550000000000 C
   0.2794600000000000    0.4469500000000000    0.4200700000000000 C
   0.7779800000000000    0.4461300000000000    0.4209500000000000 C
   0.2661000000000000    0.3710200000000000    0.4513700000000000 C
   0.7649300000000000    0.3704500000000000    0.4524250000000000 C
   0.2772300000000000    0.2472500000000000    0.4947500000000000 C
   0.7763700000000000    0.2469700000000000    0.4959250000000000 C
   0.3041900000000000    0.1616400000000000    0.0214250000000000 C
   0.8034600000000000    0.1614100000000000    0.0225650000000000 C
   0.3348700000000000    0.0738400000000000    0.0010450000000000 C
   0.8340500000000000    0.0736100000000000    0.0021250000000000 C
   0.3935000000000000    0.9913000000000000    0.4638750000000000 C
   0.8923600000000000    0.9910099999999999    0.4647500000000000 C
   0.4405300000000000    0.9667100000000000    0.4362850000000000 C
   0.9390300000000000    0.9663200000000000    0.4369350000000000 C
   0.5594400000000000    0.0332800000000000    0.5636950000000001 C
   0.0451800000000000    0.6544200000000000    0.6330700000000000 C
   0.5452500000000000    0.6544000000000000    0.6340050000000000 C
   0.0931700000000000    0.7394200000000000    0.6378250000000000 C
   0.4547200000000000    0.3455800000000000    0.8659700000000000 C
   0.9547900000000000    0.3455800000000000    0.8669000000000000 C
   0.4066700000000000    0.2607000000000000    0.8611450000000000 C
   0.9068000000000001    0.2605900000000000    0.8621550000000000 C
   0.3382700000000000    0.1485300000000000    0.8363100000000000 C
   0.8387000000000000    0.1481700000000000    0.8371100000000000 C
   0.2981200000000000    0.0834100000000000    0.8072500000000000 C
   0.7989000000000001    0.0830200000000000    0.8078950000000000 C
   0.2744200000000000    0.1422100000000000    0.7709450000000000 C
   0.7750800000000000    0.1423100000000000    0.7717250000000000 C
   0.2743600000000000    0.2356900000000000    0.7184150000000000 C
   0.7748200000000000    0.2363500000000000    0.7193400000000000 C
   0.2957600000000000    0.3009600000000000    0.6861550000000000 C
   0.7960500000000000    0.3014100000000000    0.6869700000000000 C
   0.0279500000000000    0.0535800000000000    0.6703950000000000 C
   0.5287400000000000    0.0526500000000000    0.6710350000000000 C
   0.0148700000000000    0.1294700000000000    0.7017249999999999 C
   0.5152000000000000    0.1285700000000000    0.7022450000000000 C
   0.0265500000000000    0.2530400000000000    0.7451000000000000 C
   0.5260500000000000    0.2525500000000000    0.7455300000000000 C
   0.0539000000000000    0.3384400000000000    0.7716850000000000 C
   0.5528300000000000    0.3382200000000000    0.7722300000000000 C
   0.0844600000000000    0.4262400000000000    0.7511600000000000 C
   0.5839000000000000    0.4260400000000000    0.7520000000000000 C
   0.1427300000000000    0.5090000000000000    0.7137500000000000 C
   0.6428199999999999    0.5084400000000000    0.7148800000000000 C
   0.1895100000000000    0.5338500000000000    0.6859900000000000 C
   0.6896400000000000    0.5329000000000000    0.6871150000000000 C
   0.2957200000000000    0.8457000000000000    0.8828050000000001 C
   0.7948600000000000    0.8457700000000000    0.8839350000000000 C
   0.3437300000000000    0.7608400000000000    0.8876850000000001 C
   0.8427500000000000    0.7607300000000000    0.8888300000000000 C
   0.4119700000000000    0.6487800000000000    0.9127900000000000 C
   0.9105500000000000    0.6479400000000000    0.9138900000000000 C
   0.4518300000000000    0.5836800000000000    0.9420200000000001 C
   0.9502100000000000    0.5825399999999999    0.9430700000000001 C
   0.4751900000000000    0.6423900000000000    0.9784050000000000 C
   0.9742600000000000    0.6418900000000000    0.9791300000000001 C
   0.4746900000000000    0.7354000000000001    0.5309500000000000 C
   0.9750700000000000    0.7365800000000000    0.5313400000000000 C
   0.4530600000000000    0.8001400000000000    0.5632300000000000 C
   0.9542400000000000    0.8022500000000000    0.5636200000000000 C
   0.2219900000000000    0.5538600000000000    0.5790000000000000 C
   0.7205000000000000    0.5530600000000000    0.5799100000000000 C
   0.2350400000000000    0.6295400000000000    0.5475550000000000 C
   0.7338700000000000    0.6289800000000000    0.5486100000000000 C
   0.2236000000000000    0.7530200000000000    0.5040550000000000 C