H3 O2
1.0
   9.0154999780297729    0.0000000000000000   -0.0006294006343427
  -3.2734184181935988    8.4023828297518559   -0.0009443103900646
   0.0000000000000000    0.0000000000000000   19.5219999999999985
H O
3 2
direct
   0.0840910490742868    0.1372582935718129    0.0012532246681186 H
   0.2684184708162743    0.1188522575954774    0.8445026272820904 H
   0.0371666292216475    0.0727227614516606   -0.1106456037755406 H
   0.1991000000000000    0.1698000000000000    0.0000000000000000 O
   0.3294000000000000    0.1554100000000000    0.8861700000000000 O
