P1 O5
1.0
   9.0154999780297729    0.0000000000000000   -0.0006294006343427
  -3.2734184181935988    8.4023828297518559   -0.0009443103900646
   0.0000000000000000    0.0000000000000000   19.5219999999999985
P O
1 5
direct
   0.7012699999999999    0.9928500000000000    0.3436500000000000 P
   0.5700300000000000    0.7702100000000000    0.2611000000000000 O
   0.7162700000000000    0.9181000000000000    0.2698400000000000 O
   0.8638800000000000    0.1254600000000000    0.3503800000000000 O
   0.5635300000000000    0.0538000000000000    0.3444000000000000 O
   0.6744900000000000    0.8681200000000000    0.3996500000000000 O
