H6 O4
1.0
  13.1879999979913531    0.0000000000000000    0.0002301740217415
  -0.3110143908003909   39.5987783478475706   -0.0048380526744952
   0.0000000000000000    0.0000000000000000   23.3389999999999986
H O
6 4
direct
   0.2961317143703575    0.3855818953352987    0.8869530420400606 H
   0.2737618285287843    0.3938326917903507    0.7169411510648681 H
   0.2860873297613210    0.3861335449482583    0.8011628685011569 H
   0.2239733352817747    0.1848056193409292    0.7398768147152672 H
   0.2621791774573518    0.1768812431159939    0.9090410297953374 H
   0.2419374820445419    0.1843312698000701    0.8254890981343062 H
   0.2876500000000000    0.3985800000000000    0.8520799999999999 O
   0.2749400000000000    0.4032166666666667    0.7553299999999999 O
   0.2361600000000000    0.1719400000000000    0.7745300000000001 O
   0.2578300000000000    0.1675533333333333    0.8706800000000000 O
