H16 C32 N4 O4
1.0
  13.1879999979913531    0.0000000000000000    0.0002301740217415
  -0.3110143908003909   39.5987783478475706   -0.0048380526744952
   0.0000000000000000    0.0000000000000000   23.3389999999999986
H C N O
16 32 4 4
direct
   0.1942300000000000    0.3977033333333333    0.9448299999999999 H
   0.1732200000000000    0.3808266666666666    0.0478200000000000 H
   0.2462600000000000    0.4180400000000000    0.1240300000000000 H
   0.3866000000000000    0.4949833333333333    0.9403000000000000 H
   0.4628900000000000    0.5333933333333334    0.0130000000000000 H
   0.4370000000000000    0.5222666666666667    0.1172900000000000 H
   0.0580000000000000    0.4793533333333333    0.2396400000000000 H
   0.0253200000000000    0.4673233333333333    0.3439100000000000 H
   0.5539700000000000    0.4458533333333333    0.2780400000000000 H
   0.5229600000000000    0.4361400000000000    0.3825300000000000 H
   0.1533700000000000    0.3853966666666667    0.4947500000000000 H
   0.1146600000000000    0.3701766666666667    0.5962400000000000 H
   0.1667000000000000    0.4084266666666667    0.6755500000000000 H
   0.3193300000000000    0.4940500000000000    0.5064100000000000 H
   0.3734600000000000    0.5299333333333334    0.5898400000000000 H
   0.3361900000000000    0.5100800000000000    0.6885599999999999 H
   0.2266000000000000    0.4130233333333333    0.9791800000000001 C
   0.2146900000000000    0.4038466666666666    0.0370300000000000 C
   0.2551500000000000    0.4244133333333333    0.0788900000000000 C
   0.3087100000000000    0.4540500000000000    0.0631000000000000 C
   0.3208300000000000    0.4612533333333333    0.0000000000000000 C
   0.3775000000000000    0.4900133333333333    0.9859200000000000 C
   0.4190400000000000    0.5113266666666667    0.0265000000000000 C
   0.4049000000000000    0.5050666666666667    0.0856000000000000 C
   0.3508700000000000    0.4771366666666667    0.1034700000000000 C
   0.4183600000000000    0.4612333333333333    0.1974000000000000 C
   0.2347800000000000    0.4770866666666667    0.1846400000000000 C
   0.2170900000000000    0.4693700000000000    0.2456900000000000 C
   0.1195600000000000    0.4719300000000000    0.2679500000000000 C
   0.1013800000000000    0.4653966666666666    0.3260900000000000 C
   0.1808000000000000    0.4567200000000000    0.3622800000000000 C
   0.2808800000000000    0.4540800000000000    0.3407400000000000 C
   0.2990700000000000    0.4601466666666666    0.2814000000000000 C
   0.3986100000000000    0.4567633333333333    0.2594000000000000 C
   0.4780600000000000    0.4483400000000000    0.2957100000000000 C
   0.4605900000000000    0.4428799999999999    0.3542800000000000 C
   0.3632100000000000    0.4454200000000000    0.3767700000000000 C
   0.3458400000000000    0.4384466666666667    0.4380000000000000 C
   0.1594700000000000    0.4500500000000000    0.4234000000000000 C
   0.2241500000000000    0.4323033333333333    0.5166700000000000 C
   0.1754600000000000    0.4023566666666666    0.5294000000000000 C
   0.1537600000000000    0.3938833333333333    0.5868600000000000 C
   0.1818600000000000    0.4150600000000000    0.6310900000000000 C
   0.2331200000000000    0.4457533333333333    0.6189700000000000 C
   0.2536700000000000    0.4550866666666666    0.5607200000000000 C
   0.3033500000000000    0.4862800000000000    0.5502800000000000 C
   0.3325600000000000    0.5062233333333332    0.5957200000000000 C
   0.3119500000000000    0.4951300000000000    0.6518500000000000 C
   0.2777000000000000    0.4404666666666667    0.9626200000000000 N
   0.3345400000000000    0.4712233333333333    0.1637900000000000 N
   0.2444100000000000    0.4407333333333333    0.4575500000000000 N
   0.2635800000000000    0.4662733333333333    0.6634200000000000 N
   0.1687200000000000    0.4873900000000000    0.1522900000000000 O
   0.5014400000000000    0.4563199999999999    0.1752000000000000 O
   0.0750600000000000    0.4520033333333333    0.4448800000000000 O
   0.4138900000000000    0.4310433333333333    0.4719100000000000 O
