H4 O2
1.0
  13.1879999979913531    0.0000000000000000    0.0002301740217415
  -0.3110143908003909   39.5987783478475706   -0.0048380526744952
   0.0000000000000000    0.0000000000000000   23.3389999999999986
H O
4 2
direct
   0.2419134967003280    0.4516772516619850    0.6318022694789751 H
   0.2991147277490985    0.4874727088501100    0.6549201695253862 H
   0.2401478436344060    0.4202992235252488    0.9747895442155429 H
   0.3095614403533370    0.4558224083811275    0.9902337407931310 H
   0.2635800000000000    0.4662733333333333    0.6634200000000000 O
   0.2777000000000000    0.4404666666666667    0.9626200000000000 O
