H6 C4 N8
1.0
  38.2619960605182285    0.0000000000000000   -0.0173627442424513
   0.0666895385232147   38.2109417103163906   -0.0026676310397505
   0.0000000000000000    0.0000000000000000   25.6610000000000014
H C N
6 4 8
direct
   0.6472300000000000    0.0736233333333333    0.4657200000000000 H
   0.5786533333333332    0.3261333333333333    0.3506100000000000 H
   0.6247900000000000    0.3179999999999999    0.3510200000000000 H
   0.6733933333333333    0.0780733333333333    0.6492400000000000 H
   0.6819833333333333    0.1241533333333333    0.6487600000000000 H
   0.5734733333333333    0.3511266666666666    0.5343000000000000 H
   0.6540566666666666    0.0886866666666667    0.5000900000000000 C
   0.6034433333333333    0.3322700000000000    0.4210000000000000 C
   0.6673033333333332    0.1030400000000000    0.5789000000000000 C
   0.5887166666666666    0.3447166666666667    0.4999500000000000 C
   0.6665966666666666    0.1329033333333333    0.5503600000000000 N
   0.6584233333333334    0.1230033333333333    0.4993000000000000 N
   0.6591000000000000    0.0747866666666667    0.5482000000000000 N
   0.6331933333333333    0.3332100000000000    0.4497000000000000 N
   0.6021633333333334    0.3251233333333333    0.3698700000000000 N
   0.6749600000000000    0.1015300000000000    0.6298700000000000 N
   0.6230533333333332    0.3408700000000000    0.5008400000000000 N
   0.5750366666666666    0.3397900000000000    0.4517100000000000 N
