H4 O4
1.0
  38.2619960605182285    0.0000000000000000   -0.0173627442424513
   0.0666895385232147   38.2109417103163906   -0.0026676310397505
   0.0000000000000000    0.0000000000000000   25.6610000000000014
H O
4 4
direct
   0.6671065686387231    0.1113551646179839    0.5709533051167343 H
   0.6551918638718328    0.0976079301988697    0.4998846246277677 H
   0.5976353588360966    0.3437175237908758    0.5001811708386795 H
   0.6117243976514846    0.3325316537969432    0.4289887914598635 H
   0.6665966666666666    0.1329033333333333    0.5503600000000000 O
   0.6584233333333334    0.1230033333333333    0.4993000000000000 O
   0.6230533333333332    0.3408700000000000    0.5008400000000000 O
   0.6331933333333333    0.3332100000000000    0.4497000000000000 O
