H4 O4
1.0
  38.2619960605182285    0.0000000000000000   -0.0173627442424513
   0.0666895385232147   38.2109417103163906   -0.0026676310397505
   0.0000000000000000    0.0000000000000000   25.6610000000000014
H O
4 4
direct
   0.9781586120701010    0.0378180435801898    0.1524916115414700 H
   0.9781548663080278    0.1295499332846562    0.3473463614641112 H
   0.1884847000143045    0.7961136077114301    0.1525955256845374 H
   0.1891145458503093    0.7031119062469329    0.3461823261041825 H
   0.9837066666666666    0.0473200000000000    0.1180700000000000 O
   0.9837699999999999    0.1200100000000000    0.3817400000000000 O
   0.1825233333333333    0.7867900000000000    0.1182100000000000 O
   0.1836033333333333    0.7124499999999999    0.3807300000000000 O
