H9 O6
1.0
  38.9519617100023225    0.0000000000000000    2.8625037890826892
   8.8091692833323521   24.2827789525540680    1.9127955664395999
   0.0000000000000000    0.0000000000000000   21.1170000000000009
H O
9 6
direct
   0.0918652311421967    0.9336405605902806    0.7045848289759432 H
   0.0972689009151222    0.7825590448621675    0.3166657292120490 H
   0.0844403292830905    0.8228428657673943    0.3872585033405921 H
   0.0441834369743445    0.8782761709370511    0.3666455924371860 H
   0.0454911895690411    0.8505653872791936    0.2969175518575108 H
   0.1102033271380504    0.8690114518207850    0.6199821643725988 H
   0.1424787057018004    0.7940428092131423    0.5096435194181250 H
   0.1119495204460546    0.8359380813316936    0.5461049373535277 H
   0.1036585065561946    0.8210878259128528    0.4638151181919454 H
   0.0702933333333333    0.9460050000000000    0.6790800000000000 O
   0.0968066666666667    0.7934900000000000    0.3583000000000000 O
   0.0334766666666667    0.8802050000000000    0.3256900000000000 O
   0.1315366666666667    0.8557300000000000    0.6460600000000000 O
   0.1328200000000000    0.8036950000000000    0.5341399999999999 O
   0.1268800000000000    0.7930250000000000    0.4749200000000000 O
