H3 C9 O6
1.0
  38.9519617100023225    0.0000000000000000    2.8625037890826892
   8.8091692833323521   24.2827789525540680    1.9127955664395999
   0.0000000000000000    0.0000000000000000   21.1170000000000009
H C O
3 9 6
direct
   0.2608000000000000    0.8850850000000000    0.1855900000000000 H
   0.3198966666666667    0.9656899999999999    0.0564000000000000 H
   0.2577400000000000    0.8767150000000000    0.9833800000000000 H
   0.2691233333333333    0.8951950000000000    0.1372900000000000 C
   0.3046266666666667    0.9463349999999999    0.1836100000000000 C
   0.2919400000000000    0.9270600000000000    0.1271300000000000 C
   0.2335066666666667    0.8411100000000000    0.0950500000000000 C
   0.2894433333333333    0.9232050000000001    0.0130500000000000 C
   0.3023500000000000    0.9407550000000000    0.0648000000000000 C
   0.2673266666666667    0.8906450000000000    0.0237600000000000 C
   0.2572200000000000    0.8761800000000000    0.0857000000000000 C
   0.2982466666666667    0.9396599999999999    0.9458100000000000 C
   0.2857200000000000    0.9470000000000001    0.2360100000000000 O
   0.3332333333333333    0.9595450000000000    0.1777500000000000 O
   0.3172266666666667    0.9710950000000000    0.9356000000000000 O
   0.2236566666666666    0.8268900000000000    0.1502200000000000 O
   0.2238000000000000    0.8266100000000001    0.0439600000000000 O
   0.2857233333333333    0.9222900000000001    0.9005500000000000 O
