H2 O2
1.0
  36.9278441978257561    0.0000000000000000   -2.2935396009458366
   0.0068751034626216   13.7929981521057332   -0.0019258661035602
   0.0000000000000000    0.0000000000000000   17.5680000000000014
H O
2 2
direct
   0.4949737857086988    0.6666233935036728    0.9123412605421984 H
   0.5037975349209014    0.6947198155027242    0.0207343592831413 H
   0.4979600000000000    0.6040900000000000    0.9382800000000000 O
   0.5040666666666667    0.6240400000000000    0.0159700000000000 O
