H8 C14 O5
1.0
  36.9278441978257561    0.0000000000000000   -2.2935396009458366
   0.0068751034626216   13.7929981521057332   -0.0019258661035602
   0.0000000000000000    0.0000000000000000   17.5680000000000014
H C O
8 14 5
direct
   0.0102366666666667    0.2091900000000000    0.7081200000000000 H
   0.0111166666666667    0.2734100000000000    0.5749900000000000 H
   0.9506766666666666    0.0244300000000000    0.4917100000000000 H
   0.9500966666666666    0.9605500000000000    0.6244800000000000 H
   0.9117799999999999    0.2127700000000000    0.4696200000000000 H
   0.8639133333333333    0.1876600000000000    0.3644200000000000 H
   0.9456499999999999    0.1088800000000000    0.2124300000000000 H
   0.9937766666666666    0.1366800000000000    0.3162300000000000 H
   0.9780333333333333    0.0433500000000000    0.7538700000000000 C
   0.9795999999999999    0.0813500000000000    0.6750000000000000 C
   0.9970933333333333    0.1692300000000000    0.6606500000000000 C
   0.9977600000000000    0.2051400000000000    0.5868100000000001 C
   0.9804966666666666    0.1534900000000000    0.5263200000000000 C
   0.9633799999999999    0.0649300000000000    0.5393700000000000 C
   0.9631099999999999    0.0295200000000000    0.6134500000000001 C
   0.9552799999999999    0.1743300000000000    0.3986600000000000 C
   0.9189466666666666    0.1897100000000000    0.4131600000000000 C
   0.8923433333333333    0.1754000000000000    0.3546800000000000 C
   0.9017866666666666    0.1453800000000000    0.2821600000000000 C
   0.9384466666666667    0.1318600000000000    0.2687900000000000 C
   0.9653266666666667    0.1468300000000000    0.3265000000000000 C
   0.8730199999999999    0.1296300000000000    0.2199300000000000 C
   0.9830366666666666    0.1918900000000000    0.4542900000000000 O
   0.8405333333333332    0.1500800000000000    0.2298400000000000 O
   0.8840966666666666    0.0959700000000000    0.1560800000000000 O
   0.9660700000000000   -0.0405100000000000    0.7663500000000000 O
   0.9893666666666666    0.0996500000000000    0.8101100000000000 O
