H6 O4
1.0
  15.2490616118470133    0.0000000000000000    7.9608368880472504
   7.6121268638710138   16.4409020114668891    3.9724765144273877
   0.0000000000000000    0.0000000000000000   18.5560000000000009
H O
6 4
direct
   0.8198506679973814    0.1016519419537993    0.1016928293701670 H
  -0.1069947376108264    0.9586160133812338    0.9585160885608052 H
  -0.1825634329794159    1.0382430159499818    1.0382176495145468 H
   0.1800641113326351    0.8985641348033644    0.8984177961680350 H
   1.1068966203543322    0.0416020148519829    0.0415965095548804 H
   1.1824687789599750   -0.0380147886032285   -0.0380990568037471 H
   0.8836700000000000    0.0652300000000000    0.0652400000000000 O
  -0.0696799999999999    0.9738200000000000    0.9737400000000000 O
   0.1162400000000000    0.9349800000000000    0.9348700000000000 O
   1.0695900000000000    0.0263900000000000    0.0263700000000000 O
