K16 Y16 H6 C62 O128
1.0
  15.2490616118470133    0.0000000000000000    7.9608368880472504
   7.6121268638710138   16.4409020114668891    3.9724765144273877
   0.0000000000000000    0.0000000000000000   18.5560000000000009
K Y H C O
16 16 6 62 128
direct
   0.3123000000000000    0.8752500000000000    0.8752100000000000 K
   0.6876200000000000    0.1249500000000000    0.1249000000000000 K
   0.3123000000000000    0.3752600000000000    0.8752100000000000 K
   0.3123000000000000    0.3752600000000000    0.3752000000000000 K
   0.6876200000000000    0.1249500000000000    0.6248800000000000 K
   0.8123100000000000    0.8752500000000000    0.3752200000000000 K
   0.3123000000000000    0.8752500000000000    0.3752200000000000 K
   0.8123100000000000    0.8752500000000000    0.8752100000000000 K
   0.6876200000000000    0.6249400000000001    0.1249000000000000 K
   0.6876200000000000    0.6249400000000001    0.6248800000000000 K
   0.1876100000000000    0.6249400000000001    0.6248800000000000 K
   0.1876100000000000    0.6249400000000001    0.1249000000000000 K
   0.8123100000000000    0.3752600000000000    0.3752200000000000 K
   0.1876100000000000    0.1249500000000000    0.6248800000000000 K
   0.1876100000000000    0.1249500000000000    0.1249000000000000 K
   0.8123100000000000    0.3752600000000000    0.8752100000000000 K
   0.9374100000000000    0.1251600000000000    0.1251300000000000 Y
   0.0625100000000000    0.8750300000000000    0.8749700000000000 Y
   0.4374000000000000    0.6251600000000000    0.6251200000000000 Y
   0.5625200000000000    0.3750400000000000    0.3749900000000000 Y
   0.4374000000000000    0.1251600000000000    0.1251300000000000 Y
   0.5625200000000000    0.8750300000000000    0.3749000000000000 Y
   0.9374100000000000    0.6251600000000000    0.1251300000000000 Y
   0.5625200000000000    0.8750300000000000    0.8749700000000000 Y
   0.4374000000000000    0.6251600000000000    0.1251300000000000 Y
   0.0625100000000000    0.8750300000000000    0.3749900000000000 Y
   0.5625200000000000    0.3750400000000000    0.8749700000000000 Y
   0.9374100000000000    0.1251700000000000    0.6251200000000000 Y
   0.0625100000000000    0.3750400000000000    0.3749900000000000 Y
   0.9374100000000000    0.6251600000000000    0.6251200000000000 Y
   0.0625100000000000    0.3750400000000000    0.8749000000000000 Y
   0.4374000000000000    0.1251600000000000    0.6251200000000000 Y
   0.1800641113326351    0.8985641348033644    0.8984177961680350 H
   1.1068966203543322    0.0416020148519829    0.0415965095548804 H
   1.1824687789599750   -0.0380147886032285   -0.0380990568037471 H
   0.8198506679973814    0.1016519419537993    0.1016928293701670 H
  -0.1069947376108264    0.9586160133812338    0.9585160885608052 H
  -0.1825634329794159    1.0382430159499818    1.0382176495145468 H
   0.9465800000000000    0.5111100000000000    0.0110900000000000 C
   0.0533200000000000    0.4890900000000000    0.9890200000000000 C
   0.4465700000000000    0.0111200000000000    0.5110800000000000 C
   0.5533300000000000    0.9890800000000000    0.4890400000000000 C
   0.0423300000000000    0.5111300000000000    0.2389800000000000 C
   0.9576100000000000    0.4890500000000000    0.2611200000000000 C
   0.4576100000000000    0.7611500000000000    0.4890000000000000 C
   0.5423300000000000    0.7390400000000000    0.5110900000000000 C
   0.9576100000000000    0.2611600000000000    0.9889900000000000 C
   0.0423100000000000    0.2390400000000000    0.0111000000000000 C
   0.5423400000000000    0.5111400000000000    0.7389000000000000 C
   0.4576000000000000    0.4890500000000000    0.7611100000000000 C
   0.0423200000000000    0.7390300000000000    0.0111100000000000 C
   0.9576200000000000    0.7611500000000000    0.9889800000000000 C
   0.9576100000000000    0.9890400000000000    0.2611200000000000 C
   0.0423300000000000    0.0111400000000000    0.2389800000000000 C
   0.2187000000000000    0.7390000000000000    0.7389400000000000 C
   0.2812200000000000    0.7611900000000000    0.7611000000000000 C
   0.4465700000000000    0.5111200000000000    0.5110800000000000 C
   0.5533300000000000    0.4890900000000000    0.4890300000000000 C
   0.5423300000000000    0.2390400000000000    0.5111000000000000 C
   0.4576000000000000    0.2611600000000000    0.4890000000000000 C
   0.4576000000000000    0.4890400000000000    0.2611200000000000 C
   0.5423400000000000    0.5111300000000000    0.2389800000000000 C
   0.7187100000000000    0.2390000000000000    0.2389600000000000 C
   0.7812200000000000    0.2611900000000000    0.2611800000000000 C
   0.4465700000000000    0.0111200000000000    0.0110900000000000 C
   0.5533300000000000    0.9890900000000000    0.9890200000000000 C
   0.4576000000000000    0.9890400000000000    0.2611200000000000 C
   0.5423400000000000    0.0111400000000000    0.2389800000000000 C
   0.7187100000000000    0.7390000000000000    0.2389500000000000 C
   0.7812300000000000    0.7611900000000000    0.2611700000000000 C
   0.7187100000000000    0.7390000000000000    0.7389400000000000 C
   0.7812300000000000    0.7611900000000000    0.7611599999999999 C
   0.5533300000000000    0.4890900000000000    0.9890200000000000 C
   0.4465700000000000    0.5111100000000000    0.0110900000000000 C
   0.4576100000000000    0.7611500000000000    0.9889000000000000 C
   0.5423300000000000    0.7390300000000000    0.0111100000000000 C
   0.5423300000000000    0.2390500000000000    0.0111100000000000 C
   0.4576000000000000    0.2611600000000000    0.9889900000000000 C
   0.9576200000000000    0.7611400000000000    0.4890000000000000 C
   0.0423200000000000    0.7390300000000000    0.5110000000000000 C
   0.2812200000000000    0.7611900000000000    0.2611700000000000 C
   0.2187000000000000    0.7390000000000000    0.2389600000000000 C
   0.0533200000000000    0.9890800000000000    0.4890000000000000 C
   0.9465900000000000    0.0111200000000000    0.5110800000000000 C
   0.0423300000000000    0.0111500000000000    0.7389700000000000 C
   0.9576100000000000    0.9890400000000000    0.7611100000000000 C
   0.7812200000000000    0.2612000000000000    0.7611599999999999 C
   0.7187100000000000    0.2390000000000000    0.7389500000000000 C
   0.0423200000000000    0.2390500000000000    0.5111000000000000 C
   0.9576100000000000    0.2611600000000000    0.4890000000000000 C
   0.2187000000000000    0.2390000000000000    0.2389600000000000 C
   0.2812100000000000    0.2611900000000000    0.2611700000000000 C
   0.9465900000000000    0.5111200000000000    0.5110800000000000 C
   0.0533200000000000    0.4890900000000000    0.4890300000000000 C
   0.4576000000000000    0.9890400000000000    0.7611100000000000 C
   0.5423400000000000    0.0111400000000000    0.7389700000000000 C
   0.0423300000000000    0.5111400000000000    0.7389700000000000 C
   0.9576100000000000    0.4890500000000000    0.7611100000000000 C
   0.2812100000000000    0.2612000000000000    0.7611599999999999 C
   0.2187000000000000    0.2390000000000000    0.7389500000000000 C
   0.9303200000000000    0.4738200000000000    0.9737400000000000 O
   0.8836700000000000    0.5652199999999999    0.0652000000000000 O
   0.0695900000000000    0.5263800000000000    0.0263000000000000 O
   0.1162400000000000    0.4349800000000000    0.9348700000000000 O
   0.4303100000000000    0.9738100000000000    0.4737500000000000 O
   0.3836600000000000    0.0652300000000000    0.5652300000000000 O
   0.5696000000000000    0.0263900000000000    0.5263000000000000 O
   0.6162500000000000    0.9349700000000000    0.4348900000000000 O
   0.0959700000000000    0.4738200000000000    0.2761700000000000 O
   0.0510400000000000    0.5653400000000000    0.1849200000000000 O
   0.9039600000000000    0.5263700000000000    0.2239400000000000 O
   0.9489000000000000    0.4348400000000000    0.3151800000000000 O
   0.4039500000000000    0.7239600000000000    0.5263300000000000 O
   0.4489300000000000    0.8151700000000000    0.4347600000000000 O
   0.5959800000000000    0.7762200000000000    0.4737600000000000 O
   0.5510100000000000    0.6850100000000000    0.5653300000000000 O
   0.9039600000000000    0.2239700000000000    0.0263500000000000 O
   0.9489400000000000    0.3151800000000000    0.9347500000000000 O
   0.0959600000000000    0.2762400000000000    0.9737600000000000 O
   0.0509900000000000    0.1850200000000000    0.0653500000000000 O
   0.5959900000000000    0.4738200000000000    0.7761000000000000 O
   0.5510500000000000    0.5653400000000000    0.6849000000000000 O
   0.4039500000000000    0.5263700000000000    0.7239200000000000 O
   0.4488900000000000    0.4348400000000000    0.8151700000000000 O
   0.0959700000000000    0.7762300000000000    0.9737500000000000 O
   0.0510000000000000    0.6850100000000000    0.0653500000000000 O
   0.9039700000000001    0.7239600000000000    0.0263400000000000 O
   0.9489400000000000    0.8151700000000000    0.9347400000000000 O
   0.9039700000000001    0.0263700000000000    0.2239300000000000 O
   0.9489100000000000    0.9348300000000000    0.3151800000000000 O
   0.0959700000000000    0.9738200000000000    0.2761800000000000 O
   0.0510400000000000    0.0653500000000000    0.1849200000000000 O
   0.1279100000000000    0.7762000000000000    0.7761500000000000 O
   0.2640900000000000    0.6848600000000000    0.6847900000000000 O
   0.3720100000000000    0.7239900000000000    0.7239500000000000 O
   0.2358400000000000    0.8153300000000000    0.8153100000000000 O
   0.1162400000000000    0.9349800000000000    0.9348700000000000 O
   1.0695900000000000    0.0263900000000000    0.0263700000000000 O
   0.4303100000000000    0.4738200000000000    0.4737600000000000 O
   0.3836600000000000    0.5652199999999999    0.5652300000000000 O
   0.5696000000000000    0.5263900000000000    0.5263500000000000 O
   0.6162500000000000    0.4349800000000000    0.4348900000000000 O
   0.5959700000000000    0.2762300000000000    0.4737700000000000 O
   0.5510100000000000    0.1850200000000000    0.5653400000000000 O
   0.4039500000000000    0.2239700000000000    0.5263400000000000 O
   0.4489200000000000    0.3151800000000000    0.4347600000000000 O
   0.4039500000000000    0.5263700000000000    0.2239400000000000 O
   0.4488900000000000    0.4348400000000000    0.3151800000000000 O
   0.5959800000000000    0.4738100000000000    0.2761700000000000 O
   0.5510500000000000    0.5653400000000000    0.1849200000000000 O
   0.6279200000000000    0.2762000000000000    0.2761700000000000 O
   0.7640900000000000    0.1848600000000000    0.1848100000000000 O
   0.8720100000000000    0.2239900000000000    0.2239700000000000 O
   0.7358400000000000    0.3153300000000000    0.3153300000000000 O
   0.8836700000000000    0.0652300000000000    0.0652400000000000 O
  -0.0696799999999999    0.9738200000000000    0.9737400000000000 O
   0.4303100000000000    0.9738100000000000    0.9737400000000000 O
   0.3836600000000000    0.0652300000000000    0.0652400000000000 O
   0.5696000000000000    0.0263900000000000    0.0263700000000000 O
   0.6162500000000000    0.9349800000000000    0.9348700000000000 O
   0.4039600000000000    0.0263700000000000    0.2239300000000000 O
   0.4489000000000000    0.9348300000000000    0.3151800000000000 O
   0.5959800000000000    0.9738200000000000    0.2761700000000000 O
   0.5510500000000000    0.0653500000000000    0.1849200000000000 O
   0.6279200000000000    0.7762000000000000    0.2761600000000000 O
   0.7641000000000000    0.6848600000000000    0.1848000000000000 O
   0.8720200000000000    0.7239900000000000    0.2239600000000000 O
   0.7358500000000000    0.8153300000000000    0.3153200000000000 O
   0.6279200000000000    0.7762000000000000    0.7761500000000000 O
   0.7641000000000000    0.6848600000000000    0.6847900000000000 O
   0.8720200000000000    0.7239900000000000    0.7239500000000000 O
   0.7358500000000000    0.8153300000000000    0.8153100000000000 O
   0.5696000000000000    0.5263800000000000    0.0263700000000000 O
   0.6162500000000000    0.4349900000000000    0.9348700000000000 O
   0.4303100000000000    0.4738200000000000    0.9737400000000000 O
   0.3836600000000000    0.5652199999999999    0.0652500000000000 O
   0.4039600000000000    0.7239500000000000    0.0263500000000000 O
   0.4489300000000000    0.8151700000000000    0.9347400000000000 O
   0.5959800000000000    0.7762300000000000    0.9737500000000000 O
   0.5510100000000000    0.6850100000000000    0.0653500000000000 O
   0.5959700000000000    0.2762400000000000    0.9737500000000000 O
   0.5510000000000000    0.1850200000000000    0.0653500000000000 O
   0.4039500000000000    0.2239700000000000    0.0263500000000000 O
   0.4489300000000000    0.3151800000000000    0.9347000000000000 O
   0.9039700000000001    0.7239600000000000    0.5263000000000000 O
   0.9489400000000000    0.8151700000000000    0.4347600000000000 O
   0.0959700000000000    0.7762200000000000    0.4737600000000000 O
   0.0510000000000000    0.6850100000000000    0.5653300000000000 O
   0.3720100000000000    0.7239900000000000    0.2239600000000000 O
   0.2358400000000000    0.8153300000000000    0.3153200000000000 O
   0.1279100000000000    0.7762000000000000    0.2761600000000000 O
   0.2640900000000000    0.6848600000000000    0.1848000000000000 O
   0.0695900000000000    0.0263900000000000    0.5263500000000000 O
   0.1162400000000000    0.9349700000000000    0.4348900000000000 O
   0.9303200000000000    0.9738100000000000    0.4737500000000000 O
   0.8836700000000000    0.0652300000000000    0.5652300000000000 O
   0.0959700000000000    0.9738200000000000    0.7761600000000000 O
   0.0510400000000000    0.0653500000000000    0.6849100000000000 O
   0.9039700000000001    0.0263700000000000    0.7239000000000000 O
   0.9489100000000000    0.9348300000000000    0.8151600000000000 O
   0.8720100000000000    0.2239900000000000    0.7239500000000000 O
   0.7358400000000000    0.3153400000000000    0.8153100000000000 O
   0.6279200000000000    0.2762100000000000    0.7761500000000000 O
   0.7640900000000000    0.1848700000000000    0.6847900000000000 O
   0.0959600000000000    0.2762400000000000    0.4737700000000000 O
   0.0510000000000000    0.1850200000000000    0.5653000000000000 O
   0.9039600000000000    0.2239700000000000    0.5263400000000000 O
   0.9489300000000001    0.3151800000000000    0.4347600000000000 O
   0.1279100000000000    0.2762000000000000    0.2761700000000000 O
   0.2640800000000000    0.1848700000000000    0.1848000000000000 O
   0.3720000000000000    0.2239900000000000    0.2239700000000000 O
   0.2358300000000000    0.3153300000000000    0.3153300000000000 O
   0.9303200000000000    0.4738200000000000    0.4737000000000000 O
   0.8836700000000000    0.5652199999999999    0.5652300000000000 O
   0.0695900000000000    0.5263800000000000    0.5263500000000000 O
   0.1162400000000000    0.4349800000000000    0.4348800000000000 O
   0.4039600000000000    0.0263700000000000    0.7239200000000000 O
   0.4489000000000000    0.9348300000000000    0.8151700000000000 O
   0.5959800000000000    0.9738200000000000    0.7761600000000000 O
   0.5510500000000000    0.0653500000000000    0.6849100000000000 O
   0.0959800000000000    0.4738200000000000    0.7761600000000000 O
   0.0510400000000000    0.5653400000000000    0.6849000000000000 O
   0.9039600000000000    0.5263700000000000    0.7239200000000000 O
   0.9489100000000000    0.4348400000000000    0.8151700000000000 O
   0.3720000000000000    0.2239900000000000    0.7239000000000000 O
   0.2358300000000000    0.3153300000000000    0.8153000000000000 O
   0.1279100000000000    0.2762000000000000    0.7761500000000000 O
   0.2640800000000000    0.1848600000000000    0.6847900000000000 O
