C2 O4
1.0
  15.2490616118470133    0.0000000000000000    7.9608368880472504
   7.6121268638710138   16.4409020114668891    3.9724765144273877
   0.0000000000000000    0.0000000000000000   18.5560000000000009
C O
2 4
direct
   0.0533200000000000    0.9890900000000000    0.9890200000000000 C
   0.9465900000000000    0.0111200000000000    0.0110900000000000 C
   0.1162400000000000    0.9349800000000000    0.9348700000000000 O
   1.0695900000000000    0.0263900000000000    0.0263700000000000 O
   0.8836700000000000    0.0652300000000000    0.0652400000000000 O
  -0.0696799999999999    0.9738200000000000    0.9737400000000000 O
