H1 O1
1.0
  33.7699993776407155    0.0000000000000000   -0.0064833745325512
  -0.0006051929285131    6.9349999735934755    0.0000000000000004
   0.0000000000000000    0.0000000000000000   20.8979999999999997
H O
1 1
direct
   0.1996166343372568    0.7077376217701246    0.0977425349335799 H
   0.1998200000000000    0.8065700000000000    0.0643233333333333 O
