Fe15 Ni15 H61 C119 N89 O1
1.0
  33.7699993776407155    0.0000000000000000   -0.0064833745325512
  -0.0006051929285131    6.9349999735934755    0.0000000000000004
   0.0000000000000000    0.0000000000000000   20.8979999999999997
Fe Ni H C N O
15 15 61 119 89 1
direct
   0.0000260000000000    0.0000200000000000    0.0000200000000000 Fe
   0.0000260000000000    0.0000200000000000    0.6666866666666666 Fe
   0.0000260000000000    0.0000200000000000    0.3333533333333333 Fe
   0.6000260000000001    0.0000200000000000    0.0000200000000000 Fe
   0.6000260000000001    0.0000200000000000    0.6666866666666666 Fe
   0.6000260000000001    0.0000200000000000    0.3333533333333333 Fe
   0.8000260000000000    0.0000200000000000    0.3333533333333333 Fe
   0.8000260000000000    0.0000200000000000    0.6666866666666666 Fe
   0.8000260000000000    0.0000200000000000    0.0000200000000000 Fe
   0.4000260000000000    0.0000200000000000    0.0000200000000000 Fe
   0.4000260000000000    0.0000200000000000    0.6666866666666666 Fe
   0.4000260000000000    0.0000200000000000    0.3333533333333333 Fe
   0.2000260000000000    0.0000200000000000    0.6666866666666666 Fe
   0.2000260000000000    0.0000200000000000    0.3333533333333333 Fe
   0.2000260000000000    0.0000200000000000    0.0000200000000000 Fe
   0.9994140000000000    0.5000400000000000    0.8333766666666667 Ni
   0.9994140000000000    0.5000400000000000    0.5000433333333333 Ni
   0.9994140000000000    0.5000400000000000    0.1667100000000000 Ni
   0.5994140000000000    0.5000400000000000    0.8333766666666667 Ni
   0.5994140000000000    0.5000400000000000    0.5000433333333333 Ni
   0.5994140000000000    0.5000400000000000    0.1667100000000000 Ni
   0.7994140000000001    0.5000400000000000    0.1667100000000000 Ni
   0.7994140000000001    0.5000400000000000    0.5000433333333333 Ni
   0.7994140000000001    0.5000400000000000    0.8333766666666667 Ni
   0.3994140000000000    0.5000400000000000    0.8333766666666667 Ni
   0.3994140000000000    0.5000400000000000    0.5000433333333333 Ni
   0.3994140000000000    0.5000400000000000    0.1667100000000000 Ni
   0.1994140000000000    0.5000400000000000    0.5000433333333333 Ni
   0.1994140000000000    0.5000400000000000    0.1667100000000000 Ni
   0.1994140000000000    0.5000400000000000    0.8333766666666667 Ni
   0.0627280000000000    0.7006200000000000    0.9997733333333333 H
   0.0627560000000000    0.2994300000000000    0.9997400000000000 H
   0.1372680000000000    0.7006200000000000    0.9998466666666666 H
   0.1372960000000000    0.2994300000000000    0.9998333333333334 H
   0.0627280000000000    0.7006200000000000    0.6664399999999999 H
   0.0627560000000000    0.2994300000000000    0.6664066666666666 H
   0.1372680000000000    0.7006200000000000    0.6665133333333333 H
   0.1372960000000000    0.2994300000000000    0.6665000000000000 H
   0.0627280000000000    0.7006200000000000    0.3331066666666667 H
   0.0627560000000000    0.2994300000000000    0.3330733333333333 H
   0.1372680000000000    0.7006200000000000    0.3331800000000000 H
   0.1372960000000000    0.2994300000000000    0.3331666666666667 H
   0.6627280000000001    0.7006200000000000    0.9997733333333333 H
   0.6627560000000001    0.2994300000000000    0.9997400000000000 H
   0.7372680000000000    0.7006200000000000    0.9998466666666666 H
   0.7372960000000001    0.2994300000000000    0.9998333333333334 H
   0.6627280000000001    0.7006200000000000    0.6664399999999999 H
   0.6627560000000001    0.2994300000000000    0.6664066666666666 H
   0.7372680000000000    0.7006200000000000    0.6665133333333333 H
   0.7372960000000001    0.2994300000000000    0.6665000000000000 H
   0.6627280000000001    0.7006200000000000    0.3331066666666667 H
   0.6627560000000001    0.2994300000000000    0.3330733333333333 H
   0.7372680000000000    0.7006200000000000    0.3331800000000000 H
   0.7372960000000001    0.2994300000000000    0.3331666666666667 H
   0.8627280000000001    0.7006200000000000    0.9997733333333333 H
   0.8627560000000001    0.2994300000000000    0.9997400000000000 H
   0.9372680000000000    0.7006200000000000    0.9998466666666666 H
   0.9372960000000000    0.2994300000000000    0.9998333333333334 H
   0.8627280000000001    0.7006200000000000    0.6664399999999999 H
   0.8627560000000001    0.2994300000000000    0.6664066666666666 H
   0.9372680000000000    0.7006200000000000    0.6665133333333333 H
   0.9372960000000000    0.2994300000000000    0.6665000000000000 H
   0.8627280000000001    0.7006200000000000    0.3331066666666667 H
   0.8627560000000001    0.2994300000000000    0.3330733333333333 H
   0.9372680000000000    0.7006200000000000    0.3331800000000000 H
   0.9372960000000000    0.2994300000000000    0.3331666666666667 H
   0.4627280000000000    0.7006200000000000    0.9997733333333333 H
   0.4627560000000001    0.2994300000000000    0.9997400000000000 H
   0.5372680000000001    0.7006200000000000    0.9998466666666666 H
   0.5372960000000000    0.2994300000000000    0.9998333333333334 H
   0.4627280000000000    0.7006200000000000    0.6664399999999999 H
   0.4627560000000001    0.2994300000000000    0.6664066666666666 H
   0.5372680000000001    0.7006200000000000    0.6665133333333333 H
   0.5372960000000000    0.2994300000000000    0.6665000000000000 H
   0.4627280000000000    0.7006200000000000    0.3331066666666667 H
   0.4627560000000001    0.2994300000000000    0.3330733333333333 H
   0.5372680000000001    0.7006200000000000    0.3331800000000000 H
   0.5372960000000000    0.2994300000000000    0.3331666666666667 H
   0.2627280000000000    0.7006200000000000    0.9997733333333333 H
   0.2627560000000000    0.2994300000000000    0.9997400000000000 H
   0.3372680000000000    0.7006200000000000    0.9998466666666666 H
   0.3372960000000000    0.2994300000000000    0.9998333333333334 H
   0.2627280000000000    0.7006200000000000    0.6664399999999999 H
   0.2627560000000000    0.2994300000000000    0.6664066666666666 H
   0.3372680000000000    0.7006200000000000    0.6665133333333333 H
   0.3372960000000000    0.2994300000000000    0.6665000000000000 H
   0.2627280000000000    0.7006200000000000    0.3331066666666667 H
   0.2627560000000000    0.2994300000000000    0.3330733333333333 H
   0.3372680000000000    0.7006200000000000    0.3331800000000000 H
   0.3372960000000000    0.2994300000000000    0.3331666666666667 H
   0.1996166343372568    0.7077376217701246    0.0977425349335799 H
   0.0794980000000000    0.8343000000000000    0.9997733333333333 C
   0.0795220000000000    0.1657400000000000    0.9997266666666667 C
   0.1205020000000000    0.8343100000000000    0.9997933333333333 C
   0.1205260000000000    0.1657400000000000    0.9997866666666666 C
   0.0794980000000000    0.8343000000000000    0.6664399999999999 C
   0.0795220000000000    0.1657400000000000    0.6663933333333333 C
   0.1205020000000000    0.8343100000000000    0.6664600000000001 C
   0.1205260000000000    0.1657400000000000    0.6664533333333333 C
   0.0794980000000000    0.8343000000000000    0.3331066666666667 C
   0.0795220000000000    0.1657400000000000    0.3330600000000000 C
   0.1205020000000000    0.8343100000000000    0.3331266666666667 C
   0.1205260000000000    0.1657400000000000    0.3331200000000000 C
   0.9995820000000001    0.3120700000000000    0.7710866666666666 C
   0.9995760000000000    0.6879900000000000    0.7710866666666666 C
   0.9995800000000000    0.3120600000000000    0.8956499999999999 C
   0.9995740000000001    0.6879999999999999    0.8956533333333333 C
   0.9995820000000001    0.3120700000000000    0.4377533333333333 C
   0.9995760000000000    0.6879900000000000    0.4377533333333333 C
   0.9995800000000000    0.3120600000000000    0.5623166666666666 C
   0.9995740000000001    0.6879999999999999    0.5623199999999999 C
   0.9995820000000001    0.3120700000000000    0.1044200000000000 C
   0.9995760000000000    0.6879900000000000    0.1044200000000000 C
   0.9995800000000000    0.3120600000000000    0.2289833333333333 C
   0.9995740000000001    0.6879999999999999    0.2289866666666667 C
   0.6794980000000002    0.8343000000000000    0.9997733333333333 C
   0.6795220000000001    0.1657400000000000    0.9997266666666667 C
   0.7205020000000001    0.8343100000000000    0.9997933333333333 C
   0.7205260000000001    0.1657400000000000    0.9997866666666666 C
   0.6794980000000002    0.8343000000000000    0.6664399999999999 C
   0.6795220000000001    0.1657400000000000    0.6663933333333333 C
   0.7205020000000001    0.8343100000000000    0.6664600000000001 C
   0.7205260000000001    0.1657400000000000    0.6664533333333333 C
   0.6794980000000002    0.8343000000000000    0.3331066666666667 C
   0.6795220000000001    0.1657400000000000    0.3330600000000000 C
   0.7205020000000001    0.8343100000000000    0.3331266666666667 C
   0.7205260000000001    0.1657400000000000    0.3331200000000000 C
   0.5995820000000001    0.3120700000000000    0.7710866666666666 C
   0.5995760000000000    0.6879900000000000    0.7710866666666666 C
   0.5995800000000000    0.3120600000000000    0.8956499999999999 C
   0.5995740000000001    0.6879999999999999    0.8956533333333333 C
   0.5995820000000001    0.3120700000000000    0.4377533333333333 C
   0.5995760000000000    0.6879900000000000    0.4377533333333333 C
   0.5995800000000000    0.3120600000000000    0.5623166666666666 C
   0.5995740000000001    0.6879999999999999    0.5623199999999999 C
   0.5995820000000001    0.3120700000000000    0.1044200000000000 C
   0.5995760000000000    0.6879900000000000    0.1044200000000000 C
   0.5995800000000000    0.3120600000000000    0.2289833333333333 C
   0.5995740000000001    0.6879999999999999    0.2289866666666667 C
   0.8794980000000001    0.8343000000000000    0.9997733333333333 C
   0.8795220000000000    0.1657400000000000    0.9997266666666667 C
   0.9205020000000000    0.8343100000000000    0.9997933333333333 C
   0.9205260000000001    0.1657400000000000    0.9997866666666666 C
   0.8794980000000001    0.8343000000000000    0.6664399999999999 C
   0.8795220000000000    0.1657400000000000    0.6663933333333333 C
   0.9205020000000000    0.8343100000000000    0.6664600000000001 C
   0.9205260000000001    0.1657400000000000    0.6664533333333333 C
   0.8794980000000001    0.8343000000000000    0.3331066666666667 C
   0.8795220000000000    0.1657400000000000    0.3330600000000000 C
   0.9205020000000000    0.8343100000000000    0.3331266666666667 C
   0.9205260000000001    0.1657400000000000    0.3331200000000000 C
   0.7995820000000001    0.3120700000000000    0.1044200000000000 C
   0.7995760000000001    0.6879900000000000    0.1044200000000000 C
   0.7995800000000001    0.3120600000000000    0.2289833333333333 C
   0.7995740000000001    0.6879999999999999    0.2289866666666667 C
   0.7995820000000001    0.3120700000000000    0.4377533333333333 C
   0.7995760000000001    0.6879900000000000    0.4377533333333333 C
   0.7995800000000001    0.3120600000000000    0.5623166666666666 C
   0.7995740000000001    0.6879999999999999    0.5623199999999999 C
   0.7995820000000001    0.3120700000000000    0.7710866666666666 C
   0.7995760000000001    0.6879900000000000    0.7710866666666666 C
   0.7995800000000001    0.3120600000000000    0.8956499999999999 C
   0.7995740000000001    0.6879999999999999    0.8956533333333333 C
   0.4794980000000000    0.8343000000000000    0.9997733333333333 C
   0.4795220000000000    0.1657400000000000    0.9997266666666667 C
   0.5205020000000000    0.8343100000000000    0.9997933333333333 C
   0.5205260000000000    0.1657400000000000    0.9997866666666666 C
   0.4794980000000000    0.8343000000000000    0.6664399999999999 C
   0.4795220000000000    0.1657400000000000    0.6663933333333333 C
   0.5205020000000000    0.8343100000000000    0.6664600000000001 C
   0.5205260000000000    0.1657400000000000    0.6664533333333333 C
   0.4794980000000000    0.8343000000000000    0.3331066666666667 C
   0.4795220000000000    0.1657400000000000    0.3330600000000000 C
   0.5205020000000000    0.8343100000000000    0.3331266666666667 C
   0.5205260000000000    0.1657400000000000    0.3331200000000000 C
   0.3995820000000000    0.3120700000000000    0.7710866666666666 C
   0.3995760000000000    0.6879900000000000    0.7710866666666666 C
   0.3995800000000000    0.3120600000000000    0.8956499999999999 C
   0.3995740000000000    0.6879999999999999    0.8956533333333333 C
   0.3995820000000000    0.3120700000000000    0.4377533333333333 C
   0.3995760000000000    0.6879900000000000    0.4377533333333333 C
   0.3995800000000000    0.3120600000000000    0.5623166666666666 C
   0.3995740000000000    0.6879999999999999    0.5623199999999999 C
   0.3995820000000000    0.3120700000000000    0.1044200000000000 C
   0.3995760000000000    0.6879900000000000    0.1044200000000000 C
   0.3995800000000000    0.3120600000000000    0.2289833333333333 C
   0.3995740000000000    0.6879999999999999    0.2289866666666667 C
   0.2794980000000000    0.8343000000000000    0.9997733333333333 C
   0.2795220000000000    0.1657400000000000    0.9997266666666667 C
   0.3205020000000000    0.8343100000000000    0.9997933333333333 C
   0.3205260000000000    0.1657400000000000    0.9997866666666666 C
   0.2794980000000000    0.8343000000000000    0.6664399999999999 C
   0.2795220000000000    0.1657400000000000    0.6663933333333333 C
   0.3205020000000000    0.8343100000000000    0.6664600000000001 C
   0.3205260000000000    0.1657400000000000    0.6664533333333333 C
   0.2794980000000000    0.8343000000000000    0.3331066666666667 C
   0.2795220000000000    0.1657400000000000    0.3330600000000000 C
   0.3205020000000000    0.8343100000000000    0.3331266666666667 C
   0.3205260000000000    0.1657400000000000    0.3331200000000000 C
   0.1995820000000000    0.3120700000000000    0.4377533333333333 C
   0.1995760000000000    0.6879900000000000    0.4377533333333333 C
   0.1995800000000000    0.3120600000000000    0.5623166666666666 C
   0.1995740000000000    0.6879999999999999    0.5623199999999999 C
   0.1995820000000000    0.3120700000000000    0.1044200000000000 C
   0.1995800000000000    0.3120600000000000    0.2289833333333333 C
   0.1995740000000000    0.6879999999999999    0.2289866666666667 C
   0.1995820000000000    0.3120700000000000    0.7710866666666666 C
   0.1995760000000000    0.6879900000000000    0.7710866666666666 C
   0.1995800000000000    0.3120600000000000    0.8956499999999999 C
   0.1995740000000000    0.6879999999999999    0.8956533333333333 C
   0.0583640000000000    0.0000700000000000    0.9997266666666667 N
   0.1416840000000000    0.0000800000000000    0.9997866666666666 N
   0.0583640000000000    0.0000700000000000    0.6663933333333333 N
   0.1416840000000000    0.0000800000000000    0.6664533333333333 N
   0.0583640000000000    0.0000700000000000    0.3330600000000000 N
   0.1416840000000000    0.0000800000000000    0.3331200000000000 N
   0.9998300000000000    0.1934700000000000    0.7309966666666666 N
   0.9998200000000000    0.8065700000000000    0.7309899999999999 N
   0.9998220000000001    0.1934200000000000    0.9357266666666666 N
   0.9998100000000001    0.8066300000000000    0.9357333333333333 N
   0.9998300000000000    0.1934700000000000    0.3976633333333333 N
   0.9998200000000000    0.8065700000000000    0.3976566666666667 N
   0.9998220000000001    0.1934200000000000    0.6023933333333333 N
   0.9998100000000001    0.8066300000000000    0.6024000000000000 N
   0.9998300000000000    0.1934700000000000    0.0643300000000000 N
   0.9998200000000000    0.8065700000000000    0.0643233333333333 N
   0.9998220000000001    0.1934200000000000    0.2690600000000000 N
   0.9998100000000001    0.8066300000000000    0.2690666666666667 N
   0.6583640000000001    0.0000700000000000    0.9997266666666667 N
   0.7416840000000001    0.0000800000000000    0.9997866666666666 N
   0.6583640000000001    0.0000700000000000    0.6663933333333333 N
   0.7416840000000001    0.0000800000000000    0.6664533333333333 N
   0.6583640000000001    0.0000700000000000    0.3330600000000000 N
   0.7416840000000001    0.0000800000000000    0.3331200000000000 N
   0.5998300000000001    0.1934700000000000    0.7309966666666666 N
   0.5998200000000000    0.8065700000000000    0.7309899999999999 N
   0.5998220000000001    0.1934200000000000    0.9357266666666666 N
   0.5998100000000001    0.8066300000000000    0.9357333333333333 N
   0.5998300000000001    0.1934700000000000    0.3976633333333333 N
   0.5998200000000000    0.8065700000000000    0.3976566666666667 N
   0.5998220000000001    0.1934200000000000    0.6023933333333333 N
   0.5998100000000001    0.8066300000000000    0.6024000000000000 N
   0.5998300000000001    0.1934700000000000    0.0643300000000000 N
   0.5998200000000000    0.8065700000000000    0.0643233333333333 N
   0.5998220000000001    0.1934200000000000    0.2690600000000000 N
   0.5998100000000001    0.8066300000000000    0.2690666666666667 N
   0.8583640000000000    0.0000700000000000    0.9997266666666667 N
   0.9416840000000001    0.0000800000000000    0.9997866666666666 N
   0.8583640000000000    0.0000700000000000    0.6663933333333333 N
   0.9416840000000001    0.0000800000000000    0.6664533333333333 N
   0.8583640000000000    0.0000700000000000    0.3330600000000000 N
   0.9416840000000001    0.0000800000000000    0.3331200000000000 N
   0.7998300000000000    0.1934700000000000    0.0643300000000000 N
   0.7998200000000001    0.8065700000000000    0.0643233333333333 N
   0.7998220000000001    0.1934200000000000    0.2690600000000000 N
   0.7998100000000001    0.8066300000000000    0.2690666666666667 N
   0.7998300000000000    0.1934700000000000    0.3976633333333333 N
   0.7998200000000001    0.8065700000000000    0.3976566666666667 N
   0.7998220000000001    0.1934200000000000    0.6023933333333333 N
   0.7998100000000001    0.8066300000000000    0.6024000000000000 N
   0.7998300000000000    0.1934700000000000    0.7309966666666666 N
   0.7998200000000001    0.8065700000000000    0.7309899999999999 N
   0.7998220000000001    0.1934200000000000    0.9357266666666666 N
   0.7998100000000001    0.8066300000000000    0.9357333333333333 N
   0.4583640000000000    0.0000700000000000    0.9997266666666667 N
   0.5416840000000001    0.0000800000000000    0.9997866666666666 N
   0.4583640000000000    0.0000700000000000    0.6663933333333333 N
   0.5416840000000001    0.0000800000000000    0.6664533333333333 N
   0.4583640000000000    0.0000700000000000    0.3330600000000000 N
   0.5416840000000001    0.0000800000000000    0.3331200000000000 N
   0.3998300000000000    0.1934700000000000    0.7309966666666666 N
   0.3998200000000000    0.8065700000000000    0.7309899999999999 N
   0.3998220000000000    0.1934200000000000    0.9357266666666666 N
   0.3998100000000000    0.8066300000000000    0.9357333333333333 N
   0.3998300000000000    0.1934700000000000    0.3976633333333333 N
   0.3998200000000000    0.8065700000000000    0.3976566666666667 N
   0.3998220000000000    0.1934200000000000    0.6023933333333333 N
   0.3998100000000000    0.8066300000000000    0.6024000000000000 N
   0.3998300000000000    0.1934700000000000    0.0643300000000000 N
   0.3998200000000000    0.8065700000000000    0.0643233333333333 N
   0.3998220000000000    0.1934200000000000    0.2690600000000000 N
   0.3998100000000000    0.8066300000000000    0.2690666666666667 N
   0.2583640000000000    0.0000700000000000    0.9997266666666667 N
   0.3416840000000000    0.0000800000000000    0.9997866666666666 N
   0.2583640000000000    0.0000700000000000    0.6663933333333333 N
   0.3416840000000000    0.0000800000000000    0.6664533333333333 N
   0.2583640000000000    0.0000700000000000    0.3330600000000000 N
   0.3416840000000000    0.0000800000000000    0.3331200000000000 N
   0.1998300000000000    0.1934700000000000    0.3976633333333333 N
   0.1998200000000000    0.8065700000000000    0.3976566666666667 N
   0.1998220000000000    0.1934200000000000    0.6023933333333333 N
   0.1998100000000000    0.8066300000000000    0.6024000000000000 N
   0.1998300000000000    0.1934700000000000    0.0643300000000000 N
   0.1998220000000000    0.1934200000000000    0.2690600000000000 N
   0.1998100000000000    0.8066300000000000    0.2690666666666667 N
   0.1998300000000000    0.1934700000000000    0.7309966666666666 N
   0.1998200000000000    0.8065700000000000    0.7309899999999999 N
   0.1998220000000000    0.1934200000000000    0.9357266666666666 N
   0.1998100000000000    0.8066300000000000    0.9357333333333333 N
   0.1998200000000000    0.8065700000000000    0.0643233333333333 O
