H3 O2
1.0
  20.6490000000000009    0.0000000000000000    0.0000000000000013
  -0.1579154704354899   27.4175440279504521    0.0081350842439382
   0.0000000000000000    0.0000000000000000   29.8240000000000016
H O
3 2
direct
   0.1784599123892262    0.0760990491546434    0.8495676563706003 H
   0.3544275237253353    0.0804852816287421    0.8806928728375943 H
   0.2823339082421773    0.0813193614321247    0.8858650394187626 H
   0.2110400000000000    0.0726600000000000    0.8263700000000000 O
   0.3245800000000000    0.0768600000000000    0.8557850000000000 O
