Zn20 H50 C88 O48
1.0
  12.7686870266574317    0.0000000000000000   -1.1346332514386384
  -0.0286460484447843   14.2569356439184300    0.0318504172130071
   0.0000000000000000    0.0000000000000000   20.1720000000000006
Zn H C O
20 50 88 48
direct
   0.9946800000000000    0.1938200000000000    0.9387700000000000 Zn
   0.5064100000000000    0.8062700000000000    0.0611800000000000 Zn
   0.7518600000000000    0.8964200000000000    0.0442500000000000 Zn
   0.7469200000000000    0.1038000000000000    0.9556000000000000 Zn
   0.0049800000000000    0.8062000000000000    0.0612100000000000 Zn
   0.4933800000000000    0.1938000000000000    0.9386800000000000 Zn
   0.2475000000000000    0.1037200000000000    0.9556800000000000 Zn
   0.2526300000000000    0.8960300000000000    0.0443600000000000 Zn
   0.9998000000000000    0.5010200000000000    0.4999600000000000 Zn
   0.4980700000000000    0.4988600000000000    0.5001700000000000 Zn
   0.5064300000000000    0.6948299999999999    0.5607700000000000 Zn
   0.9914200000000000    0.3051300000000000    0.4393200000000000 Zn
   0.7516300000000000    0.6047900000000000    0.5441800000000000 Zn
   0.7462500000000000    0.3951700000000000    0.4558500000000000 Zn
   0.0051000000000000    0.6953100000000000    0.5610200000000000 Zn
   0.4927900000000000    0.3047000000000000    0.4390300000000000 Zn
   0.2525000000000000    0.6051100000000000    0.5441900000000000 Zn
   0.2453900000000000    0.3948600000000000    0.4558000000000000 Zn
   0.4987200000000000    0.9999900000000000    0.9999700000000000 Zn
   0.9998700000000000    0.9999700000000000    0.9999300000000000 Zn
   0.5547100000000000    0.3006800000000000    0.6728600000000000 H
   0.6231900000000000    0.2073900000000000    0.7725600000000000 H
   0.9294900000000000    0.3242000000000000    0.7581500000000000 H
   0.8627100000000000    0.4132200000000000    0.6565000000000000 H
   0.9445000000000000    0.6988600000000000    0.3277300000000000 H
   0.8769500000000000    0.7924400000000000    0.2279300000000000 H
   0.5698100000000000    0.6771700000000000    0.2419100000000000 H
   0.6357500000000000    0.5877100000000000    0.3435200000000000 H
   0.4328000000000000    0.5336700000000000    0.9741500000000000 H
   0.3628900000000000    0.3708100000000000    0.9644200000000001 H
   0.0681700000000000    0.4665700000000000    0.0253600000000000 H
   0.1382000000000000    0.6294400000000000    0.0352100000000000 H
   0.4442700000000000    0.6984399999999999    0.3273300000000000 H
   0.3763300000000000    0.7918700000000000    0.2275000000000000 H
   0.0693300000000000    0.6766300000000000    0.2421500000000000 H
   0.1356000000000000    0.5874800000000000    0.3438000000000000 H
   0.0539800000000000    0.3014700000000000    0.6727600000000000 H
   0.1221000000000000    0.2080500000000000    0.7724500000000000 H
   0.4291200000000000    0.3230600000000000    0.7575200000000000 H
   0.3626400000000000    0.4122400000000000    0.6559400000000000 H
   0.5670200000000000    0.4662900000000000    0.0259200000000000 H
   0.6368900000000000    0.6291600000000001    0.0356200000000000 H
   0.8615300000000000    0.3706000000000000    0.9646800000000000 H
   0.9315400000000000    0.5334700000000000    0.9745300000000000 H
   0.8040089131180227    1.0691591863413357    0.0701891919783919 H
   0.5164906129092967    1.1022762047371684    1.1113296104318524 H
   0.6594577645006008    1.0982062394472973    1.0973238187451848 H
   0.9447600000000000    0.8027500000000000    0.8271900000000000 H
   0.8770600000000000    0.7093800000000000    0.7275199999999999 H
   0.5700200000000000    0.8234900000000001    0.7415100000000000 H
   0.6360800000000000    0.9127000000000000    0.8430200000000000 H
   0.6939265282118631    0.3676857946235155    0.3347368997736006 H
   0.9604952238362672    0.2339227980831072    0.3302582161298444 H
   0.8255609009133218    0.2959769855227955    0.3232018978030339 H
   0.3596100000000000    0.1314600000000000    0.4652100000000000 H
   0.4316600000000000    0.9695600000000000    0.4742200000000000 H
   0.0662700000000000    0.0304100000000000    0.5259500000000000 H
   0.1383400000000000    0.8685300000000000    0.5349900000000000 H
   0.4448300000000000    0.8036700000000000    0.8265800000000000 H
   0.3769600000000000    0.7109200000000000    0.7266000000000000 H
   0.0697100000000000    0.8240300000000000    0.7417200000000000 H
   0.1358900000000000    0.9123100000000000    0.8436399999999999 H
   0.4287900000000000    0.1762400000000000    0.2584700000000000 H
   0.3630900000000000    0.0877200000000000    0.1565500000000000 H
   0.0539900000000000    0.1963900000000000    0.1729100000000000 H
   0.1213600000000000    0.2893000000000000    0.2729200000000000 H
   0.5669000000000000    0.0320100000000000    0.5263300000000000 H
   0.6371700000000000    0.8693900000000000    0.5350100000000000 H
   0.9309900000000000    0.9678900000000000    0.4733900000000000 H
   0.8607000000000000    0.1305000000000000    0.4646000000000000 H
   0.8222100000000000    0.2080400000000000    0.8330200000000000 C
   0.6639100000000000    0.4211800000000000    0.5998000000000000 C
   0.6369000000000000    0.3049700000000000    0.6915400000000000 C
   0.6750600000000000    0.2528900000000000    0.7469700000000000 C
   0.7807900000000000    0.2598600000000000    0.7713000000000000 C
   0.8479500000000000    0.3182800000000000    0.7384300000000000 C
   0.8102600000000000    0.3685100000000000    0.6822600000000000 C
   0.7040700000000000    0.3634200000000000    0.6586700000000000 C
   0.6781500000000000    0.7926100000000000    0.1672500000000000 C
   0.8343800000000000    0.5788300000000000    0.4004100000000000 C
   0.8623400000000000    0.6949900000000000    0.3089200000000000 C
   0.8247200000000000    0.7472500000000000    0.2534700000000000 C
   0.7190200000000000    0.7407400000000000    0.2290100000000000 C
   0.6513200000000000    0.6826800000000000    0.2617600000000000 C
   0.6885200000000000    0.6322400000000000    0.3179200000000000 C
   0.7946700000000000    0.6368700000000000    0.3416400000000000 C
   0.3338000000000000    0.6891100000000000    0.0141300000000000 C
   0.1674800000000000    0.3110000000000000    0.9857300000000000 C
   0.3532300000000000    0.5183600000000000    0.9856900000000000 C
   0.3139300000000000    0.4273900000000000    0.9801299999999999 C
   0.2904400000000000    0.5917700000000000    0.0055800000000000 C
   0.1477900000000000    0.4818600000000000    0.0138900000000000 C
   0.1871200000000000    0.5728300000000000    0.0194900000000000 C
   0.2106500000000000    0.4084200000000000    0.9940900000000000 C
   0.1773100000000000    0.7919400000000000    0.1670700000000000 C
   0.3344900000000000    0.5785700000000000    0.4004200000000000 C
   0.3620400000000000    0.6945400000000000    0.3086800000000000 C
   0.3241900000000000    0.7466900000000000    0.2532100000000000 C
   0.2184100000000000    0.7402000000000000    0.2289000000000000 C
   0.1509100000000000    0.6821800000000000    0.2618400000000000 C
   0.1882900000000000    0.6319000000000000    0.3180600000000000 C
   0.2945400000000000    0.6364600000000000    0.3416000000000000 C
   0.3211900000000000    0.2079000000000000    0.8327700000000000 C
   0.1635600000000000    0.4213400000000000    0.5995800000000000 C
   0.1362500000000000    0.3053300000000000    0.6913200000000000 C
   0.1742000000000000    0.2531700000000000    0.7467500000000000 C
   0.2800300000000000    0.2596200000000000    0.7709600000000000 C
   0.3474900000000000    0.3175700000000000    0.7379200000000000 C
   0.3099900000000000    0.3678700000000000    0.6817400000000000 C
   0.2036800000000000    0.3633700000000000    0.6583300000000000 C
   0.8322900000000000    0.6890200000000000    0.0142600000000000 C
   0.6659900000000000    0.3108700000000000    0.9858400000000000 C
   0.6465600000000000    0.4816200000000000    0.0143300000000000 C
   0.6858500000000000    0.5725900000000000    0.0199000000000000 C
   0.7093400000000000    0.4082100000000000    0.9944100000000000 C
   0.8126300000000000    0.4271900000000000    0.9804400000000000 C
   0.8519400000000000    0.5181600000000000    0.9860500000000000 C
   0.7891000000000000    0.5915899999999999    0.0058800000000000 C
   0.6782000000000000    0.7083900000000000    0.6670199999999999 C
   0.8347500000000000    0.9215100000000001    0.9001600000000000 C
   0.8625800000000000    0.8064100000000000    0.8084300000000000 C
   0.8248799999999999    0.7542900000000000    0.7530300000000000 C
   0.7191200000000000    0.7603900000000000    0.7286500000000000 C
   0.6515400000000000    0.8181700000000000    0.7613300000000000 C
   0.6888100000000000    0.8684600000000000    0.8174700000000000 C
   0.7949700000000000    0.8640600000000001    0.8411900000000000 C
   0.1637900000000000    0.1881400000000000    0.4867100000000000 C
   0.3341100000000000    0.8118300000000001    0.5133900000000000 C
   0.3114100000000000    0.0739200000000000    0.4807100000000000 C
   0.3519100000000000    0.9834600000000000    0.4858800000000000 C
   0.2900300000000000    0.9088300000000000    0.5054300000000000 C
   0.1460100000000000    0.0165200000000000    0.5142900000000000 C
   0.1865200000000000    0.9260600000000000    0.5194600000000000 C
   0.2078900000000000    0.0911500000000000    0.4947200000000000 C
   0.1776600000000000    0.7099400000000000    0.6665700000000000 C
   0.3347900000000000    0.9214000000000000    0.9002200000000000 C
   0.3625600000000000    0.8071800000000000    0.8080000000000001 C
   0.3247800000000000    0.7554600000000000    0.7524300000000000 C
   0.1513200000000000    0.8187700000000000    0.7613000000000000 C
   0.1886300000000000    0.8685500000000000    0.8177200000000000 C
   0.2189100000000000    0.7614900000000000    0.7283100000000000 C
   0.2949100000000000    0.8642800000000000    0.8411700000000000 C
   0.3204200000000000    0.2902600000000000    0.3333700000000000 C
   0.1643400000000000    0.0783900000000000    0.0996900000000000 C
   0.3472700000000000    0.1814700000000000    0.2386500000000000 C
   0.3102100000000000    0.1315300000000000    0.1823200000000000 C
   0.2040300000000000    0.1357600000000000    0.1586700000000000 C
   0.1361800000000000    0.1929000000000000    0.1916600000000000 C
   0.1736900000000000    0.2447600000000000    0.2472000000000000 C
   0.2794500000000000    0.2387000000000000    0.2715800000000000 C
   0.6654400000000000    0.1884300000000000    0.4867000000000000 C
   0.8324500000000000    0.8114900000000000    0.5131500000000000 C
   0.6463400000000000    0.0173200000000000    0.5144400000000000 C
   0.6858200000000000    0.9265300000000000    0.5194000000000000 C
   0.7089200000000000    0.0913500000000000    0.4947200000000000 C
   0.8515400000000000    0.9825700000000001    0.4852700000000000 C
   0.8120600000000000    0.0733600000000000    0.4803000000000000 C
   0.7889699999999999    0.9085500000000000    0.5050200000000000 C
   0.7637000000000000    0.1484200000000000    0.8581000000000000 O
   0.9161800000000000    0.2301400000000000    0.8553200000000000 O
   0.5656300000000000    0.4321900000000000    0.5883900000000000 O
   0.7324000000000001    0.4565100000000000    0.5637700000000000 O
   0.7373800000000000    0.8514400000000000    0.1419000000000000 O
   0.5839200000000000    0.7712100000000000    0.1450000000000000 O
   0.9326300000000000    0.5676400000000000    0.4118800000000000 O
   0.7657200000000000    0.5434800000000000    0.4362900000000000 O
   0.2703600000000000    0.7569800000000000    0.0109100000000000 O
   0.4343800000000000    0.6952600000000000    0.0248600000000000 O
   0.2310500000000000    0.2432000000000000    0.9889700000000000 O
   0.0669100000000000    0.3047000000000000    0.9751100000000000 O
   0.2360200000000000    0.8514000000000000    0.1419800000000000 O
   0.0833400000000000    0.7699700000000000    0.1447200000000000 O
   0.4327000000000000    0.5672300000000000    0.4118600000000000 O
   0.2661000000000000    0.5432399999999999    0.4365000000000000 O
   0.2624000000000000    0.1485600000000000    0.8579400000000000 O
   0.4152200000000000    0.2297900000000000    0.8550900000000000 O
   0.0653500000000000    0.4326800000000000    0.5882500000000001 O
   0.2318500000000000    0.4567200000000000    0.5634400000000001 O
   0.7687500000000000    0.7568400000000000    0.0110200000000000 O
   0.9328800000000000    0.6952800000000000    0.0248500000000000 O
   0.7294200000000000    0.2430000000000000    0.9890200000000000 O
   0.5653899999999999    0.3047300000000000    0.9751500000000000 O
   0.7331600000000000    1.0448100000000000    0.0634100000000000 O
   0.5663000000000000    1.0661900000000000    1.0884100000000001 O
   0.7378600000000000    0.6504500000000000    0.6416200000000000 O
   0.5835399999999999    0.7284900000000000    0.6451000000000000 O
   0.9328600000000000    0.9338100000000000    0.9114000000000000 O
   0.7660700000000000    0.9554600000000000    0.9364600000000000 O
   0.7600100000000000    0.3495400000000000    0.3583800000000000 O
   0.9144099999999999    0.2715800000000000    0.3549900000000000 O
   0.2268200000000000    0.2565500000000000    0.4912400000000000 O
   0.0632900000000000    0.1935000000000000    0.4749800000000000 O
   0.2710600000000000    0.7434300000000000    0.5088300000000000 O
   0.4346200000000000    0.8064500000000000    0.5250600000000000 O
   0.2361700000000000    0.6506400000000000    0.6415700000000000 O
   0.0837200000000000    0.7318900000000000    0.6442600000000001 O
   0.4328900000000000    0.9337299999999999    0.9114300000000000 O
   0.2663400000000000    0.9552700000000000    0.9367000000000000 O
   0.2617000000000000    0.3493300000000000    0.3584000000000000 O
   0.4143400000000000    0.2683400000000000    0.3557500000000000 O
   0.0662400000000000    0.0661000000000000    0.0884700000000000 O
   0.2328900000000000    0.0445300000000000    0.0632000000000000 O
   0.7286899999999999    0.2567000000000000    0.4910000000000000 O
   0.5649500000000000    0.1938000000000000    0.4752400000000000 O
   0.7692099999999999    0.7432000000000000    0.5089000000000000 O
   0.9329300000000000    0.8061500000000000    0.5247300000000000 O
