H4 C8 O4
1.0
  12.7686870266574317    0.0000000000000000   -1.1346332514386384
  -0.0286460484447843   14.2569356439184300    0.0318504172130071
   0.0000000000000000    0.0000000000000000   20.1720000000000006
H C O
4 8 4
direct
   0.5538500000000000    0.1971800000000000    0.1725100000000000 H
   0.6210800000000000    0.2905100000000000    0.2723100000000000 H
   0.9286200000000000    0.1774900000000000    0.2583000000000000 H
   0.8630200000000000    0.0883600000000000    0.1566300000000000 H
   0.6643600000000000    0.0787900000000000    0.0996100000000000 C
   0.7039200000000000    0.1364000000000000    0.1585200000000000 C
   0.6360300000000000    0.1937700000000000    0.1912900000000000 C
   0.6734599999999999    0.2458400000000000    0.2467700000000000 C
   0.7792200000000000    0.2400000000000000    0.2711800000000000 C
   0.8470900000000000    0.1825700000000000    0.2384500000000000 C
   0.8101000000000000    0.1323500000000000    0.1822300000000000 C
   0.8198299999999999    0.2917700000000000    0.3329600000000000 C
   0.7331600000000000    1.0448100000000000    0.0634100000000000 O
   0.5663000000000000    1.0661900000000000    1.0884100000000001 O
   0.9144099999999999    0.2715800000000000    0.3549900000000000 O
   0.7600100000000000    0.3495400000000000    0.3583800000000000 O
