H7 O5
1.0
  26.9795625770055061    0.0000000000000000    4.0778669857468319
   2.1490496353520196    8.3114708881023294    3.6102029197706895
   0.0000000000000000    0.0000000000000000   20.3640000000000008
H O
7 5
direct
   0.7285135672481248    0.5865695066289482    0.5643791817120766 H
   0.6581003832053780    0.4488099361082681    0.5621526523042971 H
   0.6210528009140713    0.3766183639868563    0.5609809840505833 H
   0.6855290733349629    0.8871353296457957    0.8189964375956419 H
   0.6926920730113918    0.2021360829522489    0.9357410750771160 H
   0.6952277671508419    0.6126266191306148    0.7708668162971019 H
   0.6941644003250057    0.4027541325792666    0.8495812607188130 H
   0.7192450000000000    0.4937000000000000    0.5641350000000001 O
   0.6532550000000000    0.4002600000000000    0.5620250000000000 O
   0.6852875000000000    0.8231400000000000    0.8701000000000000 O
   0.6924675000000000    0.3150300000000000    0.9124749999999999 O
   0.6938850000000000    0.5432100000000000    0.8206350000000000 O
