H4 C9 O6
1.0
  26.9795625770055061    0.0000000000000000    4.0778669857468319
   2.1490496353520196    8.3114708881023294    3.6102029197706895
   0.0000000000000000    0.0000000000000000   20.3640000000000008
H C O
4 9 6
direct
   0.6874950000000000    0.7270000000000000    0.7768900000000001 H
   0.6890200000000000    0.0873000000000000    0.8800350000000000 H
   0.6812225000000001    0.1071900000000000    0.6664800000000000 H
   0.6944725000000000    0.5226300000000000    0.7008099999999999 H
   0.6907350000000000    0.3141400000000000    0.7954800000000000 C
   0.6874275000000000    0.3244500000000000    0.6753350000000000 C
   0.6885200000000000    0.1530300000000000    0.8226550000000000 C
   0.6855950000000000    0.9046000000000000    0.8050500000000000 C
   0.6842650000000000    0.1645400000000000    0.7026700000000000 C
   0.6925850000000000    0.3941800000000000    0.8460050000000000 C
   0.6865175000000000    0.4120000000000000    0.5964350000000000 C
   0.6914425000000000    0.3986500000000000    0.7216700000000000 C
   0.6860174999999999    0.0772200000000000    0.7762800000000001 C
   0.6938850000000000    0.5432100000000000    0.8206350000000000 O
   0.6532550000000000    0.4002600000000000    0.5620250000000000 O
   0.6859325000000001    0.8464900000000000    0.7548950000000000 O
   0.7192450000000000    0.4937000000000000    0.5641350000000001 O
   0.6852875000000000    0.8231400000000000    0.8701000000000000 O
   0.6924675000000000    0.3150300000000000    0.9124749999999999 O
