Ca16 H67 C135 O95
1.0
  26.9795625770055061    0.0000000000000000    4.0778669857468319
   2.1490496353520196    8.3114708881023294    3.6102029197706895
   0.0000000000000000    0.0000000000000000   20.3640000000000008
Ca H C O
16 67 135 95
direct
   0.3111875000000000    0.4551100000000000    0.5589600000000000 Ca
   0.4388400000000000    0.5448200000000000    0.9410400000000000 Ca
   0.0611875000000000    0.4551100000000000    0.5589600000000000 Ca
   0.1888400000000000    0.5448200000000000    0.9410400000000000 Ca
   0.9388400000000000    0.5448200000000000    0.9410400000000000 Ca
   0.5611875000000000    0.4551100000000000    0.0589600000000000 Ca
   0.5611875000000000    0.4551100000000000    0.5589600000000000 Ca
   0.8111875000000000    0.4551100000000000    0.5589600000000000 Ca
   0.6888400000000000    0.5448200000000000    0.4410400000000000 Ca
   0.6888400000000000    0.5448200000000000    0.9410400000000000 Ca
   0.3111875000000000    0.4551100000000000    0.0589600000000000 Ca
   0.4388400000000000    0.5448200000000000    0.4410400000000000 Ca
   0.8111875000000000    0.4551100000000000    0.0589600000000000 Ca
   0.9388400000000000    0.5448200000000000    0.4410400000000000 Ca
   0.0611875000000000    0.4551100000000000    0.0589600000000000 Ca
   0.1888400000000000    0.5448200000000000    0.4410400000000000 Ca
   0.3125350000000000    0.2729300000000000    0.7231100000000000 H
   0.3055550000000000    0.4772900000000000    0.7991950000000000 H
   0.3188125000000000    0.8927400000000000    0.8335150000000000 H
   0.3110125000000000    0.9126100000000000    0.6199650000000000 H
   0.4374950000000000    0.7270000000000000    0.7768900000000001 H
   0.4390200000000000    0.0873000000000000    0.8800350000000000 H
   0.4444725000000000    0.5226300000000000    0.7008099999999999 H
   0.4312225000000000    0.1071900000000000    0.6664800000000000 H
   0.0625350000000000    0.2729300000000000    0.7231100000000000 H
   0.0555550000000000    0.4772900000000000    0.7991950000000000 H
   0.0688125000000000    0.8927400000000000    0.8335150000000000 H
   0.0610125000000000    0.9126100000000000    0.6199650000000000 H
   0.1874950000000000    0.7270000000000000    0.7768900000000001 H
   0.1890200000000000    0.0873000000000000    0.8800350000000000 H
   0.1944725000000000    0.5226300000000000    0.7008099999999999 H
   0.1812225000000000    0.1071900000000000    0.6664800000000000 H
   0.9374950000000000    0.7270000000000000    0.7768900000000001 H
   0.9390200000000000    0.0873000000000000    0.8800350000000000 H
   0.9444725000000000    0.5226300000000000    0.7008099999999999 H
   0.9312225000000001    0.1071900000000000    0.6664800000000000 H
   0.5625350000000000    0.2729300000000000    0.2231100000000000 H
   0.5555550000000000    0.4772900000000000    0.2991950000000000 H
   0.5688124999999999    0.8927400000000000    0.3335150000000000 H
   0.5610125000000000    0.9126100000000000    0.1199650000000000 H
   0.6874950000000000    0.7270000000000000    0.2768900000000000 H
   0.6890200000000000    0.0873000000000000    0.3800350000000000 H
   0.6944725000000000    0.5226300000000000    0.2008100000000000 H
   0.6812225000000001    0.1071900000000000    0.1664800000000000 H
   0.5625350000000000    0.2729300000000000    0.7231100000000000 H
   0.5555550000000000    0.4772900000000000    0.7991950000000000 H
   0.5688124999999999    0.8927400000000000    0.8335150000000000 H
   0.5610125000000000    0.9126100000000000    0.6199650000000000 H
   0.8125350000000000    0.2729300000000000    0.7231100000000000 H
   0.8055550000000000    0.4772900000000000    0.7991950000000000 H
   0.8188124999999999    0.8927400000000000    0.8335150000000000 H
   0.8110125000000000    0.9126100000000000    0.6199650000000000 H
   0.7285135672481248    0.5865695066289482    0.5643791817120766 H
   0.6581003832053780    0.4488099361082681    0.5621526523042971 H
   0.6210528009140713    0.3766183639868563    0.5609809840505833 H
   0.6855290733349629    0.8871353296457957    0.8189964375956419 H
   0.6926920730113918    0.2021360829522489    0.9357410750771160 H
   0.6952277671508419    0.6126266191306148    0.7708668162971019 H
   0.6941644003250057    0.4027541325792666    0.8495812607188130 H
   0.3125350000000000    0.2729300000000000    0.2231100000000000 H
   0.3055550000000000    0.4772900000000000    0.2991950000000000 H
   0.3188125000000000    0.8927400000000000    0.3335150000000000 H
   0.3110125000000000    0.9126100000000000    0.1199650000000000 H
   0.4374950000000000    0.7270000000000000    0.2768900000000000 H
   0.4390200000000000    0.0873000000000000    0.3800350000000000 H
   0.4444725000000000    0.5226300000000000    0.2008100000000000 H
   0.4312225000000000    0.1071900000000000    0.1664800000000000 H
   0.8125350000000000    0.2729300000000000    0.2231100000000000 H
   0.8055550000000000    0.4772900000000000    0.2991950000000000 H
   0.8188124999999999    0.8927400000000000    0.3335150000000000 H
   0.8110125000000000    0.9126100000000000    0.1199650000000000 H
   0.9374950000000000    0.7270000000000000    0.2768900000000000 H
   0.9390200000000000    0.0873000000000000    0.3800350000000000 H
   0.9444725000000000    0.5226300000000000    0.2008100000000000 H
   0.9312225000000001    0.1071900000000000    0.1664800000000000 H
   0.0625350000000000    0.2729300000000000    0.2231100000000000 H
   0.0555550000000000    0.4772900000000000    0.2991950000000000 H
   0.0688125000000000    0.8927400000000000    0.3335150000000000 H
   0.0610125000000000    0.9126100000000000    0.1199650000000000 H
   0.1874950000000000    0.7270000000000000    0.2768900000000000 H
   0.1890200000000000    0.0873000000000000    0.3800350000000000 H
   0.1944725000000000    0.5226300000000000    0.2008100000000000 H
   0.1812225000000000    0.1071900000000000    0.1664800000000000 H
   0.3074375000000000    0.6057500000000000    0.6540000000000000 C
   0.3135175000000000    0.5879200000000000    0.9035700000000000 C
   0.3144450000000000    0.0953100000000000    0.6949450000000000 C
   0.3085900000000000    0.6012700000000000    0.7783350000000000 C
   0.3157725000000000    0.8353800000000000    0.7973300000000000 C
   0.3126125000000000    0.6754599999999999    0.8246650000000000 C
   0.3115150000000000    0.8468900000000000    0.6773450000000000 C
   0.3140200000000000    0.9227000000000000    0.7237150000000000 C
   0.3093000000000000    0.6857700000000000    0.7045250000000001 C
   0.4425850000000000    0.3941800000000000    0.8460050000000000 C
   0.4365175000000000    0.4120000000000000    0.5964350000000000 C
   0.4355950000000000    0.9046000000000000    0.8050500000000000 C
   0.4385200000000000    0.1530300000000000    0.8226550000000000 C
   0.4360175000000000    0.0772200000000000    0.7762800000000001 C
   0.4407350000000000    0.3141400000000000    0.7954800000000000 C
   0.4414425000000000    0.3986500000000000    0.7216700000000000 C
   0.4342650000000000    0.1645400000000000    0.7026700000000000 C
   0.4374275000000000    0.3244500000000000    0.6753350000000000 C
   0.0574375000000000    0.6057500000000000    0.6540000000000000 C
   0.0635175000000000    0.5879200000000000    0.9035700000000000 C
   0.0644450000000000    0.0953100000000000    0.6949450000000000 C
   0.0585900000000000    0.6012700000000000    0.7783350000000000 C
   0.0657725000000000    0.8353800000000000    0.7973300000000000 C
   0.0626125000000000    0.6754599999999999    0.8246650000000000 C
   0.0615150000000000    0.8468900000000000    0.6773450000000000 C
   0.0640200000000000    0.9227000000000000    0.7237150000000000 C
   0.0593000000000000    0.6857700000000000    0.7045250000000001 C
   0.1925850000000000    0.3941800000000000    0.8460050000000000 C
   0.1865175000000000    0.4120000000000000    0.5964350000000000 C
   0.1855950000000000    0.9046000000000000    0.8050500000000000 C
   0.1885200000000000    0.1530300000000000    0.8226550000000000 C
   0.1860175000000000    0.0772200000000000    0.7762800000000001 C
   0.1907350000000000    0.3141400000000000    0.7954800000000000 C
   0.1914425000000000    0.3986500000000000    0.7216700000000000 C
   0.1842650000000000    0.1645400000000000    0.7026700000000000 C
   0.1874275000000000    0.3244500000000000    0.6753350000000000 C
   0.9425850000000000    0.3941800000000000    0.8460050000000000 C
   0.9365175000000000    0.4120000000000000    0.5964350000000000 C
   0.9355950000000000    0.9046000000000000    0.8050500000000000 C
   0.9385200000000000    0.1530300000000000    0.8226550000000000 C
   0.9360174999999999    0.0772200000000000    0.7762800000000001 C
   0.9407350000000000    0.3141400000000000    0.7954800000000000 C
   0.9414425000000000    0.3986500000000000    0.7216700000000000 C
   0.9342650000000000    0.1645400000000000    0.7026700000000000 C
   0.9374275000000000    0.3244500000000000    0.6753350000000000 C
   0.5574375000000000    0.6057500000000000    0.1540000000000000 C
   0.5635175000000000    0.5879200000000000    0.4035700000000000 C
   0.5644450000000000    0.0953100000000000    0.1949450000000000 C
   0.5585900000000000    0.6012700000000000    0.2783350000000000 C
   0.5657725000000000    0.8353800000000000    0.2973300000000000 C
   0.5626125000000000    0.6754599999999999    0.3246650000000000 C
   0.5615150000000000    0.8468900000000000    0.1773450000000000 C
   0.5640200000000000    0.9227000000000000    0.2237150000000000 C
   0.5593000000000000    0.6857700000000000    0.2045250000000000 C
   0.6925850000000000    0.3941800000000000    0.3460050000000000 C
   0.6865175000000000    0.4120000000000000    0.0964350000000000 C
   0.6855950000000000    0.9046000000000000    0.3050500000000000 C
   0.6885200000000000    0.1530300000000000    0.3226550000000000 C
   0.6860174999999999    0.0772200000000000    0.2762800000000000 C
   0.6907350000000000    0.3141400000000000    0.2954800000000000 C
   0.6914425000000000    0.3986500000000000    0.2216700000000000 C
   0.6842650000000000    0.1645400000000000    0.2026700000000000 C
   0.6874275000000000    0.3244500000000000    0.1753350000000000 C
   0.5574375000000000    0.6057500000000000    0.6540000000000000 C
   0.5635175000000000    0.5879200000000000    0.9035700000000000 C
   0.5644450000000000    0.0953100000000000    0.6949450000000000 C
   0.5585900000000000    0.6012700000000000    0.7783350000000000 C
   0.5657725000000000    0.8353800000000000    0.7973300000000000 C
   0.5626125000000000    0.6754599999999999    0.8246650000000000 C
   0.5615150000000000    0.8468900000000000    0.6773450000000000 C
   0.5640200000000000    0.9227000000000000    0.7237150000000000 C
   0.5593000000000000    0.6857700000000000    0.7045250000000001 C
   0.8074375000000000    0.6057500000000000    0.6540000000000000 C
   0.8135175000000000    0.5879200000000000    0.9035700000000000 C
   0.8144450000000000    0.0953100000000000    0.6949450000000000 C
   0.8085900000000000    0.6012700000000000    0.7783350000000000 C
   0.8157725000000000    0.8353800000000000    0.7973300000000000 C
   0.8126125000000000    0.6754599999999999    0.8246650000000000 C
   0.8115150000000000    0.8468900000000000    0.6773450000000000 C
   0.8140200000000000    0.9227000000000000    0.7237150000000000 C
   0.8093000000000000    0.6857700000000000    0.7045250000000001 C
   0.3074375000000000    0.6057500000000000    0.1540000000000000 C
   0.3135175000000000    0.5879200000000000    0.4035700000000000 C
   0.3144450000000000    0.0953100000000000    0.1949450000000000 C
   0.3085900000000000    0.6012700000000000    0.2783350000000000 C
   0.3157725000000000    0.8353800000000000    0.2973300000000000 C
   0.3126125000000000    0.6754599999999999    0.3246650000000000 C
   0.3115150000000000    0.8468900000000000    0.1773450000000000 C
   0.3140200000000000    0.9227000000000000    0.2237150000000000 C
   0.3093000000000000    0.6857700000000000    0.2045250000000000 C
   0.4425850000000000    0.3941800000000000    0.3460050000000000 C
   0.4365175000000000    0.4120000000000000    0.0964350000000000 C
   0.4355950000000000    0.9046000000000000    0.3050500000000000 C
   0.4385200000000000    0.1530300000000000    0.3226550000000000 C
   0.4360175000000000    0.0772200000000000    0.2762800000000000 C
   0.4407350000000000    0.3141400000000000    0.2954800000000000 C
   0.4414425000000000    0.3986500000000000    0.2216700000000000 C
   0.4342650000000000    0.1645400000000000    0.2026700000000000 C
   0.4374275000000000    0.3244500000000000    0.1753350000000000 C
   0.8074375000000000    0.6057500000000000    0.1540000000000000 C
   0.8135175000000000    0.5879200000000000    0.4035700000000000 C
   0.8144450000000000    0.0953100000000000    0.1949450000000000 C
   0.8085900000000000    0.6012700000000000    0.2783350000000000 C
   0.8157725000000000    0.8353800000000000    0.2973300000000000 C
   0.8126125000000000    0.6754599999999999    0.3246650000000000 C
   0.8115150000000000    0.8468900000000000    0.1773450000000000 C
   0.8140200000000000    0.9227000000000000    0.2237150000000000 C
   0.8093000000000000    0.6857700000000000    0.2045250000000000 C
   0.9425850000000000    0.3941800000000000    0.3460050000000000 C
   0.9365175000000000    0.4120000000000000    0.0964350000000000 C
   0.9355950000000000    0.9046000000000000    0.3050500000000000 C
   0.9385200000000000    0.1530300000000000    0.3226550000000000 C
   0.9360174999999999    0.0772200000000000    0.2762800000000000 C
   0.9407350000000000    0.3141400000000000    0.2954800000000000 C
   0.9414425000000000    0.3986500000000000    0.2216700000000000 C
   0.9342650000000000    0.1645400000000000    0.2026700000000000 C
   0.9374275000000000    0.3244500000000000    0.1753350000000000 C
   0.0574375000000000    0.6057500000000000    0.1540000000000000 C
   0.0635175000000000    0.5879200000000000    0.4035700000000000 C
   0.0644450000000000    0.0953100000000000    0.1949450000000000 C
   0.0585900000000000    0.6012700000000000    0.2783350000000000 C
   0.0657725000000000    0.8353800000000000    0.2973300000000000 C
   0.0626125000000000    0.6754599999999999    0.3246650000000000 C
   0.0615150000000000    0.8468900000000000    0.1773450000000000 C
   0.0640200000000000    0.9227000000000000    0.2237150000000000 C
   0.0593000000000000    0.6857700000000000    0.2045250000000000 C
   0.1925850000000000    0.3941800000000000    0.3460050000000000 C
   0.1865175000000000    0.4120000000000000    0.0964350000000000 C
   0.1855950000000000    0.9046000000000000    0.3050500000000000 C
   0.1885200000000000    0.1530300000000000    0.3226550000000000 C
   0.1860175000000000    0.0772200000000000    0.2762800000000000 C
   0.1907350000000000    0.3141400000000000    0.2954800000000000 C
   0.1914425000000000    0.3986500000000000    0.2216700000000000 C
   0.1842650000000000    0.1645400000000000    0.2026700000000000 C
   0.1874275000000000    0.3244500000000000    0.1753350000000000 C
   0.3075500000000000    0.6849000000000000    0.5875300000000000 O
   0.3061350000000000    0.4567200000000000    0.6793700000000000 O
   0.3467750000000000    0.5996800000000000    0.9379800000000000 O
   0.2807800000000000    0.5062500000000000    0.9358700000000000 O
   0.3141000000000000    0.1534300000000000    0.7451050000000000 O
   0.3147400000000000    0.1767800000000000    0.6298950000000000 O
   0.4424675000000000    0.3150300000000000    0.9124749999999999 O
   0.4438850000000000    0.5432100000000000    0.8206350000000000 O
   0.4032550000000000    0.4002600000000000    0.5620250000000000 O
   0.4692450000000000    0.4937000000000000    0.5641350000000001 O
   0.4359325000000000    0.8464900000000000    0.7548950000000000 O
   0.4352875000000000    0.8231400000000000    0.8701000000000000 O
   0.0575500000000000    0.6849000000000000    0.5875300000000000 O
   0.0561350000000000    0.4567200000000000    0.6793700000000000 O
   0.0967750000000000    0.5996800000000000    0.9379800000000000 O
   0.0307800000000000    0.5062500000000000    0.9358700000000000 O
   0.0641000000000000    0.1534300000000000    0.7451050000000000 O
   0.0647400000000000    0.1767800000000000    0.6298950000000000 O
   0.1924675000000000    0.3150300000000000    0.9124749999999999 O
   0.1938850000000000    0.5432100000000000    0.8206350000000000 O
   0.1532550000000000    0.4002600000000000    0.5620250000000000 O
   0.2192450000000000    0.4937000000000000    0.5641350000000001 O
   0.1859325000000000    0.8464900000000000    0.7548950000000000 O
   0.1852875000000000    0.8231400000000000    0.8701000000000000 O
   0.9424675000000000    0.3150300000000000    0.9124749999999999 O
   0.9438850000000000    0.5432100000000000    0.8206350000000000 O
   0.9032550000000000    0.4002600000000000    0.5620250000000000 O
   0.9692450000000000    0.4937000000000000    0.5641350000000001 O
   0.9359325000000001    0.8464900000000000    0.7548950000000000 O
   0.9352875000000000    0.8231400000000000    0.8701000000000000 O
   0.5575500000000000    0.6849000000000000    0.0875300000000000 O
   0.5561350000000000    0.4567200000000000    0.1793700000000000 O
   0.5967750000000001    0.5996800000000000    0.4379800000000000 O
   0.5307800000000000    0.5062500000000000    0.4358700000000000 O
   0.5641000000000000    0.1534300000000000    0.2451050000000000 O
   0.5647400000000000    0.1767800000000000    0.1298950000000000 O
   0.6924675000000000    0.3150300000000000    0.4124750000000000 O
   0.6938850000000000    0.5432100000000000    0.3206350000000000 O
   0.6532550000000000    0.4002600000000000    0.0620250000000000 O
   0.7192450000000000    0.4937000000000000    0.0641350000000000 O
   0.6859325000000001    0.8464900000000000    0.2548950000000000 O
   0.6852875000000000    0.8231400000000000    0.3701000000000000 O
   0.5575500000000000    0.6849000000000000    0.5875300000000000 O
   0.5561350000000000    0.4567200000000000    0.6793700000000000 O
   0.5967750000000001    0.5996800000000000    0.9379800000000000 O
   0.5307800000000000    0.5062500000000000    0.9358700000000000 O
   0.5641000000000000    0.1534300000000000    0.7451050000000000 O
   0.5647400000000000    0.1767800000000000    0.6298950000000000 O
   0.8075500000000000    0.6849000000000000    0.5875300000000000 O
   0.8061350000000000    0.4567200000000000    0.6793700000000000 O
   0.8467750000000001    0.5996800000000000    0.9379800000000000 O
   0.7807800000000000    0.5062500000000000    0.9358700000000000 O
   0.8141000000000000    0.1534300000000000    0.7451050000000000 O
   0.8147400000000000    0.1767800000000000    0.6298950000000000 O
   0.7192450000000000    0.4937000000000000    0.5641350000000001 O
   0.6532550000000000    0.4002600000000000    0.5620250000000000 O
   0.6852875000000000    0.8231400000000000    0.8701000000000000 O
   0.6924675000000000    0.3150300000000000    0.9124749999999999 O
   0.6938850000000000    0.5432100000000000    0.8206350000000000 O
   0.3075500000000000    0.6849000000000000    0.0875300000000000 O
   0.3061350000000000    0.4567200000000000    0.1793700000000000 O
   0.3467750000000000    0.5996800000000000    0.4379800000000000 O
   0.2807800000000000    0.5062500000000000    0.4358700000000000 O
   0.3141000000000000    0.1534300000000000    0.2451050000000000 O
   0.3147400000000000    0.1767800000000000    0.1298950000000000 O
   0.4424675000000000    0.3150300000000000    0.4124750000000000 O
   0.4438850000000000    0.5432100000000000    0.3206350000000000 O
   0.4032550000000000    0.4002600000000000    0.0620250000000000 O
   0.4692450000000000    0.4937000000000000    0.0641350000000000 O
   0.4359325000000000    0.8464900000000000    0.2548950000000000 O
   0.4352875000000000    0.8231400000000000    0.3701000000000000 O
   0.8075500000000000    0.6849000000000000    0.0875300000000000 O
   0.8061350000000000    0.4567200000000000    0.1793700000000000 O
   0.8467750000000001    0.5996800000000000    0.4379800000000000 O
   0.7807800000000000    0.5062500000000000    0.4358700000000000 O
   0.8141000000000000    0.1534300000000000    0.2451050000000000 O
   0.8147400000000000    0.1767800000000000    0.1298950000000000 O
   0.9424675000000000    0.3150300000000000    0.4124750000000000 O
   0.9438850000000000    0.5432100000000000    0.3206350000000000 O
   0.9032550000000000    0.4002600000000000    0.0620250000000000 O
   0.9692450000000000    0.4937000000000000    0.0641350000000000 O
   0.9359325000000001    0.8464900000000000    0.2548950000000000 O
   0.9352875000000000    0.8231400000000000    0.3701000000000000 O
   0.0575500000000000    0.6849000000000000    0.0875300000000000 O
   0.0561350000000000    0.4567200000000000    0.1793700000000000 O
   0.0967750000000000    0.5996800000000000    0.4379800000000000 O
   0.0307800000000000    0.5062500000000000    0.4358700000000000 O
   0.0641000000000000    0.1534300000000000    0.2451050000000000 O
   0.0647400000000000    0.1767800000000000    0.1298950000000000 O
   0.1924675000000000    0.3150300000000000    0.4124750000000000 O
   0.1938850000000000    0.5432100000000000    0.3206350000000000 O
   0.1532550000000000    0.4002600000000000    0.0620250000000000 O
   0.2192450000000000    0.4937000000000000    0.0641350000000000 O
   0.1859325000000000    0.8464900000000000    0.2548950000000000 O
   0.1852875000000000    0.8231400000000000    0.3701000000000000 O
