H8 O5
1.0
  37.9709552140250111    0.0000000000000000   -0.0583192464554019
  -1.3653142299862207   13.5328009312392687   -0.0042730371774916
   0.0000000000000000    0.0000000000000000   29.3320000000000007
H O
8 5
direct
   0.8935944482480976   -0.1094210692982922    0.8200496849470722 H
   0.8550236644381579   -0.0903937517038469    0.8531030797969129 H
   0.9421326420872876    0.8735631274761427    0.7755246044080364 H
   0.8500974322083396    0.6104860966982231    0.9043415202388903 H
   0.9107898934561802    0.5412800904699622    0.9443346429910489 H
   0.9577944502115880    0.7428940233355960    0.9084669342773889 H
   0.9166764844996926    0.6896383766679790    0.9175308151775453 H
   0.8985520960011634    0.5371902142290993    0.8348033992726698 H
   0.8735933333333332   -0.0833100000000000    0.8303199999999999 O
   0.9210699999999999    0.9010600000000000    0.7863400000000000 O
   0.8500150000000000    0.6164500000000001    0.9372950000000000 O
   0.8982116666666666    0.5618200000000000    0.9708950000000001 O
   0.9419099999999999    0.6943100000000000    0.9250300000000000 O
