H8 C24 N8
1.0
  12.5489999999999995    0.0000000000000000    0.0000000000000008
   0.0004006228764851   22.9539999965039065    0.0000000000000014
   0.0000000000000000    0.0000000000000000   14.8399999999999999
H C N
8 24 8
direct
   0.9292400000000000    0.5887400000000000    0.8583200000000000 H
   0.7882500000000000    0.6624100000000001    0.8624000000000001 H
   0.7897999999999999    0.6567900000000000    0.1534800000000000 H
   0.9309200000000000    0.5832400000000000    0.1497200000000000 H
   0.0708000000000000    0.4112700000000000    0.1416700000000000 H
   0.2117900000000000    0.3376000000000000    0.1375100000000000 H
   0.2102400000000000    0.3432200000000000    0.8465100000000000 H
   0.0691200000000000    0.4167700000000000    0.8502700000000000 H
   0.8199100000000000    0.6419000000000000    0.0885700000000000 C
   0.7777900000000000    0.6654600000000001    0.0082600000000000 C
   0.6536800000000000    0.7332400000000000    0.9312500000000000 C
   0.6544200000000000    0.7315000000000000    0.0908000000000000 C
   0.6950400000000000    0.7100000000000000    0.0102900000000000 C
   0.8190100000000000    0.6449800000000000    0.9256300000000000 C
   0.0261800000000000    0.5335600000000000    0.0010500000000000 C
   0.0957000000000000    0.5369300000000000    0.0803800000000000 C
   0.0935600000000000    0.5395000000000000    0.9207300000000000 C
   0.9000500000000000    0.6003100000000000    0.0863600000000000 C
   0.9407000000000000    0.5806400000000000    0.0037000000000000 C
   0.8990400000000000    0.6033800000000000    0.9233400000000000 C
   0.1801300000000000    0.3581100000000000    0.9114200000000000 C
   0.2222500000000000    0.3345500000000000    0.9917300000000000 C
   0.3463600000000000    0.2667700000000000    0.0687400000000000 C
   0.3456200000000000    0.2685100000000000    0.9091800000000000 C
   0.3050000000000000    0.2900100000000000    0.9897000000000000 C
   0.1810300000000000    0.3550300000000000    0.0743600000000000 C
   0.9738599999999999    0.4664500000000000    0.9989400000000001 C
   0.9043400000000000    0.4630800000000000    0.9196100000000000 C
   0.9064800000000000    0.4605200000000000    0.0792700000000000 C
   0.0999900000000000    0.3997000000000000    0.9136300000000001 C
   0.0593400000000000    0.4193700000000000    0.9962900000000000 C
   0.1010000000000000    0.3966300000000000    0.0766500000000000 C
   0.6213300000000000    0.7527600000000000    0.8631700000000000 N
   0.6220900000000000    0.7499700000000000    0.1595900000000000 N
   0.1493900000000000    0.5407500000000000    0.1441900000000000 N
   0.1454700000000000    0.5453000000000000    0.8562200000000000 N
   0.3787100000000000    0.2472600000000000    0.1368200000000000 N
   0.3779500000000000    0.2500400000000000    0.8404000000000000 N
   0.8506600000000000    0.4592700000000000    0.8558000000000000 N
   0.8545700000000001    0.4547100000000000    0.1437000000000000 N
