H8 O4
1.0
  12.5489999999999995    0.0000000000000000    0.0000000000000008
   0.0004006228764851   22.9539999965039065    0.0000000000000014
   0.0000000000000000    0.0000000000000000   14.8399999999999999
H O
8 4
direct
   0.3187444093794265    0.2290819413613157    0.1206427112925456 H
   0.3518213584412171    0.2634763028380789    0.0802333317674826 H
   0.3169040179597228    0.2347173923221962    0.8566595982778923 H
   0.3510787875429238    0.2653914164578471    0.8975667798576462 H
   0.6812891607862481    0.7709521357267513    0.8793444283131202 H
   0.6482166471544178    0.7365365887958505    0.9197524710439803 H
   0.6831359202775749    0.7652909312973220    0.1433277678298234 H
   0.6489582763910372    0.7346202609049658    0.1024211558014400 H
   0.3787100000000000    0.2472600000000000    0.1368200000000000 O
   0.3779500000000000    0.2500400000000000    0.8404000000000000 O
   0.6213300000000000    0.7527600000000000    0.8631700000000000 O
   0.6220900000000000    0.7499700000000000    0.1595900000000000 O
