Zn4 H56 C112 N32
1.0
  12.5489999999999995    0.0000000000000000    0.0000000000000008
   0.0004006228764851   22.9539999965039065    0.0000000000000014
   0.0000000000000000    0.0000000000000000   14.8399999999999999
Zn H C N
4 56 112 32
direct
   0.5000200000000000    0.2500000000000000    0.7384500000000001 Zn
   0.5000200000000000    0.2500000000000000    0.2384500000000000 Zn
   0.5000200000000000    0.7500100000000000    0.2615500000000000 Zn
   0.5000200000000000    0.7500100000000000    0.7615400000000000 Zn
   0.0708000000000000    0.9112800000000000    0.8583200000000000 H
   0.2118000000000000    0.8376100000000000    0.8624000000000001 H
   0.2102500000000000    0.8432300000000000    0.1534800000000000 H
   0.0691300000000000    0.9167800000000000    0.1497200000000000 H
   0.6642800000000000    0.9586200000000000    0.7922500000000000 H
   0.6560800000000000    0.8507600000000000    0.7981500000000000 H
   0.3395700000000000    0.8486600000000000    0.7207900000000000 H
   0.3309800000000000    0.9565000000000000    0.7136900000000000 H
   0.3357700000000000    0.5414000000000000    0.7922500000000000 H
   0.3439600000000000    0.6492599999999999    0.7981500000000000 H
   0.6604800000000000    0.6513500000000000    0.7207900000000000 H
   0.6690700000000001    0.5435200000000000    0.7136900000000000 H
   0.0708000000000000    0.0887300000000000    0.6415999999999999 H
   0.2117900000000000    0.1624000000000000    0.6375100000000000 H
   0.2102400000000000    0.1567800000000000    0.3465100000000000 H
   0.0691200000000000    0.0832300000000000    0.3502700000000000 H
   0.6642700000000000    0.0413900000000000    0.7077400000000000 H
   0.6560800000000000    0.1492500000000000    0.7018400000000000 H
   0.3395700000000000    0.1513500000000000    0.7792000000000000 H
   0.3309700000000000    0.0435200000000000    0.7863000000000000 H
   0.9292400000000000    0.4112700000000000    0.6416700000000000 H
   0.7882500000000000    0.3376000000000000    0.6375100000000000 H
   0.7897999999999999    0.3432300000000000    0.3465100000000000 H
   0.9309100000000000    0.4167700000000000    0.3502700000000000 H
   0.3357700000000000    0.4586100000000000    0.7077400000000000 H
   0.3439600000000000    0.3507500000000000    0.7018400000000000 H
   0.6604700000000000    0.3486500000000000    0.7792000000000000 H
   0.6690700000000001    0.4564800000000000    0.7862900000000000 H
   0.9292400000000000    0.0887400000000000    0.1416700000000000 H
   0.7882400000000001    0.1624000000000000    0.1375100000000000 H
   0.7897999999999999    0.1567800000000000    0.8465100000000000 H
   0.9309100000000000    0.0832300000000000    0.8502700000000000 H
   0.3357600000000000    0.0414000000000000    0.2077400000000000 H
   0.3439500000000000    0.1492600000000000    0.2018500000000000 H
   0.6604700000000000    0.1513500000000000    0.2792000000000000 H
   0.6690600000000000    0.0435100000000000    0.2860000000000000 H
   0.6642700000000000    0.4586100000000000    0.2077400000000000 H
   0.6560800000000000    0.3507500000000000    0.2018500000000000 H
   0.3395700000000000    0.3486600000000000    0.2792000000000000 H
   0.3309700000000000    0.4564900000000000    0.2862900000000000 H
   0.9292400000000000    0.9112800000000000    0.3583200000000000 H
   0.7882500000000000    0.8376100000000000    0.3624800000000000 H
   0.7897999999999999    0.8432300000000000    0.6534799999999999 H
   0.9309200000000000    0.9167800000000000    0.6497200000000000 H
   0.3357800000000000    0.9586200000000000    0.2922600000000000 H
   0.3439600000000000    0.8507600000000000    0.2981500000000000 H
   0.6604700000000000    0.8486600000000000    0.2207900000000000 H
   0.6690800000000000    0.9564900000000000    0.2137000000000000 H
   0.0708000000000000    0.5887400000000000    0.3583200000000000 H
   0.2117900000000000    0.6624100000000001    0.3624800000000000 H
   0.2102400000000000    0.6567800000000000    0.6534799999999999 H
   0.0691300000000000    0.5832400000000000    0.6497200000000000 H
   0.6642700000000000    0.5414000000000000    0.2922600000000000 H
   0.6560900000000000    0.6492599999999999    0.2981500000000000 H
   0.3395700000000000    0.6513600000000001    0.2207900000000000 H
   0.3309700000000000    0.5435300000000000    0.2137000000000000 H
   0.1801400000000000    0.8581200000000000    0.0885700000000000 C
   0.2222600000000000    0.8345700000000000    0.0082600000000000 C
   0.3463600000000000    0.7667800000000000    0.9312500000000000 C
   0.3456300000000000    0.7685200000000000    0.0908100000000000 C
   0.3050000000000000    0.7900199999999999    0.0102900000000000 C
   0.5863800000000000    0.8761900000000000    0.7788100000000000 C
   0.5899600000000000    0.9366400000000000    0.7753900000000000 C
   0.4976500000000000    0.9678200000000000    0.7522000000000000 C
   0.1810400000000000    0.8550300000000000    0.9256300000000000 C
   0.4053100000000000    0.9355000000000000    0.7332000000000000 C
   0.9738700000000000    0.9664600000000000    0.0010500000000000 C
   0.9043500000000000    0.9630900000000000    0.0803800000000000 C
   0.9064800000000000    0.9605200000000000    0.9207000000000000 C
   0.1000000000000000    0.8997100000000000    0.0863600000000000 C
   0.0593500000000000    0.9193800000000000    0.0037000000000000 C
   0.4091100000000000    0.8750599999999999    0.7372200000000000 C
   0.1010100000000000    0.8966400000000000    0.9233400000000000 C
   0.4136600000000000    0.6238300000000000    0.7788000000000000 C
   0.4100800000000000    0.5633800000000000    0.7753900000000000 C
   0.5024000000000000    0.5322000000000000    0.7521900000000000 C
   0.5947300000000000    0.5645200000000000    0.7332300000000000 C
   0.9064800000000000    0.5395000000000000    0.4207000000000000 C
   0.1000000000000000    0.6003100000000000    0.5863600000000000 C
   0.0593400000000000    0.5806400000000000    0.5037000000000000 C
   0.4091200000000000    0.6249600000000000    0.2372100000000000 C
   0.5909300000000000    0.6249600000000000    0.7372100000000000 C
   0.1801300000000000    0.1418900000000000    0.4114200000000000 C
   0.2222500000000000    0.1654500000000000    0.4917300000000000 C
   0.3463500000000000    0.2332300000000000    0.5687400000000000 C
   0.3456200000000000    0.2314900000000000    0.4091800000000000 C
   0.3049900000000000    0.2099900000000000    0.4897000000000000 C
   0.5863800000000000    0.1238200000000000    0.7211900000000000 C
   0.5899600000000000    0.0633700000000000    0.7246000000000000 C
   0.4976400000000000    0.0321900000000000    0.7477900000000000 C
   0.1810300000000000    0.1449700000000000    0.5743000000000000 C
   0.4053000000000000    0.0645200000000000    0.7667600000000000 C
   0.9738599999999999    0.0335600000000000    0.4989400000000000 C
   0.9043400000000000    0.0369200000000000    0.4196100000000000 C
   0.9064700000000000    0.0394900000000000    0.5792700000000000 C
   0.0999900000000000    0.1003000000000000    0.4136300000000000 C
   0.0593400000000000    0.0806300000000000    0.4962900000000000 C
   0.4091100000000000    0.1249600000000000    0.7627699999999999 C
   0.1010000000000000    0.1033700000000000    0.5766500000000000 C
   0.8199000000000000    0.3581100000000000    0.4114200000000000 C
   0.7777900000000000    0.3345600000000000    0.4917300000000000 C
   0.6536800000000000    0.2667800000000000    0.5687400000000000 C
   0.6544200000000000    0.2685200000000000    0.4091800000000000 C
   0.6950400000000000    0.2900100000000000    0.4897000000000000 C
   0.4136500000000000    0.3761800000000000    0.7211900000000000 C
   0.4100800000000000    0.4366400000000000    0.7240000000000000 C
   0.5023900000000000    0.4678100000000000    0.7478000000000000 C
   0.8190000000000000    0.3550300000000000    0.5743000000000000 C
   0.5947300000000000    0.4354900000000000    0.7667500000000000 C
   0.0261700000000000    0.4664500000000000    0.4989400000000000 C
   0.0956900000000000    0.4630800000000000    0.4196100000000000 C
   0.0935600000000000    0.4605100000000000    0.5792700000000000 C
   0.9000400000000000    0.3997000000000000    0.4136300000000000 C
   0.9407000000000000    0.4193800000000000    0.4962900000000000 C
   0.5909300000000000    0.3750500000000000    0.7627000000000000 C
   0.8990400000000000    0.3966300000000000    0.5766500000000000 C
   0.8199000000000000    0.1418900000000000    0.9114200000000000 C
   0.7777800000000000    0.1654500000000000    0.9917300000000000 C
   0.6536800000000000    0.2332300000000000    0.0687400000000000 C
   0.6544100000000000    0.2314900000000000    0.9091800000000000 C
   0.6950400000000000    0.2099900000000000    0.9897000000000000 C
   0.4136500000000000    0.1238300000000000    0.2212000000000000 C
   0.4100800000000000    0.0633700000000000    0.2246000000000000 C
   0.5023900000000000    0.0321900000000000    0.2478100000000000 C
   0.8190000000000000    0.1449800000000000    0.0743600000000000 C
   0.5947300000000000    0.0645200000000000    0.2667600000000000 C
   0.0261700000000000    0.0335500000000000    0.9989400000000001 C
   0.0956900000000000    0.0369200000000000    0.9196100000000000 C
   0.0935600000000000    0.0394900000000000    0.0792700000000000 C
   0.9000400000000000    0.1003000000000000    0.9136300000000001 C
   0.9407000000000000    0.0806300000000000    0.9962900000000000 C
   0.5909200000000000    0.1249500000000000    0.2627900000000000 C
   0.8990400000000000    0.1033800000000000    0.0766500000000000 C
   0.5863800000000000    0.3761800000000000    0.2212000000000000 C
   0.5899600000000000    0.4366400000000000    0.2246000000000000 C
   0.4976500000000000    0.4678100000000000    0.2478000000000000 C
   0.4053100000000000    0.4354900000000000    0.2667000000000000 C
   0.4091100000000000    0.3750500000000000    0.2627900000000000 C
   0.8199100000000000    0.8581200000000000    0.5885700000000000 C
   0.7777900000000000    0.8345700000000000    0.5082600000000000 C
   0.6536900000000000    0.7667800000000000    0.4312500000000000 C
   0.6544200000000000    0.7685200000000000    0.5908000000000000 C
   0.6950499999999999    0.7900199999999999    0.5102900000000000 C
   0.4136600000000000    0.8761900000000000    0.2788000000000000 C
   0.4100900000000000    0.9366500000000000    0.2754000000000000 C
   0.5024000000000000    0.9678200000000000    0.2521900000000000 C
   0.8190100000000000    0.8550400000000000    0.4256300000000000 C
   0.5947400000000000    0.9355000000000000    0.2332400000000000 C
   0.0261800000000000    0.9664600000000000    0.5010500000000000 C
   0.0957000000000000    0.9630900000000000    0.5803000000000000 C
   0.0935700000000000    0.9605200000000000    0.4207000000000000 C
   0.9000500000000000    0.8997100000000000    0.5863600000000000 C
   0.9407000000000000    0.9193800000000000    0.5037000000000000 C
   0.5909300000000000    0.8750599999999999    0.2372100000000000 C
   0.8990400000000000    0.8966400000000000    0.4233400000000000 C
   0.1801400000000000    0.6419000000000000    0.5885700000000000 C
   0.2222500000000000    0.6654500000000000    0.5082600000000000 C
   0.3463600000000000    0.7332400000000000    0.4312500000000000 C
   0.3456200000000000    0.7314900000000000    0.5908099999999999 C
   0.3050000000000000    0.7100000000000000    0.5102900000000000 C
   0.5863900000000000    0.6238300000000000    0.2780000000000000 C
   0.5899600000000000    0.5633700000000000    0.2754000000000000 C
   0.4976500000000000    0.5322000000000000    0.2521800000000000 C
   0.1810400000000000    0.6449800000000000    0.4256300000000000 C
   0.4053100000000000    0.5645300000000000    0.2332400000000000 C
   0.9738700000000000    0.5335600000000000    0.5010500000000000 C
   0.9043500000000000    0.5369300000000000    0.5803800000000000 C
   0.1010000000000000    0.6033800000000000    0.4233400000000000 C
   0.3787200000000000    0.7472600000000000    0.8631700000000000 N
   0.3779600000000000    0.7500500000000000    0.1595900000000000 N
   0.8506600000000000    0.9592800000000000    0.1441900000000000 N
   0.4978400000000000    0.8453400000000000    0.7596800000000000 N
   0.8545800000000000    0.9547200000000000    0.8562200000000000 N
   0.5022200000000000    0.6546800000000000    0.7597000000000000 N
   0.3787100000000000    0.2527500000000000    0.6368200000000001 N
   0.3779500000000000    0.2499600000000000    0.3404100000000000 N
   0.8506500000000000    0.0407400000000000    0.3558000000000000 N
   0.4978300000000000    0.1546700000000000    0.7402900000000000 N
   0.8545700000000001    0.0453000000000000    0.6437800000000000 N
   0.6213300000000000    0.2472600000000000    0.6368200000000001 N
   0.6220900000000000    0.2500400000000000    0.3404100000000000 N
   0.1493800000000000    0.4592600000000000    0.3558000000000000 N
   0.5022100000000000    0.3453400000000000    0.7402900000000000 N
   0.1454600000000000    0.4547000000000000    0.6437800000000000 N
   0.6213200000000000    0.2527500000000000    0.1368200000000000 N
   0.6220800000000000    0.2499600000000000    0.8404000000000000 N
   0.1493800000000000    0.0407400000000000    0.8558000000000000 N
   0.5022100000000000    0.1546700000000000    0.2402800000000000 N
   0.1454600000000000    0.0453000000000000    0.1437800000000000 N
   0.4978200000000000    0.3453400000000000    0.2402000000000000 N
   0.6213300000000000    0.7472600000000000    0.3631700000000000 N
   0.6221000000000000    0.7500500000000000    0.6595800000000001 N
   0.1493900000000000    0.9592700000000000    0.6441900000000000 N
   0.5022200000000000    0.8453500000000000    0.2597100000000000 N
   0.1454700000000000    0.9547099999999999    0.3562200000000000 N
   0.3787200000000000    0.7527600000000000    0.3631700000000000 N
   0.3779500000000000    0.7499700000000000    0.6595800000000001 N
   0.8506600000000000    0.5407500000000000    0.6441900000000000 N
   0.4978300000000000    0.6546800000000000    0.2597000000000000 N
   0.8545800000000000    0.5453100000000000    0.3562000000000000 N
