C2 O4
1.0
  23.0469976270650676    0.0000000000000000    0.0104583964914506
  -0.0402034204983406   31.1239717398722817    0.0119507577869414
   0.0000000000000000    0.0000000000000000   32.4380000000000024
C O
2 4
direct
   0.4818500000000000    0.6176250000000000    0.4805350000000000 C
   0.5059600000000000    0.6333150000000000    0.5223950000000001 C
   0.4275500000000000    0.6109550000000000    0.4789100000000000 O
   0.5177600000000000    0.6128900000000000    0.4513950000000000 O
   0.5605000000000000    0.6389150000000000    0.5243000000000000 O
   0.4695500000000000    0.6388400000000000    0.5510850000000000 O
