H2 C7 O6
1.0
   6.5067145173078567    0.0000000000000000   -2.3022315674699616
  -2.4298853860033405    7.4940805173075189   -0.5303114283128935
   0.0000000000000000    0.0000000000000000   10.0930000000000000
H C O
2 7 6
direct
   0.4451700000000000    0.6020200000000000    0.7981700000000000 H
   0.9413600000000000    0.4931000000000000    0.0000000000000000 H
   0.2317400000000000    0.3395300000000000    0.7547500000000000 C
   0.3328000000000000    0.2554500000000000    0.6673600000000000 C
   0.3070700000000000    0.5153700000000000    0.8154900000000000 C
   0.2068700000000000    0.5825600000000000    0.9025700000000000 C
   0.0265700000000000    0.4530100000000000    0.9163900000000000 C
   0.9623699999999999    0.2803000000000000    0.8520300000000000 C
   0.7751400000000001    0.1387700000000000    0.8638100000000000 C
   0.0611900000000000    0.2215000000000000    0.7714200000000000 O
   0.2329100000000000    0.0914800000000000    0.6082600000000000 O
   0.5066400000000000    0.3484500000000000    0.6612600000000000 O
   0.2662200000000000    0.7415800000000000    0.0000000000000000 O
   0.6728499999999999    0.0015000000000000    0.7693600000000000 O
   0.7377400000000000    0.1781400000000000   -0.0243900000000000 O
