Cd2 H9 C7 O11
1.0
   6.5067145173078567    0.0000000000000000   -2.3022315674699616
  -2.4298853860033405    7.4940805173075189   -0.5303114283128935
   0.0000000000000000    0.0000000000000000   10.0930000000000000
Cd H C O
2 9 7 11
direct
   0.4805000000000000    0.0200700000000000    0.5359400000000000 Cd
   0.4805000000000000    0.0200600000000000    0.0359600000000000 Cd
   0.0951566893259803    0.0098146230508826    0.6004490670598426 H
   0.5950126334987703    0.4722892405604819    0.6945499745728285 H
   0.3500323133193814    0.2556070352587244    0.6523799801108939 H
   0.8949803626578045    0.1486803059329396    0.4455045193736210 H
   0.4451800000000000    0.6020200000000000    0.2981900000000000 H
   0.9413600000000000    0.4931000000000000    0.4798900000000000 H
   0.2251674834999604    0.6315855404576867   -0.0673925304565941 H
   0.7064758847331672   -0.0047999617924385    0.8698470421190179 H
   0.7895660240409277    0.2124791600426202   -0.0999498726977508 H
   0.3328100000000000    0.2554400000000000    0.1673700000000000 C
   0.7751500000000000    0.1387700000000000    0.3638200000000000 C
   0.2068800000000000    0.5825600000000000    0.4025800000000000 C
   0.3070800000000000    0.5153700000000000    0.3155000000000000 C
   0.0265600000000000    0.4530100000000000    0.4164000000000000 C
   0.9623699999999999    0.2803000000000000    0.3520400000000000 C
   0.2317500000000000    0.3395200000000000    0.2547700000000000 C
   0.2329100000000000    0.0914800000000000    0.6082600000000000 O
   0.5066400000000000    0.3484500000000000    0.6612600000000000 O
   0.5066400000000000    0.3484500000000000    0.1612700000000000 O
   0.2329200000000000    0.0914800000000000    0.1082800000000000 O
   0.6728499999999999    0.0015100000000000    0.2693700000000000 O
   0.7377500000000000    0.1781400000000000    0.4756200000000000 O
   0.2662000000000000    0.7415800000000000    0.4671700000000000 O
   0.0612000000000000    0.2215000000000000    0.2714300000000000 O
   0.2662200000000000    0.7415800000000000    0.0000000000000000 O
   0.6728499999999999    0.0015000000000000    0.7693600000000000 O
   0.7377400000000000    0.1781400000000000   -0.0243900000000000 O
