H7 O5
1.0
   6.5067145173078567    0.0000000000000000   -2.3022315674699616
  -2.4298853860033405    7.4940805173075189   -0.5303114283128935
   0.0000000000000000    0.0000000000000000   10.0930000000000000
H O
7 5
direct
   0.2251674834999604    0.6315855404576867   -0.0673925304565941 H
   0.7064758847331672   -0.0047999617924385    0.8698470421190179 H
   0.7895660240409277    0.2124791600426202   -0.0999498726977508 H
   0.0951566893259803    0.0098146230508826    0.6004490670598426 H
   0.5950126334987703    0.4722892405604819    0.6945499745728285 H
   0.3500323133193814    0.2556070352587244    0.6523799801108939 H
   0.8949803626578045    0.1486803059329396    0.4455045193736210 H
   0.2662200000000000    0.7415800000000000    0.0000000000000000 O
   0.6728499999999999    0.0015000000000000    0.7693600000000000 O
   0.7377400000000000    0.1781400000000000   -0.0243900000000000 O
   0.2329100000000000    0.0914800000000000    0.6082600000000000 O
   0.5066400000000000    0.3484500000000000    0.6612600000000000 O
