H6 O4
1.0
  31.9653239537635727    0.0000000000000000   18.3341365908228404
   5.3101737797895838   15.0772936982767849    9.1729040747376374
   0.0000000000000000    0.0000000000000000   36.8620000000000019
H O
6 4
direct
   0.3902871180861281    0.6129990504898402    0.8064468081930475 H
   0.4964002202455931    0.6133628233700400    0.8067146527438231 H
   0.4472261999552178    0.6054194819770702    0.8026981543822647 H
   0.5035832939373487    0.3867615012321556    0.6927567860363020 H
   0.6095288797964679    0.3870625358073489    0.6936796358784978 H
   0.5526170595921563    0.3948351796757371    0.6971610765384508 H
   0.4025450000000000    0.6329500000000000    0.8164450000000000 O
   0.4642700000000000    0.6331599999999999    0.8166000000000000 O
   0.5357100000000000    0.3668300000000000    0.6830000000000001 O
   0.5974349999999999    0.3670300000000000    0.6835500000000000 O
