H4 O3
1.0
  25.5290362129179300    0.0000000000000000   -8.4399558079130461
  -0.9462934635760799   14.1681378330932031   -0.1918333215743450
   0.0000000000000000    0.0000000000000000   38.0900000000000034
H O
4 3
direct
   0.1845298042730755    0.0241692176461418    0.3252154748240692 H
   0.1866269756772564    0.0690496835780375    0.2881889188380381 H
   0.0877741734356860    0.4758074294822123    0.3482255366860648 H
   0.0396756336134190    0.3876491566965188    0.1659368430460614 H
   0.1944700000000000    0.0128100000000000    0.3029900000000000 O
   0.0801150000000000    0.5351300000000000    0.3582050000000000 O
   0.0273500000000000    0.3710700000000000    0.1394500000000000 O
