H12 C15 N6
1.0
  25.5290362129179300    0.0000000000000000   -8.4399558079130461
  -0.9462934635760799   14.1681378330932031   -0.1918333215743450
   0.0000000000000000    0.0000000000000000   38.0900000000000034
H C N
12 15 6
direct
   0.0278300000000000    0.4457700000000000    0.1888000000000000 H
   0.0520850000000000    0.2680600000000000    0.1072350000000000 H
   0.1248500000000000    0.2320700000000000    0.1748900000000000 H
   0.1381650000000000    0.6024700000000000    0.2964700000000000 H
   0.0949200000000000    0.6803700000000000    0.3466650000000000 H
   0.0807200000000000    0.3845300000000000    0.3520000000000000 H
   0.0908600000000000    0.4780300000000000    0.2449450000000000 H
   0.1239700000000000    0.1892800000000000    0.2294350000000000 H
   0.1556850000000000    0.3085600000000000    0.3397900000000000 H
   0.1913600000000000    0.1012200000000000    0.2570250000000000 H
   0.1470650000000000    0.1550400000000000    0.3528500000000000 H
   0.1855450000000000    0.9773600000000000    0.3558600000000000 H
   0.0440700000000000    0.3935600000000000    0.1753800000000000 C
   0.0580400000000000    0.3002000000000000    0.1343350000000000 C
   0.0936900000000000    0.2802300000000000    0.1674500000000000 C
   0.1188550000000000    0.5695000000000000    0.3147850000000000 C
   0.0979800000000000    0.6070000000000000    0.3400200000000000 C
   0.0904800000000000    0.4548500000000000    0.3447000000000000 C
   0.1219550000000000    0.3995400000000000    0.2943500000000000 C
   0.1057200000000000    0.4114500000000000    0.2561200000000000 C
   0.1067700000000000    0.3350300000000000    0.2329150000000000 C
   0.1254650000000000    0.2497200000000000    0.2475850000000000 C
   0.1439600000000000    0.2413500000000000    0.2858800000000000 C
   0.1422400000000000    0.3157700000000000    0.3098000000000000 C
   0.1838350000000000    0.0890700000000000    0.2829200000000000 C
   0.1608300000000000    0.1160100000000000    0.3334100000000000 C
   0.1803550000000000    0.0289400000000000    0.3345500000000000 C
   0.0273500000000000    0.3710700000000000    0.1394500000000000 N
   0.0845850000000000    0.3401000000000000    0.1937500000000000 N
   0.1140300000000000    0.4719200000000000    0.3180400000000000 N
   0.0801150000000000    0.5351300000000000    0.3582050000000000 N
   0.1629650000000000    0.1539100000000000    0.3002950000000000 N
   0.1944700000000000    0.0128100000000000    0.3029900000000000 N
