Cd16 H192 C360 Br64 N96 O60
1.0
  25.5290362129179300    0.0000000000000000   -8.4399558079130461
  -0.9462934635760799   14.1681378330932031   -0.1918333215743450
   0.0000000000000000    0.0000000000000000   38.0900000000000034
Cd H C Br N O
16 192 360 64 96 60
direct
   0.2384250000000000    0.8878200000000001    0.2908000000000000 Cd
   0.0345400000000000    0.5305200000000000    0.4025000000000000 Cd
   0.2615550000000000    0.1121200000000000    0.2091500000000000 Cd
   0.4654350000000000    0.4694300000000000    0.0974750000000000 Cd
   0.7384250000000000    0.8878200000000001    0.2908000000000000 Cd
   0.5345400000000000    0.5305200000000000    0.4025000000000000 Cd
   0.7615550000000000    0.1121200000000000    0.2091500000000000 Cd
   0.9654350000000000    0.4694300000000000    0.0974750000000000 Cd
   0.2384250000000000    0.8878200000000001    0.7907999999999999 Cd
   0.0345400000000000    0.5305200000000000    0.9025000000000001 Cd
   0.2615550000000000    0.1121200000000000    0.7091499999999999 Cd
   0.4654350000000000    0.4694300000000000    0.5974750000000000 Cd
   0.7384250000000000    0.8878200000000001    0.7907999999999999 Cd
   0.5345400000000000    0.5305200000000000    0.9025000000000001 Cd
   0.7615550000000000    0.1121200000000000    0.7091499999999999 Cd
   0.9654350000000000    0.4694300000000000    0.5974750000000000 Cd
   0.0876100000000000    0.4342600000000000    0.0855500000000000 H
   0.4379550000000000    0.3972900000000000    0.0056250000000000 H
   0.0108400000000000    0.3219600000000000    0.4765950000000000 H
   0.0958950000000000    0.3505100000000000    0.4715100000000000 H
   0.2399400000000000    0.2220700000000000    0.0286550000000000 H
   0.1382150000000000    0.3072600000000000    0.0890150000000000 H
   0.1749650000000000    0.1631900000000000    0.1208900000000000 H
   0.3034700000000000    0.2812700000000000    0.0895500000000000 H
   0.3397500000000000    0.2046000000000000    0.1592200000000000 H
   0.1022250000000000    0.2800000000000000    0.4220400000000000 H
   0.2487600000000000    0.2438500000000000    0.4067600000000000 H
   0.2642200000000000    0.2621100000000000    0.4815350000000000 H
   0.0278300000000000    0.4457700000000000    0.1888000000000000 H
   0.0520850000000000    0.2680600000000000    0.1072350000000000 H
   0.1248500000000000    0.2320700000000000    0.1748900000000000 H
   0.1381650000000000    0.6024700000000000    0.2964700000000000 H
   0.0949200000000000    0.6803700000000000    0.3466650000000000 H
   0.0807200000000000    0.3845300000000000    0.3520000000000000 H
   0.0908600000000000    0.4780300000000000    0.2449450000000000 H
   0.1239700000000000    0.1892800000000000    0.2294350000000000 H
   0.1556850000000000    0.3085600000000000    0.3397900000000000 H
   0.1913600000000000    0.1012200000000000    0.2570250000000000 H
   0.1470650000000000    0.1550400000000000    0.3528500000000000 H
   0.1855450000000000    0.9773600000000000    0.3558600000000000 H
   0.4123700000000000    0.5657200000000000    0.4144300000000000 H
   0.0620300000000000    0.6027000000000000    0.4943500000000000 H
   0.4891500000000000    0.6780400000000000    0.0233800000000000 H
   0.4040900000000000    0.6494799999999999    0.0284650000000000 H
   0.2600450000000000    0.7779100000000000    0.4713250000000000 H
   0.3617700000000000    0.6927200000000000    0.4109500000000000 H
   0.3250150000000000    0.8367900000000000    0.3790800000000000 H
   0.1965150000000000    0.7187200000000000    0.4104300000000000 H
   0.1602300000000000    0.7953700000000000    0.3407550000000000 H
   0.3977600000000000    0.7199800000000000    0.0779400000000000 H
   0.2512250000000000    0.7561300000000000    0.0932150000000000 H
   0.2357650000000000    0.7378900000000000    0.0184400000000000 H
   0.4721500000000000    0.5542000000000000    0.3111400000000000 H
   0.4479000000000000    0.7319099999999999    0.3927450000000000 H
   0.3751400000000000    0.7679100000000000    0.3250900000000000 H
   0.3618100000000000    0.3975100000000000    0.2035050000000000 H
   0.4050500000000000    0.3196000000000000    0.1533150000000000 H
   0.4192650000000000    0.6154300000000000    0.1477800000000000 H
   0.4091250000000000    0.5219400000000000    0.2550300000000000 H
   0.3760200000000000    0.8107000000000000    0.2705450000000000 H
   0.3443000000000000    0.6914100000000000    0.1601900000000000 H
   0.3086350000000000    0.8987600000000000    0.2429550000000000 H
   0.3529200000000000    0.8449300000000000    0.1470850000000000 H
   0.3144350000000000    0.0226100000000000    0.1441150000000000 H
   0.5876100000000000    0.4342600000000000    0.0855500000000000 H
   0.9379550000000000    0.3972900000000000    0.0056250000000000 H
   0.5108400000000000    0.3219600000000000    0.4765950000000000 H
   0.5958950000000000    0.3505100000000000    0.4715100000000000 H
   0.7399400000000000    0.2220700000000000    0.0286550000000000 H
   0.6382150000000000    0.3072600000000000    0.0890150000000000 H
   0.6749650000000000    0.1631900000000000    0.1208900000000000 H
   0.8034700000000000    0.2812700000000000    0.0895500000000000 H
   0.8397500000000000    0.2046000000000000    0.1592200000000000 H
   0.6022250000000000    0.2800000000000000    0.4220400000000000 H
   0.7487600000000000    0.2438500000000000    0.4067600000000000 H
   0.7642200000000000    0.2621100000000000    0.4815350000000000 H
   0.5278300000000000    0.4457700000000000    0.1888000000000000 H
   0.5520850000000000    0.2680600000000000    0.1072350000000000 H
   0.6248500000000000    0.2320700000000000    0.1748900000000000 H
   0.6381650000000000    0.6024700000000000    0.2964700000000000 H
   0.5949200000000000    0.6803700000000000    0.3466650000000000 H
   0.5807200000000000    0.3845300000000000    0.3520000000000000 H
   0.5908599999999999    0.4780300000000000    0.2449450000000000 H
   0.6239700000000000    0.1892800000000000    0.2294350000000000 H
   0.6556850000000000    0.3085600000000000    0.3397900000000000 H
   0.6913600000000000    0.1012200000000000    0.2570250000000000 H
   0.6470650000000000    0.1550400000000000    0.3528500000000000 H
   0.6855450000000000    0.9773600000000000    0.3558600000000000 H
   0.9123700000000000    0.5657200000000000    0.4144300000000000 H
   0.5620300000000000    0.6027000000000000    0.4943500000000000 H
   0.9891500000000000    0.6780400000000000    0.0233800000000000 H
   0.9040900000000001    0.6494799999999999    0.0284650000000000 H
   0.7600450000000001    0.7779100000000000    0.4713250000000000 H
   0.8617699999999999    0.6927200000000000    0.4109500000000000 H
   0.8250150000000001    0.8367900000000000    0.3790800000000000 H
   0.6965150000000000    0.7187200000000000    0.4104300000000000 H
   0.6602300000000000    0.7953700000000000    0.3407550000000000 H
   0.8977600000000000    0.7199800000000000    0.0779400000000000 H
   0.7512250000000000    0.7561300000000000    0.0932150000000000 H
   0.7357650000000000    0.7378900000000000    0.0184400000000000 H
   0.9721500000000001    0.5542000000000000    0.3111400000000000 H
   0.9479000000000000    0.7319099999999999    0.3927450000000000 H
   0.8751400000000000    0.7679100000000000    0.3250900000000000 H
   0.8618100000000000    0.3975100000000000    0.2035050000000000 H
   0.9050500000000000    0.3196000000000000    0.1533150000000000 H
   0.9192650000000000    0.6154300000000000    0.1477800000000000 H
   0.9091250000000000    0.5219400000000000    0.2550300000000000 H
   0.8760200000000000    0.8107000000000000    0.2705450000000000 H
   0.8443000000000001    0.6914100000000000    0.1601900000000000 H
   0.8086350000000000    0.8987600000000000    0.2429550000000000 H
   0.8529200000000000    0.8449300000000000    0.1470850000000000 H
   0.8144350000000000    0.0226100000000000    0.1441150000000000 H
   0.0876100000000000    0.4342600000000000    0.5855500000000000 H
   0.4379550000000000    0.3972900000000000    0.5056250000000000 H
   0.0108400000000000    0.3219600000000000    0.9765950000000000 H
   0.0958950000000000    0.3505100000000000    0.9715100000000000 H
   0.2399400000000000    0.2220700000000000    0.5286550000000000 H
   0.1382150000000000    0.3072600000000000    0.5890150000000000 H
   0.1749650000000000    0.1631900000000000    0.6208899999999999 H
   0.3034700000000000    0.2812700000000000    0.5895500000000000 H
   0.3397500000000000    0.2046000000000000    0.6592200000000000 H
   0.1022250000000000    0.2800000000000000    0.9220400000000000 H
   0.2487600000000000    0.2438500000000000    0.9067600000000000 H
   0.2642200000000000    0.2621100000000000    0.9815350000000000 H
   0.0278300000000000    0.4457700000000000    0.6888000000000000 H
   0.0520850000000000    0.2680600000000000    0.6072350000000000 H
   0.1248500000000000    0.2320700000000000    0.6748900000000000 H
   0.1381650000000000    0.6024700000000000    0.7964700000000000 H
   0.0949200000000000    0.6803700000000000    0.8466650000000000 H
   0.0807200000000000    0.3845300000000000    0.8520000000000000 H
   0.0908600000000000    0.4780300000000000    0.7449450000000000 H
   0.1239700000000000    0.1892800000000000    0.7294350000000001 H
   0.1556850000000000    0.3085600000000000    0.8397900000000000 H
   0.1913600000000000    0.1012200000000000    0.7570250000000001 H
   0.1470650000000000    0.1550400000000000    0.8528500000000000 H
   0.1855450000000000    0.9773600000000000    0.8558600000000001 H
   0.4123700000000000    0.5657200000000000    0.9144300000000001 H
   0.0620300000000000    0.6027000000000000    0.9943500000000001 H
   0.4891500000000000    0.6780400000000000    0.5233800000000000 H
   0.4040900000000000    0.6494799999999999    0.5284650000000000 H
   0.2600450000000000    0.7779100000000000    0.9713250000000000 H
   0.3617700000000000    0.6927200000000000    0.9109499999999999 H
   0.3250150000000000    0.8367900000000000    0.8790800000000000 H
   0.1965150000000000    0.7187200000000000    0.9104300000000001 H
   0.1602300000000000    0.7953700000000000    0.8407549999999999 H
   0.3977600000000000    0.7199800000000000    0.5779400000000000 H
   0.2512250000000000    0.7561300000000000    0.5932150000000000 H
   0.2357650000000000    0.7378900000000000    0.5184400000000000 H
   0.4721500000000000    0.5542000000000000    0.8111400000000000 H
   0.4479000000000000    0.7319099999999999    0.8927450000000000 H
   0.3751400000000000    0.7679100000000000    0.8250900000000000 H
   0.3618100000000000    0.3975100000000000    0.7035050000000000 H
   0.4050500000000000    0.3196000000000000    0.6533150000000000 H
   0.4192650000000000    0.6154300000000000    0.6477800000000000 H
   0.4091250000000000    0.5219400000000000    0.7550300000000000 H
   0.3760200000000000    0.8107000000000000    0.7705450000000000 H
   0.3443000000000000    0.6914100000000000    0.6601900000000001 H
   0.3086350000000000    0.8987600000000000    0.7429550000000000 H
   0.3529200000000000    0.8449300000000000    0.6470850000000000 H
   0.3144350000000000    0.0226100000000000    0.6441150000000000 H
   0.5876100000000000    0.4342600000000000    0.5855500000000000 H
   0.9379550000000000    0.3972900000000000    0.5056250000000000 H
   0.5108400000000000    0.3219600000000000    0.9765950000000000 H
   0.5958950000000000    0.3505100000000000    0.9715100000000000 H
   0.7399400000000000    0.2220700000000000    0.5286550000000000 H
   0.6382150000000000    0.3072600000000000    0.5890150000000000 H
   0.6749650000000000    0.1631900000000000    0.6208899999999999 H
   0.8034700000000000    0.2812700000000000    0.5895500000000000 H
   0.8397500000000000    0.2046000000000000    0.6592200000000000 H
   0.6022250000000000    0.2800000000000000    0.9220400000000000 H
   0.7487600000000000    0.2438500000000000    0.9067600000000000 H
   0.7642200000000000    0.2621100000000000    0.9815350000000000 H
   0.5278300000000000    0.4457700000000000    0.6888000000000000 H
   0.5520850000000000    0.2680600000000000    0.6072350000000000 H
   0.6248500000000000    0.2320700000000000    0.6748900000000000 H
   0.6381650000000000    0.6024700000000000    0.7964700000000000 H
   0.5949200000000000    0.6803700000000000    0.8466650000000000 H
   0.5807200000000000    0.3845300000000000    0.8520000000000000 H
   0.5908599999999999    0.4780300000000000    0.7449450000000000 H
   0.6239700000000000    0.1892800000000000    0.7294350000000001 H
   0.6556850000000000    0.3085600000000000    0.8397900000000000 H
   0.6913600000000000    0.1012200000000000    0.7570250000000001 H
   0.6470650000000000    0.1550400000000000    0.8528500000000000 H
   0.6855450000000000    0.9773600000000000    0.8558600000000001 H
   0.9123700000000000    0.5657200000000000    0.9144300000000001 H
   0.5620300000000000    0.6027000000000000    0.9943500000000001 H
   0.9891500000000000    0.6780400000000000    0.5233800000000000 H
   0.9040900000000001    0.6494799999999999    0.5284650000000000 H
   0.7600450000000001    0.7779100000000000    0.9713250000000000 H
   0.8617699999999999    0.6927200000000000    0.9109499999999999 H
   0.8250150000000001    0.8367900000000000    0.8790800000000000 H
   0.6965150000000000    0.7187200000000000    0.9104300000000001 H
   0.6602300000000000    0.7953700000000000    0.8407549999999999 H
   0.8977600000000000    0.7199800000000000    0.5779400000000000 H
   0.7512250000000000    0.7561300000000000    0.5932150000000000 H
   0.7357650000000000    0.7378900000000000    0.5184400000000000 H
   0.9721500000000001    0.5542000000000000    0.8111400000000000 H
   0.9479000000000000    0.7319099999999999    0.8927450000000000 H
   0.8751400000000000    0.7679100000000000    0.8250900000000000 H
   0.8618100000000000    0.3975100000000000    0.7035050000000000 H
   0.9050500000000000    0.3196000000000000    0.6533150000000000 H
   0.9192650000000000    0.6154300000000000    0.6477800000000000 H
   0.9091250000000000    0.5219400000000000    0.7550300000000000 H
   0.8760200000000000    0.8107000000000000    0.7705450000000000 H
   0.8443000000000001    0.6914100000000000    0.6601900000000001 H
   0.8086350000000000    0.8987600000000000    0.7429550000000000 H
   0.8529200000000000    0.8449300000000000    0.6470850000000000 H
   0.8144350000000000    0.0226100000000000    0.6441150000000000 H
   0.0562000000000000    0.4130900000000000    0.0604500000000000 C
   0.4799500000000000    0.3931000000000000    0.0178450000000000 C
   0.0152500000000000    0.3554900000000000    0.0032700000000000 C
   0.1113900000000000    0.3296500000000000    0.0299300000000000 C
   0.1221350000000000    0.3226900000000000    0.4965000000000000 C
   0.1686250000000000    0.2837300000000000    0.4961050000000000 C
   0.2041900000000000    0.2537700000000000    0.0288000000000000 C
   0.1927300000000000    0.2629100000000000    0.0618750000000000 C
   0.1463900000000000    0.3003900000000000    0.0629200000000000 C
   0.2149450000000000    0.1855500000000000    0.1227050000000000 C
   0.2829100000000000    0.2445500000000000    0.1063150000000000 C
   0.3000550000000000    0.2065800000000000    0.1405750000000000 C
   0.1438600000000000    0.2725300000000000    0.4270900000000000 C
   0.2199600000000000    0.2523700000000000    0.4209000000000000 C
   0.2285650000000000    0.2604300000000000    0.4582150000000000 C
   0.0440700000000000    0.3935600000000000    0.1753800000000000 C
   0.0580400000000000    0.3002000000000000    0.1343350000000000 C
   0.0936900000000000    0.2802300000000000    0.1674500000000000 C
   0.1188550000000000    0.5695000000000000    0.3147850000000000 C
   0.0979800000000000    0.6070000000000000    0.3400200000000000 C
   0.0904800000000000    0.4548500000000000    0.3447000000000000 C
   0.1219550000000000    0.3995400000000000    0.2943500000000000 C
   0.1057200000000000    0.4114500000000000    0.2561200000000000 C
   0.1067700000000000    0.3350300000000000    0.2329150000000000 C
   0.1254650000000000    0.2497200000000000    0.2475850000000000 C
   0.1439600000000000    0.2413500000000000    0.2858800000000000 C
   0.1422400000000000    0.3157700000000000    0.3098000000000000 C
   0.1838350000000000    0.0890700000000000    0.2829200000000000 C
   0.1608300000000000    0.1160100000000000    0.3334100000000000 C
   0.1803550000000000    0.0289400000000000    0.3345500000000000 C
   0.2348250000000000    0.6948100000000000    0.2700750000000000 C
   0.2432650000000000    0.5943600000000000    0.2597100000000000 C
   0.2603200000000000    0.5273500000000000    0.2868650000000000 C
   0.2667400000000000    0.4340300000000000    0.2774450000000000 C
   0.3514100000000000    0.4336700000000000    0.0457950000000000 C
   0.2991050000000000    0.4684200000000000    0.0219650000000000 C
   0.2619900000000000    0.4964900000000000    0.0382350000000000 C
   0.2137100000000000    0.5272000000000000    0.0165400000000000 C
   0.0093800000000000    0.6744100000000000    0.1147000000000000 C
   0.0486150000000000    0.7541300000000000    0.1355750000000000 C
   0.0930550000000000    0.7779400000000000    0.1249500000000000 C
   0.1314150000000000    0.8464800000000000    0.1448650000000000 C
   0.1266250000000000    0.8931700000000000    0.1761850000000000 C
   0.0812000000000000    0.8725300000000000    0.1859450000000000 C
   0.0427000000000000    0.8041199999999999    0.1658450000000000 C
   0.1719300000000000    0.9587700000000000    0.1999400000000000 C
   0.4437850000000000    0.5868900000000000    0.4395300000000000 C
   0.0200350000000000    0.6068900000000000    0.4821300000000000 C
   0.4847350000000000    0.6445000000000000    0.4967050000000000 C
   0.3885950000000000    0.6703400000000000    0.4700500000000000 C
   0.3778500000000000    0.6773000000000000    0.0034650000000000 C
   0.3313600000000000    0.7162600000000000    0.0038750000000000 C
   0.2957950000000000    0.7462200000000000    0.4711800000000000 C
   0.3072550000000000    0.7370700000000000    0.4381000000000000 C
   0.3535950000000000    0.6996000000000000    0.4370600000000000 C
   0.2850400000000000    0.8144200000000000    0.3772700000000000 C
   0.2170750000000000    0.7554300000000000    0.3936650000000000 C
   0.1999300000000000    0.7933900000000000    0.3594000000000000 C
   0.3561250000000000    0.7274500000000000    0.0728900000000000 C
   0.2800250000000000    0.7476200000000000    0.0790550000000000 C
   0.2714200000000000    0.7395600000000000    0.0417600000000000 C
   0.4559100000000000    0.6064100000000000    0.3245950000000000 C
   0.4419450000000000    0.6997700000000000    0.3656450000000000 C
   0.4063000000000000    0.7197500000000000    0.3324950000000000 C
   0.3811200000000000    0.4304700000000000    0.1851950000000000 C
   0.4019950000000000    0.3929700000000000    0.1599550000000000 C
   0.4095050000000000    0.5451100000000000    0.1552800000000000 C
   0.3780300000000000    0.6004300000000000    0.2056300000000000 C
   0.3942650000000000    0.5885300000000000    0.2438600000000000 C
   0.3932150000000000    0.6649500000000000    0.2670650000000000 C
   0.3745200000000000    0.7502500000000000    0.2523900000000000 C
   0.3560300000000000    0.7586200000000000    0.2141000000000000 C
   0.3577450000000000    0.6842000000000000    0.1901700000000000 C
   0.3161550000000000    0.9109000000000000    0.2170600000000000 C
   0.3391600000000000    0.8839600000000000    0.1665650000000000 C
   0.3196300000000000    0.9710299999999999    0.1654250000000000 C
   0.2651450000000000    0.3051200000000000    0.2299000000000000 C
   0.2566850000000000    0.4055600000000000    0.2402750000000000 C
   0.2396300000000000    0.4725700000000000    0.2131200000000000 C
   0.2332100000000000    0.5658800000000000    0.2225000000000000 C
   0.1485700000000000    0.5663300000000000    0.4541850000000000 C
   0.2008750000000000    0.5315700000000000    0.4780200000000000 C
   0.2379900000000000    0.5034999999999999    0.4617500000000000 C
   0.2862700000000000    0.4727900000000000    0.4834400000000000 C
   0.4906050000000000    0.3255400000000000    0.3852800000000000 C
   0.4513700000000000    0.2458200000000000    0.3644150000000000 C
   0.4069300000000000    0.2220000000000000    0.3750200000000000 C
   0.3685750000000000    0.1534500000000000    0.3551250000000000 C
   0.3733700000000000    0.1067600000000000    0.3238000000000000 C
   0.4187950000000000    0.1274100000000000    0.3140450000000000 C
   0.4572900000000000    0.1958200000000000    0.3341450000000000 C
   0.3280600000000000    0.0411800000000000    0.3000350000000000 C
   0.5562000000000000    0.4130900000000000    0.0604500000000000 C
   0.9799500000000000    0.3931000000000000    0.0178450000000000 C
   0.5152500000000000    0.3554900000000000    0.0032700000000000 C
   0.6113900000000000    0.3296500000000000    0.0299300000000000 C
   0.6221350000000000    0.3226900000000000    0.4965000000000000 C
   0.6686250000000000    0.2837300000000000    0.4961050000000000 C
   0.7041900000000000    0.2537700000000000    0.0288000000000000 C
   0.6927300000000001    0.2629100000000000    0.0618750000000000 C
   0.6463900000000000    0.3003900000000000    0.0629200000000000 C
   0.7149449999999999    0.1855500000000000    0.1227050000000000 C
   0.7829100000000000    0.2445500000000000    0.1063150000000000 C
   0.8000550000000000    0.2065800000000000    0.1405750000000000 C
   0.6438600000000000    0.2725300000000000    0.4270900000000000 C
   0.7199599999999999    0.2523700000000000    0.4209000000000000 C
   0.7285650000000000    0.2604300000000000    0.4582150000000000 C
   0.5440700000000001    0.3935600000000000    0.1753800000000000 C
   0.5580400000000000    0.3002000000000000    0.1343350000000000 C
   0.5936900000000001    0.2802300000000000    0.1674500000000000 C
   0.6188550000000000    0.5695000000000000    0.3147850000000000 C
   0.5979800000000000    0.6070000000000000    0.3400200000000000 C
   0.5904800000000000    0.4548500000000000    0.3447000000000000 C
   0.6219550000000000    0.3995400000000000    0.2943500000000000 C
   0.6057200000000000    0.4114500000000000    0.2561200000000000 C
   0.6067700000000000    0.3350300000000000    0.2329150000000000 C
   0.6254649999999999    0.2497200000000000    0.2475850000000000 C
   0.6439600000000000    0.2413500000000000    0.2858800000000000 C
   0.6422400000000000    0.3157700000000000    0.3098000000000000 C
   0.6838350000000000    0.0890700000000000    0.2829200000000000 C
   0.6608300000000000    0.1160100000000000    0.3334100000000000 C
   0.6803550000000000    0.0289400000000000    0.3345500000000000 C
   0.7348250000000001    0.6948100000000000    0.2700750000000000 C
   0.7432650000000001    0.5943600000000000    0.2597100000000000 C
   0.7603200000000000    0.5273500000000000    0.2868650000000000 C
   0.7667400000000000    0.4340300000000000    0.2774450000000000 C
   0.8514100000000000    0.4336700000000000    0.0457950000000000 C
   0.7991050000000000    0.4684200000000000    0.0219650000000000 C
   0.7619899999999999    0.4964900000000000    0.0382350000000000 C
   0.7137100000000001    0.5272000000000000    0.0165400000000000 C
   0.5093799999999999    0.6744100000000000    0.1147000000000000 C
   0.5486150000000000    0.7541300000000000    0.1355750000000000 C
   0.5930550000000000    0.7779400000000000    0.1249500000000000 C
   0.6314150000000001    0.8464800000000000    0.1448650000000000 C
   0.6266250000000000    0.8931700000000000    0.1761850000000000 C
   0.5811999999999999    0.8725300000000000    0.1859450000000000 C
   0.5427000000000000    0.8041199999999999    0.1658450000000000 C
   0.6719300000000000    0.9587700000000000    0.1999400000000000 C
   0.9437850000000000    0.5868900000000000    0.4395300000000000 C
   0.5200350000000000    0.6068900000000000    0.4821300000000000 C
   0.9847350000000000    0.6445000000000000    0.4967050000000000 C
   0.8885950000000000    0.6703400000000000    0.4700500000000000 C
   0.8778500000000000    0.6773000000000000    0.0034650000000000 C
   0.8313600000000000    0.7162600000000000    0.0038750000000000 C
   0.7957950000000000    0.7462200000000000    0.4711800000000000 C
   0.8072550000000001    0.7370700000000000    0.4381000000000000 C
   0.8535950000000000    0.6996000000000000    0.4370600000000000 C
   0.7850400000000000    0.8144200000000000    0.3772700000000000 C
   0.7170750000000000    0.7554300000000000    0.3936650000000000 C
   0.6999299999999999    0.7933900000000000    0.3594000000000000 C
   0.8561250000000000    0.7274500000000000    0.0728900000000000 C
   0.7800250000000000    0.7476200000000000    0.0790550000000000 C
   0.7714200000000000    0.7395600000000000    0.0417600000000000 C
   0.9559100000000000    0.6064100000000000    0.3245950000000000 C
   0.9419450000000000    0.6997700000000000    0.3656450000000000 C
   0.9063000000000000    0.7197500000000000    0.3324950000000000 C
   0.8811200000000000    0.4304700000000000    0.1851950000000000 C
   0.9019950000000000    0.3929700000000000    0.1599550000000000 C
   0.9095050000000000    0.5451100000000000    0.1552800000000000 C
   0.8780300000000000    0.6004300000000000    0.2056300000000000 C
   0.8942650000000000    0.5885300000000000    0.2438600000000000 C
   0.8932150000000000    0.6649500000000000    0.2670650000000000 C
   0.8745200000000000    0.7502500000000000    0.2523900000000000 C
   0.8560300000000001    0.7586200000000000    0.2141000000000000 C
   0.8577450000000000    0.6842000000000000    0.1901700000000000 C
   0.8161550000000000    0.9109000000000000    0.2170600000000000 C
   0.8391600000000000    0.8839600000000000    0.1665650000000000 C
   0.8196300000000001    0.9710299999999999    0.1654250000000000 C
   0.7651450000000000    0.3051200000000000    0.2299000000000000 C
   0.7566850000000001    0.4055600000000000    0.2402750000000000 C
   0.7396300000000000    0.4725700000000000    0.2131200000000000 C
   0.7332100000000000    0.5658800000000000    0.2225000000000000 C
   0.6485700000000000    0.5663300000000000    0.4541850000000000 C
   0.7008750000000000    0.5315700000000000    0.4780200000000000 C
   0.7379900000000000    0.5034999999999999    0.4617500000000000 C
   0.7862700000000000    0.4727900000000000    0.4834400000000000 C
   0.9906050000000000    0.3255400000000000    0.3852800000000000 C
   0.9513700000000000    0.2458200000000000    0.3644150000000000 C
   0.9069300000000000    0.2220000000000000    0.3750200000000000 C
   0.8685750000000000    0.1534500000000000    0.3551250000000000 C
   0.8733700000000000    0.1067600000000000    0.3238000000000000 C
   0.9187950000000000    0.1274100000000000    0.3140450000000000 C
   0.9572900000000000    0.1958200000000000    0.3341450000000000 C
   0.8280600000000000    0.0411800000000000    0.3000350000000000 C
   0.0562000000000000    0.4130900000000000    0.5604500000000000 C
   0.4799500000000000    0.3931000000000000    0.5178450000000000 C
   0.0152500000000000    0.3554900000000000    0.5032700000000000 C
   0.1113900000000000    0.3296500000000000    0.5299300000000000 C
   0.1221350000000000    0.3226900000000000    0.9964999999999999 C
   0.1686250000000000    0.2837300000000000    0.9961050000000000 C
   0.2041900000000000    0.2537700000000000    0.5288000000000000 C
   0.1927300000000000    0.2629100000000000    0.5618750000000000 C
   0.1463900000000000    0.3003900000000000    0.5629200000000000 C
   0.2149450000000000    0.1855500000000000    0.6227050000000000 C
   0.2829100000000000    0.2445500000000000    0.6063150000000000 C
   0.3000550000000000    0.2065800000000000    0.6405750000000000 C
   0.1438600000000000    0.2725300000000000    0.9270900000000000 C
   0.2199600000000000    0.2523700000000000    0.9209000000000001 C
   0.2285650000000000    0.2604300000000000    0.9582150000000000 C
   0.0440700000000000    0.3935600000000000    0.6753800000000000 C
   0.0580400000000000    0.3002000000000000    0.6343350000000000 C
   0.0936900000000000    0.2802300000000000    0.6674500000000000 C
   0.1188550000000000    0.5695000000000000    0.8147850000000000 C
   0.0979800000000000    0.6070000000000000    0.8400200000000000 C
   0.0904800000000000    0.4548500000000000    0.8447000000000000 C
   0.1219550000000000    0.3995400000000000    0.7943500000000000 C
   0.1057200000000000    0.4114500000000000    0.7561200000000000 C
   0.1067700000000000    0.3350300000000000    0.7329150000000000 C
   0.1254650000000000    0.2497200000000000    0.7475849999999999 C
   0.1439600000000000    0.2413500000000000    0.7858800000000000 C
   0.1422400000000000    0.3157700000000000    0.8098000000000001 C
   0.1838350000000000    0.0890700000000000    0.7829200000000001 C
   0.1608300000000000    0.1160100000000000    0.8334100000000000 C
   0.1803550000000000    0.0289400000000000    0.8345500000000000 C
   0.2348250000000000    0.6948100000000000    0.7700750000000001 C
   0.2432650000000000    0.5943600000000000    0.7597100000000000 C
   0.2603200000000000    0.5273500000000000    0.7868649999999999 C
   0.2667400000000000    0.4340300000000000    0.7774449999999999 C
   0.3514100000000000    0.4336700000000000    0.5457950000000000 C
   0.2991050000000000    0.4684200000000000    0.5219650000000000 C
   0.2619900000000000    0.4964900000000000    0.5382350000000000 C
   0.2137100000000000    0.5272000000000000    0.5165400000000000 C
   0.4437850000000000    0.5868900000000000    0.9395300000000000 C
   0.0200350000000000    0.6068900000000000    0.9821299999999999 C
   0.4847350000000000    0.6445000000000000    0.9967050000000000 C
   0.3885950000000000    0.6703400000000000    0.9700500000000001 C
   0.3778500000000000    0.6773000000000000    0.5034650000000001 C
   0.3313600000000000    0.7162600000000000    0.5038750000000000 C