H6 O5
1.0
  39.0796628426868722    0.0000000000000000    0.1623333050220159
   0.0020953338113997   32.0429817714207985    0.0341146005405028
   0.0000000000000000    0.0000000000000000   17.9549999999999983
H O
6 5
direct
   0.6455734324642890    0.5277552923705123    0.4955701575223762 H
   0.6659384006277019    0.5730045463272012    0.2098371950806044 H
   0.6068827306556521    0.4702770412397131    0.3200879448665683 H
   0.6161129262135802    0.5027969552615005    0.2748328265735747 H
   0.5725000402064571    0.5442389017433515    0.1988005224290538 H
   0.5904529066820943    0.6044627982703670    0.2601365979159812 H
   0.6443220000000001    0.5520566666666666    0.5284300000000000 O
   0.6815060000000001    0.5659866666666666    0.1689000000000000 O
   0.5851360000000000    0.4791866666666666    0.2996400000000000 O
   0.5523840000000000    0.5289066666666666    0.2149100000000000 O
   0.5869340000000001    0.6108133333333332    0.2074000000000000 O
