H4 O2
1.0
  22.9579999999999984    0.0000000000000000    0.0000000000000014
   0.0000000000000060   37.5450000000000017    0.0000000000000023
   0.0000000000000000    0.0000000000000000   14.8520000000000003
H O
4 2
direct
   0.3671960313210912    0.3549037454266893    0.7645033806040453 H
   0.3671921135355530    0.3117693256888622    0.7354017999693313 H
   0.6327839686789088    0.3549037454266893    0.7354666193959547 H
   0.6327734658801414    0.3117623113962587    0.7644494608930249 H
   0.3451900000000000    0.3333333333333333    0.7499900000000000 O
   0.6547900000000000    0.3333333333333333    0.7499800000000000 O
