H8 C10 N2
1.0
  22.9579999999999984    0.0000000000000000    0.0000000000000014
   0.0000000000000060   37.5450000000000017    0.0000000000000023
   0.0000000000000000    0.0000000000000000   14.8520000000000003
H C N
8 10 2
direct
   0.3495800000000000    0.2802933333333333    0.7127300000000000 H
   0.4574300000000000    0.2774866666666667    0.7121300000000000 H
   0.6504000000000000    0.2802933333333333    0.7872400000000001 H
   0.5425500000000000    0.2774866666666667    0.7877999999999999 H
   0.6504000000000000    0.3863866666666667    0.7127300000000000 H
   0.5425500000000000    0.3891933333333333    0.7121300000000000 H
   0.3495800000000000    0.3863866666666667    0.7872400000000001 H
   0.4574300000000000    0.3891933333333333    0.7878500000000001 H
   0.3754900000000000    0.3036366666666667    0.7299000000000000 C
   0.4359700000000000    0.3024066666666667    0.7297200000000000 C
   0.6244800000000000    0.3036366666666667    0.7699000000000000 C
   0.5639999999999999    0.3024066666666667    0.7702000000000000 C
   0.6244800000000000    0.3630433333333333    0.7299900000000000 C
   0.5640100000000000    0.3642733333333333    0.7297000000000000 C
   0.3755000000000000    0.3630433333333333    0.7699800000000000 C
   0.4359800000000000    0.3642733333333333    0.7702599999999999 C
   0.4677700000000000    0.3333333333333333    0.7499800000000000 C
   0.5322100000000000    0.3333333333333333    0.7499900000000000 C
   0.3451900000000000    0.3333333333333333    0.7499900000000000 N
   0.6547900000000000    0.3333333333333333    0.7499800000000000 N
