H8 O4
1.0
  22.9579999999999984    0.0000000000000000    0.0000000000000014
   0.0000000000000060   37.5450000000000017    0.0000000000000023
   0.0000000000000000    0.0000000000000000   14.8520000000000003
H O
8 4
direct
   0.2639412536939960    0.6169051455022054    0.0913346243699237 H
   0.2327339686931776    0.6540174806036402    0.1985855130358545 H
   0.2639412536939960    0.6169051455022054    0.9086353756300763 H
   0.2327346142655049    0.6540184352875639    0.8013848188446520 H
   0.7360387463060040    0.3831048544977946    0.9086353756300762 H
   0.7687759309165453    0.4066547087038222    0.8986892287935012 H
   0.7360387463060040    0.3831048544977946    0.0913346243699238 H
   0.7687759309165453    0.4066547087038222    0.1012807712064988 H
   0.2483900000000000    0.6259399999999999    0.1482700000000000 O
   0.2483900000000000    0.6259399999999999    0.8517000000000000 O
   0.7515900000000000    0.3740700000000000    0.8517000000000000 O
   0.7515900000000000    0.3740700000000000    0.1482700000000000 O
