H8 C24 N8
1.0
  22.9579999999999984    0.0000000000000000    0.0000000000000014
   0.0000000000000060   37.5450000000000017    0.0000000000000023
   0.0000000000000000    0.0000000000000000   14.8520000000000003
H C N
8 24 8
direct
   0.3395600000000000    0.5698000000000000    0.8545500000000000 H
   0.4135500000000000    0.5228433333333333    0.8543400000000000 H
   0.6604200000000000    0.4302133333333333    0.8545500000000000 H
   0.5864300000000000    0.4771666666666666    0.8543400000000000 H
   0.6604200000000000    0.4302133333333333    0.1454300000000000 H
   0.5864300000000000    0.4771666666666666    0.1456400000000000 H
   0.3395600000000000    0.5698000000000000    0.1454300000000000 H
   0.4135500000000000    0.5228433333333333    0.1456400000000000 H
   0.2671000000000000    0.6150700000000000    0.9202000000000000 C
   0.3558200000000000    0.5596766666666666    0.9185500000000000 C
   0.3976200000000000    0.5330166666666667    0.9185000000000000 C
   0.4623100000000000    0.4681566666666667    0.9201700000000000 C
   0.7328800000000000    0.3849400000000000    0.9202000000000000 C
   0.6441600000000000    0.4403366666666667    0.9185500000000000 C
   0.6023600000000000    0.4669933333333333    0.9185000000000000 C
   0.5376700000000000    0.5318566666666666    0.9201700000000000 C
   0.7328800000000000    0.3849400000000000    0.0797700000000000 C
   0.6441600000000000    0.4403366666666667    0.0814300000000000 C
   0.6023600000000000    0.4669933333333333    0.0814000000000000 C
   0.5376800000000000    0.5318566666666666    0.0798000000000000 C
   0.2671000000000000    0.6150700000000000    0.0797700000000000 C
   0.3558200000000000    0.5596766666666666    0.0814300000000000 C
   0.3976200000000000    0.5330166666666667    0.0814000000000000 C
   0.4623100000000000    0.4681566666666667    0.0798000000000000 C
   0.2892700000000000    0.6012833333333333    0.0000000000000000 C
   0.3337800000000000    0.5736000000000000    0.9999800000000000 C
   0.4190200000000000    0.5193600000000000    0.0000000000000000 C
   0.4665600000000000    0.4910533333333333    0.9999800000000000 C
   0.7107200000000000    0.3987300000000000    0.0000000000000000 C
   0.6662000000000000    0.4264133333333333    0.0000000000000000 C
   0.5809600000000000    0.4806533333333333    0.9999800000000000 C
   0.5334200000000000    0.5089600000000000    0.0000000000000000 C
   0.2483900000000000    0.6259399999999999    0.8517000000000000 N
   0.4577700000000000    0.4505266666666666    0.8559600000000001 N
   0.7515900000000000    0.3740700000000000    0.8517000000000000 N
   0.5422000000000000    0.5494833333333333    0.8559000000000000 N
   0.7515900000000000    0.3740700000000000    0.1482700000000000 N
   0.5422000000000000    0.5494833333333333    0.1440100000000000 N
   0.2483900000000000    0.6259399999999999    0.1482700000000000 N
   0.4577800000000000    0.4505266666666666    0.1440100000000000 N
