H18 C12 N4
1.0
  35.3299999139029310    0.0000000000000000    0.0024664992969184
  -0.0119251239020671   31.0599940018682688   -0.0151787788345780
   0.0000000000000000    0.0000000000000000   39.5399999999999991
H C N
18 12 4
direct
   0.1224000000000000    0.8229949999999999    0.9459500000000001 H
   0.0801250000000000    0.8998600000000000    0.9420450000000000 H
   0.0771800000000000    0.8680749999999999    0.8221450000000000 H
   0.1056500000000000    0.8209000000000000    0.8241550000000000 H
   0.0562300000000000    0.8176350000000000    0.8319700000000000 H
   0.0546500000000000    0.9414400000000001    0.8949199999999999 H
   0.0638250000000000    0.9251499999999999    0.8529000000000000 H
   0.0081550000000000    0.8750150000000000    0.8544750000000000 H
   0.0042150000000000    0.8657750000000000    0.9185650000000001 H
   0.9963150000000001    0.9296249999999999    0.8592550000000000 H
   0.9896849999999999    0.9198350000000000    0.9218600000000000 H
   0.9350050000000000    0.8687700000000000    0.9237600000000000 H
   0.9480150000000001    0.8464750000000000    0.8844950000000000 H
   0.9224450000000000    0.8764600000000000    0.8326500000000000 H
   0.8790200000000000    0.9492900000000000    0.8175049999999999 H
   0.8887750000000000    0.9767399999999999    0.9378800000000000 H
   0.9184800000000000    0.9323450000000000    0.9471100000000000 H
   0.9388600000000000    0.9809600000000001    0.9322050000000000 H
   0.1079800000000000    0.8383600000000000    0.9249800000000000 C
   0.0869450000000000    0.8753299999999999    0.9235100000000001 C
   0.0888350000000000    0.8452649999999999    0.8722000000000000 C
   0.0816000000000000    0.8376700000000000    0.8357450000000000 C
   0.0516250000000000    0.9146350000000000    0.8770150000000000 C
   0.0101050000000000    0.9023749999999999    0.8721050000000000 C
   0.9893000000000001    0.8916550000000000    0.9049300000000000 C
   0.9486150000000000    0.8762250000000000    0.8994900000000000 C
   0.9143850000000000    0.9041550000000000    0.8477200000000000 C
   0.8928000000000000    0.9395850000000000    0.8407800000000001 C
   0.9094100000000001    0.9442699999999999    0.8944250000000000 C
   0.9142450000000000    0.9594400000000001    0.9297150000000001 C
   0.1091900000000000    0.8199449999999999    0.8929650000000000 N
   0.0749750000000000    0.8793200000000000    0.8902200000000000 N
   0.8896750000000000    0.9642800000000000    0.8699700000000000 N
   0.9247350000000000    0.9073850000000000    0.8814900000000000 N
