H6 C12 N2 O4
1.0
  35.3299999139029310    0.0000000000000000    0.0024664992969184
  -0.0119251239020671   31.0599940018682688   -0.0151787788345780
   0.0000000000000000    0.0000000000000000   39.5399999999999991
H C N O
6 12 2 4
direct
   0.4878200000000000    0.8216000000000000    0.8240000000000001 H
   0.4981700000000000    0.8746800000000000    0.7238850000000000 H
   0.3698400000000000    0.7245500000000000    0.6712000000000000 H
   0.3093350000000000    0.7384200000000000    0.7036000000000000 H
   0.3137950000000000    0.7775950000000000    0.7586999999999999 H
   0.5223850000000000    0.8701800000000000    0.7827500000000001 H
   0.4283850000000000    0.7710300000000000    0.8120600000000000 C
   0.4484250000000000    0.7992150000000000    0.7865400000000000 C
   0.4793250000000000    0.8237150000000000    0.7975400000000000 C
   0.4983250000000000    0.8505100000000000    0.7750500000000000 C
   0.4850350000000000    0.8526300000000000    0.7418850000000000 C
   0.4379200000000000    0.8025800000000001    0.7522850000000000 C
   0.4039450000000000    0.7800250000000000    0.7385450000000000 C
   0.4046800000000000    0.7565850000000001    0.7079350000000000 C
   0.3700150000000000    0.7418600000000000    0.6951849999999999 C
   0.3366700000000000    0.7493600000000000    0.7130350000000000 C
   0.3391850000000000    0.7713650000000001    0.7436950000000000 C
   0.4409300000000000    0.7453500000000000    0.6896249999999999 C
   0.3718550000000000    0.7866750000000000    0.7562949999999999 N
   0.4555550000000000    0.8294850000000000    0.7305100000000000 N
   0.4264950000000000    0.7313850000000000    0.8081849999999999 O
   0.4155450000000000    0.7929349999999999    0.8377100000000000 O
   0.4710100000000000    0.7403100000000000    0.7055600000000000 O
   0.4369200000000000    0.7407750000000000    0.6570350000000000 O
