H4 O2
1.0
  35.3299999139029310    0.0000000000000000    0.0024664992969184
  -0.0119251239020671   31.0599940018682688   -0.0151787788345780
   0.0000000000000000    0.0000000000000000   39.5399999999999991
H O
4 2
direct
   0.1083378545933529    0.8329138079862858    0.9155116406560381 H
   0.0943883903657236    0.8383570243645235    0.8778652493708794 H
   0.9040356636246480    0.9497192257851934    0.8877652890266414 H
   0.8918751617812499    0.9468934415398503    0.8494187288337005 H
   0.1091900000000000    0.8199449999999999    0.8929650000000000 O
   0.8896750000000000    0.9642800000000000    0.8699700000000000 O
