Ba32 H186 Pt32 C372 N62 O124
1.0
  30.7819882790839756    0.0000000000000000   -0.0268623591079648
  -0.5233878437265779   14.6576576557515565   -0.0051197487238280
   0.0000000000000000    0.0000000000000000   31.6260000000000012
Ba H Pt C N O
32 186 32 372 62 124
direct
   0.1862450000000000    0.4326700000000000    0.2804600000000000 Ba
   0.0614175000000000    0.9325500000000000    0.4694600000000000 Ba
   0.0637525000000000    0.5673300000000000    0.2195300000000000 Ba
   0.1885775000000000    0.0674500000000000    0.0305300000000000 Ba
   0.4362450000000000    0.4326700000000000    0.2804600000000000 Ba
   0.3114175000000000    0.9325500000000000    0.4694600000000000 Ba
   0.3137525000000000    0.5673300000000000    0.2195300000000000 Ba
   0.4385775000000000    0.0674500000000000    0.0305300000000000 Ba
   0.6862450000000000    0.4326700000000000    0.2804600000000000 Ba
   0.5614175000000000    0.9325500000000000    0.4694600000000000 Ba
   0.5637525000000000    0.5673300000000000    0.2195300000000000 Ba
   0.6885775000000001    0.0674500000000000    0.0305300000000000 Ba
   0.9362450000000000    0.4326700000000000    0.2804600000000000 Ba
   0.8114175000000000    0.9325500000000000    0.4694600000000000 Ba
   0.8137525000000000    0.5673300000000000    0.2195300000000000 Ba
   0.9385775000000001    0.0674500000000000    0.0305300000000000 Ba
   0.1862450000000000    0.4326700000000000    0.7804599999999999 Ba
   0.0614175000000000    0.9325500000000000    0.9694600000000000 Ba
   0.0637525000000000    0.5673300000000000    0.7195300000000000 Ba
   0.1885775000000000    0.0674500000000000    0.5305299999999999 Ba
   0.4362450000000000    0.4326700000000000    0.7804599999999999 Ba
   0.3114175000000000    0.9325500000000000    0.9694600000000000 Ba
   0.3137525000000000    0.5673300000000000    0.7195300000000000 Ba
   0.4385775000000000    0.0674500000000000    0.5305299999999999 Ba
   0.6862450000000000    0.4326700000000000    0.7804599999999999 Ba
   0.5614175000000000    0.9325500000000000    0.9694600000000000 Ba
   0.5637525000000000    0.5673300000000000    0.7195300000000000 Ba
   0.6885775000000001    0.0674500000000000    0.5305299999999999 Ba
   0.9362450000000000    0.4326700000000000    0.7804599999999999 Ba
   0.8114175000000000    0.9325500000000000    0.9694600000000000 Ba
   0.8137525000000000    0.5673300000000000    0.7195300000000000 Ba
   0.9385775000000001    0.0674500000000000    0.5305299999999999 Ba
   0.2239175000000000    0.6127400000000000    0.4037050000000000 H
   0.2191525000000000    0.7828600000000000    0.4126750000000000 H
   0.1595100000000000    0.7317800000000000    0.0337150000000000 H
   0.1420975000000000    0.6361500000000000    0.0783700000000000 H
   0.1458400000000000    0.3547000000000000    0.1127300000000000 H
   0.1813600000000000    0.3242300000000000    0.0422950000000000 H
   0.1510275000000000    0.8871700000000000    0.1535650000000000 H
   0.1559325000000000    0.7171300000000000    0.1625850000000000 H
   0.2159600000000000    0.7687600000000000    0.2835150000000000 H
   0.2330975000000000    0.8643999999999999    0.3282450000000000 H
   0.2293550000000000    0.1459300000000000    0.3625550000000000 H
   0.1936125000000000    0.1761200000000000    0.2921700000000000 H
   0.0260800000000000    0.3872700000000000    0.0962850000000000 H
   0.0308450000000000    0.2171500000000000    0.0873100000000000 H
   0.0989700000000000    0.1128300000000000    0.3464250000000000 H
   0.0940675000000000    0.2828700000000000    0.3374100000000000 H
   0.0340375000000000    0.2312400000000000    0.2164800000000000 H
   0.0169000000000000    0.1356100000000000    0.1717450000000000 H
   0.0206400000000000    0.8540700000000000    0.1374350000000000 H
   0.0563800000000000    0.8238799999999999    0.2078250000000000 H
   0.4739175000000000    0.6127400000000000    0.4037050000000000 H
   0.4691525000000000    0.7828600000000000    0.4126750000000000 H
   0.4095100000000000    0.7317800000000000    0.0337150000000000 H
   0.3920975000000000    0.6361500000000000    0.0783700000000000 H
   0.3958400000000000    0.3547000000000000    0.1127300000000000 H
   0.4313600000000000    0.3242300000000000    0.0422950000000000 H
   0.4010275000000000    0.8871700000000000    0.1535650000000000 H
   0.4059325000000000    0.7171300000000000    0.1625850000000000 H
   0.4659600000000000    0.7687600000000000    0.2835150000000000 H
   0.4830975000000000    0.8643999999999999    0.3282450000000000 H
   0.4793550000000000    0.1459300000000000    0.3625550000000000 H
   0.4436125000000000    0.1761200000000000    0.2921700000000000 H
   0.2760800000000000    0.3872700000000000    0.0962850000000000 H
   0.2808450000000000    0.2171500000000000    0.0873100000000000 H
   0.3404875000000000    0.2682200000000000    0.4662750000000000 H
   0.3579000000000000    0.3638500000000000    0.4216250000000000 H
   0.3541575000000000    0.6452900000000000    0.3872600000000000 H
   0.3186400000000000    0.6757700000000000    0.4576950000000000 H
   0.3489700000000000    0.1128300000000000    0.3464250000000000 H
   0.3440675000000000    0.2828700000000000    0.3374100000000000 H
   0.2840375000000000    0.2312400000000000    0.2164800000000000 H
   0.2669000000000000    0.1356100000000000    0.1717450000000000 H
   0.2706400000000000    0.8540700000000000    0.1374350000000000 H
   0.3063800000000000    0.8238799999999999    0.2078250000000000 H
   0.7239175000000000    0.6127400000000000    0.4037050000000000 H
   0.7191525000000000    0.7828600000000000    0.4126750000000000 H
   0.6595100000000000    0.7317800000000000    0.0337150000000000 H
   0.6420975000000000    0.6361500000000000    0.0783700000000000 H
   0.6458400000000000    0.3547000000000000    0.1127300000000000 H
   0.6813600000000000    0.3242300000000000    0.0422950000000000 H
   0.6510275000000000    0.8871700000000000    0.1535650000000000 H
   0.6559325000000000    0.7171300000000000    0.1625850000000000 H
   0.7159600000000000    0.7687600000000000    0.2835150000000000 H
   0.7330975000000000    0.8643999999999999    0.3282450000000000 H
   0.7293550000000000    0.1459300000000000    0.3625550000000000 H
   0.6936125000000000    0.1761200000000000    0.2921700000000000 H
   0.5260800000000000    0.3872700000000000    0.0962850000000000 H
   0.5308450000000000    0.2171500000000000    0.0873100000000000 H
   0.5904875000000001    0.2682200000000000    0.4662750000000000 H
   0.6079000000000000    0.3638500000000000    0.4216250000000000 H
   0.6041575000000000    0.6452900000000000    0.3872600000000000 H
   0.5686400000000000    0.6757700000000000    0.4576950000000000 H
   0.5989700000000000    0.1128300000000000    0.3464250000000000 H
   0.5940675000000000    0.2828700000000000    0.3374100000000000 H
   0.5340374999999999    0.2312400000000000    0.2164800000000000 H
   0.5169000000000000    0.1356100000000000    0.1717450000000000 H
   0.5206400000000000    0.8540700000000000    0.1374350000000000 H
   0.5563800000000000    0.8238799999999999    0.2078250000000000 H
   0.9739175000000000    0.6127400000000000    0.4037050000000000 H
   0.9691525000000000    0.7828600000000000    0.4126750000000000 H
   0.9095100000000000    0.7317800000000000    0.0337150000000000 H
   0.8920975000000000    0.6361500000000000    0.0783700000000000 H
   0.8958400000000000    0.3547000000000000    0.1127300000000000 H
   0.9313600000000000    0.3242300000000000    0.0422950000000000 H
   0.9010275000000000    0.8871700000000000    0.1535650000000000 H
   0.9059325000000000    0.7171300000000000    0.1625850000000000 H
   0.9659600000000000    0.7687600000000000    0.2835150000000000 H
   0.9830975000000000    0.8643999999999999    0.3282450000000000 H
   0.9793550000000000    0.1459300000000000    0.3625550000000000 H
   0.9436125000000000    0.1761200000000000    0.2921700000000000 H
   0.7760800000000000    0.3872700000000000    0.0962850000000000 H
   0.7808450000000000    0.2171500000000000    0.0873100000000000 H
   0.8404875000000001    0.2682200000000000    0.4662750000000000 H
   0.8579000000000000    0.3638500000000000    0.4216250000000000 H
   0.8541575000000000    0.6452900000000000    0.3872600000000000 H
   0.8186400000000000    0.6757700000000000    0.4576950000000000 H
   0.8489700000000000    0.1128300000000000    0.3464250000000000 H
   0.8440675000000000    0.2828700000000000    0.3374100000000000 H
   0.7840374999999999    0.2312400000000000    0.2164800000000000 H
   0.7669000000000000    0.1356100000000000    0.1717450000000000 H
   0.7706400000000000    0.8540700000000000    0.1374350000000000 H
   0.8063800000000000    0.8238799999999999    0.2078250000000000 H
   0.2239175000000000    0.6127400000000000    0.9037050000000000 H
   0.2191525000000000    0.7828600000000000    0.9126750000000000 H
   0.1595100000000000    0.7317800000000000    0.5337150000000001 H
   0.1420975000000000    0.6361500000000000    0.5783700000000001 H
   0.1458400000000000    0.3547000000000000    0.6127300000000000 H
   0.1813600000000000    0.3242300000000000    0.5422950000000000 H
   0.1510275000000000    0.8871700000000000    0.6535650000000000 H
   0.1559325000000000    0.7171300000000000    0.6625850000000000 H
   0.2159600000000000    0.7687600000000000    0.7835150000000000 H
   0.2330975000000000    0.8643999999999999    0.8282450000000000 H
   0.2293550000000000    0.1459300000000000    0.8625550000000000 H
   0.1936125000000000    0.1761200000000000    0.7921700000000000 H
   0.0904875000000000    0.2682200000000000    0.9662750000000000 H
   0.1079000000000000    0.3638500000000000    0.9216250000000000 H
   0.1041575000000000    0.6452900000000000    0.8872599999999999 H
   0.0686400000000000    0.6757700000000000    0.9576950000000000 H
   0.0989700000000000    0.1128300000000000    0.8464250000000000 H
   0.0940675000000000    0.2828700000000000    0.8374100000000000 H
   0.0340375000000000    0.2312400000000000    0.7164800000000000 H
   0.0169000000000000    0.1356100000000000    0.6717450000000000 H
   0.0206400000000000    0.8540700000000000    0.6374350000000000 H
   0.0563800000000000    0.8238799999999999    0.7078250000000000 H
   0.4739175000000000    0.6127400000000000    0.9037050000000000 H
   0.4691525000000000    0.7828600000000000    0.9126750000000000 H
   0.4095100000000000    0.7317800000000000    0.5337150000000001 H
   0.3920975000000000    0.6361500000000000    0.5783700000000001 H
   0.3958400000000000    0.3547000000000000    0.6127300000000000 H
   0.4313600000000000    0.3242300000000000    0.5422950000000000 H
   0.4010275000000000    0.8871700000000000    0.6535650000000000 H
   0.4059325000000000    0.7171300000000000    0.6625850000000000 H
   0.4659600000000000    0.7687600000000000    0.7835150000000000 H
   0.4830975000000000    0.8643999999999999    0.8282450000000000 H
   0.4793550000000000    0.1459300000000000    0.8625550000000000 H
   0.4436125000000000    0.1761200000000000    0.7921700000000000 H
   0.2760800000000000    0.3872700000000000    0.5962850000000000 H
   0.2808450000000000    0.2171500000000000    0.5873100000000000 H
   0.3404875000000000    0.2682200000000000    0.9662750000000000 H
   0.3579000000000000    0.3638500000000000    0.9216250000000000 H
   0.3541575000000000    0.6452900000000000    0.8872599999999999 H
   0.3186400000000000    0.6757700000000000    0.9576950000000000 H
   0.3489700000000000    0.1128300000000000    0.8464250000000000 H
   0.3440675000000000    0.2828700000000000    0.8374100000000000 H
   0.2840375000000000    0.2312400000000000    0.7164800000000000 H
   0.2669000000000000    0.1356100000000000    0.6717450000000000 H
   0.2706400000000000    0.8540700000000000    0.6374350000000000 H
   0.3063800000000000    0.8238799999999999    0.7078250000000000 H
   0.7239175000000000    0.6127400000000000    0.9037050000000000 H
   0.7191525000000000    0.7828600000000000    0.9126750000000000 H
   0.6595100000000000    0.7317800000000000    0.5337150000000001 H
   0.6420975000000000    0.6361500000000000    0.5783700000000001 H
   0.6458400000000000    0.3547000000000000    0.6127300000000000 H
   0.6813600000000000    0.3242300000000000    0.5422950000000000 H
   0.6510275000000000    0.8871700000000000    0.6535650000000000 H
   0.6559325000000000    0.7171300000000000    0.6625850000000000 H
   0.7159600000000000    0.7687600000000000    0.7835150000000000 H
   0.7330975000000000    0.8643999999999999    0.8282450000000000 H
   0.7293550000000000    0.1459300000000000    0.8625550000000000 H
   0.6936125000000000    0.1761200000000000    0.7921700000000000 H
   0.5260800000000000    0.3872700000000000    0.5962850000000000 H
   0.5308450000000000    0.2171500000000000    0.5873100000000000 H
   0.5904875000000001    0.2682200000000000    0.9662750000000000 H
   0.6079000000000000    0.3638500000000000    0.9216250000000000 H
   0.6041575000000000    0.6452900000000000    0.8872599999999999 H
   0.5686400000000000    0.6757700000000000    0.9576950000000000 H
   0.5989700000000000    0.1128300000000000    0.8464250000000000 H
   0.5940675000000000    0.2828700000000000    0.8374100000000000 H
   0.5340374999999999    0.2312400000000000    0.7164800000000000 H
   0.5169000000000000    0.1356100000000000    0.6717450000000000 H
   0.5206400000000000    0.8540700000000000    0.6374350000000000 H
   0.5563800000000000    0.8238799999999999    0.7078250000000000 H
   0.9739175000000000    0.6127400000000000    0.9037050000000000 H
   0.9691525000000000    0.7828600000000000    0.9126750000000000 H
   0.9095100000000000    0.7317800000000000    0.5337150000000001 H
   0.8920975000000000    0.6361500000000000    0.5783700000000001 H
   0.8958400000000000    0.3547000000000000    0.6127300000000000 H
   0.9313600000000000    0.3242300000000000    0.5422950000000000 H
   0.9010275000000000    0.8871700000000000    0.6535650000000000 H
   0.9059325000000000    0.7171300000000000    0.6625850000000000 H
   0.9659600000000000    0.7687600000000000    0.7835150000000000 H
   0.9830975000000000    0.8643999999999999    0.8282450000000000 H
   0.9793550000000000    0.1459300000000000    0.8625550000000000 H
   0.9436125000000000    0.1761200000000000    0.7921700000000000 H
   0.7760800000000000    0.3872700000000000    0.5962850000000000 H
   0.7808450000000000    0.2171500000000000    0.5873100000000000 H
   0.8404875000000001    0.2682200000000000    0.9662750000000000 H
   0.8579000000000000    0.3638500000000000    0.9216250000000000 H
   0.8541575000000000    0.6452900000000000    0.8872599999999999 H
   0.8186400000000000    0.6757700000000000    0.9576950000000000 H
   0.8489700000000000    0.1128300000000000    0.8464250000000000 H
   0.8440675000000000    0.2828700000000000    0.8374100000000000 H
   0.7840374999999999    0.2312400000000000    0.7164800000000000 H
   0.7669000000000000    0.1356100000000000    0.6717450000000000 H
   0.7706400000000000    0.8540700000000000    0.6374350000000000 H
   0.8063800000000000    0.8238799999999999    0.7078250000000000 H
   0.2057050000000000    0.4403200000000000    0.4620600000000000 Pt
   0.1691575000000000    0.0598300000000000    0.2119400000000000 Pt
   0.0442925000000000    0.5596800000000000    0.0379300000000000 Pt
   0.0808400000000000    0.9401700000000000    0.2880500000000000 Pt
   0.4557050000000000    0.4403200000000000    0.4620600000000000 Pt
   0.4191575000000000    0.0598300000000000    0.2119400000000000 Pt
   0.2942925000000000    0.5596800000000000    0.0379300000000000 Pt
   0.3308400000000000    0.9401700000000000    0.2880500000000000 Pt
   0.7057050000000000    0.4403200000000000    0.4620600000000000 Pt
   0.6691575000000000    0.0598300000000000    0.2119400000000000 Pt
   0.5442925000000000    0.5596800000000000    0.0379300000000000 Pt
   0.5808400000000000    0.9401700000000000    0.2880500000000000 Pt
   0.9557050000000000    0.4403200000000000    0.4620600000000000 Pt
   0.9191575000000000    0.0598300000000000    0.2119400000000000 Pt
   0.7942925000000000    0.5596800000000000    0.0379300000000000 Pt
   0.8308400000000000    0.9401700000000000    0.2880500000000000 Pt
   0.2057050000000000    0.4403200000000000    0.9620600000000000 Pt
   0.1691575000000000    0.0598300000000000    0.7119400000000000 Pt
   0.0442925000000000    0.5596800000000000    0.5379300000000000 Pt
   0.0808400000000000    0.9401700000000000    0.7880499999999999 Pt
   0.4557050000000000    0.4403200000000000    0.9620600000000000 Pt
   0.4191575000000000    0.0598300000000000    0.7119400000000000 Pt
   0.2942925000000000    0.5596800000000000    0.5379300000000000 Pt
   0.3308400000000000    0.9401700000000000    0.7880499999999999 Pt
   0.7057050000000000    0.4403200000000000    0.9620600000000000 Pt
   0.6691575000000000    0.0598300000000000    0.7119400000000000 Pt
   0.5442925000000000    0.5596800000000000    0.5379300000000000 Pt
   0.5808400000000000    0.9401700000000000    0.7880499999999999 Pt
   0.9557050000000000    0.4403200000000000    0.9620600000000000 Pt
   0.9191575000000000    0.0598300000000000    0.7119400000000000 Pt
   0.7942925000000000    0.5596800000000000    0.5379300000000000 Pt
   0.8308400000000000    0.9401700000000000    0.7880499999999999 Pt
   0.2109475000000000    0.6423700000000000    0.4324000000000000 C
   0.2071075000000000    0.7360100000000001    0.4371500000000000 C
   0.1886475000000000    0.7696300000000000    0.4742250000000000 C
   0.1746600000000000    0.7072100000000000    0.0050450000000000 C
   0.1813225000000000    0.6145400000000000    0.4996500000000000 C
   0.1705025000000000    0.5464599999999999    0.0321500000000000 C
   0.1509050000000000    0.5671200000000000    0.0704350000000000 C
   0.1414600000000000    0.4984500000000000    0.0997800000000000 C
   0.1528825000000000    0.4095000000000000    0.0902450000000000 C
   0.1722925000000000    0.3922100000000000    0.0516500000000000 C
   0.1849600000000000    0.8703200000000000    0.4833600000000000 C
   0.1172025000000000    0.5208100000000000    0.1398500000000000 C
   0.1641025000000000    0.8576800000000000    0.1822550000000000 C
   0.1680475000000000    0.7640700000000000    0.1870250000000000 C
   0.1866625000000000    0.7306200000000000    0.2240800000000000 C
   0.2006750000000000    0.7931700000000000    0.2548650000000000 C
   0.1938625000000000    0.8857800000000000    0.2494800000000000 C
   0.2046425000000000    0.9539500000000000    0.2819950000000000 C
   0.2242875000000000    0.9334000000000000    0.3202900000000000 C
   0.2337275000000000    0.0000000000000000    0.3496550000000000 C
   0.2222900000000000    0.0910500000000000    0.3400950000000000 C
   0.2027650000000000    0.1082000000000000    0.3015050000000000 C
   0.1903950000000000    0.6299500000000000    0.2332750000000000 C
   0.0079425000000000    0.9796000000000000    0.3897550000000000 C
   0.0390550000000000    0.3576300000000000    0.0675950000000000 C
   0.0428925000000000    0.2639900000000000    0.0628400000000000 C
   0.0613475000000000    0.2303800000000000    0.0257600000000000 C
   0.0686775000000000    0.3854600000000000    0.0000000000000000 C
   0.0650350000000000    0.1296800000000000    0.0166300000000000 C
   0.0858950000000000    0.1423200000000000    0.3177350000000000 C
   0.0819525000000000    0.2359300000000000    0.3129650000000000 C
   0.0633350000000000    0.2693800000000000    0.2759100000000000 C
   0.0493225000000000    0.2068300000000000    0.2451300000000000 C
   0.0561350000000000    0.1142200000000000    0.2505150000000000 C
   0.0453525000000000    0.0460500000000000    0.2180000000000000 C
   0.0257075000000000    0.0666000000000000    0.1797000000000000 C
   0.0162675000000000    0.9978700000000000    0.1503400000000000 C
   0.0277050000000000    0.9089600000000000    0.1598950000000000 C
   0.0472300000000000    0.8918000000000000    0.1984850000000000 C
   0.0596025000000000    0.3700500000000000    0.2667150000000000 C
   0.2420550000000000    0.0204000000000000    0.1102300000000000 C
   0.4609475000000000    0.6423700000000000    0.4324000000000000 C
   0.4571075000000000    0.7360100000000001    0.4371500000000000 C
   0.4386475000000000    0.7696300000000000    0.4742250000000000 C
   0.4246600000000000    0.7072100000000000    0.0050450000000000 C
   0.4313225000000000    0.6145400000000000    0.4996500000000000 C
   0.4205025000000000    0.5464599999999999    0.0321500000000000 C
   0.4009050000000000    0.5671200000000000    0.0704350000000000 C
   0.3914600000000000    0.4984500000000000    0.0997800000000000 C
   0.4028825000000000    0.4095000000000000    0.0902450000000000 C
   0.4222925000000000    0.3922100000000000    0.0516500000000000 C
   0.4349600000000000    0.8703200000000000    0.4833600000000000 C
   0.3672025000000000    0.5208100000000000    0.1398500000000000 C
   0.4141025000000000    0.8576800000000000    0.1822550000000000 C
   0.4180475000000000    0.7640700000000000    0.1870250000000000 C
   0.4366625000000000    0.7306200000000000    0.2240800000000000 C
   0.4506750000000000    0.7931700000000000    0.2548650000000000 C
   0.4438625000000000    0.8857800000000000    0.2494800000000000 C
   0.4546425000000000    0.9539500000000000    0.2819950000000000 C
   0.4742875000000000    0.9334000000000000    0.3202900000000000 C
   0.4837275000000000    0.0000000000000000    0.3496550000000000 C
   0.4722900000000000    0.0910500000000000    0.3400950000000000 C
   0.4527650000000000    0.1082000000000000    0.3015050000000000 C
   0.4403950000000000    0.6299500000000000    0.2332750000000000 C
   0.2579425000000000    0.9796000000000000    0.3897550000000000 C
   0.2890550000000000    0.3576300000000000    0.0675950000000000 C
   0.2928925000000000    0.2639900000000000    0.0628400000000000 C
   0.3113475000000000    0.2303800000000000    0.0257600000000000 C
   0.3253400000000000    0.2927900000000000    0.4949450000000000 C
   0.3186775000000000    0.3854600000000000    0.0000000000000000 C
   0.3294925000000000    0.4535500000000000    0.4678400000000000 C
   0.3490925000000000    0.4328800000000000    0.4295550000000000 C
   0.3585425000000000    0.5015500000000001    0.4002100000000000 C
   0.3471150000000000    0.5905000000000000    0.4097450000000000 C
   0.3277075000000000    0.6077900000000001    0.4483400000000000 C
   0.3150350000000000    0.1296800000000000    0.0166300000000000 C
   0.3828000000000000    0.4791900000000000    0.3601450000000000 C
   0.3358950000000000    0.1423200000000000    0.3177350000000000 C
   0.3319525000000000    0.2359300000000000    0.3129650000000000 C
   0.3133350000000000    0.2693800000000000    0.2759100000000000 C
   0.2993225000000000    0.2068300000000000    0.2451300000000000 C
   0.3061350000000000    0.1142200000000000    0.2505150000000000 C
   0.2953525000000000    0.0460500000000000    0.2180000000000000 C
   0.2757075000000000    0.0666000000000000    0.1797000000000000 C
   0.2662675000000000    0.9978700000000000    0.1503400000000000 C
   0.2777050000000000    0.9089600000000000    0.1598950000000000 C
   0.2972300000000000    0.8918000000000000    0.1984850000000000 C
   0.3096025000000000    0.3700500000000000    0.2667150000000000 C
   0.4920550000000000    0.0204000000000000    0.1102300000000000 C
   0.7109475000000001    0.6423700000000000    0.4324000000000000 C
   0.7071075000000000    0.7360100000000001    0.4371500000000000 C
   0.6886475000000000    0.7696300000000000    0.4742250000000000 C
   0.6746600000000000    0.7072100000000000    0.0050450000000000 C
   0.6813225000000001    0.6145400000000000    0.4996500000000000 C
   0.6705025000000000    0.5464599999999999    0.0321500000000000 C
   0.6509050000000001    0.5671200000000000    0.0704350000000000 C
   0.6414600000000000    0.4984500000000000    0.0997800000000000 C
   0.6528825000000000    0.4095000000000000    0.0902450000000000 C
   0.6722925000000000    0.3922100000000000    0.0516500000000000 C
   0.6849600000000000    0.8703200000000000    0.4833600000000000 C
   0.6172025000000000    0.5208100000000000    0.1398500000000000 C
   0.6641025000000000    0.8576800000000000    0.1822550000000000 C
   0.6680475000000000    0.7640700000000000    0.1870250000000000 C
   0.6866625000000000    0.7306200000000000    0.2240800000000000 C
   0.7006749999999999    0.7931700000000000    0.2548650000000000 C
   0.6938625000000000    0.8857800000000000    0.2494800000000000 C
   0.7046425000000001    0.9539500000000000    0.2819950000000000 C
   0.7242875000000000    0.9334000000000000    0.3202900000000000 C
   0.7337275000000000    0.0000000000000000    0.3496550000000000 C
   0.7222900000000000    0.0910500000000000    0.3400950000000000 C
   0.7027650000000000    0.1082000000000000    0.3015050000000000 C
   0.6903950000000000    0.6299500000000000    0.2332750000000000 C
   0.5079425000000000    0.9796000000000000    0.3897550000000000 C
   0.5390550000000000    0.3576300000000000    0.0675950000000000 C
   0.5428925000000000    0.2639900000000000    0.0628400000000000 C
   0.5613475000000000    0.2303800000000000    0.0257600000000000 C
   0.5753400000000000    0.2927900000000000    0.4949450000000000 C
   0.5686774999999999    0.3854600000000000    0.0000000000000000 C
   0.5794925000000000    0.4535500000000000    0.4678400000000000 C
   0.5990925000000000    0.4328800000000000    0.4295550000000000 C
   0.6085425000000000    0.5015500000000001    0.4002100000000000 C
   0.5971150000000001    0.5905000000000000    0.4097450000000000 C
   0.5777075000000000    0.6077900000000001    0.4483400000000000 C
   0.5650350000000000    0.1296800000000000    0.0166300000000000 C
   0.6328000000000000    0.4791900000000000    0.3601450000000000 C
   0.5858950000000001    0.1423200000000000    0.3177350000000000 C
   0.5819525000000000    0.2359300000000000    0.3129650000000000 C
   0.5633350000000000    0.2693800000000000    0.2759100000000000 C
   0.5493225000000000    0.2068300000000000    0.2451300000000000 C
   0.5561350000000000    0.1142200000000000    0.2505150000000000 C
   0.5453525000000000    0.0460500000000000    0.2180000000000000 C
   0.5257075000000000    0.0666000000000000    0.1797000000000000 C
   0.5162675000000000    0.9978700000000000    0.1503400000000000 C
   0.5277050000000000    0.9089600000000000    0.1598950000000000 C
   0.5472300000000000    0.8918000000000000    0.1984850000000000 C
   0.5596025000000000    0.3700500000000000    0.2667150000000000 C
   0.7420550000000000    0.0204000000000000    0.1102300000000000 C
   0.9609475000000001    0.6423700000000000    0.4324000000000000 C
   0.9571075000000000    0.7360100000000001    0.4371500000000000 C
   0.9386475000000000    0.7696300000000000    0.4742250000000000 C
   0.9246600000000000    0.7072100000000000    0.0050450000000000 C
   0.9313225000000001    0.6145400000000000    0.4996500000000000 C
   0.9205025000000000    0.5464599999999999    0.0321500000000000 C
   0.9009050000000001    0.5671200000000000    0.0704350000000000 C
   0.8914600000000000    0.4984500000000000    0.0997800000000000 C
   0.9028825000000000    0.4095000000000000    0.0902450000000000 C
   0.9222925000000000    0.3922100000000000    0.0516500000000000 C
   0.9349600000000000    0.8703200000000000    0.4833600000000000 C
   0.8672025000000000    0.5208100000000000    0.1398500000000000 C
   0.9141025000000000    0.8576800000000000    0.1822550000000000 C
   0.9180475000000000    0.7640700000000000    0.1870250000000000 C
   0.9366625000000000    0.7306200000000000    0.2240800000000000 C
   0.9506749999999999    0.7931700000000000    0.2548650000000000 C
   0.9438625000000000    0.8857800000000000    0.2494800000000000 C
   0.9546425000000001    0.9539500000000000    0.2819950000000000 C
   0.9742875000000000    0.9334000000000000    0.3202900000000000 C
   0.9837275000000000    0.0000000000000000    0.3496550000000000 C
   0.9722900000000000    0.0910500000000000    0.3400950000000000 C
   0.9527650000000000    0.1082000000000000    0.3015050000000000 C
   0.9403950000000000    0.6299500000000000    0.2332750000000000 C
   0.7579425000000000    0.9796000000000000    0.3897550000000000 C
   0.7890550000000000    0.3576300000000000    0.0675950000000000 C
   0.7928925000000000    0.2639900000000000    0.0628400000000000 C
   0.8113475000000000    0.2303800000000000    0.0257600000000000 C
   0.8253400000000000    0.2927900000000000    0.4949450000000000 C
   0.8186774999999999    0.3854600000000000    0.0000000000000000 C
   0.8294925000000000    0.4535500000000000    0.4678400000000000 C
   0.8490925000000000    0.4328800000000000    0.4295550000000000 C
   0.8585425000000000    0.5015500000000001    0.4002100000000000 C
   0.8471150000000001    0.5905000000000000    0.4097450000000000 C
   0.8277075000000000    0.6077900000000001    0.4483400000000000 C
   0.8150350000000000    0.1296800000000000    0.0166300000000000 C
   0.8828000000000000    0.4791900000000000    0.3601450000000000 C
   0.8358950000000001    0.1423200000000000    0.3177350000000000 C
   0.8319525000000000    0.2359300000000000    0.3129650000000000 C
   0.8133350000000000    0.2693800000000000    0.2759100000000000 C
   0.7993225000000000    0.2068300000000000    0.2451300000000000 C
   0.8061350000000000    0.1142200000000000    0.2505150000000000 C
   0.7953525000000000    0.0460500000000000    0.2180000000000000 C
   0.7757075000000000    0.0666000000000000    0.1797000000000000 C
   0.7662675000000000    0.9978700000000000    0.1503400000000000 C
   0.7777050000000000    0.9089600000000000    0.1598950000000000 C
   0.7972300000000000    0.8918000000000000    0.1984850000000000 C
   0.8096025000000000    0.3700500000000000    0.2667150000000000 C
   0.9920550000000000    0.0204000000000000    0.1102300000000000 C
   0.2109475000000000    0.6423700000000000    0.9324000000000000 C