H6 O4
1.0
  15.9945996253273286    0.0000000000000000    9.0836126527653551
   5.2868816845647686   15.0962374292151296    9.0824959969260490
   0.0000000000000000    0.0000000000000000   36.7879999999999967
H O
6 4
direct
   0.5077692127556745    0.8861782659886908    0.4430995269261739 H
   0.7195432797250189    0.8874568750880716    0.4437130464964593 H
   0.6059036397816163    0.8945921496957953    0.4472935748478976 H
   0.4922204787931259    0.1138435380364975    0.5569024956499278 H
   0.2804452291928797    0.1125663825853399    0.5562811083005286 H
   0.3940829419324028    0.1054312730177154    0.5527046947970187 H
   0.5719400000000000    0.8665500000000000    0.4332800000000000 O
   0.6951300000000000    0.8673000000000000    0.4336400000000000 O
   0.4280500000000000    0.1334700000000000    0.5667200000000000 O
   0.3048600000000000    0.1327200000000000    0.5663549999999999 O
