H3 O3
1.0
  23.2083113624504520    0.0000000000000000   13.4020253582640763
   3.8666251732025012   10.9396921174944879    6.7051582490188615
   0.0000000000000000    0.0000000000000000   26.8019999999999996
H O
3 3
direct
   0.3592260311234821    0.5916034881583769    0.2957953534510306 H
   0.3294998357184736    0.5312349790522897    0.2656115581733505 H
   0.2991144722497423    0.5915466676624684    0.2957705523905987 H
   0.3948000000000000    0.5423500000000000    0.2711650000000000 O
   0.3128550000000000    0.5422800000000000    0.2711300000000000 O
   0.3742200000000000    0.5015600000000000    0.2507850000000000 O
