H3 C9 O6
1.0
  30.0776757983161964    0.0000000000000000    2.5902006816817122
   7.2946602185723410   33.3924967770888728    7.9616654217373046
   0.0000000000000000    0.0000000000000000   20.1350000000000016
H C O
3 9 6
direct
   0.5427066666666667    0.3883900000000000    0.5655900000000000 H
   0.5911566666666666    0.2789850000000000    0.4935700000000000 H
   0.5443133333333333    0.3911000000000000    0.3525300000000000 H
   0.5494966666666666    0.3724000000000000    0.5242599999999999 C
   0.5670666666666666    0.3310100000000000    0.5377400000000000 C
   0.5677033333333333    0.3323300000000000    0.4166100000000000 C
   0.5759766666666666    0.3082500000000000    0.6093900000000000 C
   0.5767700000000000    0.3110500000000000    0.4835800000000000 C
   0.5766100000000000    0.3110550000000000    0.3587300000000000 C
   0.5237533333333333    0.4384650000000000    0.4419400000000000 C
   0.5504199999999999    0.3736800000000000    0.4041700000000000 C
   0.5415000000000000    0.3940600000000000    0.4575500000000000 C
   0.5591133333333334    0.3264700000000000    0.6589100000000000 O
   0.5992066666666667    0.2732500000000000    0.6222200000000000 O
   0.5607066666666667    0.3308850000000000    0.2994700000000000 O
   0.5986300000000000    0.2756250000000000    0.3664800000000000 O
   0.5176499999999999    0.4568300000000000    0.3805900000000000 O
   0.5152666666666667    0.4570250000000000    0.4917400000000000 O
