H9 O6
1.0
  30.0776757983161964    0.0000000000000000    2.5902006816817122
   7.2946602185723410   33.3924967770888728    7.9616654217373046
   0.0000000000000000    0.0000000000000000   20.1350000000000016
H O
9 6
direct
   0.5827447944113332    0.2937685093529775    0.6178657351486297 H
   0.6138000798751657    0.2530554650971137    0.5968734539342239 H
   0.5383227104681730    0.3523839776506775    0.6534107544114229 H
   0.5833060217855839    0.2981438733407705    0.3592535907851271 H
   0.6128010762421972    0.2550944583229504    0.4039676990334642 H
   0.5423189428945488    0.3579061048890592    0.2907988041363591 H
   0.5157654879749114    0.4300617778065290    0.3775071865246759 H
   0.5128405262713350    0.4296696439201718    0.5117831268253484 H
   0.5060256079306408    0.3257619938447409    0.4766228449920111 H
   0.5992066666666667    0.2732500000000000    0.6222200000000000 O
   0.5591133333333334    0.3264700000000000    0.6589100000000000 O
   0.5986300000000000    0.2756250000000000    0.3664800000000000 O
   0.5607066666666667    0.3308850000000000    0.2994700000000000 O
   0.5176499999999999    0.4568300000000000    0.3805900000000000 O
   0.5152666666666667    0.4570250000000000    0.4917400000000000 O
