Ca72 H141 C423 O282
1.0
  30.0776757983161964    0.0000000000000000    2.5902006816817122
   7.2946602185723410   33.3924967770888728    7.9616654217373046
   0.0000000000000000    0.0000000000000000   20.1350000000000016
Ca H C O
72 141 423 282
direct
   0.1701966666666667    0.4782600000000000    0.0934600000000000 Ca
   0.2710466666666667    0.2719100000000000    0.7454800000000000 Ca
   0.2710533333333333    0.2719100000000000    0.2454700000000000 Ca
   0.1631366666666667    0.0217550000000000    0.9065299999999999 Ca
   0.1631433333333333    0.0217500000000000    0.4065100000000000 Ca
   0.0622800000000000    0.2281000000000000    0.7544999999999999 Ca
   0.0622866666666667    0.2281000000000000    0.2544900000000000 Ca
   0.1927533333333333    0.3751400000000000    0.7120200000000000 Ca
   0.1927600000000000    0.3751450000000000    0.2120200000000000 Ca
   0.1405700000000000    0.1248650000000000    0.7879600000000000 Ca
   0.1405766666666667    0.1248650000000000    0.2879500000000000 Ca
   0.1701900000000000    0.4782600000000000    0.5934700000000001 Ca
   0.5035300000000000    0.4782600000000000    0.0934600000000000 Ca
   0.6043799999999999    0.2719100000000000    0.7454800000000000 Ca
   0.6043866666666666    0.2719100000000000    0.2454700000000000 Ca
   0.4964700000000000    0.0217550000000000    0.9065299999999999 Ca
   0.4964766666666666    0.0217500000000000    0.4065100000000000 Ca
   0.3956133333333333    0.2281000000000000    0.7544999999999999 Ca
   0.3956200000000000    0.2281000000000000    0.2544900000000000 Ca
   0.5260866666666666    0.3751400000000000    0.7120200000000000 Ca
   0.5260933333333333    0.3751450000000000    0.2120200000000000 Ca
   0.4739033333333333    0.1248650000000000    0.7879600000000000 Ca
   0.4739099999999999    0.1248650000000000    0.2879500000000000 Ca
   0.5035233333333333    0.4782600000000000    0.5934700000000001 Ca
   0.8368633333333333    0.4782600000000000    0.0934600000000000 Ca
   0.9377133333333333    0.2719100000000000    0.7454800000000000 Ca
   0.9377199999999999    0.2719100000000000    0.2454700000000000 Ca
   0.8298033333333332    0.0217550000000000    0.9065299999999999 Ca
   0.8298099999999999    0.0217500000000000    0.4065100000000000 Ca
   0.7289466666666666    0.2281000000000000    0.7544999999999999 Ca
   0.7289533333333333    0.2281000000000000    0.2544900000000000 Ca
   0.8594200000000000    0.3751400000000000    0.7120200000000000 Ca
   0.8594266666666666    0.3751450000000000    0.2120200000000000 Ca
   0.8072366666666666    0.1248650000000000    0.7879600000000000 Ca
   0.8072433333333333    0.1248650000000000    0.2879500000000000 Ca
   0.8368566666666666    0.4782600000000000    0.5934700000000001 Ca
   0.1701966666666667    0.9782600000000000    0.0934600000000000 Ca
   0.2710466666666667    0.7719100000000000    0.7454800000000000 Ca
   0.2710533333333333    0.7719100000000000    0.2454700000000000 Ca
   0.1631366666666667    0.5217550000000000    0.9065299999999999 Ca
   0.1631433333333333    0.5217500000000000    0.4065100000000000 Ca
   0.0622800000000000    0.7281000000000000    0.7544999999999999 Ca
   0.0622866666666667    0.7281000000000000    0.2544900000000000 Ca
   0.1927533333333333    0.8751400000000000    0.7120200000000000 Ca
   0.1927600000000000    0.8751450000000001    0.2120200000000000 Ca
   0.1405700000000000    0.6248650000000000    0.7879600000000000 Ca
   0.1405766666666667    0.6248650000000000    0.2879500000000000 Ca
   0.1701900000000000    0.9782600000000000    0.5934700000000001 Ca
   0.5035300000000000    0.9782600000000000    0.0934600000000000 Ca
   0.6043799999999999    0.7719100000000000    0.7454800000000000 Ca
   0.6043866666666666    0.7719100000000000    0.2454700000000000 Ca
   0.4964700000000000    0.5217550000000000    0.9065299999999999 Ca
   0.4964766666666666    0.5217500000000000    0.4065100000000000 Ca
   0.3956133333333333    0.7281000000000000    0.7544999999999999 Ca
   0.3956200000000000    0.7281000000000000    0.2544900000000000 Ca
   0.5260866666666666    0.8751400000000000    0.7120200000000000 Ca
   0.5260933333333333    0.8751450000000001    0.2120200000000000 Ca
   0.4739033333333333    0.6248650000000000    0.7879600000000000 Ca
   0.4739099999999999    0.6248650000000000    0.2879500000000000 Ca
   0.5035233333333333    0.9782600000000000    0.5934700000000001 Ca
   0.8368633333333333    0.9782600000000000    0.0934600000000000 Ca
   0.9377133333333333    0.7719100000000000    0.7454800000000000 Ca
   0.9377199999999999    0.7719100000000000    0.2454700000000000 Ca
   0.8298033333333332    0.5217550000000000    0.9065299999999999 Ca
   0.8298099999999999    0.5217500000000000    0.4065100000000000 Ca
   0.7289466666666666    0.7281000000000000    0.7544999999999999 Ca
   0.7289533333333333    0.7281000000000000    0.2544900000000000 Ca
   0.8594200000000000    0.8751400000000000    0.7120200000000000 Ca
   0.8594266666666666    0.8751450000000001    0.2120200000000000 Ca
   0.8072366666666666    0.6248650000000000    0.7879600000000000 Ca
   0.8072433333333333    0.6248650000000000    0.2879500000000000 Ca
   0.8368566666666666    0.9782600000000000    0.5934700000000001 Ca
   0.2901066666666666    0.3615050000000000    0.6844100000000000 H
   0.2901100000000000    0.3615050000000000    0.1844000000000000 H
   0.0050766666666667    0.4709050000000000    0.6132200000000000 H
   0.0050833333333333    0.4709100000000000    0.1132100000000000 H
   0.0988466666666667    0.3586550000000000    0.6836300000000000 H
   0.0988500000000000    0.3586550000000000    0.1836200000000000 H
   0.2093733333333333    0.3883900000000000    0.5655900000000000 H
   0.2093766666666667    0.3883900000000000    0.0655800000000000 H
   0.2578233333333333    0.2789850000000000    0.4935700000000000 H
   0.2578266666666666    0.2789850000000000    0.0000000000000000 H
   0.2109700000000000    0.3911000000000000    0.8525500000000000 H
   0.2109800000000000    0.3911000000000000    0.3525300000000000 H
   0.0432233333333333    0.1385050000000000    0.8155700000000000 H
   0.0432300000000000    0.1385050000000000    0.3155600000000000 H
   0.3282500000000000    0.0291000000000000    0.8867699999999999 H
   0.3282566666666666    0.0291050000000000    0.3867700000000000 H
   0.2344833333333333    0.1413550000000000    0.8163400000000000 H
   0.2344900000000000    0.1413550000000000    0.3163300000000000 H
   0.1239533333333333    0.1116150000000000    0.9344000000000000 H
   0.1239566666666667    0.1116200000000000    0.4343900000000000 H
   0.0755066666666667    0.2210300000000000    0.0064200000000000 H
   0.0755100000000000    0.2210300000000000    0.5064100000000000 H
   0.1223533333333333    0.1089150000000000    0.6474400000000000 H
   0.1223600000000000    0.1089150000000000    0.1474300000000000 H
   0.6234400000000000    0.3615050000000000    0.6844100000000000 H
   0.6234433333333333    0.3615050000000000    0.1844000000000000 H
   0.3384100000000000    0.4709050000000000    0.6132200000000000 H
   0.3384166666666666    0.4709100000000000    0.1132100000000000 H
   0.4321800000000000    0.3586550000000000    0.6836300000000000 H
   0.4321833333333333    0.3586550000000000    0.1836200000000000 H
   0.5427100000000000    0.3883900000000000    0.0655800000000000 H
   0.5911599999999999    0.2789850000000000    0.0000000000000000 H
   0.5443033333333334    0.3911000000000000    0.8525500000000000 H
   0.3765566666666667    0.1385050000000000    0.8155700000000000 H
   0.3765633333333333    0.1385050000000000    0.3155600000000000 H
   0.6615833333333333    0.0291000000000000    0.8867699999999999 H
   0.6615899999999999    0.0291050000000000    0.3867700000000000 H
   0.5678166666666666    0.1413550000000000    0.8163400000000000 H
   0.5678233333333333    0.1413550000000000    0.3163300000000000 H
   0.4572866666666666    0.1116150000000000    0.9344000000000000 H
   0.4572900000000000    0.1116200000000000    0.4343900000000000 H
   0.4088400000000000    0.2210300000000000    0.0064200000000000 H
   0.4088433333333333    0.2210300000000000    0.5064100000000000 H
   0.4556866666666666    0.1089150000000000    0.6474400000000000 H
   0.4556933333333333    0.1089150000000000    0.1474300000000000 H
   0.9567733333333333    0.3615050000000000    0.6844100000000000 H
   0.9567766666666666    0.3615050000000000    0.1844000000000000 H
   0.6717433333333332    0.4709050000000000    0.6132200000000000 H
   0.6717500000000000    0.4709100000000000    0.1132100000000000 H
   0.7655133333333333    0.3586550000000000    0.6836300000000000 H
   0.7655166666666666    0.3586550000000000    0.1836200000000000 H
   0.8760399999999999    0.3883900000000000    0.5655900000000000 H
   0.8760433333333333    0.3883900000000000    0.0655800000000000 H
   0.9244899999999999    0.2789850000000000    0.4935700000000000 H
   0.9244933333333333    0.2789850000000000    0.0000000000000000 H
   0.8776366666666666    0.3911000000000000    0.8525500000000000 H
   0.8776466666666666    0.3911000000000000    0.3525300000000000 H
   0.7098899999999999    0.1385050000000000    0.8155700000000000 H
   0.7098966666666666    0.1385050000000000    0.3155600000000000 H
   0.9949166666666667    0.0291000000000000    0.8867699999999999 H
   0.9949233333333333    0.0291050000000000    0.3867700000000000 H
   0.9011499999999999    0.1413550000000000    0.8163400000000000 H
   0.9011566666666666    0.1413550000000000    0.3163300000000000 H
   0.7906200000000000    0.1116150000000000    0.9344000000000000 H
   0.7906233333333332    0.1116200000000000    0.4343900000000000 H
   0.7421733333333334    0.2210300000000000    0.0064200000000000 H
   0.7421766666666666    0.2210300000000000    0.5064100000000000 H
   0.7890199999999999    0.1089150000000000    0.6474400000000000 H
   0.7890266666666667    0.1089150000000000    0.1474300000000000 H
   0.2901066666666666    0.8615050000000000    0.6844100000000000 H
   0.2901100000000000    0.8615050000000000    0.1844000000000000 H
   0.0050766666666667    0.9709050000000000    0.6132200000000000 H
   0.0050833333333333    0.9709099999999999    0.1132100000000000 H
   0.0988466666666667    0.8586549999999999    0.6836300000000000 H
   0.0988500000000000    0.8586549999999999    0.1836200000000000 H
   0.2093733333333333    0.8883900000000000    0.5655900000000000 H
   0.2093766666666667    0.8883900000000000    0.0655800000000000 H
   0.2578233333333333    0.7789850000000000    0.4935700000000000 H
   0.2578266666666666    0.7789850000000000    0.0000000000000000 H
   0.2109700000000000    0.8911000000000000    0.8525500000000000 H
   0.2109800000000000    0.8911000000000000    0.3525300000000000 H
   0.0432233333333333    0.6385050000000000    0.8155700000000000 H
   0.0432300000000000    0.6385050000000000    0.3155600000000000 H
   0.3282500000000000    0.5291000000000000    0.8867699999999999 H
   0.3282566666666666    0.5291050000000000    0.3867700000000000 H
   0.2344833333333333    0.6413550000000000    0.8163400000000000 H
   0.2344900000000000    0.6413550000000000    0.3163300000000000 H
   0.1239533333333333    0.6116150000000000    0.9344000000000000 H
   0.1239566666666667    0.6116200000000001    0.4343900000000000 H
   0.0755066666666667    0.7210300000000001    0.0064200000000000 H
   0.0755100000000000    0.7210300000000001    0.5064100000000000 H
   0.1223533333333333    0.6089150000000000    0.6474400000000000 H
   0.1223600000000000    0.6089150000000000    0.1474300000000000 H
   0.6234400000000000    0.8615050000000000    0.6844100000000000 H
   0.6234433333333333    0.8615050000000000    0.1844000000000000 H
   0.3384100000000000    0.9709050000000000    0.6132200000000000 H
   0.3384166666666666    0.9709099999999999    0.1132100000000000 H
   0.4321800000000000    0.8586549999999999    0.6836300000000000 H
   0.4321833333333333    0.8586549999999999    0.1836200000000000 H
   0.5427066666666667    0.8883900000000000    0.5655900000000000 H
   0.5427100000000000    0.8883900000000000    0.0655800000000000 H
   0.5911566666666666    0.7789850000000000    0.4935700000000000 H
   0.5911599999999999    0.7789850000000000    0.0000000000000000 H
   0.5443033333333334    0.8911000000000000    0.8525500000000000 H
   0.5443133333333333    0.8911000000000000    0.3525300000000000 H
   0.3765566666666667    0.6385050000000000    0.8155700000000000 H
   0.3765633333333333    0.6385050000000000    0.3155600000000000 H
   0.6615833333333333    0.5291000000000000    0.8867699999999999 H
   0.6615899999999999    0.5291050000000000    0.3867700000000000 H
   0.5678166666666666    0.6413550000000000    0.8163400000000000 H
   0.5678233333333333    0.6413550000000000    0.3163300000000000 H
   0.4572866666666666    0.6116150000000000    0.9344000000000000 H
   0.4572900000000000    0.6116200000000001    0.4343900000000000 H
   0.4088400000000000    0.7210300000000001    0.0064200000000000 H
   0.4088433333333333    0.7210300000000001    0.5064100000000000 H
   0.4556866666666666    0.6089150000000000    0.6474400000000000 H
   0.4556933333333333    0.6089150000000000    0.1474300000000000 H
   0.9567733333333333    0.8615050000000000    0.6844100000000000 H
   0.9567766666666666    0.8615050000000000    0.1844000000000000 H
   0.6717433333333332    0.9709050000000000    0.6132200000000000 H
   0.6717500000000000    0.9709099999999999    0.1132100000000000 H
   0.7655133333333333    0.8586549999999999    0.6836300000000000 H
   0.7655166666666666    0.8586549999999999    0.1836200000000000 H
   0.8760399999999999    0.8883900000000000    0.5655900000000000 H
   0.8760433333333333    0.8883900000000000    0.0655800000000000 H
   0.9244899999999999    0.7789850000000000    0.4935700000000000 H
   0.9244933333333333    0.7789850000000000    0.0000000000000000 H
   0.8776366666666666    0.8911000000000000    0.8525500000000000 H
   0.8776466666666666    0.8911000000000000    0.3525300000000000 H
   0.7098899999999999    0.6385050000000000    0.8155700000000000 H
   0.7098966666666666    0.6385050000000000    0.3155600000000000 H
   0.9949166666666667    0.5291000000000000    0.8867699999999999 H
   0.9949233333333333    0.5291050000000000    0.3867700000000000 H
   0.9011499999999999    0.6413550000000000    0.8163400000000000 H
   0.9011566666666666    0.6413550000000000    0.3163300000000000 H
   0.7906200000000000    0.6116150000000000    0.9344000000000000 H
   0.7906233333333332    0.6116200000000001    0.4343900000000000 H
   0.7421733333333334    0.7210300000000001    0.0064200000000000 H
   0.7421766666666666    0.7210300000000001    0.5064100000000000 H
   0.7890199999999999    0.6089150000000000    0.6474400000000000 H
   0.7890266666666667    0.6089150000000000    0.1474300000000000 H
   0.3176900000000000    0.3774850000000000    0.6747200000000000 C
   0.3176966666666666    0.3774850000000000    0.1747100000000000 C
   0.3088033333333333    0.4189050000000000    0.6486499999999999 C
   0.3088100000000000    0.4189050000000000    0.1486400000000000 C
   0.0562366666666667    0.4174800000000000    0.6485500000000000 C
   0.0562433333333333    0.4174800000000000    0.1485400000000000 C
   0.2610666666666667    0.4417700000000000    0.6352700000000000 C
   0.2610733333333333    0.4417700000000000    0.1352600000000000 C
   0.0116400000000000    0.4388150000000000    0.6345900000000000 C
   0.0116433333333333    0.4388150000000000    0.1345800000000000 C
   0.0948200000000000    0.4387850000000000    0.6358700000000000 C
   0.0948266666666667    0.4387850000000000    0.1358600000000000 C
   0.0390400000000000    0.3113550000000000    0.7135500000000000 C
   0.0390466666666667    0.3113550000000000    0.2135500000000000 C
   0.0644500000000000    0.3761000000000000    0.6742000000000000 C
   0.0644566666666667    0.3761050000000000    0.1741900000000000 C
   0.0287900000000000    0.3557700000000000    0.6870200000000000 C
   0.0287966666666667    0.3557700000000000    0.1870000000000000 C
   0.2161633333333333    0.3724000000000000    0.5242599999999999 C
   0.2161633333333333    0.3724000000000000    0.0242500000000000 C
   0.2337333333333333    0.3310100000000000    0.5377400000000000 C
   0.2337366666666666    0.3310100000000000    0.0377200000000000 C
   0.2343633333333333    0.3323300000000000    0.9166200000000000 C
   0.2343700000000000    0.3323300000000000    0.4166100000000000 C
   0.2426433333333333    0.3082500000000000    0.6093900000000000 C
   0.2426466666666667    0.3082500000000000    0.1093800000000000 C
   0.2434366666666667    0.3110500000000000    0.4835800000000000 C
   0.2434400000000000    0.3110500000000000    0.0000000000000000 C
   0.2432666666666667    0.3110550000000000    0.8587399999999999 C
   0.2432766666666666    0.3110550000000000    0.3587300000000000 C
   0.1904166666666667    0.4384650000000000    0.9419500000000000 C
   0.1904200000000000    0.4384650000000000    0.4419400000000000 C
   0.2170800000000000    0.3736800000000000    0.9041800000000000 C
   0.2170866666666667    0.3736800000000000    0.4041700000000000 C
   0.2081633333333333    0.3940600000000000    0.9575600000000000 C
   0.2081666666666667    0.3940600000000000    0.4575500000000000 C
   0.0156366666666667    0.1225250000000000    0.8252600000000000 C
   0.0156433333333333    0.1225200000000000    0.3252400000000000 C
   0.0245233333333333    0.0811050000000000    0.8513300000000000 C
   0.0245300000000000    0.0811050000000000    0.3513300000000000 C
   0.2770899999999999    0.0825300000000000    0.8514300000000000 C
   0.2770966666666667    0.0825300000000000    0.3514300000000000 C
   0.0722600000000000    0.0582400000000000    0.8647200000000000 C
   0.0722666666666667    0.0582350000000000    0.3647100000000000 C
   0.3216900000000000    0.0611950000000000    0.8653999999999999 C
   0.3216966666666666    0.0611950000000000    0.3653800000000000 C
   0.2385100000000000    0.0612300000000000    0.8641100000000000 C
   0.2385133333333333    0.0612300000000000    0.3641100000000000 C
   0.2942866666666666    0.1886550000000000    0.7864200000000000 C
   0.2942933333333333    0.1886550000000000    0.2864000000000000 C
   0.2688766666666667    0.1239050000000000    0.8257700000000000 C
   0.2688866666666667    0.1239050000000000    0.3257600000000000 C
   0.3045400000000000    0.1442400000000000    0.8129600000000000 C
   0.3045433333333333    0.1442400000000000    0.3129600000000000 C
   0.1171566666666667    0.1276100000000000    0.9757300000000000 C
   0.1171700000000000    0.1276100000000000    0.4757200000000000 C
   0.0996033333333333    0.1690000000000000    0.9622500000000000 C
   0.0995966666666667    0.1690000000000000    0.4622400000000000 C
   0.0989633333333333    0.1676800000000000    0.5833700000000001 C
   0.0989766666666667    0.1676850000000000    0.0833600000000000 C
   0.0906766666666667    0.1917550000000000    0.8905999999999999 C
   0.0906866666666667    0.1917600000000000    0.3905900000000000 C
   0.0898833333333333    0.1889600000000000    0.0164100000000000 C
   0.0898966666666667    0.1889600000000000    0.5163900000000000 C
   0.0900600000000000    0.1889600000000000    0.6412500000000000 C
   0.0900600000000000    0.1889600000000000    0.1412400000000000 C
   0.1429133333333333    0.0615500000000000    0.5580500000000000 C
   0.1429066666666667    0.0615500000000000    0.0580400000000000 C
   0.1162466666666667    0.1263300000000000    0.5958100000000000 C
   0.1162433333333333    0.1263300000000000    0.0958000000000000 C
   0.1251633333333333    0.1059500000000000    0.5424300000000000 C
   0.1251766666666667    0.1059550000000000    0.0424200000000000 C
   0.6510233333333333    0.3774850000000000    0.6747200000000000 C
   0.6510300000000000    0.3774850000000000    0.1747100000000000 C
   0.6421366666666666    0.4189050000000000    0.6486499999999999 C
   0.6421433333333333    0.4189050000000000    0.1486400000000000 C
   0.3895700000000000    0.4174800000000000    0.6485500000000000 C
   0.3895766666666666    0.4174800000000000    0.1485400000000000 C
   0.5944000000000000    0.4417700000000000    0.6352700000000000 C
   0.5944066666666666    0.4417700000000000    0.1352600000000000 C
   0.3449733333333333    0.4388150000000000    0.6345900000000000 C
   0.3449766666666667    0.4388150000000000    0.1345800000000000 C
   0.4281533333333333    0.4387850000000000    0.6358700000000000 C
   0.4281600000000000    0.4387850000000000    0.1358600000000000 C
   0.3723733333333333    0.3113550000000000    0.7135500000000000 C
   0.3723800000000000    0.3113550000000000    0.2135500000000000 C
   0.3977833333333333    0.3761000000000000    0.6742000000000000 C
   0.3977900000000000    0.3761050000000000    0.1741900000000000 C
   0.3621233333333333    0.3557700000000000    0.6870200000000000 C
   0.3621300000000000    0.3557700000000000    0.1870000000000000 C
   0.5494966666666666    0.3724000000000000    0.0242500000000000 C
   0.5670700000000000    0.3310100000000000    0.0377200000000000 C
   0.5676966666666666    0.3323300000000000    0.9166200000000000 C
   0.5759799999999999    0.3082500000000000    0.1093800000000000 C
   0.5767733333333334    0.3110500000000000    0.0000000000000000 C
   0.5766000000000000    0.3110550000000000    0.8587399999999999 C
   0.5237499999999999    0.4384650000000000    0.9419500000000000 C
   0.5504133333333333    0.3736800000000000    0.9041800000000000 C
   0.5414966666666666    0.3940600000000000    0.9575600000000000 C
   0.3489700000000000    0.1225250000000000    0.8252600000000000 C
   0.3489766666666667    0.1225200000000000    0.3252400000000000 C
   0.3578566666666667    0.0811050000000000    0.8513300000000000 C
   0.3578633333333333    0.0811050000000000    0.3513300000000000 C
   0.6104233333333333    0.0825300000000000    0.8514300000000000 C
   0.6104300000000000    0.0825300000000000    0.3514300000000000 C
   0.4055933333333333    0.0582400000000000    0.8647200000000000 C
   0.4056000000000000    0.0582350000000000    0.3647100000000000 C
   0.6550233333333333    0.0611950000000000    0.8653999999999999 C
   0.6550300000000000    0.0611950000000000    0.3653800000000000 C
   0.5718433333333333    0.0612300000000000    0.8641100000000000 C
   0.5718466666666666    0.0612300000000000    0.3641100000000000 C
   0.6276200000000000    0.1886550000000000    0.7864200000000000 C
   0.6276266666666666    0.1886550000000000    0.2864000000000000 C
   0.6022099999999999    0.1239050000000000    0.8257700000000000 C
   0.6022200000000000    0.1239050000000000    0.3257600000000000 C
   0.6378733333333333    0.1442400000000000    0.8129600000000000 C
   0.6378766666666666    0.1442400000000000    0.3129600000000000 C
   0.4504899999999999    0.1276100000000000    0.9757300000000000 C
   0.4505033333333333    0.1276100000000000    0.4757200000000000 C
   0.4329366666666666    0.1690000000000000    0.9622500000000000 C
   0.4329300000000000    0.1690000000000000    0.4622400000000000 C
   0.4322966666666667    0.1676800000000000    0.5833700000000001 C
   0.4323100000000000    0.1676850000000000    0.0833600000000000 C
   0.4240100000000000    0.1917550000000000    0.8905999999999999 C
   0.4240200000000000    0.1917600000000000    0.3905900000000000 C
   0.4232166666666666    0.1889600000000000    0.0164100000000000 C
   0.4232300000000000    0.1889600000000000    0.5163900000000000 C
   0.4233933333333333    0.1889600000000000    0.6412500000000000 C
   0.4233933333333333    0.1889600000000000    0.1412400000000000 C
   0.4762466666666667    0.0615500000000000    0.5580500000000000 C
   0.4762400000000000    0.0615500000000000    0.0580400000000000 C
   0.4495800000000000    0.1263300000000000    0.5958100000000000 C
   0.4495766666666666    0.1263300000000000    0.0958000000000000 C
   0.4584966666666667    0.1059500000000000    0.5424300000000000 C
   0.4585100000000000    0.1059550000000000    0.0424200000000000 C
   0.9843566666666665    0.3774850000000000    0.6747200000000000 C
   0.9843633333333333    0.3774850000000000    0.1747100000000000 C
   0.9754699999999999    0.4189050000000000    0.6486499999999999 C
   0.9754766666666665    0.4189050000000000    0.1486400000000000 C
   0.7229033333333333    0.4174800000000000    0.6485500000000000 C
   0.7229099999999999    0.4174800000000000    0.1485400000000000 C
   0.9277333333333333    0.4417700000000000    0.6352700000000000 C
   0.9277400000000000    0.4417700000000000    0.1352600000000000 C
   0.6783066666666666    0.4388150000000000    0.6345900000000000 C
   0.6783100000000000    0.4388150000000000    0.1345800000000000 C
   0.7614866666666666    0.4387850000000000    0.6358700000000000 C
   0.7614933333333334    0.4387850000000000    0.1358600000000000 C
   0.7057066666666666    0.3113550000000000    0.7135500000000000 C
   0.7057133333333333    0.3113550000000000    0.2135500000000000 C
   0.7311166666666666    0.3761000000000000    0.6742000000000000 C
   0.7311233333333333    0.3761050000000000    0.1741900000000000 C
   0.6954566666666666    0.3557700000000000    0.6870200000000000 C
   0.6954633333333333    0.3557700000000000    0.1870000000000000 C
   0.8828300000000000    0.3724000000000000    0.5242599999999999 C
   0.8828300000000000    0.3724000000000000    0.0242500000000000 C
   0.9004000000000000    0.3310100000000000    0.5377400000000000 C
   0.9004033333333332    0.3310100000000000    0.0377200000000000 C
   0.9010300000000000    0.3323300000000000    0.9166200000000000 C
   0.9010366666666666    0.3323300000000000    0.4166100000000000 C
   0.9093100000000000    0.3082500000000000    0.6093900000000000 C
   0.9093133333333333    0.3082500000000000    0.1093800000000000 C
   0.9101033333333333    0.3110500000000000    0.4835800000000000 C
   0.9101066666666666    0.3110500000000000    0.0000000000000000 C
   0.9099333333333333    0.3110550000000000    0.8587399999999999 C
   0.9099433333333333    0.3110550000000000    0.3587300000000000 C
   0.8570833333333333    0.4384650000000000    0.9419500000000000 C
   0.8570866666666666    0.4384650000000000    0.4419400000000000 C
   0.8837466666666667    0.3736800000000000    0.9041800000000000 C
   0.8837533333333333    0.3736800000000000    0.4041700000000000 C
   0.8748300000000000    0.3940600000000000    0.9575600000000000 C
   0.8748333333333334    0.3940600000000000    0.4575500000000000 C
   0.6823033333333333    0.1225250000000000    0.8252600000000000 C
   0.6823100000000000    0.1225200000000000    0.3252400000000000 C
   0.6911900000000000    0.0811050000000000    0.8513300000000000 C
   0.6911966666666667    0.0811050000000000    0.3513300000000000 C
   0.9437566666666666    0.0825300000000000    0.8514300000000000 C
   0.9437633333333333    0.0825300000000000    0.3514300000000000 C
   0.7389266666666666    0.0582400000000000    0.8647200000000000 C
   0.7389333333333333    0.0582350000000000    0.3647100000000000 C
   0.9883566666666666    0.0611950000000000    0.8653999999999999 C
   0.9883633333333333    0.0611950000000000    0.3653800000000000 C
   0.9051766666666666    0.0612300000000000    0.8641100000000000 C
   0.9051799999999999    0.0612300000000000    0.3641100000000000 C
   0.9609533333333333    0.1886550000000000    0.7864200000000000 C
   0.9609599999999999    0.1886550000000000    0.2864000000000000 C
   0.9355433333333333    0.1239050000000000    0.8257700000000000 C
   0.9355533333333332    0.1239050000000000    0.3257600000000000 C
   0.9712066666666666    0.1442400000000000    0.8129600000000000 C
   0.9712099999999999    0.1442400000000000    0.3129600000000000 C
   0.7838233333333333    0.1276100000000000    0.9757300000000000 C
   0.7838366666666666    0.1276100000000000    0.4757200000000000 C
   0.7662700000000000    0.1690000000000000    0.9622500000000000 C
   0.7662633333333333    0.1690000000000000    0.4622400000000000 C
   0.7656299999999999    0.1676800000000000    0.5833700000000001 C
   0.7656433333333333    0.1676850000000000    0.0833600000000000 C
   0.7573433333333333    0.1917550000000000    0.8905999999999999 C
   0.7573533333333333    0.1917600000000000    0.3905900000000000 C
   0.7565499999999999    0.1889600000000000    0.0164100000000000 C
   0.7565633333333333    0.1889600000000000    0.5163900000000000 C
   0.7567266666666667    0.1889600000000000    0.6412500000000000 C
   0.7567266666666667    0.1889600000000000    0.1412400000000000 C
   0.8095800000000000    0.0615500000000000    0.5580500000000000 C
   0.8095733333333333    0.0615500000000000    0.0580400000000000 C
   0.7829133333333333    0.1263300000000000    0.5958100000000000 C
   0.7829100000000000    0.1263300000000000    0.0958000000000000 C
   0.7918299999999999    0.1059500000000000    0.5424300000000000 C
   0.7918433333333332    0.1059550000000000    0.0424200000000000 C
   0.3176900000000000    0.8774850000000001    0.6747200000000000 C
   0.3176966666666666    0.8774850000000001    0.1747100000000000 C
   0.3088033333333333    0.9189050000000001    0.6486499999999999 C
   0.3088100000000000    0.9189050000000001    0.1486400000000000 C
   0.0562366666666667    0.9174800000000001    0.6485500000000000 C
   0.0562433333333333    0.9174800000000001    0.1485400000000000 C
   0.2610666666666667    0.9417700000000000    0.6352700000000000 C
   0.2610733333333333    0.9417700000000000    0.1352600000000000 C
   0.0116400000000000    0.9388150000000000    0.6345900000000000 C
   0.0116433333333333    0.9388150000000000    0.1345800000000000 C
   0.0948200000000000    0.9387850000000000    0.6358700000000000 C
   0.0948266666666667    0.9387850000000000    0.1358600000000000 C
   0.0390400000000000    0.8113550000000000    0.7135500000000000 C
   0.0390466666666667    0.8113550000000000    0.2135500000000000 C
   0.0644500000000000    0.8761000000000000    0.6742000000000000 C
   0.0644566666666667    0.8761050000000000    0.1741900000000000 C