H8 C24 N8
1.0
  37.6469999999999985    0.0000000000000000    0.0000000000000023
   0.0004006228764851   22.9539999965039065    0.0000000000000014
   0.0000000000000000    0.0000000000000000   29.6799999999999997
H C N
8 24 8
direct
   0.3097466666666666    0.4112700000000000    0.8208350000000000 H
   0.2627500000000000    0.3376000000000000    0.8187550000000000 H
   0.2632666666666666    0.3432300000000000    0.6732549999999999 H
   0.3103033333333333    0.4167700000000000    0.6751350000000000 H
   0.3569333333333333    0.5887400000000000    0.6791600000000000 H
   0.4039300000000000    0.6624100000000001    0.6812400000000001 H
   0.4034133333333333    0.6567800000000000    0.8267400000000000 H
   0.3563766666666667    0.5832400000000000    0.8248599999999999 H
   0.3021600000000000    0.5395000000000000    0.7103500000000000 C
   0.2733000000000000    0.3581100000000000    0.7057100000000001 C
   0.2592633333333333    0.3345600000000000    0.7458650000000000 C
   0.2178933333333333    0.2667800000000000    0.7843700000000000 C
   0.2181400000000000    0.2685200000000000    0.7045900000000000 C
   0.2316800000000000    0.2900100000000000    0.7448500000000000 C
   0.2730000000000000    0.3550300000000000    0.7871500000000000 C
   0.3000133333333333    0.3997000000000000    0.7068150000000000 C
   0.3135666666666667    0.4193800000000000    0.7481450000000001 C
   0.2996799999999999    0.3966300000000000    0.7883249999999999 C
   0.3246233333333333    0.5335600000000000    0.7505250000000000 C
   0.3014500000000000    0.5369300000000000    0.7901899999999999 C
   0.3666666666666666    0.6003100000000000    0.7931800000000000 C
   0.3531133333333333    0.5806400000000000    0.7518500000000000 C
   0.3420566666666667    0.4664500000000000    0.7494700000000000 C
   0.3652300000000000    0.4630800000000000    0.7098050000000000 C
   0.3645200000000000    0.4605100000000000    0.7896350000000000 C
   0.3933800000000000    0.6419000000000000    0.7942850000000000 C
   0.4074166666666666    0.6654500000000000    0.7541300000000000 C
   0.4487866666666667    0.7332400000000000    0.7156250000000000 C
   0.4485399999999999    0.7314900000000000    0.7954049999999999 C
   0.4349999999999999    0.7100000000000000    0.7551450000000000 C
   0.3936800000000000    0.6449800000000000    0.7128150000000000 C
   0.3670000000000000    0.6033800000000000    0.7116700000000000 C
   0.2071100000000000    0.2472600000000000    0.8184100000000001 N
   0.2073633333333333    0.2500400000000000    0.6702049999999999 N
   0.2835533333333333    0.5407500000000000    0.8220950000000000 N
   0.2848600000000000    0.5453100000000000    0.6781000000000000 N
   0.3831266666666667    0.4592600000000000    0.6778999999999999 N
   0.3818200000000000    0.4547000000000000    0.8218900000000000 N
   0.4595733333333333    0.7527600000000000    0.6815850000000000 N
   0.4593166666666667    0.7499700000000000    0.8297900000000000 N
