Zn24 H376 C792 N232
1.0
  37.6469999999999985    0.0000000000000000    0.0000000000000023
   0.0004006228764851   22.9539999965039065    0.0000000000000014
   0.0000000000000000    0.0000000000000000   29.6799999999999997
Zn H C N
24 376 792 232
direct
   0.1666733333333333    0.2500000000000000    0.3692250000000000 Zn
   0.1666733333333333    0.2500000000000000    0.1192250000000000 Zn
   0.1666733333333333    0.7500100000000000    0.1307750000000000 Zn
   0.1666733333333333    0.7500100000000000    0.3807700000000000 Zn
   0.5000066666666667    0.2500000000000000    0.3692250000000000 Zn
   0.5000066666666667    0.2500000000000000    0.1192250000000000 Zn
   0.5000066666666667    0.7500100000000000    0.1307750000000000 Zn
   0.5000066666666667    0.7500100000000000    0.3807700000000000 Zn
   0.8333400000000000    0.2500000000000000    0.3692250000000000 Zn
   0.8333400000000000    0.2500000000000000    0.1192250000000000 Zn
   0.8333400000000000    0.7500100000000000    0.1307750000000000 Zn
   0.8333400000000000    0.7500100000000000    0.3807700000000000 Zn
   0.1666733333333333    0.2500000000000000    0.8692250000000000 Zn
   0.1666733333333333    0.2500000000000000    0.6192250000000000 Zn
   0.1666733333333333    0.7500100000000000    0.6307750000000000 Zn
   0.1666733333333333    0.7500100000000000    0.8807700000000001 Zn
   0.5000066666666667    0.2500000000000000    0.8692250000000000 Zn
   0.5000066666666667    0.2500000000000000    0.6192250000000000 Zn
   0.5000066666666667    0.7500100000000000    0.6307750000000000 Zn
   0.5000066666666667    0.7500100000000000    0.8807700000000001 Zn
   0.8333400000000000    0.2500000000000000    0.8692250000000000 Zn
   0.8333400000000000    0.2500000000000000    0.6192250000000000 Zn
   0.8333400000000000    0.7500100000000000    0.6307750000000000 Zn
   0.8333400000000000    0.7500100000000000    0.8807700000000001 Zn
   0.0236000000000000    0.9112800000000000    0.4291600000000000 H
   0.0706000000000000    0.8376100000000000    0.4312000000000000 H
   0.0700833333333333    0.8432300000000000    0.0767400000000000 H
   0.0230433333333333    0.9167800000000000    0.0748600000000000 H
   0.2214266666666667    0.9586200000000000    0.3961250000000000 H
   0.2186933333333333    0.8507600000000000    0.3990750000000000 H
   0.1131900000000000    0.8486600000000000    0.3603950000000000 H
   0.1103266666666667    0.9565000000000000    0.3568450000000000 H
   0.3097466666666666    0.5887400000000000    0.4291600000000000 H
   0.2627500000000000    0.6624100000000001    0.4312000000000000 H
   0.2632666666666666    0.6567900000000000    0.0767400000000000 H
   0.3103066666666666    0.5832400000000000    0.0748600000000000 H
   0.1119233333333333    0.5414000000000000    0.3961250000000000 H
   0.1146533333333333    0.6492599999999999    0.3990750000000000 H
   0.2201600000000000    0.6513500000000000    0.3603950000000000 H
   0.2230233333333334    0.5435200000000000    0.3568450000000000 H
   0.0236000000000000    0.0887300000000000    0.3208000000000000 H
   0.0705966666666667    0.1624000000000000    0.3187550000000000 H
   0.0700800000000000    0.1567800000000000    0.1732550000000000 H
   0.0230400000000000    0.0832300000000000    0.1751350000000000 H
   0.2214233333333333    0.0413900000000000    0.3538700000000000 H
   0.2186933333333333    0.1492500000000000    0.3509200000000000 H
   0.1131900000000000    0.1513500000000000    0.3896000000000000 H
   0.1103233333333333    0.0435200000000000    0.3931500000000000 H
   0.3097466666666666    0.4112700000000000    0.3208350000000000 H
   0.2627500000000000    0.3376000000000000    0.3187550000000000 H
   0.2632666666666666    0.3432300000000000    0.1732550000000000 H
   0.3103033333333333    0.4167700000000000    0.1751350000000000 H
   0.1119233333333333    0.4586100000000000    0.3538700000000000 H
   0.1146533333333333    0.3507500000000000    0.3509200000000000 H
   0.2201566666666667    0.3486500000000000    0.3896000000000000 H
   0.2230233333333334    0.4564800000000000    0.3931450000000000 H
   0.3097466666666666    0.0887400000000000    0.0708350000000000 H
   0.2627466666666667    0.1624000000000000    0.0687550000000000 H
   0.2632666666666666    0.1567800000000000    0.4232550000000000 H
   0.3103033333333333    0.0832300000000000    0.4251350000000000 H
   0.1119200000000000    0.0414000000000000    0.1038700000000000 H
   0.1146500000000000    0.1492600000000000    0.1009250000000000 H
   0.2201566666666667    0.1513500000000000    0.1396000000000000 H
   0.2230200000000000    0.0435100000000000    0.1430000000000000 H
   0.0236000000000000    0.4112700000000000    0.0708350000000000 H
   0.0705966666666667    0.3376000000000000    0.0687550000000000 H
   0.0700800000000000    0.3432200000000000    0.4232550000000000 H
   0.0230400000000000    0.4167700000000000    0.4251350000000000 H
   0.2214233333333333    0.4586100000000000    0.1038700000000000 H
   0.2186933333333333    0.3507500000000000    0.1009250000000000 H
   0.1131900000000000    0.3486600000000000    0.1396000000000000 H
   0.1103233333333333    0.4564900000000000    0.1431450000000000 H
   0.3097466666666666    0.9112800000000000    0.1791600000000000 H
   0.2627500000000000    0.8376100000000000    0.1812400000000000 H
   0.2632666666666666    0.8432300000000000    0.3267400000000000 H
   0.3103066666666666    0.9167800000000000    0.3248600000000000 H
   0.1119266666666667    0.9586200000000000    0.1461300000000000 H
   0.1146533333333333    0.8507600000000000    0.1490750000000000 H
   0.2201566666666667    0.8486600000000000    0.1103950000000000 H
   0.2230266666666667    0.9564900000000000    0.1068500000000000 H
   0.0236000000000000    0.5887400000000000    0.1791600000000000 H
   0.0705966666666667    0.6624100000000001    0.1812400000000000 H
   0.0700800000000000    0.6567800000000000    0.3267400000000000 H
   0.0230433333333333    0.5832400000000000    0.3248600000000000 H
   0.2214233333333333    0.5414000000000000    0.1461300000000000 H
   0.2186966666666667    0.6492599999999999    0.1490750000000000 H
   0.1131900000000000    0.6513600000000001    0.1103950000000000 H
   0.1103233333333333    0.5435300000000000    0.1068500000000000 H
   0.3569333333333333    0.9112800000000000    0.4291600000000000 H
   0.4039333333333333    0.8376100000000000    0.4312000000000000 H
   0.4034166666666666    0.8432300000000000    0.0767400000000000 H
   0.3563766666666667    0.9167800000000000    0.0748600000000000 H
   0.5547599999999999    0.9586200000000000    0.3961250000000000 H
   0.5520266666666667    0.8507600000000000    0.3990750000000000 H
   0.4465233333333333    0.8486600000000000    0.3603950000000000 H
   0.4436599999999999    0.9565000000000000    0.3568450000000000 H
   0.6430799999999999    0.5887400000000000    0.4291600000000000 H
   0.5960833333333333    0.6624100000000001    0.4312000000000000 H
   0.5966000000000000    0.6567900000000000    0.0767400000000000 H
   0.6436400000000000    0.5832400000000000    0.0748600000000000 H
   0.4452566666666666    0.5414000000000000    0.3961250000000000 H
   0.4479866666666666    0.6492599999999999    0.3990750000000000 H
   0.5534933333333333    0.6513500000000000    0.3603950000000000 H
   0.5563566666666666    0.5435200000000000    0.3568450000000000 H
   0.3569333333333333    0.0887300000000000    0.3208000000000000 H
   0.4039300000000000    0.1624000000000000    0.3187550000000000 H
   0.4034133333333333    0.1567800000000000    0.1732550000000000 H
   0.3563733333333333    0.0832300000000000    0.1751350000000000 H
   0.5547566666666667    0.0413900000000000    0.3538700000000000 H
   0.5520266666666667    0.1492500000000000    0.3509200000000000 H
   0.4465233333333333    0.1513500000000000    0.3896000000000000 H
   0.4436566666666666    0.0435200000000000    0.3931500000000000 H
   0.6430799999999999    0.4112700000000000    0.3208350000000000 H
   0.5960833333333333    0.3376000000000000    0.3187550000000000 H
   0.5966000000000000    0.3432300000000000    0.1732550000000000 H
   0.6436366666666666    0.4167700000000000    0.1751350000000000 H
   0.4452566666666666    0.4586100000000000    0.3538700000000000 H
   0.4479866666666666    0.3507500000000000    0.3509200000000000 H
   0.5534900000000000    0.3486500000000000    0.3896000000000000 H
   0.5563566666666666    0.4564800000000000    0.3931450000000000 H
   0.6430799999999999    0.0887400000000000    0.0708350000000000 H
   0.5960799999999999    0.1624000000000000    0.0687550000000000 H
   0.5966000000000000    0.1567800000000000    0.4232550000000000 H
   0.6436366666666666    0.0832300000000000    0.4251350000000000 H
   0.4452533333333333    0.0414000000000000    0.1038700000000000 H
   0.4479833333333333    0.1492600000000000    0.1009250000000000 H
   0.5534900000000000    0.1513500000000000    0.1396000000000000 H
   0.5563533333333333    0.0435100000000000    0.1430000000000000 H
   0.3569333333333333    0.4112700000000000    0.0708350000000000 H
   0.4039300000000000    0.3376000000000000    0.0687550000000000 H
   0.4034133333333333    0.3432200000000000    0.4232550000000000 H
   0.3563733333333333    0.4167700000000000    0.4251350000000000 H
   0.5547566666666667    0.4586100000000000    0.1038700000000000 H
   0.5520266666666667    0.3507500000000000    0.1009250000000000 H
   0.4465233333333333    0.3486600000000000    0.1396000000000000 H
   0.4436566666666666    0.4564900000000000    0.1431450000000000 H
   0.6430799999999999    0.9112800000000000    0.1791600000000000 H
   0.5960833333333333    0.8376100000000000    0.1812400000000000 H
   0.5966000000000000    0.8432300000000000    0.3267400000000000 H
   0.6436400000000000    0.9167800000000000    0.3248600000000000 H
   0.4452600000000000    0.9586200000000000    0.1461300000000000 H
   0.4479866666666666    0.8507600000000000    0.1490750000000000 H
   0.5534900000000000    0.8486600000000000    0.1103950000000000 H
   0.5563600000000000    0.9564900000000000    0.1068500000000000 H
   0.3569333333333333    0.5887400000000000    0.1791600000000000 H
   0.4039300000000000    0.6624100000000001    0.1812400000000000 H
   0.4034133333333333    0.6567800000000000    0.3267400000000000 H
   0.3563766666666667    0.5832400000000000    0.3248600000000000 H
   0.5547566666666667    0.5414000000000000    0.1461300000000000 H
   0.5520300000000000    0.6492599999999999    0.1490750000000000 H
   0.4465233333333333    0.6513600000000001    0.1103950000000000 H
   0.4436566666666666    0.5435300000000000    0.1068500000000000 H
   0.6902666666666666    0.9112800000000000    0.4291600000000000 H
   0.7372666666666666    0.8376100000000000    0.4312000000000000 H
   0.7367500000000000    0.8432300000000000    0.0767400000000000 H
   0.6897099999999999    0.9167800000000000    0.0748600000000000 H
   0.8880933333333333    0.9586200000000000    0.3961250000000000 H
   0.8853599999999999    0.8507600000000000    0.3990750000000000 H
   0.7798566666666666    0.8486600000000000    0.3603950000000000 H
   0.7769933333333333    0.9565000000000000    0.3568450000000000 H
   0.9764133333333332    0.5887400000000000    0.4291600000000000 H
   0.9294166666666666    0.6624100000000001    0.4312000000000000 H
   0.9299333333333333    0.6567900000000000    0.0767400000000000 H
   0.9769733333333332    0.5832400000000000    0.0748600000000000 H
   0.7785900000000000    0.5414000000000000    0.3961250000000000 H
   0.7813200000000000    0.6492599999999999    0.3990750000000000 H
   0.8868266666666667    0.6513500000000000    0.3603950000000000 H
   0.8896900000000000    0.5435200000000000    0.3568450000000000 H
   0.6902666666666666    0.0887300000000000    0.3208000000000000 H
   0.7372633333333333    0.1624000000000000    0.3187550000000000 H
   0.7367466666666667    0.1567800000000000    0.1732550000000000 H
   0.6897066666666666    0.0832300000000000    0.1751350000000000 H
   0.8880899999999999    0.0413900000000000    0.3538700000000000 H
   0.8853599999999999    0.1492500000000000    0.3509200000000000 H
   0.7798566666666666    0.1513500000000000    0.3896000000000000 H
   0.7769900000000000    0.0435200000000000    0.3931500000000000 H
   0.9764133333333332    0.4112700000000000    0.3208350000000000 H
   0.9294166666666666    0.3376000000000000    0.3187550000000000 H
   0.9299333333333333    0.3432300000000000    0.1732550000000000 H
   0.9769699999999999    0.4167700000000000    0.1751350000000000 H
   0.7785900000000000    0.4586100000000000    0.3538700000000000 H
   0.7813200000000000    0.3507500000000000    0.3509200000000000 H
   0.8868233333333333    0.3486500000000000    0.3896000000000000 H
   0.8896900000000000    0.4564800000000000    0.3931450000000000 H
   0.9764133333333332    0.0887400000000000    0.0708350000000000 H
   0.9294133333333333    0.1624000000000000    0.0687550000000000 H
   0.9299333333333333    0.1567800000000000    0.4232550000000000 H
   0.9769699999999999    0.0832300000000000    0.4251350000000000 H
   0.7785866666666666    0.0414000000000000    0.1038700000000000 H
   0.7813166666666667    0.1492600000000000    0.1009250000000000 H
   0.8868233333333333    0.1513500000000000    0.1396000000000000 H
   0.8896866666666666    0.0435100000000000    0.1430000000000000 H
   0.6902666666666666    0.4112700000000000    0.0708350000000000 H
   0.7372633333333333    0.3376000000000000    0.0687550000000000 H
   0.7367466666666667    0.3432200000000000    0.4232550000000000 H
   0.6897066666666666    0.4167700000000000    0.4251350000000000 H
   0.8880899999999999    0.4586100000000000    0.1038700000000000 H
   0.8853599999999999    0.3507500000000000    0.1009250000000000 H
   0.7798566666666666    0.3486600000000000    0.1396000000000000 H
   0.7769900000000000    0.4564900000000000    0.1431450000000000 H
   0.9764133333333332    0.9112800000000000    0.1791600000000000 H
   0.9294166666666666    0.8376100000000000    0.1812400000000000 H
   0.9299333333333333    0.8432300000000000    0.3267400000000000 H
   0.9769733333333332    0.9167800000000000    0.3248600000000000 H
   0.7785933333333332    0.9586200000000000    0.1461300000000000 H
   0.7813200000000000    0.8507600000000000    0.1490750000000000 H
   0.8868233333333333    0.8486600000000000    0.1103950000000000 H
   0.8896933333333332    0.9564900000000000    0.1068500000000000 H
   0.6902666666666666    0.5887400000000000    0.1791600000000000 H
   0.7372633333333333    0.6624100000000001    0.1812400000000000 H
   0.7367466666666667    0.6567800000000000    0.3267400000000000 H
   0.6897099999999999    0.5832400000000000    0.3248600000000000 H
   0.8880899999999999    0.5414000000000000    0.1461300000000000 H
   0.8853633333333333    0.6492599999999999    0.1490750000000000 H
   0.7798566666666666    0.6513600000000001    0.1103950000000000 H
   0.7769900000000000    0.5435300000000000    0.1068500000000000 H
   0.0236000000000000    0.9112800000000000    0.9291600000000000 H
   0.0706000000000000    0.8376100000000000    0.9312000000000000 H
   0.0700833333333333    0.8432300000000000    0.5767400000000000 H
   0.0230433333333333    0.9167800000000000    0.5748600000000000 H
   0.2214266666666667    0.9586200000000000    0.8961250000000001 H
   0.2186933333333333    0.8507600000000000    0.8990750000000001 H
   0.1131900000000000    0.8486600000000000    0.8603950000000000 H
   0.1103266666666667    0.9565000000000000    0.8568450000000001 H
   0.3097466666666666    0.5887400000000000    0.9291600000000000 H
   0.2627500000000000    0.6624100000000001    0.9312000000000000 H
   0.2632666666666666    0.6567900000000000    0.5767400000000000 H
   0.3103066666666666    0.5832400000000000    0.5748600000000000 H
   0.1119233333333333    0.5414000000000000    0.8961250000000001 H
   0.1146533333333333    0.6492599999999999    0.8990750000000001 H
   0.2201600000000000    0.6513500000000000    0.8603950000000000 H
   0.2230233333333334    0.5435200000000000    0.8568450000000001 H
   0.0236000000000000    0.0887300000000000    0.8208000000000000 H
   0.0705966666666667    0.1624000000000000    0.8187550000000000 H
   0.0700800000000000    0.1567800000000000    0.6732549999999999 H
   0.0230400000000000    0.0832300000000000    0.6751350000000000 H
   0.2214233333333333    0.0413900000000000    0.8538700000000000 H
   0.2186933333333333    0.1492500000000000    0.8509200000000000 H
   0.1131900000000000    0.1513500000000000    0.8895999999999999 H
   0.1103233333333333    0.0435200000000000    0.8931500000000000 H
   0.1119233333333333    0.4586100000000000    0.8538700000000000 H
   0.1146533333333333    0.3507500000000000    0.8509200000000000 H
   0.2201566666666667    0.3486500000000000    0.8895999999999999 H
   0.2230233333333334    0.4564800000000000    0.8931450000000001 H
   0.3097466666666666    0.0887400000000000    0.5708350000000000 H
   0.2627466666666667    0.1624000000000000    0.5687550000000000 H
   0.2632666666666666    0.1567800000000000    0.9232549999999999 H
   0.3103033333333333    0.0832300000000000    0.9251350000000000 H
   0.1119200000000000    0.0414000000000000    0.6038700000000000 H
   0.1146500000000000    0.1492600000000000    0.6009250000000000 H
   0.2201566666666667    0.1513500000000000    0.6395999999999999 H
   0.2230200000000000    0.0435100000000000    0.6430000000000000 H
   0.0236000000000000    0.4112700000000000    0.5708350000000000 H
   0.0705966666666667    0.3376000000000000    0.5687550000000000 H
   0.0700800000000000    0.3432200000000000    0.9232549999999999 H
   0.0230400000000000    0.4167700000000000    0.9251350000000000 H
   0.2214233333333333    0.4586100000000000    0.6038700000000000 H
   0.2186933333333333    0.3507500000000000    0.6009250000000000 H
   0.1131900000000000    0.3486600000000000    0.6395999999999999 H
   0.1103233333333333    0.4564900000000000    0.6431450000000000 H
   0.3097466666666666    0.9112800000000000    0.6791600000000000 H
   0.2627500000000000    0.8376100000000000    0.6812400000000001 H
   0.2632666666666666    0.8432300000000000    0.8267400000000000 H
   0.3103066666666666    0.9167800000000000    0.8248599999999999 H
   0.1119266666666667    0.9586200000000000    0.6461300000000000 H
   0.1146533333333333    0.8507600000000000    0.6490750000000001 H
   0.2201566666666667    0.8486600000000000    0.6103950000000000 H
   0.2230266666666667    0.9564900000000000    0.6068500000000000 H
   0.0236000000000000    0.5887400000000000    0.6791600000000000 H
   0.0705966666666667    0.6624100000000001    0.6812400000000001 H
   0.0700800000000000    0.6567800000000000    0.8267400000000000 H
   0.0230433333333333    0.5832400000000000    0.8248599999999999 H
   0.2214233333333333    0.5414000000000000    0.6461300000000000 H
   0.2186966666666667    0.6492599999999999    0.6490750000000001 H
   0.1131900000000000    0.6513600000000001    0.6103950000000000 H
   0.1103233333333333    0.5435300000000000    0.6068500000000000 H
   0.3569333333333333    0.9112800000000000    0.9291600000000000 H
   0.4039333333333333    0.8376100000000000    0.9312000000000000 H
   0.4034166666666666    0.8432300000000000    0.5767400000000000 H
   0.3563766666666667    0.9167800000000000    0.5748600000000000 H
   0.5547599999999999    0.9586200000000000    0.8961250000000001 H
   0.5520266666666667    0.8507600000000000    0.8990750000000001 H
   0.4465233333333333    0.8486600000000000    0.8603950000000000 H
   0.4436599999999999    0.9565000000000000    0.8568450000000001 H
   0.6430799999999999    0.5887400000000000    0.9291600000000000 H
   0.5960833333333333    0.6624100000000001    0.9312000000000000 H
   0.5966000000000000    0.6567900000000000    0.5767400000000000 H
   0.6436400000000000    0.5832400000000000    0.5748600000000000 H
   0.4452566666666666    0.5414000000000000    0.8961250000000001 H
   0.4479866666666666    0.6492599999999999    0.8990750000000001 H
   0.5534933333333333    0.6513500000000000    0.8603950000000000 H
   0.5563566666666666    0.5435200000000000    0.8568450000000001 H
   0.3569333333333333    0.0887300000000000    0.8208000000000000 H
   0.4039300000000000    0.1624000000000000    0.8187550000000000 H
   0.4034133333333333    0.1567800000000000    0.6732549999999999 H
   0.3563733333333333    0.0832300000000000    0.6751350000000000 H
   0.5547566666666667    0.0413900000000000    0.8538700000000000 H
   0.5520266666666667    0.1492500000000000    0.8509200000000000 H
   0.4465233333333333    0.1513500000000000    0.8895999999999999 H
   0.4436566666666666    0.0435200000000000    0.8931500000000000 H
   0.6430799999999999    0.4112700000000000    0.8208350000000000 H
   0.5960833333333333    0.3376000000000000    0.8187550000000000 H
   0.5966000000000000    0.3432300000000000    0.6732549999999999 H
   0.6436366666666666    0.4167700000000000    0.6751350000000000 H
   0.4452566666666666    0.4586100000000000    0.8538700000000000 H
   0.4479866666666666    0.3507500000000000    0.8509200000000000 H
   0.5534900000000000    0.3486500000000000    0.8895999999999999 H
   0.5563566666666666    0.4564800000000000    0.8931450000000001 H
   0.6430799999999999    0.0887400000000000    0.5708350000000000 H
   0.5960799999999999    0.1624000000000000    0.5687550000000000 H
   0.5966000000000000    0.1567800000000000    0.9232549999999999 H
   0.6436366666666666    0.0832300000000000    0.9251350000000000 H
   0.4452533333333333    0.0414000000000000    0.6038700000000000 H
   0.4479833333333333    0.1492600000000000    0.6009250000000000 H
   0.5534900000000000    0.1513500000000000    0.6395999999999999 H
   0.5563533333333333    0.0435100000000000    0.6430000000000000 H
   0.3569333333333333    0.4112700000000000    0.5708350000000000 H
   0.4039300000000000    0.3376000000000000    0.5687550000000000 H
   0.4034133333333333    0.3432200000000000    0.9232549999999999 H
   0.3563733333333333    0.4167700000000000    0.9251350000000000 H
   0.5547566666666667    0.4586100000000000    0.6038700000000000 H
   0.5520266666666667    0.3507500000000000    0.6009250000000000 H
   0.4465233333333333    0.3486600000000000    0.6395999999999999 H
   0.4436566666666666    0.4564900000000000    0.6431450000000000 H
   0.6430799999999999    0.9112800000000000    0.6791600000000000 H
   0.5960833333333333    0.8376100000000000    0.6812400000000001 H
   0.5966000000000000    0.8432300000000000    0.8267400000000000 H
   0.6436400000000000    0.9167800000000000    0.8248599999999999 H
   0.4452600000000000    0.9586200000000000    0.6461300000000000 H
   0.4479866666666666    0.8507600000000000    0.6490750000000001 H
   0.5534900000000000    0.8486600000000000    0.6103950000000000 H
   0.5563600000000000    0.9564900000000000    0.6068500000000000 H
   0.5547566666666667    0.5414000000000000    0.6461300000000000 H
   0.5520300000000000    0.6492599999999999    0.6490750000000001 H
   0.4465233333333333    0.6513600000000001    0.6103950000000000 H
   0.4436566666666666    0.5435300000000000    0.6068500000000000 H
   0.6902666666666666    0.9112800000000000    0.9291600000000000 H
   0.7372666666666666    0.8376100000000000    0.9312000000000000 H
   0.7367500000000000    0.8432300000000000    0.5767400000000000 H
   0.6897099999999999    0.9167800000000000    0.5748600000000000 H
   0.8880933333333333    0.9586200000000000    0.8961250000000001 H
   0.8853599999999999    0.8507600000000000    0.8990750000000001 H
   0.7798566666666666    0.8486600000000000    0.8603950000000000 H
   0.7769933333333333    0.9565000000000000    0.8568450000000001 H
   0.9764133333333332    0.5887400000000000    0.9291600000000000 H
   0.9294166666666666    0.6624100000000001    0.9312000000000000 H
   0.9299333333333333    0.6567900000000000    0.5767400000000000 H
   0.9769733333333332    0.5832400000000000    0.5748600000000000 H
   0.7785900000000000    0.5414000000000000    0.8961250000000001 H
   0.7813200000000000    0.6492599999999999    0.8990750000000001 H
   0.8868266666666667    0.6513500000000000    0.8603950000000000 H
   0.8896900000000000    0.5435200000000000    0.8568450000000001 H
   0.6902666666666666    0.0887300000000000    0.8208000000000000 H
   0.7372633333333333    0.1624000000000000    0.8187550000000000 H
   0.7367466666666667    0.1567800000000000    0.6732549999999999 H
   0.6897066666666666    0.0832300000000000    0.6751350000000000 H
   0.8880899999999999    0.0413900000000000    0.8538700000000000 H
   0.8853599999999999    0.1492500000000000    0.8509200000000000 H
   0.7798566666666666    0.1513500000000000    0.8895999999999999 H
   0.7769900000000000    0.0435200000000000    0.8931500000000000 H
   0.9764133333333332    0.4112700000000000    0.8208350000000000 H
   0.9294166666666666    0.3376000000000000    0.8187550000000000 H
   0.9299333333333333    0.3432300000000000    0.6732549999999999 H
   0.9769699999999999    0.4167700000000000    0.6751350000000000 H
   0.7785900000000000    0.4586100000000000    0.8538700000000000 H
   0.7813200000000000    0.3507500000000000    0.8509200000000000 H
   0.8868233333333333    0.3486500000000000    0.8895999999999999 H
   0.8896900000000000    0.4564800000000000    0.8931450000000001 H
   0.9764133333333332    0.0887400000000000    0.5708350000000000 H
   0.9294133333333333    0.1624000000000000    0.5687550000000000 H
   0.9299333333333333    0.1567800000000000    0.9232549999999999 H
   0.9769699999999999    0.0832300000000000    0.9251350000000000 H
   0.7785866666666666    0.0414000000000000    0.6038700000000000 H
   0.7813166666666667    0.1492600000000000    0.6009250000000000 H
   0.8868233333333333    0.1513500000000000    0.6395999999999999 H
   0.8896866666666666    0.0435100000000000    0.6430000000000000 H
   0.6902666666666666    0.4112700000000000    0.5708350000000000 H
   0.7372633333333333    0.3376000000000000    0.5687550000000000 H
   0.7367466666666667    0.3432200000000000    0.9232549999999999 H
   0.6897066666666666    0.4167700000000000    0.9251350000000000 H
   0.8880899999999999    0.4586100000000000    0.6038700000000000 H
   0.8853599999999999    0.3507500000000000    0.6009250000000000 H
   0.7798566666666666    0.3486600000000000    0.6395999999999999 H
   0.7769900000000000    0.4564900000000000    0.6431450000000000 H
   0.9764133333333332    0.9112800000000000    0.6791600000000000 H
   0.9294166666666666    0.8376100000000000    0.6812400000000001 H
   0.9299333333333333    0.8432300000000000    0.8267400000000000 H
   0.9769733333333332    0.9167800000000000    0.8248599999999999 H
   0.7785933333333332    0.9586200000000000    0.6461300000000000 H
   0.7813200000000000    0.8507600000000000    0.6490750000000001 H
   0.8868233333333333    0.8486600000000000    0.6103950000000000 H
   0.8896933333333332    0.9564900000000000    0.6068500000000000 H
   0.6902666666666666    0.5887400000000000    0.6791600000000000 H
   0.7372633333333333    0.6624100000000001    0.6812400000000001 H
   0.7367466666666667    0.6567800000000000    0.8267400000000000 H
   0.6897099999999999    0.5832400000000000    0.8248599999999999 H
   0.8880899999999999    0.5414000000000000    0.6461300000000000 H
   0.8853633333333333    0.6492599999999999    0.6490750000000001 H
   0.7798566666666666    0.6513600000000001    0.6103950000000000 H
   0.7769900000000000    0.5435300000000000    0.6068500000000000 H
   0.0600466666666667    0.8581200000000000    0.0442850000000000 C
   0.0740866666666667    0.8345700000000000    0.0041300000000000 C
   0.1154533333333333    0.7667800000000000    0.4656250000000000 C
   0.1152100000000000    0.7685200000000000    0.0454050000000000 C
   0.1016666666666667    0.7900199999999999    0.0051450000000000 C
   0.1954600000000000    0.8761900000000000    0.3894050000000000 C
   0.1966533333333333    0.9366400000000000    0.3876950000000000 C
   0.1658833333333333    0.9678200000000000    0.3761000000000000 C
   0.0603466666666667    0.8550300000000000    0.4628150000000000 C
   0.1351033333333333    0.9355000000000000    0.3666000000000000 C
   0.3246233333333333    0.9664600000000000    0.0005250000000000 C
   0.3014500000000000    0.9630900000000000    0.0401900000000000 C
   0.3021600000000000    0.9605200000000000    0.4603500000000000 C
   0.0333333333333333    0.8997100000000000    0.0431800000000000 C
   0.0197833333333333    0.9193800000000000    0.0018500000000000 C
   0.1363700000000000    0.8750599999999999    0.3686100000000000 C
   0.0336700000000000    0.8966400000000000    0.4616700000000000 C
   0.2733033333333333    0.6419000000000000    0.0442850000000000 C
   0.2592633333333333    0.6654600000000001    0.0041300000000000 C
   0.2178933333333333    0.7332400000000000    0.4656250000000000 C
   0.2181400000000000    0.7315000000000000    0.0454000000000000 C
   0.2316800000000000    0.7100000000000000    0.0051450000000000 C
   0.1378866666666667    0.6238300000000000    0.3894000000000000 C
   0.1366933333333333    0.5633800000000000    0.3876950000000000 C
   0.1674666666666667    0.5322000000000000    0.3760950000000000 C
   0.2730033333333333    0.6449800000000000    0.4628150000000000 C
   0.1982433333333333    0.5645200000000000    0.3666150000000000 C
   0.0087266666666667    0.5335600000000000    0.0005250000000000 C
   0.0319000000000000    0.5369300000000000    0.0401900000000000 C
   0.0311866666666667    0.5395000000000000    0.4603650000000000 C
   0.3000166666666667    0.6003100000000000    0.0431800000000000 C
   0.3135666666666667    0.5806400000000000    0.0018500000000000 C
   0.3021600000000000    0.5395000000000000    0.2103500000000000 C
   0.0333333333333333    0.6003100000000000    0.2931800000000000 C
   0.0197800000000000    0.5806400000000000    0.2518500000000000 C
   0.1363733333333333    0.6249600000000000    0.1186050000000000 C
   0.1969766666666666    0.6249600000000000    0.3686050000000000 C