Ca24 H144 C276 O96
1.0
  38.7179988441706371    0.0000000000000000   -0.0094605920228783
   0.0061216052491694   14.6149986623094055   -0.0012753993492751
   0.0000000000000000    0.0000000000000000   15.1250000000000000
Ca H C O
24 144 276 96
direct
   0.1443666666666666    0.7965600000000000    0.4652100000000000 Ca
   0.3943633333333333    0.7018400000000000    0.5339000000000000 Ca
   0.3108766666666666    0.7973100000000000    0.4658600000000000 Ca
   0.4777000000000000    0.7965600000000000    0.4652100000000000 Ca
   0.2275866666666667    0.7014700000000000    0.5355900000000000 Ca
   0.7276966666666667    0.7018400000000000    0.5339000000000000 Ca
   0.6442099999999999    0.7973100000000000    0.4658600000000000 Ca
   0.5609200000000000    0.7014700000000000    0.5355900000000000 Ca
   0.8110333333333333    0.7965600000000000    0.4652100000000000 Ca
   0.0610300000000000    0.7018400000000000    0.5339000000000000 Ca
   0.9775433333333332    0.7973100000000000    0.4658600000000000 Ca
   0.8942533333333333    0.7014700000000000    0.5355900000000000 Ca
   0.8555933333333332    0.2964600000000000    0.0348200000000000 Ca
   0.6055966666666666    0.2012400000000000    0.9663100000000000 Ca
   0.6889500000000000    0.2976200000000000    0.0346200000000000 Ca
   0.7723033333333333    0.2017400000000000    0.9643100000000000 Ca
   0.1889266666666666    0.2964600000000000    0.0348200000000000 Ca
   0.9389299999999999    0.2012400000000000    0.9663100000000000 Ca
   0.0222833333333333    0.2976200000000000    0.0346200000000000 Ca
   0.1056366666666667    0.2017400000000000    0.9643100000000000 Ca
   0.5222599999999999    0.2964600000000000    0.0348200000000000 Ca
   0.2722633333333333    0.2012400000000000    0.9663100000000000 Ca
   0.3556166666666666    0.2976200000000000    0.0346200000000000 Ca
   0.4389700000000000    0.2017400000000000    0.9643100000000000 Ca
   0.2051366666666667    0.0338200000000000    0.6352000000000000 H
   0.2095900000000000    0.1501300000000000    0.7552100000000000 H
   0.1705333333333333    0.7584100000000000    0.7816000000000000 H
   0.1517400000000000    0.7187900000000000    0.9334800000000000 H
   0.1654300000000000    0.9985500000000000    0.0150100000000000 H
   0.1491433333333333    0.8393000000000000    0.0497100000000000 H
   0.4555300000000000    0.4628900000000000    0.3643100000000000 H
   0.4596700000000000    0.3471200000000000    0.2437500000000000 H
   0.4210666666666666    0.7394100000000000    0.2193000000000000 H
   0.4021466666666667    0.7798900000000000    0.0677500000000000 H
   0.4153933333333333    0.5003600000000000    0.9849800000000000 H
   0.3992366666666666    0.6599100000000000    0.9510400000000000 H
   0.3320200000000000    0.9987400000000000    0.0137100000000000 H
   0.3156600000000000    0.8391999999999999    0.0469300000000000 H
   0.3725800000000000    0.0370900000000000    0.6347200000000000 H
   0.3766766666666667    0.1524700000000000    0.7556300000000000 H
   0.3375800000000000    0.7605800000000000    0.7784700000000000 H
   0.3185300000000000    0.7196500000000000    0.9298000000000000 H
   0.5384700000000000    0.0338200000000000    0.6352000000000000 H
   0.5429233333333333    0.1501300000000000    0.7552100000000000 H
   0.5038666666666667    0.7584100000000000    0.7816000000000000 H
   0.4850733333333333    0.7187900000000000    0.9334800000000000 H
   0.4987633333333333    0.9985500000000000    0.0150100000000000 H
   0.4824766666666667    0.8393000000000000    0.0497100000000000 H
   0.3843197498567684    0.8435102360043366    0.4316617976279589 H
   0.3456354900271840    0.8016585311885412    0.3941498350632671 H
   0.4375991549329795    0.8915941227003391    0.4844556087228702 H
   0.2887400000000000    0.4627500000000000    0.3661300000000000 H
   0.2931033333333333    0.3470000000000000    0.2456100000000000 H
   0.2537933333333333    0.7388000000000000    0.2211800000000000 H
   0.2348733333333333    0.7791100000000000    0.0695300000000000 H
   0.2488366666666667    0.4998500000000000    0.9866100000000000 H
   0.2323600000000000    0.6592100000000000    0.9527000000000000 H
   0.7888633333333332    0.4628900000000000    0.3643100000000000 H
   0.7930033333333333    0.3471200000000000    0.2437500000000000 H
   0.7544000000000000    0.7394100000000000    0.2193000000000000 H
   0.7354799999999999    0.7798900000000000    0.0677500000000000 H
   0.7487266666666667    0.5003600000000000    0.9849800000000000 H
   0.7325699999999999    0.6599100000000000    0.9510400000000000 H
   0.6653533333333332    0.9987400000000000    0.0137100000000000 H
   0.6489933333333333    0.8391999999999999    0.0469300000000000 H
   0.7059133333333333    0.0370900000000000    0.6347200000000000 H
   0.7100099999999999    0.1524700000000000    0.7556300000000000 H
   0.6709133333333333    0.7605800000000000    0.7784700000000000 H
   0.6518633333333332    0.7196500000000000    0.9298000000000000 H
   0.6220733333333333    0.4627500000000000    0.3661300000000000 H
   0.6264366666666666    0.3470000000000000    0.2456100000000000 H
   0.5871266666666666    0.7388000000000000    0.2211800000000000 H
   0.5682066666666666    0.7791100000000000    0.0695300000000000 H
   0.5821700000000000    0.4998500000000000    0.9866100000000000 H
   0.5656933333333334    0.6592100000000000    0.9527000000000000 H
   0.8718033333333333    0.0338200000000000    0.6352000000000000 H
   0.8762566666666667    0.1501300000000000    0.7552100000000000 H
   0.8371999999999999    0.7584100000000000    0.7816000000000000 H
   0.8184066666666666    0.7187900000000000    0.9334800000000000 H
   0.8320966666666666    0.9985500000000000    0.0150100000000000 H
   0.8158099999999999    0.8393000000000000    0.0497100000000000 H
   0.1221966666666667    0.4628900000000000    0.3643100000000000 H
   0.1263366666666667    0.3471200000000000    0.2437500000000000 H
   0.0877333333333333    0.7394100000000000    0.2193000000000000 H
   0.0688133333333333    0.7798900000000000    0.0677500000000000 H
   0.0820600000000000    0.5003600000000000    0.9849800000000000 H
   0.0659033333333333    0.6599100000000000    0.9510400000000000 H
   0.9986866666666666    0.9987400000000000    0.0137100000000000 H
   0.9823266666666666    0.8391999999999999    0.0469300000000000 H
   0.0392466666666667    0.0370900000000000    0.6347200000000000 H
   0.0433433333333333    0.1524700000000000    0.7556300000000000 H
   0.0042466666666667    0.7605800000000000    0.7784700000000000 H
   0.9851966666666666    0.7196500000000000    0.9298000000000000 H
   0.9554066666666666    0.4627500000000000    0.3661300000000000 H
   0.9597700000000000    0.3470000000000000    0.2456100000000000 H
   0.9204599999999999    0.7388000000000000    0.2211800000000000 H
   0.9015400000000000    0.7791100000000000    0.0695300000000000 H
   0.9155033333333333    0.4998500000000000    0.9866100000000000 H
   0.8990266666666666    0.6592100000000000    0.9527000000000000 H
   0.7948599999999999    0.5339200000000000    0.8648000000000000 H
   0.7903766666666666    0.6502100000000000    0.7448500000000000 H
   0.8294566666666666    0.2584300000000000    0.7184300000000000 H
   0.8482633333333333    0.2187500000000000    0.5665600000000000 H
   0.8345466666666665    0.4985100000000000    0.4849900000000000 H
   0.8508633333333333    0.3392300000000000    0.4503200000000000 H
   0.5444300000000000    0.9629900000000000    0.1358400000000000 H
   0.5402766666666666    0.8471900000000000    0.2563500000000000 H
   0.5789200000000000    0.2393600000000000    0.2809000000000000 H
   0.5978866666666667    0.2797400000000000    0.4324800000000000 H
   0.5846133333333332    0.0002300000000000    0.5151900000000000 H
   0.6008000000000000    0.1597100000000000    0.5491600000000000 H
   0.6272733333333333    0.5363200000000000    0.8657600000000000 H
   0.6233033333333333    0.6519100000000000    0.7450300000000000 H
   0.6666666666666666    0.2190300000000000    0.5704100000000000 H
   0.6621166666666667    0.2597300000000000    0.7216500000000000 H
   0.6666666666666666    0.3388300000000000    0.4535400000000000 H
   0.6666666666666666    0.4984000000000000    0.4869900000000000 H
   0.7112966666666667    0.9629400000000000    0.1338200000000000 H
   0.7068466666666666    0.8473800000000000    0.2544800000000000 H
   0.7462966666666666    0.2390400000000000    0.2785900000000000 H
   0.7652200000000000    0.2794000000000000    0.4302100000000000 H
   0.7512033333333333    0.0002700000000000    0.5133200000000000 H
   0.7677133333333332    0.1595800000000000    0.5471400000000000 H
   0.1281933333333333    0.5339200000000000    0.8648000000000000 H
   0.1237100000000000    0.6502100000000000    0.7448500000000000 H
   0.1627900000000000    0.2584300000000000    0.7184300000000000 H
   0.1815966666666667    0.2187500000000000    0.5665600000000000 H
   0.1678800000000000    0.4985100000000000    0.4849900000000000 H
   0.1841966666666667    0.3392300000000000    0.4503200000000000 H
   0.8777633333333332    0.9629900000000000    0.1358400000000000 H
   0.8736100000000000    0.8471900000000000    0.2563500000000000 H
   0.9122533333333332    0.2393600000000000    0.2809000000000000 H
   0.9312199999999999    0.2797400000000000    0.4324800000000000 H
   0.9179466666666666    0.0002300000000000    0.5151900000000000 H
   0.9341333333333333    0.1597100000000000    0.5491600000000000 H
   0.9606066666666666    0.5363200000000000    0.8657600000000000 H
   0.9566366666666666    0.6519100000000000    0.7450300000000000 H
   0.0000000000000000    0.2190300000000000    0.5704100000000000 H
   0.9954499999999999    0.2597300000000000    0.7216500000000000 H
   0.0000000000000000    0.3388300000000000    0.4535400000000000 H
   0.0000000000000000    0.4984000000000000    0.4869900000000000 H
   0.0446300000000000    0.9629400000000000    0.1338200000000000 H
   0.0401800000000000    0.8473800000000000    0.2544800000000000 H
   0.0796300000000000    0.2390400000000000    0.2785900000000000 H
   0.0985533333333333    0.2794000000000000    0.4302100000000000 H
   0.0845366666666667    0.0002700000000000    0.5133200000000000 H
   0.1010466666666667    0.1595800000000000    0.5471400000000000 H
   0.4615266666666666    0.5339200000000000    0.8648000000000000 H
   0.4570433333333333    0.6502100000000000    0.7448500000000000 H
   0.4961233333333333    0.2584300000000000    0.7184300000000000 H
   0.5149300000000000    0.2187500000000000    0.5665600000000000 H
   0.5012133333333333    0.4985100000000000    0.4849900000000000 H
   0.5175300000000000    0.3392300000000000    0.4503200000000000 H
   0.2110966666666667    0.9629900000000000    0.1358400000000000 H
   0.2069433333333333    0.8471900000000000    0.2563500000000000 H
   0.2455866666666666    0.2393600000000000    0.2809000000000000 H
   0.2645533333333333    0.2797400000000000    0.4324800000000000 H
   0.2512799999999999    0.0002300000000000    0.5151900000000000 H
   0.2674666666666666    0.1597100000000000    0.5491600000000000 H
   0.2939400000000000    0.5363200000000000    0.8657600000000000 H
   0.2899700000000000    0.6519100000000000    0.7450300000000000 H
   0.3333333333333333    0.2190300000000000    0.5704100000000000 H
   0.3287833333333333    0.2597300000000000    0.7216500000000000 H
   0.3333333333333333    0.3388300000000000    0.4535400000000000 H
   0.3333333333333333    0.4984000000000000    0.4869900000000000 H
   0.4318523688851647    0.0651825190774072    1.0733476368819259 H
   0.3621915294652026    0.2281365633681426    0.1951760974361693 H
   0.3968680552090205    0.1427920683518176    1.1400091970535295 H
   0.1869200000000000    0.8592600000000000    0.6464000000000000 C
   0.1890533333333333    0.1391700000000000    0.9191300000000000 C
   0.1983066666666667    0.0155000000000000    0.7028200000000000 C
   0.1879066666666667    0.9269400000000000    0.7215000000000000 C
   0.2002400000000000    0.0814900000000000    0.7700600000000000 C
   0.1890666666666667    0.0619600000000000    0.8552300000000000 C
   0.1689733333333333    0.8110400000000000    0.8323500000000000 C
   0.1587866666666667    0.7890100000000000    0.9170000000000000 C
   0.1666466666666667    0.9463500000000000    0.9638200000000000 C
   0.1574766666666667    0.8573100000000000    0.9830800000000000 C
   0.1783833333333333    0.9021000000000000    0.8096000000000000 C
   0.1774900000000000    0.9716200000000000    0.8773400000000000 C
   0.4372933333333333    0.6376200000000000    0.3541200000000000 C
   0.4389366666666666    0.3592000000000000    0.0799300000000000 C
   0.4486300000000000    0.4816100000000000    0.2968200000000000 C
   0.4382800000000000    0.5703600000000000    0.2786000000000000 C
   0.4503866666666667    0.4159300000000000    0.2292700000000000 C
   0.4391066666666666    0.4359900000000000    0.1442700000000000 C
   0.4193700000000000    0.6870000000000001    0.1683900000000000 C
   0.4091066666666666    0.7095200000000000    0.0838700000000000 C
   0.4167166666666666    0.5523200000000000    0.0363600000000000 C
   0.4076266666666666    0.6415300000000000    0.0175400000000000 C
   0.4286900000000000    0.5957400000000000    0.1906400000000000 C
   0.4276266666666667    0.5265600000000000    0.1226700000000000 C
   0.3537966666666666    0.8625900000000000    0.6443800000000000 C
   0.3556600000000000    0.1402600000000000    0.9189300000000000 C
   0.3333100000000000    0.9469800000000000    0.9621200000000000 C
   0.3241166666666667    0.8577800000000000    0.9805500000000000 C
   0.3443166666666667    0.9729800000000000    0.8759000000000000 C
   0.3655866666666666    0.0182200000000000    0.7020900000000000 C
   0.3550633333333333    0.9296000000000000    0.7200299999999999 C
   0.3673333333333333    0.0836700000000000    0.7698199999999999 C
   0.3559066666666666    0.0634900000000000    0.8546500000000000 C
   0.3359200000000000    0.8127900000000000    0.8296200000000000 C
   0.3255766666666666    0.7900199999999999    0.9100000000000000 C
   0.3453600000000000    0.9040400000000000    0.8078100000000000 C
   0.5202533333333333    0.8592600000000000    0.6464000000000000 C
   0.5223866666666667    0.1391700000000000    0.9191300000000000 C
   0.5316400000000000    0.0155000000000000    0.7028200000000000 C
   0.5212399999999999    0.9269400000000000    0.7215000000000000 C
   0.5335733333333333    0.0814900000000000    0.7700600000000000 C
   0.5224000000000000    0.0619600000000000    0.8552300000000000 C
   0.5023066666666667    0.8110400000000000    0.8323500000000000 C
   0.4921200000000000    0.7890100000000000    0.9170000000000000 C
   0.4999800000000000    0.9463500000000000    0.9638200000000000 C
   0.4908100000000000    0.8573100000000000    0.9830800000000000 C
   0.5117166666666666    0.9021000000000000    0.8096000000000000 C
   0.5108233333333333    0.9716200000000000    0.8773400000000000 C
   0.2701033333333333    0.6372300000000000    0.3558000000000000 C
   0.2723233333333333    0.3587700000000000    0.0818100000000000 C
   0.2818666666666667    0.4814200000000000    0.2986100000000000 C
   0.2713700000000000    0.5700300000000000    0.2803500000000000 C
   0.2837633333333333    0.4157400000000000    0.2310700000000000 C
   0.2724933333333333    0.4356700000000000    0.1460400000000000 C
   0.2522666666666666    0.6864300000000000    0.1701700000000000 C
   0.2420100000000000    0.7088500000000000    0.0856100000000000 C
   0.2500033333333333    0.5518000000000000    0.0380400000000000 C
   0.2407366666666667    0.6408900000000000    0.0192200000000000 C
   0.2617800000000000    0.5952900000000000    0.1923700000000000 C
   0.2608933333333333    0.5261300000000000    0.1243900000000000 C
   0.7706266666666666    0.6376200000000000    0.3541200000000000 C
   0.7722700000000000    0.3592000000000000    0.0799300000000000 C
   0.7819633333333333    0.4816100000000000    0.2968200000000000 C
   0.7716133333333333    0.5703600000000000    0.2786000000000000 C
   0.7837200000000000    0.4159300000000000    0.2292700000000000 C
   0.7724400000000000    0.4359900000000000    0.1442700000000000 C
   0.7527033333333333    0.6870000000000001    0.1683900000000000 C
   0.7424400000000000    0.7095200000000000    0.0838700000000000 C
   0.7500500000000000    0.5523200000000000    0.0363600000000000 C
   0.7409600000000000    0.6415300000000000    0.0175400000000000 C
   0.7620233333333333    0.5957400000000000    0.1906400000000000 C
   0.7609600000000000    0.5265600000000000    0.1226700000000000 C
   0.6871300000000000    0.8625900000000000    0.6443800000000000 C
   0.6889933333333333    0.1402600000000000    0.9189300000000000 C
   0.6666433333333333    0.9469800000000000    0.9621200000000000 C
   0.6574500000000000    0.8577800000000000    0.9805500000000000 C
   0.6776500000000000    0.9729800000000000    0.8759000000000000 C
   0.6989200000000000    0.0182200000000000    0.7020900000000000 C
   0.6883966666666667    0.9296000000000000    0.7200299999999999 C
   0.7006666666666667    0.0836700000000000    0.7698199999999999 C
   0.6892400000000000    0.0634900000000000    0.8546500000000000 C
   0.6692533333333333    0.8127900000000000    0.8296200000000000 C
   0.6589099999999999    0.7900199999999999    0.9100000000000000 C
   0.6786933333333333    0.9040400000000000    0.8078100000000000 C
   0.6034366666666666    0.6372300000000000    0.3558000000000000 C
   0.6056566666666666    0.3587700000000000    0.0818100000000000 C
   0.6152000000000000    0.4814200000000000    0.2986100000000000 C
   0.6047033333333334    0.5700300000000000    0.2803500000000000 C
   0.6170966666666666    0.4157400000000000    0.2310700000000000 C
   0.6058266666666666    0.4356700000000000    0.1460400000000000 C
   0.5855999999999999    0.6864300000000000    0.1701700000000000 C
   0.5753433333333333    0.7088500000000000    0.0856100000000000 C
   0.5833366666666666    0.5518000000000000    0.0380400000000000 C
   0.5740700000000000    0.6408900000000000    0.0192200000000000 C
   0.5951133333333334    0.5952900000000000    0.1923700000000000 C
   0.5942266666666667    0.5261300000000000    0.1243900000000000 C
   0.8535866666666666    0.8592600000000000    0.6464000000000000 C
   0.8557199999999999    0.1391700000000000    0.9191300000000000 C
   0.8649733333333333    0.0155000000000000    0.7028200000000000 C
   0.8545733333333333    0.9269400000000000    0.7215000000000000 C
   0.8669066666666666    0.0814900000000000    0.7700600000000000 C
   0.8557333333333332    0.0619600000000000    0.8552300000000000 C
   0.8356399999999999    0.8110400000000000    0.8323500000000000 C
   0.8254533333333333    0.7890100000000000    0.9170000000000000 C
   0.8333133333333334    0.9463500000000000    0.9638200000000000 C
   0.8241433333333332    0.8573100000000000    0.9830800000000000 C
   0.8450500000000000    0.9021000000000000    0.8096000000000000 C
   0.8441566666666667    0.9716200000000000    0.8773400000000000 C
   0.1039600000000000    0.6376200000000000    0.3541200000000000 C
   0.1056033333333333    0.3592000000000000    0.0799300000000000 C
   0.1152966666666667    0.4816100000000000    0.2968200000000000 C
   0.1049466666666667    0.5703600000000000    0.2786000000000000 C
   0.1170533333333333    0.4159300000000000    0.2292700000000000 C
   0.1057733333333333    0.4359900000000000    0.1442700000000000 C
   0.0860366666666667    0.6870000000000001    0.1683900000000000 C
   0.0757733333333333    0.7095200000000000    0.0838700000000000 C
   0.0833833333333333    0.5523200000000000    0.0363600000000000 C
   0.0742933333333333    0.6415300000000000    0.0175400000000000 C
   0.0953566666666667    0.5957400000000000    0.1906400000000000 C
   0.0942933333333333    0.5265600000000000    0.1226700000000000 C
   0.0204633333333333    0.8625900000000000    0.6443800000000000 C
   0.0223266666666667    0.1402600000000000    0.9189300000000000 C
   0.9999766666666666    0.9469800000000000    0.9621200000000000 C
   0.9907833333333333    0.8577800000000000    0.9805500000000000 C
   0.0109833333333333    0.9729800000000000    0.8759000000000000 C
   0.0322533333333333    0.0182200000000000    0.7020900000000000 C
   0.0217300000000000    0.9296000000000000    0.7200299999999999 C
   0.0340000000000000    0.0836700000000000    0.7698199999999999 C
   0.0225733333333333    0.0634900000000000    0.8546500000000000 C
   0.0025866666666667    0.8127900000000000    0.8296200000000000 C
   0.9922433333333333    0.7900199999999999    0.9100000000000000 C
   0.0120266666666667    0.9040400000000000    0.8078100000000000 C
   0.9367699999999999    0.6372300000000000    0.3558000000000000 C
   0.9389900000000000    0.3587700000000000    0.0818100000000000 C
   0.9485333333333332    0.4814200000000000    0.2986100000000000 C
   0.9380366666666666    0.5700300000000000    0.2803500000000000 C
   0.9504299999999999    0.4157400000000000    0.2310700000000000 C
   0.9391600000000000    0.4356700000000000    0.1460400000000000 C
   0.9189333333333333    0.6864300000000000    0.1701700000000000 C
   0.9086766666666666    0.7088500000000000    0.0856100000000000 C
   0.9166699999999999    0.5518000000000000    0.0380400000000000 C
   0.9074033333333333    0.6408900000000000    0.0192200000000000 C
   0.9284466666666666    0.5952900000000000    0.1923700000000000 C
   0.9275599999999999    0.5261300000000000    0.1243900000000000 C
   0.8130700000000000    0.3593200000000000    0.8536200000000000 C
   0.8108700000000000    0.6392200000000000    0.5809299999999999 C
   0.8016799999999999    0.5155800000000000    0.7972200000000000 C
   0.8120833333333333    0.4270000000000000    0.7784900000000000 C
   0.7997266666666666    0.5815600000000000    0.7299900000000000 C
   0.8108833333333333    0.5620000000000001    0.6448000000000000 C
   0.8310166666666666    0.3110500000000000    0.6676800000000001 C
   0.8412066666666667    0.2889800000000000    0.5830000000000000 C
   0.8333333333333333    0.4463300000000000    0.5362100000000000 C
   0.8425199999999999    0.3572700000000000    0.5169600000000000 C
   0.8215966666666666    0.4021300000000000    0.6903500000000000 C
   0.8224800000000000    0.4716400000000000    0.6226900000000000 C
   0.5626433333333334    0.1376000000000000    0.1460900000000000 C
   0.5609866666666666    0.8591400000000000    0.4201400000000000 C
   0.5513200000000000    0.9816700000000000    0.2033400000000000 C
   0.5616666666666666    0.0703800000000000    0.2216200000000000 C
   0.5495600000000000    0.9159700000000000    0.2708500000000000 C
   0.5608366666666667    0.9359800000000000    0.3558600000000000 C
   0.5806133333333333    0.1869400000000000    0.3318300000000000 C
   0.5909033333333333    0.2094000000000000    0.4163500000000000 C
   0.5832733333333333    0.0522100000000000    0.4638100000000000 C
   0.5923866666666666    0.1413900000000000    0.4826500000000000 C
   0.5712733333333333    0.0957100000000000    0.3095800000000000 C
   0.5723333333333334    0.0265100000000000    0.3775100000000000 C
   0.6457500000000000    0.3617900000000000    0.8560000000000000 C
   0.6443166666666666    0.6397699999999999    0.5816000000000000 C
   0.6342800000000000    0.5175300000000000    0.7983700000000000 C
   0.6447000000000001    0.4287900000000000    0.7803700000000000 C
   0.6326333333333334    0.5831000000000000    0.7307399999999999 C
   0.6441033333333333    0.5629700000000000    0.6459300000000000 C
   0.6666666666666666    0.2894100000000000    0.5863100000000000 C
   0.6638866666666666    0.3120400000000000    0.6706400000000000 C
   0.6666666666666666    0.3573000000000000    0.5199100000000000 C
   0.6666666666666666    0.4465200000000000    0.5384700000000000 C
   0.6556599999999999    0.4724000000000000    0.6245800000000000 C
   0.6544800000000000    0.4033100000000000    0.6926000000000000 C
   0.7299333333333333    0.1373600000000000    0.1439400000000000 C
   0.7276066666666666    0.8594100000000000    0.4183700000000000 C
   0.7181766666666667    0.9816400000000000    0.2013300000000000 C
   0.7286999999999999    0.0702300000000000    0.2195000000000000 C
   0.7162400000000000    0.9160700000000001    0.2689000000000000 C
   0.7275133333333333    0.9361000000000000    0.3539400000000000 C
   0.7478166666666666    0.1867000000000000    0.3296200000000000 C
   0.7580766666666666    0.2091500000000000    0.4141600000000000 C
   0.7500533333333332    0.0521800000000000    0.4618000000000000 C
   0.7593333333333333    0.1412500000000000    0.4806000000000000 C
   0.7382900000000000    0.0955800000000000    0.3074000000000000 C
   0.7391566666666667    0.0265000000000000    0.3754900000000000 C
   0.1464033333333333    0.3593200000000000    0.8536200000000000 C
   0.1442033333333333    0.6392200000000000    0.5809299999999999 C
   0.1350133333333333    0.5155800000000000    0.7972200000000000 C
   0.1454166666666667    0.4270000000000000    0.7784900000000000 C
   0.1330600000000000    0.5815600000000000    0.7299900000000000 C
   0.1442166666666667    0.5620000000000001    0.6448000000000000 C
   0.1643500000000000    0.3110500000000000    0.6676800000000001 C
   0.1745400000000000    0.2889800000000000    0.5830000000000000 C
   0.1666666666666667    0.4463300000000000    0.5362100000000000 C
   0.1758533333333333    0.3572700000000000    0.5169600000000000 C
   0.1549300000000000    0.4021300000000000    0.6903500000000000 C
   0.1558133333333333    0.4716400000000000    0.6226900000000000 C
   0.8959766666666666    0.1376000000000000    0.1460900000000000 C
   0.8943200000000000    0.8591400000000000    0.4201400000000000 C
   0.8846533333333333    0.9816700000000000    0.2033400000000000 C
   0.8950000000000000    0.0703800000000000    0.2216200000000000 C
   0.8828933333333333    0.9159700000000000    0.2708500000000000 C
   0.8941699999999999    0.9359800000000000    0.3558600000000000 C
   0.9139466666666667    0.1869400000000000    0.3318300000000000 C
   0.9242366666666666    0.2094000000000000    0.4163500000000000 C
   0.9166066666666666    0.0522100000000000    0.4638100000000000 C
   0.9257199999999999    0.1413900000000000    0.4826500000000000 C
   0.9046066666666666    0.0957100000000000    0.3095800000000000 C
   0.9056666666666666    0.0265100000000000    0.3775100000000000 C
   0.9790833333333333    0.3617900000000000    0.8560000000000000 C
   0.9776499999999999    0.6397699999999999    0.5816000000000000 C
   0.9676133333333332    0.5175300000000000    0.7983700000000000 C
   0.9780333333333333    0.4287900000000000    0.7803700000000000 C
   0.9659666666666666    0.5831000000000000    0.7307399999999999 C
   0.9774366666666666    0.5629700000000000    0.6459300000000000 C
   0.0000000000000000    0.2894100000000000    0.5863100000000000 C
   0.9972200000000000    0.3120400000000000    0.6706400000000000 C
   0.0000000000000000    0.3573000000000000    0.5199100000000000 C
   0.0000000000000000    0.4465200000000000    0.5384700000000000 C
   0.9889933333333333    0.4724000000000000    0.6245800000000000 C
   0.9878133333333332    0.4033100000000000    0.6926000000000000 C
   0.0632666666666667    0.1373600000000000    0.1439400000000000 C
   0.0609400000000000    0.8594100000000000    0.4183700000000000 C
   0.0515100000000000    0.9816400000000000    0.2013300000000000 C
   0.0620333333333333    0.0702300000000000    0.2195000000000000 C
   0.0495733333333333    0.9160700000000001    0.2689000000000000 C
   0.0608466666666667    0.9361000000000000    0.3539400000000000 C
   0.0811500000000000    0.1867000000000000    0.3296200000000000 C
   0.0914100000000000    0.2091500000000000    0.4141600000000000 C
   0.0833866666666667    0.0521800000000000    0.4618000000000000 C
   0.0926666666666667    0.1412500000000000    0.4806000000000000 C
   0.0716233333333333    0.0955800000000000    0.3074000000000000 C
   0.0724900000000000    0.0265000000000000    0.3754900000000000 C
   0.4797366666666666    0.3593200000000000    0.8536200000000000 C
   0.4775366666666666    0.6392200000000000    0.5809299999999999 C
   0.4683466666666666    0.5155800000000000    0.7972200000000000 C
   0.4787500000000000    0.4270000000000000    0.7784900000000000 C
   0.4663933333333333    0.5815600000000000    0.7299900000000000 C
   0.4775500000000000    0.5620000000000001    0.6448000000000000 C
   0.4976833333333333    0.3110500000000000    0.6676800000000001 C
   0.5078733333333333    0.2889800000000000    0.5830000000000000 C
   0.5000000000000000    0.4463300000000000    0.5362100000000000 C
   0.5091866666666667    0.3572700000000000    0.5169600000000000 C
   0.4882633333333333    0.4021300000000000    0.6903500000000000 C
   0.4891466666666666    0.4716400000000000    0.6226900000000000 C
   0.2293100000000000    0.1376000000000000    0.1460900000000000 C
   0.2276533333333333    0.8591400000000000    0.4201400000000000 C
   0.2179866666666667    0.9816700000000000    0.2033400000000000 C
   0.2283333333333333    0.0703800000000000    0.2216200000000000 C
   0.2162266666666667    0.9159700000000000    0.2708500000000000 C
   0.2275033333333333    0.9359800000000000    0.3558600000000000 C
   0.2472800000000000    0.1869400000000000    0.3318300000000000 C
   0.2575700000000000    0.2094000000000000    0.4163500000000000 C
   0.2499400000000000    0.0522100000000000    0.4638100000000000 C
   0.2590533333333333    0.1413900000000000    0.4826500000000000 C
   0.2379400000000000    0.0957100000000000    0.3095800000000000 C
   0.2390000000000000    0.0265100000000000    0.3775100000000000 C
   0.3124166666666667    0.3617900000000000    0.8560000000000000 C
   0.3109833333333333    0.6397699999999999    0.5816000000000000 C
   0.3009466666666666    0.5175300000000000    0.7983700000000000 C
   0.3113666666666667    0.4287900000000000    0.7803700000000000 C
   0.2993000000000000    0.5831000000000000    0.7307399999999999 C