H6 O4
1.0
  38.7179988441706371    0.0000000000000000   -0.0094605920228783
   0.0061216052491694   14.6149986623094055   -0.0012753993492751
   0.0000000000000000    0.0000000000000000   15.1250000000000000
H O
6 4
direct
   0.4318523688851647    0.0651825190774072    1.0733476368819259 H
   0.3621915294652026    0.2281365633681426    0.1951760974361693 H
   0.3968680552090205    0.1427920683518176    1.1400091970535295 H
   0.3843197498567684    0.8435102360043366    0.4316617976279589 H
   0.3456354900271840    0.8016585311885412    0.3941498350632671 H
   0.4375991549329795    0.8915941227003391    0.4844556087228702 H
   0.4164266666666666    0.1170600000000000    1.0798600000000000 O
   0.3774666666666666    0.2080400000000000    0.1482000000000000 O
   0.3686866666666667    0.8037600000000000    0.4192000000000000 O
   0.4199666666666667    0.8467600000000000    0.4704000000000000 O
