H11 O7
1.0
  36.7441471009211753    0.0000000000000000    3.9326542977823342
  -0.7131895684527051   19.9551955001312820    6.6463191460379409
   0.0000000000000000    0.0000000000000000   33.2860000000000014
H O
11 7
direct
   0.9380191751082245    0.8556213297402013    0.8597106580479443 H
   0.8552896337576140    0.9273523927229673    0.8661075579171460 H
   0.8886120465433683    0.8893105113107722    0.8831626756658685 H
   0.9309707373623088    0.1385794927528371    0.7502573585465541 H
   0.8979514015591150    0.0879955327398899    0.7894746025731880 H
   0.9411920561940145    0.9950184146510367    0.7803959862204157 H
   0.9827462840719934    0.9878877923136995    0.8651047904238816 H
   0.9384651738614337    0.9812212393625330    0.8481581903140932 H
   0.9604610665783760    0.9132560418947604    0.9136643917901198 H
   0.8831127592462723    1.0086596906395919    0.9626575676291971 H
   0.9203071294854051    0.9613659943193517    0.9357788517406718 H
   0.9275399999999999    0.8773100000000000    0.8334800000000000 O
   0.8728466666666665    0.9219400000000000    0.8437000000000000 O
   0.9506733333333333    0.1137100000000000    0.7414750000000000 O
   0.9631333333333333    1.0057199999999999    0.7604200000000000 O
   0.9645699999999999    0.9752200000000000    0.8499450000000000 O
   0.9489266666666666    0.9331199999999999    0.9341750000000000 O
   0.9059100000000000    0.9861600000000000    0.9613800000000000 O
