H2 O2
1.0
  29.9690056486289365    0.0000000000000000    8.5544290535632523
 -14.8996185894140414   25.0292615453316323   11.3291636224997170
   0.0000000000000000    0.0000000000000000   31.3440000000000012
H O
2 2
direct
   0.7335363504853829    0.6840177181206930    0.2723662526064118 H
   0.6663623288507798    0.6493709635967341    0.2741662979211671 H
   0.7071550000000000    0.6640150000000000    0.3085350000000000 O
   0.6596150000000001    0.6391750000000000    0.3097900000000000 O
