H6 C4 N3
1.0
  29.9690056486289365    0.0000000000000000    8.5544290535632523
 -14.8996185894140414   25.0292615453316323   11.3291636224997170
   0.0000000000000000    0.0000000000000000   31.3440000000000012
H C N
6 4 3
direct
   0.5901250000000000    0.6060950000000001    0.2800000000000000 H
   0.6259749999999999    0.6693850000000000    0.2210050000000000 H
   0.6363200000000000    0.6167350000000000    0.2229100000000000 H
   0.8078250000000000    0.7272400000000000    0.2706100000000000 H
   0.8176500000000000    0.6990850000000000    0.2311750000000000 H
   0.8185150000000000    0.7602550000000000    0.2052700000000000 H
   0.7432200000000000    0.6913600000000000    0.2590900000000000 C
   0.6688400000000000    0.6531150000000000    0.2610850000000000 C
   0.6279650000000000    0.6352650000000000    0.2454850000000000 C
   0.7999750000000000    0.7213900000000000    0.2405450000000000 C
   0.7071550000000000    0.6640150000000000    0.3085350000000000 N
   0.7207050000000000    0.6859800000000000    0.2280500000000000 N
   0.6596150000000001    0.6391750000000000    0.3097900000000000 N
