H8 C10 N4
1.0
  23.2629749994850314    0.0000000000000000    0.0341053270693241
  -0.0033011673057236   31.6319988834478814   -0.0077291556089593
   0.0000000000000000    0.0000000000000000   31.9860000000000007
H C N
8 10 4
direct
   0.1696200000000000    0.0017900000000000    0.1477400000000000 H
   0.1606200000000000    0.0013550000000000    0.2259150000000000 H
   0.1439700000000000    0.0086100000000000    0.0311000000000000 H
   0.9820900000000000    0.9982550000000000    0.2188750000000000 H
   0.9842700000000000    0.9982100000000000    0.1405350000000000 H
   0.9646800000000000    0.9775300000000000    0.0170800000000000 H
   0.1508300000000000    0.0117500000000000    0.9521700000000000 H
   0.9787900000000000    0.9815150000000000    0.9385700000000000 H
   0.1277400000000000    0.0008450000000000    0.1628850000000000 C
   0.1226400000000000    0.0005950000000000    0.2061400000000000 C
   0.1067500000000000    0.0028700000000000    0.0113000000000000 C
   0.0532900000000000    0.9933550000000000    0.0295200000000000 C
   0.0227000000000000    0.9988500000000000    0.2019450000000000 C
   0.0777600000000000    0.9995650000000000    0.1387050000000000 C
   0.0239200000000000    0.9986300000000000    0.1585900000000000 C
   0.0062800000000000    0.9853900000000000    0.0034350000000000 C
   0.1106000000000000    0.0044750000000000    0.9681500000000001 C
   0.0138400000000000    0.9876750000000001    0.9603300000000000 C
   0.0866800000000000    0.0006250000000000    0.0949800000000000 N
   0.0710900000000000    0.9997800000000000    0.2254250000000000 N
   0.0427000000000000    0.9909350000000000    0.0730000000000000 N
   0.0650500000000000    0.9971850000000000    0.9429600000000000 N
