H4 O2
1.0
  23.2629749994850314    0.0000000000000000    0.0341053270693241
  -0.0033011673057236   31.6319988834478814   -0.0077291556089593
   0.0000000000000000    0.0000000000000000   31.9860000000000007
H O
4 2
direct
   0.0361296115077576    0.9991081016470803    0.2084613727671450 H
   0.1085119776872837    1.0003716374745903    0.2114253328865322 H
   0.0278680690448585    0.9902800954230933    0.9555717973187036 H
   0.0980217073836473    1.0024619208963070    0.9611939694619995 H
   0.0710900000000000    0.9997800000000000    0.2254250000000000 O
   0.0650500000000000    0.9971850000000000    0.9429600000000000 O
