H10 C16 O4
1.0
  37.5239063616773620    0.0000000000000000   -0.0838293508803264
  -6.2032373558871567   30.0670692923365337   -7.8579444179988744
   0.0000000000000000    0.0000000000000000   33.2879999999999967
H C O
10 16 4
direct
   0.7908900000000000    0.1720000000000000    0.4199250000000000 H
   0.8678349999999999    0.0935300000000000    0.4381350000000000 H
   0.9113483333333332    0.1610600000000000    0.4742350000000000 H
   0.8347366666666666    0.2410050000000000    0.4558450000000000 H
   0.8900250000000000    0.2779100000000000    0.4903900000000000 H
   0.9654916666666666    0.4064650000000000    0.5618500000000000 H
   0.9219799999999999    0.3389350000000000    0.5257550000000000 H
   0.9985916666666665    0.2589900000000000    0.5441450000000000 H
   0.8757716666666666    0.3279950000000000    0.5800650000000001 H
   0.9433049999999999    0.2220850000000000    0.5095950000000000 H
   0.7989333333333333    0.0874700000000000    0.4065300000000000 C
   0.8262466666666666    0.1283000000000000    0.4272700000000000 C
   0.8173666666666666    0.1702500000000000    0.4321700000000000 C
   0.8605033333333333    0.1258750000000000    0.4426050000000000 C
   0.8849083333333333    0.1641500000000000    0.4630550000000000 C
   0.8761349999999999    0.2065200000000000    0.4686550000000000 C
   0.8419349999999999    0.2085800000000000    0.4522650000000000 C
   0.9003099999999999    0.2478800000000000    0.4902350000000000 C
   0.8677266666666665    0.4125250000000000    0.5934650000000000 C
   0.8404166666666666    0.3717000000000000    0.5727200000000000 C
   0.9728266666666666    0.3741200000000000    0.5573750000000000 C
   0.9484199999999999    0.3358450000000000    0.5369300000000000 C
   0.9571949999999999    0.2934750000000000    0.5313300000000000 C
   0.9913916666666666    0.2914150000000000    0.5477250000000000 C
   0.8492966666666666    0.3297450000000000    0.5678200000000000 C
   0.9330183333333333    0.2521150000000000    0.5097500000000000 C
   0.8099266666666667    0.0496550000000000    0.3993650000000000 O
   0.7672483333333333    0.0903800000000000    0.3975600000000000 O
   0.8567349999999999    0.4503400000000000    0.6006250000000000 O
   0.8994116666666666    0.4096150000000000    0.6024350000000001 O
