H6 O4
1.0
  37.5239063616773620    0.0000000000000000   -0.0838293508803264
  -6.2032373558871567   30.0670692923365337   -7.8579444179988744
   0.0000000000000000    0.0000000000000000   33.2879999999999967
H O
6 4
direct
   0.8324007409034743    0.4541328512107176    0.5947020588534521 H
   0.9109445811561465    0.3842096001423471    0.5992991530397405 H
   0.8733804751706961    0.4136723430154695    0.5960990267290009 H
   0.8342631974868887    0.0458701844046201    0.4052890915828271 H
   0.7557184070752829    0.1157883035745074    0.4007000902975338 H
   0.7932836232058460    0.0863309935139217    0.4038976100204906 H
   0.8567349999999999    0.4503400000000000    0.6006250000000000 O
   0.8994116666666666    0.4096150000000000    0.6024350000000001 O
   0.8099266666666667    0.0496550000000000    0.3993650000000000 O
   0.7672483333333333    0.0903800000000000    0.3975600000000000 O
