Zn48 H854 C1232 N96 O188
1.0
  37.5239063616773620    0.0000000000000000   -0.0838293508803264
  -6.2032373558871567   30.0670692923365337   -7.8579444179988744
   0.0000000000000000    0.0000000000000000   33.2879999999999967
Zn H C N O
48 854 1232 96 188
direct
   0.1017866666666667    0.0000750000000000    0.3751600000000000 Zn
   0.0648733333333333    0.4999300000000000    0.1248300000000000 Zn
   0.2684533333333333    0.0000750000000000    0.3751600000000000 Zn
   0.2315400000000000    0.4999300000000000    0.1248300000000000 Zn
   0.4351200000000000    0.0000750000000000    0.3751600000000000 Zn
   0.3982066666666667    0.4999300000000000    0.1248300000000000 Zn
   0.6017866666666667    0.0000750000000000    0.3751600000000000 Zn
   0.5648733333333333    0.4999300000000000    0.1248300000000000 Zn
   0.7684533333333333    0.0000750000000000    0.3751600000000000 Zn
   0.7315400000000000    0.4999300000000000    0.1248300000000000 Zn
   0.9351200000000000    0.0000750000000000    0.3751600000000000 Zn
   0.8982066666666666    0.4999300000000000    0.1248300000000000 Zn
   0.1017866666666667    0.5000750000000000    0.3751600000000000 Zn
   0.0648733333333333    0.9999300000000000    0.1248300000000000 Zn
   0.2684533333333333    0.5000750000000000    0.3751600000000000 Zn
   0.2315400000000000    0.9999300000000000    0.1248300000000000 Zn
   0.4351200000000000    0.5000750000000000    0.3751600000000000 Zn
   0.3982066666666667    0.9999300000000000    0.1248300000000000 Zn
   0.6017866666666667    0.5000750000000000    0.3751600000000000 Zn
   0.5648733333333333    0.9999300000000000    0.1248300000000000 Zn
   0.7684533333333333    0.5000750000000000    0.3751600000000000 Zn
   0.7315400000000000    0.9999300000000000    0.1248300000000000 Zn
   0.9351200000000000    0.5000750000000000    0.3751600000000000 Zn
   0.8982066666666666    0.9999300000000000    0.1248300000000000 Zn
   0.1017866666666667    0.0000750000000000    0.8751599999999999 Zn
   0.0648733333333333    0.4999300000000000    0.6248300000000000 Zn
   0.2684533333333333    0.0000750000000000    0.8751599999999999 Zn
   0.2315400000000000    0.4999300000000000    0.6248300000000000 Zn
   0.4351200000000000    0.0000750000000000    0.8751599999999999 Zn
   0.3982066666666667    0.4999300000000000    0.6248300000000000 Zn
   0.6017866666666667    0.0000750000000000    0.8751599999999999 Zn
   0.5648733333333333    0.4999300000000000    0.6248300000000000 Zn
   0.7684533333333333    0.0000750000000000    0.8751599999999999 Zn
   0.7315400000000000    0.4999300000000000    0.6248300000000000 Zn
   0.9351200000000000    0.0000750000000000    0.8751599999999999 Zn
   0.8982066666666666    0.4999300000000000    0.6248300000000000 Zn
   0.1017866666666667    0.5000750000000000    0.8751599999999999 Zn
   0.0648733333333333    0.9999300000000000    0.6248300000000000 Zn
   0.2684533333333333    0.5000750000000000    0.8751599999999999 Zn
   0.2315400000000000    0.9999300000000000    0.6248300000000000 Zn
   0.4351200000000000    0.5000750000000000    0.8751599999999999 Zn
   0.3982066666666667    0.9999300000000000    0.6248300000000000 Zn
   0.6017866666666667    0.5000750000000000    0.8751599999999999 Zn
   0.5648733333333333    0.9999300000000000    0.6248300000000000 Zn
   0.7684533333333333    0.5000750000000000    0.8751599999999999 Zn
   0.7315400000000000    0.9999300000000000    0.6248300000000000 Zn
   0.9351200000000000    0.5000750000000000    0.8751599999999999 Zn
   0.8982066666666666    0.9999300000000000    0.6248300000000000 Zn
   0.1634833333333333    0.0935050000000000    0.1880350000000000 H
   0.1425033333333333    0.1610950000000000    0.2243450000000000 H
   0.0787600000000000    0.2409100000000000    0.2058450000000000 H
   0.0995333333333333    0.1718600000000000    0.1696150000000000 H
   0.0358883333333333    0.2778600000000000    0.2405450000000000 H
   0.1378833333333333    0.0538750000000000    0.1150600000000000 H
   0.0186216666666667    0.0540600000000000    0.0643150000000000 H
   0.1116116666666667    0.4457550000000000    0.4796050000000000 H
   0.0680983333333333    0.4491600000000000    0.0350200000000000 H
   0.1321583333333333    0.4064650000000000    0.0618500000000000 H
   0.0886466666666667    0.3389350000000000    0.0257550000000000 H
   0.1652583333333333    0.2589900000000000    0.0441450000000000 H
   0.0424383333333333    0.3279950000000000    0.0800650000000000 H
   0.1099716666666667    0.2220850000000000    0.0095950000000000 H
   0.1200333333333333    0.4458450000000000    0.1347800000000000 H
   0.0007616666666667    0.4458150000000000    0.1858050000000000 H
   0.1294650000000000    0.0541350000000000    0.2701050000000000 H
   0.0847350000000000    0.0505150000000000    0.2144450000000000 H
   0.0031766666666667    0.4064900000000000    0.3119550000000000 H
   0.0241550000000000    0.3389000000000000    0.2756450000000000 H
   0.0879016666666667    0.2590850000000000    0.2941500000000000 H
   0.0671266666666667    0.3281350000000000    0.3303750000000000 H
   0.1307716666666667    0.2221350000000000    0.2594500000000000 H
   0.0287750000000000    0.4461250000000000    0.3849300000000000 H
   0.1480383333333333    0.4459350000000000    0.4356700000000000 H
   0.0550483333333333    0.0542350000000000    0.0203850000000000 H
   0.0985600000000000    0.0508350000000000    0.4649650000000000 H
   0.0345016666666667    0.0935300000000000    0.4381350000000000 H
   0.0780150000000000    0.1610600000000000    0.4742350000000000 H
   0.0014033333333333    0.2410050000000000    0.4558450000000000 H
   0.1242233333333333    0.1720000000000000    0.4199250000000000 H
   0.0566916666666667    0.2779100000000000    0.4903900000000000 H
   0.0466366666666667    0.0541600000000000    0.3652000000000000 H
   0.1659066666666666    0.0541950000000000    0.3141800000000000 H
   0.0371816666666667    0.4458500000000000    0.2298900000000000 H
   0.0819150000000000    0.4494700000000000    0.2855450000000000 H
   0.3301499999999999    0.0935050000000000    0.1880350000000000 H
   0.3091699999999999    0.1610950000000000    0.2243450000000000 H
   0.2454266666666667    0.2409100000000000    0.2058450000000000 H
   0.2662000000000000    0.1718600000000000    0.1696150000000000 H
   0.2025550000000000    0.2778600000000000    0.2405450000000000 H
   0.3045500000000000    0.0538750000000000    0.1150600000000000 H
   0.1852883333333333    0.0540600000000000    0.0643150000000000 H
   0.2782783333333333    0.4457550000000000    0.4796050000000000 H
   0.2347650000000000    0.4491600000000000    0.0350200000000000 H
   0.2988250000000000    0.4064650000000000    0.0618500000000000 H
   0.2553133333333333    0.3389350000000000    0.0257550000000000 H
   0.3319250000000000    0.2589900000000000    0.0441450000000000 H
   0.2091050000000000    0.3279950000000000    0.0800650000000000 H
   0.2766383333333333    0.2220850000000000    0.0095950000000000 H
   0.2867000000000000    0.4458450000000000    0.1347800000000000 H
   0.1674283333333333    0.4458150000000000    0.1858050000000000 H
   0.2961316666666667    0.0541350000000000    0.2701050000000000 H
   0.2514016666666666    0.0505150000000000    0.2144450000000000 H
   0.1698433333333333    0.4064900000000000    0.3119550000000000 H
   0.1908216666666667    0.3389000000000000    0.2756450000000000 H
   0.2545683333333333    0.2590850000000000    0.2941500000000000 H
   0.2337933333333333    0.3281350000000000    0.3303750000000000 H
   0.2974383333333334    0.2221350000000000    0.2594500000000000 H
   0.1954416666666667    0.4461250000000000    0.3849300000000000 H
   0.3147050000000000    0.4459350000000000    0.4356700000000000 H
   0.2217150000000000    0.0542350000000000    0.0203850000000000 H
   0.2652266666666667    0.0508350000000000    0.4649650000000000 H
   0.2011683333333333    0.0935300000000000    0.4381350000000000 H
   0.2446816666666667    0.1610600000000000    0.4742350000000000 H
   0.1680700000000000    0.2410050000000000    0.4558450000000000 H
   0.2908900000000000    0.1720000000000000    0.4199250000000000 H
   0.2233583333333333    0.2779100000000000    0.4903900000000000 H
   0.2133033333333333    0.0541600000000000    0.3652000000000000 H
   0.3325733333333333    0.0541950000000000    0.3141800000000000 H
   0.2038483333333333    0.4458500000000000    0.2298900000000000 H
   0.2485816666666666    0.4494700000000000    0.2855450000000000 H
   0.4968166666666666    0.0935050000000000    0.1880350000000000 H
   0.4758366666666666    0.1610950000000000    0.2243450000000000 H
   0.4120933333333333    0.2409100000000000    0.2058450000000000 H
   0.4328666666666666    0.1718600000000000    0.1696150000000000 H
   0.3692216666666667    0.2778600000000000    0.2405450000000000 H
   0.4712166666666666    0.0538750000000000    0.1150600000000000 H
   0.3519550000000000    0.0540600000000000    0.0643150000000000 H
   0.4449450000000000    0.4457550000000000    0.4796050000000000 H
   0.4014316666666666    0.4491600000000000    0.0350200000000000 H
   0.4654916666666666    0.4064650000000000    0.0618500000000000 H
   0.4219800000000000    0.3389350000000000    0.0257550000000000 H
   0.4985916666666667    0.2589900000000000    0.0441450000000000 H
   0.3757716666666667    0.3279950000000000    0.0800650000000000 H
   0.4433049999999999    0.2220850000000000    0.0095950000000000 H
   0.4533666666666666    0.4458450000000000    0.1347800000000000 H
   0.3340950000000000    0.4458150000000000    0.1858050000000000 H
   0.4627983333333333    0.0541350000000000    0.2701050000000000 H
   0.4180683333333333    0.0505150000000000    0.2144450000000000 H
   0.3365100000000000    0.4064900000000000    0.3119550000000000 H
   0.3574883333333333    0.3389000000000000    0.2756450000000000 H
   0.4212350000000000    0.2590850000000000    0.2941500000000000 H
   0.4004600000000000    0.3281350000000000    0.3303750000000000 H
   0.4641050000000000    0.2221350000000000    0.2594500000000000 H
   0.3621083333333333    0.4461250000000000    0.3849300000000000 H
   0.4813716666666666    0.4459350000000000    0.4356700000000000 H
   0.3883816666666666    0.0542350000000000    0.0203850000000000 H
   0.4318933333333333    0.0508350000000000    0.4649650000000000 H
   0.3678350000000000    0.0935300000000000    0.4381350000000000 H
   0.4113483333333333    0.1610600000000000    0.4742350000000000 H
   0.3347366666666666    0.2410050000000000    0.4558450000000000 H
   0.4575566666666666    0.1720000000000000    0.4199250000000000 H
   0.3900250000000000    0.2779100000000000    0.4903900000000000 H
   0.3799700000000000    0.0541600000000000    0.3652000000000000 H
   0.4992400000000000    0.0541950000000000    0.3141800000000000 H
   0.3705150000000000    0.4458500000000000    0.2298900000000000 H
   0.4152483333333333    0.4494700000000000    0.2855450000000000 H
   0.6634833333333333    0.0935050000000000    0.1880350000000000 H
   0.6425033333333333    0.1610950000000000    0.2243450000000000 H
   0.5787599999999999    0.2409100000000000    0.2058450000000000 H
   0.5995333333333334    0.1718600000000000    0.1696150000000000 H
   0.5358883333333333    0.2778600000000000    0.2405450000000000 H
   0.6378833333333334    0.0538750000000000    0.1150600000000000 H
   0.5186216666666666    0.0540600000000000    0.0643150000000000 H
   0.6116116666666667    0.4457550000000000    0.4796050000000000 H
   0.5680983333333334    0.4491600000000000    0.0350200000000000 H
   0.6321583333333334    0.4064650000000000    0.0618500000000000 H
   0.5886466666666667    0.3389350000000000    0.0257550000000000 H
   0.6652583333333333    0.2589900000000000    0.0441450000000000 H
   0.5424383333333334    0.3279950000000000    0.0800650000000000 H
   0.6099716666666667    0.2220850000000000    0.0095950000000000 H
   0.6200333333333333    0.4458450000000000    0.1347800000000000 H
   0.5007616666666667    0.4458150000000000    0.1858050000000000 H
   0.6294649999999999    0.0541350000000000    0.2701050000000000 H
   0.5847350000000000    0.0505150000000000    0.2144450000000000 H
   0.5031766666666667    0.4064900000000000    0.3119550000000000 H
   0.5241550000000000    0.3389000000000000    0.2756450000000000 H
   0.5879016666666667    0.2590850000000000    0.2941500000000000 H
   0.5671266666666667    0.3281350000000000    0.3303750000000000 H
   0.6307716666666667    0.2221350000000000    0.2594500000000000 H
   0.5287750000000000    0.4461250000000000    0.3849300000000000 H
   0.6480383333333333    0.4459350000000000    0.4356700000000000 H
   0.5550483333333334    0.0542350000000000    0.0203850000000000 H
   0.5985600000000000    0.0508350000000000    0.4649650000000000 H
   0.5345016666666667    0.0935300000000000    0.4381350000000000 H
   0.5780149999999999    0.1610600000000000    0.4742350000000000 H
   0.5014033333333333    0.2410050000000000    0.4558450000000000 H
   0.6242233333333334    0.1720000000000000    0.4199250000000000 H
   0.5566916666666667    0.2779100000000000    0.4903900000000000 H
   0.5466366666666667    0.0541600000000000    0.3652000000000000 H
   0.6659066666666666    0.0541950000000000    0.3141800000000000 H
   0.5371816666666667    0.4458500000000000    0.2298900000000000 H
   0.5819150000000000    0.4494700000000000    0.2855450000000000 H
   0.8301499999999999    0.0935050000000000    0.1880350000000000 H
   0.8091699999999999    0.1610950000000000    0.2243450000000000 H
   0.7454266666666667    0.2409100000000000    0.2058450000000000 H
   0.7662000000000000    0.1718600000000000    0.1696150000000000 H
   0.7025549999999999    0.2778600000000000    0.2405450000000000 H
   0.8045500000000000    0.0538750000000000    0.1150600000000000 H
   0.6852883333333333    0.0540600000000000    0.0643150000000000 H
   0.7782783333333333    0.4457550000000000    0.4796050000000000 H
   0.7347650000000000    0.4491600000000000    0.0350200000000000 H
   0.7988249999999999    0.4064650000000000    0.0618500000000000 H
   0.7553133333333333    0.3389350000000000    0.0257550000000000 H
   0.8319250000000000    0.2589900000000000    0.0441450000000000 H
   0.7091050000000000    0.3279950000000000    0.0800650000000000 H
   0.7766383333333333    0.2220850000000000    0.0095950000000000 H
   0.7867000000000000    0.4458450000000000    0.1347800000000000 H
   0.6674283333333333    0.4458150000000000    0.1858050000000000 H
   0.7961316666666667    0.0541350000000000    0.2701050000000000 H
   0.7514016666666666    0.0505150000000000    0.2144450000000000 H
   0.6698433333333333    0.4064900000000000    0.3119550000000000 H
   0.6908216666666667    0.3389000000000000    0.2756450000000000 H
   0.7545683333333333    0.2590850000000000    0.2941500000000000 H
   0.7337933333333333    0.3281350000000000    0.3303750000000000 H
   0.7974383333333332    0.2221350000000000    0.2594500000000000 H
   0.6954416666666666    0.4461250000000000    0.3849300000000000 H
   0.8147050000000000    0.4459350000000000    0.4356700000000000 H
   0.7217150000000000    0.0542350000000000    0.0203850000000000 H
   0.7652266666666666    0.0508350000000000    0.4649650000000000 H
   0.7011683333333333    0.0935300000000000    0.4381350000000000 H
   0.7446816666666667    0.1610600000000000    0.4742350000000000 H
   0.6680699999999999    0.2410050000000000    0.4558450000000000 H
   0.7233583333333333    0.2779100000000000    0.4903900000000000 H
   0.7133033333333333    0.0541600000000000    0.3652000000000000 H
   0.8325733333333333    0.0541950000000000    0.3141800000000000 H
   0.7038483333333333    0.4458500000000000    0.2298900000000000 H
   0.7485816666666666    0.4494700000000000    0.2855450000000000 H
   0.9968166666666666    0.0935050000000000    0.1880350000000000 H
   0.9758366666666666    0.1610950000000000    0.2243450000000000 H
   0.9120933333333332    0.2409100000000000    0.2058450000000000 H
   0.9328666666666666    0.1718600000000000    0.1696150000000000 H
   0.8692216666666666    0.2778600000000000    0.2405450000000000 H
   0.9712166666666666    0.0538750000000000    0.1150600000000000 H
   0.8519549999999999    0.0540600000000000    0.0643150000000000 H
   0.9449449999999999    0.4457550000000000    0.4796050000000000 H
   0.9014316666666666    0.4491600000000000    0.0350200000000000 H
   0.9654916666666666    0.4064650000000000    0.0618500000000000 H
   0.9219799999999999    0.3389350000000000    0.0257550000000000 H
   0.9985916666666665    0.2589900000000000    0.0441450000000000 H
   0.8757716666666666    0.3279950000000000    0.0800650000000000 H
   0.9433049999999999    0.2220850000000000    0.0095950000000000 H
   0.9533666666666666    0.4458450000000000    0.1347800000000000 H
   0.8340949999999999    0.4458150000000000    0.1858050000000000 H
   0.9627983333333332    0.0541350000000000    0.2701050000000000 H
   0.9180683333333333    0.0505150000000000    0.2144450000000000 H
   0.8365100000000000    0.4064900000000000    0.3119550000000000 H
   0.8574883333333333    0.3389000000000000    0.2756450000000000 H
   0.9212349999999999    0.2590850000000000    0.2941500000000000 H
   0.9004599999999999    0.3281350000000000    0.3303750000000000 H
   0.9641050000000000    0.2221350000000000    0.2594500000000000 H
   0.8621083333333333    0.4461250000000000    0.3849300000000000 H
   0.9813716666666665    0.4459350000000000    0.4356700000000000 H
   0.8883816666666666    0.0542350000000000    0.0203850000000000 H
   0.9318933333333332    0.0508350000000000    0.4649650000000000 H
   0.9575566666666666    0.1720000000000000    0.4199250000000000 H
   0.8799699999999999    0.0541600000000000    0.3652000000000000 H
   0.9992399999999999    0.0541950000000000    0.3141800000000000 H
   0.8705149999999999    0.4458500000000000    0.2298900000000000 H
   0.9152483333333332    0.4494700000000000    0.2855450000000000 H
   0.1634833333333333    0.5935049999999999    0.1880350000000000 H
   0.1425033333333333    0.6610950000000000    0.2243450000000000 H
   0.0787600000000000    0.7409100000000000    0.2058450000000000 H
   0.0995333333333333    0.6718600000000000    0.1696150000000000 H
   0.0358883333333333    0.7778600000000000    0.2405450000000000 H
   0.1378833333333333    0.5538750000000000    0.1150600000000000 H
   0.0186216666666667    0.5540600000000000    0.0643150000000000 H
   0.1116116666666667    0.9457550000000000    0.4796050000000000 H
   0.0680983333333333    0.9491600000000000    0.0350200000000000 H
   0.1321583333333333    0.9064650000000001    0.0618500000000000 H
   0.0886466666666667    0.8389350000000000    0.0257550000000000 H
   0.1652583333333333    0.7589900000000001    0.0441450000000000 H
   0.0424383333333333    0.8279950000000000    0.0800650000000000 H
   0.1099716666666667    0.7220850000000000    0.0095950000000000 H
   0.1200333333333333    0.9458450000000000    0.1347800000000000 H
   0.0007616666666667    0.9458150000000001    0.1858050000000000 H
   0.1294650000000000    0.5541350000000000    0.2701050000000000 H
   0.0847350000000000    0.5505150000000000    0.2144450000000000 H
   0.0031766666666667    0.9064900000000000    0.3119550000000000 H
   0.0241550000000000    0.8389000000000000    0.2756450000000000 H
   0.0879016666666667    0.7590850000000000    0.2941500000000000 H
   0.0671266666666667    0.8281350000000001    0.3303750000000000 H
   0.1307716666666667    0.7221350000000000    0.2594500000000000 H
   0.0287750000000000    0.9461250000000000    0.3849300000000000 H
   0.1480383333333333    0.9459350000000000    0.4356700000000000 H
   0.0550483333333333    0.5542350000000000    0.0203850000000000 H
   0.0985600000000000    0.5508350000000000    0.4649650000000000 H
   0.0345016666666667    0.5935300000000000    0.4381350000000000 H
   0.0780150000000000    0.6610600000000000    0.4742350000000000 H
   0.0014033333333333    0.7410050000000000    0.4558450000000000 H
   0.1242233333333333    0.6719999999999999    0.4199250000000000 H
   0.0566916666666667    0.7779100000000000    0.4903900000000000 H
   0.0466366666666667    0.5541600000000000    0.3652000000000000 H
   0.1659066666666666    0.5541950000000000    0.3141800000000000 H
   0.0371816666666667    0.9458500000000001    0.2298900000000000 H
   0.0819150000000000    0.9494700000000000    0.2855450000000000 H
   0.3301499999999999    0.5935049999999999    0.1880350000000000 H
   0.3091699999999999    0.6610950000000000    0.2243450000000000 H
   0.2454266666666667    0.7409100000000000    0.2058450000000000 H
   0.2662000000000000    0.6718600000000000    0.1696150000000000 H
   0.2025550000000000    0.7778600000000000    0.2405450000000000 H
   0.3045500000000000    0.5538750000000000    0.1150600000000000 H
   0.1852883333333333    0.5540600000000000    0.0643150000000000 H
   0.2782783333333333    0.9457550000000000    0.4796050000000000 H
   0.2347650000000000    0.9491600000000000    0.0350200000000000 H
   0.2988250000000000    0.9064650000000001    0.0618500000000000 H
   0.2553133333333333    0.8389350000000000    0.0257550000000000 H
   0.3319250000000000    0.7589900000000001    0.0441450000000000 H
   0.2091050000000000    0.8279950000000000    0.0800650000000000 H
   0.2766383333333333    0.7220850000000000    0.0095950000000000 H
   0.2867000000000000    0.9458450000000000    0.1347800000000000 H
   0.1674283333333333    0.9458150000000001    0.1858050000000000 H
   0.2961316666666667    0.5541350000000000    0.2701050000000000 H
   0.2514016666666666    0.5505150000000000    0.2144450000000000 H
   0.1698433333333333    0.9064900000000000    0.3119550000000000 H
   0.1908216666666667    0.8389000000000000    0.2756450000000000 H
   0.2545683333333333    0.7590850000000000    0.2941500000000000 H
   0.2337933333333333    0.8281350000000001    0.3303750000000000 H
   0.2974383333333334    0.7221350000000000    0.2594500000000000 H
   0.1954416666666667    0.9461250000000000    0.3849300000000000 H
   0.3147050000000000    0.9459350000000000    0.4356700000000000 H
   0.2217150000000000    0.5542350000000000    0.0203850000000000 H
   0.2652266666666667    0.5508350000000000    0.4649650000000000 H
   0.2011683333333333    0.5935300000000000    0.4381350000000000 H
   0.2446816666666667    0.6610600000000000    0.4742350000000000 H
   0.1680700000000000    0.7410050000000000    0.4558450000000000 H
   0.2908900000000000    0.6719999999999999    0.4199250000000000 H
   0.2233583333333333    0.7779100000000000    0.4903900000000000 H
   0.2133033333333333    0.5541600000000000    0.3652000000000000 H
   0.3325733333333333    0.5541950000000000    0.3141800000000000 H
   0.2038483333333333    0.9458500000000001    0.2298900000000000 H
   0.2485816666666666    0.9494700000000000    0.2855450000000000 H
   0.4968166666666666    0.5935049999999999    0.1880350000000000 H
   0.4758366666666666    0.6610950000000000    0.2243450000000000 H
   0.4120933333333333    0.7409100000000000    0.2058450000000000 H
   0.4328666666666666    0.6718600000000000    0.1696150000000000 H
   0.3692216666666667    0.7778600000000000    0.2405450000000000 H
   0.4712166666666666    0.5538750000000000    0.1150600000000000 H
   0.3519550000000000    0.5540600000000000    0.0643150000000000 H
   0.4449450000000000    0.9457550000000000    0.4796050000000000 H
   0.4014316666666666    0.9491600000000000    0.0350200000000000 H
   0.4654916666666666    0.9064650000000001    0.0618500000000000 H
   0.4219800000000000    0.8389350000000000    0.0257550000000000 H
   0.4985916666666667    0.7589900000000001    0.0441450000000000 H
   0.3757716666666667    0.8279950000000000    0.0800650000000000 H
   0.4433049999999999    0.7220850000000000    0.0095950000000000 H
   0.4533666666666666    0.9458450000000000    0.1347800000000000 H
   0.3340950000000000    0.9458150000000001    0.1858050000000000 H
   0.4627983333333333    0.5541350000000000    0.2701050000000000 H
   0.4180683333333333    0.5505150000000000    0.2144450000000000 H
   0.3365100000000000    0.9064900000000000    0.3119550000000000 H
   0.3574883333333333    0.8389000000000000    0.2756450000000000 H
   0.4212350000000000    0.7590850000000000    0.2941500000000000 H
   0.4004600000000000    0.8281350000000001    0.3303750000000000 H
   0.4641050000000000    0.7221350000000000    0.2594500000000000 H
   0.3621083333333333    0.9461250000000000    0.3849300000000000 H
   0.4813716666666666    0.9459350000000000    0.4356700000000000 H
   0.3883816666666666    0.5542350000000000    0.0203850000000000 H
   0.4318933333333333    0.5508350000000000    0.4649650000000000 H
   0.3678350000000000    0.5935300000000000    0.4381350000000000 H
   0.4113483333333333    0.6610600000000000    0.4742350000000000 H
   0.3347366666666666    0.7410050000000000    0.4558450000000000 H
   0.4575566666666666    0.6719999999999999    0.4199250000000000 H
   0.3900250000000000    0.7779100000000000    0.4903900000000000 H
   0.3799700000000000    0.5541600000000000    0.3652000000000000 H
   0.4992400000000000    0.5541950000000000    0.3141800000000000 H
   0.3705150000000000    0.9458500000000001    0.2298900000000000 H
   0.4152483333333333    0.9494700000000000    0.2855450000000000 H
   0.6634833333333333    0.5935049999999999    0.1880350000000000 H
   0.6425033333333333    0.6610950000000000    0.2243450000000000 H
   0.5787599999999999    0.7409100000000000    0.2058450000000000 H
   0.5995333333333334    0.6718600000000000    0.1696150000000000 H
   0.5358883333333333    0.7778600000000000    0.2405450000000000 H
   0.6378833333333334    0.5538750000000000    0.1150600000000000 H
   0.5186216666666666    0.5540600000000000    0.0643150000000000 H
   0.6116116666666667    0.9457550000000000    0.4796050000000000 H
   0.5680983333333334    0.9491600000000000    0.0350200000000000 H
   0.6321583333333334    0.9064650000000001    0.0618500000000000 H
   0.5886466666666667    0.8389350000000000    0.0257550000000000 H
   0.6652583333333333    0.7589900000000001    0.0441450000000000 H
   0.5424383333333334    0.8279950000000000    0.0800650000000000 H
   0.6099716666666667    0.7220850000000000    0.0095950000000000 H
   0.6200333333333333    0.9458450000000000    0.1347800000000000 H
   0.5007616666666667    0.9458150000000001    0.1858050000000000 H
   0.6294649999999999    0.5541350000000000    0.2701050000000000 H
   0.5847350000000000    0.5505150000000000    0.2144450000000000 H
   0.5031766666666667    0.9064900000000000    0.3119550000000000 H
   0.5241550000000000    0.8389000000000000    0.2756450000000000 H
   0.5879016666666667    0.7590850000000000    0.2941500000000000 H
   0.5671266666666667    0.8281350000000001    0.3303750000000000 H
   0.6307716666666667    0.7221350000000000    0.2594500000000000 H
   0.5287750000000000    0.9461250000000000    0.3849300000000000 H
   0.6480383333333333    0.9459350000000000    0.4356700000000000 H
   0.5550483333333334    0.5542350000000000    0.0203850000000000 H
   0.5985600000000000    0.5508350000000000    0.4649650000000000 H
   0.5345016666666667    0.5935300000000000    0.4381350000000000 H
   0.5780149999999999    0.6610600000000000    0.4742350000000000 H
   0.5014033333333333    0.7410050000000000    0.4558450000000000 H
   0.6242233333333334    0.6719999999999999    0.4199250000000000 H
   0.5566916666666667    0.7779100000000000    0.4903900000000000 H
   0.5466366666666667    0.5541600000000000    0.3652000000000000 H
   0.6659066666666666    0.5541950000000000    0.3141800000000000 H
   0.5371816666666667    0.9458500000000001    0.2298900000000000 H
   0.5819150000000000    0.9494700000000000    0.2855450000000000 H
   0.8301499999999999    0.5935049999999999    0.1880350000000000 H
   0.8091699999999999    0.6610950000000000    0.2243450000000000 H
   0.7454266666666667    0.7409100000000000    0.2058450000000000 H
   0.7662000000000000    0.6718600000000000    0.1696150000000000 H
   0.7025549999999999    0.7778600000000000    0.2405450000000000 H
   0.8045500000000000    0.5538750000000000    0.1150600000000000 H
   0.6852883333333333    0.5540600000000000    0.0643150000000000 H
   0.7782783333333333    0.9457550000000000    0.4796050000000000 H
   0.7347650000000000    0.9491600000000000    0.0350200000000000 H
   0.7988249999999999    0.9064650000000001    0.0618500000000000 H
   0.7553133333333333    0.8389350000000000    0.0257550000000000 H
   0.8319250000000000    0.7589900000000001    0.0441450000000000 H
   0.7091050000000000    0.8279950000000000    0.0800650000000000 H
   0.7766383333333333    0.7220850000000000    0.0095950000000000 H
   0.7867000000000000    0.9458450000000000    0.1347800000000000 H
   0.6674283333333333    0.9458150000000001    0.1858050000000000 H
   0.7961316666666667    0.5541350000000000    0.2701050000000000 H
   0.7514016666666666    0.5505150000000000    0.2144450000000000 H
   0.6698433333333333    0.9064900000000000    0.3119550000000000 H
   0.6908216666666667    0.8389000000000000    0.2756450000000000 H
   0.7545683333333333    0.7590850000000000    0.2941500000000000 H
   0.7337933333333333    0.8281350000000001    0.3303750000000000 H
   0.7974383333333332    0.7221350000000000    0.2594500000000000 H
   0.6954416666666666    0.9461250000000000    0.3849300000000000 H
   0.8147050000000000    0.9459350000000000    0.4356700000000000 H
   0.7217150000000000    0.5542350000000000    0.0203850000000000 H
   0.7652266666666666    0.5508350000000000    0.4649650000000000 H
   0.7011683333333333    0.5935300000000000    0.4381350000000000 H
   0.7446816666666667    0.6610600000000000    0.4742350000000000 H
   0.6680699999999999    0.7410050000000000    0.4558450000000000 H
   0.7908900000000000    0.6719999999999999    0.4199250000000000 H
   0.7233583333333333    0.7779100000000000    0.4903900000000000 H
   0.7133033333333333    0.5541600000000000    0.3652000000000000 H