Cu8 H62 C60 N12 Cl8 O4
1.0
  12.4649989956786662    0.0000000000000000    0.0050037715646171
  -0.0019506356270032   15.9679998711278444   -0.0005573883498013
   0.0000000000000000    0.0000000000000000   15.9719999999999995
Cu H C N Cl O
8 62 60 12 8 4
direct
   0.1244300000000000    0.4784000000000000    0.9974800000000000 Cu
   0.3756200000000000    0.0024600000000000    0.5216400000000000 Cu
   0.6256000000000000    0.9784100000000000    0.5024800000000000 Cu
   0.3744000000000000    0.5024800000000000    0.9783600000000000 Cu
   0.1255700000000000    0.0216600000000000    0.4974000000000000 Cu
   0.8744800000000000    0.4974800000000000    0.0216400000000000 Cu
   0.8755900000000000    0.9975100000000000    0.4783000000000000 Cu
   0.6244400000000000    0.5216800000000000    0.0024800000000000 Cu
   0.2398685329332677    0.4295915919444686    0.9079724381217950 H
   0.2575003048362762    0.4346006968015110    0.9054381738158195 H
   0.3450352120876513    0.3868275196041530    0.8594984943040596 H
   0.1537084941814074    0.3820884538940553    0.8634477702104328 H
   0.2601340774115545    0.0918494892049294    0.5705322961185076 H
   0.2425466300261753    0.0946040569521291    0.5652348180841463 H
   0.1549815386272164    0.1404661574947163    0.6131689353710971 H
   0.3462957164229310    0.1365244393153719    0.6179019846841112 H
   0.1308700000000000    0.7204300000000000    0.8387600000000000 H
   0.2333600000000000    0.7751500000000000    0.8923800000000000 H
   0.8691600000000000    0.8387700000000000    0.7203600000000000 H
   0.7666500000000001    0.8924299999999999    0.7750700000000000 H
   0.8666300000000000    0.7301000000000000    0.8472100000000000 H
   0.7599700000000000    0.7881400000000000    0.8920400000000001 H
   0.1334000000000000    0.8472900000000000    0.7301100000000000 H
   0.2400500000000000    0.8921200000000000    0.7881000000000000 H
   0.2387300000000000    0.7173800000000000    0.7096900000000000 H
   0.7613300000000000    0.7096700000000000    0.7173500000000000 H
   0.2465700000000000    0.9451100000000000    0.6420500000000000 H
   0.2390900000000000    0.8447400000000000    0.6009000000000000 H
   0.7596100000000000    0.9295300000000000    0.6241500000000000 H
   0.7548700000000000    0.8233300000000000    0.5955700000000000 H
   0.7534800000000000    0.6420300000000000    0.9450200000000000 H
   0.7609500000000000    0.6009300000000000    0.8446800000000000 H
   0.2404100000000000    0.6241900000000000    0.9295000000000000 H
   0.2452000000000000    0.5955900000000000    0.8233300000000000 H
   0.3666600000000000    0.2699700000000000    0.1526600000000000 H
   0.2600000000000000    0.2119000000000000    0.1078000000000000 H
   0.3691300000000000    0.1613000000000000    0.2795000000000000 H
   0.2666300000000000    0.1076400000000000    0.2248300000000000 H
   0.6309300000000000    0.2795400000000000    0.1613400000000000 H
   0.7334300000000000    0.2248400000000000    0.1076700000000000 H
   0.6334100000000000    0.1526700000000000    0.2699900000000000 H
   0.7400800000000000    0.1078600000000000    0.2119400000000000 H
   0.7387100000000000    0.2826100000000000    0.2903800000000000 H
   0.2613100000000000    0.2903800000000000    0.2825700000000000 H
   0.2535700000000000    0.3580300000000000    0.0549000000000000 H
   0.2609800000000000    0.3991200000000000    0.1552400000000000 H
   0.7465000000000001    0.0548900000000000    0.3580300000000000 H
   0.7390300000000000    0.1552600000000000    0.3991000000000000 H
   0.2595100000000000    0.0705000000000000    0.3757400000000000 H
   0.2547900000000000    0.1766900000000000    0.4043500000000000 H
   0.7405400000000000    0.3757900000000000    0.0705500000000000 H
   0.7452400000000000    0.4044000000000000    0.1767200000000000 H
   0.3809000000000000    0.6613200000000000    0.2204300000000000 H
   0.4833600000000000    0.6076500000000000    0.2751000000000000 H
   0.1191000000000000    0.7795600000000000    0.3386800000000000 H
   0.0165800000000000    0.7248599999999999    0.3923300000000000 H
   0.3833700000000000    0.7699800000000000    0.3472900000000000 H
   0.4900100000000000    0.7119300000000000    0.3920800000000000 H
   0.1166100000000000    0.6526800000000000    0.2300300000000000 H
   0.0099100000000000    0.6078800000000000    0.2880800000000000 H
   0.4887500000000000    0.7904099999999999    0.2173900000000000 H
   0.0113400000000000    0.7826100000000000    0.2096400000000000 H
   0.4964700000000000    0.8580500000000000    0.4450600000000000 H
   0.4890700000000000    0.8991400000000001    0.3447200000000000 H
   0.0095000000000000    0.8758100000000000    0.4294600000000000 H
   0.0048100000000000    0.9044200000000000    0.3232900000000000 H
   0.0035000000000000    0.5548800000000000    0.1420000000000000 H
   0.0110000000000000    0.6552400000000000    0.1009200000000000 H
   0.4905000000000000    0.5705500000000000    0.1241800000000000 H
   0.4952500000000000    0.6767500000000000    0.0956000000000000 H
   0.2182800000000000    0.7284200000000000    0.8428900000000000 C
   0.7817499999999999    0.8429100000000000    0.7283600000000000 C
   0.7788600000000000    0.7366300000000000    0.8484000000000000 C
   0.2211700000000000    0.8484800000000000    0.7366000000000000 C
   0.2632700000000000    0.7613500000000000    0.7599000000000000 C
   0.7367700000000000    0.7599399999999999    0.7613000000000000 C
   0.2705500000000000    0.8801900000000000    0.6549500000000000 C
   0.7307000000000000    0.8679500000000000    0.6449700000000000 C
   0.7294900000000000    0.6549400000000000    0.8801300000000000 C
   0.2693500000000000    0.6450000000000000    0.8679300000000000 C
   0.3905300000000000    0.8739100000000000    0.6544000000000000 C
   0.6106400000000000    0.8688200000000000    0.6501900000000000 C
   0.5571300000000000    0.7092800000000000    0.8163000000000000 C
   0.6156700000000001    0.7616300000000000    0.7619800000000000 C
   0.5576900000000000    0.8151700000000000    0.7084000000000000 C
   0.3894000000000000    0.6502300000000000    0.8688100000000000 C
   0.6095200000000000    0.6544700000000000    0.8738600000000000 C
   0.4423500000000000    0.7085200000000000    0.8151000000000000 C
   0.3843700000000000    0.7620100000000000    0.7616200000000000 C
   0.4429100000000000    0.8163500000000000    0.7092800000000000 C
   0.2788800000000000    0.2634300000000000    0.1515000000000000 C
   0.2817200000000000    0.1571500000000000    0.2715000000000000 C
   0.7183400000000000    0.2715600000000000    0.1571800000000000 C
   0.7211800000000000    0.1515000000000000    0.2634000000000000 C
   0.7632800000000000    0.2386400000000000    0.2401300000000000 C
   0.2367600000000000    0.2401100000000000    0.2386200000000000 C
   0.2295300000000000    0.3451100000000000    0.1190000000000000 C
   0.7705100000000000    0.1198000000000000    0.3451100000000000 C
   0.2306300000000000    0.1320900000000000    0.3549400000000000 C
   0.7694200000000000    0.3549800000000000    0.1321200000000000 C
   0.8894700000000000    0.3497700000000000    0.1312200000000000 C
   0.1095500000000000    0.3455700000000000    0.1260900000000000 C
   0.9424000000000000    0.2915100000000000    0.1848800000000000 C
   0.8843900000000000    0.2379800000000000    0.2384000000000000 C
   0.9429000000000000    0.1837000000000000    0.2907800000000000 C
   0.1105700000000000    0.1312300000000000    0.3497800000000000 C
   0.8904900000000000    0.1260800000000000    0.3455500000000000 C
   0.0571500000000000    0.2907300000000000    0.1836500000000000 C
   0.1156600000000000    0.2384300000000000    0.2380000000000000 C
   0.0576500000000000    0.1848300000000000    0.2914600000000000 C
   0.4683000000000000    0.6571700000000000    0.2284000000000000 C
   0.0316900000000000    0.7715800000000000    0.3428400000000000 C
   0.4711400000000000    0.7634400000000000    0.3484500000000000 C
   0.0288400000000000    0.6515100000000000    0.2365000000000000 C
   0.5132700000000000    0.7401400000000000    0.2613300000000000 C
   0.9867800000000000    0.7386500000000000    0.2598900000000000 C
   0.5205000000000000    0.8451300000000000    0.3801700000000000 C
   0.9806600000000000    0.8550000000000000    0.3678900000000000 C
   0.9795300000000000    0.6197900000000000    0.1549200000000000 C
   0.5194000000000000    0.6321400000000000    0.1449900000000000 C
   0.6394500000000000    0.6312100000000000    0.1502200000000000 C
   0.8595600000000000    0.6261300000000000    0.1544000000000000 C
   0.6928900000000000    0.7907700000000000    0.3163000000000000 C
   0.6343700000000000    0.7384100000000000    0.2620100000000000 C
   0.6923800000000000    0.6849100000000000    0.2084500000000000 C
   0.8606000000000000    0.8497900000000000    0.3687900000000000 C
   0.6404800000000000    0.8456000000000000    0.3738000000000000 C
   0.8071600000000000    0.6836400000000000    0.2092900000000000 C
   0.8656800000000000    0.7380200000000000    0.2615700000000000 C
   0.8076700000000000    0.7915000000000000    0.3151400000000000 C
   0.4450700000000000    0.9225600000000000    0.6017300000000000 N
   0.5566300000000000    0.9189200000000000    0.5980000000000000 N
   0.4434200000000000    0.5985700000000000    0.9188400000000000 N
   0.5549700000000000    0.6018200000000000    0.9225900000000000 N
   0.9435000000000000    0.4013900000000000    0.0811100000000000 N
   0.0550300000000000    0.3982800000000000    0.0774400000000000 N
   0.0565300000000000    0.0811700000000000    0.4014200000000000 N
   0.9450200000000000    0.0774100000000000    0.3982300000000000 N
   0.6934800000000000    0.5811500000000001    0.0985600000000000 N
   0.8050300000000000    0.5774300000000000    0.1017300000000000 N
   0.8065600000000001    0.9014600000000000    0.4188300000000000 N
   0.6950100000000000    0.8982500000000000    0.4225800000000000 N
   0.2507000000000000    0.9237100000000000    0.4420100000000000 Cl
   0.4992900000000000    0.4237100000000000    0.0579800000000000 Cl
   0.5007400000000000    0.0580400000000000    0.4236800000000000 Cl
   0.7493700000000000    0.4419900000000000    0.9237100000000000 Cl
   0.2492900000000000    0.5580500000000000    0.0763200000000000 Cl
   0.0006400000000000    0.9420100000000000    0.5762800000000000 Cl
   0.7507000000000000    0.0763500000000000    0.5580200000000000 Cl
   0.9993900000000000    0.5763600000000000    0.9419000000000000 Cl
   0.1934200000000000    0.4188600000000000    0.9014100000000000 O
   0.3049700000000000    0.4226100000000000    0.8981900000000000 O
   0.3066000000000000    0.0986000000000000    0.5810800000000000 O
   0.1950400000000000    0.1017300000000000    0.5774300000000000 O
