H8 O4
1.0
  12.4649989956786662    0.0000000000000000    0.0050037715646171
  -0.0019506356270032   15.9679998711278444   -0.0005573883498013
   0.0000000000000000    0.0000000000000000   15.9719999999999995
H O
8 4
direct
   0.2601340774115545    0.0918494892049294    0.5705322961185076 H
   0.2425466300261753    0.0946040569521291    0.5652348180841463 H
   0.1549815386272164    0.1404661574947163    0.6131689353710971 H
   0.3462957164229310    0.1365244393153719    0.6179019846841112 H
   0.2398685329332677    0.4295915919444686    0.9079724381217950 H
   0.2575003048362762    0.4346006968015110    0.9054381738158195 H
   0.3450352120876513    0.3868275196041530    0.8594984943040596 H
   0.1537084941814074    0.3820884538940553    0.8634477702104328 H
   0.3066000000000000    0.0986000000000000    0.5810800000000000 O
   0.1950400000000000    0.1017300000000000    0.5774300000000000 O
   0.1934200000000000    0.4188600000000000    0.9014100000000000 O
   0.3049700000000000    0.4226100000000000    0.8981900000000000 O
