H18 C20 N4
1.0
  12.4649989956786662    0.0000000000000000    0.0050037715646171
  -0.0019506356270032   15.9679998711278444   -0.0005573883498013
   0.0000000000000000    0.0000000000000000   15.9719999999999995
H C N
18 20 4
direct
   0.9951600000000000    0.3233700000000000    0.9043600000000001 H
   0.9904800000000000    0.4295600000000000    0.8757600000000000 H
   0.5112700000000000    0.2173700000000000    0.7903300000000000 H
   0.5034999999999999    0.4450900000000000    0.8579000000000000 H
   0.5109300000000000    0.3447200000000000    0.8990500000000000 H
   0.8809100000000000    0.3387700000000000    0.7795500000000000 H
   0.9834400000000000    0.3924200000000000    0.7248500000000000 H
   0.6166300000000000    0.3472800000000000    0.7699000000000000 H
   0.5100000000000000    0.3921100000000000    0.7118900000000000 H
   0.5047900000000000    0.0955700000000000    0.6766900000000000 H
   0.5096000000000001    0.1241500000000000    0.5705200000000000 H
   0.9886900000000000    0.2096800000000000    0.7825900000000000 H
   0.9965700000000000    0.1420100000000000    0.5549200000000000 H
   0.9890800000000000    0.1009200000000000    0.6552600000000000 H
   0.6191500000000000    0.2204000000000000    0.6612600000000000 H
   0.5166900000000000    0.2751100000000000    0.6076200000000000 H
   0.8834300000000000    0.2300700000000000    0.6527300000000000 H
   0.9901100000000000    0.2881300000000000    0.6079100000000000 H
   0.3595100000000000    0.3739000000000000    0.8455200000000000 C
   0.3071200000000000    0.3163100000000000    0.7907000000000000 C
   0.3656500000000000    0.2620000000000000    0.7383700000000000 C
   0.1923400000000000    0.3151900000000000    0.7914500000000000 C
   0.1393900000000000    0.3688300000000000    0.8497600000000000 C
   0.0193300000000000    0.3679600000000000    0.8549600000000001 C
   0.4867500000000000    0.2613300000000000    0.7400800000000000 C
   0.4794900000000000    0.3801800000000000    0.8450600000000000 C
   0.9683200000000000    0.3429100000000000    0.7715600000000000 C
   0.5288600000000000    0.3484600000000000    0.7633799999999999 C
   0.1405100000000000    0.1544600000000000    0.6260800000000000 C
   0.1928800000000000    0.2092900000000000    0.6836400000000000 C
   0.1343500000000000    0.2616100000000000    0.7379900000000000 C
   0.3076600000000000    0.2084900000000000    0.6848500000000000 C
   0.3606100000000000    0.1502000000000000    0.6311800000000000 C
   0.4806600000000000    0.1449700000000000    0.6320800000000000 C
   0.0132500000000000    0.2599400000000000    0.7386400000000000 C
   0.0205300000000000    0.1549300000000000    0.6198100000000000 C
   0.5317499999999999    0.2283900000000000    0.6571200000000000 C
   0.9712000000000000    0.2366100000000000    0.6515300000000001 C
   0.3049700000000000    0.4226100000000000    0.8981900000000000 N
   0.1934200000000000    0.4188600000000000    0.9014100000000000 N
   0.1950400000000000    0.1017300000000000    0.5774300000000000 N
   0.3066000000000000    0.0986000000000000    0.5810800000000000 N
