H3 O2
1.0
  12.4889997698358002    0.0000000000000000   -0.0023977158583664
   0.0236748037069338   13.5796210252461425   -7.8433702140318697
   0.0000000000000000    0.0000000000000000   31.3739999999999988
H O
3 2
direct
   0.0976164719493341    0.4461572453893269    0.0390220159836267 H
   0.1968506875678959    0.4995079810789751    0.0804313113155470 H
  -0.0101776747788085    0.4657894082757494    0.1671358720825593 H
   0.1689500000000000    0.4758000000000000    0.0472300000000000 O
   0.0279100000000000    0.4807900000000000    0.1973550000000000 O
