H2 O1
1.0
  13.2479593133881828    0.0000000000000000    0.0328333795290653
   0.0007489421617914   14.5439990946454980    0.0050768136251026
   0.0000000000000000    0.0000000000000000   36.2479999999999976
H O
2 1
direct
   0.7323914574014072    0.5153540004271209    0.7599690881168883 H
   0.6504805464550411    0.4374033535686337    0.7663736200407383 H
   0.6995900000000000    0.4770900000000000    0.7786950000000000 O
