H4 C4 O6
1.0
  28.6034999999999968    0.0000000000000000    0.0000000000000018
  -0.0073482021313318   11.0794975632438053    0.0000000000000007
   0.0000000000000000    0.0000000000000000   34.1180000000000021
H C O
4 4 6
direct
   0.2550633333333333    0.3368600000000000    0.3065450000000000 H
   0.2736433333333333    0.1367700000000000    0.2870800000000000 H
   0.2028666666666667    0.2844300000000000    0.3553500000000000 H
   0.2122866666666667    0.0414100000000000    0.2658150000000000 H
   0.2066433333333333    0.3020000000000000    0.2597500000000000 C
   0.2250533333333333    0.2760600000000000    0.3015150000000000 C
   0.2421666666666667    0.1461600000000000    0.3056300000000000 C
   0.2576066666666667    0.1106500000000000    0.3470100000000000 C
   0.1664600000000000    0.3486700000000000    0.2567400000000000 O
   0.2335000000000000    0.2753400000000000    0.2315200000000000 O
   0.1888300000000000    0.3024500000000000    0.3296750000000000 O
   0.2071033333333333    0.0593600000000000    0.2946850000000000 O
   0.2572833333333333    0.1860000000000000    0.3750100000000000 O
   0.2688199999999999    0.9999800000000000    0.3500200000000000 O
