H10 O6
1.0
  28.6034999999999968    0.0000000000000000    0.0000000000000018
  -0.0073482021313318   11.0794975632438053    0.0000000000000007
   0.0000000000000000    0.0000000000000000   34.1180000000000021
H O
10 6
direct
   0.2547759300199796    0.3315864772938656    0.2189921071274817 H
   0.1579836027830594    0.4333576420763275    0.2556381454205719 H
   0.2136687260718447    0.4734741583413185    0.2289421146750932 H
   0.2844180458095699    1.0065348424706169    0.3248643489373269 H
   0.1854568859142024    0.1195928185287689    0.2908004972955767 H
   0.2309578139862653    0.1184122555568352    0.3021311628694650 H
   0.2133931676149400    0.2845548497278476    0.3105796066061458 H
   0.2051642816764818    0.2956631376691183    0.3609055843240823 H
   0.2611076815856241    0.2723899718407471    0.3716781923191076 H
   0.2774295966678509    1.1944661619885939    0.3425192395004435 H
   0.2335000000000000    0.2753400000000000    0.2315200000000000 O
   0.1664600000000000    0.3486700000000000    0.2567400000000000 O
   0.2688199999999999    0.9999800000000000    0.3500200000000000 O
   0.2071033333333333    0.0593600000000000    0.2946850000000000 O
   0.1888300000000000    0.3024500000000000    0.3296750000000000 O
   0.2572833333333333    0.1860000000000000    0.3750100000000000 O
