H4 O2
1.0
  38.1350477196735085    0.0000000000000000   -9.0491862296133956
  -8.1874097688597942   26.5810003351872766   -6.2639318688466830
   0.0000000000000000    0.0000000000000000   28.5219999999999985
H O
4 2
direct
   0.2120496620177922    0.0400392310165727    0.2857687461077932 H
   0.1999027024448144    0.0429081957715814    0.3387195736318638 H
   0.0500981325733686    0.9567900273408735    0.1612559618873023 H
   0.0379335914091570    0.9601704930719086    0.2142346509700390 H
   0.2193250000000000    0.0484450000000000    0.3225150000000000 O
   0.0306650000000000    0.9515250000000000    0.1774750000000000 O
