H8 C10 N2
1.0
  38.1350477196735085    0.0000000000000000   -9.0491862296133956
  -8.1874097688597942   26.5810003351872766   -6.2639318688466830
   0.0000000000000000    0.0000000000000000   28.5219999999999985
H C N
8 10 2
direct
   0.2314700000000000    0.0434250000000000    0.2548400000000000 H
   0.1673250000000000    0.0089150000000000    0.2019400000000000 H
   0.1357500000000000    0.0176750000000000    0.3390700000000000 H
   0.2016550000000000    0.0502100000000000    0.3857900000000000 H
   0.0185000000000000    0.9571600000000000    0.2451950000000000 H
   0.0826350000000000    0.9917600000000000    0.2980850000000000 H
   0.1142650000000000    0.9814600000000000    0.1608750000000000 H
   0.0483550000000000    0.9491200000000000    0.1141650000000000 H
   0.2092850000000000    0.0368450000000000    0.2718050000000000 C
   0.1728650000000000    0.0177800000000000    0.2425000000000000 C
   0.1446200000000000    0.0100150000000000    0.2651600000000000 C
   0.1555300000000000    0.0221600000000000    0.3180000000000000 C
   0.1925250000000000    0.0408050000000000    0.3448750000000000 C
   0.0406950000000000    0.9634550000000000    0.2282000000000000 C
   0.0771100000000000    0.9825300000000000    0.2575150000000000 C
   0.1053700000000000    0.9898950000000000    0.2348300000000000 C
   0.0944750000000000    0.9773750000000000    0.1819700000000000 C
   0.0574800000000000    0.9587900000000000    0.1550950000000000 C
   0.2193250000000000    0.0484450000000000    0.3225150000000000 N
   0.0306650000000000    0.9515250000000000    0.1774750000000000 N
