H4 O2
1.0
  13.9564884589740146    0.0000000000000000    1.1525822723455115
   1.1528763588969551   15.3260782754765081    0.4840762285668833
   0.0000000000000000    0.0000000000000000   30.6960000000000015
H O
4 2
direct
   0.5005077062631466    0.9040694580856008    0.3007529208400223 H
   0.5091018646767271    0.7984281265890290    0.3169556207456065 H
   0.0793760905734618    0.7864223396055020    0.3000830802167239 H
   0.0653666537686407    0.8951175301233903    0.3062908278950691 H
   0.5404200000000000    0.8520500000000000    0.3089900000000000 O
   0.0369800000000000    0.8400200000000000    0.3022900000000000 O
