H4 C10 N3 O4
1.0
  12.5715815756615843    0.0000000000000000    0.2931922346962398
   2.6013181250701307   38.5022217977186969    0.9215539330159020
   0.0000000000000000    0.0000000000000000   14.5139999999999993
H C N O
4 10 3 4
direct
   0.5935300000000000    0.8530399999999999    0.6417400000000000 H
   0.7409200000000000    0.8071533333333333    0.6407500000000000 H
   0.4352800000000000    0.8036933333333333    0.8574200000000000 H
   0.5705400000000000    0.7540466666666666    0.8591900000000000 H
   0.9101900000000001    0.7220166666666666    0.7547300000000000 C
   0.0269700000000000    0.7180266666666666    0.7661200000000000 C
   0.5928400000000000    0.8313033333333333    0.6908600000000000 C
   0.6751100000000000    0.8054466666666666    0.6903100000000000 C
   0.8349800000000001    0.6974866666666666    0.7463600000000000 C
   0.8464699999999999    0.6666666666666666    0.7341500000000000 C
   0.5023300000000001    0.8030766666666667    0.8085599999999999 C
   0.5785500000000000    0.7753099999999999    0.8094600000000000 C
   0.7523200000000000    0.7486166666666666    0.7503800000000000 C
   0.6677800000000000    0.7765666666666666    0.7500100000000000 C
   0.8573400000000000    0.7541399999999999    0.7558700000000000 N
   0.7355800000000000    0.7145066666666666    0.7449600000000000 N
   0.5081700000000000    0.8305966666666666    0.7497800000000000 N
   0.7641600000000000    0.6439800000000000    0.7187400000000000 O
   0.9409300000000000    0.6442066666666666    0.7380200000000000 O
   0.0741100000000000    0.7456633333333333    0.7812900000000000 O
   0.0733100000000000    0.6877400000000000    0.7615900000000000 O
