H6 O4
1.0
  12.5715815756615843    0.0000000000000000    0.2931922346962398
   2.6013181250701307   38.5022217977186969    0.9215539330159020
   0.0000000000000000    0.0000000000000000   14.5139999999999993
H O
6 4
direct
   0.5694839007264401    0.8311084003367586    0.7071129983370515 H
   0.5039410121170284    0.8106682854099235    0.7923450526988139 H
   0.8206702842940113    0.6595556285143580    0.7293198017369786 H
   0.0381017465465221    0.7245528518326414    0.7697022782161803 H
   0.7815746741173099    0.7501552623313775    0.7519093102352318 H
   0.8951789380689360    0.7311407034897297    0.7550537958486550 H
   0.5081700000000000    0.8305966666666666    0.7497800000000000 O
   0.7641600000000000    0.6439800000000000    0.7187400000000000 O
   0.0741100000000000    0.7456633333333333    0.7812900000000000 O
   0.8573400000000000    0.7541399999999999    0.7558700000000000 O
