H6 O4
1.0
  12.5715815756615843    0.0000000000000000    0.2931922346962398
   2.6013181250701307   38.5022217977186969    0.9215539330159020
   0.0000000000000000    0.0000000000000000   14.5139999999999993
H O
6 4
direct
   0.4288129018670098    0.6167381758194669    0.4305191139307131 H
   0.3758772202537868    0.6559588035609510    0.4613784652075916 H
   0.4527797743741628    0.5629945976963693    0.9080114065237858 H
   0.5812844144705797    0.6525059452522323    0.8945704193714192 H
   0.5180936143324708    0.6303643692300563    0.8060055058434997 H
   0.4781034494772924    0.6225235717199460    0.7082682490606182 H
   0.3974400000000000    0.6397299999999999    0.4125400000000000 O
   0.4162700000000000    0.5421633333333333    0.8945200000000000 O
   0.6109100000000000    0.6743566666666666    0.8749500000000000 O
   0.5120800000000000    0.6399566666666666    0.7431800000000000 O
