H4 O2
1.0
  22.1115988415564750    0.0000000000000000   -0.2489290462730398
   3.7996732782992626   21.7761123101934189    0.7545459774070029
   0.0000000000000000    0.0000000000000000   14.0679999999999996
H O
4 2
direct
   0.9065344957081110    0.6614682451454899    0.4247096101248727 H
   0.8292169570597403    0.6742396866766647    0.4206540476271213 H
   0.8424103154702831    0.6979293496118506    0.9878864964937757 H
   0.9017771636382450    0.6365753504451106    0.9888434724298331 H
   0.8674900000000000    0.6683900000000000    0.4580500000000000 O
   0.8716600000000000    0.6677300000000000    0.9550500000000000 O
