H6 O4
1.0
  22.1115988415564750    0.0000000000000000   -0.2489290462730398
   3.7996732782992626   21.7761123101934189    0.7545459774070029
   0.0000000000000000    0.0000000000000000   14.0679999999999996
H O
6 4
direct
   0.7561286696022587    0.6718052284492293    0.8449843267021833 H
   0.7531946897333581    0.6797576760699670    0.5606148993312934 H
   0.7482799222802956    0.6761603591757319    0.7020373834390542 H
   0.4845498212628928    0.6576591959455912    0.8443431358469896 H
   0.4796519929742748    0.6713821089650488    0.5605768510852008 H
   0.4886109328111575    0.6642691056067481    0.7017766394475061 H
   0.7757800000000000    0.6723800000000000    0.7837400000000000 O
   0.7739100000000000    0.6769100000000000    0.6221600000000000 O
   0.4630200000000000    0.6615000000000000    0.7834000000000000 O
   0.4604100000000000    0.6693000000000000    0.6219500000000000 O
