Zn16 H120 C198 N14 O64
1.0
  22.1115988415564750    0.0000000000000000   -0.2489290462730398
   3.7996732782992626   21.7761123101934189    0.7545459774070029
   0.0000000000000000    0.0000000000000000   14.0679999999999996
Zn H C N O
16 120 198 14 64
direct
   0.3700400000000000    0.6667400000000000    0.8075000000000000 Zn
   0.8692900000000000    0.1668900000000000    0.8076000000000000 Zn
   0.8699900000000000    0.6666666666666666    0.8079499999999999 Zn
   0.3657100000000000    0.1722200000000000    0.6044000000000000 Zn
   0.3671700000000000    0.6718900000000000    0.6040700000000000 Zn
   0.8666900000000000    0.1718800000000000    0.6040600000000000 Zn
   0.8671600000000000    0.6719300000000000    0.6043900000000000 Zn
   0.1300100000000000    0.3333333333333333    0.1920200000000000 Zn
   0.1306900000000000    0.8331000000000000    0.1924100000000000 Zn
   0.6299800000000000    0.3331400000000000    0.1924100000000000 Zn
   0.6304900000000000    0.8331600000000000    0.1920600000000000 Zn
   0.1328400000000000    0.3280600000000000    0.3955800000000000 Zn
   0.1332900000000000    0.8281100000000000    0.3959300000000000 Zn
   0.6328500000000000    0.3280400000000000    0.3959200000000000 Zn
   0.6342100000000001    0.8277300000000000    0.3955800000000000 Zn
   0.3695000000000000    0.1667900000000000    0.8079200000000000 Zn
   0.3611300000000000    0.3705600000000000    0.5565000000000000 H
   0.3637700000000000    0.8698900000000001    0.5561800000000000 H
   0.8642700000000000    0.3698100000000000    0.5565099999999999 H
   0.8618500000000000    0.8701800000000000    0.5568000000000000 H
   0.3707700000000000    0.4815000000000000    0.5603500000000000 H
   0.3721800000000000    0.9811400000000000    0.5600900000000000 H
   0.8731000000000000    0.4809600000000000    0.5605100000000000 H
   0.8701900000000000    0.9814400000000000    0.5606400000000000 H
   0.3802600000000000    0.4688500000000000    0.8652300000000001 H
   0.3778800000000000    0.9693900000000000    0.8651000000000000 H
   0.8781700000000000    0.4692700000000000    0.8655000000000000 H
   0.8796300000000000    0.9688800000000000    0.8655300000000000 H
   0.3718900000000000    0.3569800000000000    0.8615100000000000 H
   0.3706000000000000    0.8572700000000000    0.8613600000000000 H
   0.8699400000000000    0.3573600000000000    0.8616900000000000 H
   0.8720500000000000    0.8568000000000000    0.8618200000000000 H
   0.1684900000000000    0.1921400000000000    0.5531100000000000 H
   0.1687900000000000    0.6926300000000000    0.5528400000000000 H
   0.6678600000000000    0.1935900000000000    0.5522800000000000 H
   0.6691400000000000    0.6924000000000000    0.5525300000000000 H
   0.0565000000000000    0.1887700000000000    0.5525600000000001 H
   0.0567200000000000    0.6897100000000000    0.5535300000000000 H
   0.5558300000000000    0.1908200000000000    0.5526900000000000 H
   0.5570900000000000    0.6893600000000000    0.5525900000000000 H
   0.0658100000000000    0.1459400000000000    0.8529000000000000 H
   0.0676900000000000    0.6443400000000000    0.8530900000000000 H
   0.5666900000000000    0.1443400000000000    0.8519099999999999 H
   0.5673700000000000    0.6443300000000000    0.8522000000000000 H
   0.1791000000000000    0.1480100000000000    0.8532700000000000 H
   0.1809700000000000    0.6463300000000000    0.8523100000000000 H
   0.6799300000000000    0.1463100000000000    0.8514500000000000 H
   0.6806700000000000    0.6463300000000000    0.8520900000000000 H
   0.4608100000000000    0.1534100000000000    0.4569600000000000 H
   0.4623600000000000    0.6522300000000000    0.4565300000000000 H
   0.9611700000000000    0.1526000000000000    0.4558000000000000 H
   0.4673500000000000    0.1510900000000000    0.2799800000000000 H
   0.4689500000000000    0.6501200000000000    0.2795500000000000 H
   0.9672300000000000    0.1504400000000000    0.2787000000000000 H
   0.2685400000000000    0.1839700000000000    0.2692100000000000 H
   0.2701200000000000    0.6836500000000000    0.2685900000000000 H
   0.7684200000000000    0.1836900000000000    0.2692100000000000 H
   0.2705600000000000    0.1846200000000000    0.4462500000000000 H
   0.2721300000000000    0.6841400000000000    0.4457100000000000 H
   0.7709200000000000    0.1843400000000000    0.4463100000000000 H
   0.4440600000000000    0.0902100000000000    0.1451900000000000 H
   0.4456500000000000    0.5900100000000000    0.1440400000000000 H
   0.9435800000000000    0.0896900000000000    0.1443800000000000 H
   0.4414400000000000    0.0934000000000000    0.9670299999999999 H
   0.4425300000000000    0.5934400000000000    0.9658500000000000 H
   0.9408800000000000    0.0931000000000000    0.9661900000000000 H
   0.3011200000000000    0.2434100000000000    0.9555100000000000 H
   0.3022700000000000    0.7434900000000000    0.9555500000000000 H
   0.8010500000000000    0.2435400000000000    0.9551500000000001 H
   0.2951500000000000    0.2454100000000000    0.1332400000000000 H
   0.2966800000000000    0.7451700000000000    0.1332800000000000 H
   0.7949500000000000    0.2451800000000000    0.1329400000000000 H
   0.1381200000000000    0.1298200000000000    0.4431900000000000 H
   0.1356900000000000    0.6301900000000000    0.4434600000000000 H
   0.6362600000000000    0.1299800000000000    0.4439100000000000 H
   0.6388400000000000    0.6293800000000001    0.4434500000000000 H
   0.1298000000000000    0.0185600000000000    0.4393600000000000 H
   0.1268800000000000    0.5190399999999999    0.4394800000000000 H
   0.6278100000000000    0.0187300000000000    0.4399900000000000 H
   0.6292800000000000    0.5184299999999999    0.4396000000000000 H
   0.1203700000000000    0.0311100000000000    0.1344000000000000 H
   0.1218400000000000    0.5306999999999999    0.1344500000000000 H
   0.6220200000000000    0.0305100000000000    0.1349700000000000 H
   0.6199000000000000    0.5310300000000000    0.1347500000000000 H
   0.1279400000000000    0.1431800000000000    0.1381700000000000 H
   0.1300600000000000    0.6426100000000000    0.1382800000000000 H
   0.6292900000000000    0.1426400000000000    0.1387400000000000 H
   0.6281700000000000    0.6429300000000000    0.1384000000000000 H
   0.3308800000000000    0.3075700000000000    0.4474000000000000 H
   0.3321100000000000    0.8063700000000000    0.4477200000000000 H
   0.8313100000000000    0.3071500000000000    0.4471900000000000 H
   0.8315000000000000    0.8078100000000000    0.4468900000000000 H
   0.4429300000000000    0.3106200000000000    0.4474000000000000 H
   0.4441500000000000    0.8091300000000000    0.4473100000000000 H
   0.9433100000000000    0.3103200000000000    0.4464400000000000 H
   0.9434800000000000    0.8112300000000000    0.4474400000000000 H
   0.4326300000000000    0.3557000000000000    0.1477400000000000 H
   0.4332800000000000    0.8556400000000000    0.1480900000000000 H
   0.9322700000000000    0.3553100000000000    0.1467600000000000 H
   0.9341500000000000    0.8540600000000000    0.1471000000000000 H
   0.3193400000000000    0.3536700000000000    0.1479000000000000 H
   0.3200300000000000    0.8536899999999999    0.1485700000000000 H
   0.8190600000000000    0.3529800000000000    0.1475600000000000 H
   0.8208700000000000    0.8519600000000001    0.1467400000000000 H
   0.0374400000000000    0.3470300000000000    0.5429700000000000 H
   0.0387900000000000    0.8474400000000000    0.5442100000000000 H
   0.5376400000000000    0.3477200000000000    0.5434800000000000 H
   0.5391800000000000    0.8465500000000000    0.5430500000000000 H
   0.0308900000000000    0.3493400000000000    0.7199500000000000 H
   0.0327400000000000    0.8495400000000000    0.7212000000000000 H
   0.5310500000000000    0.3498600000000000    0.7204600000000000 H
   0.5326500000000000    0.8488900000000000    0.7200299999999999 H
   0.2297200000000000    0.3168800000000000    0.7306000000000000 H
   0.2315600000000000    0.8159500000000000    0.7308100000000000 H
   0.7298800000000000    0.3163400000000000    0.7314200000000000 H
   0.7314600000000000    0.8160100000000000    0.7307000000000000 H
   0.2277000000000000    0.3161000000000000    0.5536600000000000 H
   0.2290500000000000    0.8153800000000000    0.5537000000000000 H
   0.7278700000000000    0.3158300000000000    0.5543100000000000 H
   0.7294200000000000    0.8153300000000000    0.5537200000000000 H
   0.0537500000000000    0.4096200000000000    0.8554500000000000 H
   0.0565200000000000    0.9102500000000000    0.8555700000000001 H
   0.5543300000000000    0.4099500000000000    0.8560000000000000 H
   0.5559500000000001    0.9097800000000000    0.8548000000000000 H
   0.0570700000000000    0.4063100000000000    0.0336100000000000 H
   0.0592300000000000    0.9069199999999999    0.0337000000000000 H
   0.5574700000000000    0.4064900000000000    0.0341900000000000 H
   0.5585500000000000    0.9065700000000000    0.0329600000000000 H
   0.1985200000000000    0.2573500000000000    0.0437000000000000 H
   0.1988500000000000    0.7563000000000000    0.0449300000000000 H
   0.6977800000000000    0.2564900000000000    0.0444400000000000 H
   0.6988700000000000    0.7565600000000000    0.0444700000000000 H
   0.2039400000000000    0.2555900000000000    0.8660000000000000 H
   0.2049000000000000    0.7545400000000000    0.8671500000000000 H
   0.7033400000000000    0.2548200000000000    0.8667000000000000 H
   0.7048500000000000    0.7545800000000000    0.8667400000000000 H
   0.5903900000000000    0.6544700000000000    0.7870600000000000 C
   0.1516500000000000    0.1572000000000000    0.7879600000000000 C
   0.1531900000000000    0.6560300000000000    0.7873900000000000 C
   0.6522000000000000    0.1562400000000000    0.7865100000000000 C
   0.1339300000000000    0.1081600000000000    0.3757600000000000 C
   0.1323300000000000    0.6083700000000000    0.3759500000000000 C
   0.6327500000000000    0.1081900000000000    0.3764200000000000 C
   0.6343100000000000    0.6078300000000000    0.3760300000000000 C
   0.1292000000000000    0.0462800000000000    0.3737700000000000 C
   0.3594600000000000    0.2902900000000000    0.7066800000000000 C
   0.3608600000000000    0.7899200000000000    0.7066000000000000 C
   0.8604100000000000    0.2900300000000000    0.7069299999999999 C
   0.8605000000000000    0.7898900000000000    0.7069600000000000 C
   0.3655600000000000    0.3569500000000000    0.7088500000000000 C
   0.3663400000000000    0.8567300000000000    0.7086100000000000 C
   0.8662500000000000    0.3567500000000000    0.7089400000000000 C
   0.8660700000000000    0.8566700000000000    0.7091400000000000 C
   0.3657000000000000    0.3921000000000000    0.6239500000000000 C
   0.3672500000000000    0.8916900000000000    0.6236699999999999 C
   0.8676500000000000    0.3916200000000000    0.6240200000000000 C
   0.8660400000000000    0.8918300000000000    0.6242300000000000 C
   0.3711400000000000    0.4538200000000000    0.6259000000000000 C
   0.3720000000000000    0.9535800000000000    0.6257000000000000 C
   0.8726699999999999    0.4534400000000000    0.6261000000000000 C
   0.8707900000000000    0.9537099999999999    0.6262200000000000 C
   0.3762400000000000    0.4817800000000000    0.7100000000000000 C
   0.3757400000000000    0.9818700000000000    0.7128000000000000 C
   0.8763900000000000    0.4817100000000000    0.7132400000000000 C
   0.8755600000000000    0.9817800000000000    0.7132800000000000 C
   0.3767200000000000    0.4465600000000000    0.7980000000000000 C
   0.3754100000000000    0.9468500000000000    0.7978499999999999 C
   0.8756800000000000    0.4467600000000000    0.7982600000000000 C
   0.8762900000000000    0.9465300000000000    0.7983000000000000 C
   0.3716300000000000    0.3847200000000000    0.7959700000000000 C
   0.3709500000000000    0.8848700000000000    0.7958000000000000 C
   0.8707300000000000    0.3848900000000000    0.7961500000000000 C
   0.8716900000000000    0.8845600000000000    0.7962700000000000 C
   0.3775100000000000    0.0495400000000000    0.7146000000000000 C
   0.3784600000000000    0.5493500000000000    0.7148200000000000 C
   0.8773700000000000    0.0494400000000000    0.7149600000000000 C
   0.8784500000000000    0.5493200000000000    0.7150000000000000 C
   0.2478800000000000    0.1734800000000000    0.7039900000000000 C
   0.2489600000000000    0.6731400000000000    0.7027300000000000 C
   0.7481200000000000    0.1737500000000000    0.7024899999999999 C
   0.7489500000000000    0.6730300000000000    0.7027600000000001 C
   0.1806600000000000    0.1704200000000000    0.7034800000000000 C
   0.1817700000000000    0.6698800000000000    0.7027900000000000 C
   0.6808700000000000    0.1704200000000000    0.7021400000000000 C
   0.6817800000000001    0.6697700000000000    0.7025600000000000 C
   0.1461200000000000    0.1813800000000000    0.6185400000000000 C
   0.1467500000000000    0.6815000000000000    0.6183900000000000 C
   0.6458400000000000    0.1822900000000000    0.6177500000000000 C
   0.6469600000000000    0.6812900000000000    0.6179500000000000 C
   0.0835900000000000    0.1795800000000000    0.6181900000000000 C
   0.0841700000000000    0.6798999999999999    0.6187300000000000 C
   0.5832200000000000    0.1807400000000000    0.6179300000000000 C
   0.5843900000000000    0.6796400000000000    0.6179400000000000 C
   0.0544900000000000    0.1667300000000000    0.7027500000000000 C
   0.0554900000000000    0.6664600000000001    0.7034000000000000 C
   0.5544400000000000    0.1670500000000000    0.7024100000000000 C
   0.5555300000000000    0.6662900000000000    0.7024800000000000 C
   0.0890300000000000    0.1556400000000000    0.7876900000000000 C
   0.0905500000000000    0.6545500000000000    0.7877700000000000 C
   0.5895500000000000    0.1547900000000000    0.7867200000000000 C
   0.6530200000000000    0.6559700000000001    0.7870300000000000 C
   0.4866900000000000    0.1662200000000000    0.7031600000000000 C
   0.4878300000000000    0.6654200000000000    0.7027000000000000 C
   0.9868800000000000    0.1655700000000000    0.7024899999999999 C
   0.9877899999999999    0.6655400000000000    0.7039500000000000 C
   0.4196200000000000    0.1593000000000000    0.4120200000000000 C
   0.4211800000000000    0.6583500000000000    0.4115500000000000 C
   0.9198700000000000    0.1586800000000000    0.4111200000000000 C
   0.4226500000000000    0.1577600000000000    0.3136100000000000 C
   0.4242400000000000    0.6569100000000000    0.3131300000000000 C
   0.9226300000000000    0.1571800000000000    0.3126900000000000 C
   0.3680600000000000    0.1671000000000000    0.2592700000000000 C
   0.3696500000000000    0.6665400000000000    0.2587500000000000 C
   0.8679000000000000    0.1666500000000000    0.2586900000000000 C
   0.3123300000000000    0.1768100000000000    0.3077000000000000 C
   0.3139100000000000    0.6763000000000000    0.3071300000000000 C
   0.8123100000000000    0.1764300000000000    0.3074500000000000 C
   0.3129600000000000    0.1771100000000000    0.4064000000000000 C
   0.3145200000000000    0.6765099999999999    0.4058500000000000 C
   0.8132000000000000    0.1767200000000000    0.4061700000000000 C
   0.3691500000000000    0.1673700000000000    0.1542600000000000 C
   0.3706900000000000    0.6670700000000001    0.1537300000000000 C
   0.8688399999999999    0.1670000000000000    0.1536700000000000 C
   0.4113800000000000    0.1249500000000000    0.1060600000000000 C
   0.4128500000000000    0.6247800000000000    0.1051900000000000 C
   0.9109699999999999    0.1245600000000000    0.1053500000000000 C
   0.4103300000000000    0.1263100000000000    0.0000000000000000 C
   0.4115500000000000    0.6262799999999999    0.0000000000000000 C
   0.9099100000000000    0.1260600000000000    0.0000000000000000 C
   0.3308700000000000    0.2096900000000000    0.0000000000000000 C
   0.3320900000000000    0.7096700000000000    0.0000000000000000 C
   0.8306500000000000    0.2096500000000000    0.0000000000000000 C
   0.3279800000000000    0.2105200000000000    0.0993900000000000 C
   0.3294300000000000    0.7103400000000000    0.0991900000000000 C
   0.8277300000000000    0.2103000000000000    0.0989600000000000 C
   0.1394800000000000    0.2101100000000000    0.2930300000000000 C
   0.1395800000000000    0.7099500000000000    0.2930400000000000 C
   0.6391400000000000    0.2099500000000000    0.2934000000000000 C
   0.6405300000000000    0.7096400000000000    0.2932900000000000 C
   0.1339100000000000    0.1433300000000000    0.2908000000000000 C
   0.1337400000000000    0.6432300000000000    0.2910300000000000 C
   0.6336300000000000    0.1431400000000000    0.2914700000000000 C
   0.6344600000000000    0.6429700000000000    0.2911000000000000 C
   0.1273100000000000    0.5465500000000000    0.3738800000000000 C
   0.6279800000000000    0.0463000000000000    0.3743900000000000 C
   0.6289200000000000    0.5461000000000000    0.3740500000000000 C
   0.1244300000000000    0.0182100000000000    0.2867100000000000 C
   0.1236100000000000    0.5182700000000000    0.2867500000000000 C
   0.6242200000000000    0.0180300000000000    0.2872700000000000 C
   0.6238700000000000    0.5181200000000000    0.2869900000000000 C
   0.1237000000000000    0.0534600000000000    0.2016900000000000 C
   0.1243200000000000    0.5532200000000000    0.2017200000000000 C
   0.6245100000000000    0.0530500000000000    0.2022200000000000 C
   0.6233900000000000    0.5533300000000000    0.2019800000000000 C
   0.1283000000000000    0.1154300000000000    0.2037200000000000 C
   0.1292700000000000    0.6150900000000000    0.2038200000000000 C
   0.6289700000000000    0.1150200000000000    0.2042000000000000 C
   0.6284300000000000    0.6151900000000000    0.2040100000000000 C
   0.1215500000000000    0.4506700000000000    0.2849200000000000 C
   0.1226200000000000    0.9505500000000000    0.2850400000000000 C
   0.6217100000000000    0.4505400000000000    0.2852000000000000 C
   0.6224700000000000    0.9503800000000000    0.2854200000000000 C
   0.2510600000000000    0.3269500000000000    0.2972200000000000 C
   0.2518500000000000    0.8262300000000000    0.2975300000000000 C
   0.7511400000000000    0.3262000000000000    0.2972800000000000 C
   0.7521099999999999    0.8264000000000000    0.2960000000000000 C
   0.3182300000000000    0.3302200000000000    0.2974300000000000 C
   0.3190900000000000    0.8295600000000000    0.2978800000000000 C
   0.8182900000000000    0.3296000000000000    0.2971500000000000 C
   0.8193100000000000    0.8295200000000000    0.2965200000000000 C
   0.3530600000000000    0.3186900000000000    0.3820300000000000 C
   0.3541300000000000    0.8176800000000000    0.3822000000000000 C
   0.8533100000000000    0.3182300000000000    0.3815900000000000 C
   0.8538600000000000    0.8185800000000000    0.3814600000000000 C
   0.4156200000000000    0.3203400000000000    0.3820400000000000 C
   0.4167500000000000    0.8192199999999999    0.3820800000000000 C
   0.9158600000000000    0.3199800000000000    0.3812100000000000 C
   0.9163800000000000    0.8204100000000000    0.3818100000000000 C
   0.4444900000000000    0.3337100000000000    0.2975000000000000 C
   0.4455200000000000    0.8329100000000000    0.2975900000000000 C
   0.9445100000000000    0.3333900000000000    0.2964900000000000 C
   0.9454800000000000    0.8332700000000000    0.2972000000000000 C
   0.4096200000000000    0.3455400000000000    0.2129400000000000 C
   0.4104200000000000    0.8452000000000000    0.2132900000000000 C
   0.9094500000000000    0.3451000000000000    0.2121100000000000 C
   0.9109400000000000    0.8443500000000000    0.2123100000000000 C
   0.3469800000000000    0.3440300000000000    0.2129000000000000 C
   0.3477700000000000    0.8437500000000000    0.2135000000000000 C
   0.8468400000000000    0.3434300000000000    0.2125000000000000 C
   0.8483200000000000    0.8427700000000000    0.2120400000000000 C
   0.0122000000000000    0.3344200000000000    0.2959100000000000 C
   0.0130900000000000    0.8344300000000000    0.2975100000000000 C
   0.5121800000000000    0.3345800000000000    0.2972000000000000 C
   0.5132700000000000    0.8337200000000000    0.2968400000000000 C
   0.0786300000000000    0.3411400000000000    0.5879200000000000 C
   0.0801000000000000    0.8412700000000000    0.5888000000000000 C
   0.5788200000000000    0.3416100000000000    0.5884600000000000 C
   0.5803600000000000    0.8406700000000000    0.5879799999999999 C
   0.0756000000000000    0.3427000000000000    0.6863400000000000 C
   0.0773400000000000    0.8427400000000000    0.6873200000000000 C
   0.5757600000000000    0.3430600000000000    0.6868800000000000 C
   0.5773400000000000    0.8422200000000000    0.6863899999999999 C
   0.1302000000000000    0.3334600000000000    0.7406600000000000 C
   0.1320700000000000    0.8331600000000000    0.7413000000000000 C
   0.6303400000000000    0.3334400000000000    0.7412600000000000 C
   0.6319399999999999    0.8328800000000000    0.7407000000000000 C
   0.1859200000000000    0.3238900000000000    0.6921900000000000 C
   0.1876700000000000    0.8232900000000000    0.6925700000000000 C
   0.6860900000000000    0.3236800000000000    0.6928700000000000 C
   0.6876600000000000    0.8231700000000000    0.6922800000000000 C
   0.1853000000000000    0.3235200000000000    0.5935000000000000 C
   0.1867700000000000    0.8230499999999999    0.5938000000000000 C
   0.6854700000000000    0.3234600000000000    0.5941600000000000 C
   0.6870300000000000    0.8228500000000000    0.5935700000000000 C
   0.1292800000000000    0.3331100000000000    0.8456800000000000 C
   0.1311400000000000    0.8328300000000000    0.8463400000000000 C
   0.6293200000000000    0.3329100000000000    0.8462800000000000 C
   0.6308600000000000    0.8326200000000000    0.8457300000000000 C
   0.0868600000000000    0.3751100000000000    0.8942600000000001 C
   0.0890800000000000    0.8753600000000000    0.8946300000000000 C
   0.5871400000000000    0.3751800000000000    0.8948400000000000 C
   0.5886300000000000    0.8750300000000000    0.8939300000000000 C
   0.0882800000000000    0.3736900000000000    0.9931100000000000 C
   0.0901400000000000    0.8739000000000000    0.9934600000000000 C
   0.5884600000000000    0.3736700000000000    0.9936800000000000 C
   0.5896700000000000    0.8736600000000000    0.9927000000000000 C
   0.1683900000000000    0.2909200000000000    0.9987000000000000 C
   0.1692900000000000    0.7902000000000000    0.9996000000000000 C
   0.6679400000000000    0.2902900000000000    0.9993300000000001 C
   0.6691200000000000    0.7902800000000000    0.9991000000000000 C
   0.1709500000000000    0.2902000000000000    0.9001700000000000 C
   0.1721900000000000    0.7894900000000000    0.9010000000000000 C
   0.6705800000000000    0.2896400000000000    0.9008000000000000 C
   0.6720200000000000    0.7894600000000001    0.9005900000000000 C
   0.3657500000000000    0.1688800000000000    0.4580000000000000 N
   0.3672900000000000    0.6681200000000000    0.4575000000000000 N
   0.8661200000000000    0.1683900000000000    0.4574700000000000 N
   0.3707800000000000    0.1680100000000000    0.9550300000000000 N
   0.3718300000000000    0.6680300000000000    0.9545100000000000 N
   0.8704800000000000    0.1679600000000000    0.9545000000000000 N
   0.1325100000000000    0.3315900000000000    0.5419200000000000 N
   0.1338500000000000    0.8315000000000000    0.5425000000000000 N
   0.6327100000000000    0.3318300000000000    0.5424800000000000 N
   0.6342300000000000    0.8310700000000000    0.5419700000000000 N
   0.1283500000000000    0.3322600000000000    0.0449200000000000 N
   0.1295300000000000    0.8319700000000000    0.0455100000000000 N
   0.6281900000000000    0.3319200000000000    0.0455000000000000 N
   0.6292100000000000    0.8319500000000000    0.0449500000000000 N
   0.4630200000000000    0.6615000000000000    0.7834000000000000 O
   0.9614300000000000    0.1638700000000000    0.7830800000000000 O
   0.9631000000000000    0.6614000000000000    0.7846600000000000 O
   0.1405600000000000    0.2386400000000000    0.2127900000000000 O
   0.1432800000000000    0.7377500000000000    0.2128600000000000 O
   0.6403200000000000    0.2382600000000000    0.2130300000000000 O
   0.6401800000000000    0.7384800000000000    0.2130300000000000 O
   0.1428100000000000    0.2331700000000000    0.3743200000000000 O
   0.3598400000000000    0.2614500000000000    0.7869400000000000 O
   0.3593100000000000    0.7615900000000000    0.7869000000000000 O
   0.8567100000000000    0.2622400000000000    0.7871200000000000 O
   0.8594400000000000    0.7613500000000000    0.7871899999999999 O
   0.3543300000000000    0.2676300000000000    0.6254999999999999 O
   0.3579400000000000    0.7666400000000000    0.6253800000000000 O
   0.8595100000000000    0.2662800000000000    0.6257200000000001 O
   0.8571700000000000    0.7668199999999999    0.6256699999999999 O
   0.3779100000000000    0.0781100000000000    0.6347200000000000 O
   0.3773800000000000    0.5781300000000000    0.6348300000000000 O
   0.8748100000000000    0.0783300000000000    0.6349000000000000 O
   0.8774700000000000    0.5780999999999999    0.6351200000000000 O
   0.3774800000000000    0.0731600000000000    0.7961700000000000 O
   0.3800400000000000    0.5727800000000000    0.7962900000000001 O
   0.8801900000000000    0.0728000000000000    0.7962700000000000 O
   0.8799300000000000    0.5727400000000000    0.7965600000000000 O
   0.2743300000000000    0.1746300000000000    0.7848600000000000 O
   0.2758700000000000    0.6723900000000000    0.7836600000000000 O
   0.7750700000000000    0.1718600000000000    0.7835700000000000 O
   0.7757800000000000    0.6723800000000000    0.7837400000000000 O
   0.2732700000000000    0.1753100000000000    0.6233800000000000 O
   0.2738500000000000    0.6770600000000000    0.6220800000000000 O
   0.7730200000000000    0.1789900000000000    0.6221200000000000 O
   0.7739100000000000    0.6769100000000000    0.6221600000000000 O
   0.4585500000000000    0.1719000000000000    0.6228900000000001 O
   0.4604100000000000    0.6693000000000000    0.6219500000000000 O
   0.9601499999999999    0.1669300000000000    0.6215200000000000 O
   0.9602000000000001    0.6695800000000000    0.6233300000000001 O
   0.4624800000000000    0.1604400000000000    0.7839000000000000 O
   0.1404700000000000    0.7337000000000000    0.3742500000000000 O
   0.6424100000000000    0.2332100000000000    0.3745700000000000 O
   0.6456000000000000    0.7323100000000000    0.3744800000000000 O
   0.1225500000000000    0.4218900000000000    0.3640000000000000 O
   0.1251900000000000    0.9216600000000000    0.3651000000000000 O
   0.6225700000000000    0.4218200000000000    0.3652000000000000 O
   0.6221200000000000    0.9217900000000000    0.3653100000000000 O
   0.1200700000000000    0.4272300000000000    0.2034500000000000 O
   0.1198100000000000    0.9271800000000000    0.2037300000000000 O
   0.6203900000000000    0.4270500000000000    0.2037000000000000 O
   0.6224900000000000    0.9267800000000000    0.2038500000000000 O
   0.2242300000000000    0.3276100000000000    0.2162400000000000 O
   0.2248900000000000    0.8281400000000000    0.2164600000000000 O
   0.7243400000000000    0.3260500000000000    0.2164100000000000 O
   0.7256500000000000    0.8253600000000000    0.2151200000000000 O
   0.2260900000000000    0.3230700000000000    0.3778200000000000 O
   0.2269600000000000    0.8209800000000000    0.3779100000000000 O
   0.7261500000000000    0.3230400000000000    0.3779900000000000 O
   0.7267300000000000    0.8244200000000000    0.3766000000000000 O
   0.0397900000000000    0.3304300000000000    0.3765000000000000 O
   0.0398200000000000    0.8330600000000000    0.3784800000000000 O
   0.5396500000000000    0.3305800000000000    0.3780000000000000 O
   0.5414000000000000    0.8280800000000000    0.3771300000000000 O
   0.0368700000000000    0.3385900000000000    0.2151900000000000 O
   0.0385500000000000    0.8361200000000000    0.2169200000000000 O
   0.5369699999999999    0.3385900000000000    0.2165000000000000 O
   0.5375100000000000    0.8394400000000000    0.2160900000000000 O
