H1 O1
1.0
  21.2943139352363637    0.0000000000000000    6.9892730686101014
   4.7667970816219194   16.8567680399675695    3.4016234108684862
   0.0000000000000000    0.0000000000000000   17.8760000000000012
H O
1 1
direct
   0.3788508768970043    0.2116891333461137    0.8132809910751974 H
   0.3784100000000000    0.2616600000000000    0.8286900000000000 O
