H4 C4 O6
1.0
  18.5046181470608175    0.0000000000000000   -1.7104325422147979
  -0.1869577015092009    7.5098767057774802   -1.9946315278434690
   0.0000000000000000    0.0000000000000000   26.7020000000000017
H C O
4 4 6
direct
   0.3315533333333333    0.4383900000000000    0.0873600000000000 H
   0.4366300000000000    0.8147400000000000    0.0511000000000000 H
   0.3394800000000000    0.7969100000000000    0.1038850000000000 H
   0.4967733333333333    0.4952000000000000    0.0553200000000000 H
   0.3119200000000000    0.6074500000000000    0.0302550000000000 C
   0.4871733333333333    0.7490300000000000    0.1196700000000000 C
   0.4377366666666667    0.7016300000000000    0.0689200000000000 C
   0.3595333333333333    0.6689100000000000    0.0816550000000000 C
   0.3026700000000000    0.7194100000000000    0.0022250000000000 O
   0.2859466666666667    0.4509000000000000    0.0184850000000000 O
   0.4833866666666666    0.9061800000000000    0.1501700000000000 O
   0.5278933333333333    0.6285500000000001    0.1285700000000000 O
   0.4626033333333333    0.5489600000000000    0.0337350000000000 O
   0.3583233333333333    0.5410000000000000    0.1110050000000000 O
