H4 O2
1.0
  12.9610917780578383    0.0000000000000000    2.6737344521776123
   0.2492946002964812   39.5948667174029936    4.2679042671263883
   0.0000000000000000    0.0000000000000000   14.0030000000000001
H O
4 2
direct
   0.1754733858969499    0.7571373785237467    0.4915982294563950 H
   0.1233370993045637    0.7961392497487829    0.4899295469475581 H
   0.1222592308750977    0.7537492749157321    0.0693255157396295 H
   0.1280325874760362    0.7961929392486869    0.0543494989182627 H
   0.1506200000000000    0.7767800000000000    0.5262100000000000 O
   0.1223100000000000    0.7749199999999999    0.0268100000000000 O
