H6 C12 O4
1.0
  12.9610917780578383    0.0000000000000000    2.6737344521776123
   0.2492946002964812   39.5948667174029936    4.2679042671263883
   0.0000000000000000    0.0000000000000000   14.0030000000000001
H C O
6 12 4
direct
   0.7809100000000000    0.7731100000000000    0.9651100000000000 H
   0.5909200000000000    0.7733766666666666    0.9787400000000001 H
   0.8270000000000000    0.7773700000000000    0.6515100000000000 H
   0.4382900000000000    0.7744433333333333    0.8984100000000000 H
   0.4831800000000000    0.7786133333333333    0.5853100000000000 H
   0.6739000000000001    0.7791566666666666    0.5705400000000000 H
   0.9300500000000000    0.7756999999999999    0.7988499999999999 C
   0.8152100000000000    0.7752533333333333    0.8066000000000000 C
   0.7477400000000000    0.7740666666666667    0.8998200000000000 C
   0.6424900000000000    0.7742399999999999    0.9070800000000000 C
   0.5987400000000000    0.7754500000000000    0.8220200000000000 C
   0.6665100000000000    0.7766933333333332    0.7274700000000000 C
   0.7743800000000000    0.7765599999999999    0.7225000000000000 C
   0.4908600000000000    0.7753733333333332    0.8274000000000000 C
   0.4501200000000000    0.7763099999999999    0.7435100000000000 C
   0.5172200000000000    0.7776999999999999    0.6501400000000001 C
   0.6226000000000000    0.7779499999999999    0.6424400000000000 C
   0.3352000000000000    0.7757933333333333    0.7517500000000000 C
  -0.0367200000000000    0.7731866666666667    0.8787800000000000 O
   0.0000000000000000    0.7792866666666667    0.7127800000000000 O
   0.2796900000000000    0.7763899999999999    0.8371300000000000 O
   0.3020100000000000    0.7748233333333333    0.6726900000000000 O
