H6 O4
1.0
  12.9610917780578383    0.0000000000000000    2.6737344521776123
   0.2492946002964812   39.5948667174029936    4.2679042671263883
   0.0000000000000000    0.0000000000000000   14.0030000000000001
H O
6 4
direct
   0.3068838616819630    0.7770071940307354    0.8962576429627560 H
   0.3439740759029944    0.7742530015153123    0.6075104297578278 H
   0.3368245461821254    0.7756134870208702    0.7483873055405530 H
  -0.0257883298338887    0.7818635624951685    0.6522827597333973 H
  -0.0852015230682321    0.7712106254206318    0.9410834125203289 H
  -0.0694412613588411    0.7764563348631744    0.8020186888564311 H
   0.2796900000000000    0.7763899999999999    0.8371300000000000 O
   0.3020100000000000    0.7748233333333333    0.6726900000000000 O
   0.0000000000000000    0.7792866666666667    0.7127800000000000 O
  -0.0367200000000000    0.7731866666666667    0.8787800000000000 O
