H4 C8 N8
1.0
   6.6079999838967050    0.0000000000000000    0.0004613254275131
   2.4703262274487576   17.1217081205510908    0.0006038490144819
   0.0000000000000000    0.0000000000000000   18.3810000000000002
H C N
4 8 8
direct
   0.4031000000000000    0.1572300000000000    0.6360100000000000 H
   0.3155400000000000    0.3771200000000000    0.7487300000000000 H
   0.6458600000000000    0.3401000000000000    0.8133600000000000 H
   0.7310400000000000    0.1191600000000000    0.7025500000000000 H
   0.1469300000000000    0.2944300000000000    0.6486200000000000 C
   0.3377700000000000    0.2698200000000000    0.6877700000000000 C
   0.4573800000000000    0.1973000000000000    0.6747100000000000 C
   0.4070700000000000    0.3205400000000000    0.7389400000000000 C
   0.8970300000000000    0.2026900000000000    0.8043900000000000 C
   0.7092000000000001    0.2266000000000000    0.7632000000000000 C
   0.5903900000000000    0.2994700000000000    0.7755900000000000 C
   0.6401300000000000    0.1759600000000000    0.7119000000000000 C
   0.9095200000000000    0.3068500000000000    0.5698600000000000 N
   0.8604100000000000    0.3632300000000000    0.6197400000000000 N
   0.0087000000000000    0.3563400000000000    0.6697500000000000 N
   0.0896500000000000    0.2622700000000000    0.5863600000000000 N
   0.1208200000000000    0.1932900000000000    0.8868400000000000 N
   0.1798000000000000    0.1361200000000000    0.8384800000000000 N
   0.0392900000000000    0.1412200000000000    0.7859600000000000 N
   0.9444700000000000    0.2364200000000000    0.8671700000000000 N
