H4 O2
1.0
   6.6079999838967050    0.0000000000000000    0.0004613254275131
   2.4703262274487576   17.1217081205510908    0.0006038490144819
   0.0000000000000000    0.0000000000000000   18.3810000000000002
H O
4 2
direct
   0.7325504798556066    0.6478670478987291   -0.0131885978227113 H
   0.5090599440858083    0.6807581068797964    0.0272364086744689 H
   0.4902065116443381    0.3189384107458782    0.9728332419612287 H
   0.2667315151388817    0.3519476131261491    1.0131920127261516 H
   0.6416600000000000    0.6911100000000000    0.0089500000000000 O
   0.3574800000000000    0.3086600000000000    0.9910600000000001 O
