H4 O2
1.0
   6.6079999838967050    0.0000000000000000    0.0004613254275131
   2.4703262274487576   17.1217081205510908    0.0006038490144819
   0.0000000000000000    0.0000000000000000   18.3810000000000002
H O
4 2
direct
   1.0394173337317978    0.2747019783613860    0.5817586621138882 H
   0.8737676885502527    0.3478949057124161    0.6061728750786682 H
  -0.0079094994729218    0.2247734324483534    0.8724815692961022 H
   0.1637187790143369    0.1517077145430715    0.8516656196484684 H
   0.9095200000000000    0.3068500000000000    0.5698600000000000 O
   0.1208200000000000    0.1932900000000000    0.8868400000000000 O
