H8 C10 N2
1.0
   6.6079999838967050    0.0000000000000000    0.0004613254275131
   2.4703262274487576   17.1217081205510908    0.0006038490144819
   0.0000000000000000    0.0000000000000000   18.3810000000000002
H C N
8 10 2
direct
   0.3557600000000000    0.7253600000000000    0.0573600000000000 H
   0.2493000000000000    0.5972499999999999    0.0535800000000000 H
   0.8257800000000000    0.5114700000000000    0.9480300000000000 H
   0.9109100000000000    0.6456499999999999    0.9563700000000001 H
   0.6434600000000000    0.2742600000000000    0.9427800000000000 H
   0.7505200000000000    0.4022800000000000    0.9466200000000000 H
   0.1739500000000000    0.4883400000000000    0.0520000000000000 H
   0.0882900000000000    0.3542800000000000    0.0436000000000000 H
   0.4590000000000000    0.6768500000000000    0.0341400000000000 C
   0.3990300000000000    0.6030900000000000    0.0314500000000000 C
   0.5289199999999999    0.5397900000000000    0.0015000000000000 C
   0.7170000000000000    0.5563000000000000    0.9738400000000000 C
   0.7673300000000000    0.6313200000000000    0.9783400000000000 C
   0.5403300000000000    0.3228200000000000    0.9659500000000000 C
   0.6006400000000000    0.3965300000000000    0.9686900000000001 C
   0.4708600000000000    0.4598900000000000    0.9985900000000000 C
   0.2826500000000000    0.4434800000000000    0.0262100000000000 C
   0.2320100000000000    0.3685100000000000    0.0216600000000000 C
   0.6416600000000000    0.6911100000000000    0.0089500000000000 N
   0.3574800000000000    0.3086600000000000    0.9910600000000001 N
