Zn4 H44 C64 N32
1.0
   6.6079999838967050    0.0000000000000000    0.0004613254275131
   2.4703262274487576   17.1217081205510908    0.0006038490144819
   0.0000000000000000    0.0000000000000000   18.3810000000000002
Zn H C N
4 44 64 32
direct
   0.7390500000000000    0.7999200000000000    0.0182800000000000 Zn
   0.7390700000000000    0.2999200000000000    0.4817300000000000 Zn
   0.2586200000000000    0.1999800000000000    0.9816900000000000 Zn
   0.2586000000000000    0.6999800000000000    0.5182900000000000 Zn
   0.6434299999999999    0.7742500000000000    0.5572100000000000 H
   0.7504800000000000    0.9022800000000000    0.5533700000000000 H
   0.1739700000000000    0.9883500000000000    0.4480000000000000 H
   0.0883000000000000    0.8542900000000000    0.4563900000000000 H
   0.4839000000000000    0.6025600000000000    0.4025700000000000 H
   0.8145800000000000    0.5177700000000000    0.3884600000000000 H
   0.9026800000000000    0.5401700000000000    0.6209100000000000 H
   0.5669000000000000    0.6225200000000000    0.6253200000000000 H
   0.5978800000000000    0.8428200000000000    0.3642400000000000 H
   0.6855200000000000    0.6229200000000000    0.2515300000000000 H
   0.3551200000000000    0.6599000000000000    0.1869300000000000 H
   0.2698800000000000    0.8808600000000000    0.2977200000000000 H
   0.3557600000000000    0.7253600000000000    0.0573600000000000 H
   0.2493000000000000    0.5972499999999999    0.0535800000000000 H
   0.8257800000000000    0.5114700000000000    0.9480300000000000 H
   0.9109100000000000    0.6456499999999999    0.9563700000000001 H
   0.5160500000000000    0.8974299999999999    0.9026600000000000 H
   0.1855100000000000    0.9824000000000001    0.8885000000000000 H
   0.0969400000000000    0.9600200000000000    0.1209500000000000 H
   0.4326600000000000    0.8774999999999999    0.1253900000000000 H
   0.4030200000000000    0.6572300000000000    0.8640000000000000 H
   0.3155700000000000    0.8771300000000000    0.7512700000000000 H
   0.6459200000000000    0.8400900000000000    0.6866400000000000 H
   0.7309900000000000    0.6191500000000000    0.7974500000000000 H
   0.3558000000000000    0.2253700000000000    0.4426500000000000 H
   0.2493300000000000    0.0972500000000000    0.4464200000000000 H
   0.8257700000000000    0.0114700000000000    0.5519700000000000 H
   0.9109000000000000    0.1456500000000000    0.5436299999999999 H
   0.5160300000000000    0.3974500000000000    0.5973600000000000 H
   0.1854800000000000    0.4824200000000000    0.6115000000000000 H
   0.0969900000000000    0.4599900000000000    0.3790600000000000 H
   0.4327200000000000    0.3774800000000000    0.3746300000000000 H
   0.6434600000000000    0.2742600000000000    0.9427800000000000 H
   0.7505200000000000    0.4022800000000000    0.9466200000000000 H
   0.1739500000000000    0.4883400000000000    0.0520000000000000 H
   0.0882900000000000    0.3542800000000000    0.0436000000000000 H
   0.4838800000000000    0.1025800000000000    0.0974200000000000 H
   0.8145400000000000    0.0177900000000000    0.1115300000000000 H
   0.9027400000000000    0.0401500000000000    0.8790800000000000 H
   0.5669600000000000    0.1225000000000000    0.8746600000000000 H
   0.5979400000000000    0.3428200000000000    0.1357500000000000 H
   0.6854700000000000    0.1229100000000000    0.2484700000000000 H
   0.3550600000000000    0.1599100000000000    0.3130700000000000 H
   0.2699300000000000    0.3808700000000000    0.2022800000000000 H
   0.5403000000000000    0.8228100000000000    0.5340400000000000 C
   0.6006100000000000    0.8965300000000000    0.5313099999999999 C
   0.4708400000000000    0.9598900000000000    0.5014100000000000 C
   0.2826500000000000    0.9434800000000000    0.4737900000000000 C
   0.2320200000000000    0.8685100000000000    0.4783300000000000 C
   0.5846300000000000    0.5883699999999999    0.4490800000000000 C
   0.7709100000000000    0.5406200000000000    0.4421400000000000 C
   0.8975100000000000    0.5236100000000000    0.5031099999999999 C
   0.8193000000000000    0.5529300000000000    0.5703800000000000 C
   0.6311200000000000    0.5998900000000000    0.5736800000000000 C
   0.8542100000000000    0.7056500000000000    0.3515800000000000 C
   0.6632700000000000    0.7302400000000000    0.3124800000000000 C
   0.5436000000000000    0.8027400000000000    0.3255500000000000 C
   0.5939500000000000    0.6794900000000000    0.2613200000000000 C
   0.1039500000000000    0.7973100000000000    0.1958800000000000 C
   0.2917600000000000    0.7734100000000000    0.2370900000000000 C
   0.4105800000000000    0.7005400000000001    0.2247000000000000 C
   0.3608100000000000    0.8240600000000000    0.2883700000000000 C
   0.4590000000000000    0.6768500000000000    0.0341400000000000 C
   0.3990300000000000    0.6030900000000000    0.0314500000000000 C
   0.5289199999999999    0.5397900000000000    0.0015000000000000 C
   0.7170000000000000    0.5563000000000000    0.9738400000000000 C
   0.7673300000000000    0.6313200000000000    0.9783400000000000 C
   0.4151600000000000    0.9116700000000000    0.9491200000000000 C
   0.2290800000000000    0.9594900000000000    0.9421600000000000 C
   0.1024800000000000    0.9764500000000000    0.0031400000000000 C
   0.1804000000000000    0.9471800000000000    0.0704500000000000 C
   0.3684100000000000    0.9001700000000000    0.0737700000000000 C
   0.1469100000000000    0.7944400000000000    0.8513800000000000 C
   0.3377500000000000    0.7698199999999999    0.8122300000000000 C
   0.4573400000000000    0.6973000000000000    0.8252900000000000 C
   0.4070900000000000    0.8205400000000000    0.7610500000000000 C
   0.8970300000000000    0.7026800000000000    0.6956100000000000 C
   0.7091900000000000    0.7265900000000000    0.7368000000000000 C
   0.5904100000000000    0.7994599999999999    0.7244100000000000 C
   0.6401000000000000    0.6759500000000001    0.7881000000000000 C
   0.4590300000000000    0.1768600000000000    0.4658700000000000 C
   0.3990600000000000    0.1030900000000000    0.4685500000000000 C
   0.5289300000000000    0.0397900000000000    0.4985000000000000 C
   0.7169900000000000    0.0563000000000000    0.5261700000000000 C
   0.7673200000000000    0.1313200000000000    0.5216600000000000 C
   0.4151500000000000    0.4116900000000000    0.5508900000000000 C
   0.2290700000000000    0.4595100000000000    0.5578400000000000 C
   0.1025000000000000    0.4764500000000000    0.4968700000000000 C
   0.1804400000000000    0.4471700000000000    0.4295600000000000 C
   0.3684500000000000    0.4001500000000000    0.4262400000000000 C
   0.5403300000000000    0.3228200000000000    0.9659500000000000 C
   0.6006400000000000    0.3965300000000000    0.9686900000000001 C
   0.4708600000000000    0.4598900000000000    0.9985900000000000 C
   0.2826500000000000    0.4434800000000000    0.0262100000000000 C
   0.2320100000000000    0.3685100000000000    0.0216600000000000 C
   0.5846200000000000    0.0883900000000000    0.0509000000000000 C
   0.7708900000000000    0.0406300000000000    0.0578500000000000 C
   0.8975200000000000    0.0236100000000000    0.9968800000000000 C
   0.8193400000000000    0.0529200000000000    0.9296100000000000 C
   0.6311600000000001    0.0998800000000000    0.9263000000000000 C
   0.8542200000000000    0.2056400000000000    0.1484100000000000 C
   0.6632800000000000    0.2302300000000000    0.1875200000000000 C
   0.5436299999999999    0.3027400000000000    0.1744500000000000 C
   0.5939200000000000    0.1794900000000000    0.2386800000000000 C
   0.1039500000000000    0.2973200000000000    0.3041200000000000 C
   0.2917600000000000    0.2734200000000000    0.2629100000000000 C
   0.4105500000000000    0.2005500000000000    0.2753000000000000 C
   0.3608400000000000    0.3240700000000000    0.2116300000000000 C
   0.3574600000000000    0.8086600000000000    0.5089300000000000 N
   0.5156900000000000    0.6192100000000000    0.5137000000000000 N
   0.0890600000000000    0.6930300000000000    0.4300700000000000 N
   0.1385800000000000    0.6367600000000000    0.3801100000000000 N
   0.9921900000000000    0.6436600000000000    0.3304700000000000 N
   0.9118800000000000    0.7379000000000000    0.4137400000000000 N
   0.8779900000000000    0.8066700000000000    0.1129900000000000 N
   0.8194000000000000    0.8639700000000000    0.1612600000000000 N
   0.9601100000000000    0.8589300000000000    0.2137100000000000 N
   0.0568800000000000    0.7636900000000000    0.1330000000000000 N
   0.6416600000000000    0.6911100000000000    0.0089500000000000 N
   0.4836400000000000    0.8808100000000000    0.0137700000000000 N
   0.9094900000000000    0.8068600000000000    0.9301500000000000 N
   0.8604000000000001    0.8632400000000000    0.8802700000000000 N
   0.0086900000000000    0.8563499999999999    0.8302500000000000 N
   0.0896100000000000    0.7622800000000000    0.9136400000000000 N
   0.1208300000000000    0.6932700000000001    0.6131500000000000 N
   0.1798000000000000    0.6361000000000000    0.6615100000000000 N
   0.0392800000000000    0.6412000000000000    0.7140400000000000 N
   0.9444700000000000    0.7364100000000000    0.6328200000000000 N
   0.6416700000000000    0.1911100000000000    0.4910600000000000 N
   0.4836600000000000    0.3808100000000000    0.4862500000000000 N
   0.3574800000000000    0.3086600000000000    0.9910600000000001 N
   0.5157100000000000    0.1192100000000000    0.9862700000000000 N
   0.0890900000000000    0.1930200000000000    0.0699200000000000 N
   0.1385900000000000    0.1367500000000000    0.1198800000000000 N
   0.9921900000000000    0.1436500000000000    0.1695200000000000 N
   0.9119100000000000    0.2378900000000000    0.0862600000000000 N
   0.8779800000000000    0.3066800000000000    0.3870100000000000 N
   0.8194000000000000    0.3639900000000000    0.3387500000000000 N
   0.9601100000000000    0.3589500000000000    0.2862900000000000 N
   0.0568700000000000    0.2637100000000000    0.3670100000000000 N
