H4 O3
1.0
  29.0599999822956327    0.0000000000000000    0.0010143853610522
   0.0002768170097412   15.8609999951686316    0.0002768266726450
   0.0000000000000000    0.0000000000000000   32.8220000000000027
H O
4 3
direct
   0.4746394376006804    0.8973961047912841    0.1227442038796322 H
   0.4777317723183366    0.6607000705353315    0.0910167449117322 H
   0.5694390742885845    0.7465365001823661    0.1348047649857585 H
   0.5229137954175137    0.7223809877189880    0.1142639692948191 H
   0.4805300000000000    0.9521100000000000    0.1354950000000000 O
   0.4844450000000000    0.6008800000000000    0.0867850000000000 O
   0.5528200000000000    0.6994800000000000    0.1223450000000000 O
