H3 C2 N4
1.0
  35.5888357774146797    0.0000000000000000  -15.0801814315414831
  -2.3645791520506134   11.8437109564103551   -5.2895653143422798
   0.0000000000000000    0.0000000000000000   32.5039999999999978
H C N
3 2 4
direct
   0.1609866666666667    0.8084600000000000    0.7857550000000000 H
   0.1258600000000000    0.6244200000000000    0.6106500000000000 H
   0.1329500000000000    0.4900800000000000    0.6091950000000000 H
   0.1411933333333333    0.6148900000000000    0.6763500000000000 C
   0.1559300000000000    0.7320500000000000    0.7525400000000000 C
   0.1607300000000000    0.6330900000000000    0.7528900000000001 N
   0.1511500000000000    0.5557400000000000    0.7037050000000000 N
   0.1438933333333333    0.7265900000000000    0.7063100000000000 N
   0.1287933333333333    0.5701600000000000    0.6268899999999999 N
