H3 C9 O6
1.0
  23.0679999964865452    0.0000000000000000    0.0004026125518300
  -0.0011554366664953   33.1039993697504329   -0.0063555117123357
   0.0000000000000000    0.0000000000000000   33.1039999999999992
H C O
3 9 6
direct
   0.5000000000000000    0.5878200000000000    0.0297850000000000 H
   0.5929800000000000    0.6227750000000000    0.9222350000000000 H
   0.4070500000000000    0.6227650000000000    0.9222250000000001 H
   0.5524700000000000    0.6174600000000000    0.9381999999999999 C
   0.5526300000000000    0.6039600000000001    0.9782950000000000 C
   0.6083800000000000    0.5949250000000000    0.9992500000000000 C
   0.4475500000000000    0.6174550000000000    0.9381999999999999 C
   0.4473800000000000    0.6039600000000001    0.9782900000000000 C
   0.3916300000000000    0.5949200000000000    0.9992799999999999 C
   0.5000100000000000    0.6245800000000000    0.9182100000000000 C
   0.5000100000000000    0.5978850000000000    0.9984900000000000 C
   0.5000200000000000    0.6399700000000000    0.8755999999999999 C
   0.6071600000000000    0.5918950000000001    0.0379000000000000 O
   0.3928400000000000    0.5918950000000001    0.0379150000000000 O
   0.5493500000000000    0.6458850000000000    0.8592500000000001 O
   0.6552200000000000    0.5902350000000000    0.9796050000000001 O
   0.4506800000000000    0.6458850000000000    0.8592500000000001 O
   0.3447900000000000    0.5902450000000000    0.9796000000000000 O
