H6 O4
1.0
  20.0483865237542780    0.0000000000000000   -5.4692009283027545
   5.7599765066498048   23.4129936466596895   -2.9425327771012464
   0.0000000000000000    0.0000000000000000   24.2880000000000003
H O
6 4
direct
   0.8051449880059375    0.0574505226303292    0.4325828781758326 H
  -0.0745140271607516    0.0857105355449324    0.4642675112659098 H
  -0.1043391154849030    0.1276958011584974    0.4483141026166364 H
   0.8527137938114868    0.3455892506521164    0.4110421853325357 H
   0.7250353753373074    0.4012490402360602    0.4228836774550292 H
   0.8017082667139732    0.2971160845385502    0.3317285715748066 H
   0.8083800000000000    0.0183550000000000    0.4400250000000000 O
  -0.0983900000000000    0.0558000000000000    0.4620000000000000 O
   0.8380000000000000    0.3746000000000000    0.4392650000000000 O
   0.7364900000000000    0.4257050000000000    0.4568250000000000 O
