H12 O8
1.0
  36.8298868894992992    0.0000000000000000    0.0912781829752019
   0.0571838834102146   33.2876358266454915    2.5537504431923979
   0.0000000000000000    0.0000000000000000   36.5730000000000004
H O
12 8
direct
   0.3407177347620430    0.8876879739456806    0.5168337278520259 H
   0.3653028419539628    0.8712009605050565    0.5219644590764143 H
   0.2852099377545061    0.9246501214790461    0.5052902445267158 H
   0.2990795885445263    0.7764707470000434    0.4245164611953193 H
   0.2834234012190753    0.7459655428247072    0.4661356350534496 H
   0.2465875804089148    0.8137120474207122    0.4030517173765134 H
   0.2291917948724428    0.8027205489340983    0.3965563031053867 H
   0.2423640467778214    0.8592238858208470    0.4476569304757600 H
   0.3089693534151556    0.8880713346599369    0.4499026746274973 H
   0.3702150084545568    0.8184587393948241    0.4165129137711021 H
   0.3188255629779218    0.8897718559675827    0.3829073966237504 H
   0.3254609916269847    0.8607552723179863    0.3983031503893704 H
   0.3393425000000000    0.8747999999999999    0.5186866666666666 O
   0.2821325000000000    0.8958100000000000    0.5094366666666666 O
   0.2922400000000000    0.7514933333333333    0.4385700000000000 O
   0.2199275000000000    0.8196166666666667    0.4149033333333333 O
   0.2187675000000000    0.8644499999999999    0.4581466666666666 O
   0.2860675000000000    0.8924399999999999    0.4366733333333333 O
   0.3874325000000000    0.8368566666666666    0.4041666666666667 O
   0.3436550000000000    0.8801966666666666    0.3852566666666666 O
