Zn2 H20 C34 Br2 O10
1.0
  11.0892966765623058    0.0000000000000000   -0.2448738842429303
  -0.0000249479497339   16.1829999605437784   -0.0011297865304829
   0.0000000000000000    0.0000000000000000   17.9869999999999983
Zn H C Br O
2 20 34 2 10
direct
   0.9950700000000000    0.0000000000000000    0.9240400000000000 Zn
   0.0049400000000000    0.0000000000000000    0.0759500000000000 Zn
   1.0711933389162502    1.0065311982390674    0.8368698538741639 H
   0.9197492874279471    0.9999945309369741    0.7796925771421248 H
  -0.0711712920249578    1.0065507233750577    0.1631301226555759 H
   0.0802687248159787    1.0000117979248102    0.2203094420728632 H
   0.7451700000000000    0.2014900000000000    0.8813000000000000 H
   0.6271200000000000    0.3331300000000000    0.8811099999999999 H
   0.7662200000000000    0.2060700000000000    0.1193800000000000 H
   0.6489000000000000    0.3380300000000000    0.1201400000000000 H
   0.2547000000000000    0.7985300000000000    0.1187000000000000 H
   0.3728000000000000    0.6669100000000000    0.1189500000000000 H
   0.2339300000000000    0.7939300000000000    0.8806100000000000 H
   0.3512500000000000    0.6619699999999999    0.8799200000000000 H
   0.7662300000000000    0.7939600000000000    0.1193800000000000 H
   0.6489100000000000    0.6620000000000000    0.1201300000000000 H
   0.7451600000000000    0.7985100000000001    0.8812900000000000 H
   0.6271099999999999    0.6668700000000000    0.8811000000000000 H
   0.2339200000000000    0.2060700000000000    0.8806100000000000 H
   0.3512400000000000    0.3380300000000000    0.8799300000000000 H
   0.2547100000000000    0.2015000000000000    0.1187100000000000 H
   0.3728100000000000    0.3331200000000000    0.1189600000000000 H
   0.8390600000000000    0.8804999999999999    0.9997600000000000 C
   0.8390600000000000    0.1195200000000000    0.9997700000000000 C
   0.1609300000000000    0.8804900000000000    0.0000000000000000 C
   0.1609300000000000    0.1195300000000000    0.0000000000000000 C
   0.7224200000000000    0.2316100000000000    0.9332700000000000 C
   0.6569300000000000    0.3049600000000000    0.9334300000000000 C
   0.6305600000000000    0.3441100000000000    0.0000000000000000 C
   0.7343499999999999    0.2342000000000000    0.0675800000000000 C
   0.6691200000000000    0.3076800000000000    0.0677300000000000 C
   0.7622700000000000    0.1957500000000000    0.0003200000000000 C
   0.2775300000000000    0.7684100000000000    0.0667400000000000 C
   0.3430200000000000    0.6950600000000000    0.0666100000000000 C
   0.2657500000000000    0.7658000000000000    0.9324300000000000 C
   0.3309600000000000    0.6923200000000000    0.9323100000000000 C
   0.2377300000000000    0.8042600000000000    0.9996699999999999 C
   0.3694800000000000    0.6559100000000000    0.9994200000000000 C
   0.7343499999999999    0.7658199999999999    0.0675800000000000 C
   0.6691300000000000    0.6923400000000000    0.0677200000000000 C
   0.7224100000000000    0.7683900000000000    0.9332700000000000 C
   0.6569300000000000    0.6950400000000000    0.9334300000000000 C
   0.6305600000000000    0.6559000000000000    0.0000000000000000 C
   0.7622700000000000    0.8042700000000000    0.0003100000000000 C
   0.2657400000000000    0.2342000000000000    0.9324300000000000 C
   0.3309600000000000    0.3076900000000000    0.9323200000000000 C
   0.2775300000000000    0.2316200000000000    0.0667400000000000 C
   0.3430200000000000    0.3049700000000000    0.0666200000000000 C
   0.2377300000000000    0.1957600000000000    0.9996800000000000 C
   0.3694700000000000    0.3441200000000000    0.9994300000000000 C
   0.5636700000000000    0.4239600000000000    0.0000000000000000 C
   0.6244300000000000    0.5000100000000000    0.0010000000000000 C
   0.5636700000000000    0.5760600000000000    0.0000000000000000 C
   0.4363600000000000    0.5760600000000000    0.9995400000000000 C
   0.3756000000000000    0.5000100000000000    0.9990900000000000 C
   0.4363600000000000    0.4239600000000000    0.9995400000000000 C
   0.2020900000000000    0.5000100000000000    0.9987400000000000 Br
   0.7979400000000000    0.5000100000000000    0.0000000000000000 Br
   0.9954700000000000    0.9999800000000000    0.8086600000000000 O
   0.0045500000000000    0.9999900000000000    0.1913400000000000 O
   0.8655200000000000    0.9098300000000000    0.9363899999999999 O
   0.8746100000000000    0.9092500000000000    0.0625200000000000 O
   0.8655200000000000    0.0901800000000000    0.9363899999999999 O
   0.8746200000000000    0.0907700000000000    0.0625200000000000 O
   0.1254200000000000    0.9092400000000000    0.9374400000000001 O
   0.1344700000000000    0.9098500000000000    0.0635700000000000 O
   0.1254200000000000    0.0907700000000000    0.9374400000000001 O
   0.1344800000000000    0.0901800000000000    0.0635700000000000 O
