H8 C12 N6
1.0
  11.0892966765623058    0.0000000000000000   -0.2448738842429303
  -0.0000249479497339   16.1829999605437784   -0.0011297865304829
   0.0000000000000000    0.0000000000000000   17.9869999999999983
H C N
8 12 6
direct
   0.1818900000000000    0.0000000000000000    0.8081100000000000 H
   0.8091500000000000    0.9999800000000000    0.8010100000000000 H
   0.1921900000000000    0.9999900000000000    0.6681000000000000 H
   0.8028000000000000    0.9999900000000000    0.6607000000000000 H
   0.8181200000000000    0.0000100000000000    0.1918900000000000 H
   0.1908700000000000    0.0000000000000000    0.1990000000000000 H
   0.8078300000000000    0.0000100000000000    0.3319000000000000 H
   0.1972000000000000    0.9999900000000000    0.3393000000000000 H
   0.1007800000000000    0.9999700000000000    0.7727800000000000 C
   0.8912500000000000    0.0000000000000000    0.7687900000000000 C
   0.1058800000000000    0.0000100000000000    0.6956700000000000 C
   0.9976699999999999    0.0000300000000000    0.6537700000000000 C
   0.8883000000000000    0.9999700000000000    0.6915300000000000 C
   0.9988899999999999    0.9999700000000000    0.5717900000000000 C
   0.8992400000000000    0.9999900000000000    0.2272200000000000 C
   0.1087600000000000    0.0000200000000000    0.2312100000000000 C
   0.8941400000000000    0.0000300000000000    0.3043300000000000 C
   0.0023400000000000    0.0000200000000000    0.3462300000000000 C
   0.1117100000000000    0.9999700000000000    0.3084700000000000 C
   0.0011200000000000    0.9999500000000000    0.4282100000000000 C
   0.9954700000000000    0.9999800000000000    0.8086600000000000 N
   0.1075200000000000    0.9999600000000000    0.5389000000000000 N
   0.8913500000000000    0.0000200000000000    0.5346900000000000 N
   0.0045500000000000    0.9999900000000000    0.1913400000000000 N
   0.8925000000000000    0.9999900000000000    0.4610900000000000 N
   0.1086600000000000    0.9999900000000000    0.4653000000000000 N
