H12 O8
1.0
  11.0892966765623058    0.0000000000000000   -0.2448738842429303
  -0.0000249479497339   16.1829999605437784   -0.0011297865304829
   0.0000000000000000    0.0000000000000000   17.9869999999999983
H O
12 8
direct
   1.1502207172692056    0.1106784209252112    0.8892650044073525 H
   0.1657815121204450    0.1093693792500409    0.1113019917398799 H
   1.1668715634433082    0.1161818640773659    1.0006499074405024 H
  -0.1501726784267553    0.1106854612647899    0.1106968116988417 H
   0.8342077601201484    0.1093684368278351    0.8886626836828049 H
  -0.1668554425000190    0.1161865435424575   -0.0006984593369763 H
   1.1502374922496559   -0.1106812113381681    0.8892702596962676 H
   0.1657805234310451   -0.1093374031371768    0.1112980642883125 H
   1.1668869649657174   -0.1161713724871014    1.0006499930901378 H
  -0.1501940088430743   -0.1106626207498095    0.1106929156209810 H
   0.8342026922676157   -0.1093644452668652    0.8886634306816024 H
  -0.1668728344368108   -0.1161749184481599   -0.0006985049299360 H
   1.1254200000000001    0.0907700000000000    0.9374400000000001 O
   0.1344800000000000    0.0901800000000000    0.0635700000000000 O
  -0.1253800000000000    0.0907700000000000    0.0625200000000000 O
   0.8655200000000000    0.0901800000000000    0.9363899999999999 O
   1.1254200000000001   -0.0907600000000000    0.9374400000000001 O
   0.1344700000000000   -0.0901500000000000    0.0635700000000000 O
  -0.1253900000000001   -0.0907500000000000    0.0625200000000000 O
   0.8655200000000000   -0.0901700000000000    0.9363899999999999 O
