H2 C8 O6
1.0
  26.3676180568015930    0.0000000000000000   -9.4799323842857994
  -7.4596535853363708   14.4952997243451573   -4.0053992670116392
   0.0000000000000000    0.0000000000000000   33.6360000000000028
H C O
2 8 6
direct
   0.0738800000000000    0.4486800000000000    0.2558800000000000 H
   0.9261500000000000    0.5513600000000000    0.2441000000000000 H
   0.1198700000000000    0.6232900000000000    0.3096750000000000 C
   0.0579850000000000    0.5628600000000000    0.2792400000000000 C
   0.0160250000000000    0.5936200000000000    0.2765500000000000 C
   0.0409650000000000    0.4706200000000000    0.2529700000000000 C
   0.8801600000000001    0.3767400000000000    0.1903500000000000 C
   0.9420450000000000    0.4371700000000000    0.2207700000000000 C
   0.9840050000000000    0.4064100000000000    0.2234500000000000 C
   0.9590650000000001    0.5294200000000000    0.2470450000000000 C
   0.0295400000000000    0.6811199999999999    0.3018800000000000 O
   0.1422900000000000    0.7112300000000000    0.3265400000000000 O
   0.1505800000000000    0.5813600000000000    0.3178100000000000 O
   0.9704900000000001    0.3189200000000000    0.1981350000000000 O
   0.8577399999999999    0.2888000000000000    0.1734650000000000 O
   0.8494500000000000    0.4186700000000000    0.1822000000000000 O
