Zn32 H146 C264 N32 O142
1.0
  26.3676180568015930    0.0000000000000000   -9.4799323842857994
  -7.4596535853363708   14.4952997243451573   -4.0053992670116392
   0.0000000000000000    0.0000000000000000   33.6360000000000028
Zn H C N O
32 146 264 32 142
direct
   0.8938600000000000    0.2029100000000000    0.1692250000000000 Zn
   0.0200100000000000    0.2749900000000000    0.1799600000000000 Zn
   0.4800200000000000    0.7250600000000000    0.3200500000000000 Zn
   0.2299250000000000    0.6394100000000000    0.3624150000000000 Zn
   0.7701050000000000    0.3606200000000000    0.1375950000000000 Zn
   0.9800200000000000    0.7250600000000000    0.3200500000000000 Zn
   0.5200100000000000    0.2749900000000000    0.1799600000000000 Zn
   0.7299249999999999    0.6394100000000000    0.3624150000000000 Zn
   0.2701050000000000    0.3606200000000000    0.1375950000000000 Zn
   0.0200100000000000    0.2749900000000000    0.6799600000000000 Zn
   0.4800200000000000    0.7250600000000000    0.8200499999999999 Zn
   0.2299250000000000    0.6394100000000000    0.8624149999999999 Zn
   0.7701050000000000    0.3606200000000000    0.6375950000000000 Zn
   0.9800200000000000    0.7250600000000000    0.8200499999999999 Zn
   0.5200100000000000    0.2749900000000000    0.6799600000000000 Zn
   0.7299249999999999    0.6394100000000000    0.8624149999999999 Zn
   0.2701050000000000    0.3606200000000000    0.6375950000000000 Zn
   0.3938600000000000    0.2029100000000000    0.1692250000000000 Zn
   0.8938600000000000    0.2029100000000000    0.6692250000000000 Zn
   0.3938600000000000    0.2029100000000000    0.6692250000000000 Zn
   0.3560750000000000    0.6610600000000000    0.3985200000000000 Zn
   0.8560749999999999    0.6610600000000000    0.8985200000000000 Zn
   0.3560750000000000    0.6610600000000000    0.8985200000000000 Zn
   0.8560749999999999    0.6610600000000000    0.3985200000000000 Zn
   0.1061750000000000    0.7971300000000000    0.3307850000000000 Zn
   0.6061750000000000    0.7971300000000000    0.3307850000000000 Zn
   0.6061750000000000    0.7971300000000000    0.8307850000000000 Zn
   0.1061750000000000    0.7971300000000000    0.8307850000000000 Zn
   0.6439550000000001    0.3389700000000000    0.6014900000000000 Zn
   0.1439550000000000    0.3389700000000000    0.6014900000000000 Zn
   0.1439550000000000    0.3389700000000000    0.1014900000000000 Zn
   0.6439550000000001    0.3389700000000000    0.1014900000000000 Zn
   0.0114550000000000    0.8802400000000000    0.5627800000000001 H
   0.0727300000000000    0.7509100000000000    0.4783750000000000 H
   0.9711449999999999    0.6556999999999999    0.4167850000000000 H
   0.9119500000000000    0.7758100000000000    0.4990500000000000 H
   0.2384350000000000    0.8739200000000000    0.5597500000000000 H
   0.1772000000000000    0.0430300000000000    0.6243650000000001 H
   0.2788000000000000    0.1663200000000000    0.6719250000000000 H
   0.3379650000000000    0.0014900000000000    0.6119150000000000 H
   0.5114550000000000    0.8802400000000000    0.5627800000000001 H
   0.5727300000000000    0.7509100000000000    0.4783750000000000 H
   0.4711450000000000    0.6556999999999999    0.4167850000000000 H
   0.4119500000000000    0.7758100000000000    0.4990500000000000 H
   0.7384350000000000    0.8739200000000000    0.5597500000000000 H
   0.6772000000000000    0.0430300000000000    0.6243650000000001 H
   0.7787999999999999    0.1663200000000000    0.6719250000000000 H
   0.8379650000000001    0.0014900000000000    0.6119150000000000 H
   0.0114550000000000    0.8802400000000000    0.0627800000000000 H
   0.0727300000000000    0.7509100000000000    0.9783750000000000 H
   0.9711449999999999    0.6556999999999999    0.9167850000000000 H
   0.9119500000000000    0.7758100000000000    0.9990500000000000 H
   0.2384350000000000    0.8739200000000000    0.0597500000000000 H
   0.1772000000000000    0.0430300000000000    0.1243650000000000 H
   0.2788000000000000    0.1663200000000000    0.1719250000000000 H
   0.3379650000000000    0.0014900000000000    0.1119150000000000 H
   0.4885850000000000    0.1197900000000000    0.4372300000000000 H
   0.4273050000000000    0.2491000000000000    0.5216350000000000 H
   0.5288800000000000    0.3443200000000000    0.5832250000000000 H
   0.5880850000000000    0.2242400000000000    0.5009600000000000 H
   0.2616050000000000    0.1261300000000000    0.4402500000000000 H
   0.3228300000000000    0.9570000000000000    0.3756450000000000 H
   0.2212300000000000    0.8337100000000000    0.3280500000000000 H
   0.1620700000000000    0.9985600000000000    0.3880900000000000 H
   0.4885850000000000    0.1197900000000000    0.9372300000000000 H
   0.4273050000000000    0.2491000000000000    0.0216350000000000 H
   0.5288800000000000    0.3443200000000000    0.0832250000000000 H
   0.5880850000000000    0.2242400000000000    0.0009600000000000 H
   0.2616050000000000    0.1261300000000000    0.9402500000000000 H
   0.3228300000000000    0.9570000000000000    0.8756450000000000 H
   0.2212300000000000    0.8337100000000000    0.8280500000000000 H
   0.1620700000000000    0.9985600000000000    0.8880900000000000 H
   0.9885850000000000    0.1197900000000000    0.9372300000000000 H
   0.9273050000000000    0.2491000000000000    0.0216350000000000 H
   0.0288800000000000    0.3443200000000000    0.0832250000000000 H
   0.0880850000000000    0.2242400000000000    0.0009600000000000 H
   0.7616050000000000    0.1261300000000000    0.9402500000000000 H
   0.8228300000000000    0.9570000000000000    0.8756450000000000 H
   0.7212300000000000    0.8337100000000000    0.8280500000000000 H
   0.6620699999999999    0.9985600000000000    0.8880900000000000 H
   0.9885850000000000    0.1197900000000000    0.4372300000000000 H
   0.9273050000000000    0.2491000000000000    0.5216350000000000 H
   0.0288800000000000    0.3443200000000000    0.5832250000000000 H
   0.0880850000000000    0.2242400000000000    0.5009600000000000 H
   0.7616050000000000    0.1261300000000000    0.4402500000000000 H
   0.8228300000000000    0.9570000000000000    0.3756450000000000 H
   0.7212300000000000    0.8337100000000000    0.3280500000000000 H
   0.6620699999999999    0.9985600000000000    0.3880900000000000 H
   0.9001539954655492    0.8291476830331816    0.9352566755968390 H
   0.7450202114937248    0.8005124874520423    0.9043395470991783 H
   0.8226281431057232    0.8261659344299087    0.9221863671147941 H
   0.3136700000000000    0.0410700000000000    0.0316950000000000 H
   0.2470800000000000    0.8374000000000000    0.9308200000000000 H
   0.4362350000000000    0.9363899999999999    0.9792500000000000 H
   0.5028000000000000    0.1380500000000000    0.0811100000000000 H
   0.8136700000000000    0.0410700000000000    0.5316950000000000 H
   0.7470800000000000    0.8374000000000000    0.4308200000000000 H
   0.9362349999999999    0.9363899999999999    0.4792500000000000 H
   0.0028000000000000    0.1380500000000000    0.5811100000000000 H
   0.3136700000000000    0.0410700000000000    0.5316950000000000 H
   0.2470800000000000    0.8374000000000000    0.4308200000000000 H
   0.4362350000000000    0.9363899999999999    0.4792500000000000 H
   0.5028000000000000    0.1380500000000000    0.5811100000000000 H
   0.6863600000000000    0.9589700000000000    0.9683150000000000 H
   0.7529500000000000    0.1626400000000000    0.0691950000000000 H
   0.5637950000000000    0.0636400000000000    0.0207650000000000 H
   0.4972300000000000    0.8619800000000000    0.9189000000000001 H
   0.1863600000000000    0.9589700000000000    0.9683150000000000 H
   0.2529500000000000    0.1626400000000000    0.0691950000000000 H
   0.0637950000000000    0.0636400000000000    0.0207650000000000 H
   0.9972300000000001    0.8619800000000000    0.9189000000000001 H
   0.1863600000000000    0.9589700000000000    0.4683150000000000 H
   0.2529500000000000    0.1626400000000000    0.5691950000000000 H
   0.0637950000000000    0.0636400000000000    0.5207650000000000 H
   0.9972300000000001    0.8619800000000000    0.4189000000000000 H
   0.6863600000000000    0.9589700000000000    0.4683150000000000 H
   0.7529500000000000    0.1626400000000000    0.5691950000000000 H
   0.5637950000000000    0.0636400000000000    0.5207650000000000 H
   0.4972300000000000    0.8619800000000000    0.4189000000000000 H
   0.9257850000000001    0.8918700000000001    0.7620150000000000 H
   0.8958450000000000    0.0477600000000000    0.7152900000000000 H
   0.0742500000000000    0.1081700000000000    0.7379900000000000 H
   0.1041900000000000    0.9522699999999999    0.7847150000000001 H
   0.4257850000000000    0.8918700000000001    0.7620150000000000 H
   0.3958450000000000    0.0477600000000000    0.7152900000000000 H
   0.5742500000000000    0.1081700000000000    0.7379900000000000 H
   0.6041900000000000    0.9522699999999999    0.7847150000000001 H
   0.5742500000000000    0.1081700000000000    0.2379900000000000 H
   0.6041900000000000    0.9522699999999999    0.2847150000000000 H
   0.4257850000000000    0.8918700000000001    0.2620150000000000 H
   0.3958450000000000    0.0477600000000000    0.2152900000000000 H
   0.0742500000000000    0.1081700000000000    0.2379900000000000 H
   0.1041900000000000    0.9522699999999999    0.2847150000000000 H
   0.9257850000000001    0.8918700000000001    0.2620150000000000 H
   0.8958450000000000    0.0477600000000000    0.2152900000000000 H
   0.8244000000000000    0.4764000000000000    0.0542150000000000 H
   0.8541750000000000    0.5694300000000000    0.9762150000000001 H
   0.6756350000000000    0.5236200000000000    0.9457949999999999 H
   0.6458600000000000    0.4305800000000000    0.0237500000000000 H
   0.3244000000000000    0.4764000000000000    0.0542150000000000 H
   0.3541750000000000    0.5694300000000000    0.9762150000000001 H
   0.1756350000000000    0.5236200000000000    0.9457949999999999 H
   0.1458600000000000    0.4305800000000000    0.0237500000000000 H
   0.3239600000000000    0.5129500000000000    0.2244100000000000 H
   0.1760700000000000    0.4870900000000000    0.2756000000000000 H
   0.9540251059393009    0.2077135677927826    0.1237612364159246 H
   0.8597541476002790    0.1628622486264223    0.1118702600386102 H
   0.5114550000000000    0.8802400000000000    0.0627800000000000 H
   0.5727300000000000    0.7509100000000000    0.9783750000000000 H
   0.4711450000000000    0.6556999999999999    0.9167850000000000 H
   0.4119500000000000    0.7758100000000000    0.9990500000000000 H
   0.7384350000000000    0.8739200000000000    0.0597500000000000 H
   0.6772000000000000    0.0430300000000000    0.1243650000000000 H
   0.7787999999999999    0.1663200000000000    0.1719250000000000 H
   0.7847754257191606    0.2175976778682171    0.1522351517485215 H
   0.8379650000000001    0.0014900000000000    0.1119150000000000 H
   0.0738800000000000    0.4486800000000000    0.2558800000000000 H
   0.9261500000000000    0.5513600000000000    0.2441000000000000 H
   0.8239600000000000    0.5129500000000000    0.2244100000000000 H
   0.6760699999999999    0.4870900000000000    0.2756000000000000 H
   0.5738799999999999    0.4486800000000000    0.2558800000000000 H
   0.4261500000000000    0.5513600000000000    0.2441000000000000 H
   0.3244000000000000    0.4764000000000000    0.5542150000000000 H
   0.3541750000000000    0.5694300000000000    0.4762150000000000 H
   0.1756350000000000    0.5236200000000000    0.4457950000000000 H
   0.1458600000000000    0.4305800000000000    0.5237500000000000 H
   0.8244000000000000    0.4764000000000000    0.5542150000000000 H
   0.8541750000000000    0.5694300000000000    0.4762150000000000 H
   0.6756350000000000    0.5236200000000000    0.4457950000000000 H
   0.6458600000000000    0.4305800000000000    0.5237500000000000 H
   0.3239600000000000    0.5129500000000000    0.7244100000000000 H
   0.1760700000000000    0.4870900000000000    0.7756000000000001 H
   0.0738800000000000    0.4486800000000000    0.7558800000000000 H
   0.9261500000000000    0.5513600000000000    0.7441000000000000 H
   0.8239600000000000    0.5129500000000000    0.7244100000000000 H
   0.6760699999999999    0.4870900000000000    0.7756000000000001 H
   0.5738799999999999    0.4486800000000000    0.7558800000000000 H
   0.4261500000000000    0.5513600000000000    0.7441000000000000 H
   0.0036300000000000    0.8294000000000000    0.5312500000000000 C
   0.0379700000000000    0.7573500000000000    0.4840600000000000 C
   0.9818800000000000    0.7041900000000000    0.4501600000000000 C
   0.9486200000000000    0.7721400000000000    0.4958800000000000 C
   0.0495000000000000    0.8233600000000000    0.5251650000000000 C
   0.2462650000000000    0.9370800000000000    0.5851500000000001 C
   0.2119550000000000    0.0316200000000000    0.6211450000000001 C
   0.2680650000000000    0.0994800000000000    0.6476999999999999 C
   0.3013000000000000    0.0078800000000000    0.6137500000000000 C
   0.2004050000000000    0.9493200000000001    0.5881600000000000 C
   0.5036300000000000    0.8294000000000000    0.5312500000000000 C
   0.5379699999999999    0.7573500000000000    0.4840600000000000 C
   0.4818800000000000    0.7041900000000000    0.4501600000000000 C
   0.4486200000000000    0.7721400000000000    0.4958800000000000 C
   0.5495000000000000    0.8233600000000000    0.5251650000000000 C
   0.7462650000000000    0.9370800000000000    0.5851500000000001 C
   0.7119550000000000    0.0316200000000000    0.6211450000000001 C
   0.7680650000000000    0.0994800000000000    0.6476999999999999 C
   0.8013000000000000    0.0078800000000000    0.6137500000000000 C
   0.7004049999999999    0.9493200000000001    0.5881600000000000 C
   0.0036300000000000    0.8294000000000000    0.0312500000000000 C
   0.0379700000000000    0.7573500000000000    0.9840599999999999 C
   0.9818800000000000    0.7041900000000000    0.9501600000000000 C
   0.9486200000000000    0.7721400000000000    0.9958800000000000 C
   0.0495000000000000    0.8233600000000000    0.0251650000000000 C
   0.2462650000000000    0.9370800000000000    0.0851500000000000 C
   0.2119550000000000    0.0316200000000000    0.1211450000000000 C
   0.2680650000000000    0.0994800000000000    0.1477000000000000 C
   0.3013000000000000    0.0078800000000000    0.1137500000000000 C
   0.2004050000000000    0.9493200000000001    0.0881600000000000 C
   0.4964050000000000    0.1706300000000000    0.4687650000000000 C
   0.4620600000000000    0.2426700000000000    0.5159500000000000 C
   0.5181550000000000    0.2958400000000000    0.5498499999999999 C
   0.5514150000000000    0.2279000000000000    0.5041350000000000 C
   0.4505350000000000    0.1766700000000000    0.4748450000000000 C
   0.2537700000000000    0.0629700000000000    0.4148550000000000 C
   0.2880800000000000    0.9684199999999999    0.3788650000000000 C
   0.2319700000000000    0.9005500000000000    0.3523100000000000 C
   0.1987350000000000    0.9921600000000000    0.3862500000000000 C
   0.2996300000000000    0.0507200000000000    0.4118450000000000 C
   0.4964050000000000    0.1706300000000000    0.9687650000000000 C
   0.4620600000000000    0.2426700000000000    0.0159500000000000 C
   0.5181550000000000    0.2958400000000000    0.0498500000000000 C
   0.5514150000000000    0.2279000000000000    0.0041350000000000 C
   0.4505350000000000    0.1766700000000000    0.9748450000000000 C
   0.2537700000000000    0.0629700000000000    0.9148550000000000 C
   0.2880800000000000    0.9684199999999999    0.8788650000000000 C
   0.2319700000000000    0.9005500000000000    0.8523100000000000 C
   0.1987350000000000    0.9921600000000000    0.8862500000000000 C
   0.2996300000000000    0.0507200000000000    0.9118450000000000 C
   0.9964050000000000    0.1706300000000000    0.9687650000000000 C
   0.9620600000000000    0.2426700000000000    0.0159500000000000 C
   0.0181550000000000    0.2958400000000000    0.0498500000000000 C
   0.0514150000000000    0.2279000000000000    0.0041350000000000 C
   0.9505350000000000    0.1766700000000000    0.9748450000000000 C
   0.7537700000000001    0.0629700000000000    0.9148550000000000 C
   0.7880800000000000    0.9684199999999999    0.8788650000000000 C
   0.7319700000000000    0.9005500000000000    0.8523100000000000 C
   0.6987350000000000    0.9921600000000000    0.8862500000000000 C
   0.7996300000000001    0.0507200000000000    0.9118450000000000 C
   0.9964050000000000    0.1706300000000000    0.4687650000000000 C
   0.9620600000000000    0.2426700000000000    0.5159500000000000 C
   0.0181550000000000    0.2958400000000000    0.5498499999999999 C
   0.0514150000000000    0.2279000000000000    0.5041350000000000 C
   0.9505350000000000    0.1766700000000000    0.4748450000000000 C
   0.7537700000000001    0.0629700000000000    0.4148550000000000 C
   0.7880800000000000    0.9684199999999999    0.3788650000000000 C
   0.7319700000000000    0.9005500000000000    0.3523100000000000 C
   0.6987350000000000    0.9921600000000000    0.3862500000000000 C
   0.7996300000000001    0.0507200000000000    0.4118450000000000 C
   0.4240750000000000    0.1452700000000000    0.0908700000000000 C
   0.3258400000000000    0.8179700000000000    0.9271400000000001 C
   0.3403600000000000    0.0176000000000000    0.0201850000000000 C
   0.3147000000000000    0.9378700000000000    0.9803550000000000 C
   0.3998350000000000    0.0673800000000000    0.0461900000000000 C
   0.4095400000000000    0.9593500000000000    0.9910050000000000 C
   0.4351950000000000    0.0389700000000000    0.0308850000000000 C
   0.3500650000000000    0.9073099999999999    0.9661250000000000 C
   0.9240750000000000    0.1452700000000000    0.5908700000000000 C
   0.8258400000000000    0.8179700000000000    0.4271400000000000 C
   0.8403600000000000    0.0176000000000000    0.5201850000000000 C
   0.8147000000000000    0.9378700000000000    0.4803550000000000 C
   0.8998349999999999    0.0673800000000000    0.5461900000000000 C
   0.9095400000000000    0.9593500000000000    0.4910050000000000 C
   0.9351950000000000    0.0389700000000000    0.5308850000000001 C
   0.8500650000000001    0.9073099999999999    0.4661250000000000 C
   0.4240750000000000    0.1452700000000000    0.5908700000000000 C
   0.3258400000000000    0.8179700000000000    0.4271400000000000 C
   0.3403600000000000    0.0176000000000000    0.5201850000000000 C
   0.3147000000000000    0.9378700000000000    0.4803550000000000 C
   0.3998350000000000    0.0673800000000000    0.5461900000000000 C
   0.4095400000000000    0.9593500000000000    0.4910050000000000 C
   0.4351950000000000    0.0389700000000000    0.5308850000000001 C
   0.3500650000000000    0.9073099999999999    0.4661250000000000 C
   0.5759500000000000    0.8547800000000000    0.9091350000000000 C
   0.6741900000000001    0.1820800000000000    0.0728600000000000 C
   0.6596700000000000    0.9824400000000000    0.9798300000000000 C
   0.6853250000000000    0.0621700000000000    0.0196550000000000 C
   0.6001950000000000    0.9326500000000000    0.9538249999999999 C
   0.5904850000000000    0.0406700000000000    0.0090100000000000 C
   0.5648299999999999    0.9610600000000000    0.9691250000000000 C
   0.6499650000000000    0.0927200000000000    0.0338950000000000 C
   0.0759500000000000    0.8547800000000000    0.9091350000000000 C
   0.1741900000000000    0.1820800000000000    0.0728600000000000 C
   0.1596700000000000    0.9824400000000000    0.9798300000000000 C
   0.1853250000000000    0.0621700000000000    0.0196550000000000 C
   0.1001950000000000    0.9326500000000000    0.9538249999999999 C
   0.0904850000000000    0.0406700000000000    0.0090100000000000 C
   0.0648300000000000    0.9610600000000000    0.9691250000000000 C
   0.1499650000000000    0.0927200000000000    0.0338950000000000 C
   0.0759500000000000    0.8547800000000000    0.4091350000000000 C
   0.1741900000000000    0.1820800000000000    0.5728600000000000 C
   0.1596700000000000    0.9824400000000000    0.4798300000000000 C
   0.1853250000000000    0.0621700000000000    0.5196550000000000 C
   0.1001950000000000    0.9326500000000000    0.4538250000000000 C
   0.0904850000000000    0.0406700000000000    0.5090100000000000 C
   0.0648300000000000    0.9610600000000000    0.4691250000000000 C
   0.1499650000000000    0.0927200000000000    0.5338950000000000 C
   0.5759500000000000    0.8547800000000000    0.4091350000000000 C
   0.6741900000000001    0.1820800000000000    0.5728600000000000 C
   0.6596700000000000    0.9824400000000000    0.4798300000000000 C
   0.6853250000000000    0.0621700000000000    0.5196550000000000 C
   0.6001950000000000    0.9326500000000000    0.4538250000000000 C
   0.5904850000000000    0.0406700000000000    0.5090100000000000 C
   0.5648299999999999    0.9610600000000000    0.4691250000000000 C
   0.6499650000000000    0.0927200000000000    0.5338950000000000 C
   0.9795050000000001    0.1287200000000000    0.7113000000000000 C
   0.0205350000000000    0.8713200000000000    0.7887100000000000 C
   0.9582250000000000    0.9394700000000000    0.7567150000000000 C
   0.9465700000000000    0.0000000000000000    0.7382000000000000 C
   0.0107850000000000    0.9376500000000000    0.7686800000000000 C
   0.0418150000000000    0.0605600000000000    0.7432900000000000 C
   0.0534700000000000    0.9993500000000000    0.7618050000000001 C
   0.9892550000000000    0.0623800000000000    0.7313250000000000 C
   0.4795050000000000    0.1287200000000000    0.7113000000000000 C
   0.5205350000000000    0.8713200000000000    0.7887100000000000 C
   0.4582250000000000    0.9394700000000000    0.7567150000000000 C
   0.4465700000000000    0.0000000000000000    0.7382000000000000 C
   0.5107850000000000    0.9376500000000000    0.7686800000000000 C
   0.5418150000000000    0.0605600000000000    0.7432900000000000 C
   0.5534700000000000    0.9993500000000000    0.7618050000000001 C
   0.4892550000000000    0.0623800000000000    0.7313250000000000 C
   0.4795050000000000    0.1287200000000000    0.2113000000000000 C
   0.5205350000000000    0.8713200000000000    0.2887100000000000 C
   0.5418150000000000    0.0605600000000000    0.2432900000000000 C
   0.5534700000000000    0.9993500000000000    0.2618050000000000 C
   0.4892550000000000    0.0623800000000000    0.2313250000000000 C
   0.4582250000000000    0.9394700000000000    0.2567150000000000 C
   0.4465700000000000    0.0000000000000000    0.2382000000000000 C
   0.5107850000000000    0.9376500000000000    0.2686800000000000 C
   0.9795050000000001    0.1287200000000000    0.2113000000000000 C
   0.0205350000000000    0.8713200000000000    0.2887100000000000 C
   0.0418150000000000    0.0605600000000000    0.2432900000000000 C
   0.0534700000000000    0.9993500000000000    0.2618050000000000 C
   0.9892550000000000    0.0623800000000000    0.2313250000000000 C
   0.9582250000000000    0.9394700000000000    0.2567150000000000 C
   0.9465700000000000    0.0000000000000000    0.2382000000000000 C
   0.0107850000000000    0.9376500000000000    0.2686800000000000 C
   0.7704200000000000    0.5770999999999999    0.9356150000000000 C
   0.7296000000000000    0.4228700000000000    0.0643750000000000 C
   0.7918950000000000    0.4868100000000000    0.0303500000000000 C
   0.8034850000000000    0.5236800000000000    0.9997000000000000 C
   0.7393100000000000    0.4628500000000000    0.0312200000000000 C
   0.7081350000000000    0.5132100000000001    0.9696549999999999 C
   0.6965450000000000    0.4763300000000000    0.0000000000000000 C
   0.7607300000000000    0.5372000000000000    0.9688000000000000 C
   0.2704200000000000    0.5770999999999999    0.9356150000000000 C
   0.2296000000000000    0.4228700000000000    0.0643750000000000 C
   0.2918950000000000    0.4868100000000000    0.0303500000000000 C
   0.3034850000000000    0.5236800000000000    0.9997000000000000 C
   0.2393100000000000    0.4628500000000000    0.0312200000000000 C
   0.2081350000000000    0.5132100000000001    0.9696549999999999 C
   0.1965450000000000    0.4763300000000000    0.0000000000000000 C
   0.2607300000000000    0.5372000000000000    0.9688000000000000 C
   0.3698600000000000    0.6193300000000000    0.3117800000000000 C
   0.1301700000000000    0.3807200000000000    0.1882300000000000 C
   0.2910200000000000    0.5066200000000000    0.2353500000000000 C
   0.2340650000000000    0.4475900000000000    0.2031800000000000 C
   0.3079750000000000    0.5585000000000000    0.2814950000000000 C
   0.2090100000000000    0.4934300000000000    0.2646600000000000 C
   0.2659600000000000    0.5524500000000000    0.2968300000000000 C
   0.1920550000000000    0.4415400000000000    0.2185150000000000 C
   0.5036300000000000    0.8294000000000000    0.0312500000000000 C
   0.5379699999999999    0.7573500000000000    0.9840599999999999 C
   0.4818800000000000    0.7041900000000000    0.9501600000000000 C
   0.4486200000000000    0.7721400000000000    0.9958800000000000 C
   0.5495000000000000    0.8233600000000000    0.0251650000000000 C
   0.7462650000000000    0.9370800000000000    0.0851500000000000 C
   0.7119550000000000    0.0316200000000000    0.1211450000000000 C
   0.7680650000000000    0.0994800000000000    0.1477000000000000 C
   0.8013000000000000    0.0078800000000000    0.1137500000000000 C
   0.7004049999999999    0.9493200000000001    0.0881600000000000 C
   0.1198700000000000    0.6232900000000000    0.3096750000000000 C
   0.8801600000000001    0.3767400000000000    0.1903500000000000 C
   0.0409650000000000    0.4706200000000000    0.2529700000000000 C
   0.9840050000000000    0.4064100000000000    0.2234500000000000 C
   0.0579850000000000    0.5628600000000000    0.2792400000000000 C
   0.9590650000000001    0.5294200000000000    0.2470450000000000 C
   0.0160250000000000    0.5936200000000000    0.2765500000000000 C
   0.9420450000000000    0.4371700000000000    0.2207700000000000 C
   0.8698600000000001    0.6193300000000000    0.3117800000000000 C
   0.6301700000000000    0.3807200000000000    0.1882300000000000 C
   0.7910200000000001    0.5066200000000000    0.2353500000000000 C
   0.7340650000000000    0.4475900000000000    0.2031800000000000 C
   0.8079750000000000    0.5585000000000000    0.2814950000000000 C
   0.7090100000000000    0.4934300000000000    0.2646600000000000 C
   0.7659600000000000    0.5524500000000000    0.2968300000000000 C
   0.6920550000000000    0.4415400000000000    0.2185150000000000 C
   0.6198700000000000    0.6232900000000000    0.3096750000000000 C
   0.3801600000000000    0.3767400000000000    0.1903500000000000 C
   0.5409650000000000    0.4706200000000000    0.2529700000000000 C
   0.4840050000000000    0.4064100000000000    0.2234500000000000 C
   0.5579850000000000    0.5628600000000000    0.2792400000000000 C
   0.4590650000000000    0.5294200000000000    0.2470450000000000 C
   0.5160250000000000    0.5936200000000000    0.2765500000000000 C
   0.4420450000000000    0.4371700000000000    0.2207700000000000 C
   0.2704200000000000    0.5770999999999999    0.4356150000000000 C
   0.2296000000000000    0.4228700000000000    0.5643750000000000 C
   0.2918950000000000    0.4868100000000000    0.5303500000000000 C
   0.3034850000000000    0.5236800000000000    0.4997000000000000 C
   0.2393100000000000    0.4628500000000000    0.5312200000000000 C
   0.2081350000000000    0.5132100000000001    0.4696550000000000 C
   0.1965450000000000    0.4763300000000000    0.5000000000000000 C
   0.2607300000000000    0.5372000000000000    0.4688000000000000 C
   0.7704200000000000    0.5770999999999999    0.4356150000000000 C
   0.7296000000000000    0.4228700000000000    0.5643750000000000 C
   0.7918950000000000    0.4868100000000000    0.5303500000000000 C
   0.8034850000000000    0.5236800000000000    0.4997000000000000 C
   0.7393100000000000    0.4628500000000000    0.5312200000000000 C
   0.7081350000000000    0.5132100000000001    0.4696550000000000 C
   0.6965450000000000    0.4763300000000000    0.5000000000000000 C
   0.7607300000000000    0.5372000000000000    0.4688000000000000 C
   0.3698600000000000    0.6193300000000000    0.8117799999999999 C
   0.1301700000000000    0.3807200000000000    0.6882300000000000 C
   0.2910200000000000    0.5066200000000000    0.7353499999999999 C
   0.2340650000000000    0.4475900000000000    0.7031800000000000 C
   0.3079750000000000    0.5585000000000000    0.7814950000000001 C
   0.2090100000000000    0.4934300000000000    0.7646600000000000 C
   0.2659600000000000    0.5524500000000000    0.7968299999999999 C
   0.1920550000000000    0.4415400000000000    0.7185150000000000 C
   0.1198700000000000    0.6232900000000000    0.8096749999999999 C
   0.8801600000000001    0.3767400000000000    0.6903500000000000 C
   0.0409650000000000    0.4706200000000000    0.7529699999999999 C
   0.9840050000000000    0.4064100000000000    0.7234500000000000 C
   0.0579850000000000    0.5628600000000000    0.7792399999999999 C
   0.9590650000000001    0.5294200000000000    0.7470450000000000 C
   0.0160250000000000    0.5936200000000000    0.7765500000000001 C
   0.9420450000000000    0.4371700000000000    0.7207700000000000 C
   0.8698600000000001    0.6193300000000000    0.8117799999999999 C
   0.6301700000000000    0.3807200000000000    0.6882300000000000 C
   0.7910200000000001    0.5066200000000000    0.7353499999999999 C
   0.7340650000000000    0.4475900000000000    0.7031800000000000 C
   0.8079750000000000    0.5585000000000000    0.7814950000000001 C
   0.7090100000000000    0.4934300000000000    0.7646600000000000 C
   0.7659600000000000    0.5524500000000000    0.7968299999999999 C
   0.6920550000000000    0.4415400000000000    0.7185150000000000 C
   0.6198700000000000    0.6232900000000000    0.8096749999999999 C
   0.3801600000000000    0.3767400000000000    0.6903500000000000 C