H4 O2
1.0
  26.3676180568015930    0.0000000000000000   -9.4799323842857994
  -7.4596535853363708   14.4952997243451573   -4.0053992670116392
   0.0000000000000000    0.0000000000000000   33.6360000000000028
H O
4 2
direct
   0.4455647927419863    0.7555042588581667    0.4847312459472211 H
   0.4695706059971456    0.7062739393363714    0.4516071030145375 H
   0.7803727147321831    0.0965716606450219    0.6466565500024124 H
   0.8043580990850711    0.0301987582349042    0.6220562538352041 H
   0.4375200000000000    0.7117000000000000    0.4553750000000000 O
   0.8124150000000000    0.0890000000000000    0.6439400000000000 O
