H5 O3
1.0
  17.1709591119656757    0.0000000000000000    2.0508564491945518
   7.7204139395277878   34.4106173453023416   17.0422077946938089
   0.0000000000000000    0.0000000000000000   15.0410000000000004
H O
5 3
direct
   0.6682249896627942    0.3769657300690577    0.2399766536625741 H
   0.6757060112108806    0.3811383683193876    0.0721140810015152 H
   0.8566690305374182    0.6325077276287262    0.9687155748288593 H
   0.8680031416834747    0.6306579691811973    0.8585061550766939 H
   0.6580502248855017    0.5702001953253569    0.1751053060558607 H
   0.6702700000000000    0.3539733333333333    0.2296600000000000 O
   0.6771700000000000    0.3552333333333333    0.0786500000000000 O
   0.8701600000000000    0.6445633333333334    0.8983900000000000 O
