Zn12 H235 C322 N23 O49
1.0
  17.1709591119656757    0.0000000000000000    2.0508564491945518
   7.7204139395277878   34.4106173453023416   17.0422077946938089
   0.0000000000000000    0.0000000000000000   15.0410000000000004
Zn H C N O
12 235 322 23 49
direct
   0.3970300000000000    0.3659066666666667    0.8199100000000000 Zn
   0.6532000000000000    0.6369333333333334    0.1815900000000000 Zn
   0.8970399999999999    0.6992400000000000    0.8199100000000000 Zn
   0.1531900000000000    0.9702666666666666    0.1815900000000000 Zn
   0.3970300000000000    0.0325733333333333    0.8199100000000000 Zn
   0.6532000000000000    0.3036000000000000    0.1815900000000000 Zn
   0.8970399999999999    0.3659066666666667    0.8199100000000000 Zn
   0.1531900000000000    0.6369333333333334    0.1815900000000000 Zn
   0.8970399999999999    0.0325733333333333    0.8199100000000000 Zn
   0.1531900000000000    0.3036000000000000    0.1815900000000000 Zn
   0.3970300000000000    0.6992400000000000    0.8199100000000000 Zn
   0.6532000000000000    0.9702666666666666    0.1815900000000000 Zn
   0.6682249896627942    0.3769657300690577    0.2399766536625741 H
   0.8566690305374182    0.6325077276287262    0.9687155748288593 H
   0.8680031416834747    0.6306579691811973    0.8585061550766939 H
   0.5981500000000000    0.5191933333333333    0.1647600000000000 H
   0.6580502248855017    0.5702001953253569    0.1751053060558607 H
   0.6409100000000000    0.5589800000000000    0.2327700000000000 H
   0.6047800000000000    0.6565299999999999    0.9655100000000000 H
   0.5606500000000000    0.6214666666666666    0.8852500000000000 H
   0.5345900000000000    0.5621499999999999    0.8934299999999999 H
   0.5513400000000001    0.4927133333333333    0.0982300000000000 H
   0.4572500000000000    0.4892900000000000    0.7623300000000000 H
   0.5060800000000000    0.5291166666666667    0.8246400000000000 H
   0.4606400000000000    0.3984833333333333    0.0556100000000000 H
   0.5094400000000000    0.4378700000000000    0.1200500000000000 H
   0.5228000000000000    0.3542766666666666    0.4888200000000000 H
   0.6513000000000000    0.3476600000000000    0.3985000000000000 H
   0.7753000000000000    0.3333333333333333    0.6465900000000000 H
   0.6453700000000000    0.3422500000000000    0.7358800000000000 H
   0.7658199999999999    0.3333333333333333    0.3407800000000000 H
   0.8515400000000000    0.3321900000000000    0.5127000000000000 H
   0.8472700000000000    0.3333333333333333    0.1973000000000000 H
   0.9661500000000000    0.3040466666666666    0.4708000000000000 H
   0.0944900000000000    0.2925566666666666    0.3849400000000000 H
   0.9808800000000000    0.3269800000000000    0.1217500000000000 H
   0.7124300000000000    0.7410200000000000    0.2394500000000000 H
   0.7588600000000000    0.8024899999999999    0.1762800000000000 H
   0.7102600000000000    0.7504733333333333    0.9445100000000000 H
   0.7564000000000000    0.8122833333333332    0.8791700000000000 H
   0.7911700000000000    0.8575166666666666    0.1088400000000000 H
   0.7959300000000000    0.8605366666666666    0.9001000000000000 H
   0.8145700000000000    0.9142500000000000    0.1182800000000000 H
   0.8443400000000000    0.9094233333333333    0.8329900000000000 H
   0.8832000000000000    0.9730966666666666    0.7651800000000000 H
   0.8534300000000000    0.9776199999999999    0.0378000000000000 H
   0.7732700000000000    0.5172300000000000    0.5117000000000000 H
   0.8997900000000000    0.4812600000000000    0.6027500000000000 H
   0.9013000000000000    0.5854933333333333    0.2619000000000000 H
   0.0292700000000000    0.5501366666666667    0.3518400000000000 H
   0.0129200000000000    0.4484566666666666    0.6604800000000000 H
   0.1024700000000000    0.5028266666666666    0.4871700000000000 H
   0.0913700000000000    0.4059500000000000    0.8039600000000000 H
   0.2160400000000000    0.4616200000000000    0.5307500000000001 H
   0.3426100000000000    0.4220466666666666    0.6171100000000000 H
   0.2234800000000000    0.3689800000000000    0.8801500000000000 H
   0.0981500000000000    0.8525266666666667    0.1647000000000000 H
   0.1408900000000000    0.8923133333333333    0.2327700000000000 H
   0.1047600000000000    0.9898633333333333    0.9655200000000000 H
   0.0606400000000000    0.9547999999999999    0.8852500000000000 H
   0.0345900000000000    0.8954833333333333    0.8934299999999999 H
   0.0513300000000000    0.8260500000000000    0.0982300000000000 H
   0.9572600000000000    0.8226233333333333    0.7623300000000000 H
   0.0060700000000000    0.8624499999999999    0.8246000000000000 H
   0.9606500000000000    0.7318166666666667    0.0556100000000000 H
   0.0094300000000000    0.7712033333333332    0.1200500000000000 H
   0.0228000000000000    0.6876066666666666    0.4888300000000000 H
   0.1513000000000000    0.6809900000000000    0.3985500000000000 H
   0.2752900000000000    0.6666666666666666    0.6465900000000000 H
   0.1453700000000000    0.6755866666666667    0.7358800000000000 H
   0.2658100000000000    0.6666666666666666    0.3407800000000000 H
   0.3515400000000000    0.6655233333333332    0.5127000000000000 H
   0.3472600000000000    0.6666666666666666    0.1973000000000000 H
   0.4661400000000000    0.6373799999999999    0.4708000000000000 H
   0.5945100000000000    0.6258899999999999    0.3849400000000000 H
   0.4808600000000000    0.6603100000000000    0.1217500000000000 H
   0.2124200000000000    0.0743533333333333    0.2394500000000000 H
   0.2588500000000000    0.1358233333333333    0.1762800000000000 H
   0.2102500000000000    0.0838066666666667    0.9445100000000000 H
   0.2563900000000000    0.1456166666666667    0.8791700000000000 H
   0.2911600000000000    0.1908500000000000    0.1088000000000000 H
   0.2959200000000000    0.1938700000000000    0.9001000000000000 H
   0.3145500000000000    0.2475866666666666    0.1182800000000000 H
   0.3443200000000000    0.2427566666666666    0.8329900000000000 H
   0.3831800000000000    0.3064300000000000    0.7651800000000000 H
   0.3534100000000000    0.3109533333333333    0.0378500000000000 H
   0.4012900000000000    0.9188266666666667    0.2619000000000000 H
   0.2732600000000000    0.8505666666666666    0.5117300000000000 H
   0.3997800000000000    0.8145933333333333    0.6027500000000000 H
   0.5292800000000000    0.8834700000000000    0.3518000000000000 H
   0.5129300000000000    0.7817833333333333    0.6604700000000000 H
   0.6024800000000000    0.8361600000000000    0.4871700000000000 H
   0.5913800000000000    0.7392833333333333    0.8039600000000000 H
   0.7160600000000000    0.7949499999999999    0.5306999999999999 H
   0.8426200000000000    0.7553833333333333    0.6171100000000000 H
   0.7234900000000000    0.7023166666666666    0.8801500000000000 H
   0.5981500000000000    0.1858600000000000    0.1647600000000000 H
   0.6409100000000000    0.2256466666666667    0.2327700000000000 H
   0.6047800000000000    0.3231966666666666    0.9655100000000000 H
   0.5606500000000000    0.2881333333333333    0.8852500000000000 H
   0.5345900000000000    0.2288166666666667    0.8934299999999999 H
   0.5513400000000001    0.1593800000000000    0.0982300000000000 H
   0.4572500000000000    0.1559566666666667    0.7623300000000000 H
   0.5060800000000000    0.1957833333333333    0.8246400000000000 H
   0.4606400000000000    0.0651500000000000    0.0556100000000000 H
   0.5094400000000000    0.1045366666666667    0.1200500000000000 H
   0.5228000000000000    0.0209433333333333    0.4888200000000000 H
   0.6513000000000000    0.0143266666666667    0.3985000000000000 H
   0.7753000000000000    0.0000000000000000    0.6465900000000000 H
   0.6453700000000000    0.0089166666666667    0.7358800000000000 H
   0.7658199999999999    0.0000000000000000    0.3407800000000000 H
   0.8515400000000000    0.9988566666666666    0.5127000000000000 H
   0.8472700000000000    0.0000000000000000    0.1973000000000000 H
   0.9661500000000000    0.9707133333333333    0.4708000000000000 H
   0.0944900000000000    0.9592233333333333    0.3849400000000000 H
   0.9808800000000000    0.9936466666666666    0.1217500000000000 H
   0.6757060112108806    0.3811383683193876    0.0721140810015152 H
   0.7732700000000000    0.1838966666666667    0.5117000000000000 H
   0.8997900000000000    0.1479266666666667    0.6027500000000000 H
   0.9013000000000000    0.2521600000000000    0.2619000000000000 H
   0.0292700000000000    0.2168033333333333    0.3518400000000000 H
   0.0129200000000000    0.1151233333333333    0.6604800000000000 H
   0.1024700000000000    0.1694933333333333    0.4871700000000000 H
   0.0913700000000000    0.0726166666666667    0.8039600000000000 H
   0.2160400000000000    0.1282866666666667    0.5307500000000001 H
   0.3426100000000000    0.0887133333333333    0.6171100000000000 H
   0.2234800000000000    0.0356466666666667    0.8801500000000000 H
   0.0981500000000000    0.5191933333333333    0.1647000000000000 H
   0.1408900000000000    0.5589800000000000    0.2327700000000000 H
   0.1047600000000000    0.6565299999999999    0.9655200000000000 H
   0.0606400000000000    0.6214666666666666    0.8852500000000000 H
   0.0345900000000000    0.5621499999999999    0.8934299999999999 H
   0.0513300000000000    0.4927166666666666    0.0982300000000000 H
   0.9572600000000000    0.4892900000000000    0.7623300000000000 H
   0.0060700000000000    0.5291166666666667    0.8246000000000000 H
   0.9606500000000000    0.3984833333333333    0.0556100000000000 H
   0.0094300000000000    0.4378700000000000    0.1200500000000000 H
   0.0228000000000000    0.3542733333333333    0.4888300000000000 H
   0.1513000000000000    0.3476566666666667    0.3985500000000000 H
   0.2752900000000000    0.3333333333333333    0.6465900000000000 H
   0.1453700000000000    0.3422533333333333    0.7358800000000000 H
   0.2658100000000000    0.3333333333333333    0.3407800000000000 H
   0.3515400000000000    0.3321900000000000    0.5127000000000000 H
   0.3472600000000000    0.3333333333333333    0.1973000000000000 H
   0.4661400000000000    0.3040466666666666    0.4708000000000000 H
   0.5945100000000000    0.2925566666666666    0.3849400000000000 H
   0.4808600000000000    0.3269766666666666    0.1217500000000000 H
   0.2124200000000000    0.7410200000000000    0.2394500000000000 H
   0.2588500000000000    0.8024899999999999    0.1762800000000000 H
   0.2102500000000000    0.7504733333333333    0.9445100000000000 H
   0.2563900000000000    0.8122833333333332    0.8791700000000000 H
   0.2911600000000000    0.8575166666666666    0.1088000000000000 H
   0.2959200000000000    0.8605366666666666    0.9001000000000000 H
   0.3145500000000000    0.9142533333333333    0.1182800000000000 H
   0.3443200000000000    0.9094233333333333    0.8329900000000000 H
   0.3831800000000000    0.9730966666666666    0.7651800000000000 H
   0.3534100000000000    0.9776199999999999    0.0378500000000000 H
   0.4012900000000000    0.5854933333333333    0.2619000000000000 H
   0.2732600000000000    0.5172333333333333    0.5117300000000000 H
   0.3997800000000000    0.4812600000000000    0.6027500000000000 H
   0.5292800000000000    0.5501366666666667    0.3518000000000000 H
   0.5129300000000000    0.4484500000000000    0.6604700000000000 H
   0.6024800000000000    0.5028266666666666    0.4871700000000000 H
   0.5913800000000000    0.4059500000000000    0.8039600000000000 H
   0.7160600000000000    0.4616166666666667    0.5306999999999999 H
   0.8426200000000000    0.4220500000000000    0.6171100000000000 H
   0.7234900000000000    0.3689833333333333    0.8801500000000000 H
   0.0981500000000000    0.1858600000000000    0.1647000000000000 H
   0.1408900000000000    0.2256466666666667    0.2327700000000000 H
   0.1047600000000000    0.3231966666666666    0.9655200000000000 H
   0.0606400000000000    0.2881333333333333    0.8852500000000000 H
   0.0345900000000000    0.2288166666666667    0.8934299999999999 H
   0.0513300000000000    0.1593833333333333    0.0982300000000000 H
   0.9572600000000000    0.1559566666666667    0.7623300000000000 H
   0.0060700000000000    0.1957833333333333    0.8246000000000000 H
   0.9606500000000000    0.0651500000000000    0.0556100000000000 H
   0.0094300000000000    0.1045366666666667    0.1200500000000000 H
   0.0228000000000000    0.0209400000000000    0.4888300000000000 H
   0.1513000000000000    0.0143233333333333    0.3985500000000000 H
   0.2752900000000000    0.0000000000000000    0.6465900000000000 H
   0.1453700000000000    0.0089200000000000    0.7358800000000000 H
   0.2658100000000000    0.0000000000000000    0.3407800000000000 H
   0.3515400000000000    0.9988566666666666    0.5127000000000000 H
   0.3472600000000000    0.0000000000000000    0.1973000000000000 H
   0.4661400000000000    0.9707133333333333    0.4708000000000000 H
   0.5945100000000000    0.9592233333333333    0.3849400000000000 H
   0.4808600000000000    0.9936433333333332    0.1217500000000000 H
   0.2124200000000000    0.4076866666666666    0.2394500000000000 H
   0.2588500000000000    0.4691566666666667    0.1762800000000000 H
   0.2102500000000000    0.4171400000000000    0.9445100000000000 H
   0.2563900000000000    0.4789500000000000    0.8791700000000000 H
   0.2911600000000000    0.5241833333333333    0.1088000000000000 H
   0.2959200000000000    0.5272033333333332    0.9001000000000000 H
   0.3145500000000000    0.5809200000000000    0.1182800000000000 H
   0.3443200000000000    0.5760900000000000    0.8329900000000000 H
   0.3831800000000000    0.6397633333333332    0.7651800000000000 H
   0.3534100000000000    0.6442866666666667    0.0378500000000000 H
   0.4012900000000000    0.2521600000000000    0.2619000000000000 H
   0.2732600000000000    0.1839000000000000    0.5117300000000000 H
   0.3997800000000000    0.1479266666666667    0.6027500000000000 H
   0.5292800000000000    0.2168033333333333    0.3518000000000000 H
   0.5129300000000000    0.1151166666666667    0.6604700000000000 H
   0.6024800000000000    0.1694933333333333    0.4871700000000000 H
   0.5913800000000000    0.0726166666666667    0.8039600000000000 H
   0.7160600000000000    0.1282833333333333    0.5306999999999999 H
   0.8426200000000000    0.0887166666666667    0.6171100000000000 H
   0.7234900000000000    0.0356500000000000    0.8801500000000000 H
   0.5981500000000000    0.8525266666666667    0.1647600000000000 H
   0.6409100000000000    0.8923133333333333    0.2327700000000000 H
   0.6047800000000000    0.9898633333333333    0.9655100000000000 H
   0.5606500000000000    0.9547999999999999    0.8852500000000000 H
   0.5345900000000000    0.8954833333333333    0.8934299999999999 H
   0.5513400000000001    0.8260466666666666    0.0982300000000000 H
   0.4572500000000000    0.8226233333333333    0.7623300000000000 H
   0.5060800000000000    0.8624499999999999    0.8246400000000000 H
   0.4606400000000000    0.7318166666666667    0.0556100000000000 H
   0.5094400000000000    0.7712033333333332    0.1200500000000000 H
   0.5228000000000000    0.6876099999999999    0.4888200000000000 H
   0.6513000000000000    0.6809933333333333    0.3985000000000000 H
   0.7753000000000000    0.6666666666666666    0.6465900000000000 H
   0.6453700000000000    0.6755833333333333    0.7358800000000000 H
   0.7658199999999999    0.6666666666666666    0.3407800000000000 H
   0.8515400000000000    0.6655233333333332    0.5127000000000000 H
   0.8472700000000000    0.6666666666666666    0.1973000000000000 H
   0.9661500000000000    0.6373799999999999    0.4708000000000000 H
   0.0944900000000000    0.6258899999999999    0.3849400000000000 H
   0.9808800000000000    0.6603133333333333    0.1217500000000000 H
   0.7124300000000000    0.0743533333333333    0.2394500000000000 H
   0.7588600000000000    0.1358233333333333    0.1762800000000000 H
   0.7102600000000000    0.0838066666666667    0.9445100000000000 H
   0.7564000000000000    0.1456166666666667    0.8791700000000000 H
   0.7911700000000000    0.1908500000000000    0.1088400000000000 H
   0.7959300000000000    0.1938700000000000    0.9001000000000000 H
   0.8145700000000000    0.2475833333333333    0.1182800000000000 H
   0.8443400000000000    0.2427566666666666    0.8329900000000000 H
   0.8832000000000000    0.3064300000000000    0.7651800000000000 H
   0.8534300000000000    0.3109533333333333    0.0378000000000000 H
   0.7732700000000000    0.8505633333333333    0.5117000000000000 H
   0.8997900000000000    0.8145933333333333    0.6027500000000000 H
   0.9013000000000000    0.9188266666666667    0.2619000000000000 H
   0.0292700000000000    0.8834700000000000    0.3518400000000000 H
   0.0129200000000000    0.7817900000000000    0.6604800000000000 H
   0.1024700000000000    0.8361600000000000    0.4871700000000000 H
   0.0913700000000000    0.7392833333333333    0.8039600000000000 H
   0.2160400000000000    0.7949533333333333    0.5307500000000001 H
   0.3426100000000000    0.7553799999999999    0.6171100000000000 H
   0.2234800000000000    0.7023133333333333    0.8801500000000000 H
   0.4286700000000000    0.4179500000000000    0.8633200000000000 C
   0.5984900000000000    0.5495066666666666    0.1171400000000000 C
   0.6227100000000000    0.5712533333333333    0.1559200000000000 C
   0.6031900000000000    0.6259066666666666    0.0000000000000000 C
   0.5785400000000001    0.6058966666666666    0.9623699999999999 C
   0.5752400000000000    0.5665033333333334    0.0175400000000000 C
   0.5483500000000000    0.5456099999999999    0.9718400000000000 C
   0.5382900000000000    0.5085900000000000    0.0194400000000000 C
   0.4684100000000000    0.4785433333333333    0.8407200000000000 C
   0.4954900000000000    0.5007266666666667    0.8762100000000000 C
   0.4705300000000000    0.4271333333333333    0.0058200000000000 C
   0.4975100000000000    0.4493933333333333    0.0414700000000000 C
   0.4556300000000000    0.4414533333333333    0.9049800000000000 C
   0.5104600000000000    0.4866366666666666    0.9777100000000000 C
   0.4971600000000000    0.3515066666666666    0.6718000000000000 C
   0.5788200000000000    0.3496666666666666    0.5230500000000000 C
   0.6509500000000000    0.3458833333333333    0.4729900000000000 C
   0.7199700000000000    0.3393366666666667    0.6126400000000000 C
   0.6475500000000000    0.3429466666666666    0.6625500000000000 C
   0.5759800000000000    0.3479200000000000    0.6187200000000000 C
   0.7234600000000000    0.3400966666666667    0.5176100000000000 C
   0.8156400000000000    0.3308500000000000    0.3844100000000000 C
   0.8014300000000000    0.3333333333333333    0.4712500000000000 C
   0.9006900000000000    0.3293600000000000    0.2412000000000000 C
   0.9661900000000000    0.3101100000000000    0.3929300000000000 C
   0.0382500000000000    0.3034766666666666    0.3459000000000000 C
   0.9750700000000000    0.3222833333333333    0.1990300000000000 C
   0.8941000000000000    0.3236366666666667    0.3409100000000000 C
   0.6832000000000000    0.7038599999999999    0.1380300000000000 C
   0.7219800000000000    0.7570866666666667    0.1605600000000000 C
   0.7477300000000000    0.7916066666666666    0.1245700000000000 C
   0.7208700000000000    0.7621500000000000    0.9945200000000000 C
   0.7463600000000000    0.7968333333333333    0.9583600000000000 C
   0.7083600000000000    0.7418499999999999    0.0960800000000000 C
   0.7604900000000000    0.8123066666666666    0.0223700000000000 C
   0.8005900000000000    0.8686466666666666    0.0289800000000000 C
   0.7871000000000000    0.8486666666666667    0.9801900000000000 C
   0.8298100000000000    0.9256266666666666    0.0397900000000000 C
   0.8453700000000000    0.9232066666666666    0.8818600000000000 C
   0.8671700000000000    0.9586199999999999    0.8431000000000000 C
   0.8515500000000000    0.9612666666666666    0.9954000000000000 C
   0.8254400000000000    0.9054633333333333    0.9830500000000000 C
   0.7516600000000000    0.5738900000000000    0.3272100000000000 C
   0.8300500000000000    0.5237133333333333    0.4770800000000000 C
   0.9010700000000000    0.5036400000000000    0.5275000000000000 C
   0.9018500000000000    0.5623433333333333    0.3360100000000000 C
   0.9731800000000000    0.5424533333333333    0.3862800000000000 C
   0.8293400000000000    0.5530433333333333    0.3804400000000000 C
   0.9745400000000000    0.5123233333333332    0.4823000000000000 C
   0.0637000000000000    0.4594700000000000    0.6166400000000000 C
   0.0514500000000000    0.4912233333333333    0.5290000000000000 C
   0.1457300000000000    0.4107499999999999    0.7602100000000001 C
   0.2144200000000000    0.4418933333333333    0.6086600000000000 C
   0.2855400000000000    0.4198933333333333    0.6559900000000000 C
   0.2192400000000000    0.3898566666666666    0.8027700000000000 C
   0.1412300000000000    0.4380233333333333    0.6604800000000000 C
   0.9286900000000000    0.7512833333333333    0.8633200000000000 C
   0.0984700000000000    0.8828400000000000    0.1171500000000000 C
   0.1227000000000000    0.9045866666666667    0.1559200000000000 C
   0.1031800000000000    0.9592399999999999    0.0000000000000000 C
   0.0785200000000000    0.9392300000000000    0.9623699999999999 C
   0.0752400000000000    0.8998333333333333    0.0175400000000000 C
   0.0483400000000000    0.8789433333333333    0.9718400000000000 C
   0.0382800000000000    0.8419233333333332    0.0194500000000000 C
   0.9684300000000000    0.8118766666666666    0.8407200000000000 C
   0.9955000000000001    0.8340599999999999    0.8762100000000000 C
   0.9705500000000000    0.7604666666666666    0.0058200000000000 C
   0.9975000000000001    0.7827266666666666    0.0414700000000000 C
   0.9556400000000000    0.7747866666666666    0.9049800000000000 C
   0.0104500000000000    0.8199666666666666    0.9777100000000000 C
   0.9971500000000000    0.6848500000000000    0.6710000000000000 C
   0.0788100000000000    0.6830066666666667    0.5230000000000000 C
   0.1509500000000000    0.6792100000000000    0.4730000000000000 C
   0.2199600000000000    0.6726633333333333    0.6126500000000000 C
   0.1475400000000000    0.6762899999999999    0.6625000000000000 C
   0.0759800000000000    0.6812366666666666    0.6187400000000000 C
   0.2234500000000000    0.6734399999999999    0.5175999999999999 C
   0.3156300000000000    0.6641866666666667    0.3844000000000000 C
   0.3014200000000000    0.6666666666666666    0.4712600000000000 C
   0.4006800000000000    0.6626900000000000    0.2412600000000000 C
   0.4661800000000000    0.6434400000000000    0.3929300000000000 C
   0.5382700000000000    0.6368099999999999    0.3458900000000000 C
   0.4750600000000000    0.6556200000000000    0.1990000000000000 C
   0.3941000000000000    0.6569733333333333    0.3409100000000000 C
   0.1831800000000000    0.0371933333333333    0.1380000000000000 C
   0.2219600000000000    0.0904200000000000    0.1605600000000000 C
   0.2477200000000000    0.1249400000000000    0.1245700000000000 C
   0.2208600000000000    0.0954833333333333    0.9945200000000000 C
   0.2463500000000000    0.1301666666666667    0.9583600000000000 C
   0.2083500000000000    0.0751833333333333    0.0960800000000000 C
   0.2604700000000000    0.1456400000000000    0.0223700000000000 C
   0.3005800000000000    0.2019800000000000    0.0289800000000000 C
   0.2870900000000000    0.1820000000000000    0.9801900000000000 C
   0.3298000000000000    0.2589600000000000    0.0397900000000000 C
   0.3453600000000000    0.2565400000000000    0.8818600000000000 C
   0.3671600000000000    0.2919500000000000    0.8431000000000000 C
   0.3515400000000000    0.2946000000000000    0.9954600000000000 C
   0.3254300000000000    0.2387966666666667    0.9830500000000000 C
   0.2516500000000000    0.9072199999999999    0.3272000000000000 C
   0.4018400000000000    0.8956666666666666    0.3300000000000000 C
   0.3300400000000000    0.8570399999999999    0.4770700000000000 C
   0.4010500000000000    0.8369799999999999    0.5275400000000000 C
   0.3293200000000000    0.8863900000000000    0.3804600000000000 C
   0.4731600000000000    0.8757933333333333    0.3862900000000000 C
   0.4745300000000000    0.8456466666666667    0.4822900000000000 C
   0.5637200000000000    0.7927999999999999    0.6166400000000000 C
   0.5514600000000000    0.8245600000000000    0.5290400000000000 C
   0.6457500000000000    0.7440866666666666    0.7602100000000001 C
   0.7144300000000000    0.7752300000000000    0.6086600000000000 C
   0.7855500000000000    0.7532266666666666    0.6559900000000000 C
   0.7192499999999999    0.7231866666666666    0.8027700000000000 C
   0.6412400000000000    0.7713500000000000    0.6604700000000000 C
   0.4286700000000000    0.0846166666666667    0.8633200000000000 C
   0.5984900000000000    0.2161733333333333    0.1171400000000000 C
   0.6227100000000000    0.2379200000000000    0.1559200000000000 C
   0.6031900000000000    0.2925733333333333    0.0000000000000000 C
   0.5785400000000001    0.2725633333333333    0.9623699999999999 C
   0.5752400000000000    0.2331700000000000    0.0175400000000000 C
   0.5483500000000000    0.2122766666666667    0.9718400000000000 C
   0.5382900000000000    0.1752566666666666    0.0194400000000000 C
   0.4684100000000000    0.1452100000000000    0.8407200000000000 C
   0.4954900000000000    0.1673933333333333    0.8762100000000000 C
   0.4705300000000000    0.0938000000000000    0.0058200000000000 C
   0.4975100000000000    0.1160600000000000    0.0414700000000000 C
   0.4556300000000000    0.1081200000000000    0.9049800000000000 C
   0.5104600000000000    0.1533033333333333    0.9777100000000000 C
   0.4971600000000000    0.0181733333333333    0.6718000000000000 C
   0.5788200000000000    0.0163333333333333    0.5230500000000000 C
   0.6509500000000000    0.0125500000000000    0.4729900000000000 C
   0.7199700000000000    0.0060033333333333    0.6126400000000000 C
   0.6475500000000000    0.0096133333333333    0.6625500000000000 C
   0.5759800000000000    0.0145866666666667    0.6187200000000000 C
   0.7234600000000000    0.0067633333333333    0.5176100000000000 C
   0.8156400000000000    0.9975166666666666    0.3844100000000000 C
   0.8014300000000000    0.0000000000000000    0.4712500000000000 C
   0.9006900000000000    0.9960266666666666    0.2412000000000000 C
   0.9661900000000000    0.9767766666666666    0.3929300000000000 C
   0.0382500000000000    0.9701433333333332    0.3459000000000000 C
   0.9750700000000000    0.9889500000000000    0.1990300000000000 C
   0.8941000000000000    0.9903033333333333    0.3409100000000000 C
   0.7516600000000000    0.2405566666666667    0.3272100000000000 C
   0.8300500000000000    0.1903800000000000    0.4770800000000000 C
   0.9010700000000000    0.1703066666666667    0.5275000000000000 C
   0.9018500000000000    0.2290100000000000    0.3360100000000000 C
   0.9731800000000000    0.2091200000000000    0.3862800000000000 C
   0.8293400000000000    0.2197100000000000    0.3804400000000000 C
   0.9745400000000000    0.1789900000000000    0.4823000000000000 C
   0.0637000000000000    0.1261366666666667    0.6166400000000000 C
   0.0514500000000000    0.1578900000000000    0.5290000000000000 C
   0.1457300000000000    0.0774166666666667    0.7602100000000001 C
   0.2144200000000000    0.1085600000000000    0.6086600000000000 C
   0.2855400000000000    0.0865600000000000    0.6559900000000000 C
   0.2192400000000000    0.0565233333333333    0.8027700000000000 C
   0.1412300000000000    0.1046900000000000    0.6604800000000000 C
   0.9286900000000000    0.4179500000000000    0.8633200000000000 C
   0.0984700000000000    0.5495066666666666    0.1171500000000000 C
   0.1227000000000000    0.5712533333333333    0.1559200000000000 C
   0.1031800000000000    0.6259066666666666    0.0000000000000000 C
   0.0785200000000000    0.6058966666666666    0.9623699999999999 C
   0.0752400000000000    0.5665000000000000    0.0175400000000000 C
   0.0483400000000000    0.5456099999999999    0.9718400000000000 C
   0.0382800000000000    0.5085900000000000    0.0194500000000000 C
   0.9684300000000000    0.4785433333333333    0.8407200000000000 C
   0.9955000000000001    0.5007266666666667    0.8762100000000000 C
   0.9705500000000000    0.4271333333333333    0.0058200000000000 C
   0.9975000000000001    0.4493933333333333    0.0414700000000000 C
   0.9556400000000000    0.4414533333333333    0.9049800000000000 C
   0.0104500000000000    0.4866333333333333    0.9777100000000000 C
   0.9971500000000000    0.3515166666666666    0.6710000000000000 C
   0.0788100000000000    0.3496733333333333    0.5230000000000000 C
   0.1509500000000000    0.3458766666666667    0.4730000000000000 C
   0.2199600000000000    0.3393300000000000    0.6126500000000000 C
   0.1475400000000000    0.3429566666666666    0.6625000000000000 C
   0.0759800000000000    0.3479033333333333    0.6187400000000000 C
   0.2234500000000000    0.3401066666666667    0.5175999999999999 C
   0.3156300000000000    0.3308533333333333    0.3844000000000000 C
   0.3014200000000000    0.3333333333333333    0.4712600000000000 C
   0.4006800000000000    0.3293566666666666    0.2412600000000000 C
   0.4661800000000000    0.3101066666666666    0.3929300000000000 C
   0.5382700000000000    0.3034766666666666    0.3458900000000000 C
   0.4750600000000000    0.3222866666666667    0.1990000000000000 C
   0.3941000000000000    0.3236400000000000    0.3409100000000000 C
   0.1831800000000000    0.7038599999999999    0.1380000000000000 C
   0.2219600000000000    0.7570866666666667    0.1605600000000000 C
   0.2477200000000000    0.7916066666666666    0.1245700000000000 C
   0.2208600000000000    0.7621500000000000    0.9945200000000000 C
   0.2463500000000000    0.7968333333333333    0.9583600000000000 C
   0.2083500000000000    0.7418499999999999    0.0960800000000000 C
   0.2604700000000000    0.8123066666666666    0.0223700000000000 C
   0.3005800000000000    0.8686466666666666    0.0289800000000000 C