H4 O2
1.0
  21.5670952932750311    0.0000000000000000   -3.5046969356556521
  -4.1318556663859223   21.4067902092574123   -1.9841284456898043
   0.0000000000000000    0.0000000000000000   27.9439999999999991
H O
4 2
direct
   0.2006924793819952    0.3687347722482982    0.2524972259512630 H
   0.1214372837687858    0.3485804216095392    0.2431787472867777 H
   0.1641238429314419    0.4018380983288527    0.0338867366385287 H
   0.1532866493579410    0.3233052741039002    0.0275005743212981 H
   0.1619500000000000    0.3576800000000000    0.2657100000000000 O
   0.1592400000000000    0.3623900000000000    0.0129000000000000 O
