H12 C12 N2
1.0
  21.5670952932750311    0.0000000000000000   -3.5046969356556521
  -4.1318556663859223   21.4067902092574123   -1.9841284456898043
   0.0000000000000000    0.0000000000000000   27.9439999999999991
H C N
12 12 2
direct
   0.1723700000000000    0.4588900000000000    0.0237150000000000 H
   0.1425600000000000    0.2633700000000000    0.0973450000000000 H
   0.1460000000000000    0.2658500000000000    0.0082850000000000 H
   0.2582300000000000    0.3877300000000000    0.1843750000000000 H
   0.2591800000000000    0.3824500000000000    0.2740500000000000 H
   0.0644500000000000    0.3335600000000000    0.2513900000000000 H
   0.2197900000000000    0.4938800000000000    0.1469000000000000 H
   0.1735500000000000    0.5204600000000000    0.0979300000000000 H
   0.1371500000000000    0.4849900000000000    0.1437850000000000 H
   0.0343100000000000    0.2980900000000000    0.1207100000000000 H
   0.0000000000000000    0.3144000000000000    0.1721000000000000 H
   0.0242800000000000    0.3750100000000000    0.1373100000000000 H
   0.1510300000000000    0.3084900000000000    0.0330350000000000 C
   0.1563900000000000    0.3626700000000000    0.1656300000000000 C
   0.1659700000000000    0.4167500000000000    0.0418200000000000 C
   0.1652200000000000    0.4206500000000000    0.0919250000000000 C
   0.1562400000000000    0.3640200000000000    0.1124650000000000 C
   0.1490500000000000    0.3077200000000000    0.0823400000000000 C
   0.2141900000000000    0.3758800000000000    0.1979850000000000 C
   0.2153600000000000    0.3729200000000000    0.2474950000000000 C
   0.1061200000000000    0.3451400000000000    0.2346600000000000 C
   0.1001500000000000    0.3467600000000000    0.1842150000000000 C
   0.1742100000000000    0.4832500000000000    0.1216150000000000 C
   0.0360900000000000    0.3327400000000000    0.1521250000000000 C
   0.1592400000000000    0.3623900000000000    0.0129000000000000 N
   0.1619500000000000    0.3576800000000000    0.2657100000000000 N
