C4 O4
1.0
  13.7864009423597871    0.0000000000000000    5.0377408683358471
   6.8903488273584328   20.0777943406812618    2.5176662707014765
   0.0000000000000000    0.0000000000000000   21.3760000000000012
C O
4 4
direct
   0.8588300000000000    0.6664000000000000    0.0890500000000000 C
   0.8590100000000001    0.6158700000000000    0.1421000000000000 C
   0.7662000000000000    0.6608900000000000    0.0835800000000000 C
   0.7663400000000000    0.6076400000000000    0.1339000000000000 C
   0.9121800000000000    0.7030600000000000    0.0567500000000000 O
   0.9121400000000000    0.5908600000000001    0.1792300000000000 O
   0.7125899999999999    0.6933400000000000    0.0471400000000000 O
   0.7133400000000000    0.5704200000000000    0.1588500000000000 O
