Ga288 P286 H578 C286 O862 F198
1.0
  31.5427918963936946    0.0000000000000000   -3.0405592217222503
  -7.1758459789832125   32.9536879825606945   -5.0030698410021435
   0.0000000000000000    0.0000000000000000   33.6319999999999979
Ga P H C O F
288 286 578 286 862 198
direct
   0.5868899999999999    0.9872233333333333    0.7563949999999999 Ga
   0.5820733333333333    0.0082700000000000    0.9893600000000000 Ga
   0.5868899999999999    0.6538900000000000    0.7563949999999999 Ga
   0.5820733333333333    0.6749366666666666    0.9893600000000000 Ga
   0.2535566666666667    0.3205566666666667    0.7563949999999999 Ga
   0.2487400000000000    0.3416033333333333    0.9893600000000000 Ga
   0.9202233333333333    0.9872233333333333    0.7563949999999999 Ga
   0.9154066666666666    0.0082700000000000    0.9893600000000000 Ga
   0.6594733333333334    0.9195966666666666    0.7536250000000000 Ga
   0.8447100000000000    0.9117899999999999    0.9903750000000000 Ga
   0.1721166666666666    0.9065299999999999    0.2459250000000000 Ga
   0.9876799999999999    0.9134866666666666    0.0086800000000000 Ga
   0.0117866666666667    0.0782733333333333    0.0000000000000000 Ga
   0.0732566666666667    0.1733866666666666    0.2432400000000000 Ga
   0.1541933333333333    0.0799266666666667    0.0069350000000000 Ga
   0.2445233333333333    0.1716100000000000    0.2420500000000000 Ga
   0.0926866666666667    0.9848733333333333    0.7557450000000000 Ga
   0.2503633333333333    0.1501566666666667    0.0092000000000000 Ga
   0.0838200000000000    0.9849466666666666    0.0118300000000000 Ga
   0.0825966666666667    0.1735300000000000    0.9875149999999999 Ga
   0.9928066666666666    0.2529300000000000    0.7536250000000000 Ga
   0.1780433333333333    0.2451233333333333    0.9903750000000000 Ga
   0.5054500000000000    0.2398633333333333    0.2459250000000000 Ga
   0.3210133333333333    0.2468200000000000    0.0086800000000000 Ga
   0.3451200000000000    0.4116066666666667    0.0000000000000000 Ga
   0.4065900000000000    0.5067199999999999    0.2432400000000000 Ga
   0.4875266666666667    0.4132600000000000    0.0069350000000000 Ga
   0.5778566666666667    0.5049433333333333    0.2420500000000000 Ga
   0.4260200000000000    0.3182066666666666    0.7557450000000000 Ga
   0.5836966666666666    0.4834900000000000    0.0092000000000000 Ga
   0.4171533333333333    0.3182800000000000    0.0118300000000000 Ga
   0.4159300000000000    0.5068633333333333    0.9875149999999999 Ga
   0.3261400000000000    0.5862633333333334    0.7536250000000000 Ga
   0.5113766666666666    0.5784566666666666    0.9903750000000000 Ga
   0.8387833333333332    0.5731966666666666    0.2459250000000000 Ga
   0.6543466666666666    0.5801533333333333    0.0086800000000000 Ga
   0.6784533333333334    0.7449399999999999    0.0000000000000000 Ga
   0.7399233333333333    0.8400533333333333    0.2432400000000000 Ga
   0.8208599999999999    0.7465933333333333    0.0069350000000000 Ga
   0.9111899999999999    0.8382766666666666    0.2420500000000000 Ga
   0.7593533333333333    0.6515400000000000    0.7557450000000000 Ga
   0.9170300000000000    0.8168233333333332    0.0092000000000000 Ga
   0.7504866666666666    0.6516133333333334    0.0118300000000000 Ga
   0.7492633333333333    0.8401966666666666    0.9875149999999999 Ga
   0.2535566666666667    0.9872233333333333    0.7563949999999999 Ga
   0.2487400000000000    0.0082700000000000    0.9893600000000000 Ga
   0.9202233333333333    0.6538900000000000    0.7563949999999999 Ga
   0.9154066666666666    0.6749366666666666    0.9893600000000000 Ga
   0.5868899999999999    0.3205566666666667    0.7563949999999999 Ga
   0.5820733333333333    0.3416033333333333    0.9893600000000000 Ga
   0.9928066666666666    0.9195966666666666    0.7536250000000000 Ga
   0.1780433333333333    0.9117899999999999    0.9903750000000000 Ga
   0.5054500000000000    0.9065299999999999    0.2459250000000000 Ga
   0.3210133333333333    0.9134866666666666    0.0086800000000000 Ga
   0.3451200000000000    0.0782733333333333    0.0000000000000000 Ga
   0.4065900000000000    0.1733866666666666    0.2432400000000000 Ga
   0.4875266666666667    0.0799266666666667    0.0069350000000000 Ga
   0.5778566666666667    0.1716100000000000    0.2420500000000000 Ga
   0.4260200000000000    0.9848733333333333    0.7557450000000000 Ga
   0.5836966666666666    0.1501566666666667    0.0092000000000000 Ga
   0.4171533333333333    0.9849466666666666    0.0118300000000000 Ga
   0.4159300000000000    0.1735300000000000    0.9875149999999999 Ga
   0.3261400000000000    0.2529300000000000    0.7536250000000000 Ga
   0.5113766666666666    0.2451233333333333    0.9903750000000000 Ga
   0.8387833333333332    0.2398633333333333    0.2459250000000000 Ga
   0.6543466666666666    0.2468200000000000    0.0086800000000000 Ga
   0.6784533333333334    0.4116066666666667    0.0000000000000000 Ga
   0.7399233333333333    0.5067199999999999    0.2432400000000000 Ga
   0.8208599999999999    0.4132600000000000    0.0069350000000000 Ga
   0.9111899999999999    0.5049433333333333    0.2420500000000000 Ga
   0.7593533333333333    0.3182066666666666    0.7557450000000000 Ga
   0.9170300000000000    0.4834900000000000    0.0092000000000000 Ga
   0.7504866666666666    0.3182800000000000    0.0118300000000000 Ga
   0.7492633333333333    0.5068633333333333    0.9875149999999999 Ga
   0.6594733333333334    0.5862633333333334    0.7536250000000000 Ga
   0.8447100000000000    0.5784566666666666    0.9903750000000000 Ga
   0.1721166666666666    0.5731966666666666    0.2459250000000000 Ga
   0.9876799999999999    0.5801533333333333    0.0086800000000000 Ga
   0.0117866666666667    0.7449399999999999    0.0000000000000000 Ga
   0.0732566666666667    0.8400533333333333    0.2432400000000000 Ga
   0.1541933333333333    0.7465933333333333    0.0069350000000000 Ga
   0.2445233333333333    0.8382766666666666    0.2420500000000000 Ga
   0.0926866666666667    0.6515400000000000    0.7557450000000000 Ga
   0.2503633333333333    0.8168233333333332    0.0092000000000000 Ga
   0.0838200000000000    0.6516133333333334    0.0118300000000000 Ga
   0.0825966666666667    0.8401966666666666    0.9875149999999999 Ga
   0.2535566666666667    0.6538900000000000    0.7563949999999999 Ga
   0.2487400000000000    0.6749366666666666    0.9893600000000000 Ga
   0.9202233333333333    0.3205566666666667    0.7563949999999999 Ga
   0.9154066666666666    0.3416033333333333    0.9893600000000000 Ga
   0.3261400000000000    0.9195966666666666    0.7536250000000000 Ga
   0.5113766666666666    0.9117899999999999    0.9903750000000000 Ga
   0.8387833333333332    0.9065299999999999    0.2459250000000000 Ga
   0.6543466666666666    0.9134866666666666    0.0086800000000000 Ga
   0.6784533333333334    0.0782733333333333    0.0000000000000000 Ga
   0.7399233333333333    0.1733866666666666    0.2432400000000000 Ga
   0.8208599999999999    0.0799266666666667    0.0069350000000000 Ga
   0.9111899999999999    0.1716100000000000    0.2420500000000000 Ga
   0.7593533333333333    0.9848733333333333    0.7557450000000000 Ga
   0.9170300000000000    0.1501566666666667    0.0092000000000000 Ga
   0.7504866666666666    0.9849466666666666    0.0118300000000000 Ga
   0.7492633333333333    0.1735300000000000    0.9875149999999999 Ga
   0.6594733333333334    0.2529300000000000    0.7536250000000000 Ga
   0.8447100000000000    0.2451233333333333    0.9903750000000000 Ga
   0.1721166666666666    0.2398633333333333    0.2459250000000000 Ga
   0.9876799999999999    0.2468200000000000    0.0086800000000000 Ga
   0.0117866666666667    0.4116066666666667    0.0000000000000000 Ga
   0.0732566666666667    0.5067199999999999    0.2432400000000000 Ga
   0.1541933333333333    0.4132600000000000    0.0069350000000000 Ga
   0.2445233333333333    0.5049433333333333    0.2420500000000000 Ga
   0.0926866666666667    0.3182066666666666    0.7557450000000000 Ga
   0.2503633333333333    0.4834900000000000    0.0092000000000000 Ga
   0.0838200000000000    0.3182800000000000    0.0118300000000000 Ga
   0.0825966666666667    0.5068633333333333    0.9875149999999999 Ga
   0.9928066666666666    0.5862633333333334    0.7536250000000000 Ga
   0.1780433333333333    0.5784566666666666    0.9903750000000000 Ga
   0.5054500000000000    0.5731966666666666    0.2459250000000000 Ga
   0.3210133333333333    0.5801533333333333    0.0086800000000000 Ga
   0.3451200000000000    0.7449399999999999    0.0000000000000000 Ga
   0.4065900000000000    0.8400533333333333    0.2432400000000000 Ga
   0.4875266666666667    0.7465933333333333    0.0069350000000000 Ga
   0.5778566666666667    0.8382766666666666    0.2420500000000000 Ga
   0.4260200000000000    0.6515400000000000    0.7557450000000000 Ga
   0.5836966666666666    0.8168233333333332    0.0092000000000000 Ga
   0.4171533333333333    0.6516133333333334    0.0118300000000000 Ga
   0.4159300000000000    0.8401966666666666    0.9875149999999999 Ga
   0.2535566666666667    0.9872233333333333    0.2563950000000000 Ga
   0.2487400000000000    0.0082700000000000    0.4893600000000000 Ga
   0.9202233333333333    0.6538900000000000    0.2563950000000000 Ga
   0.9154066666666666    0.6749366666666666    0.4893600000000000 Ga
   0.5868899999999999    0.3205566666666667    0.2563950000000000 Ga
   0.5820733333333333    0.3416033333333333    0.4893600000000000 Ga
   0.9928066666666666    0.9195966666666666    0.2536250000000000 Ga
   0.1780433333333333    0.9117899999999999    0.4903750000000000 Ga
   0.5054500000000000    0.9065299999999999    0.7459249999999999 Ga
   0.3210133333333333    0.9134866666666666    0.5086800000000000 Ga
   0.3451200000000000    0.0782733333333333    0.5000000000000000 Ga
   0.4065900000000000    0.1733866666666666    0.7432400000000000 Ga
   0.4875266666666667    0.0799266666666667    0.5069350000000000 Ga
   0.5778566666666667    0.1716100000000000    0.7420500000000000 Ga
   0.4260200000000000    0.9848733333333333    0.2557450000000000 Ga
   0.5836966666666666    0.1501566666666667    0.5092000000000000 Ga
   0.4171533333333333    0.9849466666666666    0.5118300000000000 Ga
   0.4159300000000000    0.1735300000000000    0.4875150000000000 Ga
   0.3261400000000000    0.2529300000000000    0.2536250000000000 Ga
   0.5113766666666666    0.2451233333333333    0.4903750000000000 Ga
   0.8387833333333332    0.2398633333333333    0.7459249999999999 Ga
   0.6543466666666666    0.2468200000000000    0.5086800000000000 Ga
   0.6784533333333334    0.4116066666666667    0.5000000000000000 Ga
   0.7399233333333333    0.5067199999999999    0.7432400000000000 Ga
   0.8208599999999999    0.4132600000000000    0.5069350000000000 Ga
   0.9111899999999999    0.5049433333333333    0.7420500000000000 Ga
   0.7593533333333333    0.3182066666666666    0.2557450000000000 Ga
   0.9170300000000000    0.4834900000000000    0.5092000000000000 Ga
   0.7504866666666666    0.3182800000000000    0.5118300000000000 Ga
   0.7492633333333333    0.5068633333333333    0.4875150000000000 Ga
   0.6594733333333334    0.5862633333333334    0.2536250000000000 Ga
   0.8447100000000000    0.5784566666666666    0.4903750000000000 Ga
   0.1721166666666666    0.5731966666666666    0.7459249999999999 Ga
   0.9876799999999999    0.5801533333333333    0.5086800000000000 Ga
   0.0117866666666667    0.7449399999999999    0.5000000000000000 Ga
   0.0732566666666667    0.8400533333333333    0.7432400000000000 Ga
   0.1541933333333333    0.7465933333333333    0.5069350000000000 Ga
   0.2445233333333333    0.8382766666666666    0.7420500000000000 Ga
   0.0926866666666667    0.6515400000000000    0.2557450000000000 Ga
   0.2503633333333333    0.8168233333333332    0.5092000000000000 Ga
   0.0838200000000000    0.6516133333333334    0.5118300000000000 Ga
   0.0825966666666667    0.8401966666666666    0.4875150000000000 Ga
   0.2535566666666667    0.6538900000000000    0.2563950000000000 Ga
   0.2487400000000000    0.6749366666666666    0.4893600000000000 Ga
   0.5868899999999999    0.9872233333333333    0.2563950000000000 Ga
   0.5820733333333333    0.0082700000000000    0.4893600000000000 Ga
   0.9202233333333333    0.3205566666666667    0.2563950000000000 Ga
   0.9154066666666666    0.3416033333333333    0.4893600000000000 Ga
   0.3261400000000000    0.9195966666666666    0.2536250000000000 Ga
   0.5113766666666666    0.9117899999999999    0.4903750000000000 Ga
   0.8387833333333332    0.9065299999999999    0.7459249999999999 Ga
   0.6543466666666666    0.9134866666666666    0.5086800000000000 Ga
   0.6784533333333334    0.0782733333333333    0.5000000000000000 Ga
   0.7399233333333333    0.1733866666666666    0.7432400000000000 Ga
   0.8208599999999999    0.0799266666666667    0.5069350000000000 Ga
   0.9111899999999999    0.1716100000000000    0.7420500000000000 Ga
   0.7593533333333333    0.9848733333333333    0.2557450000000000 Ga
   0.9170300000000000    0.1501566666666667    0.5092000000000000 Ga
   0.7504866666666666    0.9849466666666666    0.5118300000000000 Ga
   0.7492633333333333    0.1735300000000000    0.4875150000000000 Ga
   0.6594733333333334    0.2529300000000000    0.2536250000000000 Ga
   0.8447100000000000    0.2451233333333333    0.4903750000000000 Ga
   0.1721166666666666    0.2398633333333333    0.7459249999999999 Ga
   0.9876799999999999    0.2468200000000000    0.5086800000000000 Ga
   0.0117866666666667    0.4116066666666667    0.5000000000000000 Ga
   0.0732566666666667    0.5067199999999999    0.7432400000000000 Ga
   0.1541933333333333    0.4132600000000000    0.5069350000000000 Ga
   0.2445233333333333    0.5049433333333333    0.7420500000000000 Ga
   0.0926866666666667    0.3182066666666666    0.2557450000000000 Ga
   0.2503633333333333    0.4834900000000000    0.5092000000000000 Ga
   0.0838200000000000    0.3182800000000000    0.5118300000000000 Ga
   0.0825966666666667    0.5068633333333333    0.4875150000000000 Ga
   0.9928066666666666    0.5862633333333334    0.2536250000000000 Ga
   0.1780433333333333    0.5784566666666666    0.4903750000000000 Ga
   0.5054500000000000    0.5731966666666666    0.7459249999999999 Ga
   0.3210133333333333    0.5801533333333333    0.5086800000000000 Ga
   0.3451200000000000    0.7449399999999999    0.5000000000000000 Ga
   0.4065900000000000    0.8400533333333333    0.7432400000000000 Ga
   0.4875266666666667    0.7465933333333333    0.5069350000000000 Ga
   0.5778566666666667    0.8382766666666666    0.7420500000000000 Ga
   0.4260200000000000    0.6515400000000000    0.2557450000000000 Ga
   0.5836966666666666    0.8168233333333332    0.5092000000000000 Ga
   0.4171533333333333    0.6516133333333334    0.5118300000000000 Ga
   0.4159300000000000    0.8401966666666666    0.4875150000000000 Ga
   0.9202233333333333    0.9872233333333333    0.2563950000000000 Ga
   0.9154066666666666    0.0082700000000000    0.4893600000000000 Ga
   0.5868899999999999    0.6538900000000000    0.2563950000000000 Ga
   0.5820733333333333    0.6749366666666666    0.4893600000000000 Ga
   0.2535566666666667    0.3205566666666667    0.2563950000000000 Ga
   0.2487400000000000    0.3416033333333333    0.4893600000000000 Ga
   0.6594733333333334    0.9195966666666666    0.2536250000000000 Ga
   0.8447100000000000    0.9117899999999999    0.4903750000000000 Ga
   0.1721166666666666    0.9065299999999999    0.7459249999999999 Ga
   0.9876799999999999    0.9134866666666666    0.5086800000000000 Ga
   0.0117866666666667    0.0782733333333333    0.5000000000000000 Ga
   0.0732566666666667    0.1733866666666666    0.7432400000000000 Ga
   0.1541933333333333    0.0799266666666667    0.5069350000000000 Ga
   0.2445233333333333    0.1716100000000000    0.7420500000000000 Ga
   0.0926866666666667    0.9848733333333333    0.2557450000000000 Ga
   0.2503633333333333    0.1501566666666667    0.5092000000000000 Ga
   0.0838200000000000    0.9849466666666666    0.5118300000000000 Ga
   0.0825966666666667    0.1735300000000000    0.4875150000000000 Ga
   0.9928066666666666    0.2529300000000000    0.2536250000000000 Ga
   0.1780433333333333    0.2451233333333333    0.4903750000000000 Ga
   0.5054500000000000    0.2398633333333333    0.7459249999999999 Ga
   0.3210133333333333    0.2468200000000000    0.5086800000000000 Ga
   0.3451200000000000    0.4116066666666667    0.5000000000000000 Ga
   0.4065900000000000    0.5067199999999999    0.7432400000000000 Ga
   0.4875266666666667    0.4132600000000000    0.5069350000000000 Ga
   0.5778566666666667    0.5049433333333333    0.7420500000000000 Ga
   0.4260200000000000    0.3182066666666666    0.2557450000000000 Ga
   0.5836966666666666    0.4834900000000000    0.5092000000000000 Ga
   0.4171533333333333    0.3182800000000000    0.5118300000000000 Ga
   0.4159300000000000    0.5068633333333333    0.4875150000000000 Ga
   0.3261400000000000    0.5862633333333334    0.2536250000000000 Ga
   0.5113766666666666    0.5784566666666666    0.4903750000000000 Ga
   0.8387833333333332    0.5731966666666666    0.7459249999999999 Ga
   0.6543466666666666    0.5801533333333333    0.5086800000000000 Ga
   0.6784533333333334    0.7449399999999999    0.5000000000000000 Ga
   0.7399233333333333    0.8400533333333333    0.7432400000000000 Ga
   0.8208599999999999    0.7465933333333333    0.5069350000000000 Ga
   0.9111899999999999    0.8382766666666666    0.7420500000000000 Ga
   0.7593533333333333    0.6515400000000000    0.2557450000000000 Ga
   0.9170300000000000    0.8168233333333332    0.5092000000000000 Ga
   0.7504866666666666    0.6516133333333334    0.5118300000000000 Ga
   0.7492633333333333    0.8401966666666666    0.4875150000000000 Ga
   0.8325966666666667    0.0797433333333333    0.2487350000000000 Ga
   0.4992633333333333    0.7464100000000000    0.2487350000000000 Ga
   0.4992633333333333    0.0797433333333333    0.2487350000000000 Ga
   0.8325966666666667    0.0797433333333333    0.7487350000000000 Ga
   0.4992633333333333    0.7464100000000000    0.7487350000000000 Ga
   0.4992633333333333    0.4130766666666666    0.2487350000000000 Ga
   0.1659300000000000    0.4130766666666666    0.2487350000000000 Ga
   0.8325966666666667    0.4130766666666666    0.2487350000000000 Ga
   0.4992633333333333    0.0797433333333333    0.7487350000000000 Ga
   0.4992633333333333    0.4130766666666666    0.7487350000000000 Ga
   0.1659300000000000    0.7464100000000000    0.2487350000000000 Ga
   0.1659300000000000    0.0797433333333333    0.2487350000000000 Ga
   0.8325966666666667    0.7464100000000000    0.2487350000000000 Ga
   0.1659300000000000    0.4130766666666666    0.7487350000000000 Ga
   0.1659300000000000    0.7464100000000000    0.7487350000000000 Ga
   0.1659300000000000    0.0797433333333333    0.7487350000000000 Ga
   0.8325966666666667    0.4130766666666666    0.7487350000000000 Ga
   0.8325966666666667    0.7464100000000000    0.7487350000000000 Ga
   0.3330700000000000    0.0787166666666667    0.7496950000000000 Ga
   0.3330700000000000    0.0787166666666667    0.2496950000000000 Ga
   0.3330700000000000    0.4120500000000000    0.2496950000000000 Ga
   0.9997366666666666    0.4120500000000000    0.7496950000000000 Ga
   0.6664033333333332    0.0787166666666667    0.2496950000000000 Ga
   0.3330700000000000    0.7453833333333333    0.2496950000000000 Ga
   0.6664033333333332    0.7453833333333333    0.2496950000000000 Ga
   0.3330700000000000    0.4120500000000000    0.7496950000000000 Ga
   0.3330700000000000    0.7453833333333333    0.7496950000000000 Ga
   0.9997366666666666    0.0787166666666667    0.2496950000000000 Ga
   0.6664033333333332    0.4120500000000000    0.2496950000000000 Ga
   0.9997366666666666    0.4120500000000000    0.2496950000000000 Ga
   0.6664033333333332    0.0787166666666667    0.7496950000000000 Ga
   0.6664033333333332    0.4120500000000000    0.7496950000000000 Ga
   0.6664033333333332    0.7453833333333333    0.7496950000000000 Ga
   0.9997366666666666    0.7453833333333333    0.7496950000000000 Ga
   0.9997366666666666    0.0787166666666667    0.7496950000000000 Ga
   0.9997366666666666    0.7453833333333333    0.2496950000000000 Ga
   0.5855366666666666    0.0702833333333333    0.8066400000000000 P
   0.5876100000000000    0.0806100000000000    0.9414150000000000 P
   0.5855366666666666    0.7369500000000000    0.8066400000000000 P
   0.5876100000000000    0.7472766666666666    0.9414150000000000 P
   0.2522033333333333    0.4036166666666666    0.8066400000000000 P
   0.2542766666666667    0.4139433333333333    0.9414150000000000 P
   0.9188700000000000    0.0702833333333333    0.8066400000000000 P
   0.9209433333333332    0.0806100000000000    0.9414150000000000 P
   0.7536833333333333    0.9155766666666666    0.9424800000000000 P
   0.7426566666666666    0.9151666666666667    0.8085400000000000 P
   0.9217199999999999    0.9220433333333333    0.9400550000000000 P
   0.9168366666666666    0.9122833333333333    0.8077200000000000 P
   0.0787033333333333    0.9093700000000000    0.0566950000000000 P
   0.0893700000000000    0.9093899999999999    0.1903750000000000 P
   0.9105833333333333    0.9032399999999999    0.0588600000000000 P
   0.9148166666666666    0.9135033333333333    0.1913350000000000 P
   0.0791666666666667    0.0889200000000000    0.1935500000000000 P
   0.0792200000000000    0.0726800000000000    0.0596350000000000 P
   0.2466166666666667    0.0883833333333333    0.1919650000000000 P
   0.2451766666666667    0.0778666666666667    0.0571200000000000 P
   0.0866500000000000    0.0694766666666667    0.8049800000000000 P
   0.0870900000000000    0.0860666666666667    0.9389799999999999 P
   0.0870166666666667    0.2489100000000000    0.9424800000000000 P
   0.0759900000000000    0.2485000000000000    0.8085400000000000 P
   0.2550533333333333    0.2553766666666666    0.9400550000000000 P
   0.2501700000000000    0.2456166666666666    0.8077200000000000 P
   0.4120366666666666    0.2427033333333333    0.0566950000000000 P
   0.4227033333333333    0.2427233333333333    0.1903750000000000 P
   0.2439166666666667    0.2365733333333333    0.0588600000000000 P
   0.2481500000000000    0.2468366666666666    0.1913350000000000 P
   0.4125000000000000    0.4222533333333333    0.1935500000000000 P
   0.4125533333333333    0.4060133333333333    0.0596350000000000 P
   0.5799500000000000    0.4217166666666666    0.1919650000000000 P
   0.5785100000000000    0.4112000000000000    0.0571200000000000 P
   0.4199833333333333    0.4028100000000000    0.8049800000000000 P
   0.4204233333333333    0.4194000000000000    0.9389799999999999 P
   0.4203500000000000    0.5822433333333333    0.9424800000000000 P
   0.4093233333333333    0.5818333333333333    0.8085400000000000 P
   0.5883866666666666    0.5887100000000000    0.9400550000000000 P
   0.5835033333333333    0.5789500000000000    0.8077200000000000 P
   0.7453700000000000    0.5760366666666666    0.0566950000000000 P
   0.7560366666666667    0.5760566666666667    0.1903750000000000 P
   0.5772500000000000    0.5699066666666667    0.0588600000000000 P
   0.5814833333333334    0.5801700000000000    0.1913350000000000 P
   0.7458333333333333    0.7555866666666666    0.1935500000000000 P
   0.7458866666666666    0.7393466666666666    0.0596350000000000 P
   0.9132833333333332    0.7550500000000000    0.1919650000000000 P
   0.9118433333333333    0.7445333333333333    0.0571200000000000 P
   0.7533166666666666    0.7361433333333333    0.8049800000000000 P
   0.7537566666666666    0.7527333333333333    0.9389799999999999 P
   0.2522033333333333    0.0702833333333333    0.8066400000000000 P
   0.2542766666666667    0.0806100000000000    0.9414150000000000 P
   0.9188700000000000    0.7369500000000000    0.8066400000000000 P
   0.9209433333333332    0.7472766666666666    0.9414150000000000 P
   0.5855366666666666    0.4036166666666666    0.8066400000000000 P
   0.5876100000000000    0.4139433333333333    0.9414150000000000 P
   0.0870166666666667    0.9155766666666666    0.9424800000000000 P
   0.0759900000000000    0.9151666666666667    0.8085400000000000 P
   0.2550533333333333    0.9220433333333333    0.9400550000000000 P
   0.2501700000000000    0.9122833333333333    0.8077200000000000 P
   0.4120366666666666    0.9093700000000000    0.0566950000000000 P
   0.4227033333333333    0.9093899999999999    0.1903750000000000 P
   0.2439166666666667    0.9032399999999999    0.0588600000000000 P
   0.2481500000000000    0.9135033333333333    0.1913350000000000 P
   0.4125000000000000    0.0889200000000000    0.1935500000000000 P
   0.4125533333333333    0.0726800000000000    0.0596350000000000 P
   0.5799500000000000    0.0883833333333333    0.1919650000000000 P
   0.5785100000000000    0.0778666666666667    0.0571200000000000 P
   0.4199833333333333    0.0694766666666667    0.8049800000000000 P
   0.4204233333333333    0.0860666666666667    0.9389799999999999 P
   0.4203500000000000    0.2489100000000000    0.9424800000000000 P
   0.4093233333333333    0.2485000000000000    0.8085400000000000 P
   0.5883866666666666    0.2553766666666666    0.9400550000000000 P
   0.5835033333333333    0.2456166666666666    0.8077200000000000 P
   0.7453700000000000    0.2427033333333333    0.0566950000000000 P
   0.7560366666666667    0.2427233333333333    0.1903750000000000 P
   0.5772500000000000    0.2365733333333333    0.0588600000000000 P
   0.5814833333333334    0.2468366666666666    0.1913350000000000 P
   0.7458333333333333    0.4222533333333333    0.1935500000000000 P
   0.7458866666666666    0.4060133333333333    0.0596350000000000 P
   0.9132833333333332    0.4217166666666666    0.1919650000000000 P
   0.9118433333333333    0.4112000000000000    0.0571200000000000 P
   0.7533166666666666    0.4028100000000000    0.8049800000000000 P
   0.7537566666666666    0.4194000000000000    0.9389799999999999 P
   0.7536833333333333    0.5822433333333333    0.9424800000000000 P
   0.7426566666666666    0.5818333333333333    0.8085400000000000 P
   0.9217199999999999    0.5887100000000000    0.9400550000000000 P
   0.9168366666666666    0.5789500000000000    0.8077200000000000 P
   0.0787033333333333    0.5760366666666666    0.0566950000000000 P
   0.0893700000000000    0.5760566666666667    0.1903750000000000 P
   0.9105833333333333    0.5699066666666667    0.0588600000000000 P
   0.9148166666666666    0.5801700000000000    0.1913350000000000 P
   0.0791666666666667    0.7555866666666666    0.1935500000000000 P
   0.0792200000000000    0.7393466666666666    0.0596350000000000 P
   0.2466166666666667    0.7550500000000000    0.1919650000000000 P
   0.2451766666666667    0.7445333333333333    0.0571200000000000 P
   0.0866500000000000    0.7361433333333333    0.8049800000000000 P
   0.0870900000000000    0.7527333333333333    0.9389799999999999 P
   0.2522033333333333    0.7369500000000000    0.8066400000000000 P
   0.2542766666666667    0.7472766666666666    0.9414150000000000 P
   0.9188700000000000    0.4036166666666666    0.8066400000000000 P
   0.9209433333333332    0.4139433333333333    0.9414150000000000 P
   0.4203500000000000    0.9155766666666666    0.9424800000000000 P
   0.4093233333333333    0.9151666666666667    0.8085400000000000 P
   0.7453700000000000    0.9093700000000000    0.0566950000000000 P
   0.7560366666666667    0.9093899999999999    0.1903750000000000 P
   0.5772500000000000    0.9032399999999999    0.0588600000000000 P
   0.5814833333333334    0.9135033333333333    0.1913350000000000 P
   0.7458333333333333    0.0889200000000000    0.1935500000000000 P
   0.7458866666666666    0.0726800000000000    0.0596350000000000 P
   0.9132833333333332    0.0883833333333333    0.1919650000000000 P
   0.9118433333333333    0.0778666666666667    0.0571200000000000 P
   0.7533166666666666    0.0694766666666667    0.8049800000000000 P
   0.7537566666666666    0.0860666666666667    0.9389799999999999 P
   0.7536833333333333    0.2489100000000000    0.9424800000000000 P
   0.7426566666666666    0.2485000000000000    0.8085400000000000 P
   0.9217199999999999    0.2553766666666666    0.9400550000000000 P
   0.9168366666666666    0.2456166666666666    0.8077200000000000 P
   0.0787033333333333    0.2427033333333333    0.0566950000000000 P
   0.0893700000000000    0.2427233333333333    0.1903750000000000 P
   0.9105833333333333    0.2365733333333333    0.0588600000000000 P
   0.9148166666666666    0.2468366666666666    0.1913350000000000 P
   0.0791666666666667    0.4222533333333333    0.1935500000000000 P
   0.0792200000000000    0.4060133333333333    0.0596350000000000 P
   0.2466166666666667    0.4217166666666666    0.1919650000000000 P
   0.2451766666666667    0.4112000000000000    0.0571200000000000 P
   0.0866500000000000    0.4028100000000000    0.8049800000000000 P
   0.0870900000000000    0.4194000000000000    0.9389799999999999 P
   0.0870166666666667    0.5822433333333333    0.9424800000000000 P
   0.0759900000000000    0.5818333333333333    0.8085400000000000 P
   0.2550533333333333    0.5887100000000000    0.9400550000000000 P
   0.2501700000000000    0.5789500000000000    0.8077200000000000 P
   0.4120366666666666    0.5760366666666666    0.0566950000000000 P
   0.4227033333333333    0.5760566666666667    0.1903750000000000 P
   0.2439166666666667    0.5699066666666667    0.0588600000000000 P
   0.2481500000000000    0.5801700000000000    0.1913350000000000 P
   0.4125000000000000    0.7555866666666666    0.1935500000000000 P
   0.4125533333333333    0.7393466666666666    0.0596350000000000 P
   0.5799500000000000    0.7550500000000000    0.1919650000000000 P
   0.5785100000000000    0.7445333333333333    0.0571200000000000 P
   0.4199833333333333    0.7361433333333333    0.8049800000000000 P
   0.4204233333333333    0.7527333333333333    0.9389799999999999 P
   0.2522033333333333    0.0702833333333333    0.3066400000000000 P
   0.2542766666666667    0.0806100000000000    0.4414150000000000 P