C2 O4
1.0
  28.0779984561748641    0.0000000000000000    0.0093110172294762
   0.0068772018568132   28.1359983195824519   -0.0068749216683636
   0.0000000000000000    0.0000000000000000   29.5820000000000007
C O
2 4
direct
   0.8099000000000001    0.9788000000000000    0.6716299999999999 C
   0.7710200000000000    0.9400550000000000    0.6716500000000000 C
   0.8086200000000000    0.0108750000000000    0.7008500000000000 O
   0.8416950000000001    0.9749600000000000    0.6405450000000000 O
   0.7388650000000000    0.9413300000000000    0.7008550000000000 O
   0.7749550000000001    0.9083000000000000    0.6405900000000000 O
