Cu88 H390 C350 N192 O192
1.0
  28.0779984561748641    0.0000000000000000    0.0093110172294762
   0.0068772018568132   28.1359983195824519   -0.0068749216683636
   0.0000000000000000    0.0000000000000000   29.5820000000000007
Cu H C N O
88 390 350 192 192
direct
   0.0829900000000000    0.6669400000000000    0.8963250000000000 Cu
   0.1670000000000000    0.5830800000000000    0.8963000000000000 Cu
   0.3329700000000000    0.9169499999999999    0.1036800000000000 Cu
   0.4170150000000000    0.8330200000000000    0.1036800000000000 Cu
   0.2499950000000000    0.7500000000000000    0.0000000000000000 Cu
   0.5829900000000000    0.1669400000000000    0.8963250000000000 Cu
   0.6670000000000000    0.0830800000000000    0.8963000000000000 Cu
   0.8329700000000000    0.4169500000000000    0.1036800000000000 Cu
   0.9170150000000000    0.3330200000000000    0.1036800000000000 Cu
   0.7499950000000000    0.2500000000000000    0.0000000000000000 Cu
   0.4170200000000000    0.9169300000000000    0.8537200000000000 Cu
   0.3329600000000000    0.8330850000000001    0.8537250000000001 Cu
   0.5829700000000000    0.5830649999999999    0.6462950000000001 Cu
   0.6670250000000000    0.6669100000000000    0.6462900000000000 Cu
   0.4999950000000000    0.7499899999999999    0.7500100000000001 Cu
   0.7499950000000000    0.5000150000000000    0.7500200000000000 Cu
   0.9170199999999999    0.4169300000000000    0.8537200000000000 Cu
   0.8329599999999999    0.3330850000000000    0.8537250000000001 Cu
   0.0829700000000000    0.0830650000000000    0.6462950000000001 Cu
   0.1670250000000000    0.1669100000000000    0.6462900000000000 Cu
   0.9999950000000000    0.2499900000000000    0.7500100000000001 Cu
   0.2499950000000000    0.0000150000000000    0.7500200000000000 Cu
   0.0829900000000000    0.6669400000000000    0.3963250000000000 Cu
   0.1670000000000000    0.5830800000000000    0.3963000000000000 Cu
   0.3329700000000000    0.9169499999999999    0.6036800000000000 Cu
   0.4170150000000000    0.8330200000000000    0.6036800000000000 Cu
   0.2499950000000000    0.7500000000000000    0.5000000000000000 Cu
   0.5829900000000000    0.1669400000000000    0.3963250000000000 Cu
   0.6670000000000000    0.0830800000000000    0.3963000000000000 Cu
   0.8329700000000000    0.4169500000000000    0.6036800000000000 Cu
   0.9170150000000000    0.3330200000000000    0.6036800000000000 Cu
   0.7499950000000000    0.2500000000000000    0.5000000000000000 Cu
   0.4170200000000000    0.9169300000000000    0.3537200000000000 Cu
   0.3329600000000000    0.8330850000000001    0.3537250000000000 Cu
   0.5829700000000000    0.5830649999999999    0.1462950000000000 Cu
   0.6670250000000000    0.6669100000000000    0.1462900000000000 Cu
   0.4999950000000000    0.7499899999999999    0.2500100000000000 Cu
   0.7499950000000000    0.5000150000000000    0.2500200000000000 Cu
   0.9170199999999999    0.4169300000000000    0.3537200000000000 Cu
   0.8329599999999999    0.3330850000000000    0.3537250000000000 Cu
   0.0829700000000000    0.0830650000000000    0.1462950000000000 Cu
   0.1670250000000000    0.1669100000000000    0.1462900000000000 Cu
   0.9999950000000000    0.2499900000000000    0.2500100000000000 Cu
   0.2499950000000000    0.0000150000000000    0.2500200000000000 Cu
   0.0829900000000000    0.1669400000000000    0.3963250000000000 Cu
   0.1670000000000000    0.0830800000000000    0.3963000000000000 Cu
   0.3329700000000000    0.4169500000000000    0.6036800000000000 Cu
   0.4170150000000000    0.3330200000000000    0.6036800000000000 Cu
   0.2499950000000000    0.2500000000000000    0.5000000000000000 Cu
   0.0829900000000000    0.1669400000000000    0.8963250000000000 Cu
   0.1670000000000000    0.0830800000000000    0.8963000000000000 Cu
   0.3329700000000000    0.4169500000000000    0.1036800000000000 Cu
   0.4170150000000000    0.3330200000000000    0.1036800000000000 Cu
   0.2499950000000000    0.2500000000000000    0.0000000000000000 Cu
   0.5829900000000000    0.6669400000000000    0.8963250000000000 Cu
   0.6670000000000000    0.5830800000000000    0.8963000000000000 Cu
   0.8329700000000000    0.9169499999999999    0.1036800000000000 Cu
   0.9170150000000000    0.8330200000000000    0.1036800000000000 Cu
   0.7499950000000000    0.7500000000000000    0.0000000000000000 Cu
   0.5829900000000000    0.6669400000000000    0.3963250000000000 Cu
   0.6670000000000000    0.5830800000000000    0.3963000000000000 Cu
   0.4170200000000000    0.4169300000000000    0.8537200000000000 Cu
   0.3329600000000000    0.3330850000000000    0.8537250000000001 Cu
   0.9170150000000000    0.8330200000000000    0.6036800000000000 Cu
   0.8329700000000000    0.9169499999999999    0.6036800000000000 Cu
   0.5829700000000000    0.0830650000000000    0.6462950000000001 Cu
   0.6670250000000000    0.1669100000000000    0.6462900000000000 Cu
   0.7499950000000000    0.7500000000000000    0.5000000000000000 Cu
   0.4999950000000000    0.2499900000000000    0.7500100000000001 Cu
   0.7499950000000000    0.0000150000000000    0.7500200000000000 Cu
   0.9170199999999999    0.9169300000000000    0.8537200000000000 Cu
   0.8329599999999999    0.8330850000000001    0.8537250000000001 Cu
   0.0829700000000000    0.5830649999999999    0.6462950000000001 Cu
   0.1670250000000000    0.6669100000000000    0.6462900000000000 Cu
   0.9999950000000000    0.7499899999999999    0.7500100000000001 Cu
   0.2499950000000000    0.5000150000000000    0.7500200000000000 Cu
   0.4170200000000000    0.4169300000000000    0.3537200000000000 Cu
   0.3329600000000000    0.3330850000000000    0.3537250000000000 Cu
   0.5829700000000000    0.0830650000000000    0.1462950000000000 Cu
   0.6670250000000000    0.1669100000000000    0.1462900000000000 Cu
   0.4999950000000000    0.2499900000000000    0.2500100000000000 Cu
   0.7499950000000000    0.0000150000000000    0.2500200000000000 Cu
   0.9170199999999999    0.9169300000000000    0.3537200000000000 Cu
   0.8329599999999999    0.8330850000000001    0.3537250000000000 Cu
   0.0829700000000000    0.5830649999999999    0.1462950000000000 Cu
   0.1670250000000000    0.6669100000000000    0.1462900000000000 Cu
   0.9999950000000000    0.7499899999999999    0.2500100000000000 Cu
   0.2499950000000000    0.5000150000000000    0.2500200000000000 Cu
   0.2614150000000000    0.6022050000000000    0.9380900000000000 H
   0.2920150000000000    0.6572450000000000    0.9452150000000000 H
   0.2671950000000000    0.6288150000000000    0.9930550000000000 H
   0.1015950000000000    0.7608699999999999    0.9385250000000001 H
   0.1566050000000000    0.7917050000000000    0.9454350000000000 H
   0.1284600000000000    0.7667649999999999    0.9933700000000000 H
   0.1483450000000000    0.4892200000000000    0.9385500000000000 H
   0.0933050000000000    0.4584000000000000    0.9454100000000000 H
   0.1213950000000000    0.4833300000000000    0.9933799999999999 H
   0.9885400000000000    0.6479400000000000    0.9382550000000001 H
   0.9579450000000000    0.5928800000000000    0.9452450000000000 H
   0.9826850000000000    0.6212200000000000    0.9931600000000000 H
   0.3516250000000000    0.0108450000000000    0.0614200000000000 H
   0.4066900000000000    0.0416300000000000    0.0546150000000000 H
   0.3786200000000000    0.0167450000000000    0.0066000000000000 H
   0.5115000000000000    0.8521400000000000    0.0617950000000000 H
   0.5420500000000000    0.9072150000000000    0.0546900000000000 H
   0.5172750000000000    0.8787750000000000    0.0068450000000000 H
   0.2384950000000000    0.8978750000000000    0.0618550000000000 H
   0.2079050000000000    0.8428300000000000    0.0547050000000000 H
   0.2327500000000000    0.8712650000000000    0.0068800000000000 H
   0.3982400000000000    0.7390700000000000    0.0615000000000000 H
   0.3431900000000000    0.7083050000000000    0.0545800000000000 H
   0.3713950000000000    0.7332150000000000    0.0066600000000000 H
   0.7614150000000000    0.1022050000000000    0.9380900000000000 H
   0.7920150000000000    0.1572450000000000    0.9452150000000000 H
   0.7671950000000001    0.1288150000000000    0.9930550000000000 H
   0.6015950000000000    0.2608700000000000    0.9385250000000001 H
   0.6566050000000000    0.2917050000000000    0.9454350000000000 H
   0.6284600000000000    0.2667650000000000    0.9933700000000000 H
   0.6483449999999999    0.9892200000000000    0.9385500000000000 H
   0.5933050000000000    0.9583999999999999    0.9454100000000000 H
   0.6213950000000000    0.9833300000000000    0.9933799999999999 H
   0.4885400000000000    0.1479400000000000    0.9382550000000001 H
   0.4579450000000000    0.0928800000000000    0.9452450000000000 H
   0.4826850000000000    0.1212200000000000    0.9931600000000000 H
   0.8516250000000001    0.5108450000000000    0.0614200000000000 H
   0.9066900000000000    0.5416300000000001    0.0546150000000000 H
   0.8786200000000000    0.5167450000000000    0.0066000000000000 H
   0.0115000000000000    0.3521400000000000    0.0617950000000000 H
   0.0420500000000000    0.4072150000000000    0.0546900000000000 H
   0.0172750000000000    0.3787750000000000    0.0068450000000000 H
   0.7384950000000000    0.3978750000000000    0.0618550000000000 H
   0.7079050000000000    0.3428300000000000    0.0547050000000000 H
   0.7327500000000000    0.3712650000000000    0.0068800000000000 H
   0.8982399999999999    0.2390700000000000    0.0615000000000000 H
   0.8431900000000000    0.2083050000000000    0.0545800000000000 H
   0.8713949999999999    0.2332150000000000    0.0066600000000000 H
   0.3983250000000000    0.0109900000000000    0.8116099999999999 H
   0.3432700000000000    0.0417450000000000    0.8045850000000000 H
   0.3715400000000000    0.0167750000000000    0.7567100000000000 H
   0.2385950000000000    0.8522850000000000    0.8120800000000000 H
   0.2080300000000000    0.9073249999999999    0.8047750000000000 H
   0.2329100000000000    0.8787300000000000    0.7570450000000000 H
   0.5114649999999999    0.8977150000000000    0.8120900000000000 H
   0.5420000000000000    0.8426700000000000    0.8046900000000000 H
   0.5171350000000000    0.8713250000000000    0.7570049999999999 H
   0.3517250000000000    0.7390500000000000    0.8116900000000000 H
   0.4067750000000000    0.7082850000000001    0.8046249999999999 H
   0.3784850000000000    0.7332150000000000    0.7567699999999999 H
   0.6016650000000000    0.4890200000000000    0.6884200000000000 H
   0.6567300000000000    0.4582700000000000    0.6954000000000000 H
   0.6284700000000000    0.4832100000000000    0.7433100000000000 H
   0.7613700000000000    0.6477500000000000    0.6879500000000001 H
   0.7919499999999999    0.5927000000000000    0.6951200000000000 H
   0.7671650000000000    0.6212050000000000    0.7429450000000000 H
   0.6482550000000000    0.7609399999999999    0.6883400000000000 H
   0.5932050000000000    0.7917000000000001    0.6953500000000000 H
   0.6214800000000000    0.7667800000000000    0.7432550000000000 H
   0.4885600000000000    0.6022149999999999    0.6880100000000000 H
   0.4579950000000000    0.6572750000000001    0.6952000000000000 H
   0.4827700000000000    0.6287700000000001    0.7430099999999999 H
   0.8983250000000000    0.5109900000000001    0.8116099999999999 H
   0.8432700000000000    0.5417450000000000    0.8045850000000000 H
   0.8715400000000000    0.5167750000000000    0.7567100000000000 H
   0.7385950000000000    0.3522850000000000    0.8120800000000000 H
   0.7080299999999999    0.4073250000000000    0.8047750000000000 H
   0.7329100000000000    0.3787300000000000    0.7570450000000000 H
   0.0114650000000000    0.3977150000000000    0.8120900000000000 H
   0.0420000000000000    0.3426700000000000    0.8046900000000000 H
   0.0171350000000000    0.3713250000000000    0.7570049999999999 H
   0.8517250000000001    0.2390500000000000    0.8116900000000000 H
   0.9067750000000000    0.2082850000000000    0.8046249999999999 H
   0.8784850000000000    0.2332150000000000    0.7567699999999999 H
   0.1016650000000000    0.9890200000000000    0.6884200000000000 H
   0.1567300000000000    0.9582700000000000    0.6954000000000000 H
   0.1284700000000000    0.9832099999999999    0.7433100000000000 H
   0.2613700000000000    0.1477500000000000    0.6879500000000001 H
   0.2919500000000000    0.0927000000000000    0.6951200000000000 H
   0.2671650000000000    0.1212050000000000    0.7429450000000000 H
   0.1482550000000000    0.2609400000000000    0.6883400000000000 H
   0.0932050000000000    0.2917000000000000    0.6953500000000000 H
   0.1214800000000000    0.2667800000000000    0.7432550000000000 H
   0.9885600000000000    0.1022150000000000    0.6880100000000000 H
   0.9579949999999999    0.1572750000000000    0.6952000000000000 H
   0.9827699999999999    0.1287700000000000    0.7430099999999999 H
   0.2614150000000000    0.6022050000000000    0.4380900000000000 H
   0.2920150000000000    0.6572450000000000    0.4452150000000000 H
   0.2671950000000000    0.6288150000000000    0.4930550000000000 H
   0.1015950000000000    0.7608699999999999    0.4385250000000000 H
   0.1566050000000000    0.7917050000000000    0.4454350000000000 H
   0.1284600000000000    0.7667649999999999    0.4933700000000000 H
   0.1483450000000000    0.4892200000000000    0.4385500000000000 H
   0.0933050000000000    0.4584000000000000    0.4454100000000000 H
   0.1213950000000000    0.4833300000000000    0.4933800000000000 H
   0.9885400000000000    0.6479400000000000    0.4382550000000000 H
   0.9579450000000000    0.5928800000000000    0.4452450000000000 H
   0.9826850000000000    0.6212200000000000    0.4931600000000000 H
   0.3516250000000000    0.0108450000000000    0.5614200000000000 H
   0.4066900000000000    0.0416300000000000    0.5546150000000000 H
   0.3786200000000000    0.0167450000000000    0.5066000000000001 H
   0.5115000000000000    0.8521400000000000    0.5617950000000000 H
   0.5420500000000000    0.9072150000000000    0.5546900000000000 H
   0.5172750000000000    0.8787750000000000    0.5068450000000000 H
   0.2384950000000000    0.8978750000000000    0.5618550000000000 H
   0.2079050000000000    0.8428300000000000    0.5547050000000000 H
   0.2327500000000000    0.8712650000000000    0.5068800000000000 H
   0.3982400000000000    0.7390700000000000    0.5615000000000000 H
   0.3431900000000000    0.7083050000000000    0.5545800000000000 H
   0.3713950000000000    0.7332150000000000    0.5066600000000000 H
   0.7614150000000000    0.1022050000000000    0.4380900000000000 H
   0.7920150000000000    0.1572450000000000    0.4452150000000000 H
   0.7671950000000001    0.1288150000000000    0.4930550000000000 H
   0.6015950000000000    0.2608700000000000    0.4385250000000000 H
   0.6566050000000000    0.2917050000000000    0.4454350000000000 H
   0.6284600000000000    0.2667650000000000    0.4933700000000000 H
   0.6483449999999999    0.9892200000000000    0.4385500000000000 H
   0.5933050000000000    0.9583999999999999    0.4454100000000000 H
   0.6213950000000000    0.9833300000000000    0.4933800000000000 H
   0.4885400000000000    0.1479400000000000    0.4382550000000000 H
   0.4579450000000000    0.0928800000000000    0.4452450000000000 H
   0.4826850000000000    0.1212200000000000    0.4931600000000000 H
   0.8516250000000001    0.5108450000000000    0.5614200000000000 H
   0.9066900000000000    0.5416300000000001    0.5546150000000000 H
   0.8786200000000000    0.5167450000000000    0.5066000000000001 H
   0.0115000000000000    0.3521400000000000    0.5617950000000000 H
   0.0420500000000000    0.4072150000000000    0.5546900000000000 H
   0.0172750000000000    0.3787750000000000    0.5068450000000000 H
   0.7384950000000000    0.3978750000000000    0.5618550000000000 H
   0.7079050000000000    0.3428300000000000    0.5547050000000000 H
   0.7327500000000000    0.3712650000000000    0.5068800000000000 H
   0.8982399999999999    0.2390700000000000    0.5615000000000000 H
   0.8431900000000000    0.2083050000000000    0.5545800000000000 H
   0.8713949999999999    0.2332150000000000    0.5066600000000000 H
   0.3983250000000000    0.0109900000000000    0.3116100000000000 H
   0.3432700000000000    0.0417450000000000    0.3045850000000000 H
   0.3715400000000000    0.0167750000000000    0.2567100000000000 H
   0.2385950000000000    0.8522850000000000    0.3120800000000000 H
   0.2080300000000000    0.9073249999999999    0.3047750000000000 H
   0.2329100000000000    0.8787300000000000    0.2570450000000000 H
   0.5114649999999999    0.8977150000000000    0.3120900000000000 H
   0.5420000000000000    0.8426700000000000    0.3046900000000000 H
   0.5171350000000000    0.8713250000000000    0.2570050000000000 H
   0.3517250000000000    0.7390500000000000    0.3116900000000000 H
   0.4067750000000000    0.7082850000000001    0.3046250000000000 H
   0.3784850000000000    0.7332150000000000    0.2567700000000000 H
   0.6016650000000000    0.4890200000000000    0.1884200000000000 H
   0.6567300000000000    0.4582700000000000    0.1954000000000000 H
   0.6284700000000000    0.4832100000000000    0.2433100000000000 H
   0.7613700000000000    0.6477500000000000    0.1879500000000000 H
   0.7919499999999999    0.5927000000000000    0.1951200000000000 H
   0.7671650000000000    0.6212050000000000    0.2429450000000000 H
   0.6482550000000000    0.7609399999999999    0.1883400000000000 H
   0.5932050000000000    0.7917000000000001    0.1953500000000000 H
   0.6214800000000000    0.7667800000000000    0.2432550000000000 H
   0.4885600000000000    0.6022149999999999    0.1880100000000000 H
   0.4579950000000000    0.6572750000000001    0.1952000000000000 H
   0.4827700000000000    0.6287700000000001    0.2430100000000000 H
   0.8983250000000000    0.5109900000000001    0.3116100000000000 H
   0.8432700000000000    0.5417450000000000    0.3045850000000000 H
   0.8715400000000000    0.5167750000000000    0.2567100000000000 H
   0.7385950000000000    0.3522850000000000    0.3120800000000000 H
   0.7080299999999999    0.4073250000000000    0.3047750000000000 H
   0.7329100000000000    0.3787300000000000    0.2570450000000000 H
   0.0114650000000000    0.3977150000000000    0.3120900000000000 H
   0.0420000000000000    0.3426700000000000    0.3046900000000000 H
   0.0171350000000000    0.3713250000000000    0.2570050000000000 H
   0.8517250000000001    0.2390500000000000    0.3116900000000000 H
   0.9067750000000000    0.2082850000000000    0.3046250000000000 H
   0.8784850000000000    0.2332150000000000    0.2567700000000000 H
   0.1016650000000000    0.9890200000000000    0.1884200000000000 H
   0.1567300000000000    0.9582700000000000    0.1954000000000000 H
   0.1284700000000000    0.9832099999999999    0.2433100000000000 H
   0.2613700000000000    0.1477500000000000    0.1879500000000000 H
   0.2919500000000000    0.0927000000000000    0.1951200000000000 H
   0.2671650000000000    0.1212050000000000    0.2429450000000000 H
   0.1482550000000000    0.2609400000000000    0.1883400000000000 H
   0.0932050000000000    0.2917000000000000    0.1953500000000000 H
   0.1214800000000000    0.2667800000000000    0.2432550000000000 H
   0.9885600000000000    0.1022150000000000    0.1880100000000000 H
   0.9579949999999999    0.1572750000000000    0.1952000000000000 H
   0.9827699999999999    0.1287700000000000    0.2430100000000000 H
   0.2614150000000000    0.1022050000000000    0.4380900000000000 H
   0.2920150000000000    0.1572450000000000    0.4452150000000000 H
   0.2671950000000000    0.1288150000000000    0.4930550000000000 H
   0.1015950000000000    0.2608700000000000    0.4385250000000000 H
   0.1566050000000000    0.2917050000000000    0.4454350000000000 H
   0.1284600000000000    0.2667650000000000    0.4933700000000000 H
   0.1483450000000000    0.9892200000000000    0.4385500000000000 H
   0.0933050000000000    0.9583999999999999    0.4454100000000000 H
   0.1213950000000000    0.9833300000000000    0.4933800000000000 H
   0.9885400000000000    0.1479400000000000    0.4382550000000000 H
   0.9579450000000000    0.0928800000000000    0.4452450000000000 H
   0.9826850000000000    0.1212200000000000    0.4931600000000000 H
   0.3516250000000000    0.5108450000000000    0.5614200000000000 H
   0.4066900000000000    0.5416300000000001    0.5546150000000000 H
   0.3786200000000000    0.5167450000000000    0.5066000000000001 H
   0.5115000000000000    0.3521400000000000    0.5617950000000000 H
   0.5420500000000000    0.4072150000000000    0.5546900000000000 H
   0.5172750000000000    0.3787750000000000    0.5068450000000000 H
   0.2384950000000000    0.3978750000000000    0.5618550000000000 H
   0.2079050000000000    0.3428300000000000    0.5547050000000000 H
   0.2327500000000000    0.3712650000000000    0.5068800000000000 H
   0.3982400000000000    0.2390700000000000    0.5615000000000000 H
   0.3431900000000000    0.2083050000000000    0.5545800000000000 H
   0.3713950000000000    0.2332150000000000    0.5066600000000000 H
   0.2614150000000000    0.1022050000000000    0.9380900000000000 H
   0.2920150000000000    0.1572450000000000    0.9452150000000000 H
   0.2671950000000000    0.1288150000000000    0.9930550000000000 H
   0.1015950000000000    0.2608700000000000    0.9385250000000001 H
   0.1566050000000000    0.2917050000000000    0.9454350000000000 H
   0.1284600000000000    0.2667650000000000    0.9933700000000000 H
   0.1483450000000000    0.9892200000000000    0.9385500000000000 H
   0.0933050000000000    0.9583999999999999    0.9454100000000000 H
   0.1213950000000000    0.9833300000000000    0.9933799999999999 H
   0.9885400000000000    0.1479400000000000    0.9382550000000001 H
   0.9579450000000000    0.0928800000000000    0.9452450000000000 H
   0.9826850000000000    0.1212200000000000    0.9931600000000000 H
   0.3516250000000000    0.5108450000000000    0.0614200000000000 H
   0.4066900000000000    0.5416300000000001    0.0546150000000000 H
   0.3786200000000000    0.5167450000000000    0.0066000000000000 H
   0.5115000000000000    0.3521400000000000    0.0617950000000000 H
   0.5420500000000000    0.4072150000000000    0.0546900000000000 H
   0.5172750000000000    0.3787750000000000    0.0068450000000000 H
   0.2384950000000000    0.3978750000000000    0.0618550000000000 H
   0.2079050000000000    0.3428300000000000    0.0547050000000000 H
   0.2327500000000000    0.3712650000000000    0.0068800000000000 H
   0.3982400000000000    0.2390700000000000    0.0615000000000000 H
   0.3431900000000000    0.2083050000000000    0.0545800000000000 H
   0.3713950000000000    0.2332150000000000    0.0066600000000000 H
   0.7614150000000000    0.6022050000000000    0.9380900000000000 H
   0.7920150000000000    0.6572450000000000    0.9452150000000000 H
   0.7671950000000001    0.6288150000000000    0.9930550000000000 H
   0.6015950000000000    0.7608699999999999    0.9385250000000001 H
   0.6566050000000000    0.7917050000000000    0.9454350000000000 H
   0.6284600000000000    0.7667649999999999    0.9933700000000000 H
   0.6483449999999999    0.4892200000000000    0.9385500000000000 H
   0.5933050000000000    0.4584000000000000    0.9454100000000000 H
   0.6213950000000000    0.4833300000000000    0.9933799999999999 H
   0.4885400000000000    0.6479400000000000    0.9382550000000001 H
   0.4579450000000000    0.5928800000000000    0.9452450000000000 H
   0.4826850000000000    0.6212200000000000    0.9931600000000000 H
   0.8516250000000001    0.0108450000000000    0.0614200000000000 H
   0.9066900000000000    0.0416300000000000    0.0546150000000000 H
   0.8786200000000000    0.0167450000000000    0.0066000000000000 H
   0.0115000000000000    0.8521400000000000    0.0617950000000000 H
   0.0420500000000000    0.9072150000000000    0.0546900000000000 H
   0.0172750000000000    0.8787750000000000    0.0068450000000000 H
   0.7384950000000000    0.8978750000000000    0.0618550000000000 H
   0.7079050000000000    0.8428300000000000    0.0547050000000000 H
   0.7327500000000000    0.8712650000000000    0.0068800000000000 H
   0.8982399999999999    0.7390700000000000    0.0615000000000000 H
   0.8431900000000000    0.7083050000000000    0.0545800000000000 H
   0.8713949999999999    0.7332150000000000    0.0066600000000000 H
   0.7614150000000000    0.6022050000000000    0.4380900000000000 H
   0.7920150000000000    0.6572450000000000    0.4452150000000000 H
   0.7671950000000001    0.6288150000000000    0.4930550000000000 H
   0.6015950000000000    0.7608699999999999    0.4385250000000000 H
   0.6566050000000000    0.7917050000000000    0.4454350000000000 H
   0.6284600000000000    0.7667649999999999    0.4933700000000000 H
   0.6483449999999999    0.4892200000000000    0.4385500000000000 H
   0.5933050000000000    0.4584000000000000    0.4454100000000000 H
   0.6213950000000000    0.4833300000000000    0.4933800000000000 H
   0.4885400000000000    0.6479400000000000    0.4382550000000000 H
   0.4579450000000000    0.5928800000000000    0.4452450000000000 H
   0.4826850000000000    0.6212200000000000    0.4931600000000000 H
   0.3983250000000000    0.5109900000000001    0.8116099999999999 H
   0.3432700000000000    0.5417450000000000    0.8045850000000000 H
   0.3715400000000000    0.5167750000000000    0.7567100000000000 H
   0.2385950000000000    0.3522850000000000    0.8120800000000000 H
   0.2080300000000000    0.4073250000000000    0.8047750000000000 H
   0.2329100000000000    0.3787300000000000    0.7570450000000000 H
   0.5114649999999999    0.3977150000000000    0.8120900000000000 H
   0.5420000000000000    0.3426700000000000    0.8046900000000000 H
   0.5171350000000000    0.3713250000000000    0.7570049999999999 H
   0.3517250000000000    0.2390500000000000    0.8116900000000000 H
   0.4067750000000000    0.2082850000000000    0.8046249999999999 H
   0.3784850000000000    0.2332150000000000    0.7567699999999999 H
   0.7384950000000000    0.8978750000000000    0.5618550000000000 H
   0.7079050000000000    0.8428300000000000    0.5547050000000000 H
   0.7327500000000000    0.8712650000000000    0.5068800000000000 H
   0.8982399999999999    0.7390700000000000    0.5615000000000000 H
   0.8431900000000000    0.7083050000000000    0.5545800000000000 H
   0.8713949999999999    0.7332150000000000    0.5066600000000000 H
   0.8516250000000001    0.0108450000000000    0.5614200000000000 H
   0.9066900000000000    0.0416300000000000    0.5546150000000000 H
   0.8786200000000000    0.0167450000000000    0.5066000000000001 H
   0.0115000000000000    0.8521400000000000    0.5617950000000000 H
   0.0420500000000000    0.9072150000000000    0.5546900000000000 H
   0.0172750000000000    0.8787750000000000    0.5068450000000000 H
   0.8681145405638901    0.9827417084036605    0.6207519963403846 H
   0.8565142746249178    1.0249819553588431    0.6649685451112158 H
   0.8174073835583279    0.0405365130768014    0.7153324267164539 H
   0.6016650000000000    0.9890200000000000    0.6884200000000000 H
   0.6567300000000000    0.9582700000000000    0.6954000000000000 H
   0.6284700000000000    0.9832099999999999    0.7433100000000000 H
   0.7613700000000000    0.1477500000000000    0.6879500000000001 H
   0.7919499999999999    0.0927000000000000    0.6951200000000000 H
   0.7671650000000000    0.1212050000000000    0.7429450000000000 H
   0.7837700865465098    0.8756061685198632    0.6343847902778398 H
   0.6482550000000000    0.2609400000000000    0.6883400000000000 H
   0.5932050000000000    0.2917000000000000    0.6953500000000000 H
   0.6214800000000000    0.2667800000000000    0.7432550000000000 H
   0.4885600000000000    0.1022150000000000    0.6880100000000000 H
   0.4579950000000000    0.1572750000000000    0.6952000000000000 H
   0.4827700000000000    0.1287700000000000    0.7430099999999999 H
   0.7393947197318729    0.9085947364303106    0.7111212981254914 H
   0.8983250000000000    0.0109900000000000    0.8116099999999999 H
   0.8432700000000000    0.0417450000000000    0.8045850000000000 H
   0.8715400000000000    0.0167750000000000    0.7567100000000000 H
   0.7385950000000000    0.8522850000000000    0.8120800000000000 H
   0.7080299999999999    0.9073249999999999    0.8047750000000000 H
   0.7329100000000000    0.8787300000000000    0.7570450000000000 H
   0.0114650000000000    0.8977150000000000    0.8120900000000000 H
   0.0420000000000000    0.8426700000000000    0.8046900000000000 H
   0.0171350000000000    0.8713250000000000    0.7570049999999999 H
   0.8517250000000001    0.7390500000000000    0.8116900000000000 H
   0.9067750000000000    0.7082850000000001    0.8046249999999999 H
   0.8784850000000000    0.7332150000000000    0.7567699999999999 H
   0.1016650000000000    0.4890200000000000    0.6884200000000000 H
   0.1567300000000000    0.4582700000000000    0.6954000000000000 H
   0.1284700000000000    0.4832100000000000    0.7433100000000000 H
   0.2613700000000000    0.6477500000000000    0.6879500000000001 H
   0.2919500000000000    0.5927000000000000    0.6951200000000000 H
   0.2671650000000000    0.6212050000000000    0.7429450000000000 H
   0.1482550000000000    0.7609399999999999    0.6883400000000000 H
   0.0932050000000000    0.7917000000000001    0.6953500000000000 H
   0.1214800000000000    0.7667800000000000    0.7432550000000000 H
   0.9885600000000000    0.6022149999999999    0.6880100000000000 H
   0.9579949999999999    0.6572750000000001    0.6952000000000000 H
   0.9827699999999999    0.6287700000000001    0.7430099999999999 H
   0.3983250000000000    0.5109900000000001    0.3116100000000000 H
   0.3432700000000000    0.5417450000000000    0.3045850000000000 H
   0.3715400000000000    0.5167750000000000    0.2567100000000000 H
   0.2385950000000000    0.3522850000000000    0.3120800000000000 H
   0.2080300000000000    0.4073250000000000    0.3047750000000000 H
   0.2329100000000000    0.3787300000000000    0.2570450000000000 H
   0.5114649999999999    0.3977150000000000    0.3120900000000000 H