H6 O4
1.0
  28.0779984561748641    0.0000000000000000    0.0093110172294762
   0.0068772018568132   28.1359983195824519   -0.0068749216683636
   0.0000000000000000    0.0000000000000000   29.5820000000000007
H O
6 4
direct
   0.8174073835583279    0.0405365130768014    0.7153324267164539 H
   0.8681145405638901    0.9827417084036605    0.6207519963403846 H
   0.8565142746249178    1.0249819553588431    0.6649685451112158 H
   0.7837700865465098    0.8756061685198632    0.6343847902778398 H
   0.7393947197318729    0.9085947364303106    0.7111212981254914 H
   0.7766906693057501    0.8010402760839919    0.6742283515054156 H
   0.8086200000000000    0.0108750000000000    0.7008500000000000 O
   0.8416950000000001    0.9749600000000000    0.6405450000000000 O
   0.7749550000000001    0.9083000000000000    0.6405900000000000 O
   0.7388650000000000    0.9413300000000000    0.7008550000000000 O
