H2 O2
1.0
  28.0779984561748641    0.0000000000000000    0.0093110172294762
   0.0068772018568132   28.1359983195824519   -0.0068749216683636
   0.0000000000000000    0.0000000000000000   29.5820000000000007
H O
2 2
direct
   0.2936372364719426    0.9071137484768886    0.8061482210861606 H
   0.3430844316801129    0.9563145737035426    0.8060257473388404 H
   0.3214300000000000    0.8940150000000000    0.8217350000000000 O
   0.3561400000000000    0.9285500000000000    0.8216200000000000 O
