H6 C4 N3
1.0
  28.0779984561748641    0.0000000000000000    0.0093110172294762
   0.0068772018568132   28.1359983195824519   -0.0068749216683636
   0.0000000000000000    0.0000000000000000   29.5820000000000007
H C N
6 4 3
direct
   0.3983250000000000    0.0109900000000000    0.8116099999999999 H
   0.3432700000000000    0.0417450000000000    0.8045850000000000 H
   0.3715400000000000    0.0167750000000000    0.7567100000000000 H
   0.2385950000000000    0.8522850000000000    0.8120800000000000 H
   0.2080300000000000    0.9073249999999999    0.8047750000000000 H
   0.2329100000000000    0.8787300000000000    0.7570450000000000 H
   0.3646800000000000    0.0115000000000000    0.7929200000000001 C
   0.2834500000000000    0.9119150000000000    0.8004350000000000 C
   0.2382400000000000    0.8857550000000001    0.7932150000000000 C
   0.3382950000000000    0.9665000000000000    0.8003050000000000 C
   0.3214300000000000    0.8940150000000000    0.8217350000000000 N
   0.3561400000000000    0.9285500000000000    0.8216200000000000 N
   0.2929550000000000    0.9571250000000000    0.7863450000000001 N
