Cd48 H256 C186 N248 Cl32 O4
1.0
  14.5033128151753825    0.0000000000000000   -6.4797486359556817
   2.1293522205691171   18.1898831682102262   -0.9360841028559980
   0.0000000000000000    0.0000000000000000   39.2040000000000006
Cd H C N Cl O
48 256 186 248 32 4
direct
   0.7500400000000000    0.4999700000000000    0.7499950000000000 Cd
   0.2500400000000000    0.4999700000000000    0.7499950000000000 Cd
   0.7500400000000000    0.4999700000000000    0.0000000000000000 Cd
   0.2500500000000000    0.4999600000000000    0.0000000000000000 Cd
   0.7500400000000000    0.4999700000000000    0.2499950000000000 Cd
   0.2500400000000000    0.4999700000000000    0.2499950000000000 Cd
   0.7500400000000000    0.4999700000000000    0.5000000000000000 Cd
   0.2500500000000000    0.4999600000000000    0.5000000000000000 Cd
   0.0000500000000000    0.7499600000000000    0.6250000000000000 Cd
   0.0000500000000000    0.7499600000000000    0.1250000000000000 Cd
   0.7500300000000000    0.9999800000000000    0.7499950000000000 Cd
   0.2500400000000000    0.9999800000000000    0.7499950000000000 Cd
   0.7500400000000000    0.9999800000000000    0.0000000000000000 Cd
   0.2500400000000000    0.9999800000000000    0.0000000000000000 Cd
   0.7500300000000000    0.9999800000000000    0.2499950000000000 Cd
   0.2500400000000000    0.9999800000000000    0.2499950000000000 Cd
   0.7500400000000000    0.9999800000000000    0.5000000000000000 Cd
   0.2500400000000000    0.9999800000000000    0.5000000000000000 Cd
   0.5000400000000000    0.2499800000000000    0.1250000000000000 Cd
   0.5000400000000000    0.2499800000000000    0.6250000000000000 Cd
   0.5000400000000000    0.7499600000000000    0.1250000000000000 Cd
   0.5000400000000000    0.2499800000000000    0.3749900000000000 Cd
   0.5000400000000000    0.7499600000000000    0.3749900000000000 Cd
   0.5000400000000000    0.7499600000000000    0.6250000000000000 Cd
   0.5000400000000000    0.7499600000000000    0.8749899999999999 Cd
   0.5000400000000000    0.2499800000000000    0.8749899999999999 Cd
   0.0000500000000000    0.7499600000000000    0.8749899999999999 Cd
   0.0000500000000000    0.7499600000000000    0.3749900000000000 Cd
   0.0000500000000000    0.2499800000000000    0.8749899999999999 Cd
   0.0000500000000000    0.2499800000000000    0.3749900000000000 Cd
   0.0000400000000000    0.2499800000000000    0.6250000000000000 Cd
   0.0000400000000000    0.2499800000000000    0.1250000000000000 Cd
   0.7500400000000000    0.7499600000000000    0.3749900000000000 Cd
   0.7500400000000000    0.7499600000000000    0.8749899999999999 Cd
   0.7500300000000000    0.2499800000000000    0.3749900000000000 Cd
   0.7500300000000000    0.2499800000000000    0.8749899999999999 Cd
   0.2500500000000000    0.7499600000000000    0.3749900000000000 Cd
   0.2500500000000000    0.7499600000000000    0.8749899999999999 Cd
   0.7500300000000000    0.7499600000000000    0.6249950000000000 Cd
   0.2500400000000000    0.7499600000000000    0.6250000000000000 Cd
   0.2500400000000000    0.2499700000000000    0.8749899999999999 Cd
   0.2500400000000000    0.7499600000000000    0.1250000000000000 Cd
   0.7500300000000000    0.2499800000000000    0.6249950000000000 Cd
   0.2500400000000000    0.2499700000000000    0.3749900000000000 Cd
   0.7500300000000000    0.7499600000000000    0.1249950000000000 Cd
   0.7500300000000000    0.2499800000000000    0.1249950000000000 Cd
   0.2500400000000000    0.2499700000000000    0.6250000000000000 Cd
   0.2500400000000000    0.2499700000000000    0.1250000000000000 Cd
   0.9722100000000000    0.3833500000000000    0.6899000000000000 H
   0.0352900000000000    0.4527100000000000    0.7186250000000001 H
   0.9086400000000000    0.6163999999999999    0.6901450000000000 H
   0.9030500000000000    0.5466700000000000    0.7186500000000000 H
   0.9445400000000000    0.4573400000000000    0.6329100000000000 H
   0.9985100000000000    0.5295200000000000    0.6619250000000000 H
   0.8216300000000000    0.5431000000000000    0.6329350000000000 H
   0.8257300000000000    0.4705700000000000    0.6617450000000000 H
   0.0970200000000000    0.4532700000000000    0.7813350000000000 H
   0.0914400000000000    0.3835500000000000    0.8098000000000001 H
   0.9647800000000000    0.5472300000000000    0.7813650000000000 H
   0.0278600000000000    0.6166000000000000    0.8100849999999999 H
   0.0555400000000000    0.5426000000000000    0.8670800000000001 H
   0.0015700000000000    0.4704200000000000    0.8380650000000001 H
   0.1784500000000000    0.4568500000000000    0.8670550000000000 H
   0.1743400000000000    0.5293800000000000    0.8382400000000000 H
   0.5914300000000000    0.3835500000000000    0.8098400000000000 H
   0.5970200000000000    0.4532800000000000    0.7813350000000000 H
   0.5278500000000000    0.6166000000000000    0.8100849999999999 H
   0.4647900000000000    0.5472300000000000    0.7813650000000000 H
   0.5555400000000000    0.5426000000000000    0.8670800000000001 H
   0.5015700000000000    0.4704200000000000    0.8380650000000001 H
   0.6784500000000000    0.4568500000000000    0.8670500000000000 H
   0.6743400000000001    0.5293800000000000    0.8382400000000000 H
   0.4722200000000000    0.3833500000000000    0.6899000000000000 H
   0.5352800000000000    0.4527100000000000    0.7186200000000000 H
   0.4086500000000000    0.6163900000000000    0.6901500000000000 H
   0.4030600000000000    0.5466600000000000    0.7186500000000000 H
   0.4445400000000000    0.4573400000000000    0.6329100000000000 H
   0.4985100000000000    0.5295299999999999    0.6619250000000000 H
   0.3216300000000000    0.5431000000000000    0.6329350000000000 H
   0.3257400000000000    0.4705600000000000    0.6617450000000000 H
   0.9086500000000000    0.6163999999999999    0.9401400000000000 H
   0.9030600000000000    0.5466700000000000    0.9686450000000000 H
   0.9722200000000000    0.3833500000000000    0.9398949999999999 H
   0.0352900000000000    0.4527100000000000    0.9686150000000000 H
   0.8216300000000000    0.5431000000000000    0.8829250000000000 H
   0.8257400000000000    0.4705700000000000    0.9117350000000000 H
   0.9445500000000000    0.4573400000000000    0.8829000000000000 H
   0.9985200000000000    0.5295200000000000    0.9119200000000001 H
   0.0278600000000000    0.6166000000000000    0.0600500000000000 H
   0.9647800000000000    0.5472300000000000    0.0313500000000000 H
   0.0914300000000000    0.3835500000000000    0.0598500000000000 H
   0.0970200000000000    0.4532700000000000    0.0313450000000000 H
   0.1784500000000000    0.4568500000000000    0.1170600000000000 H
   0.1743400000000000    0.5293800000000000    0.0882500000000000 H
   0.0555300000000000    0.5426100000000000    0.1170850000000000 H
   0.0015600000000000    0.4704200000000000    0.0880700000000000 H
   0.4086500000000000    0.6163900000000000    0.9401400000000000 H
   0.4030600000000000    0.5466600000000000    0.9686450000000000 H
   0.4722200000000000    0.3833500000000000    0.9398949999999999 H
   0.5352800000000000    0.4527100000000000    0.9686150000000000 H
   0.3216300000000000    0.5431000000000000    0.8829300000000000 H
   0.3257400000000000    0.4705600000000000    0.9117350000000000 H
   0.4445500000000000    0.4573400000000000    0.8829000000000000 H
   0.4985200000000000    0.5295299999999999    0.9118999999999999 H
   0.4647900000000000    0.5472300000000000    0.0313750000000000 H
   0.5278500000000000    0.6166000000000000    0.0600500000000000 H
   0.5914300000000000    0.3835500000000000    0.0598500000000000 H
   0.5970200000000000    0.4532800000000000    0.0313450000000000 H
   0.6784500000000000    0.4568500000000000    0.1170600000000000 H
   0.6743400000000001    0.5293800000000000    0.0882500000000000 H
   0.5555300000000000    0.5426100000000000    0.1170850000000000 H
   0.5015600000000000    0.4704200000000000    0.0880750000000000 H
   0.9722100000000000    0.3833500000000000    0.1899000000000000 H
   0.0352900000000000    0.4527100000000000    0.2186250000000000 H
   0.9086400000000000    0.6163999999999999    0.1901450000000000 H
   0.9030500000000000    0.5466700000000000    0.2186500000000000 H
   0.9445400000000000    0.4573400000000000    0.1329100000000000 H
   0.9985100000000000    0.5295200000000000    0.1619250000000000 H
   0.8216300000000000    0.5431000000000000    0.1329350000000000 H
   0.8257300000000000    0.4705700000000000    0.1617450000000000 H
   0.0970200000000000    0.4532700000000000    0.2813350000000000 H
   0.0914400000000000    0.3835500000000000    0.3098000000000000 H
   0.9647800000000000    0.5472300000000000    0.2813650000000000 H
   0.0278600000000000    0.6166000000000000    0.3100850000000000 H
   0.0555400000000000    0.5426000000000000    0.3670800000000000 H
   0.0015700000000000    0.4704200000000000    0.3380650000000000 H
   0.1784500000000000    0.4568500000000000    0.3670550000000000 H
   0.1743400000000000    0.5293800000000000    0.3382400000000000 H
   0.5914300000000000    0.3835500000000000    0.3098400000000000 H
   0.5970200000000000    0.4532800000000000    0.2813350000000000 H
   0.5278500000000000    0.6166000000000000    0.3100850000000000 H
   0.4647900000000000    0.5472300000000000    0.2813650000000000 H
   0.5555400000000000    0.5426000000000000    0.3670800000000000 H
   0.5015700000000000    0.4704200000000000    0.3380650000000000 H
   0.6784500000000000    0.4568500000000000    0.3670500000000000 H
   0.6743400000000001    0.5293800000000000    0.3382400000000000 H
   0.4722200000000000    0.3833500000000000    0.1899000000000000 H
   0.5352800000000000    0.4527100000000000    0.2186200000000000 H
   0.4086500000000000    0.6163900000000000    0.1901500000000000 H
   0.4030600000000000    0.5466600000000000    0.2186500000000000 H
   0.4445400000000000    0.4573400000000000    0.1329100000000000 H
   0.4985100000000000    0.5295299999999999    0.1619250000000000 H
   0.3216300000000000    0.5431000000000000    0.1329350000000000 H
   0.3257400000000000    0.4705600000000000    0.1617450000000000 H
   0.9086500000000000    0.6163999999999999    0.4401400000000000 H
   0.9030600000000000    0.5466700000000000    0.4686450000000000 H
   0.9722200000000000    0.3833500000000000    0.4398950000000000 H
   0.0352900000000000    0.4527100000000000    0.4686150000000000 H
   0.8216300000000000    0.5431000000000000    0.3829250000000000 H
   0.8257400000000000    0.4705700000000000    0.4117350000000000 H
   0.9445500000000000    0.4573400000000000    0.3829000000000000 H
   0.9985200000000000    0.5295200000000000    0.4119200000000000 H
   0.0278600000000000    0.6166000000000000    0.5600500000000000 H
   0.9647800000000000    0.5472300000000000    0.5313500000000000 H
   0.0914300000000000    0.3835500000000000    0.5598500000000000 H
   0.0970200000000000    0.4532700000000000    0.5313450000000000 H
   0.1784500000000000    0.4568500000000000    0.6170599999999999 H
   0.1743400000000000    0.5293800000000000    0.5882499999999999 H
   0.0555300000000000    0.5426100000000000    0.6170850000000000 H
   0.0015600000000000    0.4704200000000000    0.5880700000000000 H
   0.4086500000000000    0.6163900000000000    0.4401400000000000 H
   0.4030600000000000    0.5466600000000000    0.4686450000000000 H
   0.4722200000000000    0.3833500000000000    0.4398950000000000 H
   0.5352800000000000    0.4527100000000000    0.4686150000000000 H
   0.3216300000000000    0.5431000000000000    0.3829300000000000 H
   0.3257400000000000    0.4705600000000000    0.4117350000000000 H
   0.4445500000000000    0.4573400000000000    0.3829000000000000 H
   0.4985200000000000    0.5295299999999999    0.4119000000000000 H
   0.4647900000000000    0.5472300000000000    0.5313750000000000 H
   0.5278500000000000    0.6166000000000000    0.5600500000000000 H
   0.5914300000000000    0.3835500000000000    0.5598500000000000 H
   0.5970200000000000    0.4532800000000000    0.5313450000000000 H
   0.6784500000000000    0.4568500000000000    0.6170599999999999 H
   0.6743400000000001    0.5293800000000000    0.5882499999999999 H
   0.5555300000000000    0.5426100000000000    0.6170850000000000 H
   0.5015600000000000    0.4704200000000000    0.5880750000000000 H
   0.0352900000000000    0.9527000000000000    0.7186000000000000 H
   0.9722200000000000    0.8833299999999999    0.6899000000000000 H
   0.9030500000000000    0.0466800000000000    0.7186500000000000 H
   0.9086400000000000    0.1164100000000000    0.6899999999999999 H
   0.9445400000000000    0.9573300000000000    0.6329100000000000 H
   0.9985100000000000    0.0295400000000000    0.6619250000000000 H
   0.8216300000000000    0.0431100000000000    0.6329350000000000 H
   0.8257400000000000    0.9705500000000000    0.6617450000000000 H
   0.0970300000000000    0.9532600000000000    0.7813350000000000 H
   0.0914400000000000    0.8835300000000000    0.8098000000000001 H
   0.0278600000000000    0.1166100000000000    0.8100849999999999 H
   0.9647800000000000    0.0472400000000000    0.7813650000000000 H
   0.0555400000000000    0.0426200000000000    0.8670800000000001 H
   0.0015700000000000    0.9704000000000000    0.8380650000000001 H
   0.1784600000000000    0.9568300000000000    0.8670550000000000 H
   0.1743400000000000    0.0293900000000000    0.8382000000000001 H
   0.4086500000000000    0.1164100000000000    0.6901500000000000 H
   0.4030500000000000    0.0466800000000000    0.7186500000000000 H
   0.4722200000000000    0.8833299999999999    0.6899000000000000 H
   0.5352800000000000    0.9527000000000000    0.7186200000000000 H
   0.4445400000000000    0.9573300000000000    0.6329100000000000 H
   0.4985100000000000    0.0295400000000000    0.6619250000000000 H
   0.3216300000000000    0.0431100000000000    0.6329350000000000 H
   0.3257400000000000    0.9705500000000000    0.6617450000000000 H
   0.5914300000000000    0.8835400000000000    0.8098400000000000 H
   0.5970200000000000    0.9532600000000000    0.7813350000000000 H
   0.5278500000000000    0.1166100000000000    0.8100849999999999 H
   0.4647900000000000    0.0472400000000000    0.7813650000000000 H
   0.6784600000000000    0.9568400000000000    0.8670500000000000 H
   0.6743400000000001    0.0293900000000000    0.8382400000000000 H
   0.5555400000000000    0.0426200000000000    0.8670800000000001 H
   0.5015700000000000    0.9704000000000000    0.8380650000000001 H
   0.9722200000000000    0.8833299999999999    0.9398949999999999 H
   0.0353000000000000    0.9527000000000000    0.9686150000000000 H
   0.9086400000000000    0.1164100000000000    0.9401400000000000 H
   0.9030600000000000    0.0466800000000000    0.9686450000000000 H
   0.8216300000000000    0.0431100000000000    0.8829250000000000 H
   0.8257400000000000    0.9705500000000000    0.9117350000000000 H
   0.9445500000000000    0.9573300000000000    0.8829000000000000 H
   0.9985200000000000    0.0295400000000000    0.9119200000000001 H
   0.0278500000000000    0.1166100000000000    0.0600900000000000 H
   0.9647800000000000    0.0472400000000000    0.0313500000000000 H
   0.0914300000000000    0.8835300000000000    0.0598500000000000 H
   0.0970200000000000    0.9532600000000000    0.0313450000000000 H
   0.0555300000000000    0.0426200000000000    0.1170850000000000 H
   0.0015700000000000    0.9704100000000000    0.0880700000000000 H
   0.1784500000000000    0.9568400000000000    0.1170600000000000 H
   0.1743400000000000    0.0293900000000000    0.0882500000000000 H
   0.4030600000000000    0.0466700000000000    0.9686450000000000 H
   0.4086500000000000    0.1164000000000000    0.9400999999999999 H
   0.4722300000000000    0.8833299999999999    0.9398949999999999 H
   0.5352900000000000    0.9527000000000000    0.9686150000000000 H
   0.3216300000000000    0.0431100000000000    0.8829300000000000 H
   0.3257400000000000    0.9705500000000000    0.9117350000000000 H
   0.4445500000000000    0.9573300000000000    0.8829000000000000 H
   0.4985200000000000    0.0295400000000000    0.9119150000000000 H
   0.4647900000000000    0.0472400000000000    0.0313750000000000 H
   0.5278500000000000    0.1166100000000000    0.0600500000000000 H
   0.5914300000000000    0.8835400000000000    0.0595000000000000 H
   0.5970200000000000    0.9532700000000000    0.0313450000000000 H
   0.6784500000000000    0.9568400000000000    0.1170600000000000 H
   0.6743300000000000    0.0294000000000000    0.0882500000000000 H
   0.5555300000000000    0.0426200000000000    0.1170850000000000 H
   0.5015700000000000    0.9704000000000000    0.0880750000000000 H
   0.6862880797873970    0.8592026441483402    0.1740814198484271 H
   0.7274929562502304    0.8682102983883485    0.1819394069323456 H
   0.6265012309336776    0.8410232340175384    0.1609796337870135 H
   0.6224631352567707    0.9008313815685157    0.1904936181075219 H
   0.0352900000000000    0.9527000000000000    0.2186000000000000 H
   0.9722200000000000    0.8833299999999999    0.1899000000000000 H
   0.9030500000000000    0.0466800000000000    0.2186500000000000 H
   0.9086400000000000    0.1164100000000000    0.1900000000000000 H
   0.9445400000000000    0.9573300000000000    0.1329100000000000 H
   0.9985100000000000    0.0295400000000000    0.1619250000000000 H
   0.8216300000000000    0.0431100000000000    0.1329350000000000 H
   0.8257400000000000    0.9705500000000000    0.1617450000000000 H
   0.0970300000000000    0.9532600000000000    0.2813350000000000 H
   0.0914400000000000    0.8835300000000000    0.3098000000000000 H
   0.0278600000000000    0.1166100000000000    0.3100850000000000 H
   0.9647800000000000    0.0472400000000000    0.2813650000000000 H
   0.0555400000000000    0.0426200000000000    0.3670800000000000 H
   0.0015700000000000    0.9704000000000000    0.3380650000000000 H
   0.1784600000000000    0.9568300000000000    0.3670550000000000 H
   0.1743400000000000    0.0293900000000000    0.3382000000000000 H
   0.5914300000000000    0.8835400000000000    0.3098400000000000 H
   0.5970200000000000    0.9532600000000000    0.2813350000000000 H
   0.5278500000000000    0.1166100000000000    0.3100850000000000 H
   0.4647900000000000    0.0472400000000000    0.2813650000000000 H
   0.6784600000000000    0.9568400000000000    0.3670500000000000 H
   0.6743400000000001    0.0293900000000000    0.3382400000000000 H
   0.5555400000000000    0.0426200000000000    0.3670800000000000 H
   0.5015700000000000    0.9704000000000000    0.3380650000000000 H
   0.1886405095940487    0.0996406869162476    0.2178265078337950 H
   0.2594229308621872    0.0989833033641601    0.1905601511803011 H
   0.1960098502299063    0.1588409132573770    0.1609963887183798 H
   0.1371516369985458    0.1317507863533765    0.1819514832412690 H
   0.9722200000000000    0.8833299999999999    0.4398950000000000 H
   0.0353000000000000    0.9527000000000000    0.4686150000000000 H
   0.9086400000000000    0.1164100000000000    0.4401400000000000 H
   0.9030600000000000    0.0466800000000000    0.4686450000000000 H
   0.8216300000000000    0.0431100000000000    0.3829250000000000 H
   0.8257400000000000    0.9705500000000000    0.4117350000000000 H
   0.9445500000000000    0.9573300000000000    0.3829000000000000 H
   0.9985200000000000    0.0295400000000000    0.4119200000000000 H
   0.0278500000000000    0.1166100000000000    0.5600900000000000 H
   0.9647800000000000    0.0472400000000000    0.5313500000000000 H
   0.0914300000000000    0.8835300000000000    0.5598500000000000 H
   0.0970200000000000    0.9532600000000000    0.5313450000000000 H
   0.0555300000000000    0.0426200000000000    0.6170850000000000 H
   0.0015700000000000    0.9704100000000000    0.5880700000000000 H
   0.1784500000000000    0.9568400000000000    0.6170599999999999 H
   0.1743400000000000    0.0293900000000000    0.5882499999999999 H
   0.4030600000000000    0.0466700000000000    0.4686450000000000 H
   0.4086500000000000    0.1164000000000000    0.4401000000000000 H
   0.4722300000000000    0.8833299999999999    0.4398950000000000 H
   0.5352900000000000    0.9527000000000000    0.4686150000000000 H
   0.3216300000000000    0.0431100000000000    0.3829300000000000 H
   0.3257400000000000    0.9705500000000000    0.4117350000000000 H
   0.4445500000000000    0.9573300000000000    0.3829000000000000 H
   0.4985200000000000    0.0295400000000000    0.4119150000000000 H
   0.4647900000000000    0.0472400000000000    0.5313750000000000 H
   0.5278500000000000    0.1166100000000000    0.5600500000000000 H
   0.5914300000000000    0.8835400000000000    0.5595000000000000 H
   0.5970200000000000    0.9532700000000000    0.5313450000000000 H
   0.6784500000000000    0.9568400000000000    0.6170599999999999 H
   0.6743300000000000    0.0294000000000000    0.5882499999999999 H
   0.5555300000000000    0.0426200000000000    0.6170850000000000 H
   0.5015700000000000    0.9704000000000000    0.5880750000000000 H
   0.0142400000000000    0.4272900000000000    0.6907650000000000 C
   0.0990600000000000    0.3946100000000000    0.6856300000000000 C
   0.8682100000000000    0.5724399999999999    0.6908500000000000 C
   0.7730600000000000    0.6051900000000000    0.6857000000000000 C
   0.9571000000000000    0.4844300000000000    0.6599300000000000 C
   0.8633000000000000    0.5156900000000000    0.6598999999999999 C
   0.1318700000000000    0.4275000000000000    0.8090999999999999 C
   0.2270200000000000    0.3947500000000000    0.8142900000000000 C
   0.9858300000000000    0.5726500000000000    0.8092250000000001 C
   0.9010200000000000    0.6053300000000000    0.8143549999999999 C
   0.0429800000000000    0.5155200000000000    0.8400600000000000 C
   0.1367800000000000    0.4842600000000000    0.8400850000000000 C
   0.6318700000000000    0.4275000000000000    0.8091349999999999 C
   0.7270200000000000    0.3947500000000000    0.8142900000000000 C
   0.4858400000000000    0.5726500000000000    0.8092250000000001 C
   0.4010300000000000    0.6053300000000000    0.8143600000000000 C
   0.5429800000000000    0.5155200000000000    0.8400600000000000 C
   0.6367800000000000    0.4842600000000000    0.8400850000000000 C
   0.5142300000000000    0.4272900000000000    0.6907500000000000 C
   0.5990500000000000    0.3946100000000000    0.6856300000000000 C
   0.3682100000000000    0.5724399999999999    0.6908500000000000 C
   0.2730600000000000    0.6051900000000000    0.6857000000000000 C
   0.4571000000000000    0.4844300000000000    0.6598999999999999 C
   0.3633000000000000    0.5156800000000000    0.6599050000000000 C
   0.8682100000000000    0.5724399999999999    0.9408449999999999 C
   0.7730600000000000    0.6051900000000000    0.9356900000000000 C
   0.0142500000000000    0.4272900000000000    0.9407550000000000 C
   0.0990600000000000    0.3946100000000000    0.9356249999999999 C
   0.8633000000000000    0.5156800000000000    0.9098950000000000 C
   0.9571000000000000    0.4844300000000000    0.9099200000000001 C
   0.9858300000000000    0.5726599999999999    0.0592300000000000 C
   0.9010100000000000    0.6053300000000000    0.0643650000000000 C
   0.1318700000000000    0.4275000000000000    0.0591450000000000 C
   0.2270200000000000    0.3947500000000000    0.0642950000000000 C
   0.1367800000000000    0.4842600000000000    0.0900950000000000 C
   0.0429800000000000    0.5155200000000000    0.0900700000000000 C
   0.3682100000000000    0.5724399999999999    0.9408449999999999 C
   0.2730700000000000    0.6051900000000000    0.9356949999999999 C
   0.5142400000000000    0.4272900000000000    0.9407550000000000 C
   0.5990500000000000    0.3946100000000000    0.9356249999999999 C
   0.3633000000000000    0.5156800000000000    0.9098950000000000 C
   0.4571000000000000    0.4844300000000000    0.9099200000000001 C
   0.4858400000000000    0.5726599999999999    0.0592000000000000 C
   0.4010200000000000    0.6053300000000000    0.0643650000000000 C
   0.6318600000000000    0.4275100000000000    0.0591450000000000 C
   0.7270100000000000    0.3947500000000000    0.0642950000000000 C
   0.6367800000000000    0.4842600000000000    0.0900900000000000 C
   0.5429800000000000    0.5155200000000000    0.0900700000000000 C
   0.0142400000000000    0.4272900000000000    0.1907650000000000 C
   0.0990600000000000    0.3946100000000000    0.1856300000000000 C
   0.8682100000000000    0.5724399999999999    0.1908500000000000 C
   0.7730600000000000    0.6051900000000000    0.1857000000000000 C
   0.9571000000000000    0.4844300000000000    0.1599300000000000 C
   0.8633000000000000    0.5156900000000000    0.1599000000000000 C
   0.1318700000000000    0.4275000000000000    0.3091000000000000 C
   0.2270200000000000    0.3947500000000000    0.3142900000000000 C
   0.9858300000000000    0.5726500000000000    0.3092250000000000 C
   0.9010200000000000    0.6053300000000000    0.3143550000000000 C
   0.0429800000000000    0.5155200000000000    0.3400600000000000 C
   0.1367800000000000    0.4842600000000000    0.3400850000000000 C
   0.6318700000000000    0.4275000000000000    0.3091350000000000 C
   0.7270200000000000    0.3947500000000000    0.3142900000000000 C
   0.4858400000000000    0.5726500000000000    0.3092250000000000 C
   0.4010300000000000    0.6053300000000000    0.3143600000000000 C
   0.5429800000000000    0.5155200000000000    0.3400600000000000 C
   0.6367800000000000    0.4842600000000000    0.3400850000000000 C
   0.5142300000000000    0.4272900000000000    0.1907500000000000 C
   0.5990500000000000    0.3946100000000000    0.1856300000000000 C
   0.3682100000000000    0.5724399999999999    0.1908500000000000 C
   0.2730600000000000    0.6051900000000000    0.1857000000000000 C
   0.4571000000000000    0.4844300000000000    0.1599000000000000 C
   0.3633000000000000    0.5156800000000000    0.1599050000000000 C
   0.8682100000000000    0.5724399999999999    0.4408450000000000 C
   0.7730600000000000    0.6051900000000000    0.4356900000000000 C
   0.0142500000000000    0.4272900000000000    0.4407550000000000 C
   0.0990600000000000    0.3946100000000000    0.4356250000000000 C
   0.8633000000000000    0.5156800000000000    0.4098950000000000 C
   0.9571000000000000    0.4844300000000000    0.4099200000000000 C
   0.9858300000000000    0.5726599999999999    0.5592300000000000 C
   0.9010100000000000    0.6053300000000000    0.5643650000000000 C
   0.1318700000000000    0.4275000000000000    0.5591450000000000 C
   0.2270200000000000    0.3947500000000000    0.5642950000000000 C
   0.1367800000000000    0.4842600000000000    0.5900950000000000 C
   0.0429800000000000    0.5155200000000000    0.5900700000000000 C
   0.3682100000000000    0.5724399999999999    0.4408450000000000 C
   0.2730700000000000    0.6051900000000000    0.4356950000000000 C
   0.5142400000000000    0.4272900000000000    0.4407550000000000 C
   0.5990500000000000    0.3946100000000000    0.4356250000000000 C
   0.3633000000000000    0.5156800000000000    0.4098950000000000 C
   0.4571000000000000    0.4844300000000000    0.4099200000000000 C
   0.4858400000000000    0.5726599999999999    0.5592000000000000 C
   0.4010200000000000    0.6053300000000000    0.5643650000000000 C
   0.6318600000000000    0.4275100000000000    0.5591450000000000 C
   0.7270100000000000    0.3947500000000000    0.5642950000000000 C
   0.6367800000000000    0.4842600000000000    0.5900900000000000 C
   0.5429800000000000    0.5155200000000000    0.5900700000000000 C
   0.0142500000000000    0.9272700000000000    0.6907650000000000 C
   0.0990600000000000    0.8946000000000000    0.6856300000000000 C
   0.8682000000000000    0.0724500000000000    0.6908500000000000 C
   0.7730600000000000    0.1052100000000000    0.6857000000000000 C
   0.9571000000000000    0.9844100000000000    0.6598999999999999 C
   0.8632900000000000    0.0157000000000000    0.6598999999999999 C
   0.1318700000000000    0.9274900000000000    0.8090999999999999 C
   0.2270200000000000    0.8947400000000000    0.8142900000000000 C
   0.9858300000000000    0.0726700000000000    0.8092250000000001 C
   0.9010100000000000    0.1053400000000000    0.8143549999999999 C
   0.0429800000000000    0.0155300000000000    0.8400600000000000 C
   0.1367800000000000    0.9842500000000000    0.8400850000000000 C
   0.3682100000000000    0.0724500000000000    0.6908500000000000 C
   0.2730600000000000    0.1052000000000000    0.6857000000000000 C
   0.5142400000000000    0.9272700000000000    0.6907500000000000 C
   0.5990500000000000    0.8946000000000000    0.6856300000000000 C
   0.4571000000000000    0.9844100000000000    0.6599250000000000 C
   0.3633000000000000    0.0157000000000000    0.6599050000000000 C
   0.6318700000000000    0.9274900000000000    0.8091349999999999 C
   0.7270200000000000    0.8947400000000000    0.8142900000000000 C
   0.4858400000000000    0.0726700000000000    0.8092250000000001 C
   0.4010300000000000    0.1053400000000000    0.8143600000000000 C
   0.6367800000000000    0.9842500000000000    0.8400850000000000 C
   0.5429800000000000    0.0155300000000000    0.8400600000000000 C
   0.0142500000000000    0.9272700000000000    0.9407550000000000 C
   0.0990700000000000    0.8946000000000000    0.9356249999999999 C
   0.8682100000000000    0.0724500000000000    0.9408449999999999 C
   0.7730600000000000    0.1052000000000000    0.9356900000000000 C
   0.8633000000000000    0.0157000000000000    0.9098950000000000 C
   0.9571000000000000    0.9844100000000000    0.9099200000000001 C
   0.9858200000000000    0.0726700000000000    0.0592300000000000 C
   0.9010100000000000    0.1053400000000000    0.0643650000000000 C
   0.1318700000000000    0.9274900000000000    0.0591450000000000 C
   0.2270200000000000    0.8947400000000000    0.0642950000000000 C
   0.0429800000000000    0.0155300000000000    0.0900700000000000 C
   0.1367800000000000    0.9842500000000000    0.0900950000000000 C