H1 O1
1.0
   6.7539998755281436    0.0000000000000000   -0.0012966749065102
  -0.0006051929285131    6.9349999735934755    0.0000000000000004
   0.0000000000000000    0.0000000000000000   20.8979999999999997
H O
1 1
direct
   0.9981165021251648    0.2923190709318118    0.7644103197329088 H
   0.9991500000000000    0.1934700000000000    0.7309966666666666 O
