C1 N1
1.0
   6.7539998755281436    0.0000000000000000   -0.0012966749065102
  -0.0006051929285131    6.9349999735934755    0.0000000000000004
   0.0000000000000000    0.0000000000000000   20.8979999999999997
C N
1 1
direct
   0.9979100000000000    0.3120700000000000    0.7710866666666666 C
   0.9991500000000000    0.1934700000000000    0.7309966666666666 N
