H6 O4
1.0
  10.3776394322981034    0.0000000000000000    3.0051648562452451
   1.4974446877716063   10.2717637569927263    3.0138031998780650
   0.0000000000000000    0.0000000000000000   36.7779999999999987
H O
6 4
direct
   0.5448566660383644    0.6362239172319794    0.5278922260158107 H
   0.4774803202315086    0.7545671621845673    0.4729435623841103 H
   0.4249963608737680    0.8358378219267187    0.4305671086437334 H
   0.5607679883374904    0.2445329045702569    0.5210131441517397 H
   0.4829640063014195    0.3780020558624592    0.4685006584399404 H
   0.5250353288432654    0.3997899568196769    0.3755172067714164 H
   0.5142400000000000    0.6480000000000000    0.5045650000000000 O
   0.4492900000000000    0.7654100000000000    0.4514650000000000 O
   0.5520600000000000    0.2335200000000000    0.5486600000000000 O
   0.4872000000000000    0.3519400000000000    0.4956400000000000 O
