H4 C8 O4
1.0
  10.3776394322981034    0.0000000000000000    3.0051648562452451
   1.4974446877716063   10.2717637569927263    3.0138031998780650
   0.0000000000000000    0.0000000000000000   36.7779999999999987
H C O
4 8 4
direct
   0.4348700000000000    0.2132800000000000    0.4568700000000000 H
   0.4182400000000000    0.0049700000000000    0.4426600000000000 H
   0.5811600000000000    0.9961800000000000    0.5573200000000000 H
   0.5654400000000001    0.7874100000000001    0.5431900000000000 H
   0.4631800000000000    0.1198500000000000    0.4756000000000000 C
   0.4914800000000000    0.8828600000000000    0.4919550000000000 C
   0.4836400000000000    0.7595400000000000    0.4823200000000000 C
   0.4541200000000000    0.0038100000000000    0.4676550000000000 C
   0.5090100000000000    0.1171400000000000    0.5080500000000000 C
   0.5174600000000000    0.2400200000000000    0.5177950000000000 C
   0.5455400000000000    0.9969900000000000    0.5323050000000000 C
   0.5369699999999999    0.8806900000000000    0.5244200000000000 C
   0.4872000000000000    0.3519400000000000    0.4956400000000000 O
   0.4492900000000000    0.7654100000000000    0.4514650000000000 O
   0.5520600000000000    0.2335200000000000    0.5486600000000000 O
   0.5142400000000000    0.6480000000000000    0.5045650000000000 O
