Y8 H44 C88 O44
1.0
  10.3776394322981034    0.0000000000000000    3.0051648562452451
   1.4974446877716063   10.2717637569927263    3.0138031998780650
   0.0000000000000000    0.0000000000000000   36.7779999999999987
Y H C O
8 44 88 44
direct
   0.4728000000000000    0.5450800000000000    0.4491050000000000 Y
   0.5450000000000000    0.4727700000000000    0.1991900000000000 Y
   0.5277900000000000    0.4543500000000000    0.0507900000000000 Y
   0.4545800000000000    0.5274799999999999    0.3007550000000000 Y
   0.4728000000000000    0.5450800000000000    0.9491050000000000 Y
   0.5450000000000000    0.4727700000000000    0.6991900000000000 Y
   0.5277900000000000    0.4543500000000000    0.5507900000000000 Y
   0.4545800000000000    0.5274799999999999    0.8007550000000000 Y
   0.7873300000000000    0.5661500000000000    0.2929050000000000 H
   0.1157300000000000    0.5102500000000000    0.3629450000000000 H
   0.0049200000000000    0.4172700000000000    0.1929600000000000 H
   0.1973800000000000    0.3600800000000000    0.4764450000000000 H
   0.9586800000000000    0.3628100000000000    0.0066200000000000 H
   0.8759700000000000    0.5175600000000000    0.3935800000000000 H
   0.4899900000000000    0.8851000000000000    0.3869950000000000 H
   0.5811600000000000    0.9961800000000000    0.0573200000000000 H
   0.6386500000000001    0.8037300000000001    0.2734900000000000 H
   0.6369100000000000    0.0418900000000000    0.2432900000000000 H
   0.4825600000000000    0.1245100000000000    0.3563000000000000 H
   0.2133100000000000    0.4338500000000000    0.2072050000000000 H
   0.8850600000000000    0.4899100000000000    0.1371400000000000 H
   0.9960599999999999    0.5818000000000000    0.3071250000000000 H
   0.8032500000000000    0.6391000000000000    0.0236450000000000 H
   0.0416600000000000    0.6369200000000000    0.0000000000000000 H
   0.1250800000000000    0.4819600000000000    0.1062750000000000 H
   0.5654400000000001    0.7874100000000001    0.0431900000000000 H
   0.5098300000000000    0.1162900000000000    0.1130600000000000 H
   0.3598100000000000    0.1977100000000000    0.2265450000000000 H
   0.3627700000000000    0.9583199999999999    0.2565950000000000 H
   0.5171700000000000    0.8760599999999999    0.1435450000000000 H
   0.7873300000000000    0.5661500000000000    0.7929050000000000 H
   0.1157300000000000    0.5102500000000000    0.8629450000000001 H
   0.0049200000000000    0.4172700000000000    0.6929600000000000 H
   0.1973800000000000    0.3600800000000000    0.9764450000000000 H
   0.9586800000000000    0.3628100000000000    0.5066200000000000 H
   0.8759700000000000    0.5175600000000000    0.8935800000000000 H
   0.4348700000000000    0.2132800000000000    0.9568700000000000 H
   0.4899900000000000    0.8851000000000000    0.8869950000000000 H
   0.6386500000000001    0.8037300000000001    0.7734900000000000 H
   0.6369100000000000    0.0418900000000000    0.7432900000000000 H
   0.4825600000000000    0.1245100000000000    0.8563000000000001 H
   0.2133100000000000    0.4338500000000000    0.7072050000000000 H
   0.8850600000000000    0.4899100000000000    0.6371400000000000 H
   0.9960599999999999    0.5818000000000000    0.8071250000000000 H
   0.8032500000000000    0.6391000000000000    0.5236450000000000 H
   0.0416600000000000    0.6369200000000000    0.5000000000000000 H
   0.1250800000000000    0.4819600000000000    0.6062750000000000 H
   0.5098300000000000    0.1162900000000000    0.6130599999999999 H
   0.4182400000000000    0.0049700000000000    0.9426600000000001 H
   0.3598100000000000    0.1977100000000000    0.7265450000000000 H
   0.3627700000000000    0.9583199999999999    0.7565950000000000 H
   0.5171700000000000    0.8760599999999999    0.6435450000000000 H
   0.3110300000000000    0.4449800000000000    0.4002550000000000 C
   0.8829399999999999    0.4909500000000000    0.2419400000000000 C
   0.9039100000000000    0.4423700000000000    0.4518300000000000 C
   0.7614400000000000    0.4567100000000000    0.4698900000000000 C
   0.1699400000000000    0.4366800000000000    0.4180400000000000 C
   0.7596800000000000    0.4828300000000000    0.2322800000000000 C
   0.8806600000000000    0.5371700000000000    0.2742550000000000 C
   0.0801000000000000    0.4787800000000000    0.3943500000000000 C
   0.0037700000000000    0.4536300000000000    0.2178550000000000 C
   0.1265400000000000    0.3928100000000000    0.4584850000000000 C
   0.9941200000000000    0.3948100000000000    0.4752950000000000 C
   0.9477300000000000    0.4821000000000000    0.4112350000000000 C
   0.5533500000000000    0.6902600000000000    0.3496700000000000 C
   0.5090100000000000    0.1171400000000000    0.0080500000000000 C
   0.5575900000000000    0.0965400000000000    0.2980700000000000 C
   0.5434500000000000    0.2389500000000000    0.2800100000000000 C
   0.5626700000000000    0.8311200000000000    0.3318950000000000 C
   0.5174600000000000    0.2400200000000000    0.0177950000000000 C
   0.5213500000000000    0.9208300000000000    0.3555900000000000 C
   0.5455400000000000    0.9969900000000000    0.0323050000000000 C
   0.6064700000000000    0.8745200000000000    0.2914450000000000 C
   0.6050300000000000    0.0068700000000000    0.2746250000000000 C
   0.5177400000000000    0.0527800000000000    0.3386600000000000 C
   0.6899800000000000    0.5536600000000000    0.0997850000000000 C
   0.1171200000000000    0.5090600000000000    0.2581400000000000 C
   0.0967500000000000    0.5572100000000000    0.0480650000000000 C
   0.2391600000000000    0.5428400000000000    0.0299700000000000 C
   0.8308800000000000    0.5628900000000000    0.0820400000000000 C
   0.2400100000000000    0.5174600000000000    0.2679200000000000 C
   0.1198600000000000    0.4626300000000000    0.2258250000000000 C
   0.9207000000000000    0.5213200000000000    0.1057300000000000 C
   0.9969500000000000    0.5456800000000001    0.2822050000000000 C
   0.8741700000000000    0.6067200000000000    0.0415850000000000 C
   0.0065400000000000    0.6049300000000000    0.0247500000000000 C
   0.0531800000000000    0.5173200000000000    0.0886650000000000 C
   0.4450300000000000    0.3113000000000000    0.1503300000000000 C
   0.4421700000000000    0.9037800000000000    0.2018000000000000 C
   0.4564100000000000    0.7613000000000000    0.2198500000000000 C
   0.4363500000000000    0.1703500000000000    0.1681450000000000 C
   0.5369699999999999    0.8806900000000000    0.0244200000000000 C
   0.4782400000000000    0.0806200000000000    0.1444600000000000 C
   0.3923500000000000    0.1269400000000000    0.2085900000000000 C
   0.3939800000000000    0.9945700000000000    0.2254000000000000 C
   0.4820000000000000    0.9477000000000000    0.1612100000000000 C
   0.3110300000000000    0.4449800000000000    0.9002550000000000 C
   0.8829399999999999    0.4909500000000000    0.7419400000000000 C
   0.9039100000000000    0.4423700000000000    0.9518300000000000 C
   0.7614400000000000    0.4567100000000000    0.9698899999999999 C
   0.1699400000000000    0.4366800000000000    0.9180400000000000 C
   0.7596800000000000    0.4828300000000000    0.7322800000000000 C
   0.8806600000000000    0.5371700000000000    0.7742550000000000 C
   0.0801000000000000    0.4787800000000000    0.8943500000000000 C
   0.0037700000000000    0.4536300000000000    0.7178550000000000 C
   0.1265400000000000    0.3928100000000000    0.9584850000000000 C
   0.9941200000000000    0.3948100000000000    0.9752950000000000 C
   0.9477300000000000    0.4821000000000000    0.9112350000000000 C
   0.5533500000000000    0.6902600000000000    0.8496699999999999 C
   0.5575900000000000    0.0965400000000000    0.7980700000000001 C
   0.5434500000000000    0.2389500000000000    0.7800100000000000 C
   0.5626700000000000    0.8311200000000000    0.8318950000000001 C
   0.4631800000000000    0.1198500000000000    0.9756000000000000 C
   0.5213500000000000    0.9208300000000000    0.8555900000000001 C
   0.6064700000000000    0.8745200000000000    0.7914450000000000 C
   0.6050300000000000    0.0068700000000000    0.7746250000000000 C
   0.5177400000000000    0.0527800000000000    0.8386600000000000 C
   0.6899800000000000    0.5536600000000000    0.5997850000000000 C
   0.1171200000000000    0.5090600000000000    0.7581400000000000 C
   0.0967500000000000    0.5572100000000000    0.5480650000000000 C
   0.2391600000000000    0.5428400000000000    0.5299700000000001 C
   0.8308800000000000    0.5628900000000000    0.5820400000000000 C
   0.2400100000000000    0.5174600000000000    0.7679199999999999 C
   0.1198600000000000    0.4626300000000000    0.7258249999999999 C
   0.9207000000000000    0.5213200000000000    0.6057300000000000 C
   0.9969500000000000    0.5456800000000001    0.7822050000000000 C
   0.8741700000000000    0.6067200000000000    0.5415850000000000 C
   0.0065400000000000    0.6049300000000000    0.5247500000000000 C
   0.0531800000000000    0.5173200000000000    0.5886650000000000 C
   0.4450300000000000    0.3113000000000000    0.6503300000000000 C
   0.4914800000000000    0.8828600000000000    0.9919549999999999 C
   0.4421700000000000    0.9037800000000000    0.7018000000000000 C
   0.4564100000000000    0.7613000000000000    0.7198500000000000 C
   0.4363500000000000    0.1703500000000000    0.6681450000000000 C
   0.4836400000000000    0.7595400000000000    0.9823200000000001 C
   0.4782400000000000    0.0806200000000000    0.6444600000000000 C
   0.4541200000000000    0.0038100000000000    0.9676549999999999 C
   0.3923500000000000    0.1269400000000000    0.7085900000000001 C
   0.3939800000000000    0.9945700000000000    0.7254000000000000 C
   0.4820000000000000    0.9477000000000000    0.6612100000000000 C
   0.3501000000000000    0.4673900000000000    0.3635350000000000 O
   0.3855500000000000    0.4301500000000000    0.4232850000000000 O
   0.6479900000000000    0.5144300000000001    0.2542850000000000 O
   0.6849700000000000    0.4989300000000000    0.4466000000000000 O
   0.7656600000000000    0.4472200000000000    0.2016250000000000 O
   0.7238000000000000    0.4295300000000000    0.0068750000000000 O
   0.5301800000000000    0.6510700000000000    0.3864100000000000 O
   0.5681000000000000    0.6160400000000000    0.3265950000000000 O
   0.5026600000000000    0.3154200000000000    0.3032800000000000 O
   0.5520600000000000    0.2335200000000000    0.0486600000000000 O
   0.5693500000000000    0.2765100000000000    0.2430200000000000 O
   0.6506700000000000    0.5306800000000000    0.1365150000000000 O
   0.6159000000000000    0.5681600000000000    0.0766700000000000 O
   0.3520500000000000    0.4867700000000000    0.2459100000000000 O
   0.3157200000000000    0.5009200000000000    0.0532250000000000 O
   0.2334600000000000    0.5524000000000000    0.2987200000000000 O
   0.2766400000000000    0.5696900000000000    0.0000000000000000 O
   0.4680400000000000    0.3501700000000000    0.1135950000000000 O
   0.4298300000000000    0.3859100000000000    0.1733400000000000 O
   0.5142400000000000    0.6480000000000000    0.0045650000000000 O
   0.4984600000000000    0.6849600000000000    0.1965500000000000 O
   0.4294600000000000    0.7235500000000000    0.2568300000000000 O
   0.3501000000000000    0.4673900000000000    0.8635349999999999 O
   0.3855500000000000    0.4301500000000000    0.9232850000000000 O
   0.6479900000000000    0.5144300000000001    0.7542850000000000 O
   0.6849700000000000    0.4989300000000000    0.9466000000000000 O
   0.7656600000000000    0.4472200000000000    0.7016249999999999 O
   0.7238000000000000    0.4295300000000000    0.5068750000000000 O
   0.5301800000000000    0.6510700000000000    0.8864099999999999 O
   0.5681000000000000    0.6160400000000000    0.8265950000000000 O
   0.4872000000000000    0.3519400000000000    0.9956400000000001 O
   0.5026600000000000    0.3154200000000000    0.8032800000000000 O
   0.5693500000000000    0.2765100000000000    0.7430200000000000 O
   0.6506700000000000    0.5306800000000000    0.6365149999999999 O
   0.6159000000000000    0.5681600000000000    0.5766700000000000 O
   0.3520500000000000    0.4867700000000000    0.7459100000000000 O
   0.3157200000000000    0.5009200000000000    0.5532250000000000 O
   0.2334600000000000    0.5524000000000000    0.7987200000000000 O
   0.2766400000000000    0.5696900000000000    0.5000000000000000 O
   0.4680400000000000    0.3501700000000000    0.6135950000000000 O
   0.4298300000000000    0.3859100000000000    0.6733400000000000 O
   0.4984600000000000    0.6849600000000000    0.6965500000000000 O
   0.4492900000000000    0.7654100000000000    0.9514650000000000 O
   0.4294600000000000    0.7235500000000000    0.7568300000000000 O
