H8 O4
1.0
  35.2045903036118375    0.0000000000000000   18.2569019977333440
   5.8423127883036399   12.7277984888261759    3.0363509203413623
   0.0000000000000000    0.0000000000000000   14.3369999999999997
H O
8 4
direct
   0.8519214905952284    0.8928163869787067    0.4065552012985200 H
   0.8326508245513677    0.9016822661451201    0.4246066330331412 H
   0.8918205995257096    0.9247896007897684    0.4017826888206952 H
   0.8804433481235253    0.9215847653807427    0.4043501591053287 H
   0.8147149760107580    0.1072722115035831    0.5934115029602371 H
   0.8340045595847148    0.0982964179547449    0.5754459621626146 H
   0.7748318399182321    0.0752110990268462    0.5982564017482643 H
   0.7861961794415426    0.0784125851961211    0.5957006609045847 H
   0.8605600000000000    0.8597200000000000    0.3729400000000000 O
   0.8951233333333333    0.8731400000000000    0.3596400000000000 O
   0.8060933333333333    0.1402800000000000    0.6270900000000000 O
   0.7715266666666667    0.1268900000000000    0.6403700000000000 O
