H12 C12 N4
1.0
  35.2045903036118375    0.0000000000000000   18.2569019977333440
   5.8423127883036399   12.7277984888261759    3.0363509203413623
   0.0000000000000000    0.0000000000000000   14.3369999999999997
H C N
12 12 4
direct
   0.7326433333333333    0.9876700000000000    0.6653100000000000 H
   0.7107233333333333    0.1175000000000000    0.6228700000000000 H
   0.8829300000000000    0.1656600000000000    0.4881000000000000 H
   0.8757433333333333    0.1232500000000000    0.6179800000000000 H
   0.9339999999999999    0.0123500000000000    0.3347500000000000 H
   0.9559299999999999    0.8825000000000000    0.3771500000000000 H
   0.7837233333333333    0.8343200000000000    0.5119800000000000 H
   0.7909100000000000    0.8767100000000000    0.3820900000000000 H
   0.7182866666666666    0.9832000000000000    0.5161700000000000 H
   0.7451933333333333    0.0609700000000000    0.4385300000000000 H
   0.9483666666666666    0.0167700000000000    0.4838900000000000 H
   0.9214633333333333    0.9389900000000000    0.5615100000000000 H
   0.7760566666666666    0.0560600000000000    0.5826500000000000 C
   0.7385100000000000    0.0422600000000000    0.5988300000000000 C
   0.8443466666666666    0.0827400000000000    0.5563100000000000 C
   0.8810266666666666    0.0991600000000000    0.5426900000000000 C
   0.8905966666666666    0.9439300000000000    0.4174000000000000 C
   0.9281433333333333    0.9577300000000000    0.4012100000000000 C
   0.8223100000000000    0.9172300000000000    0.4437500000000000 C
   0.7856233333333333    0.9008200000000000    0.4573800000000000 C
   0.8158799999999999    0.9933900000000000    0.5065000000000000 C
   0.7448933333333333    0.9998200000000000    0.4997300000000000 C
   0.8507699999999999    0.0065700000000000    0.4935200000000000 C
   0.9217599999999999    0.0001600000000000    0.5003200000000000 C
   0.7715266666666667    0.1268900000000000    0.6403700000000000 N
   0.8060933333333333    0.1402800000000000    0.6270900000000000 N
   0.8951233333333333    0.8731400000000000    0.3596400000000000 N
   0.8605600000000000    0.8597200000000000    0.3729400000000000 N
