H2 O2
1.0
  33.5122721133719210    0.0000000000000000   -9.6861279053765905
  -8.2785409334389133   24.5051953787829859   -2.6775315985156007
   0.0000000000000000    0.0000000000000000   26.0060000000000002
H O
2 2
direct
   0.4634001502010417    0.0538792850495642    0.8622983654656236 H
   0.2032384560535031    0.9460973225998972    0.6376978747744888 H
   0.4809033333333333    0.0586150000000000    0.8384350000000000 O
   0.1857466666666666    0.9413400000000001    0.6615750000000000 O
