H10 C12 N2
1.0
  33.5122721133719210    0.0000000000000000   -9.6861279053765905
  -8.2785409334389133   24.5051953787829859   -2.6775315985156007
   0.0000000000000000    0.0000000000000000   26.0060000000000002
H C N
10 12 2
direct
   0.3313433333333333    0.0000000000000000    0.8086750000000000 H
   0.4738633333333333    0.0610450000000000    0.9148700000000001 H
   0.3954266666666666    0.0299250000000000    0.8807000000000000 H
   0.4033566666666666    0.0231150000000000    0.7172100000000000 H
   0.4807300000000000    0.0530200000000000    0.7583200000000000 H
   0.1927900000000000    0.9389950000000000    0.5851400000000000 H
   0.2712233333333333    0.9700500000000001    0.6193000000000000 H
   0.2632933333333333    0.9766900000000001    0.7827900000000000 H
   0.1859233333333333    0.9468500000000000    0.7416850000000000 H
   0.3333333333333333    0.9960850000000000    0.6913250000000000 H
   0.4567500000000000    0.0520800000000000    0.8713649999999999 C
   0.4131233333333333    0.0349600000000000    0.8519500000000000 C
   0.3916300000000000    0.0238300000000000    0.7955200000000000 C
   0.4170966666666667    0.0308600000000000    0.7614300000000001 C
   0.4605766666666666    0.0477500000000000    0.7839950000000000 C
   0.3458400000000000    0.0063000000000000    0.7763599999999999 C
   0.2099033333333333    0.9479100000000000    0.6286000000000000 C
   0.2535266666666667    0.9649950000000000    0.6480600000000000 C
   0.2750166666666666    0.9760650000000000    0.7044500000000000 C
   0.2495533333333333    0.9690050000000000    0.7385750000000000 C
   0.2060733333333333    0.9521450000000000    0.7160100000000000 C
   0.3208100000000000    0.9935800000000000    0.7236450000000000 C
   0.4809033333333333    0.0586150000000000    0.8384350000000000 N
   0.1857466666666666    0.9413400000000001    0.6615750000000000 N
