H6 C12 O4
1.0
  33.5122721133719210    0.0000000000000000   -9.6861279053765905
  -8.2785409334389133   24.5051953787829859   -2.6775315985156007
   0.0000000000000000    0.0000000000000000   26.0060000000000002
H C O
6 12 4
direct
   0.6659333333333333    0.3258050000000000    0.8154350000000000 H
   0.6970533333333333    0.3449750000000000    0.9162699999999999 H
   0.6739433333333333    0.3371000000000000    0.7246800000000000 H
   0.8031866666666666    0.4370950000000000    0.8015500000000000 H
   0.8334633333333332    0.4592000000000000    0.9028149999999999 H
   0.8255399999999999    0.4480200000000000    0.9932850000000000 H
   0.7561066666666666    0.3909500000000000    0.0149000000000000 C
   0.7606033333333333    0.3952500000000000    0.9602500000000000 C
   0.7268633333333333    0.3695450000000000    0.9131500000000000 C
   0.7304066666666666    0.3748800000000000    0.8610150000000000 C
   0.6959799999999999    0.3498800000000000    0.8123000000000000 C
   0.7002633333333332    0.3559900000000000    0.7620650000000000 C
   0.7395100000000000    0.3869500000000000    0.7578500000000000 C
   0.7734900000000000    0.4122600000000000    0.8048100000000000 C
   0.7698566666666666    0.4072300000000000    0.8569850000000000 C
   0.8039333333333333    0.4334500000000000    0.9058450000000000 C
   0.7995300000000000    0.4274400000000000    0.9560150000000001 C
   0.7437699999999999    0.3910300000000000    0.7030250000000000 C
   0.7898133333333333    0.4091400000000000    0.0562300000000000 O
   0.7191500000000000    0.3702200000000000    0.0181000000000000 O
   0.7808133333333334    0.4109500000000000    0.6997050000000000 O
   0.7099966666666666    0.3733950000000000    0.6619850000000000 O
