H4 O2
1.0
  37.3099995397063253    0.0000000000000000   -0.0058606410711698
  -5.2125202908380253   34.2921015373964977    0.0006053849043166
   0.0000000000000000    0.0000000000000000   20.2820000000000000
H O
4 2
direct
   0.6991793082562795    0.9114944323054330    0.2600438897640376 H
   0.6746051188737341    0.8669039351347210    0.2637726371342511 H
   0.4090998247332635    0.8638765776072703    0.5658051220699583 H
   0.4357440477909728    0.9065447496337155    0.5802621729126924 H
   0.6950650000000000    0.8843950000000000    0.2449400000000000 O
   0.4151150000000000    0.8871700000000000    0.5932100000000000 O
