H14 C24 O10
1.0
  37.3099995397063253    0.0000000000000000   -0.0058606410711698
  -5.2125202908380253   34.2921015373964977    0.0006053849043166
   0.0000000000000000    0.0000000000000000   20.2820000000000000
H C O
14 24 10
direct
   0.1748800000000000    0.2237600000000000    0.2607900000000000 H
   0.2796600000000000    0.2845000000000000    0.3126000000000000 H
   0.2394250000000000    0.1736700000000000    0.4045000000000000 H
   0.3334100000000000    0.2657150000000000    0.3514900000000000 H
   0.3089750000000000    0.2886500000000000    0.4122600000000000 H
   0.3882950000000000    0.2412700000000000    0.3813000000000000 H
   0.3164850000000000    0.2698900000000000    0.5345000000000000 H
   0.4703450000000000    0.2155050000000000    0.6873800000000000 H
   0.4165900000000000    0.2342950000000000    0.6484900000000000 H
   0.4410250000000000    0.2113600000000000    0.5877200000000000 H
   0.3617050000000000    0.2587400000000000    0.6186800000000000 H
   0.4335150000000000    0.2301200000000000    0.4654800000000000 H
   0.5751200000000000    0.2762400000000000    0.7391799999999999 H
   0.5105750000000000    0.3263350000000000    0.5954700000000001 H
   0.4910050000000000    0.2408350000000000    0.6805000000000000 C
   0.1744250000000000    0.1604550000000000    0.3427000000000000 C
   0.2038900000000000    0.1949750000000000    0.3338600000000000 C
   0.1995150000000000    0.2250750000000000    0.2898200000000000 C
   0.2269100000000000    0.2569450000000000    0.2824200000000000 C
   0.2211250000000000    0.2891500000000000    0.2355500000000000 C
   0.2590000000000000    0.2591750000000000    0.3194800000000000 C
   0.2633500000000000    0.2291800000000000    0.3635900000000000 C
   0.2358900000000000    0.1970550000000000    0.3704200000000000 C
   0.3212100000000000    0.2623300000000000    0.4011000000000000 C
   0.3492400000000000    0.2564800000000000    0.4519300000000000 C
   0.3823900000000000    0.2453250000000000    0.4333400000000000 C
   0.3421200000000000    0.2611500000000000    0.5191100000000000 C
   0.4866500000000000    0.2708300000000000    0.6363900000000000 C
   0.4287950000000000    0.2376800000000000    0.5988800000000000 C
   0.4007600000000000    0.2435350000000000    0.5480500000000000 C
   0.3676100000000000    0.2546850000000000    0.5666400000000000 C
   0.4078800000000000    0.2388550000000000    0.4808700000000000 C
   0.5230850000000000    0.2430600000000000    0.7175600000000000 C
   0.5288750000000000    0.2108550000000000    0.7644300000000001 C
   0.5755800000000000    0.3395550000000000    0.6572000000000000 C
   0.5461100000000000    0.3050300000000000    0.6661200000000000 C
   0.5504800000000000    0.2749300000000000    0.7101600000000000 C
   0.5141100000000000    0.3029500000000000    0.6295500000000001 C
   0.4565450000000000    0.2715300000000000    0.5974000000000000 O
   0.1450300000000000    0.1617700000000000    0.3081400000000000 O
   0.1784300000000000    0.1333750000000000    0.3810100000000000 O
   0.1923150000000000    0.2867350000000000    0.2030500000000000 O
   0.2471450000000000    0.3186800000000000    0.2332600000000000 O
   0.2934600000000000    0.2284800000000000    0.4025000000000000 O
   0.5715700000000000    0.3666300000000000    0.6189600000000000 O
   0.5576900000000000    0.2132700000000000    0.7969200000000000 O
   0.5028600000000000    0.1813250000000000    0.7667200000000000 O
   0.6049700000000000    0.3382350000000000    0.6918400000000000 O
