Zn32 H854 C872 N128 O154
1.0
  37.3099995397063253    0.0000000000000000   -0.0058606410711698
  -5.2125202908380253   34.2921015373964977    0.0006053849043166
   0.0000000000000000    0.0000000000000000   20.2820000000000000
Zn H C N O
32 854 872 128 154
direct
   0.1407250000000000    0.8867050000000001    0.6836200000000000 Zn
   0.8592800000000000    0.1133050000000000    0.3163600000000000 Zn
   0.0157400000000000    0.6366849999999999    0.8163000000000000 Zn
   0.7342649999999999    0.8633200000000000    0.1836200000000000 Zn
   0.7657400000000000    0.1366900000000000    0.8163000000000000 Zn
   0.4842700000000000    0.3633200000000000    0.1836200000000000 Zn
   0.6092800000000000    0.6133000000000000    0.3163600000000000 Zn
   0.8907300000000000    0.3867050000000000    0.6836200000000000 Zn
   0.6407250000000000    0.8867050000000001    0.6836200000000000 Zn
   0.3592800000000000    0.1133050000000000    0.3163600000000000 Zn
   0.5157400000000000    0.6366849999999999    0.8163000000000000 Zn
   0.2342650000000000    0.8633200000000000    0.1836200000000000 Zn
   0.2657400000000000    0.1366900000000000    0.8163000000000000 Zn
   0.9842700000000000    0.3633200000000000    0.1836200000000000 Zn
   0.1092800000000000    0.6133000000000000    0.3163600000000000 Zn
   0.3907300000000000    0.3867050000000000    0.6836200000000000 Zn
   0.2342650000000000    0.3633200000000000    0.1836200000000000 Zn
   0.6407250000000000    0.3867050000000000    0.6836200000000000 Zn
   0.3592800000000000    0.6133050000000000    0.3163600000000000 Zn
   0.5157400000000000    0.1366850000000000    0.8163000000000000 Zn
   0.2657400000000000    0.6366900000000000    0.8163000000000000 Zn
   0.9842700000000000    0.8633200000000000    0.1836200000000000 Zn
   0.1092800000000000    0.1133000000000000    0.3163600000000000 Zn
   0.3907300000000000    0.8867050000000001    0.6836200000000000 Zn
   0.1407250000000000    0.3867050000000000    0.6836200000000000 Zn
   0.8592800000000000    0.6133050000000000    0.3163600000000000 Zn
   0.0157400000000000    0.1366850000000000    0.8163000000000000 Zn
   0.7342649999999999    0.3633200000000000    0.1836200000000000 Zn
   0.7657400000000000    0.6366900000000000    0.8163000000000000 Zn
   0.4842700000000000    0.8633200000000000    0.1836200000000000 Zn
   0.6092800000000000    0.1133000000000000    0.3163600000000000 Zn
   0.8907300000000000    0.8867050000000001    0.6836200000000000 Zn
   0.3629300000000000    0.1807350000000000    0.9923000000000000 H
   0.2947700000000000    0.0708400000000000    0.0268300000000000 H
   0.3241200000000000    0.1892400000000000    0.8922500000000000 H
   0.2585300000000000    0.0842650000000000    0.9290000000000000 H
   0.4036350000000000    0.1302600000000000    0.9786200000000000 H
   0.4186400000000000    0.0971500000000000    0.0357000000000000 H
   0.3892350000000000    0.1496400000000000    0.1800000000000000 H
   0.4094250000000000    0.1083350000000000    0.1577000000000000 H
   0.3402050000000000    0.1233700000000000    0.1208400000000000 H
   0.3563100000000000    0.0851800000000000    0.0780100000000000 H
   0.5602900000000000    0.2162500000000000    0.1710100000000000 H
   0.4971650000000000    0.1019350000000000    0.1599200000000000 H
   0.5380700000000000    0.0803600000000000    0.2476700000000000 H
   0.5988050000000000    0.1902850000000000    0.2564600000000000 H
   0.4558200000000000    0.1608300000000000    0.1955800000000000 H
   0.4411000000000000    0.1948900000000000    0.1398000000000000 H
   0.4695650000000000    0.1433800000000000    0.9932200000000000 H
   0.4486600000000000    0.1840800000000000    0.0181600000000000 H
   0.5189300000000000    0.1688950000000000    0.0548300000000000 H
   0.5039800000000000    0.2054100000000000    0.1044400000000000 H
   0.8629300000000000    0.1807350000000000    0.9923000000000000 H
   0.7947700000000000    0.0708400000000000    0.0268300000000000 H
   0.8241200000000000    0.1892400000000000    0.8922500000000000 H
   0.7585299999999999    0.0842650000000000    0.9290000000000000 H
   0.9036350000000000    0.1302600000000000    0.9786200000000000 H
   0.9186400000000000    0.0971500000000000    0.0357000000000000 H
   0.8892350000000000    0.1496400000000000    0.1800000000000000 H
   0.9094249999999999    0.1083350000000000    0.1577000000000000 H
   0.8402050000000000    0.1233700000000000    0.1208400000000000 H
   0.8563100000000000    0.0851800000000000    0.0780100000000000 H
   0.0602900000000000    0.2162500000000000    0.1710100000000000 H
   0.9971650000000001    0.1019350000000000    0.1599200000000000 H
   0.0380700000000000    0.0803600000000000    0.2476700000000000 H
   0.0988050000000000    0.1902850000000000    0.2564600000000000 H
   0.9558200000000000    0.1608300000000000    0.1955800000000000 H
   0.9411000000000000    0.1948900000000000    0.1398000000000000 H
   0.9695650000000000    0.1433800000000000    0.9932200000000000 H
   0.9486600000000001    0.1840800000000000    0.0181600000000000 H
   0.0189300000000000    0.1688950000000000    0.0548300000000000 H
   0.0039800000000000    0.2054100000000000    0.1044400000000000 H
   0.1129300000000000    0.6807350000000000    0.9923300000000000 H
   0.0447700000000000    0.5708450000000000    0.0268300000000000 H
   0.0741200000000000    0.6892350000000000    0.8922500000000000 H
   0.0085300000000000    0.5842700000000000    0.9290600000000000 H
   0.1392350000000000    0.6496400000000000    0.1803900000000000 H
   0.1594250000000000    0.6083400000000000    0.1577200000000000 H
   0.1536350000000000    0.6302550000000000    0.9786200000000000 H
   0.1686400000000000    0.5971450000000000    0.0357000000000000 H
   0.0902050000000000    0.6233700000000000    0.1208400000000000 H
   0.1063100000000000    0.5851800000000000    0.0780100000000000 H
   0.3102900000000000    0.7162500000000001    0.1710100000000000 H
   0.2471650000000000    0.6019350000000000    0.1599200000000000 H
   0.2880700000000000    0.5803600000000000    0.2476800000000000 H
   0.3488050000000000    0.6902850000000000    0.2564600000000000 H
   0.2058200000000000    0.6608300000000000    0.1955700000000000 H
   0.1911000000000000    0.6948900000000000    0.1398200000000000 H
   0.2195650000000000    0.6433750000000000    0.9932200000000000 H
   0.1986600000000000    0.6840800000000000    0.0181000000000000 H
   0.2689350000000000    0.6688950000000000    0.0548300000000000 H
   0.2539850000000000    0.7054100000000000    0.1044400000000000 H
   0.6129300000000000    0.6807350000000000    0.9923300000000000 H
   0.5447700000000000    0.5708450000000000    0.0268300000000000 H
   0.5741200000000000    0.6892350000000000    0.8922500000000000 H
   0.5085300000000000    0.5842700000000000    0.9290600000000000 H
   0.6392350000000000    0.6496400000000000    0.1803900000000000 H
   0.6594250000000000    0.6083400000000000    0.1577200000000000 H
   0.6536350000000000    0.6302550000000000    0.9786200000000000 H
   0.6686400000000000    0.5971450000000000    0.0357000000000000 H
   0.5902050000000000    0.6233700000000000    0.1208400000000000 H
   0.6063100000000000    0.5851800000000000    0.0780100000000000 H
   0.8102900000000000    0.7162500000000001    0.1710100000000000 H
   0.7471650000000000    0.6019350000000000    0.1599200000000000 H
   0.7880700000000000    0.5803600000000000    0.2476800000000000 H
   0.8488050000000000    0.6902850000000000    0.2564600000000000 H
   0.7058200000000000    0.6608300000000000    0.1955700000000000 H
   0.6911000000000000    0.6948900000000000    0.1398200000000000 H
   0.7195650000000000    0.6433750000000000    0.9932200000000000 H
   0.6986600000000001    0.6840800000000000    0.0181000000000000 H
   0.7689349999999999    0.6688950000000000    0.0548300000000000 H
   0.7539850000000000    0.7054100000000000    0.1044400000000000 H
   0.4552300000000000    0.4291650000000000    0.9731400000000000 H
   0.3870800000000000    0.3192650000000000    0.0076300000000000 H
   0.4258850000000000    0.3107650000000000    0.1077200000000000 H
   0.4914700000000000    0.4157400000000000    0.0709200000000000 H
   0.3463700000000000    0.3697450000000000    0.0213500000000000 H
   0.3313650000000000    0.4028550000000000    0.9642200000000000 H
   0.3607700000000000    0.3503650000000000    0.8195800000000000 H
   0.3405750000000000    0.3916650000000000    0.8422600000000000 H
   0.4097950000000000    0.3766350000000000    0.8791000000000000 H
   0.3936900000000000    0.4148250000000000    0.9219600000000000 H
   0.1897100000000000    0.2837500000000000    0.8289600000000000 H
   0.2528350000000000    0.3980650000000000    0.8400600000000000 H
   0.2119300000000000    0.4196450000000000    0.7523000000000000 H
   0.1511950000000000    0.3097150000000000    0.7435100000000000 H
   0.2941850000000000    0.3391750000000000    0.8044000000000000 H
   0.3089050000000000    0.3051100000000000    0.8601500000000000 H
   0.2804400000000000    0.3566250000000000    0.0067000000000000 H
   0.3013400000000000    0.3159200000000000    0.9818200000000000 H
   0.2310700000000000    0.3311050000000000    0.9451000000000001 H
   0.2460200000000000    0.2945900000000000    0.8955300000000000 H
   0.9552300000000000    0.4291650000000000    0.9731400000000000 H
   0.8870800000000000    0.3192650000000000    0.0076300000000000 H
   0.9258850000000001    0.3107650000000000    0.1077200000000000 H
   0.9914700000000001    0.4157400000000000    0.0709200000000000 H
   0.8463700000000001    0.3697450000000000    0.0213500000000000 H
   0.8313650000000000    0.4028550000000000    0.9642200000000000 H
   0.8607700000000000    0.3503650000000000    0.8195800000000000 H
   0.8405750000000001    0.3916650000000000    0.8422600000000000 H
   0.9097950000000000    0.3766350000000000    0.8791000000000000 H
   0.8936900000000000    0.4148250000000000    0.9219600000000000 H
   0.6897100000000000    0.2837500000000000    0.8289600000000000 H
   0.7528349999999999    0.3980650000000000    0.8400600000000000 H
   0.7119300000000000    0.4196450000000000    0.7523000000000000 H
   0.6511950000000000    0.3097150000000000    0.7435100000000000 H
   0.7941849999999999    0.3391750000000000    0.8044000000000000 H
   0.8089050000000000    0.3051100000000000    0.8601500000000000 H
   0.7804400000000000    0.3566250000000000    0.0067000000000000 H
   0.8013399999999999    0.3159200000000000    0.9818200000000000 H
   0.7310700000000000    0.3311050000000000    0.9451000000000001 H
   0.7460200000000000    0.2945900000000000    0.8955300000000000 H
   0.2052300000000000    0.9291600000000000    0.9731400000000000 H
   0.1370800000000000    0.8192650000000000    0.0076300000000000 H
   0.1758850000000000    0.8107650000000000    0.1077200000000000 H
   0.2414700000000000    0.9157400000000000    0.0709200000000000 H
   0.1107700000000000    0.8503600000000000    0.8195800000000000 H
   0.0905800000000000    0.8916649999999999    0.8422600000000000 H
   0.0963700000000000    0.8697450000000000    0.0213500000000000 H
   0.0813650000000000    0.9028550000000000    0.9642200000000000 H
   0.1597950000000000    0.8766300000000000    0.8791300000000000 H
   0.1436950000000000    0.9148250000000000    0.9219000000000001 H
   0.9397100000000000    0.7837499999999999    0.8289700000000000 H
   0.0000000000000000    0.8980699999999999    0.8400600000000000 H
   0.9619300000000000    0.9196450000000000    0.7523000000000000 H
   0.9011950000000000    0.8097200000000000    0.7435200000000000 H
   0.0441800000000000    0.8391750000000000    0.8044000000000000 H
   0.0589000000000000    0.8051100000000000    0.8601500000000000 H
   0.0304400000000000    0.8566250000000000    0.0067600000000000 H
   0.0513400000000000    0.8159250000000000    0.9818000000000000 H
   0.9810749999999999    0.8311100000000000    0.9451500000000000 H
   0.9960200000000000    0.7945949999999999    0.8955400000000000 H
   0.7052300000000000    0.9291600000000000    0.9731400000000000 H
   0.6370800000000000    0.8192650000000000    0.0076300000000000 H
   0.6758850000000001    0.8107650000000000    0.1077200000000000 H
   0.7414700000000000    0.9157400000000000    0.0709200000000000 H
   0.6107700000000000    0.8503600000000000    0.8195800000000000 H
   0.5905800000000000    0.8916649999999999    0.8422600000000000 H
   0.5963700000000000    0.8697450000000000    0.0213500000000000 H
   0.5813650000000000    0.9028550000000000    0.9642200000000000 H
   0.6597950000000000    0.8766300000000000    0.8791300000000000 H
   0.6436950000000000    0.9148250000000000    0.9219000000000001 H
   0.4397100000000000    0.7837499999999999    0.8289700000000000 H
   0.5000000000000000    0.8980699999999999    0.8400600000000000 H
   0.4619300000000000    0.9196450000000000    0.7523000000000000 H
   0.4011950000000000    0.8097200000000000    0.7435200000000000 H
   0.5441800000000000    0.8391750000000000    0.8044000000000000 H
   0.5589000000000000    0.8051100000000000    0.8601500000000000 H
   0.5304400000000000    0.8566250000000000    0.0067600000000000 H
   0.5513399999999999    0.8159250000000000    0.9818000000000000 H
   0.4810750000000000    0.8311100000000000    0.9451500000000000 H
   0.4960200000000000    0.7945949999999999    0.8955400000000000 H
   0.5121800000000000    0.5691550000000000    0.4924000000000000 H
   0.5802200000000000    0.6791400000000000    0.5267400000000000 H
   0.5509800000000000    0.5606650000000000    0.3923200000000000 H
   0.6164700000000000    0.6657200000000000    0.4200000000000000 H
   0.4858750000000000    0.6003499999999999    0.6804000000000000 H
   0.4656800000000000    0.6416400000000000    0.6576500000000000 H
   0.4713800000000000    0.6195750000000000    0.4786100000000000 H
   0.4564050000000000    0.6527350000000001    0.5356700000000000 H
   0.5348600000000000    0.6266050000000000    0.6208000000000000 H
   0.5187150000000000    0.6647550000000000    0.5779200000000000 H
   0.3147900000000000    0.5336950000000000    0.6711700000000000 H
   0.3778950000000000    0.6480150000000000    0.6600000000000000 H
   0.3369700000000000    0.6696200000000000    0.7476600000000000 H
   0.2762550000000000    0.5596900000000000    0.7565200000000000 H
   0.4193050000000000    0.5891850000000000    0.6956000000000000 H
   0.4339850000000000    0.5550750000000000    0.6399700000000000 H
   0.4054550000000000    0.6064750000000000    0.4930000000000000 H
   0.4263600000000000    0.5657850000000000    0.5183000000000000 H
   0.3561150000000000    0.5809800000000001    0.5549700000000000 H
   0.3711050000000000    0.5445200000000000    0.6046600000000000 H
   0.0121800000000000    0.5691550000000000    0.4924000000000000 H
   0.0802200000000000    0.6791400000000000    0.5267400000000000 H
   0.0509800000000000    0.5606650000000000    0.3923200000000000 H
   0.1164700000000000    0.6657200000000000    0.4200000000000000 H
   0.9858750000000001    0.6003499999999999    0.6804000000000000 H
   0.9656800000000000    0.6416400000000000    0.6576500000000000 H
   0.9713800000000000    0.6195750000000000    0.4786100000000000 H
   0.9564049999999999    0.6527350000000001    0.5356700000000000 H
   0.0348600000000000    0.6266050000000000    0.6208000000000000 H
   0.0187150000000000    0.6647550000000000    0.5779200000000000 H
   0.8147900000000000    0.5336950000000000    0.6711700000000000 H
   0.8778950000000000    0.6480150000000000    0.6600000000000000 H
   0.8369700000000000    0.6696200000000000    0.7476600000000000 H
   0.7762549999999999    0.5596900000000000    0.7565200000000000 H
   0.9193050000000000    0.5891850000000000    0.6956000000000000 H
   0.9339850000000001    0.5550750000000000    0.6399700000000000 H
   0.9054550000000000    0.6064750000000000    0.4930000000000000 H
   0.9263600000000001    0.5657850000000000    0.5183000000000000 H
   0.8561150000000000    0.5809800000000001    0.5549700000000000 H
   0.8711050000000000    0.5445200000000000    0.6046600000000000 H
   0.7378200000000000    0.9308550000000000    0.5075800000000000 H
   0.6697800000000000    0.8208700000000000    0.4732400000000000 H
   0.6990200000000000    0.9393450000000000    0.6076600000000000 H
   0.6335300000000000    0.8342900000000000    0.5709800000000000 H
   0.7641249999999999    0.8996649999999999    0.3195700000000000 H
   0.7843200000000000    0.8583750000000000    0.3423200000000000 H
   0.7786250000000000    0.8804350000000001    0.5213600000000000 H
   0.7936000000000001    0.8472750000000000    0.4643000000000000 H
   0.7151400000000000    0.8734050000000000    0.3791800000000000 H
   0.7312850000000000    0.8352550000000001    0.4220500000000000 H
   0.9352100000000000    0.9663100000000000    0.3287900000000000 H
   0.8721099999999999    0.8519900000000000    0.3399800000000000 H
   0.9130300000000000    0.8303849999999999    0.2523100000000000 H
   0.9737450000000001    0.9403200000000000    0.2434400000000000 H
   0.8307000000000000    0.9108250000000000    0.3043100000000000 H
   0.8160200000000000    0.9449350000000001    0.3600000000000000 H
   0.8445500000000000    0.8935299999999999    0.5066800000000000 H
   0.8236450000000000    0.9342200000000001    0.4816000000000000 H
   0.8938850000000000    0.9190250000000000    0.4450000000000000 H
   0.8789000000000000    0.9554900000000000    0.3953200000000000 H
   0.2378200000000000    0.9308550000000000    0.5075800000000000 H
   0.1697800000000000    0.8208700000000000    0.4732400000000000 H
   0.1990200000000000    0.9393450000000000    0.6076600000000000 H
   0.1335300000000000    0.8342900000000000    0.5709800000000000 H
   0.2641250000000000    0.8996649999999999    0.3195700000000000 H
   0.2843200000000000    0.8583750000000000    0.3423200000000000 H
   0.2786250000000000    0.8804350000000001    0.5213600000000000 H
   0.2936000000000000    0.8472750000000000    0.4643000000000000 H
   0.2151400000000000    0.8734050000000000    0.3791800000000000 H
   0.2312850000000000    0.8352550000000001    0.4220500000000000 H
   0.4352100000000000    0.9663100000000000    0.3287900000000000 H
   0.3721100000000000    0.8519900000000000    0.3399800000000000 H
   0.4130300000000000    0.8303849999999999    0.2523100000000000 H
   0.4737450000000000    0.9403200000000000    0.2434400000000000 H
   0.3307000000000000    0.9108250000000000    0.3043100000000000 H
   0.3160200000000000    0.9449350000000001    0.3600000000000000 H
   0.3445500000000000    0.8935299999999999    0.5066800000000000 H
   0.3236450000000000    0.9342200000000001    0.4816000000000000 H
   0.3938850000000000    0.9190250000000000    0.4450000000000000 H
   0.3789000000000000    0.9554900000000000    0.3953200000000000 H
   0.7621800000000001    0.0691550000000000    0.4924000000000000 H
   0.8302200000000000    0.1791400000000000    0.5266999999999999 H
   0.8009850000000001    0.0606600000000000    0.3923200000000000 H
   0.8664700000000001    0.1657200000000000    0.4289900000000000 H
   0.7358750000000001    0.1003500000000000    0.6804000000000000 H
   0.7156800000000000    0.1416350000000000    0.6576600000000000 H
   0.7213750000000000    0.1195700000000000    0.4786000000000000 H
   0.7064000000000000    0.1527300000000000    0.5356700000000000 H
   0.7848649999999999    0.1266050000000000    0.6208000000000000 H
   0.7687150000000000    0.1647550000000000    0.5779200000000000 H
   0.5647900000000000    0.0336950000000000    0.6711700000000000 H
   0.6278950000000000    0.1480150000000000    0.6600000000000000 H
   0.5869700000000000    0.1696200000000000    0.7476600000000000 H
   0.5262500000000000    0.0596850000000000    0.7565200000000000 H
   0.6693000000000000    0.0891800000000000    0.6956700000000000 H
   0.6839850000000001    0.0550700000000000    0.6399700000000000 H
   0.6554550000000000    0.1064700000000000    0.4933000000000000 H
   0.6763600000000000    0.0657850000000000    0.5183000000000000 H
   0.6061150000000000    0.0809800000000000    0.5549700000000000 H
   0.6211000000000000    0.0445150000000000    0.6046600000000000 H
   0.2621800000000000    0.0691550000000000    0.4924000000000000 H
   0.3302200000000000    0.1791400000000000    0.5266999999999999 H
   0.3009850000000000    0.0606600000000000    0.3923200000000000 H
   0.3664700000000000    0.1657200000000000    0.4289900000000000 H
   0.2358750000000000    0.1003500000000000    0.6804000000000000 H
   0.2156800000000000    0.1416350000000000    0.6576600000000000 H
   0.2213750000000000    0.1195700000000000    0.4786000000000000 H
   0.2064000000000000    0.1527300000000000    0.5356700000000000 H
   0.2848650000000000    0.1266050000000000    0.6208000000000000 H
   0.2687150000000000    0.1647550000000000    0.5779200000000000 H
   0.0647900000000000    0.0336950000000000    0.6711700000000000 H
   0.1278950000000000    0.1480150000000000    0.6600000000000000 H
   0.0869700000000000    0.1696200000000000    0.7476600000000000 H
   0.0262500000000000    0.0596850000000000    0.7565200000000000 H
   0.1693000000000000    0.0891800000000000    0.6956700000000000 H
   0.1839850000000000    0.0550700000000000    0.6399700000000000 H
   0.1554550000000000    0.1064700000000000    0.4933000000000000 H
   0.1763600000000000    0.0657850000000000    0.5183000000000000 H
   0.1061150000000000    0.0809800000000000    0.5549700000000000 H
   0.1211000000000000    0.0445150000000000    0.6046600000000000 H
   0.9878199999999999    0.4308550000000000    0.5075800000000000 H
   0.9197800000000000    0.3208700000000000    0.4732000000000000 H
   0.9490200000000000    0.4393450000000000    0.6076600000000000 H
   0.8835350000000000    0.3342900000000000    0.5709800000000000 H
   0.0141250000000000    0.3996650000000000    0.3195700000000000 H
   0.0343200000000000    0.3583750000000000    0.3423200000000000 H
   0.0286250000000000    0.3804350000000000    0.5213600000000000 H
   0.0435950000000000    0.3472750000000000    0.4643000000000000 H
   0.9651449999999999    0.3734100000000000    0.3791800000000000 H
   0.9812850000000000    0.3352550000000000    0.4220000000000000 H
   0.1852100000000000    0.4663100000000000    0.3287900000000000 H
   0.1221100000000000    0.3519900000000000    0.3399800000000000 H
   0.1630300000000000    0.3303850000000000    0.2523100000000000 H
   0.2237450000000000    0.4403200000000000    0.2434400000000000 H
   0.0807000000000000    0.4108250000000000    0.3043100000000000 H
   0.0660200000000000    0.4449350000000000    0.3600100000000000 H
   0.0945500000000000    0.3935300000000000    0.5066800000000000 H
   0.0736450000000000    0.4342200000000000    0.4816700000000000 H
   0.1438850000000000    0.4190200000000000    0.4450000000000000 H
   0.1289000000000000    0.4554900000000000    0.3953200000000000 H
   0.4878200000000000    0.4308550000000000    0.5075800000000000 H
   0.4197800000000000    0.3208700000000000    0.4732000000000000 H
   0.4490200000000000    0.4393450000000000    0.6076600000000000 H
   0.3835350000000000    0.3342900000000000    0.5709800000000000 H
   0.5141250000000001    0.3996650000000000    0.3195700000000000 H
   0.5343200000000000    0.3583750000000000    0.3423200000000000 H
   0.5286250000000000    0.3804350000000000    0.5213600000000000 H
   0.5435950000000001    0.3472750000000000    0.4643000000000000 H
   0.4651450000000000    0.3734100000000000    0.3791800000000000 H
   0.4812850000000000    0.3352550000000000    0.4220000000000000 H
   0.6852100000000000    0.4663100000000000    0.3287900000000000 H
   0.6221099999999999    0.3519900000000000    0.3399800000000000 H
   0.6630300000000000    0.3303850000000000    0.2523100000000000 H
   0.7237450000000000    0.4403200000000000    0.2434400000000000 H
   0.5807000000000000    0.4108250000000000    0.3043100000000000 H
   0.5660200000000000    0.4449350000000000    0.3600100000000000 H
   0.5945500000000000    0.3935300000000000    0.5066800000000000 H
   0.5736450000000000    0.4342200000000000    0.4816700000000000 H
   0.6438850000000000    0.4190200000000000    0.4450000000000000 H
   0.6289000000000000    0.4554900000000000    0.3953200000000000 H
   0.0415650000000000    0.9843700000000000    0.8514500000000000 H
   0.0659900000000000    0.9613800000000000    0.9121800000000000 H
   0.0953100000000000    0.9655250000000000    0.8125900000000000 H
   0.2000950000000000    0.0262200000000000    0.7600000000000000 H
   0.1355950000000000    0.0763400000000000    0.9045000000000000 H
   0.9414700000000000    0.0198600000000000    0.9655100000000000 H
   0.9866750000000000    0.0087550000000000    0.8813100000000000 H
   0.0585300000000000    0.9801500000000001    0.0344700000000000 H
   0.0133250000000000    0.9912550000000000    0.1186700000000000 H
   0.9584349999999999    0.0156400000000000    0.1485300000000000 H
   0.9340100000000000    0.0386250000000000    0.0878000000000000 H
   0.9046900000000000    0.0344800000000000    0.1873900000000000 H
   0.7999050000000000    0.9737850000000000    0.2391800000000000 H
   0.8644050000000000    0.9236650000000000    0.0954700000000000 H
   0.9165900000000000    0.7342950000000000    0.6484900000000000 H
   0.9410250000000000    0.7113600000000000    0.5877200000000000 H
   0.9703450000000000    0.7155050000000001    0.6873800000000000 H
   0.0751200000000000    0.7762400000000000    0.7391799999999999 H
   0.0105750000000000    0.8263350000000000    0.5954700000000001 H
   0.8164850000000000    0.7698900000000000    0.5345000000000000 H
   0.8617049999999999    0.7587400000000000    0.6186800000000000 H
   0.9335150000000000    0.7301200000000000    0.4654800000000000 H
   0.8882950000000001    0.7412700000000000    0.3813000000000000 H
   0.8334100000000000    0.7657149999999999    0.3514900000000000 H
   0.8089750000000000    0.7886500000000001    0.4122600000000000 H
   0.7796600000000000    0.7845000000000000    0.3126000000000000 H
   0.6748800000000000    0.7237600000000000    0.2607900000000000 H
   0.7394250000000000    0.6736700000000000    0.4045000000000000 H
   0.6665900000000000    0.2342900000000000    0.6484799999999999 H
   0.6910250000000000    0.2113600000000000    0.5877100000000000 H
   0.7203400000000000    0.2155050000000000    0.6873800000000000 H
   0.8251200000000001    0.2762450000000000    0.7391900000000000 H
   0.7605750000000000    0.3263350000000000    0.5954700000000001 H
   0.6382950000000001    0.2412700000000000    0.3813000000000000 H
   0.6835150000000000    0.2301200000000000    0.4654000000000000 H
   0.6117049999999999    0.2587400000000000    0.6186000000000000 H
   0.5664850000000000    0.2698900000000000    0.5345000000000000 H
   0.5834100000000000    0.2657150000000000    0.3514900000000000 H
   0.5589750000000000    0.2886500000000000    0.4122600000000000 H
   0.5296550000000000    0.2845000000000000    0.3125900000000000 H
   0.4248850000000000    0.2237600000000000    0.2607900000000000 H
   0.4894250000000000    0.1736700000000000    0.4045100000000000 H
   0.7915650000000001    0.4843700000000000    0.8514500000000000 H
   0.8159900000000000    0.4613800000000000    0.9121800000000000 H
   0.8453100000000000    0.4655300000000000    0.8125900000000000 H
   0.9500950000000000    0.5262200000000000    0.7607900000000000 H
   0.8855950000000000    0.5763400000000000    0.9045000000000000 H
   0.8085350000000000    0.4801450000000000    0.0344700000000000 H
   0.7633300000000001    0.4912550000000000    0.1186700000000000 H
   0.6914650000000000    0.5198600000000000    0.9655100000000000 H
   0.7366699999999999    0.5087550000000000    0.8813100000000000 H
   0.7084350000000000    0.5156350000000000    0.1485300000000000 H
   0.6840100000000000    0.5386250000000000    0.0878000000000000 H
   0.6546950000000000    0.5344750000000000    0.1873900000000000 H
   0.5499050000000000    0.4737850000000000    0.2391800000000000 H
   0.6144050000000000    0.4236650000000000    0.0954700000000000 H
   0.5415650000000000    0.9843700000000000    0.8514500000000000 H
   0.5659900000000000    0.9613800000000000    0.9121800000000000 H
   0.5953100000000000    0.9655250000000000    0.8125900000000000 H
   0.7000950000000000    0.0262200000000000    0.7600000000000000 H
   0.6355950000000000    0.0763400000000000    0.9045000000000000 H
   0.4414700000000000    0.0198600000000000    0.9655100000000000 H
   0.4866750000000000    0.0087550000000000    0.8813100000000000 H
   0.5585300000000000    0.9801500000000001    0.0344700000000000 H
   0.5133250000000000    0.9912550000000000    0.1186700000000000 H
   0.4584350000000000    0.0156400000000000    0.1485300000000000 H
   0.4340100000000000    0.0386250000000000    0.0878000000000000 H
   0.4046900000000000    0.0344800000000000    0.1873900000000000 H
   0.2999050000000000    0.9737850000000000    0.2391800000000000 H
   0.3644050000000000    0.9236650000000000    0.0954700000000000 H
   0.4165900000000000    0.7342950000000000    0.6484900000000000 H
   0.4410250000000000    0.7113600000000000    0.5877200000000000 H
   0.4703450000000000    0.7155050000000001    0.6873800000000000 H
   0.5751200000000000    0.7762400000000000    0.7391799999999999 H
   0.5105750000000000    0.8263350000000000    0.5954700000000001 H
   0.3164850000000000    0.7698900000000000    0.5345000000000000 H
   0.3617050000000000    0.7587400000000000    0.6186800000000000 H
   0.4335150000000000    0.7301200000000000    0.4654800000000000 H
   0.3882950000000000    0.7412700000000000    0.3813000000000000 H
   0.3334100000000000    0.7657149999999999    0.3514900000000000 H
   0.3089750000000000    0.7886500000000001    0.4122600000000000 H
   0.2796600000000000    0.7845000000000000    0.3126000000000000 H
   0.1748800000000000    0.7237600000000000    0.2607900000000000 H
   0.2394250000000000    0.6736700000000000    0.4045000000000000 H