H9 C5 S1 N1 O2
1.0
  12.4159996293512727    0.0000000000000000    0.0030338010887961
 -12.4055165104083205   21.5642752880102044   -0.0086840600498665
   0.0000000000000000    0.0000000000000000   27.0489999999999995
H C S N O
9 5 1 1 2
direct
   0.6639699999999999    0.3633150000000000    0.5628400000000000 H
   0.6812700000000000    0.3588200000000000    0.6219800000000000 H
   0.7976000000000000    0.3299350000000000    0.5413700000000000 H
   0.8807500000000000    0.2595050000000000    0.5480600000000000 H
   0.8689600000000000    0.2203550000000000    0.6045100000000000 H
   0.9696200000000000    0.3024550000000000    0.5999200000000000 H
   0.7563299999999999    0.2341300000000000    0.6788000000000000 H
   0.6920200000000000    0.2831700000000000    0.6742899999999999 H
   0.8560100000000000    0.3162850000000000    0.6767000000000000 H
   0.7755800000000000    0.2741600000000000    0.6056300000000000 C
   0.7852900000000000    0.3324450000000000    0.5813700000000001 C
   0.8800400000000000    0.2632950000000000    0.5885000000000000 C
   0.7698000000000000    0.2771900000000000    0.6621200000000000 C
   0.8987900000000000    0.3927400000000000    0.6021000000000000 C
   0.6246500000000000    0.2041800000000000    0.5867500000000000 S
   0.6674300000000000    0.3345350000000000    0.5892600000000000 N
   0.8676100000000000    0.4251050000000000    0.6301000000000000 O
   0.0000000000000000    0.4036250000000000    0.5917000000000000 O
