H4 O2
1.0
  30.2619958517505339    0.0000000000000000   -0.0158451454231468
  -1.3351362236438380   28.7810455738240591   -0.0130744704174771
   0.0000000000000000    0.0000000000000000   21.1290000000000013
H O
4 2
direct
   0.2825379254453128    0.8226325366224740    0.4586203590982351 H
   0.2808751793874691    0.7733875063661606    0.4160231584408368 H
   0.2240738516091950    0.8222064760546056    0.4580780018404216 H
   0.2224108412410544    0.7728334037090659    0.4157487196791953 H
   0.2983250000000000    0.7979600000000000    0.4378500000000000 O
   0.2066100000000000    0.7971900000000001    0.4372000000000000 O
