Cd32 H224 C380 N94 O194
1.0
  30.2619958517505339    0.0000000000000000   -0.0158451454231468
  -1.3351362236438380   28.7810455738240591   -0.0130744704174771
   0.0000000000000000    0.0000000000000000   21.1290000000000013
Cd H C N O
32 224 380 94 194
direct
   0.8722200000000000    0.6983000000000000    0.5657200000000000 Cd
   0.8722200000000000    0.1983000000000000    0.5657200000000000 Cd
   0.8721200000000000    0.9482750000000000    0.9343000000000000 Cd
   0.8721200000000000    0.4482750000000000    0.9343000000000000 Cd
   0.8778900000000001    0.5517100000000000    0.0656900000000000 Cd
   0.8778900000000001    0.0517100000000000    0.0656900000000000 Cd
   0.8777900000000001    0.3016850000000000    0.4342000000000000 Cd
   0.8777900000000001    0.8016850000000000    0.4342000000000000 Cd
   0.6277850000000000    0.3016850000000000    0.4342600000000000 Cd
   0.6277850000000000    0.8016850000000000    0.4342600000000000 Cd
   0.6278850000000000    0.5517100000000000    0.0656900000000000 Cd
   0.6278850000000000    0.0517100000000000    0.0656900000000000 Cd
   0.6221150000000000    0.9482750000000000    0.9343000000000000 Cd
   0.6221150000000000    0.4482750000000000    0.9343000000000000 Cd
   0.6222150000000000    0.6983050000000000    0.5657000000000000 Cd
   0.6222150000000000    0.1983050000000000    0.5657000000000000 Cd
   0.3722200000000000    0.6983000000000000    0.5657200000000000 Cd
   0.3722200000000000    0.1983000000000000    0.5657200000000000 Cd
   0.3721200000000000    0.9482750000000000    0.9343000000000000 Cd
   0.3721200000000000    0.4482750000000000    0.9343000000000000 Cd
   0.3778900000000000    0.5517100000000000    0.0656900000000000 Cd
   0.3778900000000000    0.0517100000000000    0.0656900000000000 Cd
   0.3777900000000000    0.3016850000000000    0.4342000000000000 Cd
   0.3777900000000000    0.8016850000000000    0.4342000000000000 Cd
   0.1277850000000000    0.3016850000000000    0.4342600000000000 Cd
   0.1277850000000000    0.8016850000000000    0.4342600000000000 Cd
   0.1278850000000000    0.5517100000000000    0.0656900000000000 Cd
   0.1278850000000000    0.0517100000000000    0.0656900000000000 Cd
   0.1221150000000000    0.9482750000000000    0.9343000000000000 Cd
   0.1221150000000000    0.4482750000000000    0.9343000000000000 Cd
   0.1222150000000000    0.6983050000000000    0.5657000000000000 Cd
   0.1222150000000000    0.1983050000000000    0.5657000000000000 Cd
   0.7875050000000000    0.8912050000000000    0.9887700000000000 H
   0.7917100000000000    0.0133350000000000    0.8841500000000000 H
   0.7030050000000000    0.8908450000000000    0.9896300000000000 H
   0.7074250000000000    0.0123000000000000    0.8836100000000000 H
   0.0469950000000000    0.6091400000000000    0.0103500000000000 H
   0.0425750000000000    0.4876900000000000    0.1163700000000000 H
   0.9625049999999999    0.6087800000000000    0.0112200000000000 H
   0.9582999999999999    0.4866550000000000    0.1158400000000000 H
   0.7875050000000000    0.3912050000000000    0.9887700000000000 H
   0.7917100000000000    0.5133350000000000    0.8841500000000000 H
   0.7030050000000000    0.3908450000000000    0.9896300000000000 H
   0.7074250000000000    0.5123000000000000    0.8836100000000000 H
   0.0469950000000000    0.1091400000000000    0.0103500000000000 H
   0.0425750000000000    0.9876900000000000    0.1163700000000000 H
   0.9625049999999999    0.1087800000000000    0.0112200000000000 H
   0.9582999999999999    0.9866550000000001    0.1158400000000000 H
   0.0467850000000000    0.3591900000000000    0.4897100000000000 H
   0.0425900000000000    0.2375800000000000    0.3839200000000000 H
   0.9622900000000000    0.3587300000000000    0.4885800000000000 H
   0.9583150000000000    0.2365250000000000    0.3839400000000000 H
   0.0467850000000000    0.8591900000000000    0.4897100000000000 H
   0.0425900000000000    0.7375800000000000    0.3839200000000000 H
   0.9622900000000000    0.8587300000000000    0.4885800000000000 H
   0.9583150000000000    0.7365250000000000    0.3839400000000000 H
   0.7032150000000000    0.6407950000000000    0.5102800000000000 H
   0.7074100000000000    0.7624050000000000    0.6160700000000000 H
   0.7877200000000000    0.6412500000000000    0.5114200000000000 H
   0.7916950000000000    0.7634600000000000    0.6160500000000000 H
   0.7032150000000000    0.1407950000000000    0.5102800000000000 H
   0.7074100000000000    0.2624050000000000    0.6160700000000000 H
   0.7877200000000000    0.1412500000000000    0.5114200000000000 H
   0.7916950000000000    0.2634600000000000    0.6160500000000000 H
   0.8729750000000001    0.5837100000000000    0.4060900000000000 H
   0.8787950000000000    0.6810300000000000    0.2121400000000000 H
   0.8759200000000000    0.7187300000000000    0.3176100000000000 H
   0.8724000000000001    0.8335150000000000    0.0938400000000000 H
   0.8797900000000001    0.9308850000000000    0.2878300000000000 H
   0.8772150000000001    0.9686049999999999    0.1823800000000000 H
   0.8729750000000001    0.0837100000000000    0.4060900000000000 H
   0.8787950000000000    0.1810300000000000    0.2121400000000000 H
   0.8759200000000000    0.2187300000000000    0.3176100000000000 H
   0.8724000000000001    0.3335150000000000    0.0938400000000000 H
   0.8797900000000001    0.4308850000000000    0.2878300000000000 H
   0.8772150000000001    0.4686050000000000    0.1823800000000000 H
   0.8770350000000000    0.4162700000000000    0.5939000000000000 H
   0.8712150000000001    0.3189500000000000    0.7878500000000001 H
   0.8740900000000000    0.2812550000000000    0.6823800000000000 H
   0.8776100000000000    0.1664700000000000    0.9061500000000000 H
   0.8702200000000000    0.0691000000000000    0.7121600000000000 H
   0.8727950000000000    0.0313800000000000    0.8176099999999999 H
   0.8770350000000000    0.9162699999999999    0.5939000000000000 H
   0.8712150000000001    0.8189500000000001    0.7878500000000001 H
   0.8740900000000000    0.7812550000000000    0.6823800000000000 H
   0.8776100000000000    0.6664700000000000    0.9061500000000000 H
   0.8702200000000000    0.5690999999999999    0.7121600000000000 H
   0.8727950000000000    0.5313800000000000    0.8176099999999999 H
   0.7970050000000000    0.6091500000000000    0.0103500000000000 H
   0.7925800000000001    0.4876900000000000    0.1163600000000000 H
   0.7125049999999999    0.6087950000000000    0.0112200000000000 H
   0.7082950000000000    0.4866600000000000    0.1158300000000000 H
   0.7970050000000000    0.1091500000000000    0.0103500000000000 H
   0.7925800000000001    0.9876900000000000    0.1163600000000000 H
   0.7125049999999999    0.1087950000000000    0.0112200000000000 H
   0.7082950000000000    0.9866600000000000    0.1158300000000000 H
   0.4530050000000000    0.8908350000000000    0.9896400000000000 H
   0.4574300000000000    0.0122950000000000    0.8836300000000000 H
   0.5375000000000000    0.8911899999999999    0.9887700000000000 H
   0.5417050000000000    0.0133250000000000    0.8841599999999999 H
   0.4530050000000000    0.3908350000000000    0.9896400000000000 H
   0.4574300000000000    0.5122949999999999    0.8836300000000000 H
   0.5375000000000000    0.3911900000000000    0.9887700000000000 H
   0.5417050000000000    0.5133250000000000    0.8841599999999999 H
   0.7967949999999999    0.3591900000000000    0.4897100000000000 H
   0.7925949999999999    0.2375800000000000    0.3839200000000000 H
   0.7122850000000001    0.3587350000000000    0.4885700000000000 H
   0.7083100000000000    0.2365300000000000    0.3839400000000000 H
   0.7967949999999999    0.8591900000000000    0.4897100000000000 H
   0.7925949999999999    0.7375800000000000    0.3839200000000000 H
   0.7122850000000001    0.8587350000000000    0.4885700000000000 H
   0.7083100000000000    0.7365300000000000    0.3839400000000000 H
   0.4532200000000000    0.6408000000000000    0.5102800000000000 H
   0.4574150000000000    0.7624050000000000    0.6160700000000000 H
   0.5377200000000000    0.6412550000000000    0.5114000000000000 H
   0.5416900000000000    0.7634600000000000    0.6160500000000000 H
   0.4532200000000000    0.1408000000000000    0.5102800000000000 H
   0.4574150000000000    0.2624050000000000    0.6160700000000000 H
   0.5377200000000000    0.1412550000000000    0.5114000000000000 H
   0.5416900000000000    0.2634600000000000    0.6160500000000000 H
   0.6270300000000000    0.4162750000000000    0.5939000000000000 H
   0.6212050000000000    0.3189550000000000    0.7878500000000001 H
   0.6240850000000000    0.2812550000000000    0.6823800000000000 H
   0.6275999999999999    0.1664650000000000    0.9061500000000000 H
   0.6202150000000000    0.0690950000000000    0.7121600000000000 H
   0.6227850000000000    0.0313750000000000    0.8176099999999999 H
   0.6270300000000000    0.9162750000000000    0.5939000000000000 H
   0.6212050000000000    0.8189550000000000    0.7878500000000001 H
   0.6240850000000000    0.7812550000000000    0.6823800000000000 H
   0.6275999999999999    0.6664650000000000    0.9061500000000000 H
   0.6202150000000000    0.5690950000000000    0.7121600000000000 H
   0.6227850000000000    0.5313750000000000    0.8176099999999999 H
   0.6224000000000000    0.3335200000000000    0.0938400000000000 H
   0.6297900000000000    0.4308900000000000    0.2878300000000000 H
   0.6272200000000000    0.4686100000000000    0.1823800000000000 H
   0.6229750000000001    0.0837200000000000    0.4060900000000000 H
   0.6287900000000000    0.1810400000000000    0.2121400000000000 H
   0.6259150000000000    0.2187400000000000    0.3176000000000000 H
   0.6224000000000000    0.8335200000000000    0.0938400000000000 H
   0.6297900000000000    0.9308900000000000    0.2878300000000000 H
   0.6272200000000000    0.9686100000000000    0.1823800000000000 H
   0.6229750000000001    0.5837200000000000    0.4060900000000000 H
   0.6287900000000000    0.6810400000000000    0.2121400000000000 H
   0.6259150000000000    0.7187399999999999    0.3176000000000000 H
   0.2875050000000000    0.3912050000000000    0.9887700000000000 H
   0.2917100000000000    0.5133350000000000    0.8841500000000000 H
   0.2030050000000000    0.3908450000000000    0.9896300000000000 H
   0.2074250000000000    0.5123000000000000    0.8836100000000000 H
   0.5469950000000000    0.1091400000000000    0.0103500000000000 H
   0.5425750000000000    0.9876900000000000    0.1163700000000000 H
   0.4625050000000000    0.1087800000000000    0.0112200000000000 H
   0.4583000000000000    0.9866550000000001    0.1158400000000000 H
   0.2875050000000000    0.8912050000000000    0.9887700000000000 H
   0.2917100000000000    0.0133350000000000    0.8841500000000000 H
   0.2030050000000000    0.8908450000000000    0.9896300000000000 H
   0.2074250000000000    0.0123000000000000    0.8836100000000000 H
   0.5469950000000000    0.6091400000000000    0.0103500000000000 H
   0.5425750000000000    0.4876900000000000    0.1163700000000000 H
   0.4625050000000000    0.6087800000000000    0.0112200000000000 H
   0.4583000000000000    0.4866550000000000    0.1158400000000000 H
   0.5467850000000000    0.8591900000000000    0.4897100000000000 H
   0.5425900000000000    0.7375800000000000    0.3839200000000000 H
   0.4622900000000000    0.8587300000000000    0.4885800000000000 H
   0.4583150000000000    0.7365250000000000    0.3839400000000000 H
   0.5467850000000000    0.3591900000000000    0.4897100000000000 H
   0.5425900000000000    0.2375800000000000    0.3839200000000000 H
   0.4622900000000000    0.3587300000000000    0.4885800000000000 H
   0.4583150000000000    0.2365250000000000    0.3839400000000000 H
   0.2032150000000000    0.6407950000000000    0.5102800000000000 H
   0.2074100000000000    0.7624050000000000    0.6160700000000000 H
   0.2877200000000000    0.6412500000000000    0.5114200000000000 H
   0.2916950000000000    0.7634600000000000    0.6160500000000000 H
   0.2032150000000000    0.1407950000000000    0.5102800000000000 H
   0.2074100000000000    0.2624050000000000    0.6160700000000000 H
   0.2877200000000000    0.1412500000000000    0.5114200000000000 H
   0.2916950000000000    0.2634600000000000    0.6160500000000000 H
   0.3729750000000000    0.5837100000000000    0.4060900000000000 H
   0.3787950000000000    0.6810300000000000    0.2121400000000000 H
   0.3759200000000000    0.7187300000000000    0.3176100000000000 H
   0.3724000000000000    0.8335150000000000    0.0938400000000000 H
   0.3797900000000000    0.9308850000000000    0.2878300000000000 H
   0.3772150000000000    0.9686049999999999    0.1823800000000000 H
   0.3729750000000000    0.0837100000000000    0.4060900000000000 H
   0.3787950000000000    0.1810300000000000    0.2121400000000000 H
   0.3759200000000000    0.2187300000000000    0.3176100000000000 H
   0.3724000000000000    0.3335150000000000    0.0938400000000000 H
   0.3797900000000000    0.4308850000000000    0.2878300000000000 H
   0.3772150000000000    0.4686050000000000    0.1823800000000000 H
   0.3770350000000000    0.4162700000000000    0.5939000000000000 H
   0.3712150000000000    0.3189500000000000    0.7878500000000001 H
   0.3740900000000000    0.2812550000000000    0.6823800000000000 H
   0.3776100000000000    0.1664700000000000    0.9061500000000000 H
   0.3702200000000000    0.0691000000000000    0.7121600000000000 H
   0.3727950000000000    0.0313800000000000    0.8176099999999999 H
   0.3770350000000000    0.9162699999999999    0.5939000000000000 H
   0.3712150000000000    0.8189500000000001    0.7878500000000001 H
   0.3740900000000000    0.7812550000000000    0.6823800000000000 H
   0.3776100000000000    0.6664700000000000    0.9061500000000000 H
   0.3702200000000000    0.5690999999999999    0.7121600000000000 H
   0.3727950000000000    0.5313800000000000    0.8176099999999999 H
   0.2970050000000000    0.6091500000000000    0.0103500000000000 H
   0.2925800000000000    0.4876900000000000    0.1163600000000000 H
   0.2125050000000000    0.6087950000000000    0.0112200000000000 H
   0.2082950000000000    0.4866600000000000    0.1158300000000000 H
   0.2970050000000000    0.1091500000000000    0.0103500000000000 H
   0.2925800000000000    0.9876900000000000    0.1163600000000000 H
   0.2125050000000000    0.1087950000000000    0.0112200000000000 H
   0.2082950000000000    0.9866600000000000    0.1158300000000000 H
   0.9530050000000000    0.8908350000000000    0.9896400000000000 H
   0.9574300000000000    0.0122950000000000    0.8836300000000000 H
   0.0375000000000000    0.8911899999999999    0.9887700000000000 H
   0.0417050000000000    0.0133250000000000    0.8841599999999999 H
   0.9530050000000000    0.3908350000000000    0.9896400000000000 H
   0.9574300000000000    0.5122949999999999    0.8836300000000000 H
   0.0375000000000000    0.3911900000000000    0.9887700000000000 H
   0.0417050000000000    0.5133250000000000    0.8841599999999999 H
   0.2967950000000000    0.3591900000000000    0.4897100000000000 H
   0.2925950000000000    0.2375800000000000    0.3839200000000000 H
   0.2122850000000000    0.3587350000000000    0.4885700000000000 H
   0.2083100000000000    0.2365300000000000    0.3839400000000000 H
   0.2825379254453128    0.8226325366224740    0.4586203590982351 H
   0.2808751793874691    0.7733875063661606    0.4160231584408368 H
   0.2240738516091950    0.8222064760546056    0.4580780018404216 H
   0.2224108412410544    0.7728334037090659    0.4157487196791953 H
   0.9532200000000000    0.6408000000000000    0.5102800000000000 H
   0.9574150000000000    0.7624050000000000    0.6160700000000000 H
   0.0377200000000000    0.6412550000000000    0.5114000000000000 H
   0.0416900000000000    0.7634600000000000    0.6160500000000000 H
   0.9532200000000000    0.1408000000000000    0.5102800000000000 H
   0.9574150000000000    0.2624050000000000    0.6160700000000000 H
   0.0377200000000000    0.1412550000000000    0.5114000000000000 H
   0.0416900000000000    0.2634600000000000    0.6160500000000000 H
   0.1270300000000000    0.4162750000000000    0.5939000000000000 H
   0.1212050000000000    0.3189550000000000    0.7878500000000001 H
   0.1240850000000000    0.2812550000000000    0.6823800000000000 H
   0.1276000000000000    0.1664650000000000    0.9061500000000000 H
   0.1202150000000000    0.0690950000000000    0.7121600000000000 H
   0.1227850000000000    0.0313750000000000    0.8176099999999999 H
   0.1270300000000000    0.9162750000000000    0.5939000000000000 H
   0.1212050000000000    0.8189550000000000    0.7878500000000001 H
   0.1240850000000000    0.7812550000000000    0.6823800000000000 H
   0.1276000000000000    0.6664650000000000    0.9061500000000000 H
   0.1202150000000000    0.5690950000000000    0.7121600000000000 H
   0.1227850000000000    0.5313750000000000    0.8176099999999999 H
   0.1224000000000000    0.3335200000000000    0.0938400000000000 H
   0.1297900000000000    0.4308900000000000    0.2878300000000000 H
   0.1272200000000000    0.4686100000000000    0.1823800000000000 H
   0.1229750000000000    0.0837200000000000    0.4060900000000000 H
   0.1287900000000000    0.1810400000000000    0.2121400000000000 H
   0.1259150000000000    0.2187400000000000    0.3176000000000000 H
   0.1224000000000000    0.8335200000000000    0.0938400000000000 H
   0.1297900000000000    0.9308900000000000    0.2878300000000000 H
   0.1272200000000000    0.9686100000000000    0.1823800000000000 H
   0.1229750000000000    0.5837200000000000    0.4060900000000000 H
   0.1287900000000000    0.6810400000000000    0.2121400000000000 H
   0.1259150000000000    0.7187399999999999    0.3176000000000000 H
   0.7692350000000000    0.9183850000000000    0.9660000000000000 C
   0.7716450000000000    0.9861450000000000    0.9078200000000000 C
   0.7232000000000001    0.9181400000000000    0.9663400000000000 C
   0.7255900000000000    0.9856849999999999    0.9077499999999999 C
   0.0268000000000000    0.5818449999999999    0.0336500000000000 C
   0.0244150000000000    0.5143000000000000    0.0922400000000000 C
   0.9807750000000000    0.5816050000000000    0.0339900000000000 C
   0.9783649999999999    0.5138400000000000    0.0921700000000000 C
   0.7692350000000000    0.4183850000000000    0.9660000000000000 C
   0.7716450000000000    0.4861450000000000    0.9078200000000000 C
   0.7232000000000001    0.4181400000000000    0.9663400000000000 C
   0.7255900000000000    0.4856850000000000    0.9077499999999999 C
   0.0268000000000000    0.0818450000000000    0.0336500000000000 C
   0.0244150000000000    0.0143000000000000    0.0922400000000000 C
   0.9807750000000000    0.0816050000000000    0.0339900000000000 C
   0.9783649999999999    0.0138400000000000    0.0921700000000000 C
   0.0266350000000000    0.3318450000000000    0.4663800000000000 C
   0.0243650000000000    0.2642150000000000    0.4078800000000000 C
   0.9806049999999999    0.3315500000000000    0.4658900000000000 C
   0.9783150000000000    0.2637350000000000    0.4077400000000000 C
   0.0266350000000000    0.8318449999999999    0.4663800000000000 C
   0.0243650000000000    0.7642150000000000    0.4078800000000000 C
   0.9806049999999999    0.8315500000000000    0.4658900000000000 C
   0.9783150000000000    0.7637350000000001    0.4077400000000000 C
   0.7233650000000000    0.6681400000000000    0.5336100000000000 C
   0.7256400000000001    0.7357700000000000    0.5921100000000000 C
   0.7694050000000000    0.6684300000000000    0.5341100000000000 C
   0.7716950000000000    0.7362500000000000    0.5922500000000001 C
   0.7233650000000000    0.1681400000000000    0.5336100000000000 C
   0.7256400000000001    0.2357700000000000    0.5921100000000000 C
   0.7694050000000000    0.1684300000000000    0.5341100000000000 C
   0.7716950000000000    0.2362500000000000    0.5922500000000001 C
   0.8786900000000000    0.5905050000000001    0.1832900000000000 C
   0.8727800000000000    0.6743700000000000    0.4338800000000000 C
   0.8743850000000000    0.6050350000000000    0.3635700000000000 C
   0.8764550000000000    0.5850050000000000    0.3040300000000000 C
   0.8777250000000000    0.6599650000000000    0.2548700000000000 C
   0.8760550000000000    0.6810050000000000    0.3141800000000000 C
   0.8743500000000000    0.6535550000000000    0.3689900000000000 C
   0.8780049999999999    0.6115349999999999    0.2483700000000000 C
   0.8786149999999999    0.8404050000000001    0.3166800000000000 C
   0.8734350000000000    0.9242800000000000    0.0661100000000000 C
   0.8742050000000000    0.8548400000000000    0.1363800000000000 C
   0.8760600000000001    0.8347650000000000    0.1959100000000000 C
   0.8784550000000000    0.9098150000000000    0.2450800000000000 C
   0.8769700000000000    0.9308650000000001    0.1857900000000000 C
   0.8748450000000000    0.9033900000000000    0.1309700000000000 C
   0.8780900000000000    0.8613500000000001    0.2515600000000000 C
   0.8786900000000000    0.0905050000000000    0.1832900000000000 C
   0.8727800000000000    0.1743700000000000    0.4338800000000000 C
   0.8743850000000000    0.1050350000000000    0.3635700000000000 C
   0.8764550000000000    0.0850050000000000    0.3040300000000000 C
   0.8777250000000000    0.1599650000000000    0.2548700000000000 C
   0.8760550000000000    0.1810050000000000    0.3141800000000000 C
   0.8743500000000000    0.1535550000000000    0.3689900000000000 C
   0.8780049999999999    0.1115350000000000    0.2483700000000000 C
   0.8786149999999999    0.3404050000000000    0.3166800000000000 C
   0.8734350000000000    0.4242800000000000    0.0661100000000000 C
   0.8742050000000000    0.3548400000000000    0.1363800000000000 C
   0.8760600000000001    0.3347650000000000    0.1959100000000000 C
   0.8784550000000000    0.4098150000000000    0.2450800000000000 C
   0.8769700000000000    0.4308650000000000    0.1857900000000000 C
   0.8748450000000000    0.4033900000000000    0.1309700000000000 C
   0.8780900000000000    0.3613500000000000    0.2515600000000000 C
   0.8713200000000000    0.4094750000000000    0.8167000000000000 C
   0.8772249999999999    0.3256100000000000    0.5661100000000000 C
   0.8756250000000000    0.3949450000000000    0.6364200000000000 C
   0.8735550000000001    0.4149750000000000    0.6959600000000000 C
   0.8722850000000000    0.3400150000000000    0.7451200000000000 C
   0.8739550000000000    0.3189750000000000    0.6858000000000000 C
   0.8756550000000001    0.3464300000000000    0.6310000000000000 C
   0.8720000000000000    0.3884450000000000    0.7516200000000000 C
   0.8713949999999999    0.1595800000000000    0.6833100000000000 C
   0.8765750000000000    0.0757050000000000    0.9338800000000000 C
   0.8758049999999999    0.1451450000000000    0.8636100000000000 C
   0.8739500000000000    0.1652250000000000    0.8040800000000000 C
   0.8715550000000001    0.0901700000000000    0.7549100000000000 C
   0.8730400000000000    0.0691200000000000    0.8142000000000000 C
   0.8751650000000000    0.0965950000000000    0.8690200000000000 C
   0.8719200000000000    0.1386350000000000    0.7484300000000000 C
   0.8713200000000000    0.9094750000000000    0.8167000000000000 C
   0.8772249999999999    0.8256100000000000    0.5661100000000000 C
   0.8756250000000000    0.8949450000000000    0.6364200000000000 C
   0.8735550000000001    0.9149750000000000    0.6959600000000000 C
   0.8722850000000000    0.8400150000000000    0.7451200000000000 C
   0.8739550000000000    0.8189750000000000    0.6858000000000000 C
   0.8756550000000001    0.8464300000000000    0.6310000000000000 C
   0.8720000000000000    0.8884449999999999    0.7516200000000000 C
   0.8713949999999999    0.6595800000000001    0.6833100000000000 C
   0.8765750000000000    0.5757050000000000    0.9338800000000000 C
   0.8758049999999999    0.6451450000000000    0.8636100000000000 C
   0.8739500000000000    0.6652250000000000    0.8040800000000000 C
   0.8715550000000001    0.5901700000000000    0.7549100000000000 C
   0.8730400000000000    0.5691200000000000    0.8142000000000000 C
   0.8751650000000000    0.5965950000000000    0.8690200000000000 C
   0.8719200000000000    0.6386350000000001    0.7484300000000000 C
   0.7768100000000000    0.5818550000000000    0.0336400000000000 C
   0.7744150000000001    0.5143050000000000    0.0922300000000000 C
   0.7307750000000000    0.5816150000000000    0.0339800000000000 C
   0.7283600000000000    0.5138500000000000    0.0921600000000000 C
   0.7768100000000000    0.0818550000000000    0.0336400000000000 C
   0.7744150000000001    0.0143050000000000    0.0922300000000000 C
   0.7307750000000000    0.0816150000000000    0.0339800000000000 C
   0.7283600000000000    0.0138500000000000    0.0921600000000000 C
   0.4732000000000000    0.9181300000000000    0.9663500000000000 C
   0.4755900000000000    0.9856800000000000    0.9077600000000000 C
   0.5192300000000000    0.9183700000000000    0.9660100000000000 C
   0.5216400000000000    0.9861400000000000    0.9078300000000000 C
   0.4732000000000000    0.4181300000000000    0.9663500000000000 C
   0.4755900000000000    0.4856800000000000    0.9077600000000000 C
   0.5192300000000000    0.4183700000000000    0.9660100000000000 C
   0.5216400000000000    0.4861400000000000    0.9078300000000000 C
   0.7766400000000000    0.3318500000000000    0.4663800000000000 C
   0.7743650000000000    0.2642200000000000    0.4078800000000000 C
   0.7306000000000000    0.3315550000000000    0.4658800000000000 C
   0.7283100000000000    0.2637400000000000    0.4077400000000000 C
   0.7766400000000000    0.8318500000000000    0.4663800000000000 C
   0.7743650000000000    0.7642200000000000    0.4078800000000000 C
   0.7306000000000000    0.8315550000000000    0.4658800000000000 C
   0.7283100000000000    0.7637400000000000    0.4077400000000000 C
   0.4733700000000000    0.6681400000000000    0.5336100000000000 C
   0.4756450000000000    0.7357700000000000    0.5921100000000000 C
   0.5194000000000000    0.6684350000000000    0.5341000000000000 C
   0.5216950000000000    0.7362500000000000    0.5922500000000001 C
   0.4733700000000000    0.1681400000000000    0.5336100000000000 C
   0.4756450000000000    0.2357700000000000    0.5921100000000000 C
   0.5194000000000000    0.1684350000000000    0.5341000000000000 C
   0.5216950000000000    0.2362500000000000    0.5922500000000001 C
   0.6213150000000001    0.4094750000000000    0.8167000000000000 C
   0.6272200000000000    0.3256150000000000    0.5661100000000000 C
   0.6256200000000001    0.3949500000000000    0.6364200000000000 C
   0.6235500000000000    0.4149800000000000    0.6959600000000000 C
   0.6222799999999999    0.3400200000000000    0.7451200000000000 C
   0.6239500000000000    0.3189750000000000    0.6858100000000000 C
   0.6219950000000000    0.3884450000000000    0.7516200000000000 C
   0.6256550000000000    0.3464300000000000    0.6310000000000000 C
   0.6213950000000000    0.1595800000000000    0.6833100000000000 C
   0.6265650000000000    0.0757050000000000    0.9338700000000000 C
   0.6257950000000000    0.1451450000000000    0.8636100000000000 C
   0.6239450000000000    0.1652200000000000    0.8040800000000000 C
   0.6215500000000000    0.0901700000000000    0.7549100000000000 C
   0.6230300000000000    0.0691150000000000    0.8141900000000000 C
   0.6251500000000000    0.0965900000000000    0.8690099999999999 C
   0.6219200000000000    0.1386300000000000    0.7484300000000000 C
   0.6213150000000001    0.9094750000000000    0.8167000000000000 C
   0.6272200000000000    0.8256150000000000    0.5661100000000000 C
   0.6256200000000001    0.8949500000000000    0.6364200000000000 C
   0.6235500000000000    0.9149800000000000    0.6959600000000000 C
   0.6222799999999999    0.8400200000000000    0.7451200000000000 C
   0.6239500000000000    0.8189750000000000    0.6858100000000000 C
   0.6219950000000000    0.8884449999999999    0.7516200000000000 C
   0.6256550000000000    0.8464300000000000    0.6310000000000000 C
   0.6213950000000000    0.6595800000000001    0.6833100000000000 C
   0.6265650000000000    0.5757050000000000    0.9338700000000000 C
   0.6257950000000000    0.6451450000000000    0.8636100000000000 C
   0.6239450000000000    0.6652200000000000    0.8040800000000000 C
   0.6215500000000000    0.5901700000000000    0.7549100000000000 C
   0.6230300000000000    0.5691150000000000    0.8141900000000000 C
   0.6251500000000000    0.5965900000000000    0.8690099999999999 C
   0.6219200000000000    0.6386300000000000    0.7484300000000000 C
   0.6286100000000000    0.3404100000000000    0.3166800000000000 C
   0.6234350000000000    0.4242850000000000    0.0661100000000000 C
   0.6242050000000000    0.3548450000000000    0.1363800000000000 C
   0.6260550000000000    0.3347650000000000    0.1959100000000000 C
   0.6284500000000000    0.4098200000000000    0.2450800000000000 C
   0.6269700000000000    0.4308700000000000    0.1857900000000000 C
   0.6280850000000000    0.3613550000000000    0.2515600000000000 C
   0.6248500000000000    0.4034000000000000    0.1309000000000000 C
   0.6286849999999999    0.0905150000000000    0.1832000000000000 C
   0.6227850000000000    0.1743800000000000    0.4338800000000000 C
   0.6243800000000000    0.1050450000000000    0.3635700000000000 C
   0.6264500000000000    0.0850150000000000    0.3040300000000000 C
   0.6277200000000001    0.1599750000000000    0.2548700000000000 C
   0.6260500000000000    0.1810150000000000    0.3141700000000000 C
   0.6280050000000000    0.1115500000000000    0.2483700000000000 C
   0.6243500000000000    0.1535650000000000    0.3689900000000000 C
   0.6286100000000000    0.8404100000000000    0.3166800000000000 C
   0.6234350000000000    0.9242850000000000    0.0661100000000000 C
   0.6242050000000000    0.8548450000000001    0.1363800000000000 C
   0.6260550000000000    0.8347650000000000    0.1959100000000000 C