H14 C10 O4
1.0
  38.1215954803556940    0.0000000000000000   -0.0185631927343691
   6.3344720344469820   11.0972571821188914   -0.0512940417573711
   0.0000000000000000    0.0000000000000000   36.8920000000000030
H C O
14 10 4
direct
   0.5349133333333334    0.3952600000000000    0.7857799999999999 H
   0.4941633333333333    0.6329200000000000    0.8242700000000001 H
   0.5238833333333333    0.5908400000000000    0.7845599999999999 H
   0.4618599999999999    0.6929800000000000    0.7520700000000000 H
   0.4339366666666666    0.7034400000000000    0.7913399999999999 H
   0.4669633333333333    0.5511000000000000    0.7052300000000000 H
   0.4758033333333333    0.4054700000000000    0.7169550000000000 H
   0.5107999999999999    0.4534800000000000    0.7300949999999999 H
   0.4958600000000000    0.2566400000000000    0.8093100000000000 H
   0.5067199999999999    0.2763900000000000    0.7638550000000000 H
   0.4569133333333333    0.3106500000000000    0.7758800000000000 H
   0.4549799999999999    0.4277200000000000    0.8500300000000001 H
   0.4147166666666666    0.4846800000000000    0.8183800000000000 H
   0.4333899999999999    0.5787099999999999    0.8352900000000000 H
   0.4549833333333333    0.5352100000000000    0.7620600000000000 C
   0.4725500000000000    0.4433500000000000    0.7949100000000000 C
   0.5109033333333333    0.4530000000000000    0.8047550000000000 C
   0.4991866666666667    0.5858000000000000    0.7982400000000001 C
   0.4602900000000000    0.6413600000000000    0.7751350000000000 C
   0.4786700000000000    0.4821600000000000    0.7265650000000000 C
   0.4836633333333333    0.3140600000000000    0.7852600000000001 C
   0.4420633333333333    0.4868800000000000    0.8264600000000000 C
   0.4110733333333333    0.5696600000000001    0.7550650000000000 C
   0.5269699999999999    0.4044300000000000    0.8423450000000000 C
   0.3823233333333333    0.6785400000000000    0.7611250000000001 O
   0.4029966666666667    0.4901600000000000    0.7438200000000000 O
   0.5142500000000000    0.4802900000000000    0.8690750000000000 O
   0.5513466666666667    0.2935600000000000    0.8468700000000000 O
