H6 O4
1.0
  38.1215954803556940    0.0000000000000000   -0.0185631927343691
   6.3344720344469820   11.0972571821188914   -0.0512940417573711
   0.0000000000000000    0.0000000000000000   36.8920000000000030
H O
6 4
direct
   0.4958634488526397    0.5665634580430375    0.8686173336491789 H
   0.5636132252064957    0.2265630041092316    0.8299365043988524 H
   0.5307073673817058    0.3904038129928680    0.8463562596736306 H
   0.4295295084569892    0.4828962124143101    0.7425274035471808 H
   0.4049194900393760    0.6933944245507809    0.7619009059402303 H
   0.5992268471882916    0.6191592120812779    0.7505581442207143 H
   0.5142500000000000    0.4802900000000000    0.8690750000000000 O
   0.5513466666666667    0.2935600000000000    0.8468700000000000 O
   0.4029966666666667    0.4901600000000000    0.7438200000000000 O
   0.3823233333333333    0.6785400000000000    0.7611250000000001 O
