Fe4 Ni4 H16 C31 N23
1.0
  13.5079997510562873    0.0000000000000000   -0.0025933498130205
  -0.0006051929285131    6.9349999735934755    0.0000000000000004
   0.0000000000000000    0.0000000000000000   13.9320000000000004
Fe Ni H C N
4 4 16 31 23
direct
   0.0000650000000000    0.0000200000000000    0.0000300000000000 Fe
   0.5000650000000000    0.0000200000000000    0.0000300000000000 Fe
   0.0000650000000000    0.0000200000000000    0.5000300000000000 Fe
   0.5000650000000000    0.0000200000000000    0.5000300000000000 Fe
   0.4985350000000000    0.5000400000000000    0.2500650000000000 Ni
   0.9985350000000000    0.5000400000000000    0.2500650000000000 Ni
   0.4985350000000000    0.5000400000000000    0.7500650000000000 Ni
   0.9985350000000000    0.5000400000000000    0.7500650000000000 Ni
   0.3431700000000000    0.7006200000000000    0.4997700000000000 H
   0.3432400000000000    0.2994300000000000    0.4997500000000000 H
   0.1568200000000000    0.7006200000000000    0.4996600000000000 H
   0.1568900000000000    0.2994300000000000    0.4996100000000000 H
   0.8431700000000000    0.7006200000000000    0.4997700000000000 H
   0.8432400000000000    0.2994300000000000    0.4997500000000000 H
   0.6568200000000000    0.7006200000000000    0.4996600000000000 H
   0.6568900000000000    0.2994300000000000    0.4996100000000000 H
   0.3431700000000000    0.7006200000000000    0.9997700000000000 H
   0.3432400000000000    0.2994300000000000    0.9997500000000000 H
   0.1568200000000000    0.7006200000000000    0.9996600000000000 H
   0.1568900000000000    0.2994300000000000    0.9996100000000000 H
   0.8431700000000000    0.7006200000000000    0.9997700000000000 H
   0.8432400000000000    0.2994300000000000    0.9997500000000000 H
   0.6568200000000000    0.7006200000000000    0.9996600000000000 H
   0.6568900000000000    0.2994300000000000    0.9996100000000000 H
   0.4989500000000000    0.3120600000000000    0.3434750000000000 C
   0.4989350000000000    0.6879999999999999    0.3434800000000000 C
   0.4989550000000000    0.3120700000000000    0.1566300000000000 C
   0.3012550000000000    0.8343100000000000    0.4996900000000000 C
   0.3013150000000000    0.1657400000000000    0.4996800000000000 C
   0.1987450000000000    0.8343000000000000    0.4996600000000000 C
   0.1988050000000000    0.1657400000000000    0.4995900000000000 C
   0.9989399999999999    0.6879900000000000    0.1566300000000000 C
   0.9989500000000000    0.3120600000000000    0.3434750000000000 C
   0.9989350000000000    0.6879999999999999    0.3434800000000000 C
   0.9989550000000000    0.3120700000000000    0.1566300000000000 C
   0.8012550000000001    0.8343100000000000    0.4996900000000000 C
   0.8013150000000000    0.1657400000000000    0.4996800000000000 C
   0.6987449999999999    0.8343000000000000    0.4996600000000000 C
   0.6988050000000000    0.1657400000000000    0.4995900000000000 C
   0.4989400000000000    0.6879900000000000    0.6566300000000000 C
   0.4989500000000000    0.3120600000000000    0.8434750000000000 C
   0.4989350000000000    0.6879999999999999    0.8434800000000000 C
   0.4989550000000000    0.3120700000000000    0.6566300000000000 C
   0.3012550000000000    0.8343100000000000    0.9996900000000000 C
   0.3013150000000000    0.1657400000000000    0.9996800000000000 C
   0.1987450000000000    0.8343000000000000    0.9996600000000000 C
   0.1988050000000000    0.1657400000000000    0.9995900000000000 C
   0.9989399999999999    0.6879900000000000    0.6566300000000000 C
   0.9989500000000000    0.3120600000000000    0.8434750000000000 C
   0.9989350000000000    0.6879999999999999    0.8434800000000000 C
   0.9989550000000000    0.3120700000000000    0.6566300000000000 C
   0.8012550000000001    0.8343100000000000    0.9996900000000000 C
   0.8013150000000000    0.1657400000000000    0.9996800000000000 C
   0.6987449999999999    0.8343000000000000    0.9996600000000000 C
   0.6988050000000000    0.1657400000000000    0.9995900000000000 C
   0.4995550000000000    0.1934200000000000    0.4035900000000000 N
   0.4995250000000000    0.8066300000000000    0.4036000000000000 N
   0.4995750000000000    0.1934700000000000    0.0964950000000000 N
   0.3542100000000000    0.0000800000000000    0.4996800000000000 N
   0.1459100000000000    0.0000700000000000    0.4995900000000000 N
   0.9995499999999999    0.8065700000000000    0.0964850000000000 N
   0.9995550000000000    0.1934200000000000    0.4035900000000000 N
   0.9995250000000000    0.8066300000000000    0.4036000000000000 N
   0.9995750000000000    0.1934700000000000    0.0964950000000000 N
   0.8542100000000000    0.0000800000000000    0.4996800000000000 N
   0.6459100000000000    0.0000700000000000    0.4995900000000000 N
   0.4995500000000000    0.8065700000000000    0.5964850000000000 N
   0.4995550000000000    0.1934200000000000    0.9035900000000000 N
   0.4995250000000000    0.8066300000000000    0.9036000000000000 N
   0.4995750000000000    0.1934700000000000    0.5964950000000000 N
   0.3542100000000000    0.0000800000000000    0.9996800000000000 N
   0.1459100000000000    0.0000700000000000    0.9995900000000000 N
   0.9995499999999999    0.8065700000000000    0.5964850000000000 N
   0.9995550000000000    0.1934200000000000    0.9035900000000000 N
   0.9995250000000000    0.8066300000000000    0.9036000000000000 N
   0.9995750000000000    0.1934700000000000    0.5964950000000000 N
   0.8542100000000000    0.0000800000000000    0.9996800000000000 N
   0.6459100000000000    0.0000700000000000    0.9995900000000000 N
