H6 O4
1.0
  10.5142639654645649    0.0000000000000000   -1.0135197405740834
  -2.3919486596610708   10.9845626608535660   -1.6676899470007145
   0.0000000000000000    0.0000000000000000   16.8159999999999989
H O
6 4
direct
  -0.0363771216651398    0.3053563424898812   -0.1307121765696163 H
   0.5892452490535961    0.1236420404569403    0.9131637987443859 H
  -0.2392134700237542    0.2221983417724215   -0.1191084696889488 H
   0.7767019838509599    0.2840443767936042    0.5820269163399202 H
   0.7072563488114572    0.2310919637882293    0.6139325534726610 H
   0.2330688752230895    0.2693830093654492    0.6555104471411990 H
  -0.0886700000000001    0.2508100000000000   -0.1013800000000000 O
   0.6834700000000000    0.1415500000000000    0.9242600000000000 O
   0.8620200000000000    0.2759200000000000    0.5682300000000000 O
   0.6188200000000000    0.2326500000000000    0.5931300000000000 O
