H8 C10 N2
1.0
  27.9353714421428911    0.0000000000000000    2.2520431588909200
   0.9152351713584927   30.3181681195901547    1.8110832265181853
   0.0000000000000000    0.0000000000000000   30.6340000000000003
H C N
8 10 2
direct
   0.1017300000000000    0.8214049999999999    0.9920450000000001 H
   0.0303450000000000    0.7924900000000000    0.8556600000000000 H
   0.1191750000000000    0.7953850000000000    0.8540600000000000 H
   0.0140750000000000    0.8150350000000000    0.9880750000000000 H
   0.2743000000000000    0.8313750000000000    0.8607650000000000 H
   0.2613700000000000    0.7899050000000001    0.9919500000000000 H
   0.1727100000000000    0.7861100000000000    0.9930350000000000 H
   0.1855600000000000    0.8333333333333333    0.8563750000000000 H
   0.1185400000000000    0.8085650000000000    0.9232199999999999 C
   0.0879500000000000    0.8141499999999999    0.9611400000000000 C
   0.0480600000000000    0.7987500000000001    0.8849549999999999 C
   0.0974600000000000    0.8010400000000000    0.8844000000000001 C
   0.0388950000000000    0.8112600000000000    0.9592499999999999 C
   0.1710250000000000    0.8097850000000000    0.9244500000000000 C
   0.2499600000000000    0.8222250000000000    0.8891350000000000 C
   0.2427300000000000    0.7987100000000000    0.9626850000000000 C
   0.1932350000000000    0.7976400000000000    0.9630799999999999 C
   0.2006750000000000    0.8225899999999999    0.8870450000000000 C
   0.0190700000000000    0.8035650000000000    0.9218150000000001 N
   0.2708950000000000    0.8103450000000000    0.9263450000000000 N
