H6 C13 N1 O4
1.0
  27.9353714421428911    0.0000000000000000    2.2520431588909200
   0.9152351713584927   30.3181681195901547    1.8110832265181853
   0.0000000000000000    0.0000000000000000   30.6340000000000003
H C N O
6 13 1 4
direct
   0.6739600000000000    0.0453750000000000    0.5622250000000000 H
   0.5246250000000000    0.0636750000000000    0.6027500000000000 H
   0.6775550000000000    0.8409750000000000    0.5589150000000001 H
   0.5281750000000000    0.8281950000000000    0.6009150000000000 H
   0.5182900000000000    0.9090750000000001    0.6058600000000000 H
   0.5169300000000000    0.9812750000000000    0.6050900000000000 H
   0.6048750000000001    0.1092600000000000    0.5803800000000000 C
   0.5998500000000000    0.0601950000000000    0.5823400000000000 C
   0.6388600000000000    0.0319850000000000    0.5717449999999999 C
   0.5551950000000000    0.0418200000000000    0.5945400000000000 C
   0.6032250000000000    0.8304450000000000    0.5784250000000000 C
   0.6069450000000000    0.7815000000000000    0.5744000000000000 C
   0.6431000000000000    0.8570100000000000    0.5683500000000000 C
   0.5582750000000000    0.8494250000000000    0.5919800000000000 C
   0.6383350000000000    0.9030500000000000    0.5704800000000000 C
   0.5923600000000000    0.9217550000000000    0.5838000000000000 C
   0.5910400000000000    0.9692950000000000    0.5846650000000000 C
   0.5531300000000000    0.8947650000000000    0.5948500000000000 C
   0.5512100000000000    0.9963700000000000    0.5957200000000000 C
   0.6352300000000000    0.9876000000000000    0.5725450000000000 N
   0.6461600000000001    0.1247700000000000    0.5703800000000000 O
   0.5662900000000000    0.1314900000000000    0.5890350000000000 O
   0.6480500000000000    0.7621500000000000    0.5742850000000000 O
   0.5674200000000000    0.7628800000000000    0.5706000000000000 O
