H4 O2
1.0
  27.9353714421428911    0.0000000000000000    2.2520431588909200
   0.9152351713584927   30.3181681195901547    1.8110832265181853
   0.0000000000000000    0.0000000000000000   30.6340000000000003
H O
4 2
direct
   0.2556996063274184    0.8189679413341423    0.8993366122017311 H
   0.2504578057190169    0.8019023671060097    0.9527141688326265 H
   0.0400950908873099    0.8000729057391378    0.8950821662605642 H
   0.0334426894934205    0.8091437059597413    0.9489545526449532 H
   0.2708950000000000    0.8103450000000000    0.9263450000000000 O
   0.0190700000000000    0.8035650000000000    0.9218150000000001 O
