Zn32 H330 Rh16 C563 N63 O124
1.0
  27.9353714421428911    0.0000000000000000    2.2520431588909200
   0.9152351713584927   30.3181681195901547    1.8110832265181853
   0.0000000000000000    0.0000000000000000   30.6340000000000003
Zn H Rh C N O
32 330 16 563 63 124
direct
   0.3444300000000000    0.3072700000000000    0.4265150000000000 Zn
   0.0540650000000000    0.1979150000000000    0.0795450000000000 Zn
   0.1554750000000000    0.1927200000000000    0.0734950000000000 Zn
   0.4459000000000000    0.3020700000000000    0.4204550000000000 Zn
   0.8444300000000000    0.3072700000000000    0.4265150000000000 Zn
   0.5540650000000000    0.1979150000000000    0.0795450000000000 Zn
   0.6554750000000000    0.1927200000000000    0.0734950000000000 Zn
   0.9459000000000000    0.3020700000000000    0.4204550000000000 Zn
   0.3444300000000000    0.8072699999999999    0.4265150000000000 Zn
   0.0540650000000000    0.6979150000000001    0.0795450000000000 Zn
   0.1554750000000000    0.6927200000000000    0.0734950000000000 Zn
   0.4459000000000000    0.8020700000000001    0.4204550000000000 Zn
   0.8444300000000000    0.8072699999999999    0.4265150000000000 Zn
   0.5540650000000000    0.6979150000000001    0.0795450000000000 Zn
   0.6554750000000000    0.6927200000000000    0.0734950000000000 Zn
   0.9459000000000000    0.8020700000000001    0.4204550000000000 Zn
   0.3444300000000000    0.3072700000000000    0.9265150000000000 Zn
   0.0540650000000000    0.1979150000000000    0.5795450000000000 Zn
   0.1554750000000000    0.1927200000000000    0.5734950000000000 Zn
   0.4459000000000000    0.3020700000000000    0.9204550000000000 Zn
   0.8444300000000000    0.3072700000000000    0.9265150000000000 Zn
   0.5540650000000000    0.1979150000000000    0.5795450000000000 Zn
   0.6554750000000000    0.1927200000000000    0.5734950000000000 Zn
   0.9459000000000000    0.3020700000000000    0.9204550000000000 Zn
   0.3444300000000000    0.8072699999999999    0.9265150000000000 Zn
   0.0540650000000000    0.6979150000000001    0.5795450000000000 Zn
   0.1554750000000000    0.6927200000000000    0.5734950000000000 Zn
   0.4459000000000000    0.8020700000000001    0.9204550000000000 Zn
   0.8444300000000000    0.8072699999999999    0.9265150000000000 Zn
   0.5540650000000000    0.6979150000000001    0.5795450000000000 Zn
   0.6554750000000000    0.6927200000000000    0.5734950000000000 Zn
   0.9459000000000000    0.8020700000000001    0.9204550000000000 Zn
   0.1017300000000000    0.3214050000000000    0.4920450000000000 H
   0.0303450000000000    0.2924900000000000    0.3556600000000000 H
   0.1191750000000000    0.2953850000000000    0.3540600000000000 H
   0.0140750000000000    0.3150350000000000    0.4880750000000000 H
   0.3136700000000000    0.3033100000000000    0.1510550000000000 H
   0.3125850000000000    0.3028650000000000    0.0696650000000000 H
   0.4659900000000000    0.3083650000000000    0.0605700000000000 H
   0.3254450000000000    0.3283800000000000    0.2912850000000000 H
   0.3204150000000000    0.3307950000000000    0.2109950000000000 H
   0.4682600000000000    0.2871400000000000    0.1939900000000000 H
   0.4727550000000000    0.2852000000000000    0.2754450000000000 H
   0.3223850000000000    0.1590000000000000    0.4410500000000000 H
   0.3260000000000000    0.4546100000000000    0.4377000000000000 H
   0.4717750000000000    0.1718000000000000    0.3991050000000000 H
   0.4816750000000000    0.0909250000000000    0.3941750000000000 H
   0.4753550000000000    0.4363100000000000    0.3972950000000000 H
   0.4830500000000000    0.0187150000000000    0.3949650000000000 H
   0.2743000000000000    0.3313750000000000    0.3607650000000000 H
   0.2613700000000000    0.2899050000000000    0.4919500000000000 H
   0.1727100000000000    0.2861100000000000    0.4930350000000000 H
   0.1855600000000000    0.3333333333333333    0.3563750000000000 H
   0.3982150000000000    0.1786050000000000    0.0079500000000000 H
   0.4696050000000000    0.2074900000000000    0.1443000000000000 H
   0.3807700000000000    0.2046100000000000    0.1459350000000000 H
   0.4858650000000000    0.1849650000000000    0.0119000000000000 H
   0.1863000000000000    0.1967150000000000    0.3489450000000000 H
   0.1873800000000000    0.1971450000000000    0.4303000000000000 H
   0.0339800000000000    0.1916150000000000    0.4394250000000000 H
   0.1745050000000000    0.1716450000000000    0.2087000000000000 H
   0.1795550000000000    0.1692400000000000    0.2889900000000000 H
   0.0317050000000000    0.2128600000000000    0.3060250000000000 H
   0.0271850000000000    0.2147900000000000    0.2245750000000000 H
   0.1775550000000000    0.3409750000000000    0.0589150000000000 H
   0.1739600000000000    0.0453750000000000    0.0622250000000000 H
   0.0281750000000000    0.3281950000000000    0.1009150000000000 H
   0.0182900000000000    0.4090750000000000    0.1058600000000000 H
   0.0246250000000000    0.0636750000000000    0.1027500000000000 H
   0.0169300000000000    0.4812750000000000    0.1050900000000000 H
   0.2256450000000000    0.1686000000000000    0.1392000000000000 H
   0.2385600000000000    0.2101300000000000    0.0080300000000000 H
   0.3272150000000000    0.2139200000000000    0.0069700000000000 H
   0.3143850000000000    0.1666666666666667    0.1436150000000000 H
   0.6017300000000000    0.3214050000000000    0.4920450000000000 H
   0.5303450000000000    0.2924900000000000    0.3556600000000000 H
   0.6191750000000000    0.2953850000000000    0.3540600000000000 H
   0.5140749999999999    0.3150350000000000    0.4880750000000000 H
   0.8136700000000000    0.3033100000000000    0.1510550000000000 H
   0.8125850000000000    0.3028650000000000    0.0696650000000000 H
   0.9659900000000000    0.3083650000000000    0.0605700000000000 H
   0.8254450000000000    0.3283800000000000    0.2912850000000000 H
   0.8204150000000000    0.3307950000000000    0.2109950000000000 H
   0.9682600000000000    0.2871400000000000    0.1939900000000000 H
   0.9727550000000000    0.2852000000000000    0.2754450000000000 H
   0.8223849999999999    0.1590000000000000    0.4410500000000000 H
   0.8260000000000001    0.4546100000000000    0.4377000000000000 H
   0.9717750000000001    0.1718000000000000    0.3991050000000000 H
   0.9816750000000001    0.0909250000000000    0.3941750000000000 H
   0.9753550000000000    0.4363100000000000    0.3972950000000000 H
   0.9830500000000000    0.0187150000000000    0.3949650000000000 H
   0.7743000000000000    0.3313750000000000    0.3607650000000000 H
   0.7613700000000000    0.2899050000000000    0.4919500000000000 H
   0.6727100000000000    0.2861100000000000    0.4930350000000000 H
   0.6855599999999999    0.3333333333333333    0.3563750000000000 H
   0.8982150000000000    0.1786050000000000    0.0079500000000000 H
   0.9696050000000001    0.2074900000000000    0.1443000000000000 H
   0.8807700000000001    0.2046100000000000    0.1459350000000000 H
   0.9858650000000000    0.1849650000000000    0.0119000000000000 H
   0.6863000000000000    0.1967150000000000    0.3489450000000000 H
   0.6873800000000000    0.1971450000000000    0.4303000000000000 H
   0.5339800000000000    0.1916150000000000    0.4394250000000000 H
   0.6745050000000000    0.1716450000000000    0.2087000000000000 H
   0.6795550000000000    0.1692400000000000    0.2889900000000000 H
   0.5317050000000000    0.2128600000000000    0.3060250000000000 H
   0.5271850000000000    0.2147900000000000    0.2245750000000000 H
   0.6775550000000000    0.3409750000000000    0.0589150000000000 H
   0.6739600000000000    0.0453750000000000    0.0622250000000000 H
   0.5281750000000000    0.3281950000000000    0.1009150000000000 H
   0.5182900000000000    0.4090750000000000    0.1058600000000000 H
   0.5246250000000000    0.0636750000000000    0.1027500000000000 H
   0.5169300000000000    0.4812750000000000    0.1050900000000000 H
   0.7256450000000000    0.1686000000000000    0.1392000000000000 H
   0.7385600000000000    0.2101300000000000    0.0080300000000000 H
   0.8272150000000000    0.2139200000000000    0.0069700000000000 H
   0.8143850000000000    0.1666666666666667    0.1436150000000000 H
   0.1017300000000000    0.8214049999999999    0.4920450000000000 H
   0.0303450000000000    0.7924900000000000    0.3556600000000000 H
   0.1191750000000000    0.7953850000000000    0.3540600000000000 H
   0.0140750000000000    0.8150350000000000    0.4880750000000000 H
   0.3136700000000000    0.8033100000000000    0.1510550000000000 H
   0.3125850000000000    0.8028649999999999    0.0696650000000000 H
   0.4659900000000000    0.8083650000000000    0.0605700000000000 H
   0.3254450000000000    0.8283800000000000    0.2912850000000000 H
   0.3204150000000000    0.8307950000000000    0.2109950000000000 H
   0.4682600000000000    0.7871400000000000    0.1939900000000000 H
   0.4727550000000000    0.7852000000000000    0.2754450000000000 H
   0.3223850000000000    0.6590000000000000    0.4410500000000000 H
   0.3260000000000000    0.9546100000000000    0.4377000000000000 H
   0.4717750000000000    0.6718000000000000    0.3991050000000000 H
   0.4816750000000000    0.5909250000000000    0.3941750000000000 H
   0.4753550000000000    0.9363100000000000    0.3972950000000000 H
   0.4830500000000000    0.5187150000000000    0.3949650000000000 H
   0.2743000000000000    0.8313750000000000    0.3607650000000000 H
   0.2613700000000000    0.7899050000000001    0.4919500000000000 H
   0.1727100000000000    0.7861100000000000    0.4930350000000000 H
   0.1855600000000000    0.8333333333333333    0.3563750000000000 H
   0.3982150000000000    0.6786050000000000    0.0079500000000000 H
   0.4696050000000000    0.7074900000000000    0.1443000000000000 H
   0.3807700000000000    0.7046100000000000    0.1459350000000000 H
   0.4858650000000000    0.6849650000000000    0.0119000000000000 H
   0.1863000000000000    0.6967150000000000    0.3489450000000000 H
   0.1873800000000000    0.6971450000000000    0.4303000000000000 H
   0.0339800000000000    0.6916150000000000    0.4394250000000000 H
   0.1745050000000000    0.6716450000000000    0.2087000000000000 H
   0.1795550000000000    0.6692400000000001    0.2889900000000000 H
   0.0317050000000000    0.7128600000000000    0.3060250000000000 H
   0.0271850000000000    0.7147900000000000    0.2245750000000000 H
   0.1775550000000000    0.8409750000000000    0.0589150000000000 H
   0.1739600000000000    0.5453749999999999    0.0622250000000000 H
   0.0281750000000000    0.8281950000000000    0.1009150000000000 H
   0.0182900000000000    0.9090750000000001    0.1058600000000000 H
   0.0246250000000000    0.5636750000000000    0.1027500000000000 H
   0.0169300000000000    0.9812750000000000    0.1050900000000000 H
   0.2256450000000000    0.6686000000000000    0.1392000000000000 H
   0.2385600000000000    0.7101300000000000    0.0080300000000000 H
   0.3272150000000000    0.7139200000000000    0.0069700000000000 H
   0.3143850000000000    0.6666666666666666    0.1436150000000000 H
   0.6017300000000000    0.8214049999999999    0.4920450000000000 H
   0.5303450000000000    0.7924900000000000    0.3556600000000000 H
   0.6191750000000000    0.7953850000000000    0.3540600000000000 H
   0.5140749999999999    0.8150350000000000    0.4880750000000000 H
   0.8136700000000000    0.8033100000000000    0.1510550000000000 H
   0.8125850000000000    0.8028649999999999    0.0696650000000000 H
   0.9659900000000000    0.8083650000000000    0.0605700000000000 H
   0.8254450000000000    0.8283800000000000    0.2912850000000000 H
   0.8204150000000000    0.8307950000000000    0.2109950000000000 H
   0.9682600000000000    0.7871400000000000    0.1939900000000000 H
   0.9727550000000000    0.7852000000000000    0.2754450000000000 H
   0.8223849999999999    0.6590000000000000    0.4410500000000000 H
   0.8260000000000001    0.9546100000000000    0.4377000000000000 H
   0.9717750000000001    0.6718000000000000    0.3991050000000000 H
   0.9816750000000001    0.5909250000000000    0.3941750000000000 H
   0.9753550000000000    0.9363100000000000    0.3972950000000000 H
   0.9830500000000000    0.5187150000000000    0.3949650000000000 H
   0.7743000000000000    0.8313750000000000    0.3607650000000000 H
   0.7613700000000000    0.7899050000000001    0.4919500000000000 H
   0.6727100000000000    0.7861100000000000    0.4930350000000000 H
   0.6855599999999999    0.8333333333333333    0.3563750000000000 H
   0.8982150000000000    0.6786050000000000    0.0079500000000000 H
   0.9696050000000001    0.7074900000000000    0.1443000000000000 H
   0.8807700000000001    0.7046100000000000    0.1459350000000000 H
   0.9858650000000000    0.6849650000000000    0.0119000000000000 H
   0.6863000000000000    0.6967150000000000    0.3489450000000000 H
   0.6873800000000000    0.6971450000000000    0.4303000000000000 H
   0.5339800000000000    0.6916150000000000    0.4394250000000000 H
   0.6745050000000000    0.6716450000000000    0.2087000000000000 H
   0.6795550000000000    0.6692400000000001    0.2889900000000000 H
   0.5317050000000000    0.7128600000000000    0.3060250000000000 H
   0.5271850000000000    0.7147900000000000    0.2245750000000000 H
   0.6775550000000000    0.8409750000000000    0.0589150000000000 H
   0.6739600000000000    0.5453749999999999    0.0622250000000000 H
   0.5281750000000000    0.8281950000000000    0.1009150000000000 H
   0.5182900000000000    0.9090750000000001    0.1058600000000000 H
   0.5246250000000000    0.5636750000000000    0.1027500000000000 H
   0.5169300000000000    0.9812750000000000    0.1050900000000000 H
   0.7256450000000000    0.6686000000000000    0.1392000000000000 H
   0.7385600000000000    0.7101300000000000    0.0080300000000000 H
   0.8272150000000000    0.7139200000000000    0.0069700000000000 H
   0.8143850000000000    0.6666666666666666    0.1436150000000000 H
   0.1017300000000000    0.3214050000000000    0.9920450000000001 H
   0.0303450000000000    0.2924900000000000    0.8556600000000000 H
   0.1191750000000000    0.2953850000000000    0.8540600000000000 H
   0.0140750000000000    0.3150350000000000    0.9880750000000000 H
   0.3136700000000000    0.3033100000000000    0.6510549999999999 H
   0.3125850000000000    0.3028650000000000    0.5696650000000000 H
   0.4659900000000000    0.3083650000000000    0.5605700000000000 H
   0.3254450000000000    0.3283800000000000    0.7912850000000000 H
   0.3204150000000000    0.3307950000000000    0.7109950000000000 H
   0.4682600000000000    0.2871400000000000    0.6939900000000000 H
   0.4727550000000000    0.2852000000000000    0.7754449999999999 H
   0.3223850000000000    0.1590000000000000    0.9410499999999999 H
   0.3260000000000000    0.4546100000000000    0.9377000000000000 H
   0.4717750000000000    0.1718000000000000    0.8991050000000000 H
   0.4816750000000000    0.0909250000000000    0.8941749999999999 H
   0.4753550000000000    0.4363100000000000    0.8972950000000000 H
   0.4830500000000000    0.0187150000000000    0.8949650000000000 H
   0.2743000000000000    0.3313750000000000    0.8607650000000000 H
   0.2613700000000000    0.2899050000000000    0.9919500000000000 H
   0.1727100000000000    0.2861100000000000    0.9930350000000000 H
   0.1855600000000000    0.3333333333333333    0.8563750000000000 H
   0.3982150000000000    0.1786050000000000    0.5079500000000000 H
   0.4696050000000000    0.2074900000000000    0.6443000000000000 H
   0.3807700000000000    0.2046100000000000    0.6459350000000000 H
   0.4858650000000000    0.1849650000000000    0.5119000000000000 H
   0.1863000000000000    0.1967150000000000    0.8489450000000001 H
   0.1873800000000000    0.1971450000000000    0.9303000000000000 H
   0.0339800000000000    0.1916150000000000    0.9394250000000000 H
   0.1745050000000000    0.1716450000000000    0.7087000000000000 H
   0.1795550000000000    0.1692400000000000    0.7889900000000001 H
   0.0317050000000000    0.2128600000000000    0.8060250000000000 H
   0.0271850000000000    0.2147900000000000    0.7245750000000000 H
   0.1775550000000000    0.3409750000000000    0.5589150000000001 H
   0.1739600000000000    0.0453750000000000    0.5622250000000000 H
   0.0281750000000000    0.3281950000000000    0.6009150000000000 H
   0.0182900000000000    0.4090750000000000    0.6058600000000000 H
   0.0246250000000000    0.0636750000000000    0.6027500000000000 H
   0.0169300000000000    0.4812750000000000    0.6050900000000000 H
   0.2256450000000000    0.1686000000000000    0.6392000000000000 H
   0.2385600000000000    0.2101300000000000    0.5080300000000000 H
   0.3272150000000000    0.2139200000000000    0.5069700000000000 H
   0.3143850000000000    0.1666666666666667    0.6436150000000000 H
   0.6017300000000000    0.3214050000000000    0.9920450000000001 H
   0.5303450000000000    0.2924900000000000    0.8556600000000000 H
   0.6191750000000000    0.2953850000000000    0.8540600000000000 H
   0.5140749999999999    0.3150350000000000    0.9880750000000000 H
   0.8136700000000000    0.3033100000000000    0.6510549999999999 H
   0.8125850000000000    0.3028650000000000    0.5696650000000000 H
   0.9659900000000000    0.3083650000000000    0.5605700000000000 H
   0.8254450000000000    0.3283800000000000    0.7912850000000000 H
   0.8204150000000000    0.3307950000000000    0.7109950000000000 H
   0.9682600000000000    0.2871400000000000    0.6939900000000000 H
   0.9727550000000000    0.2852000000000000    0.7754449999999999 H
   0.8223849999999999    0.1590000000000000    0.9410499999999999 H
   0.8260000000000001    0.4546100000000000    0.9377000000000000 H
   0.9717750000000001    0.1718000000000000    0.8991050000000000 H
   0.9816750000000001    0.0909250000000000    0.8941749999999999 H
   0.9753550000000000    0.4363100000000000    0.8972950000000000 H
   0.9830500000000000    0.0187150000000000    0.8949650000000000 H
   0.7743000000000000    0.3313750000000000    0.8607650000000000 H
   0.7613700000000000    0.2899050000000000    0.9919500000000000 H
   0.6727100000000000    0.2861100000000000    0.9930350000000000 H
   0.6855599999999999    0.3333333333333333    0.8563750000000000 H
   0.8982150000000000    0.1786050000000000    0.5079500000000000 H
   0.9696050000000001    0.2074900000000000    0.6443000000000000 H
   0.8807700000000001    0.2046100000000000    0.6459350000000000 H
   0.9858650000000000    0.1849650000000000    0.5119000000000000 H
   0.6863000000000000    0.1967150000000000    0.8489450000000001 H
   0.6873800000000000    0.1971450000000000    0.9303000000000000 H
   0.5339800000000000    0.1916150000000000    0.9394250000000000 H
   0.6745050000000000    0.1716450000000000    0.7087000000000000 H
   0.6795550000000000    0.1692400000000000    0.7889900000000001 H
   0.5317050000000000    0.2128600000000000    0.8060250000000000 H
   0.5271850000000000    0.2147900000000000    0.7245750000000000 H
   0.6775550000000000    0.3409750000000000    0.5589150000000001 H
   0.5281750000000000    0.3281950000000000    0.6009150000000000 H
   0.5182900000000000    0.4090750000000000    0.6058600000000000 H
   0.5169300000000000    0.4812750000000000    0.6050900000000000 H
   0.7256450000000000    0.1686000000000000    0.6392000000000000 H
   0.7385600000000000    0.2101300000000000    0.5080300000000000 H
   0.8272150000000000    0.2139200000000000    0.5069700000000000 H
   0.8143850000000000    0.1666666666666667    0.6436150000000000 H
   0.1017300000000000    0.8214049999999999    0.9920450000000001 H
   0.0303450000000000    0.7924900000000000    0.8556600000000000 H
   0.1191750000000000    0.7953850000000000    0.8540600000000000 H
   0.0140750000000000    0.8150350000000000    0.9880750000000000 H
   0.3136700000000000    0.8033100000000000    0.6510549999999999 H
   0.3125850000000000    0.8028649999999999    0.5696650000000000 H
   0.4659900000000000    0.8083650000000000    0.5605700000000000 H
   0.3254450000000000    0.8283800000000000    0.7912850000000000 H
   0.3204150000000000    0.8307950000000000    0.7109950000000000 H
   0.4682600000000000    0.7871400000000000    0.6939900000000000 H
   0.4727550000000000    0.7852000000000000    0.7754449999999999 H
   0.3223850000000000    0.6590000000000000    0.9410499999999999 H
   0.3260000000000000    0.9546100000000000    0.9377000000000000 H
   0.4717750000000000    0.6718000000000000    0.8991050000000000 H
   0.4816750000000000    0.5909250000000000    0.8941749999999999 H
   0.4753550000000000    0.9363100000000000    0.8972950000000000 H
   0.4830500000000000    0.5187150000000000    0.8949650000000000 H
   0.2743000000000000    0.8313750000000000    0.8607650000000000 H
   0.2613700000000000    0.7899050000000001    0.9919500000000000 H
   0.1727100000000000    0.7861100000000000    0.9930350000000000 H
   0.1855600000000000    0.8333333333333333    0.8563750000000000 H
   0.3982150000000000    0.6786050000000000    0.5079500000000000 H
   0.4696050000000000    0.7074900000000000    0.6443000000000000 H
   0.3807700000000000    0.7046100000000000    0.6459350000000000 H
   0.4858650000000000    0.6849650000000000    0.5119000000000000 H
   0.1863000000000000    0.6967150000000000    0.8489450000000001 H
   0.1873800000000000    0.6971450000000000    0.9303000000000000 H
   0.0339800000000000    0.6916150000000000    0.9394250000000000 H
   0.1745050000000000    0.6716450000000000    0.7087000000000000 H
   0.1795550000000000    0.6692400000000001    0.7889900000000001 H
   0.0317050000000000    0.7128600000000000    0.8060250000000000 H
   0.0271850000000000    0.7147900000000000    0.7245750000000000 H
   0.1775550000000000    0.8409750000000000    0.5589150000000001 H
   0.1739600000000000    0.5453749999999999    0.5622250000000000 H
   0.0281750000000000    0.8281950000000000    0.6009150000000000 H
   0.0182900000000000    0.9090750000000001    0.6058600000000000 H
   0.0246250000000000    0.5636750000000000    0.6027500000000000 H
   0.0169300000000000    0.9812750000000000    0.6050900000000000 H
   0.2256450000000000    0.6686000000000000    0.6392000000000000 H
   0.2385600000000000    0.7101300000000000    0.5080300000000000 H
   0.3272150000000000    0.7139200000000000    0.5069700000000000 H
   0.3143850000000000    0.6666666666666666    0.6436150000000000 H
   0.6017300000000000    0.8214049999999999    0.9920450000000001 H
   0.5303450000000000    0.7924900000000000    0.8556600000000000 H
   0.6191750000000000    0.7953850000000000    0.8540600000000000 H
   0.5140749999999999    0.8150350000000000    0.9880750000000000 H
   0.8136700000000000    0.8033100000000000    0.6510549999999999 H
   0.8125850000000000    0.8028649999999999    0.5696650000000000 H
   0.9659900000000000    0.8083650000000000    0.5605700000000000 H
   0.8254450000000000    0.8283800000000000    0.7912850000000000 H
   0.8204150000000000    0.8307950000000000    0.7109950000000000 H
   0.9682600000000000    0.7871400000000000    0.6939900000000000 H
   0.9727550000000000    0.7852000000000000    0.7754449999999999 H
   0.8223849999999999    0.6590000000000000    0.9410499999999999 H
   0.8260000000000001    0.9546100000000000    0.9377000000000000 H
   0.9717750000000001    0.6718000000000000    0.8991050000000000 H
   0.9816750000000001    0.5909250000000000    0.8941749999999999 H
   0.9753550000000000    0.9363100000000000    0.8972950000000000 H
   0.9830500000000000    0.5187150000000000    0.8949650000000000 H
   0.7743000000000000    0.8313750000000000    0.8607650000000000 H
   0.7613700000000000    0.7899050000000001    0.9919500000000000 H
   0.6727100000000000    0.7861100000000000    0.9930350000000000 H
   0.6855599999999999    0.8333333333333333    0.8563750000000000 H
   0.8982150000000000    0.6786050000000000    0.5079500000000000 H
   0.9696050000000001    0.7074900000000000    0.6443000000000000 H
   0.8807700000000001    0.7046100000000000    0.6459350000000000 H
   0.9858650000000000    0.6849650000000000    0.5119000000000000 H
   0.6863000000000000    0.6967150000000000    0.8489450000000001 H
   0.6873800000000000    0.6971450000000000    0.9303000000000000 H
   0.5339800000000000    0.6916150000000000    0.9394250000000000 H
   0.6745050000000000    0.6716450000000000    0.7087000000000000 H
   0.6795550000000000    0.6692400000000001    0.7889900000000001 H
   0.5317050000000000    0.7128600000000000    0.8060250000000000 H
   0.5271850000000000    0.7147900000000000    0.7245750000000000 H
   0.6739600000000000    0.5453749999999999    0.5622250000000000 H
   0.5246250000000000    0.5636750000000000    0.6027500000000000 H
   0.7256450000000000    0.6686000000000000    0.6392000000000000 H
   0.7385600000000000    0.7101300000000000    0.5080300000000000 H
   0.8272150000000000    0.7139200000000000    0.5069700000000000 H
   0.8143850000000000    0.6666666666666666    0.6436150000000000 H
   0.3122050000000000    0.0549500000000000    0.4422350000000000 Rh
   0.1877550000000000    0.4450350000000000    0.0577500000000000 Rh
   0.8122050000000001    0.0549500000000000    0.4422350000000000 Rh
   0.6877550000000000    0.4450350000000000    0.0577500000000000 Rh
   0.3122050000000000    0.5549500000000001    0.4422350000000000 Rh
   0.1877550000000000    0.9450350000000001    0.0577500000000000 Rh
   0.8122050000000001    0.5549500000000001    0.4422350000000000 Rh
   0.6877550000000000    0.9450350000000001    0.0577500000000000 Rh
   0.3122050000000000    0.0549500000000000    0.9422349999999999 Rh
   0.1877550000000000    0.4450350000000000    0.5577500000000000 Rh
   0.8122050000000001    0.0549500000000000    0.9422349999999999 Rh
   0.6877550000000000    0.4450350000000000    0.5577500000000000 Rh
   0.3122050000000000    0.5549500000000001    0.9422349999999999 Rh
   0.1877550000000000    0.9450350000000001    0.5577500000000000 Rh
   0.8122050000000001    0.5549500000000001    0.9422349999999999 Rh
   0.6877550000000000    0.9450350000000001    0.5577500000000000 Rh
   0.1185400000000000    0.3085650000000000    0.4232200000000000 C
   0.0879500000000000    0.3141500000000000    0.4611400000000000 C
   0.3967150000000000    0.1695450000000000    0.4215800000000000 C
   0.0480600000000000    0.2987500000000000    0.3849550000000000 C
   0.3892850000000000    0.3062250000000000    0.0587750000000000 C
   0.3991550000000000    0.3061650000000000    0.2885550000000000 C
   0.0974600000000000    0.3010400000000000    0.3844000000000000 C
   0.0388950000000000    0.3112600000000000    0.4592500000000000 C
   0.3905400000000000    0.3051900000000000    0.0099000000000000 C
   0.3929850000000000    0.2184900000000000    0.4255700000000000 C
   0.3469700000000000    0.3053700000000000    0.1302200000000000 C
   0.3950950000000000    0.3907250000000000    0.4196250000000000 C
   0.3461100000000000    0.3048250000000000    0.0850000000000000 C
   0.4316000000000000    0.3079800000000000    0.0799900000000000 C
   0.4010600000000000    0.3049900000000000    0.3374550000000000 C
   0.1710250000000000    0.3097850000000000    0.4244500000000000 C
   0.3911300000000000    0.3076600000000000    0.1487550000000000 C
   0.3938900000000000    0.3078350000000000    0.1967750000000000 C
   0.3564350000000000    0.3188900000000000    0.2698050000000000 C
   0.4001200000000000    0.4397900000000000    0.4176650000000000 C
   0.3538000000000000    0.3198000000000000    0.2246850000000000 C
   0.4369600000000000    0.2956750000000000    0.2156350000000000 C
   0.4394750000000000    0.2948100000000000    0.2608800000000000 C
   0.3568450000000000    0.1429700000000000    0.4316400000000000 C
   0.3611050000000000    0.4680050000000000    0.4282400000000000 C
   0.4416750000000000    0.1505700000000000    0.4080350000000000 C
   0.3616200000000000    0.0969350000000000    0.4295200000000000 C
   0.4076000000000000    0.0782300000000000    0.4162150000000000 C
   0.4089250000000000    0.0306900000000000    0.4153450000000000 C
   0.4468300000000000    0.1052300000000000    0.4051500000000000 C
   0.4447850000000000    0.4581650000000000    0.4054900000000000 C
   0.4487650000000000    0.0036150000000000    0.4043000000000000 C
   0.2499600000000000    0.3222250000000000    0.3891350000000000 C
   0.2427300000000000    0.2987100000000000    0.4626850000000000 C
   0.1932350000000000    0.2976400000000000    0.4630800000000000 C
   0.2006750000000000    0.3225900000000000    0.3870450000000000 C
   0.3814050000000000    0.1914350000000000    0.0767750000000000 C
   0.4119900000000000    0.1858550000000000    0.0388550000000000 C
   0.1032250000000000    0.3304450000000000    0.0784250000000000 C
   0.4518850000000000    0.2012400000000000    0.1150400000000000 C
   0.1106800000000000    0.1938050000000000    0.4412000000000000 C
   0.1007850000000000    0.1938350000000000    0.2114500000000000 C
   0.4024850000000000    0.1989600000000000    0.1155950000000000 C
   0.4610500000000000    0.1887350000000000    0.0407450000000000 C
   0.1094200000000000    0.1948050000000000    0.4901000000000000 C
   0.1069450000000000    0.2815000000000000    0.0744000000000000 C
   0.1530000000000000    0.1946500000000000    0.3697750000000000 C
   0.1048750000000000    0.1092600000000000    0.0803800000000000 C
   0.1538550000000000    0.1951850000000000    0.4149650000000000 C
   0.0683650000000000    0.1920100000000000    0.4200050000000000 C
   0.0988600000000000    0.1950050000000000    0.1625500000000000 C
   0.3289100000000000    0.1902150000000000    0.0755500000000000 C
   0.1088400000000000    0.1923400000000000    0.3512450000000000 C
   0.1060800000000000    0.1921750000000000    0.3032250000000000 C
   0.1435150000000000    0.1811250000000000    0.2301900000000000 C
   0.0998500000000000    0.0601950000000000    0.0823400000000000 C
   0.1461650000000000    0.1802200000000000    0.2753000000000000 C
   0.0630000000000000    0.2043300000000000    0.2843750000000000 C