H6 O4
1.0
  17.7996662953466007    0.0000000000000000    4.8477400687642307
   1.9546809436145891   11.6477539278447235    2.1902499503590480
   0.0000000000000000    0.0000000000000000   25.1520000000000010
H O
6 4
direct
   0.0933156489919538    0.9791000461865978    0.4778990948889688 H
   0.2865667635397342    0.7943847777515414    0.4941524861880578 H
   0.1965536488568479    0.8941414096431896    0.4888238206257650 H
   0.4080319188596782    0.0231374973833810    0.5321397722829448 H
   0.2844070724923752    0.1509316389914156    0.5201103020251442 H
   0.2101657509551411    0.2303817640281701    0.5126757590364029 H
   0.1267500000000000    0.9058900000000000    0.4739700000000000 O
   0.2384100000000000    0.8024900000000000    0.4839050000000000 O
   0.3732700000000000    0.0940700000000000    0.5260350000000000 O
   0.2616000000000000    0.1974700000000000    0.5161050000000000 O
