H8 O5
1.0
  37.9709552140250111    0.0000000000000000   -0.0583192464554019
  -2.7306284599724413   27.0656018624785375   -0.0085460743549832
   0.0000000000000000    0.0000000000000000   29.3320000000000007
H O
8 5
direct
   0.8902019152842886    0.7746620986522998    0.6022098911011380 H
   0.8418895049746897    0.7845598478426428    0.5542561880582659 H
   0.8069231067672480    0.7949204098317548    0.5182952489183248 H
   0.7907335629359816    0.8785262134909917    0.6583016553411934 H
   0.8318029875695421    0.9053634865464100    0.6674335210809634 H
   0.8358262506438306    0.9868649435319885    0.7411946757821467 H
   0.8849024779953860    0.9582162201054936    0.7064634992233368 H
   0.9217569580514835    0.9343659709654221    0.6777197030398432 H
   0.8750749999999999    0.7912850000000000    0.5818900000000000 O
   0.8284849999999999    0.7992900000000001    0.5362500000000000 O
   0.8065749999999999    0.9029300000000000    0.6748750000000000 O
   0.8503399999999999    0.9694600000000000    0.7207450000000000 O
   0.8984749999999999    0.9419400000000000    0.6873400000000001 O
