H2 O2
1.0
  15.3699996043735574    0.0000000000000000    0.0034873423484904
   0.0003508810018361   20.1039999969379863    0.0000000000000012
   0.0000000000000000    0.0000000000000000   35.3939999999999984
H O
2 2
direct
   0.4339050153042102    0.6250100000000000    0.0428174977574931 H
   0.3097683491580243    0.6250100000000000    0.0522061988868425 H
   0.4263400000000000    0.6250100000000000    0.0702700000000000 O
   0.3379500000000000    0.6250100000000000    0.0769950000000000 O
