H2 C2 N3
1.0
  15.3699996043735574    0.0000000000000000    0.0034873423484904
   0.0003508810018361   20.1039999969379863    0.0000000000000012
   0.0000000000000000    0.0000000000000000   35.3939999999999984
H C N
2 2 3
direct
   0.2299500000000000    0.6250100000000000    0.0388100000000000 H
   0.4996200000000000    0.6250100000000000    0.0188450000000000 H
   0.2997000000000000    0.6250100000000000    0.0433500000000000 C
   0.4366600000000000    0.6250100000000000    0.0328200000000000 C
   0.3379500000000000    0.6250100000000000    0.0769950000000000 N
   0.4263400000000000    0.6250100000000000    0.0702700000000000 N
   0.3585200000000000    0.6250100000000000    0.0146500000000000 N
