Zn64 H190 C190 N285 Cl32
1.0
  15.3699996043735574    0.0000000000000000    0.0034873423484904
   0.0003508810018361   20.1039999969379863    0.0000000000000012
   0.0000000000000000    0.0000000000000000   35.3939999999999984
Zn H C N Cl
64 190 190 285 32
direct
   0.2377500000000000    0.8750100000000000    0.3686000000000000 Zn
   0.7377500000000000    0.3750000000000000    0.3686000000000000 Zn
   0.7377500000000000    0.8750100000000000    0.3686000000000000 Zn
   0.0114700000000000    0.1250000000000000    0.1186250000000000 Zn
   0.0114700000000000    0.6250100000000000    0.1186250000000000 Zn
   0.5114700000000000    0.1250000000000000    0.1186250000000000 Zn
   0.5114700000000000    0.6250100000000000    0.1186250000000000 Zn
   0.2622400000000000    0.1250000000000000    0.1313950000000000 Zn
   0.2622400000000000    0.6250100000000000    0.1313950000000000 Zn
   0.7622400000000000    0.1250000000000000    0.1313950000000000 Zn
   0.7622400000000000    0.6250100000000000    0.1313950000000000 Zn
   0.4885300000000000    0.3750000000000000    0.3813650000000000 Zn
   0.4885300000000000    0.8750100000000000    0.3813650000000000 Zn
   0.9885300000000000    0.3750000000000000    0.3813650000000000 Zn
   0.9885300000000000    0.8750100000000000    0.3813650000000000 Zn
   0.3149400000000000    0.1250000000000000    0.4607950000000000 Zn
   0.3149400000000000    0.6250100000000000    0.4607950000000000 Zn
   0.8149400000000000    0.1250000000000000    0.4607950000000000 Zn
   0.8149400000000000    0.6250100000000000    0.4607950000000000 Zn
   0.4361900000000000    0.3750000000000000    0.2108450000000000 Zn
   0.4361900000000000    0.8750100000000000    0.2108450000000000 Zn
   0.9361900000000000    0.3750000000000000    0.2108450000000000 Zn
   0.9361900000000000    0.8750100000000000    0.2108450000000000 Zn
   0.1850600000000000    0.3750000000000000    0.0392000000000000 Zn
   0.1850600000000000    0.8750100000000000    0.0392000000000000 Zn
   0.6850600000000000    0.3750000000000000    0.0392000000000000 Zn
   0.6850600000000000    0.8750100000000000    0.0392000000000000 Zn
   0.0638000000000000    0.1250000000000000    0.2891500000000000 Zn
   0.0638100000000000    0.6250100000000000    0.2891500000000000 Zn
   0.5638000000000000    0.1250000000000000    0.2891500000000000 Zn
   0.5638100000000000    0.6250100000000000    0.2891500000000000 Zn
   0.2377500000000000    0.3750000000000000    0.3686000000000000 Zn
   0.2377500000000000    0.8750100000000000    0.8686000000000000 Zn
   0.7377500000000000    0.3750000000000000    0.8686000000000000 Zn
   0.7377500000000000    0.8750100000000000    0.8686000000000000 Zn
   0.0114700000000000    0.1250000000000000    0.6186250000000000 Zn
   0.0114700000000000    0.6250100000000000    0.6186250000000000 Zn
   0.5114700000000000    0.1250000000000000    0.6186250000000000 Zn
   0.5114700000000000    0.6250100000000000    0.6186250000000000 Zn
   0.2622400000000000    0.1250000000000000    0.6313950000000000 Zn
   0.2622400000000000    0.6250100000000000    0.6313950000000000 Zn
   0.7622400000000000    0.1250000000000000    0.6313950000000000 Zn
   0.7622400000000000    0.6250100000000000    0.6313950000000000 Zn
   0.4885300000000000    0.3750000000000000    0.8813650000000000 Zn
   0.4885300000000000    0.8750100000000000    0.8813650000000000 Zn
   0.9885300000000000    0.3750000000000000    0.8813650000000000 Zn
   0.9885300000000000    0.8750100000000000    0.8813650000000000 Zn
   0.3149400000000000    0.1250000000000000    0.9607950000000001 Zn
   0.3149400000000000    0.6250100000000000    0.9607950000000001 Zn
   0.8149400000000000    0.1250000000000000    0.9607950000000001 Zn
   0.8149400000000000    0.6250100000000000    0.9607950000000001 Zn
   0.4361900000000000    0.3750000000000000    0.7108449999999999 Zn
   0.4361900000000000    0.8750100000000000    0.7108449999999999 Zn
   0.9361900000000000    0.3750000000000000    0.7108449999999999 Zn
   0.9361900000000000    0.8750100000000000    0.7108449999999999 Zn
   0.1850600000000000    0.3750000000000000    0.5392000000000000 Zn
   0.1850600000000000    0.8750100000000000    0.5392000000000000 Zn
   0.6850600000000000    0.3750000000000000    0.5392000000000000 Zn
   0.6850600000000000    0.8750100000000000    0.5392000000000000 Zn
   0.0638000000000000    0.1250000000000000    0.7891500000000000 Zn
   0.0638100000000000    0.6250100000000000    0.7891500000000000 Zn
   0.5638000000000000    0.1250000000000000    0.7891500000000000 Zn
   0.5638100000000000    0.6250100000000000    0.7891500000000000 Zn
   0.2377500000000000    0.3750000000000000    0.8686000000000000 Zn
   0.4841800000000000    0.0185900000000000    0.4358900000000000 H
   0.4841800000000000    0.5185900000000000    0.4358900000000000 H
   0.9841800000000001    0.0185900000000000    0.4358900000000000 H
   0.9841800000000001    0.5185900000000000    0.4358900000000000 H
   0.2164900000000000    0.0214900000000000    0.4117600000000000 H
   0.2164900000000000    0.5215000000000000    0.4117600000000000 H
   0.7164900000000000    0.0214900000000000    0.4117600000000000 H
   0.7164900000000000    0.5215000000000000    0.4117600000000000 H
   0.2662800000000000    0.4811400000000000    0.1860400000000000 H
   0.2662800000000000    0.9811500000000000    0.1860400000000000 H
   0.7662800000000000    0.4811400000000000    0.1860400000000000 H
   0.7662900000000000    0.9811500000000000    0.1860400000000000 H
   0.0339500000000000    0.4787500000000000    0.1617550000000000 H
   0.0339500000000000    0.9787500000000000    0.1617550000000000 H
   0.5339500000000000    0.4787500000000000    0.1617550000000000 H
   0.5339600000000000    0.9787500000000000    0.1617550000000000 H
   0.0158100000000000    0.2685900000000000    0.0641050000000000 H
   0.0158100000000000    0.7685999999999999    0.0641050000000000 H
   0.5158100000000000    0.2685900000000000    0.0641050000000000 H
   0.5158100000000000    0.7685999999999999    0.0641050000000000 H
   0.2835000000000000    0.2715000000000000    0.0882350000000000 H
   0.2835000000000000    0.7715000000000000    0.0882350000000000 H
   0.7835000000000000    0.2715000000000000    0.0882350000000000 H
   0.7835000000000000    0.7715000000000000    0.0882350000000000 H
   0.2337100000000000    0.2311400000000000    0.3139550000000000 H
   0.2337100000000000    0.7311400000000000    0.3139550000000000 H
   0.7337100000000000    0.2311400000000000    0.3139550000000000 H
   0.7337100000000000    0.7311400000000000    0.3139550000000000 H
   0.4660400000000000    0.2287400000000000    0.3382450000000000 H
   0.4660500000000000    0.7287500000000000    0.3382450000000000 H
   0.9660500000000000    0.2287400000000000    0.3382450000000000 H
   0.9660500000000000    0.7287500000000000    0.3382450000000000 H
   0.0158200000000000    0.4814200000000000    0.0641050000000000 H
   0.0158200000000000    0.9814300000000000    0.0641050000000000 H
   0.5158199999999999    0.4814200000000000    0.0641050000000000 H
   0.5158199999999999    0.9814300000000000    0.0641050000000000 H
   0.2835100000000000    0.4785100000000000    0.0882000000000000 H
   0.2835100000000000    0.9785199999999999    0.0882000000000000 H
   0.7835100000000000    0.4785100000000000    0.0882000000000000 H
   0.7835100000000000    0.9785199999999999    0.0882000000000000 H
   0.2337100000000000    0.0188600000000000    0.3139550000000000 H
   0.2337100000000000    0.5188700000000001    0.3139550000000000 H
   0.7337100000000000    0.0188600000000000    0.3139550000000000 H
   0.7337100000000000    0.5188700000000001    0.3139550000000000 H
   0.4660400000000000    0.0212600000000000    0.3382400000000000 H
   0.4660400000000000    0.5212700000000000    0.3382400000000000 H
   0.9660400000000000    0.0212600000000000    0.3382400000000000 H
   0.9660400000000000    0.5212700000000000    0.3382400000000000 H
   0.4841800000000000    0.2314200000000000    0.4358900000000000 H
   0.4841800000000000    0.7314200000000000    0.4358900000000000 H
   0.9841800000000001    0.2314200000000000    0.4358900000000000 H
   0.9841800000000001    0.7314200000000000    0.4358900000000000 H
   0.2164900000000000    0.2285100000000000    0.4117600000000000 H
   0.2164900000000000    0.7285199999999999    0.4117600000000000 H
   0.7164900000000000    0.2285100000000000    0.4117600000000000 H
   0.7164900000000000    0.7285199999999999    0.4117600000000000 H
   0.2662800000000000    0.2688700000000000    0.1860400000000000 H
   0.2662800000000000    0.7688800000000000    0.1860400000000000 H
   0.7662800000000000    0.2688700000000000    0.1860400000000000 H
   0.7662800000000000    0.7688800000000000    0.1860400000000000 H
   0.0339500000000000    0.2712600000000000    0.1617500000000000 H
   0.0339500000000000    0.7712700000000000    0.1617500000000000 H
   0.5339500000000000    0.2712600000000000    0.1617500000000000 H
   0.5339500000000000    0.7712700000000000    0.1617500000000000 H
   0.2700500000000000    0.3750100000000000    0.4611850000000000 H
   0.2700500000000000    0.8750100000000000    0.4611850000000000 H
   0.7700500000000000    0.3750100000000000    0.4611850000000000 H
   0.7700500000000000    0.8750100000000000    0.4611850000000000 H
   0.0003800000000000    0.3750000000000000    0.4811500000000000 H
   0.0003800000000000    0.8750100000000000    0.4811500000000000 H
   0.5003800000000000    0.3750000000000000    0.4811500000000000 H
   0.5003800000000000    0.8750100000000000    0.4811500000000000 H
   0.4798400000000000    0.1250000000000000    0.2110550000000000 H
   0.4798400000000000    0.6250100000000000    0.2110550000000000 H
   0.9798400000000000    0.1250000000000000    0.2110550000000000 H
   0.9798500000000000    0.6250100000000000    0.2110550000000000 H
   0.2493500000000000    0.1250000000000000    0.2313300000000000 H
   0.2493500000000000    0.6250100000000000    0.2313300000000000 H
   0.7493500000000000    0.1250000000000000    0.2313300000000000 H
   0.7493500000000000    0.6250100000000000    0.2313300000000000 H
   0.2299500000000000    0.1250000000000000    0.0388100000000000 H
   0.7299500000000000    0.1250000000000000    0.0388100000000000 H
   0.7299500000000000    0.6250100000000000    0.0388100000000000 H
   0.4996200000000000    0.1250000000000000    0.0188450000000000 H
   0.9996200000000000    0.1250000000000000    0.0188450000000000 H
   0.9996200000000000    0.6250100000000000    0.0188450000000000 H
   0.0201500000000000    0.3750000000000000    0.2889400000000000 H
   0.0201500000000000    0.8750100000000000    0.2889400000000000 H
   0.5201500000000000    0.3750000000000000    0.2889400000000000 H
   0.5201500000000000    0.8750100000000000    0.2889400000000000 H
   0.2506400000000000    0.3750000000000000    0.2686650000000000 H
   0.2506400000000000    0.8750100000000000    0.2686650000000000 H
   0.7506400000000000    0.3750000000000000    0.2686650000000000 H
   0.7506400000000000    0.8750100000000000    0.2686650000000000 H
   0.4841800000000000    0.0185900000000000    0.9358900000000000 H
   0.4841800000000000    0.5185900000000000    0.9358900000000000 H
   0.9841800000000001    0.0185900000000000    0.9358900000000000 H
   0.9841800000000001    0.5185900000000000    0.9358900000000000 H
   0.2164900000000000    0.0214900000000000    0.9117600000000000 H
   0.2164900000000000    0.5215000000000000    0.9117600000000000 H
   0.7164900000000000    0.0214900000000000    0.9117600000000000 H
   0.7164900000000000    0.5215000000000000    0.9117600000000000 H
   0.2662800000000000    0.4811400000000000    0.6860400000000000 H
   0.2662800000000000    0.9811500000000000    0.6860400000000000 H
   0.7662800000000000    0.4811400000000000    0.6860400000000000 H
   0.7662900000000000    0.9811500000000000    0.6860400000000000 H
   0.0339500000000000    0.4787500000000000    0.6617550000000000 H
   0.0339500000000000    0.9787500000000000    0.6617550000000000 H
   0.5339500000000000    0.4787500000000000    0.6617550000000000 H
   0.5339600000000000    0.9787500000000000    0.6617550000000000 H
   0.0158100000000000    0.2685900000000000    0.5641050000000000 H
   0.0158100000000000    0.7685999999999999    0.5641050000000000 H
   0.5158100000000000    0.2685900000000000    0.5641050000000000 H
   0.5158100000000000    0.7685999999999999    0.5641050000000000 H
   0.2835000000000000    0.2715000000000000    0.5882350000000000 H
   0.2835000000000000    0.7715000000000000    0.5882350000000000 H
   0.7835000000000000    0.2715000000000000    0.5882350000000000 H
   0.7835000000000000    0.7715000000000000    0.5882350000000000 H
   0.2337100000000000    0.2311400000000000    0.8139550000000000 H
   0.2337100000000000    0.7311400000000000    0.8139550000000000 H
   0.7337100000000000    0.2311400000000000    0.8139550000000000 H
   0.7337100000000000    0.7311400000000000    0.8139550000000000 H
   0.4660400000000000    0.2287400000000000    0.8382450000000000 H
   0.4660500000000000    0.7287500000000000    0.8382450000000000 H
   0.9660500000000000    0.2287400000000000    0.8382450000000000 H
   0.9660500000000000    0.7287500000000000    0.8382450000000000 H
   0.0158200000000000    0.4814200000000000    0.5641050000000000 H
   0.0158200000000000    0.9814300000000000    0.5641050000000000 H
   0.5158199999999999    0.4814200000000000    0.5641050000000000 H
   0.5158199999999999    0.9814300000000000    0.5641050000000000 H
   0.2835100000000000    0.4785100000000000    0.5882000000000001 H
   0.2835100000000000    0.9785199999999999    0.5882000000000001 H
   0.7835100000000000    0.4785100000000000    0.5882000000000001 H
   0.7835100000000000    0.9785199999999999    0.5882000000000001 H
   0.2337100000000000    0.0188600000000000    0.8139550000000000 H
   0.2337100000000000    0.5188700000000001    0.8139550000000000 H
   0.7337100000000000    0.0188600000000000    0.8139550000000000 H
   0.7337100000000000    0.5188700000000001    0.8139550000000000 H
   0.4660400000000000    0.0212600000000000    0.8382400000000000 H
   0.4660400000000000    0.5212700000000000    0.8382400000000000 H
   0.9660400000000000    0.0212600000000000    0.8382400000000000 H
   0.9660400000000000    0.5212700000000000    0.8382400000000000 H
   0.4841800000000000    0.2314200000000000    0.9358900000000000 H
   0.4841800000000000    0.7314200000000000    0.9358900000000000 H
   0.9841800000000001    0.2314200000000000    0.9358900000000000 H
   0.9841800000000001    0.7314200000000000    0.9358900000000000 H
   0.2164900000000000    0.2285100000000000    0.9117600000000000 H
   0.2164900000000000    0.7285199999999999    0.9117600000000000 H
   0.7164900000000000    0.2285100000000000    0.9117600000000000 H
   0.7164900000000000    0.7285199999999999    0.9117600000000000 H
   0.2662800000000000    0.2688700000000000    0.6860400000000000 H
   0.2662800000000000    0.7688800000000000    0.6860400000000000 H
   0.7662800000000000    0.2688700000000000    0.6860400000000000 H
   0.7662800000000000    0.7688800000000000    0.6860400000000000 H
   0.0339500000000000    0.2712600000000000    0.6617500000000001 H
   0.0339500000000000    0.7712700000000000    0.6617500000000001 H
   0.5339500000000000    0.2712600000000000    0.6617500000000001 H
   0.5339500000000000    0.7712700000000000    0.6617500000000001 H
   0.2700500000000000    0.3750100000000000    0.9611850000000000 H
   0.2700500000000000    0.8750100000000000    0.9611850000000000 H
   0.7700500000000000    0.3750100000000000    0.9611850000000000 H
   0.7700500000000000    0.8750100000000000    0.9611850000000000 H
   0.0003800000000000    0.3750000000000000    0.9811500000000000 H
   0.0003800000000000    0.8750100000000000    0.9811500000000000 H
   0.5003800000000000    0.3750000000000000    0.9811500000000000 H
   0.5003800000000000    0.8750100000000000    0.9811500000000000 H
   0.4798400000000000    0.1250000000000000    0.7110550000000000 H
   0.4798400000000000    0.6250100000000000    0.7110550000000000 H
   0.9798400000000000    0.1250000000000000    0.7110550000000000 H
   0.9798500000000000    0.6250100000000000    0.7110550000000000 H
   0.2493500000000000    0.1250000000000000    0.7313300000000000 H
   0.2493500000000000    0.6250100000000000    0.7313300000000000 H
   0.7493500000000000    0.1250000000000000    0.7313300000000000 H
   0.7493500000000000    0.6250100000000000    0.7313300000000000 H
   0.2299500000000000    0.1250000000000000    0.5388100000000000 H
   0.2299500000000000    0.6250100000000000    0.5388100000000000 H
   0.7299500000000000    0.1250000000000000    0.5388100000000000 H
   0.7299500000000000    0.6250100000000000    0.5388100000000000 H
   0.4996200000000000    0.1250000000000000    0.5188450000000000 H
   0.4996200000000000    0.6250100000000000    0.5188450000000000 H
   0.9996200000000000    0.1250000000000000    0.5188450000000000 H
   0.9996200000000000    0.6250100000000000    0.5188450000000000 H
   0.0201500000000000    0.3750000000000000    0.7889400000000000 H
   0.0201500000000000    0.8750100000000000    0.7889400000000000 H
   0.5201500000000000    0.3750000000000000    0.7889400000000000 H
   0.5201500000000000    0.8750100000000000    0.7889400000000000 H
   0.2506400000000000    0.3750000000000000    0.7686649999999999 H
   0.2506400000000000    0.8750100000000000    0.7686649999999999 H
   0.7506400000000000    0.3750000000000000    0.7686649999999999 H
   0.7506400000000000    0.8750100000000000    0.7686649999999999 H
   0.5633400000000000    0.8750100000000000    0.4671750000000000 C
   0.0496300000000000    0.1250000000000000    0.2066000000000000 C
   0.0496300000000000    0.6250100000000000    0.2066000000000000 C
   0.5496300000000000    0.1250000000000000    0.2066000000000000 C
   0.4202000000000000    0.0055800000000000    0.4252050000000000 C
   0.4202000000000000    0.5055900000000000    0.4252050000000000 C
   0.9202000000000000    0.0055800000000000    0.4252050000000000 C
   0.9202000000000000    0.5055900000000000    0.4252050000000000 C
   0.2844200000000000    0.0070600000000000    0.4123500000000000 C
   0.2844300000000000    0.5070600000000000    0.4123500000000000 C
   0.7844300000000000    0.0070600000000000    0.4123500000000000 C
   0.7844300000000000    0.5070600000000000    0.4123500000000000 C
   0.3301900000000000    0.4942400000000000    0.1753050000000000 C
   0.3301900000000000    0.9942500000000000    0.1753050000000000 C
   0.8301900000000000    0.4942400000000000    0.1753050000000000 C
   0.8301900000000000    0.9942500000000000    0.1753050000000000 C
   0.4659600000000000    0.4930200000000000    0.1624150000000000 C
   0.4659600000000000    0.9930300000000000    0.1624150000000000 C
   0.9659600000000000    0.4930200000000000    0.1624150000000000 C
   0.9659600000000000    0.9930300000000000    0.1624150000000000 C
   0.0797900000000000    0.2555900000000000    0.0747900000000000 C
   0.0797900000000000    0.7555900000000000    0.0747900000000000 C
   0.5797900000000000    0.2555900000000000    0.0747900000000000 C
   0.5797900000000000    0.7555900000000000    0.0747900000000000 C
   0.2155600000000000    0.2570600000000000    0.0876100000000000 C
   0.2155600000000000    0.7570600000000000    0.0876100000000000 C
   0.7155600000000000    0.2570600000000000    0.0876100000000000 C
   0.7155700000000000    0.7570600000000000    0.0876100000000000 C
   0.1698100000000000    0.2442400000000000    0.3246900000000000 C
   0.1698100000000000    0.7442500000000000    0.3246900000000000 C
   0.6698000000000000    0.2442400000000000    0.3246900000000000 C
   0.6698100000000000    0.7442500000000000    0.3246900000000000 C
   0.0340400000000000    0.2430200000000000    0.3375800000000000 C
   0.0340400000000000    0.7430300000000000    0.3375800000000000 C
   0.5340400000000000    0.2430200000000000    0.3375800000000000 C
   0.5340400000000000    0.7430300000000000    0.3375800000000000 C
   0.0798000000000000    0.4944300000000000    0.0747900000000000 C
   0.0798000000000000    0.9944300000000000    0.0747900000000000 C
   0.5798000000000000    0.4944300000000000    0.0747900000000000 C
   0.5798000000000000    0.9944300000000000    0.0747900000000000 C
   0.2155700000000000    0.4929500000000000    0.0876100000000000 C
   0.2155700000000000    0.9929600000000000    0.0876100000000000 C
   0.7155700000000000    0.4929500000000000    0.0876100000000000 C
   0.7155700000000000    0.9929600000000000    0.0876100000000000 C
   0.1698000000000000    0.0057600000000000    0.3246900000000000 C
   0.1698000000000000    0.5057700000000001    0.3246900000000000 C
   0.6698000000000000    0.0057600000000000    0.3246900000000000 C
   0.6698000000000000    0.5057700000000001    0.3246900000000000 C
   0.0340300000000000    0.0069800000000000    0.3375800000000000 C
   0.0340300000000000    0.5069900000000001    0.3375800000000000 C
   0.5340300000000000    0.0069800000000000    0.3375800000000000 C
   0.5340300000000000    0.5069900000000001    0.3375800000000000 C
   0.4202000000000000    0.2444200000000000    0.4252050000000000 C
   0.4202000000000000    0.7444300000000000    0.4252050000000000 C
   0.9202000000000000    0.2444200000000000    0.4252050000000000 C
   0.9202000000000000    0.7444300000000000    0.4252050000000000 C
   0.2844300000000000    0.2429500000000000    0.4123500000000000 C
   0.2844300000000000    0.7429600000000000    0.4123500000000000 C
   0.7844300000000000    0.2429500000000000    0.4123500000000000 C
   0.7844300000000000    0.7429600000000000    0.4123500000000000 C
   0.3301900000000000    0.2557700000000000    0.1753050000000000 C
   0.3301900000000000    0.7557700000000001    0.1753050000000000 C
   0.8301900000000000    0.2557700000000000    0.1753050000000000 C
   0.8301900000000000    0.7557700000000001    0.1753050000000000 C
   0.4659600000000000    0.2569800000000000    0.1624150000000000 C
   0.4659600000000000    0.7569900000000001    0.1624150000000000 C
   0.9659600000000000    0.2569800000000000    0.1624150000000000 C
   0.9659600000000000    0.7569900000000001    0.1624150000000000 C
   0.2003000000000000    0.3750100000000000    0.4566450000000000 C
   0.2003000000000000    0.8750100000000000    0.4566450000000000 C
   0.7003000000000000    0.3750100000000000    0.4566450000000000 C
   0.7003000000000000    0.8750100000000000    0.4566450000000000 C
   0.0633400000000000    0.3750000000000000    0.4671750000000000 C
   0.0633400000000000    0.8750100000000000    0.4671750000000000 C
   0.5633400000000000    0.3750000000000000    0.4671750000000000 C
   0.5496300000000000    0.6250100000000000    0.2066000000000000 C
   0.1864900000000000    0.1250000000000000    0.2172800000000000 C
   0.1864900000000000    0.6250100000000000    0.2172800000000000 C
   0.6864900000000000    0.1250000000000000    0.2172800000000000 C
   0.6864900000000000    0.6250100000000000    0.2172800000000000 C
   0.2997000000000000    0.1250000000000000    0.0433500000000000 C
   0.7997000000000000    0.1250000000000000    0.0433500000000000 C
   0.7997000000000000    0.6250100000000000    0.0433500000000000 C
   0.4366500000000000    0.1250000000000000    0.0328200000000000 C
   0.9366500000000000    0.1250000000000000    0.0328200000000000 C
   0.9366600000000000    0.6250100000000000    0.0328200000000000 C
   0.4503700000000000    0.3750100000000000    0.2933950000000000 C
   0.4503700000000000    0.8750100000000000    0.2933950000000000 C
   0.9503700000000000    0.3750100000000000    0.2933950000000000 C
   0.9503700000000000    0.8750100000000000    0.2933950000000000 C
   0.3135100000000000    0.3750000000000000    0.2827150000000000 C
   0.3135100000000000    0.8750100000000000    0.2827150000000000 C
   0.8135100000000000    0.3750000000000000    0.2827150000000000 C
   0.8135100000000000    0.8750100000000000    0.2827150000000000 C
   0.5633400000000000    0.8750100000000000    0.9671750000000000 C
   0.0496300000000000    0.1250000000000000    0.7066000000000000 C
   0.0496300000000000    0.6250100000000000    0.7066000000000000 C
   0.5496300000000000    0.1250000000000000    0.7066000000000000 C
   0.4202000000000000    0.0055800000000000    0.9252050000000001 C
   0.4202000000000000    0.5055900000000000    0.9252050000000001 C
   0.9202000000000000    0.0055800000000000    0.9252050000000001 C
   0.9202000000000000    0.5055900000000000    0.9252050000000001 C
   0.2844200000000000    0.0070600000000000    0.9123500000000000 C
   0.2844300000000000    0.5070600000000000    0.9123500000000000 C
   0.7844300000000000    0.0070600000000000    0.9123500000000000 C
   0.7844300000000000    0.5070600000000000    0.9123500000000000 C
   0.3301900000000000    0.4942400000000000    0.6753050000000000 C
   0.3301900000000000    0.9942500000000000    0.6753050000000000 C
   0.8301900000000000    0.4942400000000000    0.6753050000000000 C
   0.8301900000000000    0.9942500000000000    0.6753050000000000 C
   0.4659600000000000    0.4930200000000000    0.6624150000000000 C
   0.4659600000000000    0.9930300000000000    0.6624150000000000 C
   0.9659600000000000    0.4930200000000000    0.6624150000000000 C
   0.9659600000000000    0.9930300000000000    0.6624150000000000 C
   0.0797900000000000    0.2555900000000000    0.5747900000000000 C
   0.0797900000000000    0.7555900000000000    0.5747900000000000 C
   0.5797900000000000    0.2555900000000000    0.5747900000000000 C
   0.5797900000000000    0.7555900000000000    0.5747900000000000 C
   0.2155600000000000    0.2570600000000000    0.5876100000000000 C
   0.2155600000000000    0.7570600000000000    0.5876100000000000 C
   0.7155600000000000    0.2570600000000000    0.5876100000000000 C
   0.7155700000000000    0.7570600000000000    0.5876100000000000 C
   0.1698100000000000    0.2442400000000000    0.8246899999999999 C
   0.1698100000000000    0.7442500000000000    0.8246899999999999 C
   0.6698000000000000    0.2442400000000000    0.8246899999999999 C
   0.6698100000000000    0.7442500000000000    0.8246899999999999 C
   0.0340400000000000    0.2430200000000000    0.8375800000000000 C
   0.0340400000000000    0.7430300000000000    0.8375800000000000 C
   0.5340400000000000    0.2430200000000000    0.8375800000000000 C
   0.5340400000000000    0.7430300000000000    0.8375800000000000 C
   0.0798000000000000    0.4944300000000000    0.5747900000000000 C
   0.0798000000000000    0.9944300000000000    0.5747900000000000 C
   0.5798000000000000    0.4944300000000000    0.5747900000000000 C
   0.5798000000000000    0.9944300000000000    0.5747900000000000 C
   0.2155700000000000    0.4929500000000000    0.5876100000000000 C
   0.2155700000000000    0.9929600000000000    0.5876100000000000 C
   0.7155700000000000    0.4929500000000000    0.5876100000000000 C
   0.7155700000000000    0.9929600000000000    0.5876100000000000 C
   0.1698000000000000    0.0057600000000000    0.8246899999999999 C
   0.1698000000000000    0.5057700000000001    0.8246899999999999 C
   0.6698000000000000    0.0057600000000000    0.8246899999999999 C
   0.6698000000000000    0.5057700000000001    0.8246899999999999 C
   0.0340300000000000    0.0069800000000000    0.8375800000000000 C
   0.0340300000000000    0.5069900000000001    0.8375800000000000 C
   0.5340300000000000    0.0069800000000000    0.8375800000000000 C
   0.5340300000000000    0.5069900000000001    0.8375800000000000 C
   0.4202000000000000    0.2444200000000000    0.9252050000000001 C
   0.4202000000000000    0.7444300000000000    0.9252050000000001 C
   0.9202000000000000    0.2444200000000000    0.9252050000000001 C
   0.9202000000000000    0.7444300000000000    0.9252050000000001 C
   0.2844300000000000    0.2429500000000000    0.9123500000000000 C
   0.2844300000000000    0.7429600000000000    0.9123500000000000 C
   0.7844300000000000    0.2429500000000000    0.9123500000000000 C
   0.7844300000000000    0.7429600000000000    0.9123500000000000 C
   0.3301900000000000    0.2557700000000000    0.6753050000000000 C
   0.3301900000000000    0.7557700000000001    0.6753050000000000 C
   0.8301900000000000    0.2557700000000000    0.6753050000000000 C
   0.8301900000000000    0.7557700000000001    0.6753050000000000 C
   0.4659600000000000    0.2569800000000000    0.6624150000000000 C
   0.4659600000000000    0.7569900000000001    0.6624150000000000 C
   0.9659600000000000    0.2569800000000000    0.6624150000000000 C
   0.9659600000000000    0.7569900000000001    0.6624150000000000 C
   0.2003000000000000    0.3750100000000000    0.9566450000000000 C
   0.2003000000000000    0.8750100000000000    0.9566450000000000 C
   0.7003000000000000    0.3750100000000000    0.9566450000000000 C
   0.7003000000000000    0.8750100000000000    0.9566450000000000 C
   0.0633400000000000    0.3750000000000000    0.9671750000000000 C
   0.0633400000000000    0.8750100000000000    0.9671750000000000 C
   0.5633400000000000    0.3750000000000000    0.9671750000000000 C
   0.5496300000000000    0.6250100000000000    0.7066000000000000 C
   0.1864900000000000    0.1250000000000000    0.7172800000000000 C
   0.1864900000000000    0.6250100000000000    0.7172800000000000 C
   0.6864900000000000    0.1250000000000000    0.7172800000000000 C
   0.6864900000000000    0.6250100000000000    0.7172800000000000 C
   0.2997000000000000    0.1250000000000000    0.5433500000000000 C
   0.2997000000000000    0.6250100000000000    0.5433500000000000 C
   0.7997000000000000    0.1250000000000000    0.5433500000000000 C
   0.7997000000000000    0.6250100000000000    0.5433500000000000 C
   0.4366500000000000    0.1250000000000000    0.5328200000000000 C
   0.4366600000000000    0.6250100000000000    0.5328200000000000 C
   0.9366500000000000    0.1250000000000000    0.5328200000000000 C
   0.9366600000000000    0.6250100000000000    0.5328200000000000 C