H8 C10 N2
1.0
  22.2070000000000007    0.0000000000000000    0.0000000000000014
   0.0000000000000023   14.0079999999999991    0.0000000000000009
   0.0000000000000000    0.0000000000000000   32.3500000000000014
H C N
8 10 2
direct
   0.3430000000000000    0.7477900000000000    0.0003600000000000 H
   0.3475700000000000    0.5710100000000000    0.0002950000000000 H
   0.1569500000000000    0.2521300000000000    0.0003450000000000 H
   0.1523500000000000    0.4289200000000000    0.0002900000000000 H
   0.1569500000000000    0.7478399999999999    0.9996600000000000 H
   0.1523500000000000    0.5710499999999999    0.9997000000000000 H
   0.3430000000000000    0.2521800000000000    0.9996000000000000 H
   0.3475600000000000    0.4289600000000000    0.9997000000000000 H
   0.2499600000000000    0.5529800000000000    0.0000000000000000 C
   0.3020600000000000    0.7048700000000000    0.0001500000000000 C
   0.3037900000000000    0.6057900000000001    0.0001600000000000 C
   0.1978900000000000    0.2950800000000000    0.0001700000000000 C
   0.1961400000000000    0.3941600000000000    0.0001500000000000 C
   0.2499600000000000    0.4469900000000000    0.9999950000000000 C
   0.1978900000000000    0.7048900000000000    0.9998250000000000 C
   0.1961400000000000    0.6058100000000000    0.9998400000000001 C
   0.3020600000000000    0.2951100000000000    0.9998300000000000 C
   0.3037900000000000    0.3941800000000000    0.9998350000000000 C
   0.2499800000000000    0.7539600000000000    0.0000000000000000 N
   0.2499800000000000    0.2460100000000000    0.9999950000000000 N
