H4 O2
1.0
  22.2070000000000007    0.0000000000000000    0.0000000000000014
   0.0000000000000023   14.0079999999999991    0.0000000000000009
   0.0000000000000000    0.0000000000000000   32.3500000000000014
H O
4 2
direct
   0.2878558217181135    0.7182586926239978    0.0001090893482665 H
   0.2120983388051471    0.7182745879279817   -0.0001272660915550 H
   0.2120983388051471    0.2816954120720183    1.0001222660915550 H
   0.2878537547747554    0.2817166313256623    0.9998750082654025 H
   0.2499800000000000    0.7539600000000000    0.0000000000000000 O
   0.2499800000000000    0.2460100000000000    0.9999950000000000 O
