H16 C34 O8
1.0
  22.2070000000000007    0.0000000000000000    0.0000000000000014
   0.0000000000000023   14.0079999999999991    0.0000000000000009
   0.0000000000000000    0.0000000000000000   32.3500000000000014
H C O
16 34 8
direct
   0.9311400000000000    0.8456700000000000    0.3320200000000000 H
   0.8722000000000000    0.8456700000000000    0.3979000000000000 H
   0.0692000000000000    0.1527800000000000    0.3324450000000000 H
   0.1281300000000000    0.1514700000000000    0.3983250000000000 H
   0.0691100000000000    0.8474200000000000    0.1675750000000000 H
   0.1280600000000000    0.8486100000000000    0.1017000000000000 H
   0.9311400000000000    0.1543500000000000    0.1679900000000000 H
   0.8722000000000000    0.1543500000000000    0.1021050000000000 H
   0.0688800000000000    0.1544500000000000    0.1679700000000000 H
   0.1278200000000000    0.1544000000000000    0.1020900000000000 H
   0.9308500000000000    0.8473100000000000    0.1675700000000000 H
   0.8719200000000000    0.8485600000000000    0.1016900000000000 H
   0.9308800000000000    0.1527100000000000    0.3324500000000000 H
   0.8719400000000000    0.1514600000000000    0.3983250000000000 H
   0.0688300000000000    0.8457400000000000    0.3320050000000000 H
   0.1277700000000000    0.8456800000000000    0.3978850000000000 H
   0.9185900000000000    0.9127999999999999    0.3467550000000000 C
   0.8858700000000000    0.9124600000000000    0.3834550000000000 C
   0.0816100000000000    0.0853600000000000    0.3469900000000000 C
   0.1143200000000000    0.0849800000000000    0.3836900000000000 C
   0.0815500000000000    0.9148100000000000    0.1530200000000000 C
   0.1142700000000000    0.9151300000000000    0.1163250000000000 C
   0.9185800000000000    0.0872200000000000    0.1532550000000000 C
   0.8858600000000000    0.0875600000000000    0.1165550000000000 C
   0.0814200000000000    0.0873100000000000    0.1532400000000000 C
   0.1141400000000000    0.0876200000000000    0.1165400000000000 C
   0.9184200000000000    0.9147200000000000    0.1530200000000000 C
   0.8857000000000000    0.9150700000000001    0.1163250000000000 C
   0.9184400000000000    0.0853000000000000    0.3469950000000000 C
   0.8857300000000000    0.0849500000000000    0.3836900000000000 C
   0.0814000000000000    0.9128600000000000    0.3467450000000000 C
   0.1141200000000000    0.9124800000000000    0.3834450000000000 C
   0.9378700000000000    0.9999700000000000    0.2500050000000000 C
   0.0621300000000000    0.0001500000000000    0.2500000000000000 C
   0.9682300000000000    0.9996100000000000    0.2880500000000000 C
   0.9348000000000000    0.9992100000000000    0.3279900000000000 C
   0.8688300000000000    0.9985200000000000    0.4021500000000000 C
   0.8304300000000000    0.9981900000000000    0.4402900000000000 C
   0.0317900000000000    0.9996900000000000    0.2880500000000000 C
   0.0652300000000000    0.9992900000000000    0.3279800000000000 C
   0.1311800000000000    0.9985300000000000    0.4021500000000000 C
   0.1695900000000000    0.9981800000000000    0.4402500000000000 C
   0.0317800000000000    0.0005000000000000    0.2119550000000000 C
   0.0652100000000000    0.0008800000000000    0.1720200000000000 C
   0.1311700000000000    0.0015200000000000    0.0978550000000000 C
   0.1695800000000000    0.0018200000000000    0.0597200000000000 C
   0.9682200000000000    0.0004100000000000    0.2119600000000000 C
   0.9347800000000001    0.0007800000000000    0.1720250000000000 C
   0.8688100000000000    0.0014800000000000    0.0978650000000000 C
   0.8304300000000000    0.0018100000000000    0.0597150000000000 C
   0.8150400000000000    0.9170900000000000    0.4547350000000000 O
   0.1851200000000000    0.0791100000000000    0.4548450000000000 O
   0.1851100000000000    0.9209100000000000    0.0451700000000000 O
   0.8150400000000000    0.0829400000000000    0.0452750000000000 O
   0.1849600000000000    0.0829400000000000    0.0452700000000000 O
   0.8148800000000000    0.9209000000000001    0.0451650000000000 O
   0.8148900000000000    0.0791300000000000    0.4548400000000000 O
   0.1849600000000000    0.9170800000000000    0.4547350000000000 O
