H12 O8
1.0
  22.2070000000000007    0.0000000000000000    0.0000000000000014
   0.0000000000000023   14.0079999999999991    0.0000000000000009
   0.0000000000000000    0.0000000000000000   32.3500000000000014
H O
12 8
direct
   0.8106300676728267    0.9143332374869456    0.0748714993761034 H
   0.8108024865639665    0.0892596128600088    0.0749923844745809 H
   0.8289495848528213    0.1406740962038916    0.4450557710675282 H
   0.8290406283123380    0.8554778400438321    0.4449913363711236 H
   0.8334244867835958   -0.0024341797597073    0.4419410214167271 H
   0.7615972507649453    1.0003631928288750    0.4188331827168350 H
   0.1940836556441555    0.9023546825125954    0.0733935709489934 H
   0.1939132933368779    0.1009833981974992    0.0735587771719753 H
   0.2247177503005170    0.0007307300363684    0.1703144334923666 H
   0.1939103020821220    0.8990286845044154    0.4264467238511136 H
   0.1940942201919114    0.0976537814597723    0.4266200920565459 H
   0.2247213587750896    0.9992404475822230    0.3296811605427215 H
   0.8148800000000000    0.9209000000000001    0.0451650000000000 O
   0.8150400000000000    0.0829400000000000    0.0452750000000000 O
   0.8148900000000000    0.0791300000000000    0.4548400000000000 O
   0.8150400000000000    0.9170900000000000    0.4547350000000000 O
   0.1851100000000000    0.9209100000000000    0.0451700000000000 O
   0.1849600000000000    0.0829400000000000    0.0452700000000000 O
   0.1849600000000000    0.9170800000000000    0.4547350000000000 O
   0.1851200000000000    0.0791100000000000    0.4548450000000000 O
