H4 C6 N1 O2
1.0
  38.3159954246854397    0.0000000000000000   -0.0187247292281292
   0.0018345098579820   15.0999851694505978   -0.0210835705135033
   0.0000000000000000    0.0000000000000000   19.4450000000000003
H C N O
4 6 1 2
direct
   0.6254566666666665    0.1533300000000000    0.4631800000000000 H
   0.6530766666666666    0.4099400000000000    0.4124400000000000 H
   0.6666666666666666    0.1508200000000000    0.5627600000000000 H
   0.6977399999999999    0.4161000000000000    0.5083600000000000 H
   0.6420800000000000    0.2098900000000000    0.4750700000000000 C
   0.6653700000000000    0.2088600000000000    0.5299000000000000 C
   0.6576366666666666    0.3538700000000000    0.4465400000000000 C
   0.6863733333333333    0.2830900000000000    0.5417200000000000 C
   0.6818000000000000    0.3574000000000000    0.4997000000000000 C
   0.7152333333333333    0.2818400000000000    0.5944000000000000 C
   0.6385500000000000    0.2806000000000000    0.4331900000000000 N
   0.7170966666666666    0.2142200000000000    0.6342600000000000 O
   0.7368533333333332    0.3448000000000000    0.5946000000000000 O
