H6 O4
1.0
   8.5146119710936077    0.0000000000000000   -2.0159074834201669
  -4.2371995328661605   10.6364264841961500   -5.2532828559834366
   0.0000000000000000    0.0000000000000000   37.7940000000000040
H O
6 4
direct
   0.7412337682013745    0.4440265097233952    0.5802040300438576 H
  -0.2133477703191262    0.5800802050322821    0.5757620706909176 H
   0.3082018581969354    0.8089529249285317    0.5245023234496656 H
   0.2179611944340815    0.8251287912986178    0.5670278025883007 H
   0.1209769110087200    0.6418305436849021    0.5546754845826737 H
   0.3250159544644015    0.6330421752670883    0.5853777833446144 H
   0.6236100000000000    0.4181100000000000    0.5773166666666667 O
  -0.1435100000000000    0.5298100000000000    0.5738766666666666 O
   0.2804200000000000    0.7188000000000000    0.5100733333333334 O
   0.1475400000000000    0.5966100000000000    0.5304533333333333 O
