H10 O7
1.0
  14.6369772584821618    0.0000000000000000   -0.0258018347412706
   0.0047797328171397   15.1104200959569219   -1.0375440606814748
   0.0000000000000000    0.0000000000000000   32.1640000000000015
H O
10 7
direct
   0.0934335286186281    0.4847487727419499    0.1204037534026583 H
   0.0982259391391644    0.4531574192148526    0.1507857606109659 H
   0.0869931479019228    0.5577461106744783    0.0571886949946148 H
   0.2323438891865833    0.2334975600805734    0.0220060181209713 H
   0.9011291904089610    0.4771842024977657    0.0405000558320152 H
   0.0014015159212420    0.4066444703240767    0.0324116168309445 H
   0.0470864888721220    0.3137074310727599    0.0043107502541570 H
   1.1410284054791497    0.1466322285890044    0.9739631862696164 H
   0.1710797063722389    0.1642575025969608    0.9606525915494195 H
   0.9910149109788322    0.1993404076306667    0.9652881689476080 H
   0.1092500000000000    0.5006000000000000    0.1326400000000000 O
   0.1175000000000000    0.5883200000000000    0.0807900000000000 O
   0.2932300000000000    0.2517800000000000    0.0134800000000000 O
   0.8512100000000000    0.4631200000000000    0.0208800000000000 O
   0.0000000000000000    0.3585600000000000    0.0104900000000000 O
   0.1166300000000000    0.1942400000000000    0.9517100000000001 O
   0.9696700000000000    0.2409900000000000    0.9458200000000000 O
