H8 C10 N2
1.0
  14.6369772584821618    0.0000000000000000   -0.0258018347412706
   0.0047797328171397   15.1104200959569219   -1.0375440606814748
   0.0000000000000000    0.0000000000000000   32.1640000000000015
H C N
8 10 2
direct
   0.7515300000000000    0.7144200000000001    0.0670900000000000 H
   0.5961200000000000    0.6543300000000000    0.0728000000000000 H
   0.5271900000000000    0.8912200000000000    0.1499700000000000 H
   0.6843300000000000    0.9417700000000000    0.1406450000000000 H
   0.3292200000000000    0.5416400000000000    0.1132350000000000 H
   0.4835100000000000    0.5949900000000000    0.0986250000000000 H
   0.3922800000000000    0.8584700000000000    0.1414500000000000 H
   0.2436800000000000    0.7934500000000000    0.1567850000000000 H
   0.6996700000000000    0.7508200000000000    0.0853750000000000 C
   0.6119500000000000    0.7181200000000000    0.0887450000000000 C
   0.5461600000000000    0.7671300000000000    0.1123900000000000 C
   0.5733600000000000    0.8493500000000000    0.1309650000000000 C
   0.6623300000000000    0.8783300000000001    0.1262600000000000 C
   0.3456000000000000    0.6115800000000000    0.1184500000000000 C
   0.4322100000000000    0.6425700000000000    0.1100750000000000 C
   0.4529600000000000    0.7325500000000000    0.1186000000000000 C
   0.3826300000000000    0.7877500000000000    0.1347250000000000 C
   0.2979100000000000    0.7522000000000000    0.1428500000000000 C
   0.7251300000000001    0.8299299999999999    0.1041800000000000 N
   0.2795000000000000    0.6651500000000000    0.1351650000000000 N
