H4 C8 O4
1.0
  26.8339880821574788    0.0000000000000000   -0.0252904454358258
  -0.0255882520961436   13.8309763279055034   -0.0002413964888327
   0.0000000000000000    0.0000000000000000   32.3939999999999984
H C O
4 8 4
direct
   0.3920800000000000    0.7032000000000000    0.6588900000000000 H
   0.3921300000000000    0.8202700000000001    0.5994850000000000 H
   0.2329300000000000    0.6794300000000000    0.6502900000000000 H
   0.2330650000000000    0.7967400000000000    0.5909300000000000 H
   0.3122900000000000    0.6161600000000000    0.6936900000000000 C
   0.3124600000000000    0.6850700000000000    0.6581850000000000 C
   0.3574900000000000    0.7243100000000000    0.6438450000000000 C
   0.3128000000000000    0.8839200000000000    0.5562800000000000 C
   0.3126100000000000    0.8150300000000000    0.5918850000000000 C
   0.3575800000000000    0.7888500000000001    0.6109350000000000 C
   0.2675050000000000    0.7111499999999999    0.6390500000000000 C
   0.2675750000000000    0.7757300000000000    0.6061500000000000 C
   0.2705650000000000   -0.0920299999999999    0.5415050000000000 O
   0.2699500000000000    0.5876400000000001    0.7067600000000001 O
   0.3552350000000000   -0.0879299999999999    0.5433200000000000 O
   0.3544650000000000    0.5917200000000000    0.7085350000000000 O
