Al32 H124 C248 O124
1.0
  26.8339880821574788    0.0000000000000000   -0.0252904454358258
  -0.0255882520961436   13.8309763279055034   -0.0002413964888327
   0.0000000000000000    0.0000000000000000   32.3939999999999984
Al H C O
32 124 248 124
direct
   0.2500050000000000    0.0000000000000000    0.4999900000000000 Al
   0.3750000000000000    0.5000200000000000    0.2500000000000000 Al
   0.1250000000000000    0.5000100000000000    0.2500050000000000 Al
   0.3750000000000000    0.0000100000000000    0.0000050000000000 Al
   0.1249950000000000    0.9999900000000000    0.4999900000000000 Al
   0.4999850000000000    0.5000100000000000    0.2500350000000000 Al
   0.2500200000000000    0.5000200000000000    0.2499700000000000 Al
   0.4999950000000000    0.0000000000000000    0.0000100000000000 Al
   0.7500050000000000    0.0000000000000000    0.4999900000000000 Al
   0.8750000000000000    0.5000200000000000    0.2500000000000000 Al
   0.6250000000000000    0.5000100000000000    0.2500050000000000 Al
   0.8750000000000000    0.0000100000000000    0.0000050000000000 Al
   0.6249950000000000    0.9999900000000000    0.4999900000000000 Al
   0.9999850000000000    0.5000100000000000    0.2500350000000000 Al
   0.7500200000000000    0.5000200000000000    0.2499700000000000 Al
   0.9999950000000000    0.0000000000000000    0.0000100000000000 Al
   0.2500050000000000    0.0000000000000000    0.9999899999999999 Al
   0.3750000000000000    0.5000200000000000    0.7500000000000000 Al
   0.1250000000000000    0.5000100000000000    0.7500050000000000 Al
   0.3750000000000000    0.0000100000000000    0.5000050000000000 Al
   0.1249950000000000    0.9999900000000000    0.9999899999999999 Al
   0.4999850000000000    0.5000100000000000    0.7500350000000000 Al
   0.2500200000000000    0.5000200000000000    0.7499700000000000 Al
   0.4999950000000000    0.0000000000000000    0.5000100000000000 Al
   0.7500050000000000    0.0000000000000000    0.9999899999999999 Al
   0.8750000000000000    0.5000200000000000    0.7500000000000000 Al
   0.6250000000000000    0.5000100000000000    0.7500050000000000 Al
   0.8750000000000000    0.0000100000000000    0.5000050000000000 Al
   0.6249950000000000    0.9999900000000000    0.9999899999999999 Al
   0.9999850000000000    0.5000100000000000    0.7500350000000000 Al
   0.7500200000000000    0.5000200000000000    0.7499700000000000 Al
   0.9999950000000000    0.0000000000000000    0.5000100000000000 Al
   0.3920800000000000    0.7032000000000000    0.1588900000000000 H
   0.1419450000000000    0.7033000000000000    0.1590650000000000 H
   0.3921300000000000    0.8202700000000001    0.0994850000000000 H
   0.1421400000000000    0.8203900000000000    0.0996500000000000 H
   0.2329300000000000    0.6794300000000000    0.1502900000000000 H
   0.0000000000000000    0.6793500000000000    0.1501250000000000 H
   0.2330650000000000    0.7967400000000000    0.0909300000000000 H
   0.0000000000000000    0.7966500000000000    0.0907650000000000 H
   0.2325650000000000    0.7980800000000000    0.4077700000000000 H
   0.0000000000000000    0.7981300000000000    0.4076300000000000 H
   0.2331250000000000    0.6809800000000000    0.3483550000000000 H
   0.0000000000000000    0.6810700000000000    0.3482100000000000 H
   0.3919250000000000    0.8194200000000000    0.4014000000000000 H
   0.1418950000000000    0.8191400000000000    0.4015900000000000 H
   0.3924050000000000    0.7021300000000000    0.3420350000000000 H
   0.1424850000000000    0.7018200000000000    0.3422400000000000 H
   0.3579150000000000    0.2967700000000000    0.3410850000000000 H
   0.1080650000000000    0.2967400000000000    0.3409500000000000 H
   0.3578550000000000    0.1797100000000000    0.4004850000000000 H
   0.1078800000000000    0.1796600000000000    0.4003700000000000 H
   0.0170550000000000    0.3206400000000000    0.3497300000000000 H
   0.2671800000000000    0.3206600000000000    0.3498700000000000 H
   0.0169150000000000    0.2033400000000000    0.4090950000000000 H
   0.2669200000000000    0.2033500000000000    0.4092200000000000 H
   0.0174600000000000    0.2019800000000000    0.0922400000000000 H
   0.2674700000000000    0.2018900000000000    0.0923700000000000 H
   0.0168900000000000    0.3190800000000000    0.1516500000000000 H
   0.2668200000000000    0.3189400000000000    0.1517950000000000 H
   0.3581000000000000    0.1805900000000000    0.0986050000000000 H
   0.1080850000000000    0.1809300000000000    0.0984200000000000 H
   0.3576150000000000    0.2978700000000000    0.1579750000000000 H
   0.1075050000000000    0.2982400000000000    0.1577650000000000 H
   0.8920800000000000    0.7032000000000000    0.1588900000000000 H
   0.6419450000000000    0.7033000000000000    0.1590650000000000 H
   0.8921300000000000    0.8202700000000001    0.0994850000000000 H
   0.6421399999999999    0.8203900000000000    0.0996500000000000 H
   0.7329300000000000    0.6794300000000000    0.1502900000000000 H
   0.5000000000000000    0.6793500000000000    0.1501250000000000 H
   0.7330650000000000    0.7967400000000000    0.0909300000000000 H
   0.5000000000000000    0.7966500000000000    0.0907650000000000 H
   0.7325650000000000    0.7980800000000000    0.4077700000000000 H
   0.5000000000000000    0.7981300000000000    0.4076300000000000 H
   0.7331250000000000    0.6809800000000000    0.3483550000000000 H
   0.5000000000000000    0.6810700000000000    0.3482100000000000 H
   0.8919250000000001    0.8194200000000000    0.4014000000000000 H
   0.6418950000000000    0.8191400000000000    0.4015900000000000 H
   0.8924050000000000    0.7021300000000000    0.3420350000000000 H
   0.6424850000000000    0.7018200000000000    0.3422400000000000 H
   0.8579150000000000    0.2967700000000000    0.3410850000000000 H
   0.6080650000000000    0.2967400000000000    0.3409500000000000 H
   0.8578550000000000    0.1797100000000000    0.4004850000000000 H
   0.6078800000000000    0.1796600000000000    0.4003700000000000 H
   0.5170550000000000    0.3206400000000000    0.3497300000000000 H
   0.7671800000000000    0.3206600000000000    0.3498700000000000 H
   0.5169150000000000    0.2033400000000000    0.4090950000000000 H
   0.7669200000000000    0.2033500000000000    0.4092200000000000 H
   0.5174600000000000    0.2019800000000000    0.0922400000000000 H
   0.7674700000000000    0.2018900000000000    0.0923700000000000 H
   0.5168900000000000    0.3190800000000000    0.1516500000000000 H
   0.7668200000000001    0.3189400000000000    0.1517950000000000 H
   0.8581000000000000    0.1805900000000000    0.0986050000000000 H
   0.6080850000000000    0.1809300000000000    0.0984200000000000 H
   0.8576150000000000    0.2978700000000000    0.1579750000000000 H
   0.6075050000000000    0.2982400000000000    0.1577650000000000 H
   0.1419450000000000    0.7033000000000000    0.6590650000000000 H
   0.1421400000000000    0.8203900000000000    0.5996500000000000 H
   0.0000000000000000    0.6793500000000000    0.6501250000000001 H
   0.0000000000000000    0.7966500000000000    0.5907650000000000 H
   0.2325650000000000    0.7980800000000000    0.9077700000000000 H
   0.0000000000000000    0.7981300000000000    0.9076299999999999 H
   0.2331250000000000    0.6809800000000000    0.8483550000000000 H
   0.0000000000000000    0.6810700000000000    0.8482100000000000 H
   0.3919250000000000    0.8194200000000000    0.9014000000000000 H
   0.1418950000000000    0.8191400000000000    0.9015900000000000 H
   0.3924050000000000    0.7021300000000000    0.8420350000000000 H
   0.1424850000000000    0.7018200000000000    0.8422400000000000 H
   0.3579150000000000    0.2967700000000000    0.8410850000000001 H
   0.1080650000000000    0.2967400000000000    0.8409500000000000 H
   0.3578550000000000    0.1797100000000000    0.9004850000000000 H
   0.1078800000000000    0.1796600000000000    0.9003700000000000 H
   0.0170550000000000    0.3206400000000000    0.8497300000000000 H
   0.2671800000000000    0.3206600000000000    0.8498700000000000 H
   0.0169150000000000    0.2033400000000000    0.9090950000000000 H
   0.2669200000000000    0.2033500000000000    0.9092199999999999 H
   0.0174600000000000    0.2019800000000000    0.5922400000000000 H
   0.2674700000000000    0.2018900000000000    0.5923700000000000 H
   0.0168900000000000    0.3190800000000000    0.6516500000000001 H
   0.2668200000000000    0.3189400000000000    0.6517950000000000 H
   0.3581000000000000    0.1805900000000000    0.5986050000000001 H
   0.1080850000000000    0.1809300000000000    0.5984200000000000 H
   0.3576150000000000    0.2978700000000000    0.6579750000000000 H
   0.1075050000000000    0.2982400000000000    0.6577649999999999 H
   0.8920800000000000    0.7032000000000000    0.6588900000000000 H
   0.6419450000000000    0.7033000000000000    0.6590650000000000 H
   0.8921300000000000    0.8202700000000001    0.5994850000000000 H
   0.6421399999999999    0.8203900000000000    0.5996500000000000 H
   0.7329300000000000    0.6794300000000000    0.6502900000000000 H
   0.5000000000000000    0.6793500000000000    0.6501250000000001 H
   0.7330650000000000    0.7967400000000000    0.5909300000000000 H
   0.5000000000000000    0.7966500000000000    0.5907650000000000 H
   0.7325650000000000    0.7980800000000000    0.9077700000000000 H
   0.5000000000000000    0.7981300000000000    0.9076299999999999 H
   0.7331250000000000    0.6809800000000000    0.8483550000000000 H
   0.5000000000000000    0.6810700000000000    0.8482100000000000 H
   0.8919250000000001    0.8194200000000000    0.9014000000000000 H
   0.6418950000000000    0.8191400000000000    0.9015900000000000 H
   0.8924050000000000    0.7021300000000000    0.8420350000000000 H
   0.6424850000000000    0.7018200000000000    0.8422400000000000 H
   0.8579150000000000    0.2967700000000000    0.8410850000000001 H
   0.6080650000000000    0.2967400000000000    0.8409500000000000 H
   0.8578550000000000    0.1797100000000000    0.9004850000000000 H
   0.6078800000000000    0.1796600000000000    0.9003700000000000 H
   0.5170550000000000    0.3206400000000000    0.8497300000000000 H
   0.7671800000000000    0.3206600000000000    0.8498700000000000 H
   0.5169150000000000    0.2033400000000000    0.9090950000000000 H
   0.7669200000000000    0.2033500000000000    0.9092199999999999 H
   0.5174600000000000    0.2019800000000000    0.5922400000000000 H
   0.7674700000000000    0.2018900000000000    0.5923700000000000 H
   0.5168900000000000    0.3190800000000000    0.6516500000000001 H
   0.7668200000000001    0.3189400000000000    0.6517950000000000 H
   0.8581000000000000    0.1805900000000000    0.5986050000000001 H
   0.6080850000000000    0.1809300000000000    0.5984200000000000 H
   0.8576150000000000    0.2978700000000000    0.6579750000000000 H
   0.6075050000000000    0.2982400000000000    0.6577649999999999 H
   0.3122900000000000    0.6161600000000000    0.1936900000000000 C
   0.0621250000000000    0.6162400000000000    0.1937250000000000 C
   0.3124600000000000    0.6850700000000000    0.1581850000000000 C
   0.0623400000000000    0.6851000000000000    0.1581950000000000 C
   0.3574900000000000    0.7243100000000000    0.1438450000000000 C
   0.1074000000000000    0.7243900000000000    0.1439350000000000 C
   0.3128000000000000    0.8839200000000000    0.0562800000000000 C
   0.0628700000000000    0.8839399999999999    0.0562850000000000 C
   0.3126100000000000    0.8150300000000000    0.0918850000000000 C
   0.0626400000000000    0.8150500000000001    0.0918850000000000 C
   0.3575800000000000    0.7888500000000001    0.1109350000000000 C
   0.1075600000000000    0.7889200000000000    0.1110250000000000 C
   0.2675050000000000    0.7111499999999999    0.1390500000000000 C
   0.0174400000000000    0.7111200000000000    0.1389650000000000 C
   0.2675750000000000    0.7757300000000000    0.1061500000000000 C
   0.0175750000000000    0.7756900000000000    0.1060600000000000 C
   0.3120250000000000    0.8838000000000000    0.4437150000000000 C
   0.0619400000000000    0.8837500000000000    0.4437250000000000 C
   0.3122500000000000    0.8149600000000000    0.4081850000000000 C
   0.0622000000000000    0.8148700000000000    0.4082050000000000 C
   0.2673300000000000    0.7764600000000000    0.3931900000000000 C
   0.0173050000000000    0.7764500000000000    0.3931250000000000 C
   0.3130200000000000    0.6161900000000000    0.3062600000000000 C
   0.0631100000000000    0.6160900000000000    0.3062800000000000 C
   0.3127850000000000    0.6850500000000000    0.3418700000000000 C
   0.0628550000000000    0.6849400000000000    0.3418950000000000 C
   0.2675850000000000    0.7119200000000000    0.3602800000000000 C
   0.0176150000000000    0.7119100000000000    0.3602100000000000 C
   0.3574350000000000    0.7881800000000000    0.3896900000000000 C
   0.1074250000000000    0.7879800000000000    0.3898050000000000 C
   0.3577150000000000    0.7236200000000000    0.3567900000000000 C
   0.1077550000000000    0.7234000000000000    0.3569050000000000 C
   0.4377000000000000    0.3838700000000000    0.3063050000000000 C
   0.1878850000000000    0.3837900000000000    0.3062800000000000 C
   0.4375300000000000    0.3149600000000000    0.3418150000000000 C
   0.1876750000000000    0.3149300000000000    0.3418100000000000 C
   0.3925000000000000    0.2756900000000000    0.3561400000000000 C
   0.1426150000000000    0.2756500000000000    0.3560750000000000 C
   0.4371800000000000    0.1161200000000000    0.4437250000000000 C
   0.1871500000000000    0.1160700000000000    0.4437150000000000 C
   0.4373700000000000    0.1850000000000000    0.4081200000000000 C
   0.1873800000000000    0.1849700000000000    0.4081200000000000 C
   0.3924100000000000    0.2111500000000000    0.3890500000000000 C
   0.1424600000000000    0.2111100000000000    0.3889850000000000 C
   0.4824800000000000    0.2889000000000000    0.3609600000000000 C
   0.2325800000000000    0.2888900000000000    0.3610300000000000 C
   0.4824100000000000    0.2243200000000000    0.3938650000000000 C
   0.2324450000000000    0.2243100000000000    0.3939350000000000 C
   0.4380050000000000    0.1162300000000000    0.0562950000000000 C
   0.1880350000000000    0.1163100000000000    0.0562700000000000 C
   0.4377750000000000    0.1850700000000000    0.0918200000000000 C
   0.1877800000000000    0.1851800000000000    0.0917950000000000 C
   0.4826950000000000    0.2235900000000000    0.1068150000000000 C
   0.2326800000000000    0.2235800000000000    0.1068800000000000 C
   0.4369900000000000    0.3838600000000000    0.1937400000000000 C
   0.1868850000000000    0.3839500000000000    0.1937250000000000 C
   0.4372250000000000    0.3149900000000000    0.1581350000000000 C
   0.1871350000000000    0.3151000000000000    0.1581100000000000 C
   0.4824300000000000    0.2881300000000000    0.1397250000000000 C
   0.2323750000000000    0.2881200000000000    0.1397900000000000 C
   0.3925900000000000    0.2118300000000000    0.1103150000000000 C
   0.1425600000000000    0.2120700000000000    0.1102000000000000 C
   0.3923050000000000    0.2764000000000000    0.1432150000000000 C
   0.1422300000000000    0.2766500000000000    0.1431000000000000 C
   0.8122900000000000    0.6161600000000000    0.1936900000000000 C
   0.5621250000000000    0.6162400000000000    0.1937250000000000 C
   0.8124600000000000    0.6850700000000000    0.1581850000000000 C
   0.5623400000000000    0.6851000000000000    0.1581950000000000 C
   0.8574900000000000    0.7243100000000000    0.1438450000000000 C
   0.6073999999999999    0.7243900000000000    0.1439350000000000 C
   0.8128000000000000    0.8839200000000000    0.0562800000000000 C
   0.5628700000000000    0.8839399999999999    0.0562850000000000 C
   0.8126100000000001    0.8150300000000000    0.0918850000000000 C
   0.5626400000000000    0.8150500000000001    0.0918850000000000 C
   0.8575800000000000    0.7888500000000001    0.1109350000000000 C
   0.6075600000000000    0.7889200000000000    0.1110250000000000 C
   0.7675050000000000    0.7111499999999999    0.1390500000000000 C
   0.5174400000000000    0.7111200000000000    0.1389650000000000 C
   0.7675750000000000    0.7757300000000000    0.1061500000000000 C
   0.5175750000000000    0.7756900000000000    0.1060600000000000 C
   0.8120250000000000    0.8838000000000000    0.4437150000000000 C
   0.5619400000000000    0.8837500000000000    0.4437250000000000 C
   0.8122500000000000    0.8149600000000000    0.4081850000000000 C
   0.5622000000000000    0.8148700000000000    0.4082050000000000 C
   0.7673300000000001    0.7764600000000000    0.3931900000000000 C
   0.5173050000000000    0.7764500000000000    0.3931250000000000 C
   0.8130200000000001    0.6161900000000000    0.3062600000000000 C
   0.5631100000000000    0.6160900000000000    0.3062800000000000 C
   0.8127850000000000    0.6850500000000000    0.3418700000000000 C
   0.5628550000000000    0.6849400000000000    0.3418950000000000 C
   0.7675850000000000    0.7119200000000000    0.3602800000000000 C
   0.5176150000000000    0.7119100000000000    0.3602100000000000 C
   0.8574349999999999    0.7881800000000000    0.3896900000000000 C
   0.6074250000000000    0.7879800000000000    0.3898050000000000 C
   0.8577150000000000    0.7236200000000000    0.3567900000000000 C
   0.6077550000000000    0.7234000000000000    0.3569050000000000 C
   0.9377000000000000    0.3838700000000000    0.3063050000000000 C
   0.6878850000000000    0.3837900000000000    0.3062800000000000 C
   0.9375300000000000    0.3149600000000000    0.3418150000000000 C
   0.6876750000000000    0.3149300000000000    0.3418100000000000 C
   0.8925000000000001    0.2756900000000000    0.3561400000000000 C
   0.6426149999999999    0.2756500000000000    0.3560750000000000 C
   0.9371800000000000    0.1161200000000000    0.4437250000000000 C
   0.6871500000000000    0.1160700000000000    0.4437150000000000 C
   0.9373700000000000    0.1850000000000000    0.4081200000000000 C
   0.6873800000000000    0.1849700000000000    0.4081200000000000 C
   0.8924099999999999    0.2111500000000000    0.3890500000000000 C
   0.6424600000000000    0.2111100000000000    0.3889850000000000 C
   0.9824800000000000    0.2889000000000000    0.3609600000000000 C
   0.7325800000000000    0.2888900000000000    0.3610300000000000 C
   0.9824100000000000    0.2243200000000000    0.3938650000000000 C
   0.7324450000000000    0.2243100000000000    0.3939350000000000 C
   0.9380050000000000    0.1162300000000000    0.0562950000000000 C
   0.6880350000000000    0.1163100000000000    0.0562700000000000 C
   0.9377750000000000    0.1850700000000000    0.0918200000000000 C
   0.6877800000000001    0.1851800000000000    0.0917950000000000 C
   0.9826950000000000    0.2235900000000000    0.1068150000000000 C
   0.7326800000000000    0.2235800000000000    0.1068800000000000 C
   0.9369900000000000    0.3838600000000000    0.1937400000000000 C
   0.6868850000000000    0.3839500000000000    0.1937250000000000 C
   0.9372250000000000    0.3149900000000000    0.1581350000000000 C
   0.6871350000000001    0.3151000000000000    0.1581100000000000 C
   0.9824300000000000    0.2881300000000000    0.1397250000000000 C
   0.7323750000000000    0.2881200000000000    0.1397900000000000 C
   0.8925900000000000    0.2118300000000000    0.1103150000000000 C
   0.6425600000000000    0.2120700000000000    0.1102000000000000 C
   0.8923050000000000    0.2764000000000000    0.1432150000000000 C
   0.6422300000000000    0.2766500000000000    0.1431000000000000 C
   0.0621250000000000    0.6162400000000000    0.6937250000000000 C
   0.0623400000000000    0.6851000000000000    0.6581950000000000 C
   0.1074000000000000    0.7243900000000000    0.6439350000000000 C
   0.0628700000000000    0.8839399999999999    0.5562850000000000 C
   0.0626400000000000    0.8150500000000001    0.5918850000000000 C
   0.1075600000000000    0.7889200000000000    0.6110250000000000 C
   0.0174400000000000    0.7111200000000000    0.6389650000000000 C
   0.0175750000000000    0.7756900000000000    0.6060600000000000 C
   0.3120250000000000    0.8838000000000000    0.9437150000000001 C
   0.0619400000000000    0.8837500000000000    0.9437249999999999 C
   0.3122500000000000    0.8149600000000000    0.9081850000000000 C
   0.0622000000000000    0.8148700000000000    0.9082049999999999 C
   0.2673300000000000    0.7764600000000000    0.8931899999999999 C
   0.0173050000000000    0.7764500000000000    0.8931249999999999 C
   0.3130200000000000    0.6161900000000000    0.8062600000000000 C
   0.0631100000000000    0.6160900000000000    0.8062800000000000 C
   0.3127850000000000    0.6850500000000000    0.8418700000000000 C
   0.0628550000000000    0.6849400000000000    0.8418950000000001 C
   0.2675850000000000    0.7119200000000000    0.8602799999999999 C
   0.0176150000000000    0.7119100000000000    0.8602099999999999 C
   0.3574350000000000    0.7881800000000000    0.8896900000000000 C
   0.1074250000000000    0.7879800000000000    0.8898050000000000 C
   0.3577150000000000    0.7236200000000000    0.8567899999999999 C
   0.1077550000000000    0.7234000000000000    0.8569050000000000 C
   0.4377000000000000    0.3838700000000000    0.8063050000000000 C
   0.1878850000000000    0.3837900000000000    0.8062800000000000 C
   0.4375300000000000    0.3149600000000000    0.8418150000000000 C
   0.1876750000000000    0.3149300000000000    0.8418099999999999 C
   0.3925000000000000    0.2756900000000000    0.8561400000000000 C
   0.1426150000000000    0.2756500000000000    0.8560749999999999 C
   0.4371800000000000    0.1161200000000000    0.9437249999999999 C
   0.1871500000000000    0.1160700000000000    0.9437150000000001 C
   0.4373700000000000    0.1850000000000000    0.9081200000000000 C
   0.1873800000000000    0.1849700000000000    0.9081200000000000 C
   0.3924100000000000    0.2111500000000000    0.8890500000000000 C
   0.1424600000000000    0.2111100000000000    0.8889850000000000 C
   0.4824800000000000    0.2889000000000000    0.8609599999999999 C
   0.2325800000000000    0.2888900000000000    0.8610300000000000 C
   0.4824100000000000    0.2243200000000000    0.8938650000000000 C
   0.2324450000000000    0.2243100000000000    0.8939349999999999 C
   0.4380050000000000    0.1162300000000000    0.5562950000000000 C
   0.1880350000000000    0.1163100000000000    0.5562700000000000 C
   0.4377750000000000    0.1850700000000000    0.5918200000000000 C
   0.1877800000000000    0.1851800000000000    0.5917950000000000 C
   0.4826950000000000    0.2235900000000000    0.6068150000000000 C
   0.2326800000000000    0.2235800000000000    0.6068800000000000 C
   0.4369900000000000    0.3838600000000000    0.6937400000000000 C
   0.1868850000000000    0.3839500000000000    0.6937250000000000 C
   0.4372250000000000    0.3149900000000000    0.6581350000000000 C
   0.1871350000000000    0.3151000000000000    0.6581100000000000 C
   0.4824300000000000    0.2881300000000000    0.6397250000000000 C
   0.2323750000000000    0.2881200000000000    0.6397900000000000 C
   0.3925900000000000    0.2118300000000000    0.6103149999999999 C
   0.1425600000000000    0.2120700000000000    0.6102000000000000 C
   0.3923050000000000    0.2764000000000000    0.6432150000000000 C
   0.1422300000000000    0.2766500000000000    0.6431000000000000 C
   0.8122900000000000    0.6161600000000000    0.6936900000000000 C
   0.5621250000000000    0.6162400000000000    0.6937250000000000 C
   0.8124600000000000    0.6850700000000000    0.6581850000000000 C
   0.5623400000000000    0.6851000000000000    0.6581950000000000 C
   0.8574900000000000    0.7243100000000000    0.6438450000000000 C
   0.6073999999999999    0.7243900000000000    0.6439350000000000 C
   0.8128000000000000    0.8839200000000000    0.5562800000000000 C
   0.5628700000000000    0.8839399999999999    0.5562850000000000 C
   0.8126100000000001    0.8150300000000000    0.5918850000000000 C
   0.5626400000000000    0.8150500000000001    0.5918850000000000 C
   0.8575800000000000    0.7888500000000001    0.6109350000000000 C
   0.6075600000000000    0.7889200000000000    0.6110250000000000 C
   0.7675050000000000    0.7111499999999999    0.6390500000000000 C
   0.5174400000000000    0.7111200000000000    0.6389650000000000 C
   0.7675750000000000    0.7757300000000000    0.6061500000000000 C
   0.5175750000000000    0.7756900000000000    0.6060600000000000 C
   0.8120250000000000    0.8838000000000000    0.9437150000000001 C
   0.5619400000000000    0.8837500000000000    0.9437249999999999 C
   0.8122500000000000    0.8149600000000000    0.9081850000000000 C
   0.5622000000000000    0.8148700000000000    0.9082049999999999 C
   0.7673300000000001    0.7764600000000000    0.8931899999999999 C
   0.5173050000000000    0.7764500000000000    0.8931249999999999 C
   0.8130200000000001    0.6161900000000000    0.8062600000000000 C
   0.5631100000000000    0.6160900000000000    0.8062800000000000 C
   0.8127850000000000    0.6850500000000000    0.8418700000000000 C
   0.5628550000000000    0.6849400000000000    0.8418950000000001 C
   0.7675850000000000    0.7119200000000000    0.8602799999999999 C
   0.5176150000000000    0.7119100000000000    0.8602099999999999 C
   0.8574349999999999    0.7881800000000000    0.8896900000000000 C
   0.6074250000000000    0.7879800000000000    0.8898050000000000 C
   0.8577150000000000    0.7236200000000000    0.8567899999999999 C
   0.6077550000000000    0.7234000000000000    0.8569050000000000 C
   0.9377000000000000    0.3838700000000000    0.8063050000000000 C
   0.6878850000000000    0.3837900000000000    0.8062800000000000 C
   0.9375300000000000    0.3149600000000000    0.8418150000000000 C
   0.6876750000000000    0.3149300000000000    0.8418099999999999 C
   0.8925000000000001    0.2756900000000000    0.8561400000000000 C
   0.6426149999999999    0.2756500000000000    0.8560749999999999 C
   0.9371800000000000    0.1161200000000000    0.9437249999999999 C
   0.6871500000000000    0.1160700000000000    0.9437150000000001 C
   0.9373700000000000    0.1850000000000000    0.9081200000000000 C
   0.6873800000000000    0.1849700000000000    0.9081200000000000 C
   0.8924099999999999    0.2111500000000000    0.8890500000000000 C
   0.6424600000000000    0.2111100000000000    0.8889850000000000 C
   0.9824800000000000    0.2889000000000000    0.8609599999999999 C
   0.7325800000000000    0.2888900000000000    0.8610300000000000 C
   0.9824100000000000    0.2243200000000000    0.8938650000000000 C
   0.7324450000000000    0.2243100000000000    0.8939349999999999 C
   0.9380050000000000    0.1162300000000000    0.5562950000000000 C
   0.6880350000000000    0.1163100000000000    0.5562700000000000 C
   0.9377750000000000    0.1850700000000000    0.5918200000000000 C
   0.6877800000000001    0.1851800000000000    0.5917950000000000 C
   0.9826950000000000    0.2235900000000000    0.6068150000000000 C
   0.7326800000000000    0.2235800000000000    0.6068800000000000 C
   0.9369900000000000    0.3838600000000000    0.6937400000000000 C
   0.6868850000000000    0.3839500000000000    0.6937250000000000 C
   0.9372250000000000    0.3149900000000000    0.6581350000000000 C
   0.6871350000000001    0.3151000000000000    0.6581100000000000 C
   0.9824300000000000    0.2881300000000000    0.6397250000000000 C
   0.7323750000000000    0.2881200000000000    0.6397900000000000 C
   0.8925900000000000    0.2118300000000000    0.6103149999999999 C
   0.6425600000000000    0.2120700000000000    0.6102000000000000 C
   0.8923050000000000    0.2764000000000000    0.6432150000000000 C
   0.6422300000000000    0.2766500000000000    0.6431000000000000 C
   0.2705650000000000    0.9079700000000001    0.0415050000000000 O
   0.0206500000000000    0.9080600000000000    0.0415200000000000 O
   0.2699500000000000    0.5876400000000001    0.2067600000000000 O
   0.0197400000000000    0.5878400000000000    0.2068000000000000 O
   0.3552350000000000    0.9120700000000000    0.0433200000000000 O
   0.1053200000000000    0.9120300000000000    0.0433100000000000 O
   0.3544650000000000    0.5917200000000000    0.2085350000000000 O
   0.1042900000000000    0.5917800000000000    0.2085550000000000 O
   0.3554350000000000    0.5883800000000000    0.2932450000000000 O
   0.1055400000000000    0.5883600000000000    0.2932300000000000 O
   0.3542450000000000    0.9085299999999999    0.4584850000000000 O
   0.1041500000000000    0.9085100000000000    0.4584900000000000 O
   0.2707400000000000    0.5918300000000000    0.2915650000000000 O
   0.0208500000000000    0.5916600000000000    0.2916000000000000 O
   0.2696950000000000    0.9119500000000000    0.4568500000000000 O
   0.0195850000000000    0.9118700000000000    0.4568500000000000 O
   0.4794100000000000    0.0920600000000000    0.4584900000000000 O
   0.2293700000000000    0.0919800000000000    0.4584900000000000 O
   0.4800450000000000    0.4123800000000000    0.2932400000000000 O
   0.2302750000000000    0.4121900000000000    0.2932000000000000 O
   0.3947400000000000    0.0879900000000000    0.4566900000000000 O
   0.1447050000000000    0.0879600000000000    0.4566800000000000 O
   0.3955300000000000    0.4083100000000000    0.2914600000000000 O
   0.1457200000000000    0.4082600000000000    0.2914550000000000 O
   0.3945800000000000    0.4116800000000000    0.2067500000000000 O
   0.1444550000000000    0.4116700000000000    0.2067800000000000 O
   0.3957900000000000    0.0914900000000000    0.0415250000000000 O
   0.1458250000000000    0.0915500000000000    0.0415050000000000 O
   0.4792700000000000    0.4082100000000000    0.2084450000000000 O
   0.2291450000000000    0.4083800000000000    0.2084000000000000 O
   0.4803400000000000    0.0880800000000000    0.0431550000000000 O
   0.2303850000000000    0.0881900000000000    0.0431450000000000 O