H4 O2
1.0
  28.2376940892920985    0.0000000000000000    4.9135401208861618
   0.9796497485967964   28.2210996643117440    4.9461140410485793
   0.0000000000000000    0.0000000000000000   26.5279999999999987
H O
4 2
direct
   0.2856752853487282    0.4057053261841939    0.5949655601969080 H
   0.2961081621707731    0.4338427137638504    0.5332828308212387 H
   0.4932188447367708    0.4186614549279733    0.6120282631158427 H
   0.5068483789412046    0.4333179359170204    0.5473843064813905 H
   0.2734600000000000    0.4206150000000000    0.5635599999999999 O
   0.5172099999999999    0.4270850000000000    0.5812700000000000 O
