H8 O5
1.0
  31.1803675535112106    0.0000000000000000   -0.0908816700181945
  -0.0466228453397986   17.8838959833951137   -0.0393289384119215
   0.0000000000000000    0.0000000000000000   21.0090000000000003
H O
8 5
direct
   0.1622702970574919    0.8029779233666253   -0.0332215266657968 H
   0.0890960561791719    0.7025113952239739    0.0424769038179818 H
   0.1247068930826342    0.7369361546980444    0.0012641763421563 H
   0.1683776323420769    0.6686226561564518    0.8921047075701317 H
   0.1548405641226308    0.5773872489535643    0.8810257173545589 H
   0.1321487177077712    0.4311689806334218    0.8917085850378356 H
   0.0508061671566884    0.5362718394482756    0.9905368255058178 H
   0.0956448111288343    0.4956234161690740    0.9404119291959374 H
   0.1421400000000000    0.8163500000000000    0.0000000000000000 O
   0.1002233333333333    0.7532000000000000    0.0416700000000000 O
   0.1708766666666667    0.6233500000000000    0.8724000000000000 O
   0.1052300000000000    0.4256200000000000    0.9142600000000000 O
   0.0574500000000000    0.4877500000000000    0.9724100000000000 O
