H3 C9 O6
1.0
  13.5009935513813311    0.0000000000000000   -0.0131956644285295
   0.3757723439903178   14.4171003595398481    0.0098167432461292
   0.0000000000000000    0.0000000000000000   30.7059999999999995
H C O
3 9 6
direct
   0.5394600000000001    0.6960200000000000    0.6326950000000000 H
   0.7835900000000000    0.5170800000000000    0.5932800000000000 H
   0.7079700000000000    0.7616500000000000    0.5182750000000000 H
   0.6174500000000001    0.7381600000000000    0.5749750000000000 C
   0.6003100000000000    0.6799200000000000    0.6105250000000000 C
   0.6605200000000000    0.6007300000000000    0.6173250000000000 C
   0.7375699999999999    0.5792500000000000    0.5882650000000000 C
   0.7544900000000000    0.6370600000000000    0.5525300000000000 C
   0.6949200000000000    0.7169000000000000    0.5461000000000000 C
   0.5500699999999999    0.8198400000000000    0.5671200000000000 C
   0.6408900000000000    0.5368900000000000    0.6543500000000000 C
   0.8327800000000000    0.6129300000000000    0.5203200000000000 C
   0.8496200000000000    0.6683600000000000    0.4887500000000000 O
   0.5686500000000000    0.8717900000000000    0.5339650000000000 O
   0.4769700000000000    0.8348800000000000    0.5925200000000000 O
   0.5626400000000000    0.5547000000000000    0.6772950000000000 O
   0.7010500000000000    0.4692600000000000    0.6612500000000000 O
   0.8826300000000000    0.5360100000000000    0.5244000000000000 O
