Zn16 H30 C63 O48
1.0
  13.5009935513813311    0.0000000000000000   -0.0131956644285295
   0.3757723439903178   14.4171003595398481    0.0098167432461292
   0.0000000000000000    0.0000000000000000   30.7059999999999995
Zn H C O
16 30 63 48
direct
   0.8209700000000000    0.6724800000000000    0.4200850000000000 Zn
   0.5371500000000000    0.4604100000000000    0.2204900000000000 Zn
   0.4579300000000000    0.9603600000000000    0.0278500000000000 Zn
   0.9630600000000000    0.5395700000000000    0.4705300000000000 Zn
   0.0419500000000000    0.0394200000000000    0.2778050000000000 Zn
   0.9630600000000000    0.5395700000000000    0.9705300000000000 Zn
   0.0419500000000000    0.0394200000000000    0.7778050000000001 Zn
   0.5371500000000000    0.4604100000000000    0.7204900000000000 Zn
   0.4579300000000000    0.9603600000000000    0.5278500000000000 Zn
   0.6790600000000000    0.3274800000000000    0.1700900000000000 Zn
   0.6790600000000000    0.3274800000000000    0.6700900000000000 Zn
   0.8209700000000000    0.6724800000000000    0.9200850000000000 Zn
   0.1789700000000000    0.1645700000000000    0.8315900000000001 Zn
   0.1789700000000000    0.1645700000000000    0.3315900000000000 Zn
   0.3214200000000000    0.8323300000000000    0.0815650000000000 Zn
   0.3214200000000000    0.8323300000000000    0.5815650000000000 Zn
   0.8494393347384566    0.6735434101917922    0.4572522395267941 H
   0.7079700000000000    0.7616500000000000    0.0182750000000000 H
   0.7835900000000000    0.5170800000000000    0.0932800000000000 H
   0.5394600000000001    0.6960200000000000    0.1326950000000000 H
   0.8802504790041891    0.6042800884270408    1.1095466866032488 H
   0.2205700000000000    0.0263600000000000    0.1564100000000000 H
   0.4596600000000000    0.1981000000000000    0.1153350000000000 H
   0.2950200000000000    0.2672400000000000    0.2314100000000000 H
   0.8851720724169216    0.5306919057035928    0.4929293108456013 H
   0.7921100000000000    0.2379800000000000    0.2684850000000000 H
   0.9611900000000000    0.3038900000000000    0.3828200000000000 H
   0.7168800000000000    0.4827500000000000    0.3431800000000000 H
   0.0405800000000000    0.8007900000000000    0.3652150000000000 H
   0.2055800000000000    0.7328900000000000    0.4815200000000000 H
   0.2797200000000000    0.9730700000000000    0.4058500000000000 H
   0.7921100000000000    0.2379800000000000    0.7684850000000000 H
   0.9611900000000000    0.3038900000000000    0.8828199999999999 H
   0.7168800000000000    0.4827500000000000    0.8431800000000000 H
   0.0405800000000000    0.8007900000000000    0.8652150000000001 H
   0.2055800000000000    0.7328900000000000    0.9815199999999999 H
   0.2797200000000000    0.9730700000000000    0.9058500000000000 H
   0.6272208332810489    0.8613624914312998    0.5161804732911141 H
   0.4583197083091466    0.8024278646119638    0.6188252660255281 H
   0.5408970387177074    0.8234989130893550    0.5731091078578370 H
   0.7647330775080330    0.4707953087959321    0.6467056712947186 H
   0.5232212158323009    0.6118478868621253    0.6761109030936567 H
   0.6408162034077143    0.5565847175328374    0.6594406430218952 H
   0.2205700000000000    0.0263600000000000    0.6564099999999999 H
   0.4596600000000000    0.1981000000000000    0.6153350000000000 H
   0.2950200000000000    0.2672400000000000    0.7314100000000000 H
   0.6408900000000000    0.5368900000000000    0.1543500000000000 C
   0.5500699999999999    0.8198400000000000    0.0671200000000000 C
   0.8327800000000000    0.6129300000000000    0.0203200000000000 C
   0.6949200000000000    0.7169000000000000    0.0461000000000000 C
   0.6174500000000001    0.7381600000000000    0.0749750000000000 C
   0.7375699999999999    0.5792500000000000    0.0882650000000000 C
   0.6003100000000000    0.6799200000000000    0.1105250000000000 C
   0.6605200000000000    0.6007300000000000    0.1173250000000000 C
   0.7544900000000000    0.6370600000000000    0.0525300000000000 C
   0.3595400000000000    0.0428100000000000    0.0939250000000000 C
   0.4493200000000000    0.3215800000000000    0.1813000000000000 C
   0.1742200000000000    0.1217800000000000    0.2307050000000000 C
   0.2656300000000000    0.0870000000000000    0.1611500000000000 C
   0.3407800000000000    0.1065600000000000    0.1313900000000000 C
   0.3999800000000000    0.1836500000000000    0.1379300000000000 C
   0.3076800000000000    0.2226000000000000    0.2033100000000000 C
   0.3832400000000000    0.2420100000000000    0.1737550000000000 C
   0.2496300000000000    0.1444900000000000    0.1973600000000000 C
   0.8595500000000000    0.4630100000000000    0.4043450000000000 C
   0.9503100000000000    0.1799000000000000    0.3173000000000000 C
   0.6674500000000000    0.3868500000000000    0.2703000000000000 C
   0.8053300000000000    0.2827900000000000    0.2962700000000000 C
   0.8829300000000000    0.2615700000000000    0.3251550000000000 C
   0.9002200000000000    0.3199200000000000    0.3606400000000000 C
   0.7628500000000000    0.4205400000000000    0.3382550000000000 C
   0.8400000000000000    0.3991200000000000    0.3673450000000000 C
   0.7458300000000000    0.3626800000000000    0.3025750000000000 C
   0.1404900000000000    0.9554900000000000    0.3432800000000000 C
   0.0512600000000000    0.6778800000000000    0.4314200000000000 C
   0.3261200000000000    0.8784300000000000    0.4805450000000000 C
   0.1003400000000000    0.8154500000000000    0.3877750000000000 C
   0.1928000000000000    0.7772500000000000    0.4532950000000000 C
   0.1172400000000000    0.7574600000000000    0.4237550000000000 C
   0.1595000000000000    0.8924600000000000    0.3810050000000000 C
   0.2347000000000000    0.9124500000000000    0.4107750000000000 C
   0.2507000000000000    0.8554100000000000    0.4471850000000000 C
   0.8595500000000000    0.4630100000000000    0.9043450000000000 C
   0.9503100000000000    0.1799000000000000    0.8173000000000000 C
   0.6674500000000000    0.3868500000000000    0.7703000000000000 C
   0.8053300000000000    0.2827900000000000    0.7962700000000000 C
   0.8829300000000000    0.2615700000000000    0.8251550000000001 C
   0.9002200000000000    0.3199200000000000    0.8606400000000001 C
   0.7628500000000000    0.4205400000000000    0.8382550000000000 C
   0.8400000000000000    0.3991200000000000    0.8673450000000000 C
   0.7458300000000000    0.3626800000000000    0.8025750000000000 C
   0.1404900000000000    0.9554900000000000    0.8432800000000000 C
   0.0512600000000000    0.6778800000000000    0.9314200000000000 C
   0.3261200000000000    0.8784300000000000    0.9805450000000000 C
   0.1003400000000000    0.8154500000000000    0.8877750000000000 C
   0.1928000000000000    0.7772500000000000    0.9532950000000000 C
   0.1172400000000000    0.7574600000000000    0.9237550000000000 C
   0.1595000000000000    0.8924600000000000    0.8810050000000000 C
   0.2347000000000000    0.9124500000000000    0.9107750000000000 C
   0.2507000000000000    0.8554100000000000    0.9471849999999999 C
   0.3595400000000000    0.0428100000000000    0.5939250000000000 C
   0.4493200000000000    0.3215800000000000    0.6813000000000000 C
   0.1742200000000000    0.1217800000000000    0.7307049999999999 C
   0.2656300000000000    0.0870000000000000    0.6611500000000000 C
   0.3407800000000000    0.1065600000000000    0.6313900000000000 C
   0.3999800000000000    0.1836500000000000    0.6379300000000000 C
   0.3076800000000000    0.2226000000000000    0.7033100000000000 C
   0.3832400000000000    0.2420100000000000    0.6737550000000000 C
   0.2496300000000000    0.1444900000000000    0.6973600000000000 C
   0.8496200000000000    0.6683600000000000    0.4887500000000000 O
   0.7010500000000000    0.4692600000000000    0.1612500000000000 O
   0.5626400000000000    0.5547000000000000    0.1772950000000000 O
   0.4769700000000000    0.8348800000000000    0.0925200000000000 O
   0.5686500000000000    0.8717900000000000    0.0339650000000000 O
   0.8496200000000000    0.6683600000000000    0.9887500000000000 O
   0.8826300000000000    0.5360100000000000    0.0244000000000000 O
   0.3003000000000000    0.9774000000000000    0.0869800000000000 O
   0.4367200000000000    0.0581100000000000    0.0703400000000000 O
   0.5243200000000000    0.3316400000000000    0.1568450000000000 O
   0.4274800000000000    0.3767600000000000    0.2132300000000000 O
   0.1604000000000000    0.1761500000000000    0.2629650000000000 O
   0.1253000000000000    0.0466600000000000    0.2258950000000000 O
   0.8826300000000000    0.5360100000000000    0.5244000000000000 O
   0.7993900000000000    0.5306500000000000    0.4111450000000000 O
   0.9377400000000000    0.4452100000000000    0.4273950000000000 O
   0.0234900000000000    0.1647200000000000    0.3427250000000000 O
   0.9315400000000000    0.1281200000000000    0.2841000000000000 O
   0.6506000000000000    0.3315500000000000    0.2387500000000000 O
   0.6176000000000000    0.4637600000000000    0.2744150000000000 O
   0.2005200000000000    0.0198800000000000    0.3354750000000000 O
   0.0621400000000000    0.9412100000000000    0.3202750000000000 O
   0.9758599999999999    0.6680700000000001    0.4071150000000000 O
   0.0735600000000000    0.6224300000000000    0.4632000000000000 O
   0.3406600000000000    0.8240100000000000    0.5128000000000000 O
   0.3745000000000000    0.9538500000000000    0.4758050000000000 O
   0.7993900000000000    0.5306500000000000    0.9111450000000000 O
   0.9377400000000000    0.4452100000000000    0.9273950000000000 O
   0.0234900000000000    0.1647200000000000    0.8427249999999999 O
   0.9315400000000000    0.1281200000000000    0.7841000000000000 O
   0.6506000000000000    0.3315500000000000    0.7387500000000000 O
   0.6176000000000000    0.4637600000000000    0.7744150000000001 O
   0.2005200000000000    0.0198800000000000    0.8354750000000000 O
   0.0621400000000000    0.9412100000000000    0.8202750000000000 O
   0.9758599999999999    0.6680700000000001    0.9071150000000000 O
   0.0735600000000000    0.6224300000000000    0.9632000000000001 O
   0.3406600000000000    0.8240100000000000    0.0128000000000000 O
   0.3745000000000000    0.9538500000000000    0.9758050000000000 O
   0.5686500000000000    0.8717900000000000    0.5339650000000000 O
   0.4769700000000000    0.8348800000000000    0.5925200000000000 O
   0.7010500000000000    0.4692600000000000    0.6612500000000000 O
   0.5626400000000000    0.5547000000000000    0.6772950000000000 O
   0.3003000000000000    0.9774000000000000    0.5869800000000001 O
   0.4367200000000000    0.0581100000000000    0.5703400000000000 O
   0.5243200000000000    0.3316400000000000    0.6568450000000000 O
   0.4274800000000000    0.3767600000000000    0.7132300000000000 O
   0.1604000000000000    0.1761500000000000    0.7629650000000000 O
   0.1253000000000000    0.0466600000000000    0.7258950000000000 O
