H8 C10 N2
1.0
  38.8832753341735184    0.0000000000000000    8.0212033565328369
   0.0830982000988271   13.1982889058009984    1.4226347557087959
   0.0000000000000000    0.0000000000000000   28.0060000000000002
H C N
8 10 2
direct
   0.9614166666666666    0.8316900000000000    0.4743450000000000 H
   0.9588666666666666    0.8381100000000000    0.3859650000000000 H
   0.9509699999999999    0.5112400000000000    0.4062450000000000 H
   0.9566733333333333    0.5185200000000000    0.4925800000000000 H
   0.9290366666666666    0.8212400000000000    0.3275700000000000 H
   0.9284300000000000    0.8134900000000000    0.2390450000000000 H
   0.9706833333333333    0.5254500000000000    0.2411450000000000 H
   0.9758433333333333    0.5223000000000000    0.3284950000000000 H
   0.9592533333333333    0.7628200000000001    0.4573050000000000 C
   0.9572600000000000    0.7653700000000000    0.4082800000000000 C
   0.9546300000000000    0.6743400000000001    0.3880750000000000 C
   0.9528266666666666    0.6725600000000000    0.3360000000000000 C
   0.9539733333333333    0.5840800000000000    0.4192050000000000 C
   0.9565999999999999    0.5872600000000000    0.4676250000000000 C
   0.9392999999999999    0.7547100000000000    0.3098050000000000 C
   0.9383833333333333    0.7508300000000000    0.2607450000000000 C
   0.9623266666666666    0.5896400000000001    0.2619100000000000 C
   0.9645266666666666    0.5882200000000000    0.3108000000000000 C
   0.9592299999999999    0.6752600000000000    0.4866100000000000 N
   0.9497933333333333    0.6696700000000000    0.2369100000000000 N
