H6 O4
1.0
  38.8832753341735184    0.0000000000000000    8.0212033565328369
   0.0830982000988271   13.1982889058009984    1.4226347557087959
   0.0000000000000000    0.0000000000000000   28.0060000000000002
H O
6 4
direct
   0.4356279538939877    0.3310215820922065    0.4481288214813780 H
   0.4479913586343315    0.3227590045459368    0.3037552148789139 H
   0.4456081820607085    0.3268404610626108    0.3741936527702765 H
   0.6303579735572644    0.3153033628603232    0.4553352165724647 H
   0.6485009569555527    0.3412615206756416    0.3377251505371566 H
   0.6101114563224729    0.3278580024798567    0.3938571392892199 H
   0.4265633333333333    0.3291700000000000    0.4185650000000000 O
   0.4340033333333333    0.3244700000000000    0.3363450000000000 O
   0.6544266666666667    0.3195600000000000    0.4393900000000000 O
   0.6666666666666666    0.3378600000000000    0.3563900000000000 O
