H6 C12 O4
1.0
  38.8832753341735184    0.0000000000000000    8.0212033565328369
   0.0830982000988271   13.1982889058009984    1.4226347557087959
   0.0000000000000000    0.0000000000000000   28.0060000000000002
H C O
6 12 4
direct
   0.5936366666666666    0.3193300000000000    0.4825550000000000 H
   0.5303066666666667    0.3201300000000000    0.4893700000000000 H
   0.6090000000000000    0.3321100000000000    0.3257550000000000 H
   0.4794300000000000    0.3233300000000000    0.4492050000000000 H
   0.4943933333333333    0.3358400000000000    0.2926550000000000 H
   0.5579666666666667    0.3374700000000000    0.2852700000000000 H
   0.6433500000000000    0.3271000000000000    0.3994250000000000 C
   0.6050700000000000    0.3257600000000000    0.4033000000000000 C
   0.5825800000000000    0.3222000000000000    0.4499100000000000 C
   0.5474966666666666    0.3227200000000000    0.4535400000000000 C
   0.5329133333333333    0.3263500000000000    0.4110100000000000 C
   0.5555033333333333    0.3300800000000000    0.3637350000000000 C
   0.5914599999999999    0.3296800000000000    0.3612500000000000 C
   0.4969533333333333    0.3261200000000000    0.4137000000000000 C
   0.4833733333333333    0.3289300000000000    0.3717550000000000 C
   0.5057400000000000    0.3331000000000000    0.3250700000000000 C
   0.5408666666666666    0.3338500000000000    0.3212200000000000 C
   0.4450666666666666    0.3273800000000000    0.3758750000000000 C
   0.6544266666666667    0.3195600000000000    0.4393900000000000 O
   0.4265633333333333    0.3291700000000000    0.4185650000000000 O
   0.4340033333333333    0.3244700000000000    0.3363450000000000 O
   0.6666666666666666    0.3378600000000000    0.3563900000000000 O
