H1 C6 N9
1.0
  22.3936156124690449    0.0000000000000000    2.8559770308919949
   1.4971345200064763   12.4250712237226164    1.0746693977336244
   0.0000000000000000    0.0000000000000000   25.1340000000000003
H C N
1 6 9
direct
   0.9824566666666666    0.4678700000000000    0.2084350000000000 H
   0.9784499999999999    0.3341300000000000    0.2647450000000000 C
   0.9538833333333333    0.3375600000000000    0.1752450000000000 C
   0.9412799999999999    0.1929600000000000    0.2350550000000000 C
   0.9978399999999999    0.3505800000000000    0.3508300000000000 C
   0.9391900000000000    0.3621400000000000    0.0852950000000000 C
   0.9008699999999999    0.0440300000000000    0.2122200000000000 C
   0.9731599999999999    0.3881000000000000    0.2153550000000000 N
   0.9385233333333333    0.2381000000000000    0.1843200000000000 N
   0.9624633333333332    0.2355800000000000    0.2754700000000000 N
   0.9998499999999999    0.3888000000000000    0.3010250000000000 N
   0.9973766666666666    0.3256300000000000    0.3971300000000000 N
   0.9487633333333333    0.3987200000000000    0.1290350000000000 N
   0.9297400000000000    0.3399600000000000    0.0423200000000000 N
   0.9194166666666665    0.0960900000000000    0.2484700000000000 N
   0.8828866666666666    0.9856700000000000    0.1851750000000000 N
