H4 O4
1.0
  22.3936156124690449    0.0000000000000000    2.8559770308919949
   1.4971345200064763   12.4250712237226164    1.0746693977336244
   0.0000000000000000    0.0000000000000000   25.1340000000000003
H O
4 4
direct
   0.9375140572683480    0.3582064116626412    0.0776734509108208 H
   0.9977615264568315    0.3463542843840599    0.3586717087381974 H
   0.9350179559517190    0.1652147244874081    0.2388972924641418 H
   0.8977799727757541    1.0340021600292684    0.2075729312541392 H
   0.9297400000000000    0.3399600000000000    0.0423200000000000 O
   0.9973766666666666    0.3256300000000000    0.3971300000000000 O
   0.9194166666666665    0.0960900000000000    0.2484700000000000 O
   0.8828866666666666    0.9856700000000000    0.1851750000000000 O
