H7 O5
1.0
  32.5335725865392860    0.0000000000000000  -11.5111578373498080
  -2.4298853860033405    7.4940805173075189   -0.5303114283128935
   0.0000000000000000    0.0000000000000000   30.2789999999999999
H O
7 5
direct
   0.8450334966999922    0.6315855404576868   -0.0224641768188647 H
   0.8190313378651961    0.0098146230508825    0.8668163556866142 H
   0.9190025266997540    0.4722892405604818    0.8981833248576094 H
   0.8700064626638763    0.2556070352587244    0.8841266600369646 H
   0.7394636203582390    0.2026471553685250    0.9596286736219355 H
   0.7271060702209842   -0.0295153212207707    0.8891328221356934 H
   0.7174953570014612    0.0532604253350145    0.8550245910633537 H
   0.8532440000000000    0.7415800000000000    0.0000000000000000 O
   0.8465820000000001    0.0914800000000000    0.8694200000000000 O
   0.9013280000000000    0.3484500000000000    0.8870866666666666 O
   0.7475480000000001    0.1781400000000000    0.9918699999999999 O
   0.7345700000000001    0.0015000000000000    0.9231199999999999 O
