H2 C7 O6
1.0
  32.5335725865392860    0.0000000000000000  -11.5111578373498080
  -2.4298853860033405    7.4940805173075189   -0.5303114283128935
   0.0000000000000000    0.0000000000000000   30.2789999999999999
H C O
2 7 6
direct
   0.7882720000000001    0.4931000000000000    0.0000000000000000 H
   0.8890340000000001    0.6020200000000000    0.9327233333333333 H
   0.7924740000000001    0.2803000000000000    0.9506766666666666 C
   0.7550280000000001    0.1387700000000000    0.9546033333333332 C
   0.8463480000000001    0.3395300000000000    0.9182500000000000 C
   0.8665600000000000    0.2554500000000000    0.8891199999999999 C
   0.8614140000000000    0.5153700000000000    0.9384966666666666 C
   0.8413740000000001    0.5825600000000000    0.9675233333333333 C
   0.8053140000000001    0.4530100000000000    0.9721299999999999 C
   0.8532440000000000    0.7415800000000000    0.0000000000000000 O
   0.7345700000000001    0.0015000000000000    0.9231199999999999 O
   0.7475480000000001    0.1781400000000000    0.9918699999999999 O
   0.8122380000000000    0.2215000000000000    0.9238066666666667 O
   0.8465820000000001    0.0914800000000000    0.8694200000000000 O
   0.9013280000000000    0.3484500000000000    0.8870866666666666 O
