Cd12 H132 C165 O68
1.0
  31.0104061167973555    0.0000000000000000   -9.5513044382061931
  -3.1684325095257653   14.1671198265065605   -6.5831110619512545
   0.0000000000000000    0.0000000000000000   18.4969999999999999
Cd H C O
12 132 165 68
direct
   0.6024700000000000    0.4889200000000000    0.6321900000000000 Cd
   0.9764666666666666    0.3827700000000000    0.4261700000000000 Cd
   0.6901966666666667    0.6172299999999999    0.5739000000000000 Cd
   0.3568633333333333    0.6172299999999999    0.5739000000000000 Cd
   0.2691366666666666    0.4889200000000000    0.6321900000000000 Cd
   0.6431333333333333    0.3827700000000000    0.4261700000000000 Cd
   0.0235300000000000    0.6172299999999999    0.5739000000000000 Cd
   0.9358033333333333    0.4889200000000000    0.6321900000000000 Cd
   0.3098000000000000    0.3827700000000000    0.4261700000000000 Cd
   0.7308566666666666    0.5111200000000000    0.3679500000000000 Cd
   0.0641900000000000    0.5111200000000000    0.3679500000000000 Cd
   0.3975233333333333    0.5111200000000000    0.3679500000000000 Cd
   0.9301551638738002    0.4384674050566119    0.7796660694168117 H
   0.9129483527556399    0.6724477527492074    0.7584470175175999 H
   0.9208046994339156    0.5589710908942149    0.7761998718465157 H
   0.7290300778493073    0.7741169732136696    0.7492814631280487 H
   0.6508188261729788    0.5190009521743248    0.6859381572792378 H
   0.6885712536373274    0.6436012448524352    0.7234503592545645 H
   0.8730548179685946    0.2987691532315877    0.5460565463441498 H
   0.9857042546161963    0.3403542081759264    0.4998474369337962 H
   0.9306462234269565    0.3158603766509953    0.5196394294838997 H
   0.8873466666666666    0.3623000000000000    0.9273800000000000 H
   0.8962200000000000    0.2950600000000000    0.8307200000000000 H
   0.9356733333333332    0.1742500000000000    0.1373300000000000 H
   0.9095899999999999    0.1271100000000000    0.9813100000000000 H
   0.9744466666666667    0.4634200000000000    0.1914400000000000 H
   0.9467399999999999    0.4181800000000000    0.0374500000000000 H
   0.7814366666666667    0.1997800000000000    0.8739600000000000 H
   0.8358466666666666    0.2076200000000000    0.9401000000000000 H
   0.7722566666666666    0.5466100000000000    0.1545100000000000 H
   0.8037833333333333    0.4976600000000000    0.0373400000000000 H
   0.7922699999999999    0.2179100000000000    0.0186600000000000 H
   0.7627066666666666    0.2691100000000000    0.1363400000000000 H
   0.8088733333333333    0.3630600000000000    0.8365000000000000 H
   0.7728733333333333    0.2517600000000000    0.7582900000000000 H
   0.8560733333333332    0.3151600000000000    0.6243000000000000 H
   0.8234299999999999    0.3857400000000000    0.5292000000000000 H
   0.7520966666666666    0.3687700000000000    0.7286100000000000 H
   0.7196266666666666    0.4368000000000000    0.6328000000000000 H
   0.8523299999999999    0.1037900000000000    0.8046700000000000 H
   0.8423200000000000    0.1400300000000000    0.7224200000000000 H
   0.7094199999999999    0.9796500000000000    0.6699000000000001 H
   0.6876599999999999    0.8104600000000000    0.5623400000000000 H
   0.8427233333333333    0.9873700000000000    0.6701000000000000 H
   0.8204166666666666    0.8198800000000001    0.5623800000000000 H
   0.8797003553434460    0.5392619124543373    0.5477694247857465 H
   0.8747972922395899    0.5395688811679769    0.5516847916098263 H
   0.9319336804491467    0.5296512775718539    0.5047347268870018 H
   0.5540133333333332    0.3623000000000000    0.9273800000000000 H
   0.5628866666666666    0.2950600000000000    0.8307200000000000 H
   0.6023399999999999    0.1742500000000000    0.1373300000000000 H
   0.5762566666666666    0.1271100000000000    0.9813100000000000 H
   0.6411133333333333    0.4634200000000000    0.1914400000000000 H
   0.6134066666666667    0.4181800000000000    0.0374500000000000 H
   0.4481033333333333    0.1997800000000000    0.8739600000000000 H
   0.5025133333333334    0.2076200000000000    0.9401000000000000 H
   0.4389233333333333    0.5466100000000000    0.1545100000000000 H
   0.4704500000000000    0.4976600000000000    0.0373400000000000 H
   0.4589366666666667    0.2179100000000000    0.0186600000000000 H
   0.4293733333333333    0.2691100000000000    0.1363400000000000 H
   0.4755400000000000    0.3630600000000000    0.8365000000000000 H
   0.4395400000000000    0.2517600000000000    0.7582900000000000 H
   0.5227400000000000    0.3151600000000000    0.6243000000000000 H
   0.4900966666666666    0.3857400000000000    0.5292000000000000 H
   0.4187633333333333    0.3687700000000000    0.7286100000000000 H
   0.3862933333333333    0.4368000000000000    0.6328000000000000 H
   0.5189966666666667    0.1037900000000000    0.8046700000000000 H
   0.5089866666666667    0.1400300000000000    0.7224200000000000 H
   0.3760866666666667    0.9796500000000000    0.6699000000000001 H
   0.3543266666666666    0.8104600000000000    0.5623400000000000 H
   0.5093900000000000    0.9873700000000000    0.6701000000000000 H
   0.4870833333333333    0.8198800000000001    0.5623800000000000 H
   0.4459766666666666    0.6377400000000000    0.0727500000000000 H
   0.4371000000000000    0.7049800000000001    0.1694000000000000 H
   0.4237533333333333    0.8729000000000000    0.0000000000000000 H
   0.3976800000000000    0.8257500000000000    0.8627800000000000 H
   0.3588766666666666    0.5365900000000000    0.8086800000000000 H
   0.3865766666666667    0.5818400000000000    0.9626700000000000 H
   0.5244500000000000    0.6369899999999999    0.1635900000000000 H
   0.5604500000000000    0.7483000000000000    0.2418400000000000 H
   0.4772533333333333    0.6848500000000000    0.3758200000000000 H
   0.5099000000000000    0.6142500000000000    0.4709000000000000 H
   0.5812299999999999    0.6312700000000000    0.2715100000000000 H
   0.6137033333333333    0.5632300000000000    0.3673000000000000 H
   0.5518833333333333    0.8002600000000000    0.1261700000000000 H
   0.4974766666666666    0.7924200000000000    0.0599900000000000 H
   0.5610800000000000    0.4534300000000000    0.8456500000000000 H
   0.5295500000000000    0.5023800000000000    0.9628000000000000 H
   0.5410400000000000    0.7821100000000000    0.9814500000000000 H
   0.5706066666666667    0.7309000000000000    0.8637700000000000 H
   0.6238999999999999    0.0203800000000000    0.3302000000000000 H
   0.6456700000000000    0.1895700000000000    0.4377800000000000 H
   0.5129133333333333    0.1801800000000000    0.4377500000000000 H
   0.4905966666666666    0.0000000000000000    0.3299600000000000 H
   0.4809866666666667    0.8962500000000000    0.1954600000000000 H
   0.4910033333333333    0.8600100000000001    0.2777100000000000 H
   0.2206800000000000    0.3623000000000000    0.9273800000000000 H
   0.2295533333333333    0.2950600000000000    0.8307200000000000 H
   0.2690066666666666    0.1742500000000000    0.1373300000000000 H
   0.2429233333333333    0.1271100000000000    0.9813100000000000 H
   0.3077800000000000    0.4634200000000000    0.1914400000000000 H
   0.2800733333333333    0.4181800000000000    0.0374500000000000 H
   0.1147700000000000    0.1997800000000000    0.8739600000000000 H
   0.1691800000000000    0.2076200000000000    0.9401000000000000 H
   0.1055900000000000    0.5466100000000000    0.1545100000000000 H
   0.1371166666666667    0.4976600000000000    0.0373400000000000 H
   0.1256033333333333    0.2179100000000000    0.0186600000000000 H
   0.0960400000000000    0.2691100000000000    0.1363400000000000 H
   0.1422066666666666    0.3630600000000000    0.8365000000000000 H
   0.1062066666666667    0.2517600000000000    0.7582900000000000 H
   0.1894066666666666    0.3151600000000000    0.6243000000000000 H
   0.1567633333333333    0.3857400000000000    0.5292000000000000 H
   0.0854300000000000    0.3687700000000000    0.7286100000000000 H
   0.0529600000000000    0.4368000000000000    0.6328000000000000 H
   0.1856633333333333    0.1037900000000000    0.8046700000000000 H
   0.1756533333333333    0.1400300000000000    0.7224200000000000 H
   0.0427533333333333    0.9796500000000000    0.6699000000000001 H
   0.0209933333333333    0.8104600000000000    0.5623400000000000 H
   0.1760566666666667    0.9873700000000000    0.6701000000000000 H
   0.1537500000000000    0.8198800000000001    0.5623800000000000 H
   0.1126433333333333    0.6377400000000000    0.0727500000000000 H
   0.1037666666666667    0.7049800000000001    0.1694000000000000 H
   0.0904200000000000    0.8729000000000000    0.0000000000000000 H
   0.0643466666666667    0.8257500000000000    0.8627800000000000 H
   0.0255433333333333    0.5365900000000000    0.8086800000000000 H
   0.0532433333333333    0.5818400000000000    0.9626700000000000 H
   0.1911166666666667    0.6369899999999999    0.1635900000000000 H
   0.2271166666666667    0.7483000000000000    0.2418400000000000 H
   0.1439200000000000    0.6848500000000000    0.3758200000000000 H
   0.1765666666666666    0.6142500000000000    0.4709000000000000 H
   0.2478966666666667    0.6312700000000000    0.2715100000000000 H
   0.2803700000000000    0.5632300000000000    0.3673000000000000 H
   0.2185500000000000    0.8002600000000000    0.1261700000000000 H
   0.1641433333333333    0.7924200000000000    0.0599900000000000 H
   0.2277466666666667    0.4534300000000000    0.8456500000000000 H
   0.1962166666666667    0.5023800000000000    0.9628000000000000 H
   0.2077066666666667    0.7821100000000000    0.9814500000000000 H
   0.2372733333333333    0.7309000000000000    0.8637700000000000 H
   0.2905666666666666    0.0203800000000000    0.3302000000000000 H
   0.3123366666666667    0.1895700000000000    0.4377800000000000 H
   0.1795800000000000    0.1801800000000000    0.4377500000000000 H
   0.1572633333333333    0.0000000000000000    0.3299600000000000 H
   0.1476533333333333    0.8962500000000000    0.1954600000000000 H
   0.1576700000000000    0.8600100000000001    0.2777100000000000 H
   0.9685733333333333    0.3497300000000000    0.2657200000000000 C
   0.8836733333333333    0.2907100000000000    0.8783200000000000 C
   0.9381900000000000    0.2267600000000000    0.1146000000000000 C
   0.9234399999999999    0.2006200000000000    0.0283500000000000 C
   0.9252400000000000    0.2697500000000000    0.0002000000000000 C
   0.9594300000000000    0.3900700000000000    0.1454300000000000 C
   0.9438233333333332    0.3646700000000000    0.0589600000000000 C
   0.9559966666666666    0.3219500000000000    0.1742000000000000 C
   0.7488033333333333    0.4421900000000000    0.2243000000000000 C
   0.8158700000000000    0.2401600000000000    0.9039700000000001 C
   0.7768200000000000    0.4750400000000000    0.1237600000000000 C
   0.7942533333333333    0.4483200000000000    0.0594600000000000 C
   0.7998733333333332    0.3555300000000000    0.0211300000000000 C
   0.7880033333333333    0.2900200000000000    0.0477200000000000 C
   0.7712300000000000    0.3184800000000000    0.1135200000000000 C
   0.7653000000000000    0.4106900000000000    0.1520600000000000 C
   0.7487933333333333    0.4545300000000000    0.5161200000000000 C
   0.8075699999999999    0.2910200000000000    0.7906700000000000 C
   0.8260466666666666    0.3413100000000000    0.6252300000000000 C
   0.8079000000000000    0.3809900000000000    0.5725800000000000 C
   0.8058833333333333    0.3358500000000000    0.6812100000000000 C
   0.7677499999999999    0.3712700000000000    0.6848000000000000 C
   0.7494566666666667    0.4099800000000000    0.6308800000000000 C
   0.7691300000000000    0.4153000000000000    0.5742500000000000 C
   0.7410099999999999    0.7030200000000000    0.4922300000000000 C
   0.8311033333333333    0.1382500000000000    0.7725700000000000 C
   0.7335066666666666    0.9435500000000000    0.6463500000000000 C
   0.7217033333333333    0.8492400000000000    0.5868900000000000 C
   0.7772200000000000    0.9942400000000000    0.6771600000000000 C
   0.8087433333333333    0.9494400000000000    0.6471200000000000 C
   0.7963066666666666    0.8551200000000000    0.5865800000000000 C
   0.7529533333333333    0.8035500000000000    0.5561000000000000 C
   0.8343233333333333    0.2399000000000000    0.8362600000000000 C
   0.6352400000000000    0.3497300000000000    0.2657200000000000 C
   0.5503400000000001    0.2907100000000000    0.8783200000000000 C
   0.6048566666666666    0.2267600000000000    0.1146000000000000 C
   0.5901066666666666    0.2006200000000000    0.0283500000000000 C
   0.5919066666666666    0.2697500000000000    0.0002000000000000 C
   0.6260966666666666    0.3900700000000000    0.1454300000000000 C
   0.6104900000000000    0.3646700000000000    0.0589600000000000 C
   0.6226633333333333    0.3219500000000000    0.1742000000000000 C
   0.4154700000000000    0.4421900000000000    0.2243000000000000 C
   0.4825366666666666    0.2401600000000000    0.9039700000000001 C
   0.4434866666666666    0.4750400000000000    0.1237600000000000 C
   0.4609200000000000    0.4483200000000000    0.0594600000000000 C
   0.4665400000000000    0.3555300000000000    0.0211300000000000 C
   0.4546700000000000    0.2900200000000000    0.0477200000000000 C
   0.4378966666666667    0.3184800000000000    0.1135200000000000 C
   0.4319666666666666    0.4106900000000000    0.1520600000000000 C
   0.4154599999999999    0.4545300000000000    0.5161200000000000 C
   0.4742366666666666    0.2910200000000000    0.7906700000000000 C
   0.4927133333333333    0.3413100000000000    0.6252300000000000 C
   0.4745666666666666    0.3809900000000000    0.5725800000000000 C
   0.4725500000000000    0.3358500000000000    0.6812100000000000 C
   0.4344166666666667    0.3712700000000000    0.6848000000000000 C
   0.4161233333333333    0.4099800000000000    0.6308800000000000 C
   0.4357966666666666    0.4153000000000000    0.5742500000000000 C
   0.4076766666666666    0.7030200000000000    0.4922300000000000 C
   0.4977700000000000    0.1382500000000000    0.7725700000000000 C
   0.4001733333333333    0.9435500000000000    0.6463500000000000 C
   0.3883700000000000    0.8492400000000000    0.5868900000000000 C
   0.4438866666666667    0.9942400000000000    0.6771600000000000 C
   0.4754100000000000    0.9494400000000000    0.6471200000000000 C
   0.4629733333333333    0.8551200000000000    0.5865800000000000 C
   0.4196200000000000    0.8035500000000000    0.5561000000000000 C
   0.5009900000000000    0.2399000000000000    0.8362600000000000 C
   0.3647700000000000    0.6502800000000000    0.7343900000000000 C
   0.4496466666666666    0.7093200000000000    0.1218100000000000 C
   0.4098966666666666    0.7993900000000000    0.9717600000000000 C
   0.3951566666666667    0.7732500000000000    0.8855100000000000 C
   0.4080900000000000    0.7302700000000000    0.9998400000000000 C
   0.3738966666666667    0.6099500000000000    0.8546899999999999 C
   0.3894966666666667    0.6353600000000000    0.9411600000000000 C
   0.3773400000000000    0.6780600000000000    0.8259100000000000 C
   0.5845333333333333    0.5454400000000000    0.4839400000000000 C
   0.5257533333333333    0.7090300000000000    0.2094600000000000 C
   0.5072866666666667    0.6587300000000000    0.3749000000000000 C
   0.5254233333333334    0.6190000000000000    0.4275000000000000 C
   0.5274333333333333    0.6641600000000000    0.3188900000000000 C
   0.5655833333333333    0.6287900000000000    0.3153300000000000 C
   0.5838666666666666    0.5900300000000001    0.3692000000000000 C
   0.5642066666666666    0.5847300000000000    0.4258600000000000 C
   0.5845199999999999    0.5578300000000000    0.7758300000000000 C
   0.5174500000000000    0.7598800000000000    0.0961600000000000 C
   0.5565066666666667    0.5250000000000000    0.8763900000000000 C
   0.5390766666666666    0.5517200000000000    0.9406800000000000 C
   0.5334500000000000    0.6445000000000000    0.9790100000000000 C
   0.5453133333333333    0.7100100000000000    0.9524100000000000 C
   0.5620866666666666    0.6815500000000000    0.8866000000000001 C
   0.5680200000000000    0.5893300000000000    0.8480799999999999 C
   0.5923300000000000    0.2970200000000000    0.5079100000000000 C
   0.5998133333333333    0.0564900000000000    0.3537700000000000 C
   0.6116233333333333    0.1508000000000000    0.4132400000000000 C
   0.5370233333333333    0.1449300000000000    0.4135500000000000 C
   0.5245800000000000    0.0506200000000000    0.3530000000000000 C
   0.5803733333333333    0.1964900000000000    0.4439600000000000 C
   0.5022133333333333    0.8617899999999999    0.2275600000000000 C
   0.5561000000000000    0.0000000000000000    0.3229600000000000 C
   0.4989966666666666    0.7601400000000000    0.1638000000000000 C
   0.3019066666666667    0.3497300000000000    0.2657200000000000 C
   0.2170066666666667    0.2907100000000000    0.8783200000000000 C
   0.2715233333333333    0.2267600000000000    0.1146000000000000 C
   0.2567733333333333    0.2006200000000000    0.0283500000000000 C
   0.2585733333333333    0.2697500000000000    0.0002000000000000 C
   0.2927633333333333    0.3900700000000000    0.1454300000000000 C
   0.2771566666666667    0.3646700000000000    0.0589600000000000 C
   0.2893300000000000    0.3219500000000000    0.1742000000000000 C
   0.0821366666666667    0.4421900000000000    0.2243000000000000 C
   0.1492033333333333    0.2401600000000000    0.9039700000000001 C
   0.1101533333333333    0.4750400000000000    0.1237600000000000 C
   0.1275866666666667    0.4483200000000000    0.0594600000000000 C
   0.1332066666666666    0.3555300000000000    0.0211300000000000 C
   0.1213366666666667    0.2900200000000000    0.0477200000000000 C
   0.1045633333333333    0.3184800000000000    0.1135200000000000 C
   0.0986333333333333    0.4106900000000000    0.1520600000000000 C
   0.0821266666666667    0.4545300000000000    0.5161200000000000 C
   0.1409033333333333    0.2910200000000000    0.7906700000000000 C
   0.1593800000000000    0.3413100000000000    0.6252300000000000 C
   0.1412333333333333    0.3809900000000000    0.5725800000000000 C
   0.1392166666666667    0.3358500000000000    0.6812100000000000 C
   0.1010833333333333    0.3712700000000000    0.6848000000000000 C
   0.0827900000000000    0.4099800000000000    0.6308800000000000 C
   0.1024633333333333    0.4153000000000000    0.5742500000000000 C
   0.0743433333333333    0.7030200000000000    0.4922300000000000 C
   0.1644366666666667    0.1382500000000000    0.7725700000000000 C
   0.0668400000000000    0.9435500000000000    0.6463500000000000 C
   0.0550366666666667    0.8492400000000000    0.5868900000000000 C
   0.1105533333333333    0.9942400000000000    0.6771600000000000 C
   0.1420766666666667    0.9494400000000000    0.6471200000000000 C
   0.1296400000000000    0.8551200000000000    0.5865800000000000 C
   0.0862866666666667    0.8035500000000000    0.5561000000000000 C
   0.1676566666666667    0.2399000000000000    0.8362600000000000 C
   0.0314366666666667    0.6502800000000000    0.7343900000000000 C
   0.1163133333333333    0.7093200000000000    0.1218100000000000 C
   0.0765633333333333    0.7993900000000000    0.9717600000000000 C
   0.0618233333333333    0.7732500000000000    0.8855100000000000 C
   0.0747566666666667    0.7302700000000000    0.9998400000000000 C
   0.0405633333333333    0.6099500000000000    0.8546899999999999 C
   0.0561633333333333    0.6353600000000000    0.9411600000000000 C
   0.0440066666666667    0.6780600000000000    0.8259100000000000 C
   0.2512000000000000    0.5454400000000000    0.4839400000000000 C
   0.1924200000000000    0.7090300000000000    0.2094600000000000 C
   0.1739533333333333    0.6587300000000000    0.3749000000000000 C
   0.1920900000000000    0.6190000000000000    0.4275000000000000 C
   0.1941000000000000    0.6641600000000000    0.3188900000000000 C
   0.2322500000000000    0.6287900000000000    0.3153300000000000 C
   0.2505333333333333    0.5900300000000001    0.3692000000000000 C
   0.2308733333333333    0.5847300000000000    0.4258600000000000 C
   0.2511866666666667    0.5578300000000000    0.7758300000000000 C
   0.1841166666666667    0.7598800000000000    0.0961600000000000 C
   0.2231733333333333    0.5250000000000000    0.8763900000000000 C
   0.2057433333333333    0.5517200000000000    0.9406800000000000 C
   0.2001166666666667    0.6445000000000000    0.9790100000000000 C
   0.2119800000000000    0.7100100000000000    0.9524100000000000 C
   0.2287533333333333    0.6815500000000000    0.8866000000000001 C
   0.2346866666666667    0.5893300000000000    0.8480799999999999 C
   0.2589966666666667    0.2970200000000000    0.5079100000000000 C
   0.2664800000000000    0.0564900000000000    0.3537700000000000 C
   0.2782900000000000    0.1508000000000000    0.4132400000000000 C
   0.2036900000000000    0.1449300000000000    0.4135500000000000 C
   0.1912466666666667    0.0506200000000000    0.3530000000000000 C
   0.2470400000000000    0.1964900000000000    0.4439600000000000 C
   0.1688800000000000    0.8617899999999999    0.2275600000000000 C
   0.2227666666666667    0.0000000000000000    0.3229600000000000 C
   0.1656633333333333    0.7601400000000000    0.1638000000000000 C
   0.9289166666666666    0.4777200000000000    0.7509400000000001 O
   0.9192000000000000    0.6098300000000000    0.7389800000000000 O
   0.7110966666666666    0.7108300000000000    0.7119400000000000 O
   0.6666666666666666    0.5663000000000000    0.6778400000000000 O
   0.9006266666666666    0.3297900000000000    0.5487100000000000 O
   0.9621366666666666    0.3512900000000000    0.5226700000000000 O
   0.9898333333333333    0.4337200000000000    0.3222700000000000 O
   0.9555933333333333    0.2891700000000000    0.2881800000000000 O
   0.9095033333333333    0.2376600000000000    0.9138300000000000 O
   0.7474466666666666    0.3901800000000000    0.2611400000000000 O
   0.7377433333333333    0.5223100000000001    0.2492000000000000 O
   0.8178099999999999    0.3367000000000000    0.9588500000000000 O
   0.7673366666666667    0.4653200000000000    0.4686900000000000 O
   0.7102433333333333    0.4761000000000000    0.5157700000000000 O
   0.8258833333333333    0.2943700000000000    0.7298600000000000 O
   0.7660533333333333    0.6702600000000000    0.4514400000000000 O
   0.7045366666666666    0.6487400000000000    0.4774600000000000 O
   0.7859799999999999    0.0865800000000000    0.7360300000000000 O
   0.8993300000000000    0.5346600000000000    0.5313900000000000 O
   0.9564233333333333    0.5239100000000000    0.4843000000000000 O
   0.6565000000000000    0.4337200000000000    0.3222700000000000 O
   0.6222600000000000    0.2891700000000000    0.2881800000000000 O
   0.5761700000000000    0.2376600000000000    0.9138300000000000 O
   0.4141133333333333    0.3901800000000000    0.2611400000000000 O
   0.4044100000000000    0.5223100000000001    0.2492000000000000 O
   0.4844766666666667    0.3367000000000000    0.9588500000000000 O
   0.4340033333333333    0.4653200000000000    0.4686900000000000 O
   0.3769100000000000    0.4761000000000000    0.5157700000000000 O
   0.4925500000000000    0.2943700000000000    0.7298600000000000 O
   0.4327200000000000    0.6702600000000000    0.4514400000000000 O
   0.3712033333333333    0.6487400000000000    0.4774600000000000 O
   0.4526466666666666    0.0865800000000000    0.7360300000000000 O
   0.3777633333333333    0.7108300000000000    0.7119400000000000 O
   0.3333333333333333    0.5663000000000000    0.6778400000000000 O
   0.4238166666666666    0.7623700000000000    0.0862800000000000 O
   0.5659966666666667    0.5346600000000000    0.5313900000000000 O
   0.6230899999999999    0.5239100000000000    0.4843000000000000 O
   0.5074433333333332    0.7056800000000000    0.2702800000000000 O
   0.5858666666666666    0.6098300000000000    0.7389800000000000 O
   0.5955833333333334    0.4777200000000000    0.7509400000000001 O
   0.5155099999999999    0.6633400000000000    0.0412800000000000 O
   0.5672933333333333    0.3297900000000000    0.5487100000000000 O
   0.6288033333333334    0.3512900000000000    0.5226700000000000 O
   0.5473399999999999    0.9134600000000000    0.2640900000000000 O
   0.3231666666666667    0.4337200000000000    0.3222700000000000 O
   0.2889266666666667    0.2891700000000000    0.2881800000000000 O
   0.2428366666666666    0.2376600000000000    0.9138300000000000 O
   0.0807800000000000    0.3901800000000000    0.2611400000000000 O
   0.0710766666666667    0.5223100000000001    0.2492000000000000 O
   0.1511433333333333    0.3367000000000000    0.9588500000000000 O
   0.1006700000000000    0.4653200000000000    0.4686900000000000 O
   0.0435766666666667    0.4761000000000000    0.5157700000000000 O
   0.1592166666666667    0.2943700000000000    0.7298600000000000 O
   0.0993866666666667    0.6702600000000000    0.4514400000000000 O
   0.0378700000000000    0.6487400000000000    0.4774600000000000 O
   0.1193133333333333    0.0865800000000000    0.7360300000000000 O
   0.0444300000000000    0.7108300000000000    0.7119400000000000 O
   0.0000000000000000    0.5663000000000000    0.6778400000000000 O
   0.0904833333333333    0.7623700000000000    0.0862800000000000 O
   0.2326633333333333    0.5346600000000000    0.5313900000000000 O
   0.2897566666666667    0.5239100000000000    0.4843000000000000 O
   0.1741100000000000    0.7056800000000000    0.2702800000000000 O
   0.2525333333333333    0.6098300000000000    0.7389800000000000 O
   0.2622500000000000    0.4777200000000000    0.7509400000000001 O
   0.1821766666666667    0.6633400000000000    0.0412800000000000 O
   0.2339600000000000    0.3297900000000000    0.5487100000000000 O
   0.2954700000000000    0.3512900000000000    0.5226700000000000 O
   0.2140066666666667    0.9134600000000000    0.2640900000000000 O
