H12 O8
1.0
  31.0104061167973555    0.0000000000000000   -9.5513044382061931
  -3.1684325095257653   14.1671198265065605   -6.5831110619512545
   0.0000000000000000    0.0000000000000000   18.4969999999999999
H O
12 8
direct
   0.7290300778493073    0.7741169732136696    0.7492814631280487 H
   0.6508188261729788    0.5190009521743248    0.6859381572792378 H
   0.6885712536373274    0.6436012448524352    0.7234503592545645 H
   0.8730548179685946    0.2987691532315877    0.5460565463441498 H
   0.9857042546161963    0.3403542081759264    0.4998474369337962 H
   0.9306462234269565    0.3158603766509953    0.5196394294838997 H
   0.9301551638738002    0.4384674050566119    0.7796660694168117 H
   0.9129483527556399    0.6724477527492074    0.7584470175175999 H
   0.9208046994339156    0.5589710908942149    0.7761998718465157 H
   0.8797003553434460    0.5392619124543373    0.5477694247857465 H
   0.8747972922395899    0.5395688811679769    0.5516847916098263 H
   0.9319336804491467    0.5296512775718539    0.5047347268870018 H
   0.7110966666666666    0.7108300000000000    0.7119400000000000 O
   0.6666666666666666    0.5663000000000000    0.6778400000000000 O
   0.9006266666666666    0.3297900000000000    0.5487100000000000 O
   0.9621366666666666    0.3512900000000000    0.5226700000000000 O
   0.9289166666666666    0.4777200000000000    0.7509400000000001 O
   0.9192000000000000    0.6098300000000000    0.7389800000000000 O
   0.8993300000000000    0.5346600000000000    0.5313900000000000 O
   0.9564233333333333    0.5239100000000000    0.4843000000000000 O
