H8 C14 S1 O6
1.0
  22.5439998317512718    0.0000000000000000   -0.0027542691791368
   0.0000068605024529   23.9766519470107795   -3.4034174607087317
   0.0000000000000000    0.0000000000000000   23.2139999999999986
H C S O
8 14 1 6
direct
   0.6112050000000000    0.5766300000000000    0.0259400000000000 H
   0.7814950000000001    0.6425000000000000    0.0827300000000000 H
   0.6370350000000000    0.4851400000000000    0.0579900000000000 H
   0.8079900000000000    0.5516900000000000    0.1140000000000000 H
   0.6424600000000000    0.4099600000000000    0.1660300000000000 H
   0.8130600000000000    0.4864500000000000    0.2071600000000000 H
   0.6229650000000000    0.4117400000000000    0.2725900000000000 H
   0.7939499999999999    0.4852200000000000    0.3128100000000000 H
   0.6768600000000000    0.6692200000000000    0.0320700000000000 C
   0.6943699999999999    0.6149700000000000    0.0522900000000000 C
   0.6540000000000000    0.5705900000000000    0.0457200000000000 C
   0.7498199999999999    0.6081600000000000    0.0777900000000000 C
   0.6684550000000000    0.5195300000000000    0.0630000000000000 C
   0.7647550000000001    0.5573399999999999    0.0957000000000000 C
   0.7242649999999999    0.5131200000000000    0.0874900000000000 C
   0.7284650000000000    0.4488900000000000    0.1809200000000000 C
   0.6747850000000000    0.4275100000000000    0.1983800000000000 C
   0.7711850000000000    0.4708000000000000    0.2216500000000000 C
   0.6642100000000000    0.4283500000000000    0.2577500000000000 C
   0.7603800000000001    0.4703500000000000    0.2805800000000000 C
   0.7067950000000001    0.4492900000000000    0.2991000000000000 C
   0.6963600000000000    0.4477300000000000    0.3634400000000000 C
   0.7454300000000000    0.4469100000000000    0.1059600000000000 S
   0.6224650000000000    0.6781400000000000    1.0247400000000000 O
   0.7062650000000000    0.4055800000000000    0.0724200000000000 O
   0.8096200000000000    0.4420000000000000    0.0997000000000000 O
   0.7421949999999999    0.4491800000000000    0.3952900000000000 O
   0.6429900000000000    0.4446100000000000    0.3799900000000000 O
   0.7187450000000000    0.7038000000000000    1.0246800000000000 O
