Cu12 H74 C100 I12 N20 O4
1.0
  10.1416289753551290    0.0000000000000000    1.1709153369211935
   1.7440059433430939   30.4004188617282836    3.5140763439429277
   0.0000000000000000    0.0000000000000000   16.5629999999999988
Cu H C I N O
12 74 100 12 20 4
direct
   0.2550700000000000    0.9778433333333333    0.3336700000000000 Cu
   0.7719900000000000    0.8168366666666667    0.7878400000000000 Cu
   0.4505700000000000    0.9239933333333332    0.2878500000000000 Cu
   0.9335800000000000    0.0850066666666667    0.8336300000000000 Cu
   0.2550700000000000    0.3111766666666667    0.3336700000000000 Cu
   0.7719900000000000    0.1501700000000000    0.7878400000000000 Cu
   0.4505700000000000    0.2573266666666666    0.2878500000000000 Cu
   0.9335800000000000    0.4183400000000000    0.8336300000000000 Cu
   0.7719900000000000    0.4835033333333333    0.7878400000000000 Cu
   0.2550700000000000    0.6445099999999999    0.3336700000000000 Cu
   0.4505700000000000    0.5906600000000000    0.2878500000000000 Cu
   0.9335800000000000    0.7516733333333333    0.8336300000000000 Cu
   0.3286200000000000    0.8838533333333333    0.0113200000000000 H
   0.2886200000000000    0.8341933333333333    0.9072400000000000 H
   0.4819300000000000    0.8055633333333333    0.8168900000000000 H
   0.7440500000000000    0.8716499999999999    0.9240600000000000 H
   0.0548800000000000    0.1256533333333333    0.1101600000000000 H
   0.2042300000000000    0.1388733333333333    0.2141200000000000 H
   0.2898600000000000    0.0744400000000000    0.3045200000000000 H
   0.0907800000000000    0.9872933333333332    0.1974300000000000 H
   0.7204400000000000    0.9453833333333332    0.9515400000000001 H
   0.4357200000000000    0.8844599999999999    0.1356100000000000 H
   0.6460100000000000    0.9841099999999999    0.1964000000000000 H
   0.7533800000000000    0.0199166666666667    0.9251300000000000 H
   0.0523900000000000    0.0900500000000000    0.9859000000000000 H
   0.8697400000000000    0.9951866666666667    0.1699700000000000 H
   0.3770800000000000    0.0178833333333333    0.6103600000000000 H
   0.4170500000000000    0.0675133333333333    0.7144600000000000 H
   0.2237000000000000    0.0961900000000000    0.8047299999999999 H
   0.9615100000000000    0.0302066666666667    0.6973900000000000 H
   0.9852400000000000    0.9564333333333332    0.6699400000000000 H
   0.2699800000000000    0.0173566666666667    0.4859500000000000 H
   0.0596600000000000    0.9177266666666666    0.4251100000000000 H
   0.6510300000000000    0.7761433333333333    0.5112200000000000 H
   0.5017300000000000    0.7629333333333332    0.4072200000000000 H
   0.4160100000000000    0.8273766666666666    0.3168800000000000 H
   0.6149700000000000    0.9145266666666666    0.4240600000000000 H
   0.8360400000000000    0.9066266666666666    0.4515000000000000 H
   0.6533000000000000    0.8117599999999999    0.6355400000000000 H
   0.9522800000000000    0.8818933333333333    0.6963300000000000 H
   0.3286200000000000    0.2171866666666667    0.0113200000000000 H
   0.2886200000000000    0.1675266666666667    0.9072400000000000 H
   0.4819300000000000    0.1388966666666667    0.8168900000000000 H
   0.7440500000000000    0.2049833333333333    0.9240600000000000 H
   0.0548800000000000    0.4589866666666667    0.1101600000000000 H
   0.2042300000000000    0.4722066666666667    0.2141200000000000 H
   0.2898600000000000    0.4077733333333333    0.3045200000000000 H
   0.0907800000000000    0.3206266666666666    0.1974300000000000 H
   0.7204400000000000    0.2787166666666666    0.9515400000000001 H
   0.4357200000000000    0.2177933333333333    0.1356100000000000 H
   0.6460100000000000    0.3174433333333333    0.1964000000000000 H
   0.7533800000000000    0.3532500000000000    0.9251300000000000 H
   0.0523900000000000    0.4233833333333333    0.9859000000000000 H
   0.8697400000000000    0.3285200000000000    0.1699700000000000 H
   0.3770800000000000    0.3512166666666666    0.6103600000000000 H
   0.4170500000000000    0.4008466666666666    0.7144600000000000 H
   0.2237000000000000    0.4295233333333333    0.8047299999999999 H
   0.9615100000000000    0.3635400000000000    0.6973900000000000 H
   0.9852400000000000    0.2897666666666666    0.6699400000000000 H
   0.2699800000000000    0.3506900000000000    0.4859500000000000 H
   0.0596600000000000    0.2510599999999999    0.4251100000000000 H
   0.6510300000000000    0.1094766666666667    0.5112200000000000 H
   0.5017300000000000    0.0962666666666667    0.4072200000000000 H
   0.4160100000000000    0.1607100000000000    0.3168800000000000 H
   0.6149700000000000    0.2478600000000000    0.4240600000000000 H
   0.8360400000000000    0.2399600000000000    0.4515000000000000 H
   0.6533000000000000    0.1450933333333333    0.6355400000000000 H
   0.9522800000000000    0.2152266666666667    0.6963300000000000 H
   0.9641090813678594    0.7295888685272285    0.9886182634170276 H
   0.6352766705158497    0.5242838609057582    0.9064111509596805 H
   0.6053819540267715    0.6218248400046472    0.1554409374776009 H
   0.1330883324191787    0.6901482510969120    0.2150735870721947 H
   0.3770800000000000    0.6845500000000000    0.6103600000000000 H
   0.4170500000000000    0.7341799999999999    0.7144600000000000 H
   0.2237000000000000    0.7628566666666666    0.8047299999999999 H
   0.9615100000000000    0.6968733333333333    0.6973900000000000 H
   0.9852400000000000    0.6231000000000000    0.6699400000000000 H
   0.2699800000000000    0.6840233333333333    0.4859500000000000 H
   0.0596600000000000    0.5843933333333333    0.4251100000000000 H
   0.6510300000000000    0.4428100000000000    0.5112200000000000 H
   0.5017300000000000    0.4296000000000000    0.4072200000000000 H
   0.4160100000000000    0.4940433333333333    0.3168800000000000 H
   0.6149700000000000    0.5811933333333333    0.4240600000000000 H
   0.8360400000000000    0.5732933333333333    0.4515000000000000 H
   0.6533000000000000    0.4784266666666667    0.6355400000000000 H
   0.9522800000000000    0.5485599999999999    0.6963300000000000 H
   0.4106400000000000    0.8706933333333333    0.9712900000000000 C
   0.3883000000000000    0.8430933333333333    0.9136000000000000 C
   0.4946200000000000    0.8276033333333332    0.8622500000000000 C
   0.6409700000000000    0.8649366666666666    0.9217900000000000 C
   0.5401700000000000    0.8821466666666666    0.9758100000000000 C
   0.0942600000000000    0.0983133333333333    0.1501600000000000 C
   0.1772600000000000    0.1056966666666667    0.2078200000000000 C
   0.2235900000000000    0.0702600000000000    0.2591800000000000 C
   0.1111100000000000    0.0216000000000000    0.1997000000000000 C
   0.0595700000000000    0.0552000000000000    0.1456800000000000 C
   0.6692700000000000    0.9421633333333332    0.0132700000000000 C
   0.5107400000000000    0.9081133333333333    0.1149800000000000 C
   0.6306400000000000    0.9633733333333333    0.1493400000000000 C
   0.5729000000000000    0.9112933333333333    0.0348700000000000 C
   0.6994400000000000    0.9688366666666666    0.0710400000000000 C
   0.8156400000000000    0.0250533333333333    0.9721800000000000 C
   0.9814400000000000    0.0650433333333333    0.0000000000000000 C
   0.8793100000000000    0.0122166666666667    0.1082800000000000 C
   0.7992700000000000    0.0021500000000000    0.0505200000000000 C
   0.9719100000000001    0.0443400000000000    0.0866900000000000 C
   0.2950300000000000    0.0310633333333333    0.6503200000000000 C
   0.3173600000000000    0.0586466666666667    0.7080500000000000 C
   0.2110100000000000    0.0741633333333333    0.7593400000000000 C
   0.0646600000000000    0.0368833333333333    0.6997000000000000 C
   0.1654900000000000    0.0196466666666667    0.6457300000000000 C
   0.0363900000000000    0.9596666666666667    0.6082500000000000 C
   0.1949500000000000    0.9937066666666666    0.5065600000000000 C
   0.0750200000000000    0.9384633333333332    0.4721700000000000 C
   0.1327500000000000    0.9905400000000000    0.5866600000000000 C
   0.0062500000000000    0.9329866666666666    0.5504700000000000 C
   0.6116100000000000    0.8034899999999999    0.4712400000000000 C
   0.5286400000000000    0.7961100000000000    0.4135600000000000 C
   0.4822700000000000    0.8315533333333333    0.3622300000000000 C
   0.5946500000000000    0.8802099999999999    0.4217800000000000 C
   0.6462400000000000    0.8466033333333333    0.4757700000000000 C
   0.8263800000000000    0.8895933333333332    0.5132000000000000 C
   0.7242700000000000    0.8367599999999999    0.6149000000000000 C
   0.8900300000000000    0.8767600000000000    0.6492800000000000 C
   0.7337600000000000    0.8574766666666667    0.5348000000000001 C
   0.9064400000000000    0.8996666666666666    0.5709700000000000 C
   0.4106400000000000    0.2040266666666666    0.9712900000000000 C
   0.3883000000000000    0.1764266666666666    0.9136000000000000 C
   0.4946200000000000    0.1609366666666667    0.8622500000000000 C
   0.6409700000000000    0.1982700000000000    0.9217900000000000 C
   0.5401700000000000    0.2154800000000000    0.9758100000000000 C
   0.0942600000000000    0.4316466666666666    0.1501600000000000 C
   0.1772600000000000    0.4390300000000000    0.2078200000000000 C
   0.2235900000000000    0.4035933333333333    0.2591800000000000 C
   0.1111100000000000    0.3549333333333333    0.1997000000000000 C
   0.0595700000000000    0.3885333333333333    0.1456800000000000 C
   0.6692700000000000    0.2754966666666666    0.0132700000000000 C
   0.5107400000000000    0.2414466666666666    0.1149800000000000 C
   0.6306400000000000    0.2967066666666667    0.1493400000000000 C
   0.5729000000000000    0.2446266666666667    0.0348700000000000 C
   0.6994400000000000    0.3021700000000000    0.0710400000000000 C
   0.8156400000000000    0.3583866666666666    0.9721800000000000 C
   0.9814400000000000    0.3983766666666667    0.0000000000000000 C
   0.8793100000000000    0.3455500000000000    0.1082800000000000 C
   0.7992700000000000    0.3354833333333333    0.0505200000000000 C
   0.9719100000000001    0.3776733333333333    0.0866900000000000 C
   0.2950300000000000    0.3643966666666666    0.6503200000000000 C
   0.3173600000000000    0.3919800000000000    0.7080500000000000 C
   0.2110100000000000    0.4074966666666666    0.7593400000000000 C
   0.0646600000000000    0.3702166666666666    0.6997000000000000 C
   0.1654900000000000    0.3529800000000000    0.6457300000000000 C
   0.0363900000000000    0.2930000000000000    0.6082500000000000 C
   0.1949500000000000    0.3270400000000000    0.5065600000000000 C
   0.0750200000000000    0.2717966666666666    0.4721700000000000 C
   0.1327500000000000    0.3238733333333333    0.5866600000000000 C
   0.0062500000000000    0.2663200000000000    0.5504700000000000 C
   0.6116100000000000    0.1368233333333333    0.4712400000000000 C
   0.5286400000000000    0.1294433333333333    0.4135600000000000 C
   0.4822700000000000    0.1648866666666667    0.3622300000000000 C
   0.5946500000000000    0.2135433333333333    0.4217800000000000 C
   0.6462400000000000    0.1799366666666667    0.4757700000000000 C
   0.8263800000000000    0.2229266666666667    0.5132000000000000 C
   0.7242700000000000    0.1700933333333333    0.6149000000000000 C
   0.8900300000000000    0.2100933333333333    0.6492800000000000 C
   0.7337600000000000    0.1908100000000000    0.5348000000000001 C
   0.9064400000000000    0.2330000000000000    0.5709700000000000 C
   0.2950300000000000    0.6977300000000000    0.6503200000000000 C
   0.3173600000000000    0.7253133333333333    0.7080500000000000 C
   0.2110100000000000    0.7408300000000000    0.7593400000000000 C
   0.0646600000000000    0.7035500000000000    0.6997000000000000 C
   0.1654900000000000    0.6863133333333333    0.6457300000000000 C
   0.0363900000000000    0.6263333333333333    0.6082500000000000 C
   0.1949500000000000    0.6603733333333333    0.5065600000000000 C
   0.0750200000000000    0.6051299999999999    0.4721700000000000 C
   0.1327500000000000    0.6572066666666667    0.5866600000000000 C
   0.0062500000000000    0.5996533333333334    0.5504700000000000 C
   0.6116100000000000    0.4701566666666667    0.4712400000000000 C
   0.5286400000000000    0.4627766666666666    0.4135600000000000 C
   0.4822700000000000    0.4982200000000000    0.3622300000000000 C
   0.5946500000000000    0.5468766666666667    0.4217800000000000 C
   0.6462400000000000    0.5132700000000000    0.4757700000000000 C
   0.8263800000000000    0.5562600000000000    0.5132000000000000 C
   0.7242700000000000    0.5034266666666667    0.6149000000000000 C
   0.8900300000000000    0.5434266666666666    0.6492800000000000 C
   0.7337600000000000    0.5241433333333333    0.5348000000000001 C
   0.9064400000000000    0.5663333333333334    0.5709700000000000 C
   0.2035500000000000    0.9035266666666666    0.2663800000000000 I
   0.2035500000000000    0.2368600000000000    0.2663800000000000 I
   0.2035500000000000    0.5701933333333333    0.2663800000000000 I
   0.9953000000000000    0.8339366666666665    0.8549800000000000 I
   0.9953000000000000    0.1672700000000000    0.8549800000000000 I
   0.9953000000000000    0.5006033333333333    0.8549800000000000 I
   0.7102700000000000    0.4012300000000000    0.7665200000000000 I
   0.7102700000000000    0.0678966666666667    0.7665200000000000 I
   0.7102700000000000    0.7345633333333332    0.7665200000000000 I
   0.5021400000000000    0.9982933333333333    0.3551600000000000 I
   0.5021400000000000    0.3316266666666666    0.3551600000000000 I
   0.5021400000000000    0.6649600000000000    0.3551600000000000 I
   0.6202200000000000    0.8382600000000000    0.8657400000000000 N
   0.1912400000000000    0.0284600000000000    0.2557500000000000 N
   0.5386900000000000    0.9334666666666667    0.1715500000000000 N
   0.9052900000000000    0.0557233333333333    0.9499900000000000 N
   0.0853900000000000    0.0635433333333333    0.7557700000000001 N
   0.1669700000000000    0.9683666666666666    0.4499700000000000 N
   0.5145300000000000    0.8733599999999999    0.3657200000000000 N
   0.8003600000000000    0.8460933333333333    0.6714700000000000 N
   0.6202200000000000    0.1715933333333333    0.8657400000000000 N
   0.1912400000000000    0.3617933333333333    0.2557500000000000 N
   0.5386900000000000    0.2668000000000000    0.1715500000000000 N
   0.9052900000000000    0.3890566666666667    0.9499900000000000 N
   0.0853900000000000    0.3968766666666667    0.7557700000000001 N
   0.1669700000000000    0.3017000000000000    0.4499700000000000 N
   0.5145300000000000    0.2066933333333333    0.3657200000000000 N
   0.8003600000000000    0.1794266666666667    0.6714700000000000 N
   0.0853900000000000    0.7302099999999999    0.7557700000000001 N
   0.1669700000000000    0.6350333333333333    0.4499700000000000 N
   0.5145300000000000    0.5400266666666667    0.3657200000000000 N
   0.8003600000000000    0.5127600000000000    0.6714700000000000 N
   0.9052900000000000    0.7223900000000000    0.9499900000000000 O
   0.6202200000000000    0.5049266666666666    0.8657400000000000 O
   0.5386900000000000    0.6001333333333333    0.1715500000000000 O
   0.1912400000000000    0.6951266666666667    0.2557500000000000 O
