H4 O2
1.0
  30.5079973235387847    0.0000000000000000   -0.0127791607830565
  -0.0739677067483492   27.5218968299113591    0.0144104848435644
   0.0000000000000000    0.0000000000000000   22.2759999999999998
H O
4 2
direct
   0.7687663614176394    0.1631240397900680    0.8191134665436554 H
   0.7298217746436405    0.1148178302198894    0.8136562563333396 H
   0.7593538332004393    0.0832811122042757    0.0654693167293089 H
   0.7767020516390057    0.0261005925939422    0.0789182697089880 H
   0.7469900000000000    0.1427100000000000    0.7997300000000001 O
   0.7678350000000000    0.0604950000000000    0.0971200000000000 O
