H13 C5 N2
1.0
  30.5079973235387847    0.0000000000000000   -0.0127791607830565
  -0.0739677067483492   27.5218968299113591    0.0144104848435644
   0.0000000000000000    0.0000000000000000   22.2759999999999998
H C N
13 5 2
direct
   0.4704600000000000    0.6144900000000000    0.2981100000000000 H
   0.4778200000000000    0.6887600000000000    0.3664800000000000 H
   0.4887250000000000    0.6146800000000000    0.4316400000000000 H
   0.4631800000000000    0.6936400000000000    0.4767200000000000 H
   0.4716200000000000    0.6245050000000000    0.5502400000000000 H
   0.4506800000000000    0.7021450000000000    0.5891800000000000 H
   0.5065850000000000    0.5776700000000000    0.3291500000000000 H
   0.5626000000000000    0.6376700000000000    0.3274000000000000 H
   0.5290150000000000    0.6755599999999999    0.2835300000000000 H
   0.5437450000000000    0.6320050000000000    0.4444600000000000 H
   0.5181650000000000    0.7106600000000000    0.4892900000000000 H
   0.5270300000000000    0.6403700000000000    0.5612500000000000 H
   0.5000000000000000    0.7195050000000001    0.5961400000000000 H
   0.4960050000000000    0.6789300000000000    0.4870700000000000 C
   0.4948050000000000    0.6551549999999999    0.5489800000000000 C
   0.5285100000000000    0.6494250000000000    0.3207100000000000 C
   0.5000000000000000    0.6751850000000000    0.3763000000000000 C
   0.5107150000000000    0.6464350000000000    0.4351300000000000 C
   0.4818450000000000    0.6895850000000000    0.5967500000000000 N
   0.5032650000000000    0.6064700000000000    0.3003200000000000 N
