H2 C4 O4
1.0
  35.5993325906932014    0.0000000000000000    9.6954801375284614
   1.9546809436145891   11.6477539278447235    2.1902499503590480
   0.0000000000000000    0.0000000000000000   25.1520000000000010
H C O
2 4 4
direct
   0.6654200000000000    0.9270000000000000    0.4934450000000000 H
   0.5845850000000000    0.0729600000000000    0.5065600000000000 H
   0.5966050000000001    0.8962700000000000    0.4857200000000000 C
   0.6070150000000000    0.9989800000000000    0.4990500000000000 C
   0.6534000000000000    0.1036900000000000    0.5142800000000000 C
   0.6429950000000000    0.0009900000000000    0.5009500000000000 C
   0.5633750000000000    0.9058900000000000    0.4739700000000000 O
   0.6192050000000000    0.8024900000000000    0.4839050000000000 O
   0.6866350000000000    0.0940700000000000    0.5260350000000000 O
   0.6308000000000000    0.1974700000000000    0.5161050000000000 O
