H12 C12 N6
1.0
   8.6080962748859822    0.0000000000000000    1.5469953207085287
  -0.4278345093964603   36.0789314385876878    2.7877203737568492
   0.0000000000000000    0.0000000000000000   24.0786000000000016
H C N
12 12 6
direct
   0.5060700000000000    0.5636233333333334    0.2112400000000000 H
   0.1207800000000000    0.5799033333333333    0.1294100000000000 H
   0.1629700000000000    0.6491233333333333    0.1008700000000000 H
   0.4361800000000000    0.6011333333333333    0.0334800000000000 H
   0.6087900000000001    0.6165566666666666    0.9421000000000000 H
   0.2894300000000000    0.6721300000000000    0.1360900000000000 H
   0.3840200000000000    0.7175366666666666    0.0581400000000000 H
   0.4861900000000000    0.7704333333333333    0.7889400000000000 H
   0.8719800000000000    0.7541266666666666    0.8705100000000000 H
   0.7026000000000000    0.6666666666666666    0.8640900000000000 H
   0.8296700000000000    0.6848799999999999    0.8990700000000000 H
   0.5566600000000000    0.7329566666666666    0.9667600000000000 H
   0.4240900000000000    0.5759366666666667    0.1864800000000000 C
   0.2281200000000000    0.5833999999999999    0.1451700000000000 C
   0.2840600000000000    0.6501966666666666    0.1074700000000000 C
   0.3965800000000000    0.6582933333333333    0.0523600000000000 C
   0.4615200000000000    0.6301733333333333    0.0191600000000000 C
   0.5597600000000000    0.6388600000000000    0.9674900000000000 C
   0.4330400000000000    0.6952333333333333    0.0327500000000000 C
   0.5682700000000001    0.7581233333333333    0.8136400000000000 C
   0.7644900000000000    0.7506466666666667    0.8548300000000000 C
   0.7083900000000000    0.6838733333333333    0.8926700000000000 C
   0.5961600000000000    0.6758033333333333    0.9478600000000000 C
   0.5313000000000000    0.7039200000000000    0.9810800000000000 C
   0.4385500000000000    0.6107733333333333    0.1641100000000000 N
   0.2959900000000000    0.5577933333333334    0.1756600000000000 N
   0.3121500000000000    0.6150899999999999    0.1379300000000000 N
   0.5537400000000000    0.7233066666666667    0.8361100000000000 N
   0.6965700000000000    0.7762500000000000    0.8243400000000000 N
   0.6802900000000000    0.7189833333333333    0.8622200000000000 N
