H3 C7 N1 O4
1.0
   8.6080962748859822    0.0000000000000000    1.5469953207085287
  -0.4278345093964603   36.0789314385876878    2.7877203737568492
   0.0000000000000000    0.0000000000000000   24.0786000000000016
H C N O
3 7 1 4
direct
   0.7596200000000000    0.1152566666666667    0.6577300000000000 H
   0.1489500000000000    0.0987600000000000    0.7337200000000000 H
   0.8249800000000000    0.0084833333333333    0.7404800000000000 H
   0.6304600000000000    0.0464633333333333    0.6766900000000000 C
   0.7765500000000000    0.0597666666666667    0.6951900000000000 C
   0.8279200000000000    0.0962333333333333    0.6803900000000001 C
   0.0430900000000000    0.0872966666666667    0.7236200000000000 C
   0.9986100000000000    0.0506166666666667    0.7418200000000000 C
   0.8629100000000000    0.0369433333333333    0.7272600000000000 C
   0.0970000000000000    0.0260733333333333    0.7752700000000000 C
   0.9583600000000000    0.1100166666666667    0.6941700000000000 N
   0.5827500000000000    0.0137333333333333    0.6964200000000000 O
   0.5687600000000000    0.0678666666666667    0.6435000000000000 O
   0.0367700000000000    0.0000000000000000    0.8028200000000000 O
   0.2384200000000000    0.0376766666666667    0.7706200000000000 O
