H2 O2
1.0
   8.6080962748859822    0.0000000000000000    1.5469953207085287
  -0.4278345093964603   36.0789314385876878    2.7877203737568492
   0.0000000000000000    0.0000000000000000   24.0786000000000016
H O
2 2
direct
   0.4279064556780218    0.5851311752630257    0.1805758427719677 H
   0.5644341585276242    0.7489319215005814    0.8195719585605151 H
   0.4385500000000000    0.6107733333333333    0.1641100000000000 O
   0.5537400000000000    0.7233066666666667    0.8361100000000000 O
