H4 C10 S2 O4
1.0
  38.1201009512506914    0.0000000000000000   -9.0688345153308401
  -8.1851093200617395   26.5753211108501013   -6.3630943159632114
   0.0000000000000000    0.0000000000000000   28.5399999999999991
H C S O
4 10 2 4
direct
   0.3798900000000000    0.0331700000000000    0.0933000000000000 H
   0.3665050000000000    0.0385250000000000    0.0001000000000000 H
   0.5061300000000000    0.1293050000000000    0.1769100000000000 H
   0.5165200000000000    0.1351650000000000    0.2733700000000000 H
   0.4308600000000000    0.0938550000000000    0.1126300000000000 C
   0.4574150000000000    0.1069950000000000    0.2564700000000000 C
   0.4514650000000000    0.1050250000000000    0.3053050000000000 C
   0.4841900000000000    0.1196700000000000    0.1935000000000000 C
   0.3976000000000000    0.0599450000000000    0.0809000000000000 C
   0.4898600000000000    0.1225450000000000    0.2450400000000000 C
   0.4183500000000000    0.0972650000000000    0.0237400000000000 C
   0.4471950000000000    0.1017400000000000    0.1657250000000000 C
   0.3904900000000000    0.0624500000000000    0.0309000000000000 C
   0.4229450000000000    0.1043850000000000    0.9756199999999999 C
   0.4197100000000000    0.0889700000000000    0.2037950000000000 S
   0.4528700000000000    0.1288850000000000    0.0798500000000000 S
   0.4178550000000000    0.0906450000000000    0.3046850000000000 O
   0.4795000000000000    0.1176000000000000    0.3434950000000000 O
   0.3959700000000000    0.0803700000000000    0.9360550000000001 O
   0.4537450000000000    0.1332700000000000    0.9775250000000000 O
