H3 C8 O4
1.0
  35.5888357774146797    0.0000000000000000  -15.0801814315414831
  -7.0937374561518407   35.5311328692310653  -15.8686959430268395
   0.0000000000000000    0.0000000000000000   32.5039999999999978
H C O
3 8 4
direct
   0.6973633333333333    0.3911700000000000    0.4992600000000000 H
   0.5839366666666665    0.4489333333333333    0.5001600000000000 H
   0.6958433333333333    0.4324800000000000    0.5798350000000000 H
   0.6094266666666666    0.4131800000000000    0.4545950000000000 C
   0.6415800000000000    0.3969566666666666    0.4545300000000000 C
   0.5755000000000000    0.4062766666666666    0.4073700000000000 C
   0.6088266666666666    0.4363766666666666    0.4999650000000000 C
   0.6725566666666666    0.4039100000000000    0.4994600000000000 C
   0.6398033333333333    0.4433866666666667    0.5450800000000000 C
   0.6376666666666666    0.4681600000000000    0.5925700000000000 C
   0.6718133333333333    0.4270033333333333    0.5446350000000000 C
   0.5475833333333333    0.4221333333333333    0.4096750000000000 O
   0.5763633333333333    0.3842733333333333    0.3658800000000000 O
   0.6084200000000000    0.4827700000000000    0.5906550000000000 O
   0.6666666666666666    0.4736800000000000    0.6338850000000000 O
