H3 C2 N4
1.0
  35.5888357774146797    0.0000000000000000  -15.0801814315414831
  -7.0937374561518407   35.5311328692310653  -15.8686959430268395
   0.0000000000000000    0.0000000000000000   32.5039999999999978
H C N
3 2 4
direct
   0.1723266666666667    0.3971633333333333    0.2141700000000000 H
   0.2074566666666667    0.4585100000000000    0.3892750000000000 H
   0.2003833333333333    0.5032966666666666    0.3907350000000000 H
   0.1921300000000000    0.4616900000000000    0.3235800000000000 C
   0.1773900000000000    0.4226366666666667    0.2473850000000000 C
   0.1726000000000000    0.4556233333333333    0.2470400000000000 N
   0.1821800000000000    0.4814066666666666    0.2962250000000000 N
   0.1894233333333333    0.4244566666666666    0.2936200000000000 N
   0.2045333333333333    0.4766000000000000    0.3730400000000000 N
