H4 C8 O4
1.0
  35.5888357774146797    0.0000000000000000  -15.0801814315414831
  -7.0937374561518407   35.5311328692310653  -15.8686959430268395
   0.0000000000000000    0.0000000000000000   32.5039999999999978
H C O
4 8 4
direct
   0.0450466666666667    0.6366333333333334    0.4202050000000000 H
   0.1145800000000000    0.7478333333333333    0.4996850000000000 H
   0.0579233333333333    0.6351566666666666    0.5008049999999999 H
   0.0989200000000000    0.6904533333333333    0.5808250000000000 H
   0.0632300000000000    0.6604733333333332    0.4553800000000000 C
   0.0791566666666667    0.6922733333333333    0.4548850000000000 C
   0.0713233333333333    0.6944566666666666    0.4073250000000000 C
   0.1023433333333333    0.7230833333333333    0.4999250000000000 C
   0.0704500000000000    0.6597633333333333    0.5005550000000000 C
   0.1094966666666667    0.7225466666666667    0.5452650000000000 C
   0.0934200000000000    0.6906466666666666    0.5454000000000000 C
   0.1335366666666667    0.7564333333333333    0.5925050000000001 C
   0.0496333333333333    0.6657400000000000    0.3662100000000000 O
   0.0856700000000000    0.7240133333333333    0.4087450000000000 O
   0.1470000000000000    0.7847533333333333    0.5905850000000000 O
   0.1392833333333333    0.7553366666666667    0.6338450000000000 O
