H12 O8
1.0
  17.6143617387249449    0.0000000000000000   -2.0991382844735811
  -2.3109108898179667   17.4441034849232253   -2.0798811183839852
   0.0000000000000000    0.0000000000000000   17.7130000000000010
H O
12 8
direct
   0.7082970066698570    0.8409961540031502    0.1596210553977716 H
   0.7880051369961590    0.9203410884546634    0.3759080952512435 H
   0.7386792342890003    0.8807743836365232    0.2700537710710236 H
   0.1630703111604704    0.8387458787724594    0.7068083780990571 H
   0.3780622804246642    0.9205002013058057    0.7879288642400377 H
   0.2731049341996108    0.8797296497894228    0.7379940335991457 H
   1.0515406362326136    0.9196530054206634    0.3144947817900851 H
   0.9716325662418646    0.8397733685218732    0.0981495108533650 H
   1.0209015138255033    0.8796566197600414    0.2039547037533506 H
   0.3145616445828882    0.9182096914157173    1.0505919251493163 H
   0.0982075196880040    0.8411586699248729    0.9700186083350295 H
   0.2037815595188469    0.8795953915743139    1.0195601091935735 H
   0.7514500000000000    0.8576200000000000    0.1994100000000000 O
   0.7973600000000000    0.9033800000000000    0.3241600000000000 O
   0.2023700000000000    0.8560700000000000    0.7502700000000000 O
   0.3263700000000000    0.9032100000000000    0.7969000000000001 O
   1.0084700000000000    0.9026800000000000    0.2746900000000000 O
   0.9625200000000000    0.8566500000000000    0.1500000000000000 O
   0.2748800000000000    0.9017400000000000    1.0072999999999999 O
   0.1501600000000000    0.8573400000000000    0.9610600000000000 O
