H6 O4
1.0
  27.4559993978225378    0.0000000000000000    0.0057503711510897
  -0.0406488687416818   28.0599704503292955    0.0024486969374416
   0.0000000000000000    0.0000000000000000   32.2680000000000007
H O
6 4
direct
   0.3612294603977165    0.1878077416465512    0.6925560215491346 H
   0.5023748148655672    0.1737025812401458    0.6922234672152097 H
   0.4337229278892645    0.1855211241840005    0.6874337008618538 H
   0.3867098046318429    0.3360634123482756    0.5684816379507255 H
   0.4739470433616629    0.3279317137185199    0.5696001204490240 H
   0.2426270513803942    0.3675502766369868    0.9247806424084498 H
   0.3891150000000000    0.1723400000000000    0.7051550000000000 O
   0.4714850000000000    0.1645750000000000    0.7044950000000000 O
   0.4034300000000000    0.3331650000000000    0.5421200000000000 O
   0.4858100000000000    0.3253950000000000    0.5413700000000000 O
