H4 C8 O4
1.0
  27.4559993978225378    0.0000000000000000    0.0057503711510897
  -0.0406488687416818   28.0599704503292955    0.0024486969374416
   0.0000000000000000    0.0000000000000000   32.2680000000000007
H C O
4 8 4
direct
   0.3625100000000000    0.2871950000000000    0.5957150000000000 H
   0.3572850000000000    0.2292700000000000    0.6549150000000000 H
   0.5175050000000000    0.2669800000000000    0.5905350000000000 H
   0.5122800000000000    0.2090650000000000    0.6497400000000000 H
   0.4434650000000000    0.3154150000000000    0.5552850000000000 C
   0.4403050000000000    0.2805050000000000    0.5898500000000000 C
   0.4826750000000000    0.2584950000000000    0.6049250000000000 C
   0.4798050000000000    0.2264200000000000    0.6376450000000000 C
   0.3949700000000000    0.2698100000000000    0.6077900000000001 C
   0.3920950000000000    0.2377350000000000    0.6405000000000001 C
   0.4344950000000000    0.2159150000000000    0.6557100000000000 C
   0.4314250000000000    0.1818750000000000    0.6909400000000000 C
   0.4714850000000000    0.1645750000000000    0.7044950000000000 O
   0.4858100000000000    0.3253950000000000    0.5413700000000000 O
   0.3891150000000000    0.1723400000000000    0.7051550000000000 O
   0.4034300000000000    0.3331650000000000    0.5421200000000000 O
