H9 O6
1.0
  36.5006996014487726    0.0000000000000000   -4.5726058877622364
  -3.1544695858582923   10.9347489515776513   -5.6365403394162357
   0.0000000000000000    0.0000000000000000   26.9925999999999995
H O
9 6
direct
   0.7854639016610215    0.8932084783645807    0.8960552313094472 H
   0.8597686342896145   -0.0465000438053378    0.9402041388459508 H
   0.8797412240389475    0.9828602060236831    0.8384920899252626 H
   0.8654730081802249    0.3351649542758729    0.6507541063761277 H
   0.7812686742320172    0.1521854884025280    0.5121224637125059 H
   0.8221552631340969    0.2526478479312699    0.5827919160726881 H
   0.7849760939402626    0.9380681749875535    0.5948375057167394 H
   0.8543408281841234   -0.0305185637816162    0.6258252893452917 H
   0.8704346074141194    0.9900581167174870    0.6899930884002035 H
   0.7755275000000000    0.8810700000000000    0.9253450000000000 O
   0.8395075000000000   -0.0662899999999999    0.9570900000000000 O
   0.8512525000000000    0.2629400000000000    0.6154050000000000 O
   0.8039550000000000    0.1602100000000000    0.5375500000000000 O
   0.7703375000000000    0.9246200000000000    0.5590600000000000 O
   0.8324800000000000   -0.0448100000000000    0.5972300000000000 O
