Cd24 H187 C180 N45 O141
1.0
  36.5006996014487726    0.0000000000000000   -4.5726058877622364
  -3.1544695858582923   10.9347489515776513   -5.6365403394162357
   0.0000000000000000    0.0000000000000000   26.9925999999999995
Cd H C N O
24 187 180 45 141
direct
   0.9005500000000000    0.9399200000000000    0.4457700000000000 Cd
   0.9992449999999999    0.9990500000000000    0.4993350000000000 Cd
   0.8479350000000000    0.0583100000000000    0.0529150000000000 Cd
   0.9005500000000000    0.9399200000000000    0.9457700000000000 Cd
   0.9992449999999999    0.9990500000000000    0.9993350000000000 Cd
   0.8479350000000000    0.0583100000000000    0.5529150000000000 Cd
   0.6505500000000000    0.9399200000000000    0.4457700000000000 Cd
   0.7492449999999999    0.9990500000000000    0.4993350000000000 Cd
   0.5979350000000000    0.0583100000000000    0.0529150000000000 Cd
   0.6505500000000000    0.9399200000000000    0.9457700000000000 Cd
   0.7492449999999999    0.9990500000000000    0.9993350000000000 Cd
   0.5979350000000000    0.0583100000000000    0.5529150000000000 Cd
   0.1505500000000000    0.9399200000000000    0.4457700000000000 Cd
   0.2492450000000000    0.9990500000000000    0.4993350000000000 Cd
   0.0979350000000000    0.0583100000000000    0.0529150000000000 Cd
   0.1505500000000000    0.9399200000000000    0.9457700000000000 Cd
   0.2492450000000000    0.9990500000000000    0.9993350000000000 Cd
   0.0979350000000000    0.0583100000000000    0.5529150000000000 Cd
   0.4005500000000000    0.9399200000000000    0.9457700000000000 Cd
   0.4992450000000000    0.9990500000000000    0.9993350000000000 Cd
   0.3479350000000000    0.0583100000000000    0.5529150000000000 Cd
   0.4005500000000000    0.9399200000000000    0.4457700000000000 Cd
   0.4992450000000000    0.9990500000000000    0.4993350000000000 Cd
   0.3479350000000000    0.0583100000000000    0.0529150000000000 Cd
   0.9185200000000000    0.2473700000000000    0.1440500000000000 H
   0.9162025000000000    0.1103900000000000    0.1474800000000000 H
   0.9884700000000000    0.1395100000000000    0.3635300000000000 H
   0.9738375000000000    0.2589400000000000    0.4145550000000000 H
   0.9060525000000000    0.1605100000000000    0.3521100000000000 H
   0.9240475000000000    0.0557500000000000    0.2980350000000000 H
   0.9882250000000000    0.1816300000000000    0.1861900000000000 H
   0.9880675000000000    0.3260800000000000    0.1903250000000000 H
   0.9153225000000000    0.5503600000000000    0.3036750000000000 H
   0.8920975000000000    0.4952400000000000    0.3450700000000000 H
   0.9503600000000000    0.6118400000000001    0.4265350000000000 H
   0.9735024999999999    0.6690500000000000    0.3863450000000000 H
   0.8299275000000000    0.7507000000000000    0.3546450000000000 H
   0.8323525000000001    0.8877400000000000    0.3512200000000000 H
   0.7602425000000000    0.8600300000000000    0.1357700000000000 H
   0.7744175000000000    0.7398100000000000    0.0844500000000000 H
   0.8424325000000000    0.8369400000000000    0.1462300000000000 H
   0.8248425000000000    0.9424300000000000    0.2006400000000000 H
   0.7603400000000000    0.8169000000000000    0.3124900000000000 H
   0.7603900000000000    0.6723700000000000    0.3083300000000000 H
   0.8329675000000000    0.4474600000000000    0.1949650000000000 H
   0.8563250000000000    0.5026000000000000    0.1536850000000000 H
   0.7981100000000000    0.3863100000000000    0.0720950000000000 H
   0.7748699999999999    0.3289900000000000    0.1121750000000000 H
   0.9185200000000000    0.2473700000000000    0.6440500000000000 H
   0.9162025000000000    0.1103900000000000    0.6474800000000001 H
   0.9884700000000000    0.1395100000000000    0.8635300000000000 H
   0.9738375000000000    0.2589400000000000    0.9145550000000000 H
   0.9060525000000000    0.1605100000000000    0.8521099999999999 H
   0.9240475000000000    0.0557500000000000    0.7980350000000000 H
   0.9882250000000000    0.1816300000000000    0.6861900000000000 H
   0.9880675000000000    0.3260800000000000    0.6903250000000000 H
   0.9153225000000000    0.5503600000000000    0.8036749999999999 H
   0.8920975000000000    0.4952400000000000    0.8450700000000000 H
   0.9503600000000000    0.6118400000000001    0.9265350000000000 H
   0.9735024999999999    0.6690500000000000    0.8863449999999999 H
   0.8299275000000000    0.7507000000000000    0.8546450000000000 H
   0.8323525000000001    0.8877400000000000    0.8512200000000000 H
   0.7602425000000000    0.8600300000000000    0.6357699999999999 H
   0.7744175000000000    0.7398100000000000    0.5844500000000000 H
   0.8424325000000000    0.8369400000000000    0.6462300000000000 H
   0.8248425000000000    0.9424300000000000    0.7006400000000000 H
   0.7603400000000000    0.8169000000000000    0.8124899999999999 H
   0.7603900000000000    0.6723700000000000    0.8083300000000000 H
   0.8329675000000000    0.4474600000000000    0.6949650000000001 H
   0.8563250000000000    0.5026000000000000    0.6536850000000000 H
   0.7981100000000000    0.3863100000000000    0.5720950000000000 H
   0.7748699999999999    0.3289900000000000    0.6121750000000000 H
   0.6685200000000000    0.2473700000000000    0.1440500000000000 H
   0.6662025000000000    0.1103900000000000    0.1474800000000000 H
   0.7384700000000000    0.1395100000000000    0.3635300000000000 H
   0.7238375000000000    0.2589400000000000    0.4145550000000000 H
   0.6560525000000000    0.1605100000000000    0.3521100000000000 H
   0.6740475000000000    0.0557500000000000    0.2980350000000000 H
   0.7382250000000000    0.1816300000000000    0.1861900000000000 H
   0.7380675000000000    0.3260800000000000    0.1903250000000000 H
   0.6653225000000000    0.5503600000000000    0.3036750000000000 H
   0.6420975000000000    0.4952400000000000    0.3450700000000000 H
   0.7003600000000000    0.6118400000000001    0.4265350000000000 H
   0.7235024999999999    0.6690500000000000    0.3863450000000000 H
   0.5799275000000000    0.7507000000000000    0.3546450000000000 H
   0.5823525000000001    0.8877400000000000    0.3512200000000000 H
   0.5102425000000000    0.8600300000000000    0.1357700000000000 H
   0.5244175000000000    0.7398100000000000    0.0844500000000000 H
   0.5924325000000000    0.8369400000000000    0.1462300000000000 H
   0.5748425000000000    0.9424300000000000    0.2006400000000000 H
   0.5103400000000000    0.8169000000000000    0.3124900000000000 H
   0.5103900000000000    0.6723700000000000    0.3083300000000000 H
   0.5829675000000000    0.4474600000000000    0.1949650000000000 H
   0.6063250000000000    0.5026000000000000    0.1536850000000000 H
   0.5481100000000000    0.3863100000000000    0.0720950000000000 H
   0.5248699999999999    0.3289900000000000    0.1121750000000000 H
   0.7555308959865266    1.1055988272673882    0.9467453473120888 H
   0.6435647356980526    1.0458149422620158    0.8796227718895426 H
   0.6964901903507583    1.0780975747868480    0.9091142563692268 H
   0.6676031581763885    0.7497562327423994    0.9028999879490726 H
   0.7283269383518144    1.1146299217152793    0.6088266921144206 H
   0.5799275000000000    0.7507000000000000    0.8546450000000000 H
   0.5823525000000001    0.8877400000000000    0.8512200000000000 H
   0.5102425000000000    0.8600300000000000    0.6357699999999999 H
   0.5244175000000000    0.7398100000000000    0.5844500000000000 H
   0.5924325000000000    0.8369400000000000    0.6462300000000000 H
   0.5748425000000000    0.9424300000000000    0.7006400000000000 H
   0.5103400000000000    0.8169000000000000    0.8124899999999999 H
   0.5103900000000000    0.6723700000000000    0.8083300000000000 H
   0.5829675000000000    0.4474600000000000    0.6949650000000001 H
   0.6063250000000000    0.5026000000000000    0.6536850000000000 H
   0.5481100000000000    0.3863100000000000    0.5720950000000000 H
   0.5248699999999999    0.3289900000000000    0.6121750000000000 H
   0.6484589278371715    0.0489525878564694    0.5696568311274640 H
   0.1685200000000000    0.2473700000000000    0.1440500000000000 H
   0.1662025000000000    0.1103900000000000    0.1474800000000000 H
   0.2384700000000000    0.1395100000000000    0.3635300000000000 H
   0.2238375000000000    0.2589400000000000    0.4145550000000000 H
   0.1560525000000000    0.1605100000000000    0.3521100000000000 H
   0.1740475000000000    0.0557500000000000    0.2980350000000000 H
   0.2382250000000000    0.1816300000000000    0.1861900000000000 H
   0.2380675000000000    0.3260800000000000    0.1903250000000000 H
   0.1653225000000000    0.5503600000000000    0.3036750000000000 H
   0.1420975000000000    0.4952400000000000    0.3450700000000000 H
   0.2003600000000000    0.6118400000000001    0.4265350000000000 H
   0.2235025000000000    0.6690500000000000    0.3863450000000000 H
   0.0799275000000000    0.7507000000000000    0.3546450000000000 H
   0.0823525000000000    0.8877400000000000    0.3512200000000000 H
   0.0102425000000000    0.8600300000000000    0.1357700000000000 H
   0.0244175000000000    0.7398100000000000    0.0844500000000000 H
   0.0924325000000000    0.8369400000000000    0.1462300000000000 H
   0.0748425000000000    0.9424300000000000    0.2006400000000000 H
   0.0103400000000000    0.8169000000000000    0.3124900000000000 H
   0.0103900000000000    0.6723700000000000    0.3083300000000000 H
   0.0829675000000000    0.4474600000000000    0.1949650000000000 H
   0.1063250000000000    0.5026000000000000    0.1536850000000000 H
   0.0481100000000000    0.3863100000000000    0.0720950000000000 H
   0.0248700000000000    0.3289900000000000    0.1121750000000000 H
   0.1685200000000000    0.2473700000000000    0.6440500000000000 H
   0.1662025000000000    0.1103900000000000    0.6474800000000001 H
   0.2384700000000000    0.1395100000000000    0.8635300000000000 H
   0.2238375000000000    0.2589400000000000    0.9145550000000000 H
   0.1560525000000000    0.1605100000000000    0.8521099999999999 H
   0.1740475000000000    0.0557500000000000    0.7980350000000000 H
   0.2382250000000000    0.1816300000000000    0.6861900000000000 H
   0.2380675000000000    0.3260800000000000    0.6903250000000000 H
   0.1653225000000000    0.5503600000000000    0.8036749999999999 H
   0.1420975000000000    0.4952400000000000    0.8450700000000000 H
   0.2003600000000000    0.6118400000000001    0.9265350000000000 H
   0.2235025000000000    0.6690500000000000    0.8863449999999999 H
   0.0799275000000000    0.7507000000000000    0.8546450000000000 H
   0.0823525000000000    0.8877400000000000    0.8512200000000000 H
   0.0102425000000000    0.8600300000000000    0.6357699999999999 H
   0.0244175000000000    0.7398100000000000    0.5844500000000000 H
   0.0924325000000000    0.8369400000000000    0.6462300000000000 H
   0.0748425000000000    0.9424300000000000    0.7006400000000000 H
   0.0103400000000000    0.8169000000000000    0.8124899999999999 H
   0.0103900000000000    0.6723700000000000    0.8083300000000000 H
   0.0829675000000000    0.4474600000000000    0.6949650000000001 H
   0.1063250000000000    0.5026000000000000    0.6536850000000000 H
   0.0481100000000000    0.3863100000000000    0.5720950000000000 H
   0.0248700000000000    0.3289900000000000    0.6121750000000000 H
   0.4185200000000000    0.2473700000000000    0.6440500000000000 H
   0.4162025000000000    0.1103900000000000    0.6474800000000001 H
   0.4884700000000000    0.1395100000000000    0.8635300000000000 H
   0.4738375000000000    0.2589400000000000    0.9145550000000000 H
   0.4060525000000000    0.1605100000000000    0.8521099999999999 H
   0.4240475000000000    0.0557500000000000    0.7980350000000000 H
   0.4882250000000000    0.1816300000000000    0.6861900000000000 H
   0.4880675000000000    0.3260800000000000    0.6903250000000000 H
   0.4153225000000000    0.5503600000000000    0.8036749999999999 H
   0.3920975000000000    0.4952400000000000    0.8450700000000000 H
   0.4503600000000000    0.6118400000000001    0.9265350000000000 H
   0.4735025000000000    0.6690500000000000    0.8863449999999999 H
   0.3299275000000000    0.7507000000000000    0.8546450000000000 H
   0.3323525000000000    0.8877400000000000    0.8512200000000000 H
   0.2602425000000000    0.8600300000000000    0.6357699999999999 H
   0.2744175000000000    0.7398100000000000    0.5844500000000000 H
   0.3424325000000000    0.8369400000000000    0.6462300000000000 H
   0.3248425000000000    0.9424300000000000    0.7006400000000000 H
   0.2603400000000000    0.8169000000000000    0.8124899999999999 H
   0.2603900000000000    0.6723700000000000    0.8083300000000000 H
   0.3329675000000000    0.4474600000000000    0.6949650000000001 H
   0.3563250000000000    0.5026000000000000    0.6536850000000000 H
   0.2981100000000000    0.3863100000000000    0.5720950000000000 H
   0.2748700000000000    0.3289900000000000    0.6121750000000000 H
   0.4185200000000000    0.2473700000000000    0.1440500000000000 H
   0.4162025000000000    0.1103900000000000    0.1474800000000000 H
   0.4884700000000000    0.1395100000000000    0.3635300000000000 H
   0.4738375000000000    0.2589400000000000    0.4145550000000000 H
   0.4060525000000000    0.1605100000000000    0.3521100000000000 H
   0.4240475000000000    0.0557500000000000    0.2980350000000000 H
   0.4882250000000000    0.1816300000000000    0.1861900000000000 H
   0.4880675000000000    0.3260800000000000    0.1903250000000000 H
   0.4153225000000000    0.5503600000000000    0.3036750000000000 H
   0.3920975000000000    0.4952400000000000    0.3450700000000000 H
   0.4503600000000000    0.6118400000000001    0.4265350000000000 H
   0.4735025000000000    0.6690500000000000    0.3863450000000000 H
   0.3299275000000000    0.7507000000000000    0.3546450000000000 H
   0.3323525000000000    0.8877400000000000    0.3512200000000000 H
   0.2602425000000000    0.8600300000000000    0.1357700000000000 H
   0.2744175000000000    0.7398100000000000    0.0844500000000000 H
   0.3424325000000000    0.8369400000000000    0.1462300000000000 H
   0.3248425000000000    0.9424300000000000    0.2006400000000000 H
   0.2603400000000000    0.8169000000000000    0.3124900000000000 H
   0.2603900000000000    0.6723700000000000    0.3083300000000000 H
   0.3329675000000000    0.4474600000000000    0.1949650000000000 H
   0.3563250000000000    0.5026000000000000    0.1536850000000000 H
   0.2981100000000000    0.3863100000000000    0.0720950000000000 H
   0.2748700000000000    0.3289900000000000    0.1121750000000000 H
   0.6807748185207585    1.0543860398926617    0.6857612755690288 H
   0.9346625000000000    0.1813100000000000    0.1416050000000000 C
   0.9403300000000000    0.1176700000000000    0.0818150000000000 C
   0.9638774999999999    0.1628700000000000    0.3807350000000000 C
   0.9521475000000000    0.0867000000000000    0.4096050000000000 C
   0.9311825000000000    0.1470400000000000    0.3349300000000000 C
   0.9709300000000000    0.2445200000000000    0.1895100000000000 C
   0.9198100000000000    0.5260500000000000    0.3376250000000000 C
   0.9499750000000000    0.3939100000000000    0.2671200000000000 C
   0.9310725000000000    0.3455800000000000    0.3412650000000000 C
   0.9539675000000000    0.1985200000000000    0.2641700000000000 C
   0.9453350000000000    0.6357300000000000    0.3922950000000000 C
   0.9278600000000000    0.7412800000000000    0.4126800000000000 C
   0.8138400000000000    0.8169000000000000    0.3570850000000000 C
   0.8081675000000000    0.8806000000000000    0.4168650000000000 C
   0.7846550000000000    0.8358900000000000    0.1182300000000000 C
   0.7963750000000001    0.9117300000000000    0.0891950000000000 C
   0.8174525000000000    0.8510900000000000    0.1637200000000000 C
   0.7775850000000000    0.7538800000000000    0.3091700000000000 C
   0.8285700000000000    0.4718800000000000    0.1610400000000000 C
   0.7984725000000000    0.6042800000000000    0.2315550000000000 C
   0.8174275000000000    0.6524799999999999    0.1574050000000000 C
   0.7947225000000000    0.7999400000000000    0.2346100000000000 C
   0.8030675000000000    0.3623300000000000    0.1063150000000000 C
   0.8205425000000000    0.2567900000000000    0.0859700000000000 C
   0.9346625000000000    0.1813100000000000    0.6416050000000000 C
   0.9403300000000000    0.1176700000000000    0.5818150000000000 C
   0.9638774999999999    0.1628700000000000    0.8807350000000000 C
   0.9521475000000000    0.0867000000000000    0.9096050000000000 C
   0.9311825000000000    0.1470400000000000    0.8349299999999999 C
   0.9709300000000000    0.2445200000000000    0.6895100000000001 C
   0.9198100000000000    0.5260500000000000    0.8376250000000001 C
   0.9499750000000000    0.3939100000000000    0.7671200000000000 C
   0.9310725000000000    0.3455800000000000    0.8412649999999999 C
   0.9539675000000000    0.1985200000000000    0.7641700000000000 C
   0.9453350000000000    0.6357300000000000    0.8922950000000001 C
   0.9278600000000000    0.7412800000000000    0.9126799999999999 C
   0.8138400000000000    0.8169000000000000    0.8570850000000000 C
   0.8081675000000000    0.8806000000000000    0.9168650000000000 C
   0.7846550000000000    0.8358900000000000    0.6182300000000001 C
   0.7963750000000001    0.9117300000000000    0.5891950000000000 C
   0.8174525000000000    0.8510900000000000    0.6637200000000000 C
   0.7775850000000000    0.7538800000000000    0.8091699999999999 C
   0.8285700000000000    0.4718800000000000    0.6610400000000000 C
   0.7984725000000000    0.6042800000000000    0.7315550000000000 C
   0.8174275000000000    0.6524799999999999    0.6574050000000000 C
   0.7947225000000000    0.7999400000000000    0.7346100000000000 C
   0.8030675000000000    0.3623300000000000    0.6063150000000000 C
   0.8205425000000000    0.2567900000000000    0.5859700000000000 C
   0.6846625000000000    0.1813100000000000    0.1416050000000000 C
   0.6903300000000000    0.1176700000000000    0.0818150000000000 C
   0.7138774999999999    0.1628700000000000    0.3807350000000000 C
   0.7021475000000000    0.0867000000000000    0.4096050000000000 C
   0.6811825000000000    0.1470400000000000    0.3349300000000000 C
   0.7209300000000000    0.2445200000000000    0.1895100000000000 C
   0.6698100000000000    0.5260500000000000    0.3376250000000000 C
   0.6999750000000000    0.3939100000000000    0.2671200000000000 C
   0.6810725000000000    0.3455800000000000    0.3412650000000000 C
   0.7039675000000000    0.1985200000000000    0.2641700000000000 C
   0.6953350000000000    0.6357300000000000    0.3922950000000000 C
   0.6778600000000000    0.7412800000000000    0.4126800000000000 C
   0.5638400000000000    0.8169000000000000    0.3570850000000000 C
   0.5581675000000000    0.8806000000000000    0.4168650000000000 C
   0.5346550000000000    0.8358900000000000    0.1182300000000000 C
   0.5463750000000001    0.9117300000000000    0.0891950000000000 C
   0.5674525000000000    0.8510900000000000    0.1637200000000000 C
   0.5275850000000000    0.7538800000000000    0.3091700000000000 C
   0.5785700000000000    0.4718800000000000    0.1610400000000000 C
   0.5484725000000000    0.6042800000000000    0.2315550000000000 C
   0.5674275000000000    0.6524799999999999    0.1574050000000000 C
   0.5447225000000000    0.7999400000000000    0.2346100000000000 C
   0.5530675000000000    0.3623300000000000    0.1063150000000000 C
   0.5705425000000000    0.2567900000000000    0.0859700000000000 C
   0.5638400000000000    0.8169000000000000    0.8570850000000000 C
   0.5581675000000000    0.8806000000000000    0.9168650000000000 C
   0.5346550000000000    0.8358900000000000    0.6182300000000001 C
   0.5463750000000001    0.9117300000000000    0.5891950000000000 C
   0.5674525000000000    0.8510900000000000    0.6637200000000000 C
   0.5275850000000000    0.7538800000000000    0.8091699999999999 C
   0.5785700000000000    0.4718800000000000    0.6610400000000000 C
   0.5484725000000000    0.6042800000000000    0.7315550000000000 C
   0.5674275000000000    0.6524799999999999    0.6574050000000000 C
   0.5447225000000000    0.7999400000000000    0.7346100000000000 C
   0.5530675000000000    0.3623300000000000    0.6063150000000000 C
   0.5705425000000000    0.2567900000000000    0.5859700000000000 C
   0.1846625000000000    0.1813100000000000    0.1416050000000000 C
   0.1903300000000000    0.1176700000000000    0.0818150000000000 C
   0.2138775000000000    0.1628700000000000    0.3807350000000000 C
   0.2021475000000000    0.0867000000000000    0.4096050000000000 C
   0.1811825000000000    0.1470400000000000    0.3349300000000000 C
   0.2209300000000000    0.2445200000000000    0.1895100000000000 C
   0.1698100000000000    0.5260500000000000    0.3376250000000000 C
   0.1999750000000000    0.3939100000000000    0.2671200000000000 C
   0.1810725000000000    0.3455800000000000    0.3412650000000000 C
   0.2039675000000000    0.1985200000000000    0.2641700000000000 C
   0.1953350000000000    0.6357300000000000    0.3922950000000000 C
   0.1778600000000000    0.7412800000000000    0.4126800000000000 C
   0.0638400000000000    0.8169000000000000    0.3570850000000000 C
   0.0581675000000000    0.8806000000000000    0.4168650000000000 C
   0.0346550000000000    0.8358900000000000    0.1182300000000000 C
   0.0463750000000000    0.9117300000000000    0.0891950000000000 C
   0.0674525000000000    0.8510900000000000    0.1637200000000000 C
   0.0275850000000000    0.7538800000000000    0.3091700000000000 C
   0.0785700000000000    0.4718800000000000    0.1610400000000000 C
   0.0484725000000000    0.6042800000000000    0.2315550000000000 C
   0.0674275000000000    0.6524799999999999    0.1574050000000000 C
   0.0447225000000000    0.7999400000000000    0.2346100000000000 C
   0.0530675000000000    0.3623300000000000    0.1063150000000000 C
   0.0705425000000000    0.2567900000000000    0.0859700000000000 C
   0.1846625000000000    0.1813100000000000    0.6416050000000000 C
   0.1903300000000000    0.1176700000000000    0.5818150000000000 C
   0.2138775000000000    0.1628700000000000    0.8807350000000000 C
   0.2021475000000000    0.0867000000000000    0.9096050000000000 C
   0.1811825000000000    0.1470400000000000    0.8349299999999999 C
   0.2209300000000000    0.2445200000000000    0.6895100000000001 C
   0.1698100000000000    0.5260500000000000    0.8376250000000001 C
   0.1999750000000000    0.3939100000000000    0.7671200000000000 C
   0.1810725000000000    0.3455800000000000    0.8412649999999999 C
   0.2039675000000000    0.1985200000000000    0.7641700000000000 C
   0.1953350000000000    0.6357300000000000    0.8922950000000001 C
   0.1778600000000000    0.7412800000000000    0.9126799999999999 C
   0.0638400000000000    0.8169000000000000    0.8570850000000000 C
   0.0581675000000000    0.8806000000000000    0.9168650000000000 C
   0.0346550000000000    0.8358900000000000    0.6182300000000001 C
   0.0463750000000000    0.9117300000000000    0.5891950000000000 C
   0.0674525000000000    0.8510900000000000    0.6637200000000000 C
   0.0275850000000000    0.7538800000000000    0.8091699999999999 C
   0.0785700000000000    0.4718800000000000    0.6610400000000000 C
   0.0484725000000000    0.6042800000000000    0.7315550000000000 C
   0.0674275000000000    0.6524799999999999    0.6574050000000000 C
   0.0447225000000000    0.7999400000000000    0.7346100000000000 C
   0.0530675000000000    0.3623300000000000    0.6063150000000000 C
   0.0705425000000000    0.2567900000000000    0.5859700000000000 C
   0.4346625000000000    0.1813100000000000    0.6416050000000000 C
   0.4403300000000000    0.1176700000000000    0.5818150000000000 C
   0.4638775000000000    0.1628700000000000    0.8807350000000000 C
   0.4521475000000000    0.0867000000000000    0.9096050000000000 C
   0.4311825000000000    0.1470400000000000    0.8349299999999999 C
   0.4709300000000000    0.2445200000000000    0.6895100000000001 C
   0.4198100000000000    0.5260500000000000    0.8376250000000001 C
   0.4499750000000000    0.3939100000000000    0.7671200000000000 C
   0.4310725000000000    0.3455800000000000    0.8412649999999999 C
   0.4539675000000000    0.1985200000000000    0.7641700000000000 C
   0.4453350000000000    0.6357300000000000    0.8922950000000001 C
   0.4278600000000000    0.7412800000000000    0.9126799999999999 C
   0.3138400000000000    0.8169000000000000    0.8570850000000000 C
   0.3081675000000000    0.8806000000000000    0.9168650000000000 C
   0.2846550000000000    0.8358900000000000    0.6182300000000001 C
   0.2963750000000000    0.9117300000000000    0.5891950000000000 C
   0.3174525000000000    0.8510900000000000    0.6637200000000000 C
   0.2775850000000000    0.7538800000000000    0.8091699999999999 C
   0.3285700000000000    0.4718800000000000    0.6610400000000000 C
   0.2984725000000000    0.6042800000000000    0.7315550000000000 C
   0.3174275000000000    0.6524799999999999    0.6574050000000000 C
   0.2947225000000000    0.7999400000000000    0.7346100000000000 C
   0.3030675000000000    0.3623300000000000    0.6063150000000000 C
   0.3205425000000000    0.2567900000000000    0.5859700000000000 C
   0.4346625000000000    0.1813100000000000    0.1416050000000000 C
   0.4403300000000000    0.1176700000000000    0.0818150000000000 C
   0.4638775000000000    0.1628700000000000    0.3807350000000000 C
   0.4521475000000000    0.0867000000000000    0.4096050000000000 C
   0.4311825000000000    0.1470400000000000    0.3349300000000000 C
   0.4709300000000000    0.2445200000000000    0.1895100000000000 C
   0.4198100000000000    0.5260500000000000    0.3376250000000000 C
   0.4499750000000000    0.3939100000000000    0.2671200000000000 C
   0.4310725000000000    0.3455800000000000    0.3412650000000000 C
   0.4539675000000000    0.1985200000000000    0.2641700000000000 C
   0.4453350000000000    0.6357300000000000    0.3922950000000000 C
   0.4278600000000000    0.7412800000000000    0.4126800000000000 C
   0.3138400000000000    0.8169000000000000    0.3570850000000000 C
   0.3081675000000000    0.8806000000000000    0.4168650000000000 C
   0.2846550000000000    0.8358900000000000    0.1182300000000000 C
   0.2963750000000000    0.9117300000000000    0.0891950000000000 C
   0.3174525000000000    0.8510900000000000    0.1637200000000000 C
   0.2775850000000000    0.7538800000000000    0.3091700000000000 C
   0.3285700000000000    0.4718800000000000    0.1610400000000000 C
   0.2984725000000000    0.6042800000000000    0.2315550000000000 C
   0.3174275000000000    0.6524799999999999    0.1574050000000000 C
   0.2947225000000000    0.7999400000000000    0.2346100000000000 C
   0.3030675000000000    0.3623300000000000    0.1063150000000000 C
   0.3205425000000000    0.2567900000000000    0.0859700000000000 C
   0.9601975000000000    0.2842800000000000    0.2445700000000000 N
   0.9404075000000001    0.2353900000000000    0.3136700000000000 N
   0.9358075000000000    0.4206300000000000    0.3158450000000000 N
   0.7883325000000000    0.7140500000000000    0.2541250000000000 N
   0.8081925000000000    0.7628300000000000    0.1850350000000000 N
   0.8126325000000000    0.5774300000000000    0.1828200000000000 N
   0.9601975000000000    0.2842800000000000    0.7445700000000000 N
   0.9404075000000001    0.2353900000000000    0.8136700000000000 N
   0.9358075000000000    0.4206300000000000    0.8158449999999999 N
   0.7883325000000000    0.7140500000000000    0.7541249999999999 N
   0.8081925000000000    0.7628300000000000    0.6850350000000001 N
   0.8126325000000000    0.5774300000000000    0.6828200000000000 N
   0.7101975000000000    0.2842800000000000    0.2445700000000000 N
   0.6904075000000001    0.2353900000000000    0.3136700000000000 N
   0.6858075000000000    0.4206300000000000    0.3158450000000000 N
   0.5383325000000000    0.7140500000000000    0.2541250000000000 N
   0.5581925000000000    0.7628300000000000    0.1850350000000000 N
   0.5626325000000000    0.5774300000000000    0.1828200000000000 N
   0.5383325000000000    0.7140500000000000    0.7541249999999999 N
   0.5581925000000000    0.7628300000000000    0.6850350000000001 N
   0.5626325000000000    0.5774300000000000    0.6828200000000000 N
   0.2101975000000000    0.2842800000000000    0.2445700000000000 N
   0.1904075000000000    0.2353900000000000    0.3136700000000000 N
   0.1858075000000000    0.4206300000000000    0.3158450000000000 N
   0.0383325000000000    0.7140500000000000    0.2541250000000000 N
   0.0581925000000000    0.7628300000000000    0.1850350000000000 N
   0.0626325000000000    0.5774300000000000    0.1828200000000000 N
   0.2101975000000000    0.2842800000000000    0.7445700000000000 N
   0.1904075000000000    0.2353900000000000    0.8136700000000000 N
   0.1858075000000000    0.4206300000000000    0.8158449999999999 N
   0.0383325000000000    0.7140500000000000    0.7541249999999999 N
   0.0581925000000000    0.7628300000000000    0.6850350000000001 N
   0.0626325000000000    0.5774300000000000    0.6828200000000000 N
   0.4601975000000000    0.2842800000000000    0.7445700000000000 N
   0.4404075000000000    0.2353900000000000    0.8136700000000000 N
   0.4358075000000000    0.4206300000000000    0.8158449999999999 N
   0.2883325000000000    0.7140500000000000    0.7541249999999999 N
   0.3081925000000000    0.7628300000000000    0.6850350000000001 N
   0.3126325000000000    0.5774300000000000    0.6828200000000000 N
   0.4601975000000000    0.2842800000000000    0.2445700000000000 N
   0.4404075000000000    0.2353900000000000    0.3136700000000000 N
   0.4358075000000000    0.4206300000000000    0.3158450000000000 N
   0.2883325000000000    0.7140500000000000    0.2541250000000000 N
   0.3081925000000000    0.7628300000000000    0.1850350000000000 N
   0.3126325000000000    0.5774300000000000    0.1828200000000000 N