Zn64 H318 C376 N256 O126
1.0
  25.5079973736788190    0.0000000000000000   -0.0115751628283009
   0.0444596923488098   25.4739611402109247   -0.0017784206931670
   0.0000000000000000    0.0000000000000000   25.6610000000000014
Zn H C N O
64 318 376 256 126
direct
   0.4804300000000000    0.5335750000000000    0.5619300000000000 Zn
   0.9804300000000000    0.0335750000000000    0.5619300000000000 Zn
   0.9807200000000000    0.7158400000000000    0.9379900000000000 Zn
   0.4807200000000000    0.2158400000000000    0.9379900000000000 Zn
   0.0336900000000000    0.2688250000000000    0.5617900000000000 Zn
   0.5336900000000000    0.7688250000000000    0.5617900000000000 Zn
   0.2689350000000000    0.2158600000000000    0.5616800000000000 Zn
   0.7689349999999999    0.7158599999999999    0.5616800000000000 Zn
   0.7688699999999999    0.0334900000000000    0.9381699999999999 Zn
   0.2688700000000000    0.5334900000000000    0.9381699999999999 Zn
   0.7156200000000000    0.4816200000000000    0.5619900000000000 Zn
   0.2156200000000000    0.9816199999999999    0.5619900000000000 Zn
   0.5336750000000000    0.9804649999999999    0.9380800000000000 Zn
   0.0336750000000000    0.4804650000000000    0.9380800000000000 Zn
   0.2157000000000000    0.7688800000000000    0.9382000000000000 Zn
   0.7157000000000000    0.2688800000000000    0.9382000000000000 Zn
   0.7843000000000000    0.2311200000000000    0.0617000000000000 Zn
   0.7843700000000000    0.0183950000000000    0.4379900000000000 Zn
   0.0195500000000000    0.9664349999999999    0.4380400000000000 Zn
   0.5195500000000000    0.4664350000000000    0.4380400000000000 Zn
   0.0192750000000000    0.2841450000000000    0.0619900000000000 Zn
   0.5192750000000000    0.7841450000000000    0.0619900000000000 Zn
   0.7310650000000000    0.7841549999999999    0.4383000000000000 Zn
   0.2310650000000000    0.2841550000000000    0.4383000000000000 Zn
   0.2843700000000000    0.5183950000000001    0.4379900000000000 Zn
   0.2311200000000000    0.9665049999999999    0.0618200000000000 Zn
   0.7311200000000000    0.4665050000000000    0.0618200000000000 Zn
   0.4663050000000000    0.2311850000000000    0.4381700000000000 Zn
   0.9663050000000000    0.7311850000000000    0.4381700000000000 Zn
   0.4663250000000000    0.0195100000000000    0.0618800000000000 Zn
   0.9663250000000000    0.5195100000000000    0.0618800000000000 Zn
   0.2843000000000000    0.7311200000000000    0.0617000000000000 Zn
   0.4804300000000000    0.0335750000000000    0.5619300000000000 Zn
   0.9804300000000000    0.5335750000000000    0.5619300000000000 Zn
   0.4807200000000000    0.7158400000000000    0.9379900000000000 Zn
   0.9807200000000000    0.2158400000000000    0.9379900000000000 Zn
   0.0336900000000000    0.7688250000000000    0.5617900000000000 Zn
   0.5336900000000000    0.2688250000000000    0.5617900000000000 Zn
   0.2689350000000000    0.7158599999999999    0.5616800000000000 Zn
   0.7689349999999999    0.2158600000000000    0.5616800000000000 Zn
   0.2688700000000000    0.0334900000000000    0.9381699999999999 Zn
   0.7688699999999999    0.5334900000000000    0.9381699999999999 Zn
   0.7156200000000000    0.9816199999999999    0.5619900000000000 Zn
   0.2156200000000000    0.4816200000000000    0.5619900000000000 Zn
   0.0336750000000000    0.9804649999999999    0.9380800000000000 Zn
   0.5336750000000000    0.4804650000000000    0.9380800000000000 Zn
   0.7157000000000000    0.7688800000000000    0.9382000000000000 Zn
   0.2157000000000000    0.2688800000000000    0.9382000000000000 Zn
   0.0195500000000000    0.4664350000000000    0.4380400000000000 Zn
   0.5195500000000000    0.9664349999999999    0.4380400000000000 Zn
   0.0192750000000000    0.7841450000000000    0.0619900000000000 Zn
   0.5192750000000000    0.2841450000000000    0.0619900000000000 Zn
   0.7310650000000000    0.2841550000000000    0.4383000000000000 Zn
   0.2310650000000000    0.7841549999999999    0.4383000000000000 Zn
   0.2843700000000000    0.0183950000000000    0.4379900000000000 Zn
   0.7843700000000000    0.5183950000000001    0.4379900000000000 Zn
   0.7311200000000000    0.9665049999999999    0.0618200000000000 Zn
   0.2311200000000000    0.4665050000000000    0.0618200000000000 Zn
   0.4663050000000000    0.7311850000000000    0.4381700000000000 Zn
   0.9663050000000000    0.2311850000000000    0.4381700000000000 Zn
   0.9663250000000000    0.0195100000000000    0.0618800000000000 Zn
   0.4663250000000000    0.5195100000000000    0.0618800000000000 Zn
   0.7843000000000000    0.7311200000000000    0.0617000000000000 Zn
   0.2843000000000000    0.2311200000000000    0.0617000000000000 Zn
   0.6172500000000000    0.0098500000000000    0.8507000000000000 H
   0.6862750000000000    0.0229100000000000    0.8511400000000000 H
   0.6104400000000000    0.9714800000000000    0.0342800000000000 H
   0.1320000000000000    0.0108300000000000    0.6493700000000000 H
   0.0627950000000000    0.0230350000000000    0.6489500000000000 H
   0.1397650000000000    0.9732799999999999    0.4656800000000000 H
   0.9710050000000000    0.0350950000000000    0.7680200000000000 H
   0.9074050000000000    0.0329350000000000    0.8419400000000000 H
   0.8427600000000000    0.0342750000000000    0.6592100000000000 H
   0.7791450000000000    0.0356950000000000    0.7331400000000000 H
   0.1172500000000000    0.5098500000000000    0.8507000000000000 H
   0.1862750000000000    0.5229100000000000    0.8511400000000000 H
   0.1104400000000000    0.4714800000000000    0.0342800000000000 H
   0.6320000000000000    0.5108300000000000    0.6493700000000000 H
   0.5627950000000000    0.5230350000000000    0.6489500000000000 H
   0.6397650000000000    0.4732800000000000    0.4656800000000000 H
   0.4710050000000000    0.5350950000000000    0.7680200000000000 H
   0.4074050000000000    0.5329350000000000    0.8419400000000000 H
   0.3427600000000000    0.5342750000000001    0.6592100000000000 H
   0.2791450000000000    0.5356950000000000    0.7331400000000000 H
   0.0100500000000000    0.6320900000000000    0.8502400000000000 H
   0.0227800000000000    0.5628800000000000    0.8508500000000000 H
   0.9714499999999999    0.6395500000000001    0.0337800000000000 H
   0.0100900000000000    0.1171100000000000    0.6492400000000000 H
   0.0229750000000000    0.1862300000000000    0.6487600000000000 H
   0.9708450000000000    0.1104350000000000    0.4657200000000000 H
   0.0361350000000000    0.2782500000000000    0.7665600000000000 H
   0.0343800000000000    0.3412550000000000    0.8411000000000000 H
   0.0361450000000000    0.4706700000000000    0.7335199999999999 H
   0.0344450000000000    0.4076800000000000    0.6589800000000000 H
   0.5100500000000000    0.1320900000000000    0.8502400000000000 H
   0.5227800000000000    0.0628800000000000    0.8508500000000000 H
   0.4714500000000000    0.1395500000000000    0.0337800000000000 H
   0.5100900000000000    0.6171100000000000    0.6492400000000000 H
   0.5229750000000000    0.6862300000000000    0.6487600000000000 H
   0.4708450000000000    0.6104350000000001    0.4657200000000000 H
   0.5361350000000000    0.7782500000000000    0.7665600000000000 H
   0.5343800000000000    0.8412550000000000    0.8411000000000000 H
   0.5361450000000000    0.9706699999999999    0.7335199999999999 H
   0.5344450000000001    0.9076800000000000    0.6589800000000000 H
   0.2394650000000000    0.6172400000000000    0.8508000000000000 H
   0.2263200000000000    0.6863800000000000    0.8512500000000000 H
   0.2796650000000000    0.6104400000000000    0.0339800000000000 H
   0.1173650000000000    0.2393000000000000    0.6491000000000000 H
   0.1864900000000000    0.2265300000000000    0.6487400000000000 H
   0.1104350000000000    0.2785700000000000    0.4657000000000000 H
   0.6320600000000001    0.2395350000000000    0.8508300000000000 H
   0.5630600000000000    0.2263100000000000    0.8513100000000000 H
   0.6394950000000000    0.2786150000000000    0.0341000000000000 H
   0.4074550000000000    0.2158300000000000    0.6580400000000000 H
   0.4711250000000000    0.2139850000000000    0.7319000000000000 H
   0.2792900000000000    0.2143650000000000    0.7668500000000000 H
   0.3429850000000000    0.2162050000000000    0.8407800000000000 H
   0.2397400000000000    0.1326350000000000    0.6487900000000000 H
   0.2264700000000000    0.0635600000000000    0.6484000000000000 H
   0.2797500000000000    0.1393050000000000    0.4656200000000000 H
   0.2160600000000000    0.9077900000000000    0.8419000000000000 H
   0.2139450000000000    0.9715250000000000    0.7680000000000000 H
   0.2129300000000000    0.7794500000000000    0.7331000000000000 H
   0.2143150000000000    0.8431649999999999    0.6591000000000000 H
   0.7394650000000000    0.1172400000000000    0.8508000000000000 H
   0.7263200000000000    0.1863800000000000    0.8512500000000000 H
   0.7796650000000001    0.1104400000000000    0.0339800000000000 H
   0.6173649999999999    0.7393000000000001    0.6491000000000000 H
   0.6864900000000000    0.7265300000000000    0.6487400000000000 H
   0.6104350000000001    0.7785700000000000    0.4657000000000000 H
   0.1320600000000000    0.7395350000000001    0.8508300000000000 H
   0.0630600000000000    0.7263100000000000    0.8513100000000000 H
   0.1394950000000000    0.7786150000000001    0.0341000000000000 H
   0.9074550000000000    0.7158300000000000    0.6580400000000000 H
   0.9711250000000000    0.7139850000000000    0.7319000000000000 H
   0.7792900000000000    0.7143650000000000    0.7668500000000000 H
   0.8429850000000000    0.7162050000000000    0.8407800000000000 H
   0.7397400000000001    0.6326350000000001    0.6487900000000000 H
   0.7264699999999999    0.5635600000000001    0.6484000000000000 H
   0.7797499999999999    0.6393050000000000    0.4656200000000000 H
   0.7160600000000000    0.4077900000000000    0.8419000000000000 H
   0.7139450000000001    0.4715250000000000    0.7680000000000000 H
   0.7129300000000001    0.2794500000000000    0.7331000000000000 H
   0.7143150000000000    0.3431650000000000    0.6591000000000000 H
   0.7827270500214568    0.1941704115671454    0.1525955256845374 H
   0.7836718187754640    0.0546678593703993    0.3461823261041826 H
   0.3827750000000000    0.9899850000000000    0.1492300000000000 H
   0.3137450000000000    0.9769450000000000    0.1487900000000000 H
   0.3895550000000000    0.0284250000000000    0.9656600000000000 H
   0.8679800000000000    0.9892000000000001    0.3506100000000000 H
   0.9371849999999999    0.9770000000000000    0.3510200000000000 H
   0.8602099999999999    0.0266900000000000    0.5343000000000000 H
   0.0289650000000000    0.9649550000000000    0.2319500000000000 H
   0.0925700000000000    0.9671149999999999    0.1580300000000000 H
   0.1572000000000000    0.9657100000000001    0.3407600000000000 H
   0.2208250000000000    0.9642850000000001    0.2668400000000000 H
   0.9898850000000000    0.3678650000000000    0.1497000000000000 H
   0.9771650000000001    0.4370750000000000    0.1490900000000000 H
   0.0285450000000000    0.3604250000000000    0.9661700000000000 H
   0.9898700000000000    0.8829050000000001    0.3507100000000000 H
   0.9769850000000000    0.8137850000000000    0.3511900000000000 H
   0.0291900000000000    0.8895550000000000    0.5342100000000000 H
   0.9655000000000000    0.5923300000000000    0.3409700000000000 H
   0.9637950000000000    0.5293350000000000    0.2664400000000000 H
   0.9638650000000000    0.7217550000000000    0.2333900000000000 H
   0.9656150000000000    0.6587450000000000    0.1588500000000000 H
   0.2605150000000000    0.8827350000000000    0.1491900000000000 H
   0.2736850000000000    0.8136000000000000    0.1487300000000000 H
   0.2202750000000000    0.8895500000000001    0.9660200000000000 H
   0.3826150000000000    0.2607000000000000    0.3508700000000000 H
   0.3134900000000000    0.2734750000000000    0.3512400000000000 H
   0.3895650000000000    0.2214150000000000    0.5342600000000000 H
   0.8679550000000000    0.2603750000000000    0.1492000000000000 H
   0.9369550000000000    0.2736300000000000    0.1487100000000000 H
   0.8605350000000000    0.2211850000000000    0.9659200000000000 H
   0.1570000000000000    0.2838450000000000    0.1592200000000000 H
   0.2206950000000000    0.2856850000000000    0.2331500000000000 H
   0.0925350000000000    0.2840850000000000    0.3419600000000000 H
   0.0288650000000000    0.2859300000000000    0.2680300000000000 H
   0.2602500000000000    0.3673750000000000    0.3511900000000000 H
   0.2735150000000000    0.4364500000000000    0.3515700000000000 H
   0.2202500000000000    0.3607150000000000    0.5343700000000000 H
   0.2860100000000000    0.5284700000000000    0.2319800000000000 H
   0.2838650000000000    0.5922050000000000    0.1580000000000000 H
   0.2856750000000000    0.6568300000000000    0.3408100000000000 H
   0.2870450000000000    0.7205450000000000    0.2668700000000000 H
   0.4898850000000000    0.8678650000000000    0.1497000000000000 H
   0.4771650000000000    0.9370750000000000    0.1490900000000000 H
   0.5285450000000000    0.8604250000000000    0.9661700000000000 H
   0.4898700000000000    0.3829050000000000    0.3507100000000000 H
   0.4769850000000000    0.3137850000000000    0.3511900000000000 H
   0.5291900000000000    0.3895550000000000    0.5342100000000000 H
   0.4655000000000000    0.0923300000000000    0.3409700000000000 H
   0.4637950000000000    0.0293350000000000    0.2664400000000000 H
   0.4638650000000000    0.2217550000000000    0.2333900000000000 H
   0.4656150000000000    0.1587450000000000    0.1588500000000000 H
   0.8826149999999999    0.7606999999999999    0.3508700000000000 H
   0.8134900000000000    0.7734750000000000    0.3512400000000000 H
   0.8895649999999999    0.7214150000000000    0.5342600000000000 H
   0.7602500000000000    0.8673750000000000    0.3511900000000000 H
   0.7735150000000000    0.9364500000000000    0.3515700000000000 H
   0.7202500000000001    0.8607150000000000    0.5343700000000000 H
   0.3679550000000000    0.7603750000000000    0.1492000000000000 H
   0.4369550000000000    0.7736300000000000    0.1487100000000000 H
   0.3605350000000000    0.7211850000000000    0.9659200000000000 H
   0.6570000000000000    0.7838450000000000    0.1592200000000000 H
   0.7206950000000000    0.7856850000000000    0.2331500000000000 H
   0.5925350000000000    0.7840849999999999    0.3419600000000000 H
   0.5288650000000000    0.7859300000000000    0.2680300000000000 H
   0.7605150000000001    0.3827350000000000    0.1491900000000000 H
   0.7736850000000000    0.3136000000000000    0.1487300000000000 H
   0.7202750000000000    0.3895500000000000    0.9660200000000000 H
   0.8827750000000000    0.4899850000000000    0.1492300000000000 H
   0.8137449999999999    0.4769450000000000    0.1487900000000000 H
   0.8895550000000000    0.5284250000000000    0.9656600000000000 H
   0.3679800000000000    0.4892000000000000    0.3506100000000000 H
   0.4371850000000000    0.4770000000000000    0.3510200000000000 H
   0.3602100000000000    0.5266900000000000    0.5343000000000000 H
   0.5289650000000000    0.4649550000000000    0.2319500000000000 H
   0.5925700000000000    0.4671150000000000    0.1580300000000000 H
   0.6572000000000000    0.4657100000000000    0.3407600000000000 H
   0.7208250000000000    0.4642850000000000    0.2668400000000000 H
   0.1172500000000000    0.0098500000000000    0.8507000000000000 H
   0.1862750000000000    0.0229100000000000    0.8511400000000000 H
   0.1104400000000000    0.9714800000000000    0.0342800000000000 H
   0.6320000000000000    0.0108300000000000    0.6493700000000000 H
   0.5627950000000000    0.0230350000000000    0.6489500000000000 H
   0.6397650000000000    0.9732799999999999    0.4656800000000000 H
   0.4710050000000000    0.0350950000000000    0.7680200000000000 H
   0.4074050000000000    0.0329350000000000    0.8419400000000000 H
   0.3427600000000000    0.0342750000000000    0.6592100000000000 H
   0.2791450000000000    0.0356950000000000    0.7331400000000000 H
   0.6172500000000000    0.5098500000000000    0.8507000000000000 H
   0.6862750000000000    0.5229100000000000    0.8511400000000000 H
   0.6104400000000000    0.4714800000000000    0.0342800000000000 H
   0.1320000000000000    0.5108300000000000    0.6493700000000000 H
   0.0627950000000000    0.5230350000000000    0.6489500000000000 H
   0.1397650000000000    0.4732800000000000    0.4656800000000000 H
   0.9710050000000000    0.5350950000000000    0.7680200000000000 H
   0.9074050000000000    0.5329350000000000    0.8419400000000000 H
   0.8427600000000000    0.5342750000000001    0.6592100000000000 H
   0.7791450000000000    0.5356950000000000    0.7331400000000000 H
   0.5100500000000000    0.6320900000000000    0.8502400000000000 H
   0.5227800000000000    0.5628800000000000    0.8508500000000000 H
   0.4714500000000000    0.6395500000000001    0.0337800000000000 H
   0.5100900000000000    0.1171100000000000    0.6492400000000000 H
   0.5229750000000000    0.1862300000000000    0.6487600000000000 H
   0.4708450000000000    0.1104350000000000    0.4657200000000000 H
   0.5361350000000000    0.2782500000000000    0.7665600000000000 H
   0.5343800000000000    0.3412550000000000    0.8411000000000000 H
   0.5361450000000000    0.4706700000000000    0.7335199999999999 H
   0.5344450000000001    0.4076800000000000    0.6589800000000000 H
   0.0100500000000000    0.1320900000000000    0.8502400000000000 H
   0.0227800000000000    0.0628800000000000    0.8508500000000000 H
   0.9714499999999999    0.1395500000000000    0.0337800000000000 H
   0.0100900000000000    0.6171100000000000    0.6492400000000000 H
   0.0229750000000000    0.6862300000000000    0.6487600000000000 H
   0.9708450000000000    0.6104350000000001    0.4657200000000000 H
   0.0361350000000000    0.7782500000000000    0.7665600000000000 H
   0.0343800000000000    0.8412550000000000    0.8411000000000000 H
   0.0361450000000000    0.9706699999999999    0.7335199999999999 H
   0.0344450000000000    0.9076800000000000    0.6589800000000000 H
   0.7394650000000000    0.6172400000000000    0.8508000000000000 H
   0.7263200000000000    0.6863800000000000    0.8512500000000000 H
   0.7796650000000001    0.6104400000000000    0.0339800000000000 H
   0.6173649999999999    0.2393000000000000    0.6491000000000000 H
   0.6864900000000000    0.2265300000000000    0.6487400000000000 H
   0.6104350000000001    0.2785700000000000    0.4657000000000000 H
   0.1320600000000000    0.2395350000000000    0.8508300000000000 H
   0.0630600000000000    0.2263100000000000    0.8513100000000000 H
   0.1394950000000000    0.2786150000000000    0.0341000000000000 H
   0.9074550000000000    0.2158300000000000    0.6580400000000000 H
   0.9711250000000000    0.2139850000000000    0.7319000000000000 H
   0.7792900000000000    0.2143650000000000    0.7668500000000000 H
   0.8429850000000000    0.2162050000000000    0.8407800000000000 H
   0.7397400000000001    0.1326350000000000    0.6487900000000000 H
   0.7264699999999999    0.0635600000000000    0.6484000000000000 H
   0.7797499999999999    0.1393050000000000    0.4656200000000000 H
   0.7160600000000000    0.9077900000000000    0.8419000000000000 H
   0.7139450000000001    0.9715250000000000    0.7680000000000000 H
   0.7129300000000001    0.7794500000000000    0.7331000000000000 H
   0.7143150000000000    0.8431649999999999    0.6591000000000000 H
   0.2394650000000000    0.1172400000000000    0.8508000000000000 H
   0.2263200000000000    0.1863800000000000    0.8512500000000000 H
   0.2796650000000000    0.1104400000000000    0.0339800000000000 H
   0.1173650000000000    0.7393000000000001    0.6491000000000000 H
   0.1864900000000000    0.7265300000000000    0.6487400000000000 H
   0.1104350000000000    0.7785700000000000    0.4657000000000000 H
   0.6320600000000001    0.7395350000000001    0.8508300000000000 H
   0.5630600000000000    0.7263100000000000    0.8513100000000000 H
   0.6394950000000000    0.7786150000000001    0.0341000000000000 H
   0.4074550000000000    0.7158300000000000    0.6580400000000000 H
   0.4711250000000000    0.7139850000000000    0.7319000000000000 H
   0.2792900000000000    0.7143650000000000    0.7668500000000000 H
   0.3429850000000000    0.7162050000000000    0.8407800000000000 H
   0.2397400000000000    0.6326350000000001    0.6487900000000000 H
   0.2264700000000000    0.5635600000000001    0.6484000000000000 H
   0.2797500000000000    0.6393050000000000    0.4656200000000000 H
   0.2160600000000000    0.4077900000000000    0.8419000000000000 H
   0.2139450000000000    0.4715250000000000    0.7680000000000000 H
   0.2129300000000000    0.2794500000000000    0.7331000000000000 H
   0.2143150000000000    0.3431650000000000    0.6591000000000000 H
   0.3827750000000000    0.4899850000000000    0.1492300000000000 H
   0.3137450000000000    0.4769450000000000    0.1487900000000000 H
   0.3895550000000000    0.5284250000000000    0.9656600000000000 H
   0.8679800000000000    0.4892000000000000    0.3506100000000000 H
   0.9371849999999999    0.4770000000000000    0.3510200000000000 H
   0.8602099999999999    0.5266900000000000    0.5343000000000000 H
   0.0289650000000000    0.4649550000000000    0.2319500000000000 H
   0.0925700000000000    0.4671150000000000    0.1580300000000000 H
   0.1572000000000000    0.4657100000000000    0.3407600000000000 H
   0.2208250000000000    0.4642850000000000    0.2668400000000000 H
   0.8827750000000000    0.9899850000000000    0.1492300000000000 H
   0.8137449999999999    0.9769450000000000    0.1487900000000000 H
   0.8895550000000000    0.0284250000000000    0.9656600000000000 H
   0.3679800000000000    0.9892000000000001    0.3506100000000000 H
   0.4371850000000000    0.9770000000000000    0.3510200000000000 H
   0.3602100000000000    0.0266900000000000    0.5343000000000000 H
   0.5289650000000000    0.9649550000000000    0.2319500000000000 H
   0.5925700000000000    0.9671149999999999    0.1580300000000000 H
   0.6572000000000000    0.9657100000000001    0.3407600000000000 H
   0.7208250000000000    0.9642850000000001    0.2668400000000000 H
   0.4898850000000000    0.3678650000000000    0.1497000000000000 H
   0.4771650000000000    0.4370750000000000    0.1490900000000000 H
   0.5285450000000000    0.3604250000000000    0.9661700000000000 H
   0.4898700000000000    0.8829050000000001    0.3507100000000000 H
   0.4769850000000000    0.8137850000000000    0.3511900000000000 H
   0.5291900000000000    0.8895550000000000    0.5342100000000000 H
   0.4655000000000000    0.5923300000000000    0.3409700000000000 H
   0.4637950000000000    0.5293350000000000    0.2664400000000000 H
   0.4638650000000000    0.7217550000000000    0.2333900000000000 H
   0.4656150000000000    0.6587450000000000    0.1588500000000000 H
   0.7605150000000001    0.8827350000000000    0.1491900000000000 H
   0.7736850000000000    0.8136000000000000    0.1487300000000000 H
   0.7202750000000000    0.8895500000000001    0.9660200000000000 H
   0.8826149999999999    0.2607000000000000    0.3508700000000000 H
   0.8134900000000000    0.2734750000000000    0.3512400000000000 H
   0.8895649999999999    0.2214150000000000    0.5342600000000000 H
   0.3679550000000000    0.2603750000000000    0.1492000000000000 H
   0.4369550000000000    0.2736300000000000    0.1487100000000000 H
   0.3605350000000000    0.2211850000000000    0.9659200000000000 H
   0.6570000000000000    0.2838450000000000    0.1592200000000000 H
   0.7206950000000000    0.2856850000000000    0.2331500000000000 H
   0.5925350000000000    0.2840850000000000    0.3419600000000000 H
   0.5288650000000000    0.2859300000000000    0.2680300000000000 H
   0.7602500000000000    0.3673750000000000    0.3511900000000000 H
   0.7735150000000000    0.4364500000000000    0.3515700000000000 H
   0.7202500000000001    0.3607150000000000    0.5343700000000000 H
   0.7860100000000000    0.5284700000000000    0.2319800000000000 H
   0.7838650000000000    0.5922050000000000    0.1580000000000000 H
   0.7856750000000000    0.6568300000000000    0.3408100000000000 H
   0.7870450000000000    0.7205450000000000    0.2668700000000000 H
   0.9898850000000000    0.8678650000000000    0.1497000000000000 H
   0.9771650000000001    0.9370750000000000    0.1490900000000000 H
   0.0285450000000000    0.8604250000000000    0.9661700000000000 H
   0.9898700000000000    0.3829050000000000    0.3507100000000000 H
   0.9769850000000000    0.3137850000000000    0.3511900000000000 H
   0.0291900000000000    0.3895550000000000    0.5342100000000000 H
   0.9655000000000000    0.0923300000000000    0.3409700000000000 H
   0.9637950000000000    0.0293350000000000    0.2664400000000000 H
   0.9638650000000000    0.2217550000000000    0.2333900000000000 H
   0.9656150000000000    0.1587450000000000    0.1588500000000000 H
   0.2605150000000000    0.3827350000000000    0.1491900000000000 H
   0.2736850000000000    0.3136000000000000    0.1487300000000000 H
   0.2202750000000000    0.3895500000000000    0.9660200000000000 H
   0.3826150000000000    0.7606999999999999    0.3508700000000000 H
   0.3134900000000000    0.7734750000000000    0.3512400000000000 H
   0.3895650000000000    0.7214150000000000    0.5342600000000000 H
   0.8679550000000000    0.7603750000000000    0.1492000000000000 H
   0.9369550000000000    0.7736300000000000    0.1487100000000000 H
   0.8605350000000000    0.7211850000000000    0.9659200000000000 H
   0.1570000000000000    0.7838450000000000    0.1592200000000000 H
   0.2206950000000000    0.7856850000000000    0.2331500000000000 H
   0.0925350000000000    0.7840849999999999    0.3419600000000000 H
   0.0288650000000000    0.7859300000000000    0.2680300000000000 H
   0.2602500000000000    0.8673750000000000    0.3511900000000000 H
   0.2735150000000000    0.9364500000000000    0.3515700000000000 H
   0.2202500000000000    0.8607150000000000    0.5343700000000000 H
   0.2860100000000000    0.0284700000000000    0.2319800000000000 H
   0.2838650000000000    0.0922050000000000    0.1580000000000000 H
   0.2856750000000000    0.1568300000000000    0.3408100000000000 H
   0.2870450000000000    0.2205450000000000    0.2668700000000000 H
   0.6545850000000000    0.0012200000000000    0.9210700000000001 C
   0.6330300000000000    0.9815849999999999    0.9999000000000000 C
   0.0948200000000000    0.0016150000000000    0.5789800000000001 C
   0.1169050000000000    0.9829049999999999    0.5000400000000000 C
   0.9492849999999999    0.0353000000000000    0.6650000000000000 C
   0.8011100000000000    0.0345500000000000    0.8363000000000000 C
   0.9289750000000000    0.0348100000000000    0.7606900000000000 C
   0.8935150000000001    0.0337500000000000    0.8018300000000000 C
   0.9108550000000000    0.0346750000000000    0.7090500000000000 C
   0.8566600000000000    0.0345050000000000    0.6993000000000000 C
   0.8211800000000000    0.0351550000000000    0.7404900000000000 C
   0.8393150000000000    0.0342550000000000    0.7921200000000000 C
   0.1545850000000000    0.5012200000000000    0.9210700000000001 C
   0.1330300000000000    0.4815850000000000    0.9999000000000000 C
   0.5948200000000000    0.5016150000000000    0.5789800000000001 C
   0.6169050000000000    0.4829050000000000    0.5000400000000000 C
   0.4492850000000000    0.5353000000000000    0.6650000000000000 C
   0.3011100000000000    0.5345500000000000    0.8363000000000000 C
   0.4289750000000000    0.5348100000000000    0.7606900000000000 C
   0.3935150000000000    0.5337499999999999    0.8018300000000000 C
   0.4108550000000000    0.5346750000000000    0.7090500000000000 C
   0.3566600000000000    0.5345050000000000    0.6993000000000000 C
   0.3211800000000000    0.5351550000000000    0.7404900000000000 C
   0.3393150000000000    0.5342550000000000    0.7921200000000000 C
   0.0009200000000000    0.5948400000000000    0.9206299999999999 C
   0.9814700000000001    0.6167800000000000    0.9994499999999999 C
   0.0009550000000000    0.1545600000000000    0.5789000000000000 C
   0.9810850000000000    0.1330300000000000    0.5000900000000000 C
   0.0354350000000000    0.4478850000000000    0.8363300000000000 C
   0.0354600000000000    0.3010550000000000    0.6637300000000000 C
   0.0357250000000000    0.3204050000000000    0.7596200000000000 C
   0.0348950000000000    0.3555350000000000    0.8011000000000000 C
   0.0352050000000000    0.3390350000000000    0.7081600000000000 C
   0.0357450000000000    0.4285150000000000    0.7403999999999999 C
   0.0349100000000000    0.3933900000000000    0.6989500000000000 C
   0.0351650000000000    0.4098900000000000    0.7919000000000000 C
   0.5009200000000000    0.0948400000000000    0.9206299999999999 C
   0.4814700000000000    0.1167800000000000    0.9994499999999999 C
   0.5009550000000000    0.6545600000000000    0.5789000000000000 C
   0.4810850000000000    0.6330300000000000    0.5000900000000000 C
   0.5354350000000000    0.9478850000000000    0.8363300000000000 C
   0.5354600000000000    0.8010550000000001    0.6637300000000000 C
   0.5357250000000000    0.8204050000000001    0.7596200000000000 C
   0.5348950000000000    0.8555349999999999    0.8011000000000000 C
   0.5352050000000000    0.8390350000000000    0.7081600000000000 C
   0.5357450000000000    0.9285150000000000    0.7403999999999999 C
   0.5349100000000000    0.8933900000000000    0.6989500000000000 C
   0.5351650000000000    0.9098900000000000    0.7919000000000000 C
   0.2485800000000000    0.6546450000000000    0.9210700000000001 C
   0.2691500000000000    0.6330700000000000    0.9997000000000000 C
   0.1547050000000000    0.2484250000000000    0.5788400000000000 C
   0.1330700000000000    0.2683600000000000    0.5000700000000000 C
   0.5948950000000000    0.2483750000000000    0.9211900000000000 C
   0.6167450000000000    0.2683550000000000    0.9998800000000000 C