H4 C8 O4
1.0
  25.5079973736788190    0.0000000000000000   -0.0115751628283009
   0.0444596923488098   25.4739611402109247   -0.0017784206931670
   0.0000000000000000    0.0000000000000000   25.6610000000000014
H C O
4 8 4
direct
   0.7860100000000000    0.0284700000000000    0.2319800000000000 H
   0.7838650000000000    0.0922050000000000    0.1580000000000000 H
   0.7870450000000000    0.2205450000000000    0.2668700000000000 H
   0.7856750000000000    0.1568300000000000    0.3408100000000000 H
   0.7858450000000000    0.0886500000000000    0.2909800000000000 C
   0.7858450000000000    0.0705600000000000    0.2393300000000000 C
   0.7847900000000000    0.1060950000000000    0.1981800000000000 C
   0.7863500000000000    0.0501300000000000    0.3349900000000000 C
   0.7854000000000000    0.1603650000000000    0.2078800000000000 C
   0.7864300000000000    0.1784600000000000    0.2595300000000000 C
   0.7858000000000001    0.1429200000000000    0.3007000000000000 C
   0.7856200000000000    0.1986950000000000    0.1637200000000000 C
   0.7754050000000000    0.0686750000000000    0.3807300000000000 O
   0.7977350000000001    0.0024550000000000    0.3268000000000000 O
   0.7737849999999999    0.1801850000000000    0.1182100000000000 O
   0.7977050000000000    0.2462700000000000    0.1713500000000000 O
