H2 O2
1.0
  25.5079973736788190    0.0000000000000000   -0.0115751628283009
   0.0444596923488098   25.4739611402109247   -0.0017784206931670
   0.0000000000000000    0.0000000000000000   25.6610000000000014
H O
2 2
direct
   0.9831221111709418    0.1034007569403525   -0.0003110153652097 H
   1.0006138253618559    0.0824009594739468    0.9286128078381563 H
   0.9878300000000000    0.0652750000000000    0.0003700000000000 O
   0.9998199999999999    0.0501500000000000    0.9493100000000000 O
