H4 O2
1.0
  32.7467187094473857    0.0000000000000000   -8.9812220640806295
  -4.4722063038549633   23.0794479515638820   -2.2056738260253956
   0.0000000000000000    0.0000000000000000   31.8859999999999992
H O
4 2
direct
   0.1383523209613901    0.1527121444053278    0.8158542172118949 H
   0.1288344899690418    0.1565246774199922    0.8650472240372276 H
   0.1508958575963272    0.8975783515265470    0.8240187372364813 H
   0.1192910168744492    0.8946620606771969    0.8566464852823441 H
   0.1330850000000000    0.1757100000000000    0.8402550000000000 O
   0.1346600000000000    0.8746900000000000    0.8399099999999999 O
