H6 O4
1.0
  32.7467187094473857    0.0000000000000000   -8.9812220640806295
  -4.4722063038549633   23.0794479515638820   -2.2056738260253956
   0.0000000000000000    0.0000000000000000   31.8859999999999992
H O
6 4
direct
   0.0810681405917846    0.2125903565805904    0.4051340394145773 H
   0.0831300635035781    0.2826030650142767    0.3456389218011040 H
   0.1107464231476164    0.2568181877379965    0.2447021210411713 H
   0.9250069407652315    0.3099737895118744    0.3773950287471231 H
   0.9214181561805435    0.2350758839557657    0.4342416896157257 H
   0.8941426795865771    0.2659491944114913    0.2547652729224359 H
   0.0740000000000000    0.2168400000000000    0.4326650000000000 O
   0.0776950000000000    0.2766900000000000    0.3734400000000000 O
   0.9300999999999999    0.3066800000000000    0.4083900000000000 O
   0.9288550000000000    0.2435000000000000    0.4660150000000000 O
