H3 C9 O6
1.0
  20.0517838655441309    0.0000000000000000    1.7268004544544748
   7.2946602185723410   33.3924967770888728    7.9616654217373046
   0.0000000000000000    0.0000000000000000   20.1350000000000016
H C O
3 9 6
direct
   0.6859300000000000    0.1116150000000000    0.9344000000000000 H
   0.6132600000000000    0.2210300000000000    0.0064200000000000 H
   0.6835400000000000    0.1089150000000000    0.1474300000000000 H
   0.6757350000000000    0.1276100000000000    0.9757300000000000 C
   0.6494050000000000    0.1690000000000000    0.9622500000000000 C
   0.6484650000000001    0.1676850000000000    0.0833600000000000 C
   0.6360150000000000    0.1917550000000000    0.8905999999999999 C
   0.6348250000000000    0.1889600000000000    0.0164100000000000 C
   0.6350899999999999    0.1889600000000000    0.1412400000000000 C
   0.7143600000000000    0.0615500000000000    0.0580400000000000 C
   0.6743650000000000    0.1263300000000000    0.0958000000000000 C
   0.6877650000000000    0.1059550000000000    0.0424200000000000 C
   0.6613000000000000    0.1735300000000000    0.8410900000000000 O
   0.6011950000000000    0.2267600000000000    0.8777700000000001 O
   0.6589550000000000    0.1691300000000000    0.2005000000000000 O
   0.6020700000000000    0.2243900000000000    0.1334800000000000 O
   0.7235300000000000    0.0431850000000000    0.1193900000000000 O
   0.7270950000000000    0.0429850000000000    1.0082499999999999 O
