H3 O2
1.0
  20.2069968484331319    0.0000000000000000   -0.0112857172356897
  -0.0075826559468359   11.5575712517570146   -0.2110201741269886
   0.0000000000000000    0.0000000000000000   29.7839999999999989
H O
3 2
direct
   0.4295160422269130    0.8044897724768191    0.6899935320550877 H
   0.3608563820464429    0.7905915291664396    0.6112493116465127 H
   0.3117451979103278    0.7788535375557811    0.6387836496994973 H
   0.4757000000000000    0.8151400000000000    0.6822150000000000 O
   0.4053100000000000    0.8004300000000000    0.6230249999999999 O
