H4 C8 O4
1.0
  19.4814959271012960    0.0000000000000000   -2.7382924318515593
 -10.1421942075962352   21.8791990453570939   -2.5682775918982310
   0.0000000000000000    0.0000000000000000   15.3889999999999993
H C O
4 8 4
direct
   0.3566500000000000    0.5029100000000000    0.1864900000000000 H
   0.1348800000000000    0.4734100000000000    0.0533000000000000 H
   0.1630000000000000    0.5824000000000000    0.1093500000000000 H
   0.2889600000000000    0.6507200000000000    0.2061900000000000 H
   0.2247300000000000    0.4156800000000000    0.0860500000000000 C
   0.3308000000000000    0.5814100000000000    0.2016000000000000 C
   0.3144100000000000    0.5203800000000000    0.1695900000000000 C
   0.2437300000000000    0.4815800000000000    0.1168000000000000 C
   0.1894200000000000    0.5042600000000000    0.0948000000000000 C
   0.2055700000000000    0.5651000000000000    0.1263200000000000 C
   0.2756500000000000    0.6032999999999999    0.1799300000000000 C
   0.4061800000000000    0.6230599999999999    0.2584000000000000 C
   0.4209500000000000    0.6783200000000000    0.2853400000000000 O
   0.4533600000000000    0.5990200000000000    0.2772800000000000 O
   0.2780100000000000    0.3976000000000000    0.1072500000000000 O
   0.1596800000000000    0.3793600000000000    0.0437000000000000 O
