H2 O2
1.0
  19.4814959271012960    0.0000000000000000   -2.7382924318515593
 -10.1421942075962352   21.8791990453570939   -2.5682775918982310
   0.0000000000000000    0.0000000000000000   15.3889999999999993
H O
2 2
direct
   0.3685820331939233    0.2639203670611885    0.4222895713882637 H
   0.4640978887226956    0.3141223082222833    0.5018378820166904 H
   0.3565900000000000    0.2733500000000000    0.4800900000000000 O
   0.4250200000000000    0.3090800000000000    0.5372000000000000 O
