H6 O4
1.0
  19.4814959271012960    0.0000000000000000   -2.7382924318515593
 -10.1421942075962352   21.8791990453570939   -2.5682775918982310
   0.0000000000000000    0.0000000000000000   15.3889999999999993
H O
6 4
direct
   0.3277283716899871    0.4278948591780626    0.1376175681318072 H
   0.1183386549165284    0.3902439575962625    0.0242926736886212 H
   0.2162841860274750    0.4138505874086895    0.0782733662890858 H
   0.3813941168561383    0.6927619691072979    0.2810011016243300 H
   0.4470660215157591    0.5569243273975584    0.2689468428388508 H
   0.4113847537286814    0.6143452856905478    0.2726757208538969 H
   0.2780100000000000    0.3976000000000000    0.1072500000000000 O
   0.1596800000000000    0.3793600000000000    0.0437000000000000 O
   0.4209500000000000    0.6783200000000000    0.2853400000000000 O
   0.4533600000000000    0.5990200000000000    0.2772800000000000 O
