Cu64 P62 H248 C124 O186
1.0
  17.1368133836109244    0.0000000000000000   -0.8111492188823900
  -0.4180176836612797   26.1975507020890888   -9.0872120272181363
   0.0000000000000000    0.0000000000000000   21.0330000000000013
Cu P H C O
64 62 248 124 186
direct
   0.1250350000000000    0.0006600000000000    0.7501100000000001 Cu
   0.1251900000000000    0.2501600000000000    0.2500500000000000 Cu
   0.1249950000000000    0.2506750000000000    0.7500900000000000 Cu
   0.3751350000000000    0.0001500000000000    0.2500400000000000 Cu
   0.3750300000000000    0.0006650000000000    0.7501100000000001 Cu
   0.3751750000000000    0.2501650000000000    0.2500500000000000 Cu
   0.3749950000000000    0.2506750000000000    0.7500900000000000 Cu
   0.1252350000000000    0.1251450000000000    0.2500400000000000 Cu
   0.1251300000000000    0.1256050000000000    0.7499900000000000 Cu
   0.1251850000000000    0.3751150000000000    0.2500100000000000 Cu
   0.1251050000000000    0.3755950000000000    0.7499700000000000 Cu
   0.3752250000000000    0.1251450000000000    0.2500400000000000 Cu
   0.3751200000000000    0.1256050000000000    0.7499900000000000 Cu
   0.3751650000000000    0.3751200000000000    0.2500100000000000 Cu
   0.3751150000000000    0.3755950000000000    0.7499700000000000 Cu
   0.1251600000000000    0.0001500000000000    0.2500500000000000 Cu
   0.6250350000000000    0.0006600000000000    0.7501100000000001 Cu
   0.6251900000000000    0.2501600000000000    0.2500500000000000 Cu
   0.6249950000000000    0.2506750000000000    0.7500900000000000 Cu
   0.8751350000000000    0.0001500000000000    0.2500400000000000 Cu
   0.8750300000000000    0.0006650000000000    0.7501100000000001 Cu
   0.8751750000000000    0.2501650000000000    0.2500500000000000 Cu
   0.8749950000000000    0.2506750000000000    0.7500900000000000 Cu
   0.6252350000000000    0.1251450000000000    0.2500400000000000 Cu
   0.6251300000000000    0.1256050000000000    0.7499900000000000 Cu
   0.6251850000000000    0.3751150000000000    0.2500100000000000 Cu
   0.6251050000000000    0.3755950000000000    0.7499700000000000 Cu
   0.8752249999999999    0.1251450000000000    0.2500400000000000 Cu
   0.8751200000000000    0.1256050000000000    0.7499900000000000 Cu
   0.8751650000000000    0.3751200000000000    0.2500100000000000 Cu
   0.8751150000000000    0.3755950000000000    0.7499700000000000 Cu
   0.6251599999999999    0.0001500000000000    0.2500500000000000 Cu
   0.1250350000000000    0.5006600000000000    0.7501100000000001 Cu
   0.1251900000000000    0.7501599999999999    0.2500500000000000 Cu
   0.1249950000000000    0.7506750000000000    0.7500900000000000 Cu
   0.3751350000000000    0.5001500000000000    0.2500400000000000 Cu
   0.3750300000000000    0.5006650000000000    0.7501100000000001 Cu
   0.3751750000000000    0.7501650000000000    0.2500500000000000 Cu
   0.3749950000000000    0.7506750000000000    0.7500900000000000 Cu
   0.1252350000000000    0.6251450000000001    0.2500400000000000 Cu
   0.1251300000000000    0.6256050000000000    0.7499900000000000 Cu
   0.1251850000000000    0.8751150000000000    0.2500100000000000 Cu
   0.1251050000000000    0.8755950000000000    0.7499700000000000 Cu
   0.3752250000000000    0.6251450000000001    0.2500400000000000 Cu
   0.3751200000000000    0.6256050000000000    0.7499900000000000 Cu
   0.3751650000000000    0.8751200000000000    0.2500100000000000 Cu
   0.3751150000000000    0.8755950000000000    0.7499700000000000 Cu
   0.1251600000000000    0.5001500000000000    0.2500500000000000 Cu
   0.6250350000000000    0.5006600000000000    0.7501100000000001 Cu
   0.6251900000000000    0.7501599999999999    0.2500500000000000 Cu
   0.6249950000000000    0.7506750000000000    0.7500900000000000 Cu
   0.8751350000000000    0.5001500000000000    0.2500400000000000 Cu
   0.8750300000000000    0.5006650000000000    0.7501100000000001 Cu
   0.8751750000000000    0.7501650000000000    0.2500500000000000 Cu
   0.8749950000000000    0.7506750000000000    0.7500900000000000 Cu
   0.6252350000000000    0.6251450000000001    0.2500400000000000 Cu
   0.6251300000000000    0.6256050000000000    0.7499900000000000 Cu
   0.6251850000000000    0.8751150000000000    0.2500100000000000 Cu
   0.6251050000000000    0.8755950000000000    0.7499700000000000 Cu
   0.8752249999999999    0.6251450000000001    0.2500400000000000 Cu
   0.8751200000000000    0.6256050000000000    0.7499900000000000 Cu
   0.8751650000000000    0.8751200000000000    0.2500100000000000 Cu
   0.8751150000000000    0.8755950000000000    0.7499700000000000 Cu
   0.6251599999999999    0.5001500000000000    0.2500500000000000 Cu
   0.2459000000000000    0.0444550000000000    0.1767400000000000 P
   0.2458400000000000    0.0448800000000000    0.6767400000000000 P
   0.2459000000000000    0.2944100000000000    0.1767200000000000 P
   0.2458000000000000    0.2948800000000000    0.6767300000000001 P
   0.4958900000000000    0.0444500000000000    0.1767400000000000 P
   0.4958250000000000    0.0448850000000000    0.6767500000000000 P
   0.4958950000000000    0.2944200000000000    0.1767300000000000 P
   0.4957950000000000    0.2948800000000000    0.6767100000000000 P
   0.0044000000000000    0.2058550000000000    0.3232900000000000 P
   0.0042700000000000    0.2063650000000000    0.8233100000000000 P
   0.0043550000000000    0.4558200000000000    0.3232900000000000 P
   0.0042800000000000    0.4563450000000000    0.8230000000000000 P
   0.2544000000000000    0.2058650000000000    0.3232900000000000 P
   0.2542550000000000    0.2063600000000000    0.8233100000000000 P
   0.2543400000000000    0.4558250000000000    0.3233000000000000 P
   0.2542750000000000    0.4563450000000000    0.8233000000000000 P
   0.7459000000000000    0.0444550000000000    0.1767400000000000 P
   0.7458400000000001    0.0448800000000000    0.6767400000000000 P
   0.7459000000000000    0.2944100000000000    0.1767200000000000 P
   0.7458000000000000    0.2948800000000000    0.6767300000000001 P
   0.9958899999999999    0.0444500000000000    0.1767400000000000 P
   0.9958250000000000    0.0448850000000000    0.6767500000000000 P
   0.9958950000000000    0.2944200000000000    0.1767300000000000 P
   0.9957950000000000    0.2948800000000000    0.6767100000000000 P
   0.5044000000000000    0.2058550000000000    0.3232900000000000 P
   0.5042700000000000    0.2063650000000000    0.8233100000000000 P
   0.5043550000000000    0.4558200000000000    0.3232900000000000 P
   0.5042800000000000    0.4563450000000000    0.8230000000000000 P
   0.7544000000000000    0.2058650000000000    0.3232900000000000 P
   0.7542550000000000    0.2063600000000000    0.8233100000000000 P
   0.7543400000000000    0.4558250000000000    0.3233000000000000 P
   0.7542750000000000    0.4563450000000000    0.8233000000000000 P
   0.2459000000000000    0.5444550000000000    0.1767400000000000 P
   0.2458400000000000    0.5448800000000000    0.6767400000000000 P
   0.2459000000000000    0.7944100000000001    0.1767200000000000 P
   0.2458000000000000    0.7948800000000000    0.6767300000000001 P
   0.4958900000000000    0.5444500000000000    0.1767400000000000 P
   0.4958250000000000    0.5448850000000000    0.6767500000000000 P
   0.4958950000000000    0.7944200000000000    0.1767300000000000 P
   0.4957950000000000    0.7948800000000000    0.6767100000000000 P
   0.0044000000000000    0.7058550000000000    0.3232900000000000 P
   0.0042700000000000    0.7063650000000000    0.8233100000000000 P
   0.0043550000000000    0.9558200000000000    0.3232900000000000 P
   0.0042800000000000    0.9563450000000000    0.8230000000000000 P
   0.2544000000000000    0.7058650000000000    0.3232900000000000 P
   0.2542550000000000    0.7063600000000000    0.8233100000000000 P
   0.2543400000000000    0.9558249999999999    0.3233000000000000 P
   0.2542750000000000    0.9563450000000000    0.8233000000000000 P
   0.7459000000000000    0.5444550000000000    0.1767400000000000 P
   0.7458400000000001    0.5448800000000000    0.6767400000000000 P
   0.7459000000000000    0.7944100000000001    0.1767200000000000 P
   0.9958899999999999    0.5444500000000000    0.1767400000000000 P
   0.9958250000000000    0.5448850000000000    0.6767500000000000 P
   0.9958950000000000    0.7944200000000000    0.1767300000000000 P
   0.9957950000000000    0.7948800000000000    0.6767100000000000 P
   0.5044000000000000    0.7058550000000000    0.3232900000000000 P
   0.5042700000000000    0.7063650000000000    0.8233100000000000 P
   0.5043550000000000    0.9558200000000000    0.3232900000000000 P
   0.5042800000000000    0.9563450000000000    0.8230000000000000 P
   0.7542550000000000    0.7063600000000000    0.8233100000000000 P
   0.7543400000000000    0.9558249999999999    0.3233000000000000 P
   0.7542750000000000    0.9563450000000000    0.8233000000000000 P
   0.0757950000000000    0.2420250000000000    0.0945500000000000 H
   0.0759200000000000    0.2425300000000000    0.5947100000000000 H
   0.0758800000000000    0.4921600000000000    0.0945300000000000 H
   0.0759550000000000    0.4925600000000000    0.5947000000000000 H
   0.3257650000000000    0.2420000000000000    0.0945000000000000 H
   0.3259100000000000    0.2425300000000000    0.5947300000000000 H
   0.3258800000000000    0.4921800000000000    0.0945300000000000 H
   0.3259800000000000    0.4925750000000000    0.5947800000000000 H
   0.1914250000000000    0.2273800000000000    0.0357100000000000 H
   0.1915750000000000    0.2274500000000000    0.5358900000000000 H
   0.1914500000000000    0.4774350000000000    0.0357500000000000 H
   0.1916150000000000    0.4774650000000000    0.5359500000000000 H
   0.4414250000000000    0.2273800000000000    0.0357400000000000 H
   0.4415550000000000    0.2274500000000000    0.5358800000000000 H
   0.4414350000000000    0.4774400000000000    0.0357600000000000 H
   0.4415750000000000    0.4774750000000000    0.5359500000000000 H
   0.1743850000000000    0.1947100000000000    0.4056900000000000 H
   0.1741950000000000    0.1950300000000000    0.9055299999999999 H
   0.1744200000000000    0.4446400000000000    0.4057200000000000 H
   0.1742250000000000    0.4450100000000000    0.9055400000000000 H
   0.4243600000000000    0.1946950000000000    0.4056700000000000 H
   0.4241750000000000    0.1950550000000000    0.9055400000000000 H
   0.4243950000000000    0.4446400000000000    0.4057100000000000 H
   0.4242200000000000    0.4450100000000000    0.9055299999999999 H
   0.0586800000000000    0.2094850000000000    0.4646500000000000 H
   0.0584950000000000    0.2094250000000000    0.9644400000000000 H
   0.0586950000000000    0.4594800000000000    0.4647100000000000 H
   0.0584900000000000    0.4594550000000000    0.9644700000000000 H
   0.3086900000000000    0.2094950000000000    0.4646700000000000 H
   0.3084950000000000    0.2094150000000000    0.9644200000000001 H
   0.3087150000000000    0.4594850000000000    0.4646900000000000 H
   0.3085100000000000    0.4594650000000000    0.9644700000000000 H
   0.1741600000000000    0.0079800000000000    0.4054000000000000 H
   0.1742200000000000    0.0084450000000000    0.9055800000000001 H
   0.1742300000000000    0.2580700000000000    0.4053800000000000 H
   0.1742300000000000    0.2584950000000000    0.9056200000000000 H
   0.4241600000000000    0.0079800000000000    0.4053900000000000 H
   0.4242000000000000    0.0084450000000000    0.9050000000000000 H
   0.4242050000000000    0.2580550000000000    0.4053000000000000 H
   0.4242500000000000    0.2585100000000000    0.9056300000000000 H
   0.0586100000000000    0.0229650000000000    0.4641700000000000 H
   0.0587300000000000    0.0230350000000000    0.9643300000000000 H
   0.0586200000000000    0.2730000000000000    0.4641600000000000 H
   0.0587450000000000    0.2730450000000000    0.9643800000000000 H
   0.3086150000000000    0.0229800000000000    0.4641600000000000 H
   0.3087200000000000    0.0230500000000000    0.9643200000000000 H
   0.3086250000000000    0.2730100000000000    0.4641900000000000 H
   0.3087350000000000    0.2730350000000000    0.9643500000000000 H
   0.0759250000000000    0.0555300000000000    0.0943200000000000 H
   0.0758000000000000    0.0558400000000000    0.5940000000000000 H
   0.0760250000000000    0.3054050000000000    0.0943100000000000 H
   0.0757750000000000    0.3058300000000000    0.5941700000000000 H
   0.3258950000000000    0.0555450000000000    0.0943100000000000 H
   0.3258050000000000    0.0558550000000000    0.5942200000000000 H
   0.3260450000000000    0.3053750000000000    0.0943000000000000 H
   0.3257700000000000    0.3058300000000000    0.5941900000000000 H
   0.1915100000000000    0.0409850000000000    0.0354900000000000 H
   0.1914050000000000    0.0409350000000000    0.5353300000000000 H
   0.1915650000000000    0.2909750000000000    0.0355400000000000 H
   0.1913650000000000    0.2909400000000000    0.5353000000000000 H
   0.4415200000000000    0.0409900000000000    0.0355100000000000 H
   0.4413750000000000    0.0409350000000000    0.5353200000000000 H
   0.4415350000000000    0.2909700000000000    0.0355500000000000 H
   0.4413550000000000    0.2909450000000000    0.5352900000000000 H
   0.5757950000000001    0.2420250000000000    0.0945500000000000 H
   0.5759200000000000    0.2425300000000000    0.5947100000000000 H
   0.5758799999999999    0.4921600000000000    0.0945300000000000 H
   0.5759550000000000    0.4925600000000000    0.5947000000000000 H
   0.8257650000000001    0.2420000000000000    0.0945000000000000 H
   0.8259099999999999    0.2425300000000000    0.5947300000000000 H
   0.8258799999999999    0.4921800000000000    0.0945300000000000 H
   0.8259799999999999    0.4925750000000000    0.5947800000000000 H
   0.6914250000000000    0.2273800000000000    0.0357100000000000 H
   0.6915750000000001    0.2274500000000000    0.5358900000000000 H
   0.6914500000000000    0.4774350000000000    0.0357500000000000 H
   0.6916150000000000    0.4774650000000000    0.5359500000000000 H
   0.9414250000000000    0.2273800000000000    0.0357400000000000 H
   0.9415549999999999    0.2274500000000000    0.5358800000000000 H
   0.9414350000000000    0.4774400000000000    0.0357600000000000 H
   0.9415750000000001    0.4774750000000000    0.5359500000000000 H
   0.6743850000000000    0.1947100000000000    0.4056900000000000 H
   0.6741950000000000    0.1950300000000000    0.9055299999999999 H
   0.6744200000000000    0.4446400000000000    0.4057200000000000 H
   0.6742250000000000    0.4450100000000000    0.9055400000000000 H
   0.9243600000000001    0.1946950000000000    0.4056700000000000 H
   0.9241750000000000    0.1950550000000000    0.9055400000000000 H
   0.9243950000000001    0.4446400000000000    0.4057100000000000 H
   0.9242200000000000    0.4450100000000000    0.9055299999999999 H
   0.5586800000000000    0.2094850000000000    0.4646500000000000 H
   0.5584950000000000    0.2094250000000000    0.9644400000000000 H
   0.5586949999999999    0.4594800000000000    0.4647100000000000 H
   0.5584900000000000    0.4594550000000000    0.9644700000000000 H
   0.8086900000000000    0.2094950000000000    0.4646700000000000 H
   0.8084950000000000    0.2094150000000000    0.9644200000000001 H
   0.8087150000000001    0.4594850000000000    0.4646900000000000 H
   0.8085100000000001    0.4594650000000000    0.9644700000000000 H
   0.6741600000000000    0.0079800000000000    0.4054000000000000 H
   0.6742200000000000    0.0084450000000000    0.9055800000000001 H
   0.6742300000000000    0.2580700000000000    0.4053800000000000 H
   0.6742300000000000    0.2584950000000000    0.9056200000000000 H
   0.9241600000000000    0.0079800000000000    0.4053900000000000 H
   0.9242000000000000    0.0084450000000000    0.9050000000000000 H
   0.9242049999999999    0.2580550000000000    0.4053000000000000 H
   0.9242500000000000    0.2585100000000000    0.9056300000000000 H
   0.5586100000000001    0.0229650000000000    0.4641700000000000 H
   0.5587299999999999    0.0230350000000000    0.9643300000000000 H
   0.5586200000000000    0.2730000000000000    0.4641600000000000 H
   0.5587450000000000    0.2730450000000000    0.9643800000000000 H
   0.8086150000000000    0.0229800000000000    0.4641600000000000 H
   0.8087200000000000    0.0230500000000000    0.9643200000000000 H
   0.8086249999999999    0.2730100000000000    0.4641900000000000 H
   0.8087350000000000    0.2730350000000000    0.9643500000000000 H
   0.5759250000000000    0.0555300000000000    0.0943200000000000 H
   0.5758000000000000    0.0558400000000000    0.5940000000000000 H
   0.5760250000000000    0.3054050000000000    0.0943100000000000 H
   0.5757750000000000    0.3058300000000000    0.5941700000000000 H
   0.8258950000000000    0.0555450000000000    0.0943100000000000 H
   0.8258050000000000    0.0558550000000000    0.5942200000000000 H
   0.8260449999999999    0.3053750000000000    0.0943000000000000 H
   0.8257700000000000    0.3058300000000000    0.5941900000000000 H
   0.6915100000000001    0.0409850000000000    0.0354900000000000 H
   0.6914050000000000    0.0409350000000000    0.5353300000000000 H
   0.6915650000000000    0.2909750000000000    0.0355400000000000 H
   0.6913650000000000    0.2909400000000000    0.5353000000000000 H
   0.9415200000000000    0.0409900000000000    0.0355100000000000 H
   0.9413750000000001    0.0409350000000000    0.5353200000000000 H
   0.9415350000000000    0.2909700000000000    0.0355500000000000 H
   0.9413549999999999    0.2909450000000000    0.5352900000000000 H
   0.0757950000000000    0.7420249999999999    0.0945500000000000 H
   0.0759200000000000    0.7425300000000000    0.5947100000000000 H
   0.0758800000000000    0.9921599999999999    0.0945300000000000 H
   0.0759550000000000    0.9925600000000000    0.5947000000000000 H
   0.3257650000000000    0.7420000000000000    0.0945000000000000 H
   0.3259100000000000    0.7425300000000000    0.5947300000000000 H
   0.3258800000000000    0.9921800000000001    0.0945300000000000 H
   0.3259800000000000    0.9925750000000000    0.5947800000000000 H
   0.1914250000000000    0.7273800000000000    0.0357100000000000 H
   0.1915750000000000    0.7274500000000000    0.5358900000000000 H
   0.1914500000000000    0.9774350000000001    0.0357500000000000 H
   0.1916150000000000    0.9774650000000000    0.5359500000000000 H
   0.4414250000000000    0.7273800000000000    0.0357400000000000 H
   0.4415550000000000    0.7274500000000000    0.5358800000000000 H
   0.4414350000000000    0.9774400000000000    0.0357600000000000 H
   0.4415750000000000    0.9774750000000000    0.5359500000000000 H
   0.1743850000000000    0.6947099999999999    0.4056900000000000 H
   0.1741950000000000    0.6950300000000000    0.9055299999999999 H
   0.1744200000000000    0.9446399999999999    0.4057200000000000 H
   0.1742250000000000    0.9450100000000000    0.9055400000000000 H
   0.4243600000000000    0.6946950000000001    0.4056700000000000 H
   0.4241750000000000    0.6950550000000000    0.9055400000000000 H
   0.4243950000000000    0.9446399999999999    0.4057100000000000 H
   0.4242200000000000    0.9450100000000000    0.9055299999999999 H
   0.0586800000000000    0.7094850000000000    0.4646500000000000 H
   0.0584950000000000    0.7094250000000000    0.9644400000000000 H
   0.0586950000000000    0.9594800000000000    0.4647100000000000 H
   0.0584900000000000    0.9594549999999999    0.9644700000000000 H
   0.3086900000000000    0.7094950000000000    0.4646700000000000 H
   0.3084950000000000    0.7094150000000000    0.9644200000000001 H
   0.3087150000000000    0.9594849999999999    0.4646900000000000 H
   0.3085100000000000    0.9594650000000000    0.9644700000000000 H
   0.1741600000000000    0.5079800000000000    0.4054000000000000 H
   0.1742200000000000    0.5084450000000000    0.9055800000000001 H
   0.1742300000000000    0.7580700000000000    0.4053800000000000 H
   0.1742300000000000    0.7584949999999999    0.9056200000000000 H
   0.4241600000000000    0.5079800000000000    0.4053900000000000 H
   0.4242000000000000    0.5084450000000000    0.9050000000000000 H
   0.4242050000000000    0.7580549999999999    0.4053000000000000 H
   0.4242500000000000    0.7585100000000000    0.9056300000000000 H
   0.0586100000000000    0.5229650000000000    0.4641700000000000 H
   0.0587300000000000    0.5230350000000000    0.9643300000000000 H
   0.0586200000000000    0.7730000000000000    0.4641600000000000 H
   0.0587450000000000    0.7730450000000000    0.9643800000000000 H
   0.3086150000000000    0.5229800000000000    0.4641600000000000 H
   0.3087200000000000    0.5230500000000000    0.9643200000000000 H
   0.3086250000000000    0.7730100000000000    0.4641900000000000 H
   0.3087350000000000    0.7730350000000000    0.9643500000000000 H
   0.0759250000000000    0.5555300000000000    0.0943200000000000 H
   0.0758000000000000    0.5558400000000000    0.5940000000000000 H
   0.0760250000000000    0.8054049999999999    0.0943100000000000 H
   0.0757750000000000    0.8058300000000000    0.5941700000000000 H
   0.3258950000000000    0.5555450000000000    0.0943100000000000 H
   0.3258050000000000    0.5558550000000000    0.5942200000000000 H
   0.3260450000000000    0.8053750000000000    0.0943000000000000 H
   0.3257700000000000    0.8058300000000000    0.5941900000000000 H
   0.1915100000000000    0.5409850000000000    0.0354900000000000 H
   0.1914050000000000    0.5409349999999999    0.5353300000000000 H
   0.1915650000000000    0.7909750000000000    0.0355400000000000 H
   0.1913650000000000    0.7909400000000000    0.5353000000000000 H
   0.4415200000000000    0.5409900000000000    0.0355100000000000 H
   0.4413750000000000    0.5409349999999999    0.5353200000000000 H
   0.4415350000000000    0.7909700000000000    0.0355500000000000 H
   0.4413550000000000    0.7909450000000000    0.5352900000000000 H
   0.5757950000000001    0.7420249999999999    0.0945500000000000 H
   0.5759200000000000    0.7425300000000000    0.5947100000000000 H
   0.5758799999999999    0.9921599999999999    0.0945300000000000 H
   0.5759550000000000    0.9925600000000000    0.5947000000000000 H
   0.8257650000000001    0.7420000000000000    0.0945000000000000 H
   0.8258799999999999    0.9921800000000001    0.0945300000000000 H
   0.8259799999999999    0.9925750000000000    0.5947800000000000 H
   0.6914250000000000    0.7273800000000000    0.0357100000000000 H
   0.6914500000000000    0.9774350000000001    0.0357500000000000 H
   0.6916150000000000    0.9774650000000000    0.5359500000000000 H
   0.9414250000000000    0.7273800000000000    0.0357400000000000 H
   0.9415549999999999    0.7274500000000000    0.5358800000000000 H
   0.9414350000000000    0.9774400000000000    0.0357600000000000 H
   0.9415750000000001    0.9774750000000000    0.5359500000000000 H
   0.6741950000000000    0.6950300000000000    0.9055299999999999 H
   0.6744200000000000    0.9446399999999999    0.4057200000000000 H
   0.6742250000000000    0.9450100000000000    0.9055400000000000 H
   0.9243600000000001    0.6946950000000001    0.4056700000000000 H
   0.9241750000000000    0.6950550000000000    0.9055400000000000 H
   0.9243950000000001    0.9446399999999999    0.4057100000000000 H
   0.9242200000000000    0.9450100000000000    0.9055299999999999 H
   0.5586800000000000    0.7094850000000000    0.4646500000000000 H
   0.5584950000000000    0.7094250000000000    0.9644400000000000 H
   0.5586949999999999    0.9594800000000000    0.4647100000000000 H
   0.5584900000000000    0.9594549999999999    0.9644700000000000 H
   0.8084950000000000    0.7094150000000000    0.9644200000000001 H
   0.8087150000000001    0.9594849999999999    0.4646900000000000 H
   0.8085100000000001    0.9594650000000000    0.9644700000000000 H
   0.6741600000000000    0.5079800000000000    0.4054000000000000 H
   0.6742200000000000    0.5084450000000000    0.9055800000000001 H
   0.6742300000000000    0.7584949999999999    0.9056200000000000 H
   0.9241600000000000    0.5079800000000000    0.4053900000000000 H
   0.9242000000000000    0.5084450000000000    0.9050000000000000 H
   0.9242049999999999    0.7580549999999999    0.4053000000000000 H
   0.9242500000000000    0.7585100000000000    0.9056300000000000 H
   0.5586100000000001    0.5229650000000000    0.4641700000000000 H
   0.5587299999999999    0.5230350000000000    0.9643300000000000 H
   0.5586200000000000    0.7730000000000000    0.4641600000000000 H
   0.5587450000000000    0.7730450000000000    0.9643800000000000 H
   0.8086150000000000    0.5229800000000000    0.4641600000000000 H
   0.8087200000000000    0.5230500000000000    0.9643200000000000 H
   0.8087350000000000    0.7730350000000000    0.9643500000000000 H
   0.5759250000000000    0.5555300000000000    0.0943200000000000 H
   0.5758000000000000    0.5558400000000000    0.5940000000000000 H
   0.5760250000000000    0.8054049999999999    0.0943100000000000 H
   0.5757750000000000    0.8058300000000000    0.5941700000000000 H
   0.8258950000000000    0.5555450000000000    0.0943100000000000 H
   0.8258050000000000    0.5558550000000000    0.5942200000000000 H
   0.8260449999999999    0.8053750000000000    0.0943000000000000 H
   0.6915100000000001    0.5409850000000000    0.0354900000000000 H
   0.6914050000000000    0.5409349999999999    0.5353300000000000 H
   0.6915650000000000    0.7909750000000000    0.0355400000000000 H
   0.9415200000000000    0.5409900000000000    0.0355100000000000 H
   0.9413750000000001    0.5409349999999999    0.5353200000000000 H
   0.9415350000000000    0.7909700000000000    0.0355500000000000 H
   0.9413549999999999    0.7909450000000000    0.5352900000000000 H
   0.0373850000000000    0.0239550000000000    0.0948100000000000 C
   0.0373500000000000    0.0242650000000000    0.5948300000000000 C
   0.0373900000000000    0.2738800000000000    0.0948000000000000 C
   0.0373250000000000    0.2742550000000000    0.5947900000000000 C
   0.2873650000000000    0.0239700000000000    0.0948000000000000 C
   0.2873650000000000    0.0242650000000000    0.5948300000000000 C
   0.2873800000000000    0.2738600000000000    0.0947900000000000 C
   0.2873200000000000    0.2742550000000000    0.5948200000000000 C
   0.2295700000000000    0.0086400000000000    0.0335000000000000 C
   0.2295850000000000    0.0086850000000000    0.5335200000000000 C
   0.2295800000000000    0.2586000000000000    0.0335000000000000 C
   0.2295550000000000    0.2586950000000000    0.5335000000000000 C
   0.4795700000000000    0.0086450000000000    0.0335200000000000 C
   0.4795600000000000    0.0086850000000000    0.5335200000000000 C
   0.4795600000000000    0.2586050000000000    0.0335200000000000 C
   0.4795400000000000    0.2586950000000000    0.5334800000000000 C
   0.2128350000000000    0.2263250000000000    0.4051900000000000 C
   0.2127350000000000    0.2266550000000000    0.9052200000000000 C
   0.2128150000000000    0.4762800000000000    0.4052200000000000 C
   0.2127450000000000    0.4766400000000000    0.9052100000000000 C
   0.4628100000000000    0.2263150000000000    0.4051800000000000 C
   0.4627400000000000    0.2266650000000000    0.9052300000000000 C
   0.4628050000000000    0.4762700000000000    0.4052100000000000 C
   0.4627350000000000    0.4766450000000000    0.9052000000000000 C
   0.0205650000000000    0.2417750000000000    0.4665000000000000 C
   0.0205350000000000    0.2418300000000000    0.9665300000000000 C
   0.0205650000000000    0.4917600000000000    0.4665300000000000 C
   0.0205200000000000    0.4918500000000000    0.9665100000000000 C
   0.2705650000000000    0.2417800000000000    0.4665200000000000 C
   0.2705350000000000    0.2418250000000000    0.9665100000000000 C
   0.2705900000000000    0.4917700000000000    0.4665000000000000 C
   0.2705350000000000    0.4918550000000000    0.9665000000000000 C
   0.5373850000000000    0.0239550000000000    0.0948100000000000 C
   0.5373500000000000    0.0242650000000000    0.5948300000000000 C
   0.5373900000000000    0.2738800000000000    0.0948000000000000 C
   0.5373250000000001    0.2742550000000000    0.5947900000000000 C
   0.7873650000000000    0.0239700000000000    0.0948000000000000 C
   0.7873650000000000    0.0242650000000000    0.5948300000000000 C
   0.7873800000000000    0.2738600000000000    0.0947900000000000 C
   0.7873200000000000    0.2742550000000000    0.5948200000000000 C
   0.7295700000000001    0.0086400000000000    0.0335000000000000 C
   0.7295850000000000    0.0086850000000000    0.5335200000000000 C
   0.7295800000000000    0.2586000000000000    0.0335000000000000 C
   0.7295550000000000    0.2586950000000000    0.5335000000000000 C
   0.9795700000000001    0.0086450000000000    0.0335200000000000 C
   0.9795600000000000    0.0086850000000000    0.5335200000000000 C
   0.9795600000000000    0.2586050000000000    0.0335200000000000 C
   0.9795400000000001    0.2586950000000000    0.5334800000000000 C
   0.7128350000000000    0.2263250000000000    0.4051900000000000 C
   0.7127350000000000    0.2266550000000000    0.9052200000000000 C
   0.7128150000000000    0.4762800000000000    0.4052200000000000 C
   0.7127450000000000    0.4766400000000000    0.9052100000000000 C
   0.9628099999999999    0.2263150000000000    0.4051800000000000 C
   0.9627399999999999    0.2266650000000000    0.9052300000000000 C
   0.9628050000000000    0.4762700000000000    0.4052100000000000 C
   0.9627350000000000    0.4766450000000000    0.9052000000000000 C
   0.5205649999999999    0.2417750000000000    0.4665000000000000 C
   0.5205350000000000    0.2418300000000000    0.9665300000000000 C
   0.5205649999999999    0.4917600000000000    0.4665300000000000 C
   0.5205200000000000    0.4918500000000000    0.9665100000000000 C
   0.7705649999999999    0.2417800000000000    0.4665200000000000 C
   0.7705350000000000    0.2418250000000000    0.9665100000000000 C