H12 O8
1.0
   9.2074717223748248    0.0000000000000000    0.0228195457438005
   0.0190612944700715   11.0958786088818311    0.8512501477307993
   0.0000000000000000    0.0000000000000000   12.1910000000000007
H O
12 8
direct
   0.1963183541781050    0.3294122410001301    0.2735493835859580 H
   0.1340288897167083    0.2354227551691907    0.3966882490233229 H
   0.4026896337245118    0.6157005930976629    0.4954044648337335 H
   0.4564324745710701    0.5984819155222506    0.5441701980755810 H
   0.9863503216356592    0.4411361422621364    0.2091551521295405 H
   0.9167671794897714    0.4081616468022947    0.1896689093161603 H
   0.9694561871112855    0.5776716574625409    0.3429707914272802 H
   1.1796479598522729    0.6776175656040060    0.4598940187435067 H
   0.2358774136606225    0.6642140039798110    0.3497080238824921 H
   0.4808600338182273    0.4553762181844726    0.2495387413133061 H
   0.2753022519116869    0.6693155679027482    0.1487221898712513 H
   0.3018439665079386    0.5822658169539592    0.1949094511681112 H
   0.1689600000000000    0.2544800000000000    0.3157100000000000 O
   0.3573700000000000    0.6244000000000000    0.5560600000000000 O
   0.8797100000000000    0.4588500000000000    0.2447100000000000 O
   0.8750700000000000    0.5933500000000000    0.3744400000000000 O
   1.1285300000000000    0.6874300000000000    0.5283099999999999 O
   0.1442700000000000    0.6773200000000000    0.3100200000000000 O
   0.5497300000000001    0.5105700000000000    0.2125000000000000 O
   0.3746200000000000    0.6405900000000000    0.1557700000000000 O
