H4 C8 O9
1.0
   9.2074717223748248    0.0000000000000000    0.0228195457438005
   0.0190612944700715   11.0958786088818311    0.8512501477307993
   0.0000000000000000    0.0000000000000000   12.1910000000000007
H C O
4 8 9
direct
   0.1601000000000000    0.4423300000000000    0.4080900000000000 H
   0.1105900000000000    0.5701000000000001    0.1795700000000000 H
   0.4116700000000000    0.4939100000000000    0.3963800000000000 H
   0.3507200000000000    0.7351700000000000    0.3450400000000000 H
   0.2527200000000000    0.6562900000000000    0.4934300000000000 C
   0.1974400000000000    0.4670800000000000    0.3236900000000000 C
   0.9371900000000000    0.5385500000000000    0.2988600000000000 C
   0.0959200000000000    0.5639500000000000    0.2692700000000000 C
   0.3412200000000000    0.5378100000000000    0.3329400000000000 C
   0.2804300000000000    0.6578400000000000    0.3690100000000000 C
   0.2055000000000000    0.3545600000000000    0.2594000000000000 C
   0.4290700000000000    0.5601400000000000    0.2258600000000000 C
   0.1442700000000000    0.6773200000000000    0.3100200000000000 O
   0.3746200000000000    0.6405900000000000    0.1557700000000000 O
   1.1285300000000000    0.6874300000000000    0.5283099999999999 O
   0.3573700000000000    0.6244000000000000    0.5560600000000000 O
   0.1689600000000000    0.2544800000000000    0.3157100000000000 O
   0.8750700000000000    0.5933500000000000    0.3744400000000000 O
   0.5497300000000001    0.5105700000000000    0.2125000000000000 O
   0.2437900000000000    0.3643400000000000    0.1619200000000000 O
   0.8797100000000000    0.4588500000000000    0.2447100000000000 O
