Zn8 H12 C24 O27
1.0
   9.2074717223748248    0.0000000000000000    0.0228195457438005
   0.0190612944700715   11.0958786088818311    0.8512501477307993
   0.0000000000000000    0.0000000000000000   12.1910000000000007
Zn H C O
8 12 24 27
direct
   0.5143100000000000    0.2397800000000000    0.9212100000000000 Zn
   0.6870800000000000    0.3801100000000000    0.2770000000000000 Zn
   0.0185700000000000    0.2604600000000000    0.5741400000000000 Zn
   0.8133400000000000    0.8800100000000000    0.7773500000000000 Zn
   0.4866700000000000    0.7606500000000000    0.0745100000000000 Zn
   0.3132400000000000    0.6204900000000000    0.7185700000000000 Zn
   0.9812000000000000    0.7395400000000000    0.4218700000000000 Zn
   0.1872200000000000    0.1197500000000000    0.2221100000000000 Zn
   0.3376800000000000    0.9395300000000000    0.9106000000000000 H
   0.3867900000000000    0.0675900000000000    0.6812200000000000 H
   0.0852800000000000    0.9910099999999999    0.8982300000000000 H
   0.1456000000000000    0.2335500000000000    0.8482200000000000 H
   0.8402700000000000    0.5590900000000000    0.5878900000000000 H
   0.8900500000000000    0.4306500000000000    0.8160900000000000 H
   0.5887700000000000    0.5076400000000000    0.5995000000000000 H
   0.6491400000000001    0.2662700000000000    0.6499600000000000 H
   0.6627999999999999    0.0584700000000000    0.0893300000000000 H
   0.6114100000000000    0.9305099999999999    0.3170400000000000 H
   0.9154200000000000    0.0074400000000000    0.1023300000000000 H
   0.8551400000000000    0.7674600000000000    0.1509100000000000 H
   0.2453100000000000    0.1539500000000000    0.9955500000000000 C
   0.3009400000000000    0.9651300000000000    0.8263200000000001 C
   0.5605000000000000    0.0375200000000000    0.7998400000000000 C
   0.4013800000000000    0.0619800000000000    0.7708500000000000 C
   0.1560300000000000    0.0363800000000000    0.8347400000000000 C
   0.2163100000000000    0.1560300000000000    0.8711800000000000 C
   0.2928700000000000    0.8534000000000000    0.7609200000000000 C
   0.0702400000000000    0.0590700000000000    0.7268900000000000 C
   0.7478700000000000    0.3457000000000000    0.5021300000000000 C
   0.8030200000000000    0.5340500000000000    0.6722600000000000 C
   0.0632000000000000    0.4617900000000000    0.6965500000000000 C
   0.9044500000000000    0.4368200000000000    0.7263700000000000 C
   0.6591399999999999    0.4634800000000000    0.6628600000000000 C
   0.7197200000000000    0.3435700000000000    0.6264700000000000 C
   0.7948200000000000    0.6463300000000000    0.7369500000000000 C
   0.5711600000000000    0.4406000000000000    0.7697900000000000 C
   0.7572100000000000    0.8461800000000000    0.0028300000000000 C
   0.6998700000000000    0.0345900000000000    0.1738500000000000 C
   0.4389700000000000    0.9619200000000000    0.1975300000000000 C
   0.5977200000000000    0.9373100000000000    0.2273200000000000 C
   0.8433600000000000    0.9644800000000000    0.1644100000000000 C
   0.7841700000000000    0.8446399999999999    0.1273200000000000 C
   0.7077300000000000    0.1480500000000000    0.2367100000000000 C
   0.9285900000000000    0.9414100000000000    0.2724200000000000 C
   0.3518700000000000    0.1758200000000000    0.8109100000000000 O
   0.1263900000000000    0.1388400000000000    0.6569400000000000 O
   0.3690700000000000    0.1870400000000000    0.0290700000000000 O
   0.1425800000000000    0.1201200000000000    0.0595600000000000 O
   0.3321900000000000    0.7528800000000000    0.8151400000000000 O
   0.6218900000000001    0.0930600000000000    0.8748500000000000 O
   0.9503300000000000    0.0106900000000000    0.7129400000000000 O
   0.2514100000000000    0.8642000000000000    0.6642700000000000 O
   0.6203400000000000    0.9594800000000000    0.7476100000000000 O
   0.8555800000000000    0.3235100000000000    0.6856900000000000 O
   0.6256699999999999    0.3600600000000000    0.8397600000000000 O
   0.8717600000000000    0.3134800000000000    0.4674700000000000 O
   0.6438000000000000    0.3791000000000000    0.4394600000000000 O
   0.8309500000000000    0.7468500000000000    0.6812400000000000 O
   0.1250400000000000    0.4068200000000000    0.6209400000000000 O
   0.4501200000000000    0.4896400000000000    0.7829800000000000 O
   0.7565000000000000    0.6358500000000000    0.8344500000000000 O
   0.1210000000000000    0.5414099999999999    0.7506200000000000 O
   0.6478300000000000    0.8242500000000000    0.1861800000000000 O
   0.8714499999999999    0.8617100000000000    0.3420000000000000 O
   0.6340000000000000    0.8130700000000000    0.9680900000000000 O
   0.8610800000000000    0.8793600000000000    0.9396300000000000 O
   0.6681600000000000    0.2473300000000000    0.1806500000000000 O
   0.3787800000000000    0.9073600000000001    0.1213300000000000 O
   0.0504700000000000    0.9896600000000000    0.2873000000000000 O
   0.7490100000000000    0.1400000000000000    0.3334700000000000 O
   0.3807700000000000    0.0418900000000000    0.2544800000000000 O
