H7 O4
1.0
  37.8999916645101536    0.0000000000000000   -0.0251362300444530
  -0.0374684621197451   21.0449660173513280   -0.0051422635239804
   0.0000000000000000    0.0000000000000000   26.5199999999999996
H O
7 4
direct
   0.5211809755863718    0.2454873064406251    0.1730589885666036 H
   0.5352595955008674    0.1907510789366729    0.1320889540066641 H
   0.5225037061109169    0.0653404441866251    0.3232779765427883 H
   0.5235111451927840    0.0958116602879039    0.2669095852003063 H
   0.5440674347497807    0.1280053184198960    0.4305123494027951 H
   0.5246444989125378    0.9655517157047021    0.4318258335140328 H
   0.5448878969412692    1.0396035299961008    0.4486647977029449 H
   0.5295040000000000    0.2351900000000000    0.1391100000000000 O
   0.5261780000000000    0.1036900000000000    0.3030800000000000 O
   0.5273780000000000    0.1054600000000000    0.4092700000000000 O
   0.5155080000000001    0.9999150000000000    0.4112700000000000 O
