H5 C9 S1 N2 O2
1.0
  37.8999916645101536    0.0000000000000000   -0.0251362300444530
  -0.0374684621197451   21.0449660173513280   -0.0051422635239804
   0.0000000000000000    0.0000000000000000   26.5199999999999996
H C S N O
5 9 1 2 2
direct
   0.5446820000000000    0.0782700000000000    0.1562300000000000 H
   0.5468380000000000    0.1632850000000000    0.0914600000000000 H
   0.5114860000000000    0.2991300000000000    0.1930400000000000 H
   0.5047280000000001    0.2196400000000000    0.2611700000000000 H
   0.5076440000000000    0.9486100000000000    0.3164000000000000 H
   0.5215980000000000    0.0521100000000000    0.3887050000000000 C
   0.5209980000000001    0.0496250000000000    0.3315550000000000 C
   0.5225560000000000    0.0929900000000000    0.2539550000000000 C
   0.5245260000000000    0.1414700000000000    0.2145900000000000 C
   0.5355540000000001    0.1260700000000000    0.1654800000000000 C
   0.5374680000000001    0.1737000000000000    0.1293950000000000 C
   0.5179740000000000    0.2494550000000000    0.1861400000000000 C
   0.5148780000000001    0.2048100000000000    0.2244400000000000 C
   0.5136860000000001    0.9963000000000000    0.3030900000000000 C
   0.5132520000000000    0.0139000000000000    0.2402550000000000 S
   0.5261780000000000    0.1036900000000000    0.3030800000000000 N
   0.5295040000000000    0.2351900000000000    0.1391100000000000 N
   0.5273780000000000    0.1054600000000000    0.4092700000000000 O
   0.5155080000000001    0.9999150000000000    0.4112700000000000 O
