C2 O4
1.0
  14.7209883767658187    0.0000000000000000    0.0184989493126706
  -3.2363343596795371   20.2186226815964751    0.0035737361582409
   0.0000000000000000    0.0000000000000000   26.2839999999999989
C O
2 4
direct
   0.7765400000000000    0.4723000000000000    0.2409050000000000 C
   0.7234200000000000    0.5277200000000000    0.2590900000000000 C
   0.8514400000000000    0.4890100000000000    0.2179550000000000 O
   0.7386900000000000    0.4129600000000000    0.2509750000000000 O
   0.6485300000000001    0.5110100000000000    0.2820400000000000 O
   0.7612700000000000    0.5870600000000000    0.2490200000000000 O
