La32 P31 H93 C94 O250
1.0
  14.7209883767658187    0.0000000000000000    0.0184989493126706
  -3.2363343596795371   20.2186226815964751    0.0035737361582409
   0.0000000000000000    0.0000000000000000   26.2839999999999989
La P H C O
32 31 93 94 250
direct
   0.0766800000000000    0.6388600000000000    0.4589100000000000 La
   0.5766700000000000    0.1388500000000000    0.4589100000000000 La
   0.5766700000000000    0.6388600000000000    0.4589100000000000 La
   0.4231100000000000    0.1111900000000000    0.2089000000000000 La
   0.4231100000000000    0.6112000000000000    0.2089400000000000 La
   0.9231000000000000    0.1111900000000000    0.2089000000000000 La
   0.9231000000000000    0.6112000000000000    0.2089000000000000 La
   0.4233100000000000    0.3611600000000000    0.0410850000000000 La
   0.4233100000000000    0.8611700000000000    0.0410850000000000 La
   0.9232900000000001    0.3611600000000000    0.0410850000000000 La
   0.9233000000000000    0.8611700000000000    0.0410850000000000 La
   0.0768800000000000    0.3888200000000000    0.2910550000000000 La
   0.0768800000000000    0.8888300000000000    0.2910550000000000 La
   0.5768600000000000    0.3888200000000000    0.2910550000000000 La
   0.5768700000000000    0.8888400000000000    0.2910550000000000 La
   0.0766800000000000    0.1388500000000000    0.4589100000000000 La
   0.0766800000000000    0.6388600000000000    0.9589099999999999 La
   0.5766700000000000    0.1388500000000000    0.9589099999999999 La
   0.5766700000000000    0.6388600000000000    0.9589099999999999 La
   0.4231100000000000    0.1111900000000000    0.7089000000000000 La
   0.4231100000000000    0.6112000000000000    0.7089400000000000 La
   0.9231000000000000    0.1111900000000000    0.7089000000000000 La
   0.9231000000000000    0.6112000000000000    0.7089000000000000 La
   0.4233100000000000    0.3611600000000000    0.5410850000000000 La
   0.4233100000000000    0.8611700000000000    0.5410850000000000 La
   0.9232900000000001    0.3611600000000000    0.5410850000000000 La
   0.9233000000000000    0.8611700000000000    0.5410850000000000 La
   0.0768800000000000    0.3888200000000000    0.7910550000000001 La
   0.0768800000000000    0.8888300000000000    0.7910550000000001 La
   0.5768600000000000    0.3888200000000000    0.7910550000000001 La
   0.5768700000000000    0.8888400000000000    0.7910550000000001 La
   0.0766800000000000    0.1388500000000000    0.9589099999999999 La
   0.3936700000000000    0.0407800000000000    0.0332550000000000 P
   0.3936700000000000    0.5407999999999999    0.0332550000000000 P
   0.8936600000000000    0.0407800000000000    0.0332550000000000 P
   0.8936600000000000    0.5407999999999999    0.0332550000000000 P
   0.1063700000000000    0.2091800000000000    0.2826450000000000 P
   0.1063800000000000    0.7091900000000000    0.2826450000000000 P
   0.6063600000000000    0.2091800000000000    0.2826450000000000 P
   0.6063600000000000    0.7091900000000000    0.2826450000000000 P
   0.1063200000000000    0.4592300000000000    0.4667400000000000 P
   0.1063200000000000    0.9592400000000000    0.4667400000000000 P
   0.6063000000000000    0.4592300000000000    0.4667400000000000 P
   0.6063100000000000    0.9592400000000000    0.4667400000000000 P
   0.3936100000000000    0.2908300000000000    0.2173500000000000 P
   0.3936200000000000    0.7908400000000000    0.2173500000000000 P
   0.8935999999999999    0.2908300000000000    0.2173500000000000 P
   0.8935999999999999    0.7908400000000000    0.2173500000000000 P
   0.3936700000000000    0.5407999999999999    0.5332550000000000 P
   0.8936600000000000    0.0407800000000000    0.5332550000000000 P
   0.8936600000000000    0.5407999999999999    0.5332550000000000 P
   0.1063700000000000    0.2091800000000000    0.7826450000000000 P
   0.1063800000000000    0.7091900000000000    0.7826450000000000 P
   0.6063600000000000    0.2091800000000000    0.7826450000000000 P
   0.6063600000000000    0.7091900000000000    0.7826450000000000 P
   0.1063200000000000    0.4592300000000000    0.9667399999999999 P
   0.1063200000000000    0.9592400000000000    0.9667399999999999 P
   0.6063000000000000    0.4592300000000000    0.9667399999999999 P
   0.6063100000000000    0.9592400000000000    0.9667399999999999 P
   0.3936100000000000    0.2908300000000000    0.7173499999999999 P
   0.3936200000000000    0.7908400000000000    0.7173499999999999 P
   0.8935999999999999    0.2908300000000000    0.7173499999999999 P
   0.8935999999999999    0.7908400000000000    0.7173499999999999 P
   0.2859600000000000    0.1054600000000000    0.0290750000000000 H
   0.2859600000000000    0.6054700000000000    0.0290750000000000 H
   0.7859400000000000    0.1054600000000000    0.0290750000000000 H
   0.7859500000000000    0.6054700000000000    0.0290750000000000 H
   0.4598900000000000    0.9928700000000000    0.1334000000000000 H
   0.4599000000000000    0.4928800000000000    0.1334000000000000 H
   0.9598800000000000    0.9928700000000000    0.1334000000000000 H
   0.9598800000000000    0.4928800000000000    0.1334000000000000 H
   0.0444200000000000    0.0474100000000000    0.0712600000000000 H
   0.0444300000000000    0.5474200000000000    0.0712600000000000 H
   0.5444099999999999    0.0474100000000000    0.0712600000000000 H
   0.5444099999999999    0.5474200000000000    0.0712600000000000 H
   0.2140700000000000    0.1445000000000000    0.2782250000000000 H
   0.2140700000000000    0.6445100000000000    0.2782250000000000 H
   0.7140500000000000    0.1445000000000000    0.2782250000000000 H
   0.7140600000000000    0.6445100000000000    0.2782250000000000 H
   0.0402600000000000    0.2571300000000000    0.3830950000000000 H
   0.0402700000000000    0.7571400000000000    0.3830950000000000 H
   0.5402500000000000    0.2571300000000000    0.3830950000000000 H
   0.5402600000000000    0.7571400000000000    0.3830950000000000 H
   0.4558500000000000    0.2027700000000000    0.3210650000000000 H
   0.4558600000000000    0.7027800000000000    0.3210650000000000 H
   0.9558400000000000    0.2027700000000000    0.3210650000000000 H
   0.9558400000000000    0.7027800000000000    0.3210650000000000 H
   0.2140300000000000    0.3945500000000000    0.4709200000000000 H
   0.2140300000000000    0.8945600000000000    0.4709200000000000 H
   0.7140200000000000    0.3945500000000000    0.4709200000000000 H
   0.7140200000000000    0.8945600000000000    0.4709200000000000 H
   0.0400900000000000    0.5071400000000000    0.3665850000000000 H
   0.0401000000000000    0.0000000000000000    0.3665850000000000 H
   0.5400800000000000    0.5071400000000000    0.3665850000000000 H
   0.5400800000000000    0.0000000000000000    0.3665850000000000 H
   0.4555600000000000    0.4526000000000000    0.4287350000000000 H
   0.4555700000000000    0.9526100000000000    0.4287350000000000 H
   0.9555500000000000    0.4526000000000000    0.4287350000000000 H
   0.9555600000000000    0.9526100000000000    0.4287350000000000 H
   0.2859200000000000    0.3555100000000000    0.2217700000000000 H
   0.2859200000000000    0.8555199999999999    0.2217700000000000 H
   0.7859100000000000    0.3555100000000000    0.2217700000000000 H
   0.7859100000000000    0.8555199999999999    0.2217700000000000 H
   0.4597200000000000    0.2428800000000000    0.1169000000000000 H
   0.4597300000000000    0.7429000000000000    0.1169000000000000 H
   0.9597100000000000    0.2428800000000000    0.1169000000000000 H
   0.9597100000000000    0.7429000000000000    0.1169000000000000 H
   0.0441300000000000    0.2972400000000000    0.1789000000000000 H
   0.0441400000000000    0.7972600000000000    0.1789000000000000 H
   0.5441200000000000    0.2972400000000000    0.1789250000000000 H
   0.5441200000000000    0.7972600000000000    0.1789250000000000 H
   0.2859600000000000    0.6054700000000000    0.5290750000000000 H
   0.7859400000000000    0.1054600000000000    0.5290750000000000 H
   0.7859500000000000    0.6054700000000000    0.5290750000000000 H
   0.4599000000000000    0.4928800000000000    0.6334000000000000 H
   0.9598800000000000    0.9928700000000000    0.6334000000000000 H
   0.9598800000000000    0.4928800000000000    0.6334000000000000 H
   0.0444200000000000    0.0474100000000000    0.5712600000000000 H
   0.0444300000000000    0.5474200000000000    0.5712600000000000 H
   0.5444099999999999    0.5474200000000000    0.5712600000000000 H
   0.2140700000000000    0.1445000000000000    0.7782249999999999 H
   0.2140700000000000    0.6445100000000000    0.7782249999999999 H
   0.7140500000000000    0.1445000000000000    0.7782249999999999 H
   0.7140600000000000    0.6445100000000000    0.7782249999999999 H
   0.0402600000000000    0.2571300000000000    0.8830950000000000 H
   0.0402700000000000    0.7571400000000000    0.8830950000000000 H
   0.5402500000000000    0.2571300000000000    0.8830950000000000 H
   0.5402600000000000    0.7571400000000000    0.8830950000000000 H
   0.4558500000000000    0.2027700000000000    0.8210649999999999 H
   0.4558600000000000    0.7027800000000000    0.8210649999999999 H
   0.9558400000000000    0.2027700000000000    0.8210649999999999 H
   0.9558400000000000    0.7027800000000000    0.8210649999999999 H
   0.2140300000000000    0.3945500000000000    0.9709200000000000 H
   0.2140300000000000    0.8945600000000000    0.9709200000000000 H
   0.7140200000000000    0.3945500000000000    0.9709200000000000 H
   0.7140200000000000    0.8945600000000000    0.9709200000000000 H
   0.0400900000000000    0.5071400000000000    0.8665849999999999 H
   0.0401000000000000    0.0000000000000000    0.8665849999999999 H
   0.5400800000000000    0.5071400000000000    0.8665849999999999 H
   0.5400800000000000    0.0000000000000000    0.8665849999999999 H
   0.4555600000000000    0.4526000000000000    0.9287350000000000 H
   0.4555700000000000    0.9526100000000000    0.9287350000000000 H
   0.9555500000000000    0.4526000000000000    0.9287350000000000 H
   0.9555600000000000    0.9526100000000000    0.9287350000000000 H
   0.2859200000000000    0.3555100000000000    0.7217700000000000 H
   0.2859200000000000    0.8555199999999999    0.7217700000000000 H
   0.7859100000000000    0.3555100000000000    0.7217700000000000 H
   0.7859100000000000    0.8555199999999999    0.7217700000000000 H
   0.4597200000000000    0.2428800000000000    0.6169000000000000 H
   0.4597300000000000    0.7429000000000000    0.6169000000000000 H
   0.9597100000000000    0.2428800000000000    0.6169000000000000 H
   0.9597100000000000    0.7429000000000000    0.6169000000000000 H
   0.0441300000000000    0.2972400000000000    0.6789000000000001 H
   0.0441400000000000    0.7972600000000000    0.6789000000000001 H
   0.5441200000000000    0.2972400000000000    0.6789250000000000 H
   0.5441200000000000    0.7972600000000000    0.6789250000000000 H
   0.4819900000000000    0.0669000000000000    0.0833200000000000 C
   0.4820000000000000    0.5669100000000000    0.0833200000000000 C
   0.9819800000000000    0.0669000000000000    0.0833200000000000 C
   0.9819800000000000    0.5669100000000000    0.0833200000000000 C
   0.5019100000000000    0.1417100000000000    0.0849000000000000 C
   0.5019100000000000    0.6417300000000000    0.0849000000000000 C
   0.0000000000000000    0.1417100000000000    0.0849000000000000 C
   0.0000000000000000    0.6417300000000000    0.0849000000000000 C
   0.2234900000000000    0.2777200000000000    0.4908500000000000 C
   0.2234900000000000    0.7777300000000000    0.4908500000000000 C
   0.7234699999999999    0.2777200000000000    0.4908500000000000 C
   0.7234800000000000    0.7777300000000000    0.4908500000000000 C
   0.0182100000000000    0.1831600000000000    0.3330150000000000 C
   0.0182100000000000    0.6831700000000001    0.3330150000000000 C
   0.5181900000000000    0.1831600000000000    0.3330150000000000 C
   0.5182000000000000    0.6831700000000001    0.3330150000000000 C
   0.9980000000000000    0.1083700000000000    0.3347250000000000 C
   0.9980000000000000    0.6083800000000000    0.3347250000000000 C
   0.4979800000000000    0.1083700000000000    0.3347250000000000 C
   0.4979900000000000    0.6083900000000000    0.3347250000000000 C
   0.2765500000000000    0.4723000000000000    0.2409050000000000 C
   0.2765600000000000    0.9723100000000000    0.2409050000000000 C
   0.7765400000000000    0.4723000000000000    0.2409050000000000 C
   0.7765500000000000    0.9723100000000000    0.2409050000000000 C
   0.0179900000000000    0.4331100000000000    0.4166750000000000 C
   0.0180000000000000    0.9331199999999999    0.4166750000000000 C
   0.5179800000000000    0.4331100000000000    0.4166750000000000 C
   0.5179900000000000    0.9331199999999999    0.4166750000000000 C
   0.9980700000000000    0.3583000000000000    0.4150950000000000 C
   0.9980800000000000    0.8583100000000000    0.4150950000000000 C
   0.4980600000000000    0.3583000000000000    0.4150950000000000 C
   0.4980700000000000    0.8583100000000000    0.4150950000000000 C
   0.2765000000000000    0.2222900000000000    0.0091300000000000 C
   0.2765000000000000    0.7223100000000000    0.0091300000000000 C
   0.7764900000000000    0.2222900000000000    0.0091300000000000 C
   0.7764900000000000    0.7223100000000000    0.0091300000000000 C
   0.4817800000000000    0.3168500000000000    0.1669800000000000 C
   0.4817800000000000    0.8168700000000000    0.1669800000000000 C
   0.9817600000000000    0.3168500000000000    0.1669800000000000 C
   0.9817700000000000    0.8168700000000000    0.1669800000000000 C
   0.5019900000000000    0.3916400000000000    0.1652700000000000 C
   0.5020000000000000    0.8916500000000001    0.1652700000000000 C
   0.0000000000000000    0.3916400000000000    0.1652700000000000 C
   0.0000000000000000    0.8916500000000001    0.1652700000000000 C
   0.2234300000000000    0.0277100000000000    0.2590900000000000 C
   0.2234400000000000    0.5277200000000000    0.2590900000000000 C
   0.7234200000000000    0.0277100000000000    0.2590900000000000 C
   0.7234200000000000    0.5277200000000000    0.2590900000000000 C
   0.4820000000000000    0.5669100000000000    0.5833200000000001 C
   0.9819800000000000    0.0669000000000000    0.5833200000000001 C
   0.9819800000000000    0.5669100000000000    0.5833200000000001 C
   0.5019100000000000    0.6417300000000000    0.5849000000000000 C
   0.0000000000000000    0.1417100000000000    0.5849000000000000 C
   0.0000000000000000    0.6417300000000000    0.5849000000000000 C
   0.2234900000000000    0.2777200000000000    0.9908500000000000 C
   0.2234900000000000    0.7777300000000000    0.9908500000000000 C
   0.7234699999999999    0.2777200000000000    0.9908500000000000 C
   0.7234800000000000    0.7777300000000000    0.9908500000000000 C
   0.0182100000000000    0.1831600000000000    0.8330150000000001 C
   0.0182100000000000    0.6831700000000001    0.8330150000000001 C
   0.5181900000000000    0.1831600000000000    0.8330150000000001 C
   0.5182000000000000    0.6831700000000001    0.8330150000000001 C
   0.9980000000000000    0.1083700000000000    0.8347249999999999 C
   0.9980000000000000    0.6083800000000000    0.8347249999999999 C
   0.4979800000000000    0.1083700000000000    0.8347249999999999 C
   0.4979900000000000    0.6083900000000000    0.8347249999999999 C
   0.2765500000000000    0.4723000000000000    0.7409050000000000 C
   0.2765600000000000    0.9723100000000000    0.7409050000000000 C
   0.7765400000000000    0.4723000000000000    0.7409050000000000 C
   0.7765500000000000    0.9723100000000000    0.7409050000000000 C
   0.0179900000000000    0.4331100000000000    0.9166750000000000 C
   0.0180000000000000    0.9331199999999999    0.9166750000000000 C
   0.5179800000000000    0.4331100000000000    0.9166750000000000 C
   0.5179900000000000    0.9331199999999999    0.9166750000000000 C
   0.9980700000000000    0.3583000000000000    0.9150950000000000 C
   0.9980800000000000    0.8583100000000000    0.9150950000000000 C
   0.4980600000000000    0.3583000000000000    0.9150950000000000 C
   0.4980700000000000    0.8583100000000000    0.9150950000000000 C
   0.2765000000000000    0.2222900000000000    0.5091300000000000 C
   0.2765000000000000    0.7223100000000000    0.5091300000000000 C
   0.7764900000000000    0.2222900000000000    0.5091300000000000 C
   0.7764900000000000    0.7223100000000000    0.5091300000000000 C
   0.4817800000000000    0.3168500000000000    0.6669800000000000 C
   0.4817800000000000    0.8168700000000000    0.6669800000000000 C
   0.9817600000000000    0.3168500000000000    0.6669800000000000 C
   0.9817700000000000    0.8168700000000000    0.6669800000000000 C
   0.5019900000000000    0.3916400000000000    0.6652700000000000 C
   0.5020000000000000    0.8916500000000001    0.6652700000000000 C
   0.0000000000000000    0.3916400000000000    0.6652700000000000 C
   0.0000000000000000    0.8916500000000001    0.6652700000000000 C
   0.2234300000000000    0.0277100000000000    0.7590900000000000 C
   0.2234400000000000    0.5277200000000000    0.7590900000000000 C
   0.7234200000000000    0.0277100000000000    0.7590900000000000 C
   0.7234200000000000    0.5277200000000000    0.7590900000000000 C
   0.5662000000000000    0.9276400000000000    0.0161000000000000 O
   0.1258700000000000    0.0344100000000000    0.4649950000000000 O
   0.1258700000000000    0.5344200000000000    0.4649950000000000 O
   0.6258500000000000    0.0344100000000000    0.4649950000000000 O
   0.3051100000000000    0.0690800000000000    0.0509050000000000 O
   0.3051100000000000    0.5690900000000000    0.0509050000000000 O
   0.8051000000000000    0.0690800000000000    0.0509050000000000 O
   0.8051000000000000    0.5690900000000000    0.0509050000000000 O
   0.4337800000000000    0.5723900000000000    0.4838950000000000 O
   0.9337600000000000    0.0723800000000000    0.4838950000000000 O
   0.9337700000000000    0.5723900000000000    0.4838950000000000 O
   0.3741200000000000    0.4656000000000000    0.0349950000000000 O
   0.3741200000000000    0.9656200000000000    0.0349950000000000 O
   0.8741100000000001    0.4656000000000000    0.0349950000000000 O
   0.8741100000000001    0.9656200000000000    0.0349950000000000 O
   0.4533100000000000    0.0418900000000000    0.1324900000000000 O
   0.4533100000000000    0.5419000000000000    0.1324900000000000 O
   0.9533000000000000    0.0418900000000000    0.1324900000000000 O
   0.9533000000000000    0.5419000000000000    0.1324900000000000 O
   0.0421400000000000    0.1726100000000000    0.0475900000000000 O
   0.0421400000000000    0.6726200000000000    0.0475900000000000 O
   0.5421300000000000    0.1726100000000000    0.0475900000000000 O
   0.5421300000000000    0.6726200000000000    0.0475900000000000 O
   0.4729200000000000    0.1692500000000000    0.1242650000000000 O
   0.4729300000000000    0.6692700000000000    0.1242650000000000 O
   0.9729100000000001    0.1692500000000000    0.1242650000000000 O
   0.9729100000000001    0.6692700000000000    0.1242650000000000 O
   0.1481400000000000    0.2608700000000000    0.4684850000000000 O
   0.1481400000000000    0.7608900000000000    0.4684850000000000 O
   0.6481300000000000    0.2608700000000000    0.4684850000000000 O
   0.6481300000000000    0.7608900000000000    0.4684850000000000 O
   0.2617300000000000    0.3371200000000000    0.0000000000000000 O
   0.2617300000000000    0.8371400000000000    0.0000000000000000 O
   0.7617200000000000    0.3371200000000000    0.0000000000000000 O
   0.7617200000000000    0.8371400000000000    0.0000000000000000 O
   0.1950300000000000    0.1809700000000000    0.3000400000000000 O
   0.1950300000000000    0.6809800000000000    0.3000400000000000 O
   0.6950100000000000    0.1809700000000000    0.3000400000000000 O
   0.6950200000000000    0.6809800000000000    0.3000400000000000 O
   0.0662200000000000    0.1775800000000000    0.2333550000000000 O
   0.0662200000000000    0.6776000000000000    0.2333550000000000 O
   0.5662000000000000    0.1775800000000000    0.2333550000000000 O
   0.5662100000000000    0.6776000000000000    0.2333550000000000 O
   0.1257900000000000    0.2843700000000000    0.2842750000000000 O
   0.1257900000000000    0.7843800000000000    0.2842750000000000 O
   0.6257700000000000    0.2843700000000000    0.2842750000000000 O
   0.6257800000000000    0.7843800000000000    0.2842750000000000 O
   0.0469900000000000    0.2081400000000000    0.3821600000000000 O
   0.0469900000000000    0.7081499999999999    0.3821600000000000 O
   0.5469800000000000    0.2081400000000000    0.3821600000000000 O
   0.5469800000000000    0.7081499999999999    0.3821600000000000 O
   0.4573400000000000    0.0774900000000000    0.2975900000000000 O
   0.4573400000000000    0.5775100000000000    0.2975900000000000 O
   0.9573199999999999    0.0774900000000000    0.2975900000000000 O
   0.9573300000000000    0.5775000000000000    0.2975900000000000 O
   0.0270500000000000    0.0808000000000000    0.3740000000000000 O
   0.0270500000000000    0.5808100000000000    0.3740000000000000 O
   0.5270300000000000    0.0808000000000000    0.3740000000000000 O
   0.5270400000000000    0.5808100000000000    0.3740000000000000 O
   0.3514500000000000    0.4890100000000000    0.2179550000000000 O
   0.3514600000000000    0.9890200000000000    0.2179550000000000 O
   0.8514400000000000    0.4890100000000000    0.2179550000000000 O
   0.8514400000000000    0.9890200000000000    0.2179550000000000 O
   0.2387000000000000    0.4129600000000000    0.2509750000000000 O
   0.2387100000000000    0.9129699999999999    0.2509750000000000 O
   0.7386900000000000    0.4129600000000000    0.2509750000000000 O
   0.7387000000000000    0.9129699999999999    0.2509750000000000 O
   0.1948800000000000    0.4309300000000000    0.4490900000000000 O
   0.1948800000000000    0.9309400000000000    0.4490900000000000 O
   0.6948600000000000    0.4309300000000000    0.4490900000000000 O
   0.6948700000000000    0.9309400000000000    0.4490900000000000 O
   0.0662100000000000    0.4276300000000000    0.0161000000000000 O
   0.0662100000000000    0.9276400000000000    0.0161000000000000 O
   0.5662000000000000    0.4276300000000000    0.0161000000000000 O
   0.6258600000000000    0.5344200000000000    0.4649950000000000 O
   0.0466800000000000    0.4581200000000000    0.3675000000000000 O
   0.0466800000000000    0.9581300000000000    0.3675000000000000 O
   0.5466600000000000    0.4581200000000000    0.3675000000000000 O
   0.5466700000000000    0.9581300000000000    0.3675000000000000 O
   0.4578400000000000    0.3274000000000000    0.4524000000000000 O
   0.4578500000000000    0.8274200000000000    0.4524000000000000 O
   0.9578300000000000    0.3274000000000000    0.4524000000000000 O
   0.9578400000000000    0.8274200000000000    0.4524000000000000 O
   0.0270600000000000    0.3307600000000000    0.3757300000000000 O
   0.0270700000000000    0.8307700000000000    0.3757300000000000 O
   0.5270500000000000    0.3307600000000000    0.3757300000000000 O
   0.5270600000000000    0.8307700000000000    0.3757300000000000 O
   0.3518500000000000    0.2391400000000000    0.0315100000000000 O
   0.3518500000000000    0.7391500000000000    0.0315100000000000 O
   0.8518300000000000    0.2391400000000000    0.0315100000000000 O
   0.8518400000000000    0.7391500000000000    0.0315100000000000 O
   0.2382600000000000    0.1628900000000000    0.4997350000000000 O
   0.2382600000000000    0.6629000000000000    0.4997350000000000 O
   0.7382400000000000    0.1628900000000000    0.4997350000000000 O
   0.7382500000000000    0.6629000000000000    0.4997350000000000 O
   0.3049600000000000    0.3190400000000000    0.1999550000000000 O
   0.3049600000000000    0.8190600000000000    0.1999550000000000 O
   0.8049500000000001    0.3190400000000000    0.1999550000000000 O
   0.8049500000000001    0.8190600000000000    0.1999550000000000 O
   0.4337700000000000    0.3224300000000000    0.2666400000000000 O
   0.4337700000000000    0.8224399999999999    0.2666400000000000 O
   0.9337600000000000    0.3224300000000000    0.2666400000000000 O
   0.9337600000000000    0.8224399999999999    0.2666400000000000 O
   0.3742000000000000    0.2156400000000000    0.2157200000000000 O
   0.3742000000000000    0.7156500000000000    0.2157200000000000 O
   0.8741900000000000    0.2156400000000000    0.2157200000000000 O
   0.8741900000000000    0.7156500000000000    0.2157200000000000 O
   0.4529900000000000    0.2918700000000000    0.1178350000000000 O
   0.4530000000000000    0.7918800000000000    0.1178350000000000 O
   0.9529800000000000    0.2918700000000000    0.1178350000000000 O
   0.9529900000000000    0.7918800000000000    0.1178350000000000 O
   0.0426500000000000    0.4225200000000000    0.2024050000000000 O
   0.0426500000000000    0.9225300000000000    0.2024050000000000 O
   0.5426400000000000    0.4225200000000000    0.2024050000000000 O
   0.5426400000000000    0.9225300000000000    0.2024000000000000 O
   0.4729400000000000    0.4192100000000000    0.1259500000000000 O
   0.4729500000000000    0.9192300000000000    0.1259500000000000 O
   0.9729300000000000    0.4192200000000000    0.1259950000000000 O
   0.9729300000000000    0.9192300000000000    0.1259950000000000 O
   0.1485300000000000    0.0110000000000000    0.2820400000000000 O
   0.1485400000000000    0.5110100000000000    0.2820400000000000 O
   0.6485200000000000    0.0110000000000000    0.2820400000000000 O
   0.6485300000000001    0.5110100000000000    0.2820400000000000 O
   0.2612800000000000    0.0870500000000000    0.2490200000000000 O
   0.2612900000000000    0.5870600000000000    0.2490200000000000 O
   0.7612700000000000    0.0870500000000000    0.2490200000000000 O
   0.7612700000000000    0.5870600000000000    0.2490200000000000 O
   0.5662000000000000    0.9276400000000000    0.5161000000000000 O
   0.1258700000000000    0.0344100000000000    0.9649950000000000 O
   0.1258700000000000    0.5344200000000000    0.9649950000000000 O
   0.6258500000000000    0.0344100000000000    0.9649950000000000 O
   0.3051100000000000    0.5690900000000000    0.5509050000000000 O
   0.8051000000000000    0.0690800000000000    0.5509050000000000 O
   0.8051000000000000    0.5690900000000000    0.5509050000000000 O
   0.4337800000000000    0.0723800000000000    0.9838950000000000 O
   0.4337800000000000    0.5723900000000000    0.9838950000000000 O
   0.9337600000000000    0.0723800000000000    0.9838950000000000 O
   0.9337700000000000    0.5723900000000000    0.9838950000000000 O
   0.3741200000000000    0.4656000000000000    0.5349950000000000 O
   0.8741100000000001    0.4656000000000000    0.5349950000000000 O
   0.8741100000000001    0.9656200000000000    0.5349950000000000 O
   0.4533100000000000    0.5419000000000000    0.6324900000000000 O
   0.9533000000000000    0.0418900000000000    0.6324900000000000 O
   0.9533000000000000    0.5419000000000000    0.6324900000000000 O
   0.0421400000000000    0.1726100000000000    0.5475900000000000 O
   0.0421400000000000    0.6726200000000000    0.5475900000000000 O
   0.5421300000000000    0.6726200000000000    0.5475900000000000 O
   0.4729300000000000    0.6692700000000000    0.6242650000000000 O
   0.9729100000000001    0.1692500000000000    0.6242650000000000 O
   0.9729100000000001    0.6692700000000000    0.6242650000000000 O
   0.1481400000000000    0.2608700000000000    0.9684850000000000 O
   0.1481400000000000    0.7608900000000000    0.9684850000000000 O
   0.6481300000000000    0.2608700000000000    0.9684850000000000 O
   0.6481300000000000    0.7608900000000000    0.9684850000000000 O
   0.2617300000000000    0.3371200000000000    0.5000000000000000 O
   0.2617300000000000    0.8371400000000000    0.5000000000000000 O
   0.7617200000000000    0.3371200000000000    0.5000000000000000 O
   0.7617200000000000    0.8371400000000000    0.5000000000000000 O
   0.1950300000000000    0.1809700000000000    0.8000400000000000 O
   0.1950300000000000    0.6809800000000000    0.8000400000000000 O
   0.6950100000000000    0.1809700000000000    0.8000400000000000 O
   0.6950200000000000    0.6809800000000000    0.8000400000000000 O
   0.0662200000000000    0.1775800000000000    0.7333550000000000 O
   0.0662200000000000    0.6776000000000000    0.7333550000000000 O
   0.5662000000000000    0.1775800000000000    0.7333550000000000 O
   0.5662100000000000    0.6776000000000000    0.7333550000000000 O
   0.1257900000000000    0.2843700000000000    0.7842750000000001 O
   0.1257900000000000    0.7843800000000000    0.7842750000000001 O
   0.6257700000000000    0.2843700000000000    0.7842750000000001 O
   0.6257800000000000    0.7843800000000000    0.7842750000000001 O
   0.0469900000000000    0.2081400000000000    0.8821600000000001 O
   0.0469900000000000    0.7081499999999999    0.8821600000000001 O
   0.5469800000000000    0.2081400000000000    0.8821600000000001 O
   0.5469800000000000    0.7081499999999999    0.8821600000000001 O
   0.4573400000000000    0.0774900000000000    0.7975900000000000 O
   0.4573400000000000    0.5775100000000000    0.7975900000000000 O
   0.9573199999999999    0.0774900000000000    0.7975900000000000 O
   0.9573300000000000    0.5775000000000000    0.7975900000000000 O
   0.0270500000000000    0.0808000000000000    0.8740000000000000 O
   0.0270500000000000    0.5808100000000000    0.8740000000000000 O
   0.5270300000000000    0.0808000000000000    0.8740000000000000 O
   0.5270400000000000    0.5808100000000000    0.8740000000000000 O
   0.3514500000000000    0.4890100000000000    0.7179550000000000 O
   0.3514600000000000    0.9890200000000000    0.7179550000000000 O
   0.8514400000000000    0.4890100000000000    0.7179550000000000 O
   0.8514400000000000    0.9890200000000000    0.7179550000000000 O