H3 C4 O6
1.0
   9.6554988470364922    0.0000000000000000    0.0047185672581231
   0.0096027659064468   14.8709968633257752    0.0010381916514145
   0.0000000000000000    0.0000000000000000   30.8299999999999983
H C O
3 4 6
direct
   0.7979600000000000    0.9054700000000000    0.1072000000000000 H
   0.5758300000000000    0.9691100000000000    0.0961200000000000 H
   0.4755300000000000    0.0450800000000000    0.1602750000000000 H
   0.7096800000000000    0.0764700000000000    0.1188800000000000 C
   0.6406100000000000    0.9843600000000000    0.1244400000000000 C
   0.5478400000000000    0.9884400000000000    0.1653850000000000 C
   0.4558300000000000    0.9033500000000000    0.1675550000000000 C
   0.8303199999999999    1.0895700000000001    0.1347700000000000 O
   0.6388200000000001    0.1365400000000000    0.1000600000000000 O
   0.7391200000000000    0.9135700000000000    0.1326250000000000 O
   0.6293700000000000    0.0013700000000000    0.2027700000000000 O
   0.4566200000000000    0.8523500000000001    0.2007250000000000 O
   0.3791100000000000    0.8908300000000000    0.1347650000000000 O
