H10 C8 O4
1.0
  12.4879980523201333    0.0000000000000000    0.0069746145810523
  -0.0083282482253984   13.0436916723902385   -3.7498296222493868
   0.0000000000000000    0.0000000000000000   36.4380000000000024
H C O
10 8 4
direct
   0.6836800000000000    0.9363200000000000    0.0072500000000000 H
   0.5564500000000000    0.9655400000000000    0.0610050000000000 H
   0.5772600000000000    0.0789300000000000    0.0473350000000000 H
   0.3841300000000000    0.9357200000000000    0.0242700000000000 H
   0.4332500000000000    0.1392500000000000    0.0071000000000000 H
   0.6159200000000000    0.0642100000000000    0.9757450000000000 H
   0.5667800000000000    0.8607000000000000    0.9929300000000000 H
   0.3163600000000000    0.0636300000000000    0.9927800000000000 H
   0.4436000000000000    0.0344300000000000    0.9390200000000000 H
   0.4227600000000000    0.9210300000000000    0.9526900000000000 H
   0.5975300000000000    0.9399900000000000    0.0014300000000000 C
   0.5416700000000000    0.0018300000000000    0.0379300000000000 C
   0.4210800000000000    0.0125400000000000    0.0319200000000000 C
   0.3633200000000000    0.0744100000000000    0.0679650000000000 C
   0.5789500000000000    0.9874000000000001    0.9681050000000000 C
   0.6366900000000000    0.9254900000000000    0.9320600000000000 C
   0.4025100000000000    0.0599600000000000    0.9985950000000000 C
   0.4583700000000000    0.9981200000000000    0.9620949999999999 C
   0.2823000000000000    0.0388700000000000    0.0797900000000000 O
   0.4031100000000000    0.1653300000000000    0.0841400000000000 O
   0.7177400000000000    0.9609799999999999    0.9202300000000000 O
   0.5968599999999999    0.8346000000000000    0.9158800000000000 O
