H4 O2
1.0
  12.4879980523201333    0.0000000000000000    0.0069746145810523
  -0.0083282482253984   13.0436916723902385   -3.7498296222493868
   0.0000000000000000    0.0000000000000000   36.4380000000000024
H O
4 2
direct
   0.2010153686363977    0.2204640265072882    0.6861762786414312 H
   0.1384257300466060    0.1557419488107517    0.6460715101321873 H
   0.2989673937512267    0.7795132216343525    0.8138387334197046 H
   0.3615638290035001    0.8442349839384847    0.8539397797477997 H
   0.1988800000000000    0.1982200000000000    0.6582500000000000 O
   0.3011100000000000    0.8017500000000000    0.8417650000000000 O
