H12 C18 S2 N2
1.0
  12.4879980523201333    0.0000000000000000    0.0069746145810523
  -0.0083282482253984   13.0436916723902385   -3.7498296222493868
   0.0000000000000000    0.0000000000000000   36.4380000000000024
H C S N
12 18 2 2
direct
   0.5327400000000000    0.9338600000000000    0.8535050000000000 H
   0.3672500000000000    0.7720200000000000    0.7496900000000000 H
   0.2295400000000000    0.7243800000000000    0.7905650000000000 H
   0.5212900000000000    0.7838600000000000    0.7179200000000000 H
   0.6833900000000001    0.8697900000000000    0.6934600000000000 H
   0.3843400000000000    0.8843600000000000    0.8895950000000000 H
   0.9672300000000000    0.0661100000000000    0.6465050000000000 H
   0.1327200000000000    0.2279400000000000    0.7503200000000000 H
   0.2704500000000000    0.2755900000000000    0.7094500000000000 H
   0.9787000000000000    0.2161000000000000    0.7820900000000000 H
   0.8166000000000000    0.1301700000000000    0.8065500000000000 H
   0.1156500000000000    0.1156200000000000    0.6104200000000000 H
   0.4661300000000000    0.8893700000000000    0.8379000000000000 C
   0.3760800000000000    0.7976400000000000    0.7805900000000000 C
   0.7044000000000000    0.9687800000000000    0.7514500000000000 C
   0.5473800000000000    0.8869500000000000    0.7748250000000000 C
   0.2981500000000000    0.7710300000000000    0.8031850000000000 C
   0.5679000000000000    0.8461900000000000    0.7361050000000000 C
   0.4638800000000000    0.8584600000000000    0.7977550000000000 C
   0.6557500000000001    0.8918400000000000    0.7229500000000000 C
   0.3845800000000000    0.8604100000000000    0.8585750000000000 C
   0.0338600000000000    0.1106000000000000    0.6620699999999999 C
   0.1238900000000000    0.2023400000000000    0.7194199999999999 C
   0.7955800000000000    0.0311900000000000    0.7485600000000000 C
   0.9525900000000000    0.1130300000000000    0.7251850000000000 C
   0.2018300000000000    0.2289500000000000    0.6968300000000001 C
   0.9320800000000000    0.1537700000000000    0.7639100000000000 C
   0.0361000000000000    0.1415100000000000    0.7022550000000000 C
   0.8442400000000000    0.1081200000000000    0.7770600000000000 C
   0.1154100000000000    0.1395700000000000    0.6414350000000000 C
   0.8606100000000000    0.0166600000000000    0.7051950000000000 S
   0.6393500000000000    0.9833300000000000    0.7948150000000000 S
   0.3011100000000000    0.8017500000000000    0.8417650000000000 N
   0.1988800000000000    0.1982200000000000    0.6582500000000000 N
