H3 C7 N1 O4
1.0
   8.6080962748859822    0.0000000000000000    1.5469953207085287
  -0.2852230062643069   24.0526209590584585    1.8584802491712329
   0.0000000000000000    0.0000000000000000   24.0786000000000016
H C N O
3 7 1 4
direct
   0.2347600000000000    0.3289200000000000    0.3416400000000000 H
   0.8446800000000000    0.3539300000000000    0.2661100000000000 H
   0.1673500000000000    0.4895550000000000    0.2601900000000000 H
   0.3629000000000000    0.4323800000000000    0.3232600000000000 C
   0.2168800000000000    0.4123700000000000    0.3048000000000000 C
   0.1661000000000000    0.3575550000000000    0.3192300000000000 C
   0.9505400000000001    0.3710900000000000    0.2762500000000000 C
   0.9943900000000000    0.4262400000000000    0.2584500000000000 C
   0.1299900000000000    0.4467500000000000    0.2730700000000000 C
   0.8954299999999999    0.4632100000000000    0.2254000000000000 C
   0.0356600000000000    0.3369050000000000    0.3054400000000000 N
   0.4103300000000000    0.4815150000000000    0.3035800000000000 O
   0.4249300000000000    0.4003100000000000    0.3563900000000000 O
   0.7550600000000000    0.4448100000000000    0.2290100000000000 O
   0.9543700000000001    0.5069450000000000    0.1990600000000000 O
