H9 C15 N6
1.0
  15.7430000000000003    0.0000000000000000    0.0000000000000010
  -0.0021991148503634   15.7499998440739599   -0.0002748893571770
   0.0000000000000000    0.0000000000000000   20.0049999999999990
H C N
9 15 6
direct
   0.2101400000000000    0.0557100000000000    0.0595200000000000 H
   0.3568300000000000    0.8349600000000000    0.1158100000000000 H
   0.5369500000000000    0.1547600000000000    0.2373300000000000 H
   0.5604800000000000    0.1311800000000000    0.3497200000000000 H
   0.3450100000000000    0.9588400000000000    0.2364100000000000 H
   0.3616500000000000    0.9412400000000000    0.3502300000000000 H
   0.4417900000000000    0.2902400000000000    0.0611300000000000 H
   0.6617800000000000    0.1412700000000000    0.1155000000000000 H
   0.4038600000000000    0.0945600000000000    0.0559900000000000 H
   0.2372400000000000    0.9928700000000000    0.0663000000000000 C
   0.3106100000000000    0.8799300000000000    0.0965500000000000 C
   0.4891300000000000    0.1170700000000000    0.2113900000000000 C
   0.4754500000000000    0.1320100000000000    0.1432300000000000 C
   0.5130800000000000    0.0831500000000000    0.3608200000000000 C
   0.5289000000000000    0.1921900000000000    0.1058000000000000 C
   0.3818000000000000    0.0077500000000000    0.2108800000000000 C
   0.3669000000000000    0.0217900000000000    0.1427600000000000 C
   0.4119400000000000    0.9863200000000000    0.3610800000000000 C
   0.3071400000000000    0.9681600000000000    0.1050700000000000 C
   0.5044300000000000    0.2624800000000000    0.0674000000000000 C
   0.6170200000000000    0.1879600000000000    0.0967100000000000 C
   0.4419800000000000    0.0557400000000000    0.2464600000000000 C
   0.4130400000000000    0.0851400000000000    0.1095000000000000 C
   0.4549200000000000    0.0424900000000000    0.3182300000000000 C
   0.2016800000000000    0.9243500000000000    0.0367000000000000 N
   0.2473800000000000    0.8538900000000000    0.0556600000000000 N
   0.5051200000000000    0.0535600000000000    0.4237900000000000 N
   0.4421000000000000    0.9932400000000000    0.4239800000000000 N
   0.5730000000000000    0.2974800000000000    0.0375200000000000 N
   0.6432300000000000    0.2510500000000000    0.0558100000000000 N
