Zn11 H63 C105 N42
1.0
  15.7430000000000003    0.0000000000000000    0.0000000000000010
  -0.0021991148503634   15.7499998440739599   -0.0002748893571770
   0.0000000000000000    0.0000000000000000   20.0049999999999990
Zn H C N
11 63 105 42
direct
   0.7484300000000000    0.2481200000000000    0.4999500000000000 Zn
   0.7486500000000000    0.2480800000000000    0.9999200000000000 Zn
   0.2484300000000000    0.7481100000000001    0.5000200000000000 Zn
   0.0834400000000000    0.9151600000000000    0.9999600000000000 Zn
   0.4150000000000000    0.5812400000000000    0.9999900000000000 Zn
   0.5823100000000000    0.0812700000000000    0.5000400000000000 Zn
   0.9147500000000000    0.4149700000000000    0.5000300000000000 Zn
   0.9149900000000000    0.0812500000000000    0.9999900000000000 Zn
   0.4147800000000000    0.9149500000000000    0.4999400000000000 Zn
   0.0822800000000000    0.5812500000000000    0.4999300000000000 Zn
   0.2486600000000000    0.7480500000000000    0.6000000000000000 Zn
   0.1539300000000000    0.9596900000000000    0.7365500000000000 H
   0.1366900000000000    0.9417200000000000    0.8503600000000000 H
   0.3452200000000000    0.5379400000000000    0.7364900000000000 H
   0.3622600000000000    0.5553100000000000    0.8503400000000000 H
   0.2889200000000000    0.4405000000000000    0.0600000000000000 H
   0.1412600000000000    0.6608100000000000    0.1156000000000000 H
   0.4412900000000000    0.2067500000000000    0.5608100000000000 H
   0.6615900000000000    0.3552400000000000    0.6153700000000000 H
   0.9603000000000000    0.3421600000000000    0.2369000000000000 H
   0.9366500000000000    0.3654900000000000    0.3493800000000000 H
   0.0559100000000000    0.2900700000000000    0.5611000000000000 H
   0.8360800000000000    0.1404600000000000    0.6149700000000000 H
   0.8449400000000000    0.4588900000000000    0.7635700000000000 H
   0.8615100000000000    0.4413300000000000    0.6497300000000000 H
   0.7889000000000000    0.5556500000000000    0.4401300000000000 H
   0.6407500000000000    0.3355700000000000    0.3845000000000000 H
   0.6532500000000000    0.0371100000000000    0.7633900000000000 H
   0.6361400000000000    0.0547500000000000    0.6495000000000000 H
   0.7091100000000000    0.9406800000000000    0.4398300000000000 H
   0.8563700000000000    0.1614500000000000    0.3844300000000000 H
   0.4607200000000000    0.6543300000000000    0.2629300000000000 H
   0.4377900000000000    0.6315100000000000    0.1503400000000000 H
   0.5561199999999999    0.7065700000000000    0.9392800000000000 H
   0.3360100000000000    0.8552000000000000    0.8846100000000000 H
   0.0375900000000000    0.8424700000000001    0.2631600000000000 H
   0.0616900000000000    0.8660400000000000    0.1507200000000000 H
   0.9417800000000000    0.7902900000000000    0.9388300000000001 H
   0.1617500000000000    0.6412300000000000    0.8844000000000000 H
   0.8452700000000000    0.0379800000000000    0.2634700000000000 H
   0.8622300000000001    0.0552600000000000    0.1496000000000000 H
   0.7889000000000000    0.9404900000000000    0.9399800000000000 H
   0.6412700000000000    0.1608400000000000    0.8842900000000000 H
   0.6539000000000000    0.4596900000000000    0.2634200000000000 H
   0.6365800000000000    0.4416500000000000    0.1496300000000000 H
   0.7100400000000000    0.5557000000000000    0.9404300000000000 H
   0.8568200000000000    0.3350200000000000    0.8842000000000000 H
   0.4603100000000000    0.8421600000000000    0.7630700000000000 H
   0.4367200000000000    0.8654400000000000    0.6505700000000000 H
   0.5558900000000000    0.7900100000000000    0.4389000000000000 H
   0.3360500000000000    0.6404700000000000    0.3849900000000000 H
   0.0368800000000000    0.6548000000000000    0.7626200000000000 H
   0.0604700000000000    0.6311400000000000    0.6502599999999999 H
   0.9412500000000000    0.7067500000000000    0.4391600000000000 H
   0.1616200000000000    0.8551800000000001    0.3845800000000000 H
   0.1532300000000000    0.5371000000000000    0.2365900000000000 H
   0.1361700000000000    0.5546800000000000    0.3504000000000000 H
   0.2090700000000000    0.4407000000000000    0.5601300000000000 H
   0.3563600000000000    0.6614100000000001    0.6155400000000000 H
   0.2889900000000000    0.0556700000000000    0.5598800000000000 H
   0.1407400000000000    0.8356000000000000    0.6153700000000000 H
   0.5375600000000000    0.3425000000000000    0.7367899999999999 H
   0.5615900000000000    0.3660000000000000    0.8492499999999999 H
   0.9607700000000000    0.1543900000000000    0.7370600000000000 H
   0.9377600000000000    0.1314900000000000    0.8496300000000000 H
   0.0561500000000000    0.2065700000000000    0.0606700000000000 H
   0.8360100000000000    0.3551900000000000    0.1153800000000000 H
   0.0943100000000000    0.0944400000000000    0.5558700000000000 H
   0.4029600000000000    0.4019200000000000    0.5560000000000000 H
   0.0947800000000000    0.4015700000000000    0.0560200000000000 H
   0.9038300000000000    0.5945700000000000    0.9439000000000000 H
   0.5947400000000000    0.9015800000000000    0.9439600000000000 H
   0.5942600000000000    0.5943900000000000    0.4441000000000000 H
   0.9029700000000001    0.9019000000000000    0.4439500000000000 H
   0.1168500000000000    0.0083000000000000    0.7109600000000000 C
   0.1316100000000000    0.0221700000000000    0.6427900000000000 C
   0.0863300000000000    0.9867400000000000    0.8611700000000000 C
   0.1913300000000000    0.9685100000000000    0.6051000000000000 C
   0.3819000000000000    0.4890800000000000    0.7108700000000000 C
   0.3664800000000000    0.4748300000000000    0.6428300000000000 C
   0.4126800000000000    0.5103300000000000    0.8610000000000000 C
   0.3064100000000000    0.5282600000000000    0.6052500000000000 C
   0.2615300000000000    0.5032100000000000    0.0666300000000000 C
   0.1876700000000000    0.6159500000000000    0.0965300000000000 C
   0.5851100000000000    0.5851000000000000    0.3905900000000000 C
   0.5433500000000000    0.5428300000000000    0.1817000000000000 C
   0.9424700000000000    0.9412800000000000    0.2536900000000000 C
   0.9125300000000000    0.9114900000000000    0.3905000000000000 C
   0.5039900000000000    0.2343400000000000    0.5671600000000000 C
   0.6167500000000000    0.3086000000000000    0.5965300000000000 C
   0.0084900000000000    0.3796000000000000    0.2111200000000000 C
   0.0224700000000000    0.3645300000000000    0.1430100000000000 C
   0.9841500000000000    0.4133700000000000    0.3606200000000000 C
   0.9689600000000000    0.3044700000000000    0.1054700000000000 C
   0.9932800000000001    0.2622000000000000    0.5672700000000001 C
   0.8807600000000000    0.1873500000000000    0.5962700000000000 C
   0.8817199999999999    0.5077700000000001    0.7890900000000000 C
   0.8668400000000001    0.5218100000000000    0.8572100000000000 C
   0.9118400000000000    0.4863800000000000    0.6388800000000000 C
   0.8070900000000000    0.4682000000000000    0.8949100000000000 C
   0.7613799999999999    0.4929800000000000    0.4335200000000000 C
   0.6872900000000000    0.3803400000000000    0.4036500000000000 C
   0.6163700000000000    0.9883600000000000    0.7890000000000000 C
   0.6315300000000000    0.9742400000000000    0.8570900000000000 C
   0.5856600000000000    0.0098200000000000    0.6388500000000000 C
   0.6914600000000000    0.0278100000000000    0.8947000000000001 C
   0.7363200000000000    0.0035300000000000    0.4332500000000000 C
   0.8099800000000000    0.1164700000000000    0.4034500000000000 C
   0.5088200000000001    0.6168900000000000    0.2887700000000000 C
   0.5224400000000000    0.6317400000000000    0.3569600000000000 C
   0.4850900000000000    0.5834300000000000    0.1391800000000000 C
   0.4688500000000000    0.6917000000000000    0.3944000000000000 C
   0.4934500000000000    0.7342300000000000    0.9329200000000000 C
   0.3808000000000000    0.8085599999999999    0.9035000000000000 C
   0.9894800000000000    0.8800200000000000    0.2889200000000000 C
   0.9753100000000000    0.8648700000000000    0.3569900000000000 C
   0.0141700000000000    0.9138900000000000    0.1394600000000000 C
   0.0286100000000000    0.8046200000000000    0.3944700000000000 C
   0.0044300000000000    0.7625100000000000    0.9325500000000000 C
   0.1170000000000000    0.6879400000000000    0.9032600000000000 C
   0.8819300000000000    0.9890800000000000    0.2890900000000000 C
   0.8665100000000000    0.9748300000000000    0.3571300000000000 C
   0.9126800000000000    0.0103200000000000    0.1388000000000000 C
   0.8064400000000000    0.0282900000000000    0.3947100000000000 C
   0.7615100000000000    0.0032400000000000    0.9333500000000000 C
   0.6876700000000000    0.1159800000000000    0.9034400000000000 C
   0.6168000000000000    0.5082500000000000    0.2890200000000000 C
   0.6315600000000000    0.5221200000000000    0.3571900000000000 C
   0.5862400000000000    0.4867000000000000    0.1388200000000000 C
   0.6913000000000000    0.4685000000000000    0.3948700000000000 C
   0.7371600000000000    0.4928900000000000    0.9336600000000000 C
   0.8105800000000000    0.3799800000000000    0.9034500000000000 C
   0.5084800000000000    0.8796000000000000    0.7888500000000001 C
   0.5224400000000000    0.8645400000000000    0.8569000000000000 C
   0.4842100000000000    0.9133400000000000    0.6393400000000000 C
   0.4689600000000000    0.8044800000000000    0.8945000000000000 C
   0.4932700000000000    0.7621500000000000    0.4327200000000000 C
   0.3807400000000000    0.6873300000000000    0.4037000000000000 C
   0.9890400000000000    0.6171000000000000    0.7885000000000000 C
   0.9753900000000000    0.6320300000000000    0.8567000000000000 C
   0.0130500000000000    0.5831300000000000    0.6391500000000000 C
   0.0288900000000000    0.6922000000000000    0.8941700000000000 C
   0.0039900000000000    0.7343300000000000    0.4328100000000000 C
   0.1167700000000000    0.8085599999999999    0.4034300000000000 C
   0.1163700000000000    0.4883700000000000    0.2109700000000000 C
   0.1315500000000000    0.4742400000000000    0.1428900000000000 C
   0.0856700000000000    0.5097800000000000    0.3611300000000000 C
   0.1914700000000000    0.5277800000000000    0.1052800000000000 C
   0.2362900000000000    0.5035100000000000    0.5667000000000000 C
   0.3099600000000000    0.6164400000000000    0.5965000000000000 C
   0.2614300000000000    0.9929800000000000    0.5664700000000000 C
   0.1872900000000000    0.8803600000000000    0.5962900000000000 C
   0.4894700000000000    0.3800500000000000    0.7110300000000001 C
   0.4753000000000000    0.3648900000000000    0.6429600000000000 C
   0.5140900000000000    0.4138800000000000    0.8605000000000000 C
   0.5286000000000000    0.3046400000000000    0.6054900000000000 C
   0.0088800000000000    0.1169400000000000    0.7112100000000000 C
   0.0225000000000000    0.1317900000000000    0.6430300000000000 C
   0.9851000000000000    0.0834300000000000    0.8608000000000000 C
   0.9688600000000001    0.1917500000000000    0.6055000000000000 C
   0.9934500000000001    0.2342300000000000    0.0670400000000000 C
   0.8808000000000000    0.3085600000000000    0.0964000000000000 C
   0.0563800000000000    0.0560400000000000    0.7464499999999999 C
   0.0851600000000000    0.0851600000000000    0.6090000000000000 C
   0.0434100000000000    0.0428800000000000    0.8182000000000000 C
   0.4424500000000000    0.4412900000000000    0.7462700000000000 C
   0.4125200000000000    0.4115000000000000    0.6094500000000000 C
   0.4557400000000000    0.4544900000000000    0.8179999999999999 C
   0.0557800000000000    0.4406500000000000    0.2463000000000000 C
   0.0853200000000000    0.4110700000000000    0.1094900000000000 C
   0.0426000000000000    0.4538700000000000    0.3181000000000000 C
   0.9419000000000000    0.5557700000000000    0.7534999999999999 C
   0.9129900000000000    0.5851499999999999    0.8904700000000000 C
   0.9548300000000000    0.5425100000000000    0.6817299999999999 C
   0.5557800000000001    0.9406400000000000    0.7536000000000000 C
   0.5852900000000000    0.9110800000000000    0.8904900000000000 C
   0.5426100000000000    0.9538600000000000    0.6818200000000000 C
   0.5563200000000000    0.5559900000000000    0.2535300000000000 C
   0.9557600000000001    0.9544700000000000    0.1819200000000000 C
   0.0560200000000000    0.9935800000000000    0.9240300000000000 N
   0.4429000000000000    0.5032900000000000    0.9239400000000000 N
   0.2968400000000000    0.5717600000000000    0.0369000000000000 N
   0.2508000000000000    0.6421100000000000    0.0556000000000000 N
   0.5725400000000000    0.1990600000000000    0.5374300000000000 N
   0.6428800000000000    0.2453300000000000    0.5557700000000000 N
   0.9920500000000000    0.4428300000000000    0.4236400000000000 N
   0.9246900000000000    0.2971600000000000    0.5373700000000000 N
   0.8544900000000000    0.2505300000000000    0.5554800000000000 N
   0.9420100000000000    0.4932600000000000    0.5759800000000000 N
   0.7965400000000000    0.4243800000000000    0.4632200000000000 N
   0.7503800000000000    0.3541100000000000    0.4445800000000000 N
   0.5553300000000000    0.0000000000000000    0.5759900000000000 N
   0.7007000000000000    0.0719700000000000    0.4628400000000000 N
   0.7466200000000000    0.1424400000000000    0.4442400000000000 N
   0.4928600000000000    0.5538000000000000    0.0761900000000000 N
   0.4248700000000000    0.6991100000000000    0.9627200000000000 N
   0.3545800000000000    0.7454200000000000    0.9443600000000000 N
   0.0000000000000000    0.9431800000000000    0.0763900000000000 N
   0.0730200000000000    0.7974900000000000    0.9624500000000000 N
   0.1432300000000000    0.7510300000000000    0.9441600000000000 N
   0.9429100000000000    0.0000000000000000    0.0760000000000000 N
   0.7968300000000000    0.0717900000000000    0.9630300000000001 N
   0.7508000000000000    0.1421400000000000    0.9443700000000000 N
   0.5559400000000000    0.4935300000000000    0.0759500000000000 N
   0.7016000000000000    0.4243700000000000    0.9631800000000000 N
   0.7473400000000000    0.3539200000000000    0.9443200000000000 N
   0.4920800000000000    0.9428000000000000    0.5763200000000001 N
   0.4246900000000000    0.7971400000000000    0.4626100000000000 N
   0.3544800000000000    0.7505200000000000    0.4444900000000000 N
   0.0000000000000000    0.5535400000000000    0.5761800000000000 N
   0.0725300000000000    0.6990499999999999    0.4625500000000000 N
   0.1428800000000000    0.7452900000000000    0.4442000000000000 N
   0.0553300000000000    0.5029000000000000    0.4239800000000000 N
   0.2006700000000000    0.5719600000000000    0.5371300000000000 N
   0.2466100000000000    0.6424200000000000    0.5557299999999999 N
   0.2965800000000000    0.9243900000000000    0.5367499999999999 N
   0.2503800000000000    0.8541200000000000    0.5553700000000000 N
   0.5061300000000000    0.4431800000000000    0.9235700000000000 N
   0.9929000000000000    0.0538100000000000    0.9237800000000000 N
   0.9248700000000000    0.1991100000000000    0.0372400000000000 N
   0.8545800000000000    0.2454200000000000    0.0556100000000000 N
