H9 O6
1.0
  27.0019871027626621    0.0000000000000000   -0.0263913288570591
   0.7515446879806357   28.8342007190796963    0.0196334864922583
   0.0000000000000000    0.0000000000000000   30.7059999999999995
H O
9 6
direct
   0.4425860362084608    0.2653459528517964    0.4929293108456013 H
   0.4247196673692283    0.3367717050958961    0.4572522395267941 H
   0.3136104166405245    0.4306812457156499    0.5161804732911141 H
   0.2291598541545733    0.4012139323059819    0.6188252660255281 H
   0.2704485193588537    0.4117494565446775    0.5731091078578370 H
   0.3823665387540165    0.2353976543979660    0.6467056712947186 H
   0.2616106079161504    0.3059239434310627    0.6761109030936567 H
   0.3204081017038571    0.2782923587664187    0.6594406430218952 H
   0.4401252395020945    0.3021400442135204    1.1095466866032488 H
   0.4413150000000000    0.2680050000000000    0.5244000000000000 O
   0.4248100000000000    0.3341800000000000    0.4887500000000000 O
   0.2843250000000000    0.4358950000000000    0.5339650000000000 O
   0.2384850000000000    0.4174400000000000    0.5925200000000000 O
   0.3505250000000000    0.2346300000000000    0.6612500000000000 O
   0.2813200000000000    0.2773500000000000    0.6772950000000000 O
