P1 O4
1.0
  19.0456390124803470    0.0000000000000000    5.4022998441669872
   1.1586078474277088   19.0120282164979635    5.4074403326309755
   0.0000000000000000    0.0000000000000000   15.4179999999999993
P O
1 4
direct
   0.3221900000000000    0.9381500000000000    0.5789600000000000 P
   0.2432000000000000    0.9260600000000000    0.6146000000000000 O
   0.3388200000000000    0.9957600000000000    0.6193000000000000 O
   0.3626900000000000    0.8680900000000000    0.6116800000000000 O
   0.3432700000000000   -0.0387700000000000    0.4716900000000000 O
