H3 O2
1.0
  19.0456390124803470    0.0000000000000000    5.4022998441669872
   1.1586078474277088   19.0120282164979635    5.4074403326309755
   0.0000000000000000    0.0000000000000000   15.4179999999999993
H O
3 2
direct
   0.3919104515747342   -0.0553243987639254    0.4515560304623555 H
   0.2354729714599338    0.8907427994816040    0.6734284227606974 H
   0.3291733232485706   -0.1032003507993744    0.5790126603414198 H
   0.3432700000000000   -0.0387700000000000    0.4716900000000000 O
   0.2432000000000000    0.9260600000000000    0.6146000000000000 O
