H24 C25 N4 O4
1.0
   9.5871503859265701    0.0000000000000000    1.6611584745676851
   4.6965347159203583   12.3680302865005967    0.8499632311805156
   0.0000000000000000    0.0000000000000000   20.9349999999999987
H C N O
24 25 4 4
direct
   0.3898300000000000    0.6454000000000000    0.0467300000000000 H
   0.3701400000000000    0.4960000000000000    0.1231200000000000 H
   0.8446399999999999    0.4030500000000000    0.1254100000000000 H
   0.8448700000000000    0.5511600000000000    0.0489200000000000 H
   0.7625700000000000    0.3310900000000000    0.2280000000000000 H
   0.7859000000000000    0.2407400000000000    0.1627200000000000 H
   0.5136800000000000    0.1151300000000000    0.2428100000000000 H
   0.5327400000000000    0.1984900000000000    0.1730300000000000 H
   0.9203000000000000    0.8779300000000000    0.1381200000000000 H
   0.8799700000000000    0.7527600000000000    0.0653400000000000 H
   0.4428000000000000    0.9555200000000000    0.0621900000000000 H
   0.4640200000000000    0.0899100000000000    0.1317600000000000 H
   0.4636900000000000    0.6433800000000000    0.4556900000000000 H
   0.6345600000000000    0.4950800000000000    0.3802200000000000 H
   0.2537400000000000    0.4033600000000000    0.3699300000000000 H
   0.1033400000000000    0.5499500000000000    0.4460600000000000 H
   0.4108600000000000    0.3294800000000000    0.2713000000000000 H
   0.4758600000000000    0.2397400000000000    0.3371700000000000 H
   0.8723600000000000    0.1162300000000000    0.2583800000000000 H
   0.7710600000000000    0.2004900000000000    0.3274600000000000 H
   0.7008600000000000    0.8779600000000000    0.3622400000000000 H
   0.8664600000000000    0.7506400000000000    0.4336200000000000 H
   0.1026600000000000    0.9543500000000000    0.4383500000000000 H
   0.9471500000000000    0.0907900000000000    0.3699000000000000 H
   0.4862700000000000    0.5907900000000000    0.0666800000000000 C
   0.4756500000000000    0.5087200000000000    0.1088500000000000 C
   0.6034800000000000    0.4407300000000000    0.1334000000000000 C
   0.7396600000000000    0.4548600000000000    0.1108900000000000 C
   0.7405500000000000    0.5390000000000000    0.0679800000000000 C
   0.7073600000000000    0.2896600000000000    0.2029900000000000 C
   0.5898000000000000    0.1484900000000000    0.2112900000000000 C
   0.6939200000000000    0.9928100000000000    0.1434300000000000 C
   0.8120900000000000    0.8964900000000000    0.1230900000000000 C
   0.7897900000000000    0.8272800000000000    0.0824800000000000 C
   0.5462000000000000    0.9410500000000001    0.0806600000000000 C
   0.5581800000000000    0.0147900000000000    0.1212200000000000 C
   0.4224600000000000    0.5894100000000000    0.4342000000000000 C
   0.5161700000000000    0.5079300000000000    0.3924800000000000 C
   0.4571700000000000    0.4405100000000000    0.3660800000000000 C
   0.3063600000000000    0.4546000000000000    0.3863100000000000 C
   0.2202700000000000    0.5380900000000000    0.4289500000000000 C
   0.5062200000000000    0.2890000000000000    0.2968700000000000 C
   0.7634300000000001    0.1497600000000000    0.2896700000000000 C
   0.8133500000000000    0.9934500000000001    0.3577300000000000 C
   0.7908500000000001    0.8963400000000000    0.3773700000000000 C
   0.8824900000000000    0.8259400000000000    0.4172300000000000 C
   0.0133400000000000    0.9401900000000000    0.4198200000000000 C
   0.9276000000000000    0.0151400000000000    0.3799600000000000 C
   0.6425200000000000    0.2179600000000000    0.2502200000000000 C
   0.6162700000000000    0.6083100000000000    0.0469400000000000 N
   0.6581700000000000    0.8475600000000000    0.0612500000000000 N
   0.2747400000000000    0.6068300000000000    0.4517600000000000 N
   0.9944300000000000    0.8458100000000000    0.4384800000000000 N
   0.5821000000000000    0.3677600000000000    0.1778700000000000 O
   0.7189700000000000    0.0592600000000000    0.1826600000000000 O
   0.5525099999999999    0.3680400000000000    0.3221600000000000 O
   0.7217400000000000    0.0608000000000000    0.3191200000000000 O
