H1 O1
1.0
  10.4041024676796905    0.0000000000000000    3.4142571435118025
  -2.0131201314028822   11.4378131485210215    6.2318679154856964
   0.0000000000000000    0.0000000000000000   13.8209999999999997
H O
1 1
direct
  -0.0713258566324180    0.0231778074231332    0.1165384133348273 H
   0.0223100000000000    0.0485200000000000    0.0925400000000000 O
