H4 O2
1.0
  10.4041024676796905    0.0000000000000000    3.4142571435118025
  -2.0131201314028822   11.4378131485210215    6.2318679154856964
   0.0000000000000000    0.0000000000000000   13.8209999999999997
H O
4 2
direct
   0.7056123983977822    0.6531395661520130    0.1532004389655999 H
   0.8472890231943188    0.7010884679107227    0.1542696730835385 H
   0.1522117329165835    0.2986174862774609    0.8457270406149962 H
   0.2941930345735626    0.3468122610602480    0.8461340446747335 H
   0.7735200000000000    0.7181300000000000    0.1267500000000000 O
   0.2262300000000000    0.2817300000000000    0.8729100000000000 O
