H22 C26 N4 O2
1.0
  10.4041024676796905    0.0000000000000000    3.4142571435118025
  -2.0131201314028822   11.4378131485210215    6.2318679154856964
   0.0000000000000000    0.0000000000000000   13.8209999999999997
H C N O
22 26 4 2
direct
   0.5990400000000000    0.6522800000000000    0.1312700000000000 H
   0.6079100000000000    0.4430200000000000    0.2656400000000000 H
   0.7956100000000000    0.4001200000000000    0.3378300000000000 H
   0.9482300000000000    0.7700700000000000    0.1324500000000000 H
   0.0957500000000000    0.6010100000000000    0.2067900000000000 H
   0.9998300000000000    0.6101400000000000    0.3319100000000000 H
   0.9564400000000000    0.2322500000000000    0.5195100000000000 H
   0.0852600000000000    0.1485700000000000    0.6504900000000000 H
   0.2762100000000000    0.2728300000000000    0.6254800000000000 H
   0.2074200000000000    0.5682199999999999    0.3394600000000000 H
   0.3903200000000000    0.5938300000000000    0.3924900000000000 H
   0.4010600000000000    0.3478700000000000    0.8675800000000000 H
   0.3917800000000000    0.5569800000000000    0.7331100000000000 H
   0.2034600000000000    0.5994900000000000    0.6617600000000000 H
   0.0511100000000000    0.2294900000000000    0.8680500000000000 H
   0.9052000000000000    0.4006900000000000    0.7927600000000000 H
   0.0007100000000000    0.3896400000000000    0.6687000000000000 H
   0.0421100000000000    0.7672000000000000    0.4817500000000000 H
   0.9155700000000000    0.8517700000000000    0.3489900000000000 H
   0.7244600000000000    0.7272800000000000    0.3745100000000000 H
   0.7942600000000000    0.4321000000000000    0.6600000000000000 H
   0.6109300000000000    0.4062800000000000    0.6074600000000000 H
   0.6799400000000000    0.6285700000000000    0.1632000000000000 C
   0.6854600000000000    0.5132600000000000    0.2375900000000000 C
   0.7901200000000000    0.4893300000000000    0.2775400000000000 C
   0.8875400000000000    0.5815300000000000    0.2406600000000000 C
   0.8749000000000000    0.6947100000000000    0.1645700000000000 C
   0.0028300000000000    0.5642200000000001    0.2822300000000000 C
   0.0733300000000000    0.4051700000000000    0.4219700000000000 C
   0.0405800000000000    0.2867800000000000    0.5087300000000000 C
   0.1135300000000000    0.2399400000000000    0.5814600000000000 C
   0.2205800000000000    0.3089900000000000    0.5674600000000000 C
   0.2558800000000000    0.4272500000000000    0.4788200000000000 C
   0.1804900000000000    0.4760400000000000    0.4065900000000000 C
   0.3703100000000000    0.5006400000000000    0.4588300000000000 C
   0.3198900000000000    0.3714200000000000    0.8360100000000000 C
   0.3141400000000000    0.4866300000000000    0.7615800000000000 C
   0.2091300000000000    0.5103500000000000    0.7220800000000001 C
   0.1116500000000000    0.4180200000000000    0.7594000000000000 C
   0.1245000000000000    0.3049400000000000    0.8355500000000000 C
   0.9982799999999999    0.4364100000000000    0.7175100000000000 C
   0.9283300000000000    0.5952600000000000    0.5771600000000000 C
   0.9608100000000001    0.7136500000000000    0.4904100000000000 C
   0.8874900000000000    0.7603900000000000    0.4180200000000000 C
   0.7803300000000000    0.6912300000000000    0.4323200000000000 C
   0.7452700000000000    0.5729800000000000    0.5209800000000000 C
   0.8210000000000000    0.5242900000000000    0.5929000000000000 C
   0.6308000000000000    0.4994800000000000    0.5411600000000000 C
   0.7735200000000000    0.7181300000000000    0.1267500000000000 N
   0.4488200000000000    0.4577600000000000    0.5163700000000000 N
   0.2262300000000000    0.2817300000000000    0.8729100000000000 N
   0.5521800000000000    0.5423200000000000    0.4837400000000000 N
   0.9945600000000000    0.4415200000000000    0.3558600000000000 O
   0.0076400000000000    0.5590400000000000    0.6427600000000000 O
