C1 S1 N1
1.0
  10.4041024676796905    0.0000000000000000    3.4142571435118025
  -2.0131201314028822   11.4378131485210215    6.2318679154856964
   0.0000000000000000    0.0000000000000000   13.8209999999999997
C S N
1 1 1
direct
   0.9087300000000000    0.0177800000000000    0.1216500000000000 C
   0.7509500000000000    0.9754000000000000    0.1655400000000000 S
   0.0223100000000000    0.0485200000000000    0.0925400000000000 N
