H6 C12 N2 O4
1.0
  11.8479822956029111    0.0000000000000000   -0.6626747113629382
  -0.0005786167372762   16.2329999884762657   -0.0001983235082258
   0.0000000000000000    0.0000000000000000   26.6392999999999986
H C N O
6 12 2 4
direct
   0.9715566666666666    0.3489000000000000    0.8802800000000000 H
   0.9309033333333333    0.3729450000000000    0.9716100000000000 H
   0.8608699999999999    0.4174250000000000    0.1176300000000000 H
   0.1406533333333333    0.5823100000000000    0.8824100000000000 H
   0.0273000000000000    0.6518550000000000    0.1192600000000000 H
   0.0703600000000000    0.6266900000000000    0.0284500000000000 H
   0.0126033333333333    0.4916100000000000    0.9733800000000000 C
   0.0600800000000000    0.4640500000000000    0.8744700000000000 C
   0.0003666666666667    0.4044750000000000    0.9000899999999999 C
   0.0898600000000000    0.4528300000000000    0.8206100000000000 C
   0.9767666666666666    0.4179000000000000    0.9499400000000000 C
   0.9081333333333332    0.4647100000000000    0.0986600000000000 C
   0.0927333333333333    0.5352550000000000    0.9012700000000000 C
   0.0225900000000000    0.5825650000000000    0.0497200000000000 C
   0.9874466666666666    0.5085950000000000    0.0263900000000000 C
   0.9401200000000000    0.5361750000000000    0.1253400000000000 C
   0.9990300000000000    0.5960200000000000    0.0995700000000000 C
   0.9104133333333333    0.5471850000000000    0.1792400000000000 C
   0.9307066666666666    0.4500050000000000    0.0508000000000000 N
   0.0700400000000000    0.5499550000000000    0.9491100000000000 N
   0.0692066666666667    0.3825000000000000    0.8000699999999999 O
   0.8696599999999999    0.4862950000000000    0.2018100000000000 O
   0.1324066666666667    0.5132000000000000    0.7982100000000000 O
   0.9292300000000000    0.6178150000000000    0.1996800000000000 O
