H6 C3 N6
1.0
  13.6603125462809913    0.0000000000000000   -3.5893226572597423
  -4.6991874869358261   12.8320709481273720   -3.6325187053683963
   0.0000000000000000    0.0000000000000000   14.1219999999999999
H C N
6 3 6
direct
   0.8215500000000000    0.1065500000000000    0.5744300000000000 H
   0.7635999999999999    0.9711000000000000    0.5076800000000000 H
   0.1756800000000000    0.2543900000000000    0.7456199999999999 H
   0.1067400000000000    0.8217100000000001    0.5744800000000000 H
   0.9712600000000000    0.7637100000000000    0.5076800000000000 H
   0.2543800000000000    0.1756000000000000    0.7456400000000000 H
   0.9195900000000000    0.0234800000000000    0.5947400000000000 C
   0.0235100000000000    0.9196800000000001    0.5947900000000000 C
   0.0972700000000000    0.0973100000000000    0.6796600000000000 C
   0.0036000000000000    0.1106500000000000    0.6523600000000001 N
   0.8257800000000000    0.0333000000000000    0.5635800000000000 N
   0.1106400000000000    0.0036700000000000    0.6525000000000000 N
   0.0334200000000000    0.8259100000000000    0.5636200000000000 N
   0.9259300000000000    0.9259700000000000    0.5669000000000000 N
   0.1819700000000000    0.1819900000000000    0.7370300000000000 N
