H5 O3
1.0
  18.5969887578678588    0.0000000000000000   -0.0204484653821257
  -9.2258144878476216   19.5719133848140139   -6.6288350027104297
   0.0000000000000000    0.0000000000000000   16.5450000000000017
H O
5 3
direct
   0.3463499482052720    0.7388795666877681    0.2682748515724775 H
   0.3938517665791699    0.7702455332777627    0.3594128673455814 H
   0.5060762184918919    0.7927428045615996    0.5781628126872269 H
   0.5227254675537085   -0.0211268551065215    0.6358242446794505 H
   0.5073832940789538    0.8832542658697581    0.5959662929424991 H
   0.3784900000000000    0.7310400000000000    0.3072700000000000 O
   0.5275900000000000    0.8386500000000000    0.6186300000000000 O
   0.5372100000000000   -0.0531000000000000    0.6520700000000000 O
