H3 O2
1.0
  26.2880000000000003    0.0000000000000000    0.0000000000000016
   0.0000000000000042   26.0259999999999998    0.0000000000000016
   0.0000000000000000    0.0000000000000000   23.5109999999999992
H O
3 2
direct
   0.8257512914009756    0.0676485762572299    0.0745497379665353 H
   0.6742487085990244    0.0676485762572299    0.0745497379665352 H
   0.7499999999999999    0.0718379709744124    0.0791665133028967 H
   0.7932900000000001    0.0550900000000000    0.0607100000000000 O
   0.7067099999999999    0.0550900000000000    0.0607100000000000 O
