H4 C7 O2
1.0
  26.2880000000000003    0.0000000000000000    0.0000000000000016
   0.0000000000000042   26.0259999999999998    0.0000000000000016
   0.0000000000000000    0.0000000000000000   23.5109999999999992
H C O
4 7 2
direct
   0.8321750000000000    0.1867650000000000    0.1981000000000000 H
   0.8316399999999999    0.1168500000000000    0.1263400000000000 H
   0.6678250000000000    0.1867650000000000    0.1980900000000000 H
   0.6683600000000001    0.1168500000000000    0.1263400000000000 H
   0.7959050000000000    0.1716600000000000    0.1829200000000000 C
   0.7960550000000000    0.1324350000000000    0.1426200000000000 C
   0.7040950000000000    0.1716600000000000    0.1829200000000000 C
   0.7039450000000000    0.1324350000000000    0.1426200000000000 C
   0.7500000000000000    0.1920800000000000    0.2038900000000000 C
   0.7500000000000000    0.1126750000000000    0.1220000000000000 C
   0.7500000000000000    0.0712750000000000    0.0780100000000000 C
   0.7932900000000001    0.0550900000000000    0.0607100000000000 O
   0.7067099999999999    0.0550900000000000    0.0607100000000000 O
