Zn16 Si8 H124 C217 O62
1.0
  26.2880000000000003    0.0000000000000000    0.0000000000000016
   0.0000000000000042   26.0259999999999998    0.0000000000000016
   0.0000000000000000    0.0000000000000000   23.5109999999999992
Zn Si H C O
16 8 124 217 62
direct
   0.2016550000000000    0.0000000000000000    0.0000000000000000 Zn
   0.0000000000000000    0.2992100000000000    0.4999900000000000 Zn
   0.0000000000000000    0.2008100000000000    0.4999900000000000 Zn
   0.2983450000000000    0.0000000000000000    0.0000000000000000 Zn
   0.7016550000000000    0.0000000000000000    0.0000000000000000 Zn
   0.5000000000000000    0.2992100000000000    0.4999900000000000 Zn
   0.5000000000000000    0.2008100000000000    0.4999900000000000 Zn
   0.7983450000000001    0.0000000000000000    0.0000000000000000 Zn
   0.2016550000000000    0.5000000000000000    0.0000000000000000 Zn
   0.0000000000000000    0.7992100000000000    0.4999900000000000 Zn
   0.0000000000000000    0.7008099999999999    0.4999900000000000 Zn
   0.2983450000000000    0.5000000000000000    0.0000000000000000 Zn
   0.7016550000000000    0.5000000000000000    0.0000000000000000 Zn
   0.5000000000000000    0.7992100000000000    0.4999900000000000 Zn
   0.5000000000000000    0.7008099999999999    0.4999900000000000 Zn
   0.7983450000000001    0.5000000000000000    0.0000000000000000 Zn
   0.2500000000000000    0.2500050000000000    0.7484499999999999 Si
   0.2500000000000000    0.2500050000000000    0.2515300000000000 Si
   0.7500000000000000    0.2500050000000000    0.7484499999999999 Si
   0.7500000000000000    0.2500050000000000    0.2515300000000000 Si
   0.2500000000000000    0.7500050000000000    0.7484499999999999 Si
   0.2500000000000000    0.7500050000000000    0.2515300000000000 Si
   0.7500000000000000    0.7500050000000000    0.7484499999999999 Si
   0.7500000000000000    0.7500050000000000    0.2515300000000000 Si
   0.3321800000000000    0.3132450000000000    0.8018900000000000 H
   0.3316400000000000    0.3831600000000000    0.8736400000000000 H
   0.1678250000000000    0.1867650000000000    0.8018900000000000 H
   0.1683600000000000    0.1168500000000000    0.8736400000000000 H
   0.1871350000000000    0.3330100000000000    0.3046200000000000 H
   0.1168450000000000    0.3324600000000000    0.3750600000000000 H
   0.3128650000000000    0.1670000000000000    0.3046200000000000 H
   0.3831600000000000    0.1675500000000000    0.3750600000000000 H
   0.1678250000000000    0.3132450000000000    0.1981000000000000 H
   0.1683600000000000    0.3831600000000000    0.1263400000000000 H
   0.3321750000000000    0.1867650000000000    0.1981000000000000 H
   0.3316400000000000    0.1168500000000000    0.1263400000000000 H
   0.3128650000000000    0.3330100000000000    0.6953600000000000 H
   0.3831600000000000    0.3324600000000000    0.6249200000000000 H
   0.1871350000000000    0.1670050000000000    0.6953600000000000 H
   0.1168450000000000    0.1675550000000000    0.6249200000000000 H
   0.1678250000000000    0.1867650000000000    0.1980900000000000 H
   0.1683600000000000    0.1168500000000000    0.1263400000000000 H
   0.3321750000000000    0.3132450000000000    0.1980900000000000 H
   0.3316400000000000    0.3831600000000000    0.1263400000000000 H
   0.3128600000000000    0.1670050000000000    0.6953700000000000 H
   0.3831450000000000    0.1675450000000000    0.6249200000000000 H
   0.1871400000000000    0.3330100000000000    0.6953700000000000 H
   0.1168600000000000    0.3324650000000000    0.6249200000000000 H
   0.3321750000000000    0.1867650000000000    0.8018900000000000 H
   0.3316400000000000    0.1168550000000000    0.8736400000000000 H
   0.1678250000000000    0.3132450000000000    0.8018900000000000 H
   0.1683650000000000    0.3831600000000000    0.8736400000000000 H
   0.1871400000000000    0.1670050000000000    0.3046000000000000 H
   0.1168550000000000    0.1675450000000000    0.3750000000000000 H
   0.3128600000000000    0.3330050000000000    0.3046100000000000 H
   0.3831450000000000    0.3324650000000000    0.3750600000000000 H
   0.8321799999999999    0.3132450000000000    0.8018900000000000 H
   0.8316399999999999    0.3831600000000000    0.8736400000000000 H
   0.6678250000000000    0.1867650000000000    0.8018900000000000 H
   0.6683600000000001    0.1168500000000000    0.8736400000000000 H
   0.6871350000000001    0.3330100000000000    0.3046200000000000 H
   0.6168450000000000    0.3324600000000000    0.3750600000000000 H
   0.8128649999999999    0.1670000000000000    0.3046200000000000 H
   0.8831599999999999    0.1675500000000000    0.3750600000000000 H
   0.6678250000000000    0.3132450000000000    0.1981000000000000 H
   0.6683600000000001    0.3831600000000000    0.1263400000000000 H
   0.8128649999999999    0.3330100000000000    0.6953600000000000 H
   0.8831599999999999    0.3324600000000000    0.6249200000000000 H
   0.6871350000000001    0.1670050000000000    0.6953600000000000 H
   0.6168450000000000    0.1675550000000000    0.6249200000000000 H
   0.8321750000000000    0.3132450000000000    0.1980900000000000 H
   0.8316399999999999    0.3831600000000000    0.1263400000000000 H
   0.8128600000000000    0.1670050000000000    0.6953700000000000 H
   0.8831450000000001    0.1675450000000000    0.6249200000000000 H
   0.6871400000000000    0.3330100000000000    0.6953700000000000 H
   0.6168600000000000    0.3324650000000000    0.6249200000000000 H
   0.8321750000000000    0.1867650000000000    0.8018900000000000 H
   0.8316399999999999    0.1168550000000000    0.8736400000000000 H
   0.6678250000000000    0.3132450000000000    0.8018900000000000 H
   0.6683650000000000    0.3831600000000000    0.8736400000000000 H
   0.6871400000000000    0.1670050000000000    0.3046000000000000 H
   0.6168550000000000    0.1675450000000000    0.3750000000000000 H
   0.8128600000000000    0.3330050000000000    0.3046100000000000 H
   0.8831450000000001    0.3324650000000000    0.3750600000000000 H
   0.3321800000000000    0.8132450000000000    0.8018900000000000 H
   0.3316400000000000    0.8831599999999999    0.8736400000000000 H
   0.1678250000000000    0.6867650000000000    0.8018900000000000 H
   0.1683600000000000    0.6168500000000000    0.8736400000000000 H
   0.1871350000000000    0.8330100000000000    0.3046200000000000 H
   0.1168450000000000    0.8324600000000000    0.3750600000000000 H
   0.3128650000000000    0.6670000000000000    0.3046200000000000 H
   0.3831600000000000    0.6675500000000000    0.3750600000000000 H
   0.1678250000000000    0.8132450000000000    0.1981000000000000 H
   0.1683600000000000    0.8831599999999999    0.1263400000000000 H
   0.3321750000000000    0.6867650000000000    0.1981000000000000 H
   0.3316400000000000    0.6168500000000000    0.1263400000000000 H
   0.3128650000000000    0.8330100000000000    0.6953600000000000 H
   0.3831600000000000    0.8324600000000000    0.6249200000000000 H
   0.1871350000000000    0.6670050000000000    0.6953600000000000 H
   0.1168450000000000    0.6675550000000000    0.6249200000000000 H
   0.1678250000000000    0.6867650000000000    0.1980900000000000 H
   0.1683600000000000    0.6168500000000000    0.1263400000000000 H
   0.3321750000000000    0.8132450000000000    0.1980900000000000 H
   0.3316400000000000    0.8831599999999999    0.1263400000000000 H
   0.3128600000000000    0.6670050000000000    0.6953700000000000 H
   0.3831450000000000    0.6675450000000001    0.6249200000000000 H
   0.1871400000000000    0.8330100000000000    0.6953700000000000 H
   0.1168600000000000    0.8324650000000000    0.6249200000000000 H
   0.3321750000000000    0.6867650000000000    0.8018900000000000 H
   0.3316400000000000    0.6168550000000000    0.8736400000000000 H
   0.1678250000000000    0.8132450000000000    0.8018900000000000 H
   0.1683650000000000    0.8831599999999999    0.8736400000000000 H
   0.1871400000000000    0.6670050000000000    0.3046000000000000 H
   0.1168550000000000    0.6675450000000001    0.3750000000000000 H
   0.3128600000000000    0.8330050000000000    0.3046100000000000 H
   0.3831450000000000    0.8324650000000000    0.3750600000000000 H
   0.8321799999999999    0.8132450000000000    0.8018900000000000 H
   0.8316399999999999    0.8831599999999999    0.8736400000000000 H
   0.6678250000000000    0.6867650000000000    0.8018900000000000 H
   0.6683600000000001    0.6168500000000000    0.8736400000000000 H
   0.6871350000000001    0.8330100000000000    0.3046200000000000 H
   0.6168450000000000    0.8324600000000000    0.3750600000000000 H
   0.8128649999999999    0.6670000000000000    0.3046200000000000 H
   0.8831599999999999    0.6675500000000000    0.3750600000000000 H
   0.6678250000000000    0.8132450000000000    0.1981000000000000 H
   0.6683600000000001    0.8831599999999999    0.1263400000000000 H
   0.8321750000000000    0.6867650000000000    0.1981000000000000 H
   0.8316399999999999    0.6168500000000000    0.1263400000000000 H
   0.8128649999999999    0.8330100000000000    0.6953600000000000 H
   0.8831599999999999    0.8324600000000000    0.6249200000000000 H
   0.6871350000000001    0.6670050000000000    0.6953600000000000 H
   0.6168450000000000    0.6675550000000000    0.6249200000000000 H
   0.6678250000000000    0.6867650000000000    0.1980900000000000 H
   0.6683600000000001    0.6168500000000000    0.1263400000000000 H
   0.8321750000000000    0.8132450000000000    0.1980900000000000 H
   0.8316399999999999    0.8831599999999999    0.1263400000000000 H
   0.8128600000000000    0.6670050000000000    0.6953700000000000 H
   0.8831450000000001    0.6675450000000001    0.6249200000000000 H
   0.6871400000000000    0.8330100000000000    0.6953700000000000 H
   0.6168600000000000    0.8324650000000000    0.6249200000000000 H
   0.8321750000000000    0.6867650000000000    0.8018900000000000 H
   0.8316399999999999    0.6168550000000000    0.8736400000000000 H
   0.6678250000000000    0.8132450000000000    0.8018900000000000 H
   0.6683650000000000    0.8831599999999999    0.8736400000000000 H
   0.6871400000000000    0.6670050000000000    0.3046000000000000 H
   0.6168550000000000    0.6675450000000001    0.3750000000000000 H
   0.8128600000000000    0.8330050000000000    0.3046100000000000 H
   0.8831450000000001    0.8324650000000000    0.3750600000000000 H
   0.2959050000000000    0.3283500000000000    0.8170600000000000 C
   0.2960550000000000    0.3675750000000000    0.8573600000000000 C
   0.2040950000000000    0.1716650000000000    0.8170600000000000 C
   0.2039450000000000    0.1324350000000000    0.8573600000000000 C
   0.1719550000000000    0.2963700000000000    0.3195200000000000 C
   0.1325200000000000    0.2965200000000000    0.3590800000000000 C
   0.3280450000000000    0.2036400000000000    0.3195200000000000 C
   0.3674800000000000    0.2034900000000000    0.3590800000000000 C
   0.2040950000000000    0.3283500000000000    0.1829200000000000 C
   0.2039450000000000    0.3675750000000000    0.1426200000000000 C
   0.2959050000000000    0.1716600000000000    0.1829200000000000 C
   0.2960550000000000    0.1324350000000000    0.1426200000000000 C
   0.3280450000000000    0.2963700000000000    0.6804000000000000 C
   0.3674800000000000    0.2965200000000000    0.6409000000000000 C
   0.1719600000000000    0.2036400000000000    0.6804000000000000 C
   0.1325200000000000    0.2034950000000000    0.6409000000000000 C
   0.2040950000000000    0.1716600000000000    0.1829200000000000 C
   0.2039450000000000    0.1324350000000000    0.1426200000000000 C
   0.2959050000000000    0.3283500000000000    0.1829200000000000 C
   0.2960550000000000    0.3675750000000000    0.1426200000000000 C
   0.3280400000000000    0.2036400000000000    0.6804700000000000 C
   0.3674750000000000    0.2034900000000000    0.6409000000000000 C
   0.1719650000000000    0.2963700000000000    0.6804700000000000 C
   0.1325300000000000    0.2965250000000000    0.6409000000000000 C
   0.2959050000000000    0.1716650000000000    0.8169999999999999 C
   0.2960550000000000    0.1324350000000000    0.8573600000000000 C
   0.2040950000000000    0.3283500000000000    0.8169999999999999 C
   0.2039450000000000    0.3675750000000000    0.8573600000000000 C
   0.1719600000000000    0.2036400000000000    0.3195000000000000 C
   0.1325300000000000    0.2034900000000000    0.3590800000000000 C
   0.3280400000000000    0.2963700000000000    0.3195000000000000 C
   0.3674700000000000    0.2965250000000000    0.3590800000000000 C
   0.2500000000000000    0.3079300000000000    0.7960900000000000 C
   0.2500000000000000    0.3873350000000000    0.8779800000000000 C
   0.2500000000000000    0.4287400000000000    0.9219700000000000 C
   0.2500000000000000    0.1920850000000000    0.7960900000000000 C
   0.2500000000000000    0.1126800000000000    0.8779800000000000 C
   0.2500000000000000    0.0712750000000000    0.9219700000000000 C
   0.1924800000000000    0.2500050000000000    0.2989100000000000 C
   0.1125850000000000    0.2500050000000000    0.3792600000000000 C
   0.0708950000000000    0.2499900000000000    0.4224000000000000 C
   0.3075200000000000    0.2500050000000000    0.2989100000000000 C
   0.3874150000000000    0.2500100000000000    0.3792600000000000 C
   0.4291050000000000    0.2500250000000000    0.4224400000000000 C
   0.2500000000000000    0.3079250000000000    0.2038900000000000 C
   0.2500000000000000    0.3873350000000000    0.1220000000000000 C
   0.2500000000000000    0.4287350000000000    0.0780100000000000 C
   0.2500000000000000    0.1920800000000000    0.2038900000000000 C
   0.2500000000000000    0.1126750000000000    0.1220000000000000 C
   0.2500000000000000    0.0712750000000000    0.0780100000000000 C
   0.3075200000000000    0.2500050000000000    0.7010800000000000 C
   0.3874150000000000    0.2500050000000000    0.6207300000000000 C
   0.4291050000000000    0.2499900000000000    0.5775500000000000 C
   0.1924800000000000    0.2500050000000000    0.7010800000000000 C
   0.1125900000000000    0.2500100000000000    0.6207300000000000 C
   0.0709000000000000    0.2500250000000000    0.5775500000000000 C
   0.7959050000000000    0.3283500000000000    0.8170600000000000 C
   0.7960550000000000    0.3675750000000000    0.8573600000000000 C
   0.7040950000000000    0.1716650000000000    0.8170600000000000 C
   0.7039450000000000    0.1324350000000000    0.8573600000000000 C
   0.6719550000000000    0.2963700000000000    0.3195200000000000 C
   0.6325200000000000    0.2965200000000000    0.3590800000000000 C
   0.8280449999999999    0.2036400000000000    0.3195200000000000 C
   0.8674800000000000    0.2034900000000000    0.3590800000000000 C
   0.7040950000000000    0.3283500000000000    0.1829200000000000 C
   0.7039450000000000    0.3675750000000000    0.1426200000000000 C
   0.8280449999999999    0.2963700000000000    0.6804000000000000 C
   0.8674800000000000    0.2965200000000000    0.6409000000000000 C
   0.6719600000000000    0.2036400000000000    0.6804000000000000 C
   0.6325200000000000    0.2034950000000000    0.6409000000000000 C
   0.7959050000000000    0.3283500000000000    0.1829200000000000 C
   0.7960550000000000    0.3675750000000000    0.1426200000000000 C
   0.8280400000000000    0.2036400000000000    0.6804700000000000 C
   0.8674750000000000    0.2034900000000000    0.6409000000000000 C
   0.6719650000000000    0.2963700000000000    0.6804700000000000 C
   0.6325300000000000    0.2965250000000000    0.6409000000000000 C
   0.7959050000000000    0.1716650000000000    0.8169999999999999 C
   0.7960550000000000    0.1324350000000000    0.8573600000000000 C
   0.7040950000000000    0.3283500000000000    0.8169999999999999 C
   0.7039450000000000    0.3675750000000000    0.8573600000000000 C
   0.6719600000000000    0.2036400000000000    0.3195000000000000 C
   0.6325300000000000    0.2034900000000000    0.3590800000000000 C
   0.8280400000000000    0.2963700000000000    0.3195000000000000 C
   0.8674700000000000    0.2965250000000000    0.3590800000000000 C
   0.7500000000000000    0.3079300000000000    0.7960900000000000 C
   0.7500000000000000    0.3873350000000000    0.8779800000000000 C
   0.7500000000000000    0.4287400000000000    0.9219700000000000 C
   0.7500000000000000    0.1920850000000000    0.7960900000000000 C
   0.7500000000000000    0.1126800000000000    0.8779800000000000 C
   0.7500000000000000    0.0712750000000000    0.9219700000000000 C
   0.6924800000000000    0.2500050000000000    0.2989100000000000 C
   0.6125850000000000    0.2500050000000000    0.3792600000000000 C
   0.5708950000000000    0.2499900000000000    0.4224000000000000 C
   0.8075200000000000    0.2500050000000000    0.2989100000000000 C
   0.8874150000000001    0.2500100000000000    0.3792600000000000 C
   0.9291050000000001    0.2500250000000000    0.4224400000000000 C
   0.7500000000000000    0.3079250000000000    0.2038900000000000 C
   0.7500000000000000    0.3873350000000000    0.1220000000000000 C
   0.7500000000000000    0.4287350000000000    0.0780100000000000 C
   0.8075200000000000    0.2500050000000000    0.7010800000000000 C
   0.8874150000000001    0.2500050000000000    0.6207300000000000 C
   0.9291050000000001    0.2499900000000000    0.5775500000000000 C
   0.6924800000000000    0.2500050000000000    0.7010800000000000 C
   0.6125900000000000    0.2500100000000000    0.6207300000000000 C
   0.5709000000000000    0.2500250000000000    0.5775500000000000 C
   0.2959050000000000    0.8283499999999999    0.8170600000000000 C
   0.2960550000000000    0.8675750000000000    0.8573600000000000 C
   0.2040950000000000    0.6716650000000000    0.8170600000000000 C
   0.2039450000000000    0.6324350000000000    0.8573600000000000 C
   0.1719550000000000    0.7963700000000000    0.3195200000000000 C
   0.1325200000000000    0.7965200000000000    0.3590800000000000 C
   0.3280450000000000    0.7036400000000000    0.3195200000000000 C
   0.3674800000000000    0.7034899999999999    0.3590800000000000 C
   0.2040950000000000    0.8283499999999999    0.1829200000000000 C
   0.2039450000000000    0.8675750000000000    0.1426200000000000 C
   0.2959050000000000    0.6716600000000000    0.1829200000000000 C
   0.2960550000000000    0.6324350000000000    0.1426200000000000 C
   0.3280450000000000    0.7963700000000000    0.6804000000000000 C
   0.3674800000000000    0.7965200000000000    0.6409000000000000 C
   0.1719600000000000    0.7036400000000000    0.6804000000000000 C
   0.1325200000000000    0.7034950000000000    0.6409000000000000 C
   0.2040950000000000    0.6716600000000000    0.1829200000000000 C
   0.2039450000000000    0.6324350000000000    0.1426200000000000 C
   0.2959050000000000    0.8283499999999999    0.1829200000000000 C
   0.2960550000000000    0.8675750000000000    0.1426200000000000 C
   0.3280400000000000    0.7036400000000000    0.6804700000000000 C
   0.3674750000000000    0.7034899999999999    0.6409000000000000 C
   0.1719650000000000    0.7963700000000000    0.6804700000000000 C
   0.1325300000000000    0.7965249999999999    0.6409000000000000 C
   0.2959050000000000    0.6716650000000000    0.8169999999999999 C
   0.2960550000000000    0.6324350000000000    0.8573600000000000 C
   0.2040950000000000    0.8283499999999999    0.8169999999999999 C
   0.2039450000000000    0.8675750000000000    0.8573600000000000 C
   0.1719600000000000    0.7036400000000000    0.3195000000000000 C
   0.1325300000000000    0.7034899999999999    0.3590800000000000 C
   0.3280400000000000    0.7963700000000000    0.3195000000000000 C
   0.3674700000000000    0.7965249999999999    0.3590800000000000 C
   0.2500000000000000    0.8079300000000000    0.7960900000000000 C
   0.2500000000000000    0.8873350000000000    0.8779800000000000 C
   0.2500000000000000    0.9287400000000000    0.9219700000000000 C
   0.2500000000000000    0.6920850000000001    0.7960900000000000 C
   0.2500000000000000    0.6126800000000000    0.8779800000000000 C
   0.2500000000000000    0.5712750000000000    0.9219700000000000 C
   0.1924800000000000    0.7500050000000000    0.2989100000000000 C
   0.1125850000000000    0.7500050000000000    0.3792600000000000 C
   0.0708950000000000    0.7499899999999999    0.4224000000000000 C
   0.3075200000000000    0.7500050000000000    0.2989100000000000 C
   0.3874150000000000    0.7500100000000001    0.3792600000000000 C
   0.4291050000000000    0.7500249999999999    0.4224400000000000 C
   0.2500000000000000    0.8079250000000000    0.2038900000000000 C
   0.2500000000000000    0.8873350000000000    0.1220000000000000 C
   0.2500000000000000    0.9287350000000000    0.0780100000000000 C
   0.2500000000000000    0.6920800000000000    0.2038900000000000 C
   0.2500000000000000    0.6126750000000000    0.1220000000000000 C
   0.2500000000000000    0.5712750000000000    0.0780100000000000 C
   0.3075200000000000    0.7500050000000000    0.7010800000000000 C
   0.3874150000000000    0.7500050000000000    0.6207300000000000 C
   0.4291050000000000    0.7499899999999999    0.5775500000000000 C
   0.1924800000000000    0.7500050000000000    0.7010800000000000 C
   0.1125900000000000    0.7500100000000001    0.6207300000000000 C
   0.0709000000000000    0.7500249999999999    0.5775500000000000 C
   0.7959050000000000    0.8283499999999999    0.8170600000000000 C
   0.7960550000000000    0.8675750000000000    0.8573600000000000 C
   0.7040950000000000    0.6716650000000000    0.8170600000000000 C
   0.7039450000000000    0.6324350000000000    0.8573600000000000 C
   0.6719550000000000    0.7963700000000000    0.3195200000000000 C
   0.6325200000000000    0.7965200000000000    0.3590800000000000 C
   0.8280449999999999    0.7036400000000000    0.3195200000000000 C
   0.8674800000000000    0.7034899999999999    0.3590800000000000 C
   0.7040950000000000    0.8283499999999999    0.1829200000000000 C
   0.7039450000000000    0.8675750000000000    0.1426200000000000 C
   0.7959050000000000    0.6716600000000000    0.1829200000000000 C
   0.7960550000000000    0.6324350000000000    0.1426200000000000 C
   0.8280449999999999    0.7963700000000000    0.6804000000000000 C
   0.8674800000000000    0.7965200000000000    0.6409000000000000 C
   0.6719600000000000    0.7036400000000000    0.6804000000000000 C
   0.6325200000000000    0.7034950000000000    0.6409000000000000 C
   0.7040950000000000    0.6716600000000000    0.1829200000000000 C
   0.7039450000000000    0.6324350000000000    0.1426200000000000 C
   0.7959050000000000    0.8283499999999999    0.1829200000000000 C
   0.7960550000000000    0.8675750000000000    0.1426200000000000 C
   0.8280400000000000    0.7036400000000000    0.6804700000000000 C
   0.8674750000000000    0.7034899999999999    0.6409000000000000 C
   0.6719650000000000    0.7963700000000000    0.6804700000000000 C
   0.6325300000000000    0.7965249999999999    0.6409000000000000 C
   0.7959050000000000    0.6716650000000000    0.8169999999999999 C
   0.7960550000000000    0.6324350000000000    0.8573600000000000 C
   0.7040950000000000    0.8283499999999999    0.8169999999999999 C
   0.7039450000000000    0.8675750000000000    0.8573600000000000 C
   0.6719600000000000    0.7036400000000000    0.3195000000000000 C
   0.6325300000000000    0.7034899999999999    0.3590800000000000 C
   0.8280400000000000    0.7963700000000000    0.3195000000000000 C
   0.8674700000000000    0.7965249999999999    0.3590800000000000 C
   0.7500000000000000    0.8079300000000000    0.7960900000000000 C
   0.7500000000000000    0.8873350000000000    0.8779800000000000 C
   0.7500000000000000    0.9287400000000000    0.9219700000000000 C
   0.7500000000000000    0.6920850000000001    0.7960900000000000 C
   0.7500000000000000    0.6126800000000000    0.8779800000000000 C
   0.7500000000000000    0.5712750000000000    0.9219700000000000 C
   0.6924800000000000    0.7500050000000000    0.2989100000000000 C
   0.6125850000000000    0.7500050000000000    0.3792600000000000 C
   0.5708950000000000    0.7499899999999999    0.4224000000000000 C
   0.8075200000000000    0.7500050000000000    0.2989100000000000 C
   0.8874150000000001    0.7500100000000001    0.3792600000000000 C
   0.9291050000000001    0.7500249999999999    0.4224400000000000 C
   0.7500000000000000    0.8079250000000000    0.2038900000000000 C
   0.7500000000000000    0.8873350000000000    0.1220000000000000 C
   0.7500000000000000    0.9287350000000000    0.0780100000000000 C
   0.7500000000000000    0.6920800000000000    0.2038900000000000 C
   0.7500000000000000    0.6126750000000000    0.1220000000000000 C
   0.7500000000000000    0.5712750000000000    0.0780100000000000 C
   0.8075200000000000    0.7500050000000000    0.7010800000000000 C
   0.8874150000000001    0.7500050000000000    0.6207300000000000 C
   0.9291050000000001    0.7499899999999999    0.5775500000000000 C
   0.6924800000000000    0.7500050000000000    0.7010800000000000 C
   0.6125900000000000    0.7500100000000001    0.6207300000000000 C
   0.5709000000000000    0.7500249999999999    0.5775500000000000 C
   0.2932900000000000    0.4449200000000000    0.9392700000000000 O
   0.2067100000000000    0.0550950000000000    0.9392700000000000 O
   0.0545600000000000    0.2937000000000000    0.4394000000000000 O
   0.4454400000000000    0.2063150000000000    0.4394000000000000 O
   0.2067100000000000    0.4449150000000000    0.0607100000000000 O
   0.2932900000000000    0.0550900000000000    0.0607100000000000 O
   0.4454400000000000    0.2937000000000000    0.5605800000000000 O
   0.0545650000000000    0.2063150000000000    0.5605800000000000 O
   0.2067100000000000    0.0550900000000000    0.0607100000000000 O
   0.2932900000000000    0.4449200000000000    0.0607100000000000 O
   0.4452850000000000    0.2062600000000000    0.5604000000000000 O
   0.0547200000000000    0.2937550000000000    0.5604700000000000 O
   0.2932900000000000    0.0550900000000000    0.9392700000000000 O
   0.2067100000000000    0.4449200000000000    0.9392700000000000 O
   0.0547150000000000    0.2062600000000000    0.4395100000000000 O
   0.4452850000000000    0.2937550000000000    0.4395100000000000 O
   0.7932900000000001    0.4449200000000000    0.9392700000000000 O
   0.7067099999999999    0.0550950000000000    0.9392700000000000 O
   0.5545599999999999    0.2937000000000000    0.4394000000000000 O
   0.9454400000000001    0.2063150000000000    0.4394000000000000 O
   0.7067099999999999    0.4449150000000000    0.0607100000000000 O
   0.9454400000000001    0.2937000000000000    0.5605800000000000 O
   0.5545650000000000    0.2063150000000000    0.5605800000000000 O
   0.7932900000000001    0.4449200000000000    0.0607100000000000 O
   0.9452849999999999    0.2062600000000000    0.5604000000000000 O
   0.5547200000000000    0.2937550000000000    0.5604700000000000 O
   0.7932900000000001    0.0550900000000000    0.9392700000000000 O
   0.7067099999999999    0.4449200000000000    0.9392700000000000 O
   0.5547150000000000    0.2062600000000000    0.4395100000000000 O
   0.9452849999999999    0.2937550000000000    0.4395100000000000 O
   0.2932900000000000    0.9449200000000000    0.9392700000000000 O
   0.2067100000000000    0.5550950000000000    0.9392700000000000 O
   0.0545600000000000    0.7937000000000001    0.4394000000000000 O
   0.4454400000000000    0.7063150000000000    0.4394000000000000 O
   0.2067100000000000    0.9449149999999999    0.0607100000000000 O
   0.2932900000000000    0.5550900000000000    0.0607100000000000 O
   0.4454400000000000    0.7937000000000001    0.5605800000000000 O
   0.0545650000000000    0.7063150000000000    0.5605800000000000 O
   0.2067100000000000    0.5550900000000000    0.0607100000000000 O
   0.2932900000000000    0.9449200000000000    0.0607100000000000 O
   0.4452850000000000    0.7062600000000000    0.5604000000000000 O
   0.0547200000000000    0.7937550000000000    0.5604700000000000 O
   0.2932900000000000    0.5550900000000000    0.9392700000000000 O
   0.2067100000000000    0.9449200000000000    0.9392700000000000 O
   0.0547150000000000    0.7062600000000000    0.4395100000000000 O
   0.4452850000000000    0.7937550000000000    0.4395100000000000 O
   0.7932900000000001    0.9449200000000000    0.9392700000000000 O
   0.7067099999999999    0.5550950000000000    0.9392700000000000 O
   0.5545599999999999    0.7937000000000001    0.4394000000000000 O
   0.9454400000000001    0.7063150000000000    0.4394000000000000 O
   0.7067099999999999    0.9449149999999999    0.0607100000000000 O
   0.7932900000000001    0.5550900000000000    0.0607100000000000 O
   0.9454400000000001    0.7937000000000001    0.5605800000000000 O
   0.5545650000000000    0.7063150000000000    0.5605800000000000 O
   0.7067099999999999    0.5550900000000000    0.0607100000000000 O
   0.7932900000000001    0.9449200000000000    0.0607100000000000 O
   0.9452849999999999    0.7062600000000000    0.5604000000000000 O
   0.5547200000000000    0.7937550000000000    0.5604700000000000 O
   0.7932900000000001    0.5550900000000000    0.9392700000000000 O
   0.7067099999999999    0.9449200000000000    0.9392700000000000 O
   0.5547150000000000    0.7062600000000000    0.4395100000000000 O
   0.9452849999999999    0.7937550000000000    0.4395100000000000 O
