H5 C8 N1 O4
1.0
  23.6789999422957109    0.0000000000000000   -0.0016531060529756
  -0.0014974233664315   14.3039982135796162    0.0069902528155138
   0.0000000000000000    0.0000000000000000   17.5320000000000000
H C N O
5 8 1 4
direct
   0.4955300000000000    0.3029600000000000    0.2495100000000000 H
   0.5145300000000000    0.4852800000000000    0.4415100000000000 H
   0.5179600000000000    0.5990400000000000    0.2129700000000000 H
   0.5138900000000000    0.6982699999999999    0.3325900000000000 H
   0.5178100000000000    0.6484000000000000    0.4194000000000000 H
   0.5069600000000000    0.4309700000000000    0.1384600000000000 C
   0.5014800000000000    0.3729000000000000    0.2718300000000000 C
   0.4977200000000000    0.3037900000000000    0.4027100000000000 C
   0.5038600000000000    0.3863500000000000    0.3506500000000000 C
   0.5123600000000000    0.4759400000000000    0.3799600000000000 C
   0.5145999999999999    0.5397400000000000    0.2519000000000000 C
   0.5175200000000000    0.5541600000000000    0.3314900000000000 C
   0.5072700000000000    0.4492900000000000    0.2225000000000000 C
   0.5277500000000001    0.6417200000000000    0.3627000000000000 N
   0.5108900000000000    0.4976700000000000    1.0903700000000001 O
   0.5038700000000000    0.3456000000000000    1.1164000000000001 O
   0.5060700000000000    0.3128500000000000    0.4739200000000000 O
   0.4845200000000000    0.2248600000000000    0.3724900000000000 O
