H4 O2
1.0
  23.6789999422957109    0.0000000000000000   -0.0016531060529756
  -0.0014974233664315   14.3039982135796162    0.0069902528155138
   0.0000000000000000    0.0000000000000000   17.5320000000000000
H O
4 2
direct
   0.8704237576300193    0.8687148103804927    0.5645792216759370 H
   0.8687395735933315    0.8722621182804529    0.4687030736036661 H
   0.6123504184283488    0.9036686966681589    0.5587324337548381 H
   0.6125298643982848    0.8350688281959814    0.4807633071591867 H
   0.8907000000000000    0.8706400000000000    0.5159700000000000 O
   0.5913600000000000    0.8701800000000000    0.5191800000000000 O
