H8 C10 N2
1.0
  23.6789999422957109    0.0000000000000000   -0.0016531060529756
  -0.0014974233664315   14.3039982135796162    0.0069902528155138
   0.0000000000000000    0.0000000000000000   17.5320000000000000
H C N
8 10 2
direct
   0.8890900000000000    0.8647200000000000    0.6338700000000000 H
   0.8848000000000000    0.8746900000000000    0.3981800000000000 H
   0.7793900000000000    0.8751800000000000    0.3962100000000000 H
   0.7835500000000000    0.8642300000000001    0.6426300000000000 H
   0.5954900000000000    0.7836900000000000    0.4243000000000000 H
   0.7007700000000000    0.7786300000000000    0.4216300000000000 H
   0.7002900000000000    0.9569299999999999    0.6208200000000000 H
   0.5947400000000000    0.9539299999999999    0.6152500000000000 H
   0.6205000000000001    0.8218500000000000    0.4663000000000000 C
   0.8627899999999999    0.8679900000000000    0.5828800000000000 C
   0.8605100000000000    0.8728700000000000    0.4509900000000000 C
   0.8018400000000000    0.8723000000000000    0.4504000000000000 C
   0.8041300000000000    0.8679100000000000    0.5871100000000000 C
   0.7722000000000000    0.8696700000000001    0.5196900000000000 C
   0.7098100000000001    0.8686800000000000    0.5207200000000000 C
   0.6791800000000000    0.8198200000000000    0.4649900000000000 C
   0.6789200000000000    0.9169700000000000    0.5764899999999999 C
   0.6202299999999999    0.9162400000000001    0.5735800000000000 C
   0.8907000000000000    0.8706400000000000    0.5159700000000000 N
   0.5913600000000000    0.8701800000000000    0.5191800000000000 N
