H8 C10 N2
1.0
  37.1819840922339893    0.0000000000000000    0.0343942561862268
  -4.6262587586874133   13.4789878656791959   -2.2670500688209332
   0.0000000000000000    0.0000000000000000   34.9179999999999993
H C N
8 10 2
direct
   0.3359350000000000    0.7237500000000000    0.1125650000000000 H
   0.3272900000000000    0.8634100000000000    0.1570750000000000 H
   0.4501200000000000    0.9858300000000000    0.1732250000000000 H
   0.4534100000000000    0.8372800000000000    0.1293850000000000 H
   0.3313250000000000    0.1764500000000000    0.2203800000000000 H
   0.3309550000000000    0.0243700000000000    0.1744000000000000 H
   0.4404400000000000    0.0573800000000000    0.2275500000000000 H
   0.4369900000000000    0.2103100000000000    0.2687650000000000 H
   0.4138950000000000    0.1654700000000000    0.2478800000000000 C
   0.3607400000000000    0.7829700000000001    0.1266000000000000 C
   0.3561250000000000    0.8630200000000000    0.1517000000000000 C
   0.3882850000000000    0.9388500000000000    0.1697900000000000 C
   0.4238650000000000    0.9286600000000000    0.1612000000000000 C
   0.4259950000000000    0.8463300000000000    0.1360850000000000 C
   0.3547900000000000    0.1466100000000000    0.2203750000000000 C
   0.3548650000000000    0.0615600000000000    0.1953800000000000 C
   0.3859550000000000    0.0266600000000000    0.1966200000000000 C
   0.4156650000000000    0.0805500000000000    0.2242800000000000 C
   0.3949950000000000    0.7739000000000000    0.1186250000000000 N
   0.3840150000000000    0.1987500000000000    0.2461950000000000 N
