H4 C7 O2
1.0
  13.9679999468137996    0.0000000000000000   -0.0012189379480448
 -13.2088824298272627   25.9563612051069335    0.0106745032793717
   0.0000000000000000    0.0000000000000000   24.1649999999999991
H C O
4 7 2
direct
   0.4061400000000000    0.1426500000000000    0.0821600000000000 H
   0.5954700000000001    0.1891050000000000    0.1123600000000000 H
   0.6810000000000000    0.0994200000000000    0.9994200000000000 H
   0.4896600000000000    0.0478850000000000    0.9743700000000000 H
   0.4328900000000000    0.0921250000000000    0.0253000000000000 C
   0.4652400000000000    0.1320200000000000    0.0645900000000000 C
   0.5720499999999999    0.1585750000000000    0.0815400000000000 C
   0.6503600000000000    0.1474750000000000    0.0574800000000000 C
   0.6197200000000000    0.1078500000000000    0.0181400000000000 C
   0.5119800000000000    0.0797000000000000    0.0035800000000000 C
   0.7665100000000000    0.1790150000000000    0.0711800000000000 C
  -0.1655799999999999    0.1885250000000000    0.0330400000000000 O
   0.7929100000000000    0.1958500000000000    0.1212400000000000 O
