Ca12 Si8 H132 C217 O62
1.0
  13.9679999468137996    0.0000000000000000   -0.0012189379480448
 -13.2088824298272627   25.9563612051069335    0.0106745032793717
   0.0000000000000000    0.0000000000000000   24.1649999999999991
Ca Si H C O
12 8 132 217 62
direct
   0.9763800000000000    0.2393350000000000    0.1488000000000000 Ca
   0.9762600000000000    0.4895950000000000    0.3512700000000000 Ca
   0.0236900000000000    0.2606450000000000    0.8512900000000000 Ca
   0.0000300000000000    0.0000100000000000    0.5000400000000000 Ca
   0.0000100000000000    0.2499950000000000    0.0000000000000000 Ca
   0.0238300000000000    0.0104100000000000    0.6488000000000000 Ca
   0.9763800000000000    0.7393350000000000    0.1488000000000000 Ca
   0.9762600000000000    0.9895950000000000    0.3512700000000000 Ca
   0.0236900000000000    0.7606450000000000    0.8512900000000000 Ca
   0.0000300000000000    0.5000100000000000    0.5000400000000000 Ca
   0.0000100000000000    0.7499950000000000    0.0000000000000000 Ca
   0.0238300000000000    0.5104100000000000    0.6488000000000000 Ca
   0.7121700000000000    0.1928500000000000    0.5039400000000001 Si
   0.2880700000000000    0.0569800000000000    0.0039100000000000 Si
   0.2879100000000000    0.3071600000000000    0.4961400000000000 Si
   0.7120000000000000    0.4429950000000000    0.9961700000000000 Si
   0.7121700000000000    0.6928500000000000    0.5039400000000001 Si
   0.2880700000000000    0.5569800000000000    0.0039100000000000 Si
   0.2879100000000000    0.8071600000000000    0.4961400000000000 Si
   0.7120000000000000    0.9429950000000000    0.9961700000000000 Si
   0.8534900000000000    0.2071400000000000    0.6040000000000000 H
   0.9338100000000000    0.1534300000000000    0.6445400000000000 H
   0.8115500000000000    0.0482600000000000    0.5079600000000000 H
   0.7287800000000000    0.1002350000000000    0.4682000000000000 H
   0.5939600000000000    0.1071200000000000    0.5821600000000000 H
   0.4045800000000000    0.0606650000000000    0.6123200000000000 H
   0.3192700000000000    0.1504950000000000    0.4994000000000000 H
   0.5106500000000000    0.2020300000000000    0.4743700000000000 H
   0.8827900000000000    0.2954950000000000    0.4630700000000000 H
   0.9711100000000000    0.3817650000000000    0.5051000000000000 H
   0.7663700000000000    0.3273050000000000    0.6474900000000000 H
   0.6747100000000000    0.2395650000000000    0.6058200000000000 H
   0.5629900000000000    0.1635150000000000    0.4031300000000000 H
   0.5973500000000000    0.1671150000000000    0.3024500000000000 H
   0.9361500000000000    0.2269700000000000    0.3330900000000000 H
   0.9030000000000000    0.2216350000000000    0.4340600000000000 H
   0.7330400000000000    0.1841350000000000    0.1778400000000000 H
   0.1468700000000000    0.0427250000000000    0.1044900000000000 H
   0.0664900000000000    0.0964100000000000    0.1444000000000000 H
   0.1883100000000000    0.2014700000000000    0.0077100000000000 H
   0.2711000000000000    0.1495200000000000    0.9680400000000000 H
   0.1171300000000000    0.4543750000000000    0.9632300000000000 H
   0.0288700000000000    0.3681000000000000    0.0053000000000000 H
   0.2342700000000000    0.4224300000000000    0.1474300000000000 H
   0.3258500000000000    0.0102000000000000    0.1057300000000000 H
   0.4372900000000000    0.0863200000000000    0.9030800000000000 H
   0.4029300000000000    0.0827000000000000    0.8024100000000000 H
   0.0641200000000000    0.0227950000000000    0.8330600000000000 H
   0.0972700000000000    0.0281550000000000    0.9340300000000000 H
   0.2671400000000000    0.0656750000000000    0.6777900000000000 H
   0.1466000000000000    0.2928700000000000    0.3955900000000000 H
   0.0662800000000000    0.3465750000000000    0.3555400000000000 H
   0.1884900000000000    0.4517450000000000    0.4921100000000000 H
   0.2712600000000000    0.3997750000000000    0.5318400000000000 H
   0.4061200000000000    0.3928900000000000    0.4179200000000000 H
   0.5955000000000000    0.4393450000000000    0.3877000000000000 H
   0.6807900000000000    0.3495100000000000    0.5007000000000000 H
   0.4894100000000000    0.2979750000000000    0.5257100000000000 H
   0.1172900000000000    0.2045100000000000    0.5370200000000001 H
   0.0289600000000000    0.1182400000000000    0.4949900000000000 H
   0.2336700000000000    0.1727050000000000    0.3520000000000000 H
   0.3253500000000000    0.2604400000000000    0.3942600000000000 H
   0.4370900000000000    0.3364850000000000    0.5969700000000000 H
   0.4027100000000000    0.3328700000000000    0.6976400000000000 H
   0.0639300000000000    0.2730450000000000    0.6669900000000000 H
   0.0970900000000000    0.2783900000000000    0.5660200000000000 H
   0.2669600000000000    0.3158350000000000    0.8222600000000000 H
   0.8531800000000000    0.4572450000000000    0.8955900000000000 H
   0.9335700000000000    0.4035700000000000    0.8556100000000000 H
   0.8117900000000000    0.2985100000000000    0.9923800000000000 H
   0.7289900000000000    0.3504600000000000    0.0320500000000000 H
   0.5939100000000000    0.3573250000000000    0.9179200000000000 H
   0.4045600000000000    0.3108750000000000    0.8877400000000000 H
   0.3190900000000000    0.4005700000000000    0.0000000000000000 H
   0.5104400000000000    0.4521100000000000    0.0257000000000000 H
   0.8829100000000000    0.0456000000000000    0.0368800000000000 H
   0.9711800000000000    0.1318850000000000    0.9948200000000000 H
   0.7658500000000000    0.0775550000000000    0.8526700000000000 H
   0.6742600000000000    0.4897850000000000    0.8943000000000000 H
   0.5627600000000000    0.4136650000000000    0.0970100000000000 H
   0.5971400000000000    0.4172950000000000    0.1976800000000000 H
   0.9359400000000000    0.4771650000000000    0.1670200000000000 H
   0.9027800000000000    0.4718000000000000    0.0660500000000000 H
   0.7329900000000000    0.4343500000000000    0.3223100000000000 H
   0.8534900000000000    0.7071400000000000    0.6040000000000000 H
   0.9338100000000000    0.6534300000000000    0.6445400000000000 H
   0.8115500000000000    0.5482600000000000    0.5079600000000000 H
   0.7287800000000000    0.6002350000000000    0.4682000000000000 H
   0.5939600000000000    0.6071200000000000    0.5821600000000000 H
   0.4045800000000000    0.5606650000000000    0.6123200000000000 H
   0.3192700000000000    0.6504950000000000    0.4994000000000000 H
   0.5106500000000000    0.7020299999999999    0.4743700000000000 H
   0.8827900000000000    0.7954950000000001    0.4630700000000000 H
   0.9711100000000000    0.8817650000000000    0.5051000000000000 H
   0.7663700000000000    0.8273050000000000    0.6474900000000000 H
   0.6747100000000000    0.7395650000000000    0.6058200000000000 H
   0.5629900000000000    0.6635150000000000    0.4031300000000000 H
   0.5973500000000000    0.6671150000000000    0.3024500000000000 H
   0.9361500000000000    0.7269700000000000    0.3330900000000000 H
   0.9030000000000000    0.7216350000000000    0.4340600000000000 H
   0.7330400000000000    0.6841349999999999    0.1778400000000000 H
   0.1468700000000000    0.5427250000000000    0.1044900000000000 H
   0.0664900000000000    0.5964100000000000    0.1444000000000000 H
   0.1883100000000000    0.7014700000000000    0.0077100000000000 H
   0.2711000000000000    0.6495200000000000    0.9680400000000000 H
   0.4061400000000000    0.6426499999999999    0.0821600000000000 H
   0.5954700000000001    0.6891050000000000    0.1123600000000000 H
   0.6810000000000000    0.5994200000000000    0.9994200000000000 H
   0.4896600000000000    0.5478850000000000    0.9743700000000000 H
   0.1171300000000000    0.9543750000000000    0.9632300000000000 H
   0.0288700000000000    0.8681000000000000    0.0053000000000000 H
   0.2342700000000000    0.9224300000000001    0.1474300000000000 H
   0.3258500000000000    0.5102000000000000    0.1057300000000000 H
   0.4372900000000000    0.5863200000000000    0.9030800000000000 H
   0.4029300000000000    0.5827000000000000    0.8024100000000000 H
   0.0641200000000000    0.5227950000000000    0.8330600000000000 H
   0.0972700000000000    0.5281550000000000    0.9340300000000000 H
   0.2671400000000000    0.5656750000000000    0.6777900000000000 H
   0.1466000000000000    0.7928700000000000    0.3955900000000000 H
   0.0662800000000000    0.8465750000000001    0.3555400000000000 H
   0.1884900000000000    0.9517450000000001    0.4921100000000000 H
   0.2712600000000000    0.8997750000000000    0.5318400000000000 H
   0.4061200000000000    0.8928900000000000    0.4179200000000000 H
   0.5955000000000000    0.9393450000000000    0.3877000000000000 H
   0.6807900000000000    0.8495100000000000    0.5007000000000000 H
   0.4894100000000000    0.7979750000000000    0.5257100000000000 H
   0.1172900000000000    0.7045100000000000    0.5370200000000001 H
   0.0289600000000000    0.6182400000000000    0.4949900000000000 H
   0.2336700000000000    0.6727050000000000    0.3520000000000000 H
   0.3253500000000000    0.7604400000000000    0.3942600000000000 H
   0.4370900000000000    0.8364849999999999    0.5969700000000000 H
   0.4027100000000000    0.8328700000000000    0.6976400000000000 H
   0.0639300000000000    0.7730450000000000    0.6669900000000000 H
   0.0970900000000000    0.7783900000000000    0.5660200000000000 H
   0.2669600000000000    0.8158350000000000    0.8222600000000000 H
   0.8531800000000000    0.9572450000000000    0.8955900000000000 H
   0.9335700000000000    0.9035700000000000    0.8556100000000000 H
   0.8117900000000000    0.7985100000000001    0.9923800000000000 H
   0.7289900000000000    0.8504600000000000    0.0320500000000000 H
   0.5939100000000000    0.8573250000000000    0.9179200000000000 H
   0.4045600000000000    0.8108750000000000    0.8877400000000000 H
   0.3190900000000000    0.9005700000000000    0.0000000000000000 H
   0.5104400000000000    0.9521100000000000    0.0257000000000000 H
   0.8829100000000000    0.5456000000000000    0.0368800000000000 H
   0.9711800000000000    0.6318850000000000    0.9948200000000000 H
   0.7658500000000000    0.5775550000000000    0.8526700000000000 H
   0.6742600000000000    0.9897850000000000    0.8943000000000000 H
   0.5627600000000000    0.9136649999999999    0.0970100000000000 H
   0.5971400000000000    0.9172950000000000    0.1976800000000000 H
   0.9359400000000000    0.9771650000000001    0.1670200000000000 H
   0.9027800000000000    0.9718000000000000    0.0660500000000000 H
   0.7329900000000000    0.9343500000000000    0.3223100000000000 H
   0.7843000000000000    0.1574750000000000    0.5336400000000000 C
   0.8434199999999999    0.1721750000000000    0.5832000000000001 C
   0.8889200000000000    0.1425150000000000    0.6058000000000000 C
   0.8773600000000000    0.0977050000000000    0.5787700000000000 C
   0.8198100000000000    0.0829550000000000    0.5289600000000000 C
   0.7736400000000000    0.1124150000000000    0.5069500000000000 C
   0.9266600000000000    0.0661100000000000    0.6026600000000000 C
   0.5673200000000000    0.1577150000000000    0.5253100000000001 C
   0.5349000000000000    0.1177800000000000    0.5645800000000000 C
   0.4280600000000000    0.0912250000000000    0.5815100000000000 C
   0.3498000000000000    0.1023700000000000    0.5574400000000000 C
   0.3805200000000000    0.1420300000000000    0.5181200000000000 C
   0.4882700000000000    0.1701800000000000    0.5035800000000000 C
   0.2336500000000000    0.0708400000000000    0.5711400000000000 C
   0.7728500000000000    0.2604150000000000    0.5316300000000000 C
   0.8562000000000000    0.3014700000000000    0.5036400000000000 C
   0.9062300000000000    0.3504600000000000    0.5269200000000001 C
   0.8744499999999999    0.3598100000000000    0.5789000000000000 C
   0.7906900000000000    0.3194950000000000    0.6071000000000000 C
   0.7403600000000000    0.2705100000000000    0.5835600000000000 C
   0.9294400000000000    0.4123450000000000    0.6038000000000000 C
   0.7303900000000000    0.1936800000000000    0.4266200000000000 C
   0.6453700000000000    0.1779350000000000    0.3884300000000000 C
   0.6639600000000000    0.1797000000000000    0.3315800000000000 C
   0.7691500000000000    0.1979700000000000    0.3115400000000000 C
   0.8549099999999999    0.2134300000000000    0.3490700000000000 C
   0.8353600000000000    0.2107250000000000    0.4056800000000000 C
   0.7928300000000000    0.2013300000000000    0.2515100000000000 C
   0.2158500000000000    0.0923400000000000    0.0335400000000000 C
   0.1568300000000000    0.0776600000000000    0.0831400000000000 C
   0.1113000000000000    0.1073100000000000    0.1057400000000000 C
   0.1227200000000000    0.1520850000000000    0.0786200000000000 C
   0.1801500000000000    0.1668050000000000    0.0287000000000000 C
   0.2263400000000000    0.1373550000000000    0.0067000000000000 C
   0.0734600000000000    0.1836800000000000    0.1025200000000000 C
   0.2274000000000000    0.4893950000000000    0.0316500000000000 C
   0.1438800000000000    0.4483700000000000    0.0037500000000000 C
   0.0938800000000000    0.3993750000000000    0.0270600000000000 C
   0.1258600000000000    0.3899900000000000    0.0790100000000000 C
   0.2098000000000000    0.4302700000000000    0.1071300000000000 C
   0.2600800000000000    0.4792650000000000    0.0835300000000000 C
   0.0709300000000000    0.3374300000000000    0.1039000000000000 C
   0.2698900000000000    0.0561400000000000    0.9265800000000000 C
   0.3549000000000000    0.0718800000000000    0.8883900000000000 C
   0.3363100000000000    0.0701100000000000    0.8315000000000000 C
   0.2311200000000000    0.0518300000000000    0.8115000000000000 C
   0.1453600000000000    0.0363550000000000    0.8490400000000000 C
   0.1649200000000000    0.0390700000000000    0.9056500000000000 C
   0.2074100000000000    0.0484850000000000    0.7514800000000000 C
   0.2157700000000000    0.3425350000000000    0.4664500000000000 C
   0.1566700000000000    0.3278350000000000    0.4168800000000000 C
   0.1111600000000000    0.3574950000000000    0.3942400000000000 C
   0.1227100000000000    0.4023000000000000    0.4213000000000000 C
   0.1802400000000000    0.4170500000000000    0.4711100000000000 C
   0.2264100000000000    0.3875950000000000    0.4931300000000000 C
   0.0734100000000000    0.4338900000000000    0.3974000000000000 C
   0.4327500000000000    0.3422900000000000    0.4747700000000000 C
   0.4651800000000000    0.3822250000000000    0.4355000000000000 C
   0.5720200000000000    0.4087800000000000    0.4185700000000000 C
   0.6502700000000000    0.3976350000000000    0.4426500000000000 C
   0.6195500000000000    0.3579700000000000    0.4819700000000000 C
   0.5117900000000000    0.3298250000000000    0.4965100000000000 C
   0.7664400000000000    0.4291650000000000    0.4289600000000000 C
   0.2272200000000000    0.2395900000000000    0.4684600000000000 C
   0.1438700000000000    0.1985350000000000    0.4964000000000000 C
   0.0938300000000000    0.1495450000000000    0.4731600000000000 C
   0.1256000000000000    0.1402000000000000    0.4211500000000000 C
   0.2093700000000000    0.1805150000000000    0.3929400000000000 C
   0.2597000000000000    0.2295000000000000    0.4165200000000000 C
   0.0706200000000000    0.0876600000000000    0.3962000000000000 C
   0.2697000000000000    0.3063350000000000    0.5734700000000000 C
   0.3547100000000000    0.3220650000000000    0.6116600000000000 C
   0.3361100000000000    0.3202950000000000    0.6685000000000000 C
   0.2309100000000000    0.3020300000000000    0.6885500000000000 C
   0.1451700000000000    0.2865750000000000    0.6510100000000000 C
   0.1647300000000000    0.2892900000000000    0.5944000000000000 C
   0.2072100000000000    0.2986550000000000    0.7485700000000000 C
   0.7842200000000000    0.4076350000000000    0.9665500000000000 C
   0.8432300000000000    0.4223150000000000    0.9169500000000000 C
   0.8887699999999999    0.3926700000000000    0.8943400000000000 C
   0.8773700000000000    0.3479000000000000    0.9214700000000000 C
   0.8199300000000000    0.3331750000000000    0.9713200000000000 C
   0.7737400000000000    0.3626200000000000    0.9933100000000000 C
   0.9266300000000000    0.3163050000000000    0.8975500000000000 C
   0.5671900000000000    0.4078600000000000    0.9747800000000000 C
   0.5348200000000000    0.3679600000000000    0.9355000000000000 C
   0.4280000000000000    0.3414050000000000    0.9185600000000000 C
   0.3497000000000000    0.3525100000000000    0.9426000000000000 C
   0.3803700000000000    0.3921400000000000    0.9819600000000001 C
   0.4881000000000000    0.4202900000000000    0.9965100000000000 C
   0.2335500000000000    0.3209700000000000    0.9289400000000000 C
   0.7726800000000000    0.0105800000000000    0.9684400000000000 C
   0.8561800000000001    0.0516050000000000    0.9963500000000000 C
   0.9061900000000001    0.1006050000000000    0.9730600000000000 C
   0.8742300000000000    0.1099950000000000    0.9211000000000000 C
   0.7903100000000000    0.0697100000000000    0.8929000000000000 C
   0.7400300000000000    0.0207150000000000    0.9165600000000000 C
   0.9291700000000001    0.1625550000000000    0.8962100000000000 C
   0.7301600000000000    0.4438300000000000    0.0735000000000000 C
   0.6451500000000000    0.4281000000000000    0.1117000000000000 C
   0.6637500000000000    0.4298750000000000    0.1685500000000000 C
   0.7689400000000000    0.4481500000000000    0.1885800000000000 C
   0.8546899999999999    0.4636150000000000    0.1510400000000000 C
   0.8351300000000000    0.4608900000000000    0.0944300000000000 C
   0.7926800000000001    0.4515050000000000    0.2486000000000000 C
   0.7843000000000000    0.6574750000000000    0.5336400000000000 C
   0.8434199999999999    0.6721750000000000    0.5832000000000001 C
   0.8889200000000000    0.6425149999999999    0.6058000000000000 C
   0.8773600000000000    0.5977050000000000    0.5787700000000000 C
   0.8198100000000000    0.5829550000000000    0.5289600000000000 C
   0.7736400000000000    0.6124150000000000    0.5069500000000000 C
   0.9266600000000000    0.5661100000000000    0.6026600000000000 C
   0.5673200000000000    0.6577150000000000    0.5253100000000001 C
   0.5349000000000000    0.6177800000000000    0.5645800000000000 C
   0.4280600000000000    0.5912250000000000    0.5815100000000000 C
   0.3498000000000000    0.6023700000000000    0.5574400000000000 C
   0.3805200000000000    0.6420300000000000    0.5181200000000000 C
   0.4882700000000000    0.6701800000000000    0.5035800000000000 C
   0.2336500000000000    0.5708400000000000    0.5711400000000000 C
   0.7728500000000000    0.7604150000000001    0.5316300000000000 C
   0.8562000000000000    0.8014700000000000    0.5036400000000000 C
   0.9062300000000000    0.8504600000000000    0.5269200000000001 C
   0.8744499999999999    0.8598100000000000    0.5789000000000000 C
   0.7906900000000000    0.8194950000000000    0.6071000000000000 C
   0.7403600000000000    0.7705100000000000    0.5835600000000000 C
   0.9294400000000000    0.9123450000000000    0.6038000000000000 C
   0.7303900000000000    0.6936800000000000    0.4266200000000000 C
   0.6453700000000000    0.6779350000000000    0.3884300000000000 C
   0.6639600000000000    0.6797000000000000    0.3315800000000000 C
   0.7691500000000000    0.6979700000000000    0.3115400000000000 C
   0.8549099999999999    0.7134300000000000    0.3490700000000000 C
   0.8353600000000000    0.7107250000000001    0.4056800000000000 C
   0.7928300000000000    0.7013300000000000    0.2515100000000000 C
   0.2158500000000000    0.5923400000000000    0.0335400000000000 C
   0.1568300000000000    0.5776600000000001    0.0831400000000000 C
   0.1113000000000000    0.6073100000000000    0.1057400000000000 C
   0.1227200000000000    0.6520850000000000    0.0786200000000000 C
   0.1801500000000000    0.6668050000000000    0.0287000000000000 C
   0.2263400000000000    0.6373550000000000    0.0067000000000000 C
   0.0734600000000000    0.6836800000000001    0.1025200000000000 C
   0.4328900000000000    0.5921250000000000    0.0253000000000000 C
   0.4652400000000000    0.6320200000000000    0.0645900000000000 C
   0.5720499999999999    0.6585750000000000    0.0815400000000000 C
   0.6503600000000000    0.6474750000000000    0.0574800000000000 C
   0.6197200000000000    0.6078500000000000    0.0181400000000000 C
   0.5119800000000000    0.5797000000000000    0.0035800000000000 C
   0.7665100000000000    0.6790150000000000    0.0711800000000000 C
   0.2274000000000000    0.9893950000000000    0.0316500000000000 C
   0.1438800000000000    0.9483699999999999    0.0037500000000000 C
   0.0938800000000000    0.8993750000000000    0.0270600000000000 C
   0.1258600000000000    0.8899900000000001    0.0790100000000000 C
   0.2098000000000000    0.9302699999999999    0.1071300000000000 C
   0.2600800000000000    0.9792650000000001    0.0835300000000000 C
   0.0709300000000000    0.8374300000000000    0.1039000000000000 C
   0.2698900000000000    0.5561400000000000    0.9265800000000000 C
   0.3549000000000000    0.5718799999999999    0.8883900000000000 C
   0.3363100000000000    0.5701100000000000    0.8315000000000000 C
   0.2311200000000000    0.5518300000000000    0.8115000000000000 C
   0.1453600000000000    0.5363550000000000    0.8490400000000000 C
   0.1649200000000000    0.5390700000000000    0.9056500000000000 C
   0.2074100000000000    0.5484850000000000    0.7514800000000000 C
   0.2157700000000000    0.8425350000000000    0.4664500000000000 C
   0.1566700000000000    0.8278350000000000    0.4168800000000000 C
   0.1111600000000000    0.8574950000000000    0.3942400000000000 C
   0.1227100000000000    0.9023000000000000    0.4213000000000000 C
   0.1802400000000000    0.9170499999999999    0.4711100000000000 C
   0.2264100000000000    0.8875950000000000    0.4931300000000000 C
   0.0734100000000000    0.9338900000000000    0.3974000000000000 C
   0.4327500000000000    0.8422900000000000    0.4747700000000000 C
   0.4651800000000000    0.8822250000000000    0.4355000000000000 C
   0.5720200000000000    0.9087799999999999    0.4185700000000000 C
   0.6502700000000000    0.8976350000000000    0.4426500000000000 C
   0.6195500000000000    0.8579700000000000    0.4819700000000000 C
   0.5117900000000000    0.8298250000000000    0.4965100000000000 C
   0.7664400000000000    0.9291650000000000    0.4289600000000000 C
   0.2272200000000000    0.7395900000000000    0.4684600000000000 C
   0.1438700000000000    0.6985350000000000    0.4964000000000000 C
   0.0938300000000000    0.6495450000000000    0.4731600000000000 C
   0.1256000000000000    0.6402000000000000    0.4211500000000000 C
   0.2093700000000000    0.6805150000000000    0.3929400000000000 C
   0.2597000000000000    0.7295000000000000    0.4165200000000000 C
   0.0706200000000000    0.5876600000000000    0.3962000000000000 C
   0.2697000000000000    0.8063350000000000    0.5734700000000000 C
   0.3547100000000000    0.8220650000000000    0.6116600000000000 C
   0.3361100000000000    0.8202950000000000    0.6685000000000000 C
   0.2309100000000000    0.8020300000000000    0.6885500000000000 C
   0.1451700000000000    0.7865750000000000    0.6510100000000000 C
   0.1647300000000000    0.7892900000000000    0.5944000000000000 C
   0.2072100000000000    0.7986550000000000    0.7485700000000000 C
   0.7842200000000000    0.9076350000000000    0.9665500000000000 C
   0.8432300000000000    0.9223150000000000    0.9169500000000000 C
   0.8887699999999999    0.8926700000000001    0.8943400000000000 C
   0.8773700000000000    0.8479000000000000    0.9214700000000000 C
   0.8199300000000000    0.8331750000000000    0.9713200000000000 C
   0.7737400000000000    0.8626199999999999    0.9933100000000000 C
   0.9266300000000000    0.8163050000000001    0.8975500000000000 C
   0.5671900000000000    0.9078600000000000    0.9747800000000000 C
   0.5348200000000000    0.8679600000000001    0.9355000000000000 C
   0.4280000000000000    0.8414050000000000    0.9185600000000000 C
   0.3497000000000000    0.8525100000000000    0.9426000000000000 C
   0.3803700000000000    0.8921399999999999    0.9819600000000001 C
   0.4881000000000000    0.9202900000000001    0.9965100000000000 C
   0.2335500000000000    0.8209700000000000    0.9289400000000000 C
   0.7726800000000000    0.5105800000000000    0.9684400000000000 C
   0.8561800000000001    0.5516050000000000    0.9963500000000000 C
   0.9061900000000001    0.6006050000000001    0.9730600000000000 C
   0.8742300000000000    0.6099950000000000    0.9211000000000000 C
   0.7903100000000000    0.5697099999999999    0.8929000000000000 C
   0.7400300000000000    0.5207150000000000    0.9165600000000000 C
   0.9291700000000001    0.6625550000000000    0.8962100000000000 C
   0.7301600000000000    0.9438299999999999    0.0735000000000000 C
   0.6451500000000000    0.9280999999999999    0.1117000000000000 C
   0.6637500000000000    0.9298750000000000    0.1685500000000000 C
   0.7689400000000000    0.9481500000000000    0.1885800000000000 C
   0.8546899999999999    0.9636150000000000    0.1510400000000000 C
   0.8351300000000000    0.9608900000000000    0.0944300000000000 C
   0.7926800000000001    0.9515050000000000    0.2486000000000000 C
   0.0672600000000000    0.2186400000000000    0.0718500000000000 O
   0.0949000000000000    0.3291850000000000    0.1522600000000000 O
   0.9611400000000000    0.0736150000000000    0.6520300000000000 O
   0.9329200000000000    0.0312150000000000    0.5719300000000000 O
   0.1657400000000000    0.0614100000000000    0.5330100000000000 O
   0.2072300000000000    0.0539400000000000    0.6211900000000000 O
   0.9057100000000000    0.4205100000000000    0.6522700000000000 O
   0.0000000000000000    0.4490400000000000    0.5747300000000000 O
   0.8872300000000000    0.2226050000000000    0.2339500000000000 O
   0.7080200000000000    0.1805100000000000    0.2185700000000000 O
   0.0000000000000000    0.1761050000000000    0.1519000000000000 O
   0.9980200000000000    0.3007950000000000    0.0748600000000000 O
   0.1129900000000000    0.0272600000000000    0.7339500000000000 O
   0.2921900000000000    0.0692900000000000    0.7185100000000000 O
   0.0000000000000000    0.4263850000000000    0.3480300000000000 O
   0.0671300000000000    0.4687900000000000    0.4281200000000000 O
   0.8343200000000000    0.4385950000000000    0.4671000000000000 O
   0.7928700000000000    0.4460650000000000    0.3789100000000000 O
   0.0943300000000000    0.0795050000000000    0.3478100000000000 O
   0.9979700000000000    0.0509650000000000    0.4253600000000000 O
   0.1127900000000000    0.2773800000000000    0.7661100000000000 O
   0.2919900000000000    0.3194550000000000    0.7815400000000000 O
   0.9611800000000000    0.3239050000000000    0.8481900000000000 O
   0.9327900000000000    0.2813250000000000    0.9282100000000000 O
   0.1656600000000000    0.3114700000000000    0.9670000000000000 O
   0.2071300000000000    0.3041350000000000    0.8788800000000000 O
   0.9052300000000000    0.1708000000000000    0.8478500000000000 O
   0.0000000000000000    0.1991900000000000    0.9252600000000000 O
   0.8871200000000000    0.4727150000000000    0.2661100000000000 O
   0.7079200000000000    0.4307350000000000    0.2815900000000000 O
   0.0672600000000000    0.7186399999999999    0.0718500000000000 O
   0.8344200000000001    0.6885250000000001    0.0330400000000000 O
   0.7929100000000000    0.6958500000000000    0.1212400000000000 O
   0.0949000000000000    0.8291850000000001    0.1522600000000000 O
   0.9611400000000000    0.5736150000000000    0.6520300000000000 O
   0.9329200000000000    0.5312150000000000    0.5719300000000000 O
   0.1657400000000000    0.5614100000000000    0.5330100000000000 O
   0.2072300000000000    0.5539400000000000    0.6211900000000000 O
   0.9057100000000000    0.9205099999999999    0.6522700000000000 O
   0.0000000000000000    0.9490400000000000    0.5747300000000000 O
   0.8872300000000000    0.7226049999999999    0.2339500000000000 O
   0.7080200000000000    0.6805099999999999    0.2185700000000000 O
   0.0000000000000000    0.6761050000000000    0.1519000000000000 O
   0.9980200000000000    0.8007949999999999    0.0748600000000000 O
   0.1129900000000000    0.5272600000000000    0.7339500000000000 O
   0.2921900000000000    0.5692900000000000    0.7185100000000000 O
   0.0000000000000000    0.9263850000000000    0.3480300000000000 O
   0.0671300000000000    0.9687900000000000    0.4281200000000000 O
   0.8343200000000000    0.9385950000000001    0.4671000000000000 O
   0.7928700000000000    0.9460649999999999    0.3789100000000000 O
   0.0943300000000000    0.5795050000000000    0.3478100000000000 O
   0.9979700000000000    0.5509650000000000    0.4253600000000000 O
   0.1127900000000000    0.7773800000000000    0.7661100000000000 O
   0.2919900000000000    0.8194550000000000    0.7815400000000000 O
   0.9611800000000000    0.8239050000000000    0.8481900000000000 O
   0.9327900000000000    0.7813250000000000    0.9282100000000000 O
   0.1656600000000000    0.8114700000000000    0.9670000000000000 O
   0.2071300000000000    0.8041350000000000    0.8788800000000000 O
   0.9052300000000000    0.6708000000000001    0.8478500000000000 O
   0.0000000000000000    0.6991900000000000    0.9252600000000000 O
   0.8871200000000000    0.9727150000000000    0.2661100000000000 O
   0.7079200000000000    0.9307350000000000    0.2815900000000000 O
