H12 O8
1.0
   5.6149862062686218    0.0000000000000000    0.0124460199708497
   0.1422498416108370   18.9604530426157503    0.0225033625211490
   0.0000000000000000    0.0000000000000000   23.8880000000000017
H O
12 8
direct
   1.0366684938404183    0.8293744979431958    0.5894315337008558 H
   1.0006267598354466    0.9743790950215002    0.4714052338579200 H
   1.0245005108565384    0.9075217138416222    0.5343645549048326 H
  -0.0804057556908166    0.1551777796778994    0.5256429217067571 H
  -0.0817765824581134    0.1637892937354576    0.5948550326511204 H
  -0.0699742543212781    0.1741164131497774    0.6457391084105962 H
   0.0309436257343176    0.1658864684298337   -0.0873398079150956 H
  -0.0050833086940067    0.0217769575403591    0.0293176916868867 H
   0.0137121456365415    0.0871281062602799   -0.0334967781019593 H
   0.8519611860984504    0.8247600899636318    0.9658085524495085 H
   0.8792717527651718    0.8173351458696316    0.8729370855690383 H
   0.4572988300764551    0.8353738331779947    0.9063462903448515 H
   1.0100899999999999    0.8433500000000000    0.5508600000000000 O
   0.9897200000000000    0.9258100000000000    0.4838900000000000 O
   0.0184400000000000    0.1886000000000000    0.5454599999999999 O
   0.0000000000000000    0.1914400000000000    0.6112500000000000 O
   0.0205800000000000    0.1537800000000000   -0.0479500000000000 O
   0.0000000000000000    0.0711100000000000    0.0186200000000000 O
   1.0111400000000001    0.8086100000000001    0.9561600000000000 O
   0.7258200000000000    0.8081300000000000    0.8900700000000000 O
