H6 C16 N2 O8
1.0
   5.6149862062686218    0.0000000000000000    0.0124460199708497
   0.1422498416108370   18.9604530426157503    0.0225033625211490
   0.0000000000000000    0.0000000000000000   23.8880000000000017
H C N O
6 16 2 8
direct
   0.9898500000000000    0.5490100000000000    0.4834900000000000 H
   0.0496600000000000    0.3916400000000000    0.3545100000000000 H
   0.9341800000000000    0.6088900000000000    0.3091200000000000 H
   0.0000000000000000    0.3898300000000000    0.1938900000000000 H
   0.0000000000000000    0.4482500000000000    0.0192600000000000 H
   0.0540800000000000    0.6060100000000000    0.1475500000000000 H
   0.8978200000000000    0.6598200000000000    0.4151100000000000 C
   0.9649700000000000    0.5870700000000000    0.3978900000000000 C
   0.9978399999999999    0.5353100000000000    0.4392700000000000 C
   0.0215300000000000    0.4646100000000000    0.4235900000000000 C
   0.0110700000000000    0.4081000000000000    0.4670400000000000 C
   0.0310800000000000    0.4467000000000000    0.3668500000000000 C
   0.0097400000000000    0.4989000000000000    0.3255600000000000 C
   0.9673800000000000    0.5692400000000000    0.3412300000000000 C
   0.0108500000000000    0.4992000000000000    0.1769700000000000 C
   0.0000000000000000    0.4290500000000000    0.1616000000000000 C
   0.0000000000000000    0.4108300000000000    0.1050200000000000 C
   0.0000000000000000    0.3383200000000000    0.0882200000000000 C
   0.9987400000000000    0.4621300000000000    0.0634200000000000 C
   0.0242400000000000    0.5327600000000000    0.0788100000000000 C
   0.0155000000000000    0.5890000000000000    0.0351200000000000 C
   0.0340300000000000    0.5509900000000000    0.1354700000000000 C
   0.0164300000000000    0.4746400000000000    0.2695800000000000 N
   0.0171900000000000    0.5236300000000000    0.2329300000000000 N
   0.0126800000000000    0.6885000000000000    0.4570200000000000 O
   0.7284700000000000    0.6914500000000000    0.3908100000000000 O
   0.0000000000000000    0.4258800000000000    0.5186400000000000 O
   0.0104100000000000    0.3435700000000000    0.4517000000000000 O
   0.0000000000000000    0.3080300000000000    0.1128000000000000 O
   0.0123100000000000    0.3086500000000000    0.0464500000000000 O
   1.0204100000000000    0.6536500000000000    1.0500900000000000 O
   0.9902100000000000    0.5710100000000000    0.9837100000000000 O
