Cd8 H28 C48 N6 O31
1.0
   5.6149862062686218    0.0000000000000000    0.0124460199708497
   0.1422498416108370   18.9604530426157503    0.0225033625211490
   0.0000000000000000    0.0000000000000000   23.8880000000000017
Cd H C N O
8 28 48 6 31
direct
   0.4198000000000000    0.6884300000000000    0.4608200000000000 Cd
   0.0000000000000000    0.1885700000000000    0.0419600000000000 Cd
   0.4205100000000000    0.3088600000000000    0.0000000000000000 Cd
   0.0000000000000000    0.3087100000000000    0.5417500000000000 Cd
   0.9249400000000000    0.6884400000000001    0.9603000000000000 Cd
   0.4246700000000000    0.1884300000000000    0.5413000000000000 Cd
   0.9184800000000000    0.8086300000000000    0.4611300000000000 Cd
   0.4187400000000000    0.8087299999999999    0.9601800000000000 Cd
   1.0504726918502629    0.6676074603172598    1.0884671150679077 H
   0.9971899799071684    0.5222518883834133    0.9715328973658286 H
   1.0296209451055851    0.5893076529552559    1.0340208099163384 H
  -0.1510658989108413    0.6890057964055989    0.4441622922333672 H
   0.8193102636953674    0.6929272648978893    0.3562477517824376 H
   0.0018145679475744    0.3339464637689250    0.0820628510828446 H
   0.9311300000000000    0.8899600000000000    0.8088600000000000 H
   0.0480700000000000    0.8913700000000000    0.6481200000000000 H
   0.0000000000000000    0.1088000000000000    0.6931000000000000 H
   0.0000000000000000    0.0488000000000000    0.5188400000000000 H
   0.0532000000000000    0.1061500000000000    0.8546000000000000 H
   0.9894400000000000    0.9483900000000000    0.9832900000000000 H
   0.4301500000000000    0.8882700000000000    0.3093600000000000 H
   0.5532700000000000    0.1046700000000000    0.3543700000000000 H
   0.4890600000000000    0.9476900000000000    0.4836100000000000 H
   0.4361800000000000    0.1078800000000000    0.1936200000000000 H
   0.5414400000000000    0.8904200000000000    0.1478200000000000 H
   0.4919500000000000    0.0487700000000000    0.0191100000000000 H
   0.0156432532943198    0.3318026358192158    0.4122079961691133 H
  -0.0025580091724082    0.4752110561828512    0.5293483231873254 H
   0.0069525530444313    0.4102466608400470    0.4661735444276807 H
   0.4343800000000000    0.6079000000000000    0.8088100000000000 H
   0.5451300000000000    0.3906500000000000    0.8548200000000000 H
   0.4936500000000000    0.5488800000000000    0.9833100000000000 H
   0.4300400000000000    0.3883000000000000    0.6934500000000000 H
   0.5475400000000000    0.6049300000000000    0.6478500000000000 H
   0.4885500000000000    0.4477200000000000    0.5190200000000000 H
   0.2793832600484429    0.6928371886891855    0.3555466675893912 H
   0.0109300000000000    0.9079199999999999    0.5354900000000000 C
   0.0153800000000000    0.0891300000000000    0.9671300000000000 C
   0.8957100000000000    0.8384200000000001    0.9145000000000000 C
   0.0000000000000000    0.1597800000000000    0.5871300000000000 C
   0.9657400000000000    0.9291800000000000    0.8410200000000000 C
   0.9636100000000000    0.9109699999999999    0.8976200000000000 C
   0.0303300000000000    0.9464399999999999    0.6356700000000000 C
   0.0000000000000000    0.0690900000000000    0.6610600000000000 C
   0.0093400000000000    0.9986900000000000    0.6768600000000000 C
   0.9992400000000000    0.0351000000000000    0.5630800000000000 C
   0.0000000000000000    0.0869100000000000    0.6043700000000000 C
   0.0216400000000000    0.9643500000000000    0.5788900000000000 C
   0.9978800000000000    0.0000000000000000    0.9390900000000000 C
   0.0235100000000000    0.0329000000000000    0.9235200000000000 C
   0.0330400000000000    0.0511300000000000    0.8668000000000000 C
   0.0095600000000000    0.0000000000000000    0.8254400000000000 C
   0.5151100000000000    0.0884400000000000    0.4669700000000000 C
   0.5063299999999999    0.9077100000000000    0.0353000000000000 C
   0.4028600000000000    0.1595900000000000    0.0877900000000000 C
   0.3966000000000000    0.8372600000000000    0.4154600000000000 C
   0.4645400000000000    0.9276900000000000    0.3413900000000000 C
   0.4625400000000000    0.9098000000000001    0.3980800000000000 C
   0.5325700000000000    0.0497600000000000    0.3668000000000000 C
   0.5085499999999999    0.0000000000000000    0.3256000000000000 C
   0.4970400000000000    0.9613400000000000    0.4393700000000000 C
   0.5229200000000001    0.0318900000000000    0.4235800000000000 C
   0.4677700000000000    0.0682900000000000    0.1614100000000000 C
   0.4669600000000000    0.0864800000000000    0.1047900000000000 C
   0.5256700000000000    0.9456200000000000    0.1355900000000000 C
   0.4981000000000000    0.0347900000000000    0.0633100000000000 C
   0.5180200000000000    0.9639100000000000    0.0788800000000000 C
   0.5065600000000000    0.9976800000000000    0.1769700000000000 C
   0.5107400000000000    0.4078200000000000    0.9673400000000000 C
   0.5104300000000001    0.5885600000000000    0.5353500000000000 C
   0.4026200000000000    0.6596100000000000    0.9146000000000000 C
   0.3968400000000000    0.3372700000000000    0.5874500000000000 C
   0.4672900000000000    0.5683600000000000    0.8410200000000000 C
   0.4671700000000000    0.5865600000000000    0.8976100000000000 C
   0.5282800000000000    0.4458200000000000    0.8669700000000000 C
   0.4996800000000000    0.5349300000000000    0.9391300000000000 C
   0.5209800000000000    0.4640900000000000    0.9236600000000000 C
   0.5070600000000000    0.4978300000000000    0.8255300000000000 C
   0.4636800000000000    0.4277700000000000    0.6613000000000000 C
   0.4621800000000000    0.4098600000000000    0.6046500000000000 C
   0.5285300000000001    0.5499500000000000    0.6355600000000000 C
   0.4958400000000000    0.4614400000000000    0.5632200000000001 C
   0.5196100000000000    0.5320300000000000    0.5788300000000000 C
   0.5060700000000000    0.4979300000000000    0.6768999999999999 C
   0.0161900000000000    0.0236400000000000    0.7694000000000000 N
   0.0153100000000000    0.9745300000000000    0.7329200000000000 N
   0.5118700000000000    0.9731600000000000    0.2329600000000000 N
   0.5154600000000000    0.0221000000000000    0.2695600000000000 N
   0.5129800000000000    0.5222500000000000    0.7328700000000000 N
   0.5119700000000000    0.4733200000000000    0.7695700000000000 N
   1.0204100000000000    0.6536500000000000    1.0500900000000000 O
   0.9902100000000000    0.5710100000000000    0.9837100000000000 O
   0.0126800000000000    0.6885000000000000    0.4570200000000000 O
   0.7284700000000000    0.6914500000000000    0.3908100000000000 O
   0.0123100000000000    0.3086500000000000    0.0464500000000000 O
   0.0100900000000000    0.8433500000000000    0.5508600000000000 O
   0.9897200000000000    0.9258100000000000    0.4838900000000000 O
   0.0205800000000000    0.1537800000000000    0.9520500000000000 O
   0.0000000000000000    0.0711100000000000    0.0186200000000000 O
   0.7258200000000000    0.8081300000000000    0.8900700000000000 O
   0.0111400000000000    0.8086100000000001    0.9561600000000000 O
   0.0000000000000000    0.1914400000000000    0.6112500000000000 O
   0.0184400000000000    0.1886000000000000    0.5454599999999999 O
   0.5201200000000000    0.1529700000000000    0.4515800000000000 O
   0.4901200000000000    0.0708600000000000    0.5185400000000000 O
   0.5005800000000000    0.8431200000000000    0.0505700000000000 O
   0.4901000000000000    0.9258400000000000    0.9836700000000000 O
   0.2327400000000000    0.1913100000000000    0.1119300000000000 O
   0.2288700000000000    0.8057299999999999    0.3911200000000000 O
   0.5115700000000000    0.8085100000000000    0.4576300000000000 O
   0.5203500000000000    0.1886200000000000    0.0000000000000000 O
   0.0104100000000000    0.3435700000000000    0.4517000000000000 O
   0.0000000000000000    0.4258800000000000    0.5186400000000000 O
   0.4901100000000000    0.4259300000000000    0.0000000000000000 O
   0.5098500000000000    0.3431900000000000    0.9522600000000000 O
   0.5102200000000000    0.6530899999999999    0.5507100000000000 O
   0.4897300000000000    0.5709400000000000    0.4837500000000000 O
   0.2327300000000000    0.6913500000000000    0.8905000000000000 O
   0.5195300000000000    0.6885599999999999    0.9560400000000000 O
   0.2284000000000000    0.3058400000000000    0.6118000000000000 O
   0.5130100000000000    0.3085200000000000    0.5453900000000000 O
