Cd8 H18 C48 N6 O25
1.0
   5.6149862062686218    0.0000000000000000    0.0124460199708497
   0.1422498416108370   18.9604530426157503    0.0225033625211490
   0.0000000000000000    0.0000000000000000   23.8880000000000017
Cd H C N O
8 18 48 6 25
direct
   0.9184800000000000    0.8086300000000000    0.4611300000000000 Cd
   0.0000000000000000    0.3087100000000000    0.5417500000000000 Cd
   0.4246700000000000    0.1884300000000000    0.5413000000000000 Cd
   0.4187400000000000    0.8087299999999999    0.9601800000000000 Cd
   0.9249400000000000    0.6884400000000001    0.9603000000000000 Cd
   0.0000000000000000    0.1885700000000000    0.0419600000000000 Cd
   0.4205100000000000    0.3088600000000000    0.0000000000000000 Cd
   0.4198000000000000    0.6884300000000000    0.4608200000000000 Cd
   0.9898500000000000    0.5490100000000000    0.4834900000000000 H
   0.0496600000000000    0.3916400000000000    0.3545100000000000 H
   0.9341800000000000    0.6088900000000000    0.3091200000000000 H
   0.0000000000000000    0.3898300000000000    0.1938900000000000 H
   0.0000000000000000    0.4482500000000000    0.0192600000000000 H
   0.0540800000000000    0.6060100000000000    0.1475500000000000 H
   0.4885500000000000    0.4477200000000000    0.5190200000000000 H
   0.5475400000000000    0.6049300000000000    0.6478500000000000 H
   0.4300400000000000    0.3883000000000000    0.6934500000000000 H
   0.4343800000000000    0.6079000000000000    0.8088100000000000 H
   0.4936500000000000    0.5488800000000000    0.9833100000000000 H
   0.5451300000000000    0.3906500000000000    0.8548200000000000 H
   0.9894400000000000    0.9483900000000000    0.9832900000000000 H
   0.0532000000000000    0.1061500000000000    0.8546000000000000 H
   0.9311300000000000    0.8899600000000000    0.8088600000000000 H
   0.0000000000000000    0.1088000000000000    0.6931000000000000 H
   0.0000000000000000    0.0488000000000000    0.5188400000000000 H
   0.0480700000000000    0.8913700000000000    0.6481200000000000 H
   0.8978200000000000    0.6598200000000000    0.4151100000000000 C
   0.9649700000000000    0.5870700000000000    0.3978900000000000 C
   0.9978399999999999    0.5353100000000000    0.4392700000000000 C
   0.0215300000000000    0.4646100000000000    0.4235900000000000 C
   0.0110700000000000    0.4081000000000000    0.4670400000000000 C
   0.0310800000000000    0.4467000000000000    0.3668500000000000 C
   0.0097400000000000    0.4989000000000000    0.3255600000000000 C
   0.9673800000000000    0.5692400000000000    0.3412300000000000 C
   0.0108500000000000    0.4992000000000000    0.1769700000000000 C
   0.0000000000000000    0.4290500000000000    0.1616000000000000 C
   0.0000000000000000    0.4108300000000000    0.1050200000000000 C
   0.0000000000000000    0.3383200000000000    0.0882200000000000 C
   0.9987400000000000    0.4621300000000000    0.0634200000000000 C
   0.0242400000000000    0.5327600000000000    0.0788100000000000 C
   0.0155000000000000    0.5890000000000000    0.0351200000000000 C
   0.0340300000000000    0.5509900000000000    0.1354700000000000 C
   0.3968400000000000    0.3372700000000000    0.5874500000000000 C
   0.4621800000000000    0.4098600000000000    0.6046500000000000 C
   0.4958400000000000    0.4614400000000000    0.5632200000000001 C
   0.5196100000000000    0.5320300000000000    0.5788300000000000 C
   0.5104300000000001    0.5885600000000000    0.5353500000000000 C
   0.5285300000000001    0.5499500000000000    0.6355600000000000 C
   0.5060700000000000    0.4979300000000000    0.6768999999999999 C
   0.4636800000000000    0.4277700000000000    0.6613000000000000 C
   0.5070600000000000    0.4978300000000000    0.8255300000000000 C
   0.4672900000000000    0.5683600000000000    0.8410200000000000 C
   0.4671700000000000    0.5865600000000000    0.8976100000000000 C
   0.4026200000000000    0.6596100000000000    0.9146000000000000 C
   0.4996800000000000    0.5349300000000000    0.9391300000000000 C
   0.5209800000000000    0.4640900000000000    0.9236600000000000 C
   0.5107400000000000    0.4078200000000000    0.9673400000000000 C
   0.5282800000000000    0.4458200000000000    0.8669700000000000 C
   0.8957100000000000    0.8384200000000001    0.9145000000000000 C
   0.9636100000000000    0.9109699999999999    0.8976200000000000 C
   0.9978800000000000    0.0000000000000000    0.9390900000000000 C
   0.0235100000000000    0.0329000000000000    0.9235200000000000 C
   0.0153800000000000    0.0891300000000000    0.9671300000000000 C
   0.0330400000000000    0.0511300000000000    0.8668000000000000 C
   0.0095600000000000    0.0000000000000000    0.8254400000000000 C
   0.9657400000000000    0.9291800000000000    0.8410200000000000 C
   0.0093400000000000    0.9986900000000000    0.6768600000000000 C
   0.0000000000000000    0.0690900000000000    0.6610600000000000 C
   0.0000000000000000    0.0869100000000000    0.6043700000000000 C
   0.0000000000000000    0.1597800000000000    0.5871300000000000 C
   0.9992400000000000    0.0351000000000000    0.5630800000000000 C
   0.0216400000000000    0.9643500000000000    0.5788900000000000 C
   0.0109300000000000    0.9079199999999999    0.5354900000000000 C
   0.0303300000000000    0.9464399999999999    0.6356700000000000 C
   0.0164300000000000    0.4746400000000000    0.2695800000000000 N
   0.0171900000000000    0.5236300000000000    0.2329300000000000 N
   0.5129800000000000    0.5222500000000000    0.7328700000000000 N
   0.5119700000000000    0.4733200000000000    0.7695700000000000 N
   0.0161900000000000    0.0236400000000000    0.7694000000000000 N
   0.0153100000000000    0.9745300000000000    0.7329200000000000 N
   0.0126800000000000    0.6885000000000000    0.4570200000000000 O
   0.7284700000000000    0.6914500000000000    0.3908100000000000 O
   0.0000000000000000    0.4258800000000000    0.5186400000000000 O
   0.0104100000000000    0.3435700000000000    0.4517000000000000 O
   0.0000000000000000    0.3080300000000000    0.1128000000000000 O
   0.0123100000000000    0.3086500000000000    0.0464500000000000 O
   0.0204100000000000    0.6536500000000000    0.0500900000000000 O
   0.9902100000000000    0.5710100000000000    0.9837100000000000 O
   0.5130100000000000    0.3085200000000000    0.5453900000000000 O
   0.2284000000000000    0.3058400000000000    0.6118000000000000 O
   0.4897300000000000    0.5709400000000000    0.4837500000000000 O
   0.5102200000000000    0.6530899999999999    0.5507100000000000 O
   0.2327300000000000    0.6913500000000000    0.8905000000000000 O
   0.5195300000000000    0.6885599999999999    0.9560400000000000 O
   0.5098500000000000    0.3431900000000000    0.9522600000000000 O
   0.4901100000000000    0.4259300000000000    0.0000000000000000 O
   0.0111400000000000    0.8086100000000001    0.9561600000000000 O
   0.7258200000000000    0.8081300000000000    0.8900700000000000 O
   0.0000000000000000    0.0711100000000000    0.0186200000000000 O
   0.0205800000000000    0.1537800000000000    0.9520500000000000 O
   0.0000000000000000    0.1914400000000000    0.6112500000000000 O
   0.0184400000000000    0.1886000000000000    0.5454599999999999 O
   0.0100900000000000    0.8433500000000000    0.5508600000000000 O
   0.9897200000000000    0.9258100000000000    0.4838900000000000 O
   0.5203500000000000    0.1886200000000000    0.0000000000000000 O
