H1 O1
1.0
  13.6596660806978623    0.0000000000000000   -2.9186549237332438
   0.0000000000000025   15.5120000000000005    0.0000000000000009
   0.0000000000000000    0.0000000000000000   39.0459999999999994
H O
1 1
direct
   0.6608272578356137    0.1565270291242134    0.2625993303314111 H
   0.6183200000000000    0.1109300000000000    0.2683000000000000 O
