H16 C6 N2
1.0
  13.6596660806978623    0.0000000000000000   -2.9186549237332438
   0.0000000000000025   15.5120000000000005    0.0000000000000009
   0.0000000000000000    0.0000000000000000   39.0459999999999994
H C N
16 6 2
direct
   0.0061000000000000    0.0528400000000000    0.8186200000000000 H
   0.8296500000000000    0.0565900000000000    0.7986800000000001 H
   0.8980800000000000    0.0569800000000000    0.8638350000000000 H
   0.7152700000000000    0.0567100000000000    0.8423100000000000 H
   0.4937400000000000    0.0528400000000000    0.9313450000000000 H
   0.6701800000000000    0.0565900000000000    0.9513199999999999 H
   0.6018100000000000    0.0569800000000000    0.8861600000000001 H
   0.7846200000000000    0.0567100000000000    0.9077000000000000 H
   0.4937400000000000    0.9471400000000000    0.9313400000000001 H
   0.6701800000000000    0.9434000000000000    0.9513199999999999 H
   0.6018100000000000    0.9430100000000000    0.8861600000000001 H
   0.7846200000000000    0.9432800000000000    0.9077000000000000 H
   0.0060900000000000    0.9471400000000000    0.8186200000000000 H
   0.8296400000000000    0.9434000000000000    0.7986800000000001 H
   0.8980800000000000    0.9430100000000000    0.8638350000000000 H
   0.7152600000000000    0.9432800000000000    0.8423100000000000 H
   0.8668400000000001    0.9999900000000000    0.8122400000000001 C
   0.8593400000000000    0.9999900000000000    0.8507000000000000 C
   0.7535700000000000    0.9999900000000000    0.8557000000000000 C
   0.6330000000000000    0.9999900000000000    0.9377599999999999 C
   0.6405300000000000    0.9999900000000000    0.8993000000000000 C
   0.7463100000000000    0.9999900000000000    0.8942850000000000 C
   0.9687600000000000    0.9999900000000000    0.8068500000000001 N
   0.5310500000000000    0.9999900000000000    0.9430900000000000 N
