C1 N1
1.0
  13.6596660806978623    0.0000000000000000   -2.9186549237332438
   0.0000000000000025   15.5120000000000005    0.0000000000000009
   0.0000000000000000    0.0000000000000000   39.0459999999999994
C N
1 1
direct
   0.6693600000000000    0.1656800000000000    0.2614550000000000 C
   0.6183200000000000    0.1109300000000000    0.2683000000000000 N
