H4 O2
1.0
  13.6596660806978623    0.0000000000000000   -2.9186549237332438
   0.0000000000000025   15.5120000000000005    0.0000000000000009
   0.0000000000000000    0.0000000000000000   39.0459999999999994
H O
4 2
direct
   0.5983868437685453    0.9999900000000000    0.9395695941413795 H
   0.4976501312240795    0.9999900000000000    0.8845144713906038 H
   0.9014605165043967    0.9999900000000000    0.8104091073002483 H
   1.0019296973405689    0.9999900000000000    0.8655156535111024 H
   0.5310500000000000    0.9999900000000000    0.9430900000000000 O
   0.9687600000000000    0.9999900000000000    0.8068500000000001 O
