H14 C20 N4
1.0
  30.4248869260653869    0.0000000000000000    3.5127460107635806
   1.7440059433430939   30.4004188617282836    3.5140763439429277
   0.0000000000000000    0.0000000000000000   33.1259999999999977
H C N
14 20 4
direct
   0.5734800000000000    0.6120500000000000    0.4757700000000000 H
   0.5813500000000000    0.5383166666666667    0.4620300000000000 H
   0.4295400000000000    0.5008600000000000    0.4536200000000000 H
   0.4939766666666666    0.4722300000000000    0.4084450000000000 H
   0.5844600000000000    0.6865833333333333    0.4625650000000000 H
   0.6841299999999999    0.7567166666666666    0.4929500000000000 H
   0.6232466666666666    0.6618533333333333    0.5849850000000000 H
   0.5486700000000000    0.6507766666666666    0.5982000000000000 H
   0.4785733333333333    0.5511266666666667    0.5678050000000000 H
   0.4428733333333333    0.5505200000000000    0.5056600000000000 H
   0.6969266666666666    0.6539599999999999    0.5987150000000000 H
   0.6849600000000000    0.7923199999999999    0.5550800000000000 H
   0.7347433333333333    0.8055399999999999    0.6070600000000000 H
   0.7632866666666667    0.7411066666666666    0.6522600000000001 H
   0.5469900000000000    0.5316033333333333    0.4608950000000000 C
   0.5133900000000000    0.5488133333333334    0.4879050000000000 C
   0.4702133333333333    0.5373599999999999    0.4856450000000000 C
   0.4627666666666667    0.5097600000000000    0.4568000000000000 C
   0.4982066666666666    0.4942700000000000    0.4311250000000000 C
   0.6052133333333334    0.6917200000000000    0.4860900000000000 C
   0.5435466666666666    0.6300399999999999    0.5746700000000000 C
   0.5664800000000000    0.6355033333333333    0.5355200000000000 C
   0.5564233333333333    0.6088300000000000    0.5066349999999999 C
   0.5243000000000000    0.5779600000000000    0.5174350000000000 C
   0.5035799999999999    0.5747800000000000    0.5574900000000000 C
   0.6604800000000000    0.7317100000000000    0.5000000000000000 C
   0.6573033333333334    0.7110066666666667    0.5433450000000000 C
   0.6264366666666666    0.6788833333333333    0.5541400000000000 C
   0.5997566666666667    0.6688166666666666    0.5252599999999999 C
   0.7037033333333333    0.6882666666666666    0.5998500000000000 C
   0.6865233333333333    0.7218666666666667    0.5728400000000000 C
   0.6980866666666666    0.7649800000000000    0.5750800000000000 C
   0.7257533333333333    0.7723633333333333    0.6039099999999999 C
   0.7411966666666666    0.7369266666666666    0.6295900000000000 C
   0.5400733333333333    0.5049266666666666    0.4328700000000000 N
   0.6350966666666666    0.7223900000000000    0.4749950000000000 N
   0.5128966666666667    0.6001333333333333    0.5857750000000000 N
   0.7304133333333332    0.6951266666666667    0.6278750000000000 N
