Cu72 H494 C700 I72 N140 O4
1.0
  30.4248869260653869    0.0000000000000000    3.5127460107635806
   1.7440059433430939   30.4004188617282836    3.5140763439429277
   0.0000000000000000    0.0000000000000000   33.1259999999999977
Cu H C I N O
72 494 700 72 140 4
direct
   0.0850233333333333    0.9778433333333333    0.6668350000000001 Cu
   0.9239966666666666    0.8168366666666667    0.3939200000000000 Cu
   0.8168566666666666    0.9239933333333332    0.6439250000000000 Cu
   0.9778600000000000    0.0850066666666667    0.9168149999999999 Cu
   0.0850233333333333    0.9778433333333333    0.1668350000000000 Cu
   0.9239966666666666    0.8168366666666667    0.8939200000000000 Cu
   0.8168566666666666    0.9239933333333332    0.1439250000000000 Cu
   0.9778600000000000    0.0850066666666667    0.4168150000000000 Cu
   0.4183566666666667    0.9778433333333333    0.6668350000000001 Cu
   0.2573299999999999    0.8168366666666667    0.3939200000000000 Cu
   0.1501900000000000    0.9239933333333332    0.6439250000000000 Cu
   0.3111933333333333    0.0850066666666667    0.9168149999999999 Cu
   0.4183566666666667    0.9778433333333333    0.1668350000000000 Cu
   0.2573299999999999    0.8168366666666667    0.8939200000000000 Cu
   0.1501900000000000    0.9239933333333332    0.1439250000000000 Cu
   0.3111933333333333    0.0850066666666667    0.4168150000000000 Cu
   0.7516900000000000    0.9778433333333333    0.6668350000000001 Cu
   0.5906633333333333    0.8168366666666667    0.3939200000000000 Cu
   0.4835233333333333    0.9239933333333332    0.6439250000000000 Cu
   0.6445266666666667    0.0850066666666667    0.9168149999999999 Cu
   0.7516900000000000    0.9778433333333333    0.1668350000000000 Cu
   0.5906633333333333    0.8168366666666667    0.8939200000000000 Cu
   0.4835233333333333    0.9239933333333332    0.1439250000000000 Cu
   0.6445266666666667    0.0850066666666667    0.4168150000000000 Cu
   0.4183566666666667    0.6445099999999999    0.6668350000000001 Cu
   0.2573299999999999    0.4835033333333333    0.3939200000000000 Cu
   0.1501900000000000    0.5906600000000000    0.6439250000000000 Cu
   0.3111933333333333    0.7516733333333333    0.9168149999999999 Cu
   0.4183566666666667    0.6445099999999999    0.1668350000000000 Cu
   0.2573299999999999    0.4835033333333333    0.8939200000000000 Cu
   0.1501900000000000    0.5906600000000000    0.1439250000000000 Cu
   0.3111933333333333    0.7516733333333333    0.4168150000000000 Cu
   0.0850233333333333    0.6445099999999999    0.1668350000000000 Cu
   0.9239966666666666    0.4835033333333333    0.8939200000000000 Cu
   0.8168566666666666    0.5906600000000000    0.1439250000000000 Cu
   0.9778600000000000    0.7516733333333333    0.4168150000000000 Cu
   0.0850233333333333    0.6445099999999999    0.6668350000000001 Cu
   0.9239966666666666    0.4835033333333333    0.3939200000000000 Cu
   0.8168566666666666    0.5906600000000000    0.6439250000000000 Cu
   0.9778600000000000    0.7516733333333333    0.9168149999999999 Cu
   0.5906633333333333    0.4835033333333333    0.3939200000000000 Cu
   0.7516900000000000    0.6445099999999999    0.1668350000000000 Cu
   0.5906633333333333    0.4835033333333333    0.8939200000000000 Cu
   0.4835233333333333    0.5906600000000000    0.1439250000000000 Cu
   0.6445266666666667    0.7516733333333333    0.4168150000000000 Cu
   0.7516900000000000    0.6445099999999999    0.6668350000000001 Cu
   0.4835233333333333    0.5906600000000000    0.6439250000000000 Cu
   0.6445266666666667    0.7516733333333333    0.9168149999999999 Cu
   0.4183566666666667    0.3111766666666667    0.6668350000000001 Cu
   0.2573299999999999    0.1501700000000000    0.3939200000000000 Cu
   0.1501900000000000    0.2573266666666666    0.6439250000000000 Cu
   0.3111933333333333    0.4183400000000000    0.9168149999999999 Cu
   0.4183566666666667    0.3111766666666667    0.1668350000000000 Cu
   0.2573299999999999    0.1501700000000000    0.8939200000000000 Cu
   0.1501900000000000    0.2573266666666666    0.1439250000000000 Cu
   0.3111933333333333    0.4183400000000000    0.4168150000000000 Cu
   0.0850233333333333    0.3111766666666667    0.6668350000000001 Cu
   0.9239966666666666    0.1501700000000000    0.3939200000000000 Cu
   0.8168566666666666    0.2573266666666666    0.6439250000000000 Cu
   0.9778600000000000    0.4183400000000000    0.9168149999999999 Cu
   0.0850233333333333    0.3111766666666667    0.1668350000000000 Cu
   0.9239966666666666    0.1501700000000000    0.8939200000000000 Cu
   0.8168566666666666    0.2573266666666666    0.1439250000000000 Cu
   0.9778600000000000    0.4183400000000000    0.4168150000000000 Cu
   0.7516900000000000    0.3111766666666667    0.1668350000000000 Cu
   0.5906633333333333    0.1501700000000000    0.8939200000000000 Cu
   0.4835233333333333    0.2573266666666666    0.1439250000000000 Cu
   0.6445266666666667    0.4183400000000000    0.4168150000000000 Cu
   0.7516900000000000    0.3111766666666667    0.6668350000000001 Cu
   0.5906633333333333    0.1501700000000000    0.3939200000000000 Cu
   0.4835233333333333    0.2573266666666666    0.6439250000000000 Cu
   0.6445266666666667    0.4183400000000000    0.9168149999999999 Cu
   0.7762066666666666    0.8838533333333333    0.5056600000000000 H
   0.7628733333333333    0.8341933333333333    0.4536200000000000 H
   0.8273100000000000    0.8055633333333333    0.4084450000000000 H
   0.9146833333333333    0.8716499999999999    0.4620300000000000 H
   0.0182933333333333    0.1256533333333333    0.5550800000000000 H
   0.0680766666666667    0.1388733333333333    0.6070600000000000 H
   0.0966200000000000    0.0744400000000000    0.6522600000000001 H
   0.0302600000000000    0.9872933333333332    0.5987150000000000 H
   0.9068133333333332    0.9453833333333332    0.4757700000000000 H
   0.8119066666666666    0.8844599999999999    0.5678050000000000 H
   0.8820033333333333    0.9841099999999999    0.5982000000000000 H
   0.9177933333333332    0.0199166666666667    0.4625650000000000 H
   0.0174633333333333    0.0900500000000000    0.4929500000000000 H
   0.9565800000000000    0.9951866666666667    0.5849850000000000 H
   0.1256933333333333    0.0178833333333333    0.8051800000000000 H
   0.1390166666666666    0.0675133333333333    0.8572299999999999 H
   0.0745666666666667    0.0961900000000000    0.9023650000000000 H
   0.9871699999999999    0.0302066666666667    0.8486950000000000 H
   0.9950800000000000    0.9564333333333332    0.8349700000000000 H
   0.0899933333333333    0.0173566666666667    0.7429749999999999 H
   0.0198866666666667    0.9177266666666666    0.7125550000000000 H
   0.8836766666666667    0.7761433333333333    0.7556100000000000 H
   0.8339099999999999    0.7629333333333332    0.7036100000000001 H
   0.8053366666666666    0.8273766666666666    0.6584400000000000 H
   0.8716566666666666    0.9145266666666666    0.7120299999999999 H
   0.9453466666666666    0.9066266666666666    0.7257500000000000 H
   0.8844333333333333    0.8117599999999999    0.8177700000000000 H
   0.9840933333333333    0.8818933333333333    0.8481650000000001 H
   0.7762066666666666    0.8838533333333333    0.0056600000000000 H
   0.7628733333333333    0.8341933333333333    0.9536200000000000 H
   0.8273100000000000    0.8055633333333333    0.9084449999999999 H
   0.9146833333333333    0.8716499999999999    0.9620299999999999 H
   0.0182933333333333    0.1256533333333333    0.0550800000000000 H
   0.0680766666666667    0.1388733333333333    0.1070600000000000 H
   0.0966200000000000    0.0744400000000000    0.1522600000000000 H
   0.0302600000000000    0.9872933333333332    0.0987150000000000 H
   0.9068133333333332    0.9453833333333332    0.9757700000000000 H
   0.8119066666666666    0.8844599999999999    0.0678050000000000 H
   0.8820033333333333    0.9841099999999999    0.0982000000000000 H
   0.9177933333333332    0.0199166666666667    0.9625650000000000 H
   0.0174633333333333    0.0900500000000000    0.9929500000000000 H
   0.9565800000000000    0.9951866666666667    0.0849850000000000 H
   0.1256933333333333    0.0178833333333333    0.3051800000000000 H
   0.1390166666666666    0.0675133333333333    0.3572300000000000 H
   0.0745666666666667    0.0961900000000000    0.4023650000000000 H
   0.9871699999999999    0.0302066666666667    0.3486950000000000 H
   0.9950800000000000    0.9564333333333332    0.3349700000000000 H
   0.0899933333333333    0.0173566666666667    0.2429750000000000 H
   0.0198866666666667    0.9177266666666666    0.2125550000000000 H
   0.8836766666666667    0.7761433333333333    0.2556100000000000 H
   0.8339099999999999    0.7629333333333332    0.2036100000000000 H
   0.8053366666666666    0.8273766666666666    0.1584400000000000 H
   0.8716566666666666    0.9145266666666666    0.2120300000000000 H
   0.9453466666666666    0.9066266666666666    0.2257500000000000 H
   0.8844333333333333    0.8117599999999999    0.3177700000000000 H
   0.9840933333333333    0.8818933333333333    0.3481650000000000 H
   0.1095400000000000    0.8838533333333333    0.5056600000000000 H
   0.0962066666666667    0.8341933333333333    0.4536200000000000 H
   0.1606433333333333    0.8055633333333333    0.4084450000000000 H
   0.2480166666666667    0.8716499999999999    0.4620300000000000 H
   0.3516266666666666    0.1256533333333333    0.5550800000000000 H
   0.4014100000000000    0.1388733333333333    0.6070600000000000 H
   0.4299533333333333    0.0744400000000000    0.6522600000000001 H
   0.3635933333333333    0.9872933333333332    0.5987150000000000 H
   0.2401466666666666    0.9453833333333332    0.4757700000000000 H
   0.1452400000000000    0.8844599999999999    0.5678050000000000 H
   0.2153366666666666    0.9841099999999999    0.5982000000000000 H
   0.2511266666666667    0.0199166666666667    0.4625650000000000 H
   0.3507966666666666    0.0900500000000000    0.4929500000000000 H
   0.2899133333333333    0.9951866666666667    0.5849850000000000 H
   0.4590266666666666    0.0178833333333333    0.8051800000000000 H
   0.4723499999999999    0.0675133333333333    0.8572299999999999 H
   0.4079000000000000    0.0961900000000000    0.9023650000000000 H
   0.3205033333333333    0.0302066666666667    0.8486950000000000 H
   0.3284133333333333    0.9564333333333332    0.8349700000000000 H
   0.4233266666666666    0.0173566666666667    0.7429749999999999 H
   0.3532200000000000    0.9177266666666666    0.7125550000000000 H
   0.2170100000000000    0.7761433333333333    0.7556100000000000 H
   0.1672433333333333    0.7629333333333332    0.7036100000000001 H
   0.1386700000000000    0.8273766666666666    0.6584400000000000 H
   0.2049900000000000    0.9145266666666666    0.7120299999999999 H
   0.2786800000000000    0.9066266666666666    0.7257500000000000 H
   0.2177666666666667    0.8117599999999999    0.8177700000000000 H
   0.3174266666666666    0.8818933333333333    0.8481650000000001 H
   0.1095400000000000    0.8838533333333333    0.0056600000000000 H
   0.0962066666666667    0.8341933333333333    0.9536200000000000 H
   0.1606433333333333    0.8055633333333333    0.9084449999999999 H
   0.2480166666666667    0.8716499999999999    0.9620299999999999 H
   0.3516266666666666    0.1256533333333333    0.0550800000000000 H
   0.4014100000000000    0.1388733333333333    0.1070600000000000 H
   0.4299533333333333    0.0744400000000000    0.1522600000000000 H
   0.3635933333333333    0.9872933333333332    0.0987150000000000 H
   0.2401466666666666    0.9453833333333332    0.9757700000000000 H
   0.1452400000000000    0.8844599999999999    0.0678050000000000 H
   0.2153366666666666    0.9841099999999999    0.0982000000000000 H
   0.2511266666666667    0.0199166666666667    0.9625650000000000 H
   0.3507966666666666    0.0900500000000000    0.9929500000000000 H
   0.2899133333333333    0.9951866666666667    0.0849850000000000 H
   0.4590266666666666    0.0178833333333333    0.3051800000000000 H
   0.4723499999999999    0.0675133333333333    0.3572300000000000 H
   0.4079000000000000    0.0961900000000000    0.4023650000000000 H
   0.3205033333333333    0.0302066666666667    0.3486950000000000 H
   0.3284133333333333    0.9564333333333332    0.3349700000000000 H
   0.4233266666666666    0.0173566666666667    0.2429750000000000 H
   0.3532200000000000    0.9177266666666666    0.2125550000000000 H
   0.2170100000000000    0.7761433333333333    0.2556100000000000 H
   0.1672433333333333    0.7629333333333332    0.2036100000000000 H
   0.1386700000000000    0.8273766666666666    0.1584400000000000 H
   0.2049900000000000    0.9145266666666666    0.2120300000000000 H
   0.2786800000000000    0.9066266666666666    0.2257500000000000 H
   0.2177666666666667    0.8117599999999999    0.3177700000000000 H
   0.3174266666666666    0.8818933333333333    0.3481650000000000 H
   0.4428733333333333    0.8838533333333333    0.5056600000000000 H
   0.4295400000000000    0.8341933333333333    0.4536200000000000 H
   0.4939766666666666    0.8055633333333333    0.4084450000000000 H
   0.5813500000000000    0.8716499999999999    0.4620300000000000 H
   0.6849600000000000    0.1256533333333333    0.5550800000000000 H
   0.7347433333333333    0.1388733333333333    0.6070600000000000 H
   0.7632866666666667    0.0744400000000000    0.6522600000000001 H
   0.6969266666666666    0.9872933333333332    0.5987150000000000 H
   0.5734800000000000    0.9453833333333332    0.4757700000000000 H
   0.4785733333333333    0.8844599999999999    0.5678050000000000 H
   0.5486700000000000    0.9841099999999999    0.5982000000000000 H
   0.5844600000000000    0.0199166666666667    0.4625650000000000 H
   0.6841299999999999    0.0900500000000000    0.4929500000000000 H
   0.6232466666666666    0.9951866666666667    0.5849850000000000 H
   0.7923600000000000    0.0178833333333333    0.8051800000000000 H
   0.8056833333333333    0.0675133333333333    0.8572299999999999 H
   0.7412333333333333    0.0961900000000000    0.9023650000000000 H
   0.6538366666666666    0.0302066666666667    0.8486950000000000 H
   0.6617466666666667    0.9564333333333332    0.8349700000000000 H
   0.7566600000000000    0.0173566666666667    0.7429749999999999 H
   0.6865533333333333    0.9177266666666666    0.7125550000000000 H
   0.5503433333333333    0.7761433333333333    0.7556100000000000 H
   0.5005766666666667    0.7629333333333332    0.7036100000000001 H
   0.4720033333333333    0.8273766666666666    0.6584400000000000 H
   0.5383233333333333    0.9145266666666666    0.7120299999999999 H
   0.6120133333333333    0.9066266666666666    0.7257500000000000 H
   0.5510999999999999    0.8117599999999999    0.8177700000000000 H
   0.6507600000000000    0.8818933333333333    0.8481650000000001 H
   0.4428733333333333    0.8838533333333333    0.0056600000000000 H
   0.4295400000000000    0.8341933333333333    0.9536200000000000 H
   0.4939766666666666    0.8055633333333333    0.9084449999999999 H
   0.5813500000000000    0.8716499999999999    0.9620299999999999 H
   0.6849600000000000    0.1256533333333333    0.0550800000000000 H
   0.7347433333333333    0.1388733333333333    0.1070600000000000 H
   0.7632866666666667    0.0744400000000000    0.1522600000000000 H
   0.6969266666666666    0.9872933333333332    0.0987150000000000 H
   0.5734800000000000    0.9453833333333332    0.9757700000000000 H
   0.4785733333333333    0.8844599999999999    0.0678050000000000 H
   0.5486700000000000    0.9841099999999999    0.0982000000000000 H
   0.5844600000000000    0.0199166666666667    0.9625650000000000 H
   0.6841299999999999    0.0900500000000000    0.9929500000000000 H
   0.6232466666666666    0.9951866666666667    0.0849850000000000 H
   0.7923600000000000    0.0178833333333333    0.3051800000000000 H
   0.8056833333333333    0.0675133333333333    0.3572300000000000 H
   0.7412333333333333    0.0961900000000000    0.4023650000000000 H
   0.6538366666666666    0.0302066666666667    0.3486950000000000 H
   0.6617466666666667    0.9564333333333332    0.3349700000000000 H
   0.7566600000000000    0.0173566666666667    0.2429750000000000 H
   0.6865533333333333    0.9177266666666666    0.2125550000000000 H
   0.5503433333333333    0.7761433333333333    0.2556100000000000 H
   0.5005766666666667    0.7629333333333332    0.2036100000000000 H
   0.4720033333333333    0.8273766666666666    0.1584400000000000 H
   0.5383233333333333    0.9145266666666666    0.2120300000000000 H
   0.6120133333333333    0.9066266666666666    0.2257500000000000 H
   0.5510999999999999    0.8117599999999999    0.3177700000000000 H
   0.6507600000000000    0.8818933333333333    0.3481650000000000 H
   0.1095400000000000    0.5505200000000000    0.5056600000000000 H
   0.0962066666666667    0.5008600000000000    0.4536200000000000 H
   0.1606433333333333    0.4722300000000000    0.4084450000000000 H
   0.2480166666666667    0.5383166666666667    0.4620300000000000 H
   0.3516266666666666    0.7923199999999999    0.5550800000000000 H
   0.4014100000000000    0.8055399999999999    0.6070600000000000 H
   0.4299533333333333    0.7411066666666666    0.6522600000000001 H
   0.3635933333333333    0.6539599999999999    0.5987150000000000 H
   0.2401466666666666    0.6120500000000000    0.4757700000000000 H
   0.1452400000000000    0.5511266666666667    0.5678050000000000 H
   0.2153366666666666    0.6507766666666666    0.5982000000000000 H
   0.2511266666666667    0.6865833333333333    0.4625650000000000 H
   0.3507966666666666    0.7567166666666666    0.4929500000000000 H
   0.2899133333333333    0.6618533333333333    0.5849850000000000 H
   0.4590266666666666    0.6845500000000000    0.8051800000000000 H
   0.4723499999999999    0.7341799999999999    0.8572299999999999 H
   0.4079000000000000    0.7628566666666666    0.9023650000000000 H
   0.3205033333333333    0.6968733333333333    0.8486950000000000 H
   0.3284133333333333    0.6231000000000000    0.8349700000000000 H
   0.4233266666666666    0.6840233333333333    0.7429749999999999 H
   0.3532200000000000    0.5843933333333333    0.7125550000000000 H
   0.2170100000000000    0.4428100000000000    0.7556100000000000 H
   0.1672433333333333    0.4296000000000000    0.7036100000000001 H
   0.1386700000000000    0.4940433333333333    0.6584400000000000 H
   0.2049900000000000    0.5811933333333333    0.7120299999999999 H
   0.2786800000000000    0.5732933333333333    0.7257500000000000 H
   0.2177666666666667    0.4784266666666667    0.8177700000000000 H
   0.3174266666666666    0.5485599999999999    0.8481650000000001 H
   0.1095400000000000    0.5505200000000000    0.0056600000000000 H
   0.0962066666666667    0.5008600000000000    0.9536200000000000 H
   0.1606433333333333    0.4722300000000000    0.9084449999999999 H
   0.2480166666666667    0.5383166666666667    0.9620299999999999 H
   0.3516266666666666    0.7923199999999999    0.0550800000000000 H
   0.4014100000000000    0.8055399999999999    0.1070600000000000 H
   0.4299533333333333    0.7411066666666666    0.1522600000000000 H
   0.3635933333333333    0.6539599999999999    0.0987150000000000 H
   0.2401466666666666    0.6120500000000000    0.9757700000000000 H
   0.1452400000000000    0.5511266666666667    0.0678050000000000 H
   0.2153366666666666    0.6507766666666666    0.0982000000000000 H
   0.2511266666666667    0.6865833333333333    0.9625650000000000 H
   0.3507966666666666    0.7567166666666666    0.9929500000000000 H
   0.2899133333333333    0.6618533333333333    0.0849850000000000 H
   0.4590266666666666    0.6845500000000000    0.3051800000000000 H
   0.4723499999999999    0.7341799999999999    0.3572300000000000 H
   0.4079000000000000    0.7628566666666666    0.4023650000000000 H
   0.3205033333333333    0.6968733333333333    0.3486950000000000 H
   0.3284133333333333    0.6231000000000000    0.3349700000000000 H
   0.4233266666666666    0.6840233333333333    0.2429750000000000 H
   0.3532200000000000    0.5843933333333333    0.2125550000000000 H
   0.2170100000000000    0.4428100000000000    0.2556100000000000 H
   0.1672433333333333    0.4296000000000000    0.2036100000000000 H
   0.1386700000000000    0.4940433333333333    0.1584400000000000 H
   0.2049900000000000    0.5811933333333333    0.2120300000000000 H
   0.2786800000000000    0.5732933333333333    0.2257500000000000 H
   0.2177666666666667    0.4784266666666667    0.3177700000000000 H
   0.3174266666666666    0.5485599999999999    0.3481650000000000 H
   0.7762066666666666    0.5505200000000000    0.0056600000000000 H
   0.7628733333333333    0.5008600000000000    0.9536200000000000 H
   0.8273100000000000    0.4722300000000000    0.9084449999999999 H
   0.9146833333333333    0.5383166666666667    0.9620299999999999 H
   0.0182933333333333    0.7923199999999999    0.0550800000000000 H
   0.0680766666666667    0.8055399999999999    0.1070600000000000 H
   0.0966200000000000    0.7411066666666666    0.1522600000000000 H
   0.0302600000000000    0.6539599999999999    0.0987150000000000 H
   0.9068133333333332    0.6120500000000000    0.9757700000000000 H
   0.8119066666666666    0.5511266666666667    0.0678050000000000 H
   0.8820033333333333    0.6507766666666666    0.0982000000000000 H
   0.9177933333333332    0.6865833333333333    0.9625650000000000 H
   0.0174633333333333    0.7567166666666666    0.9929500000000000 H
   0.9565800000000000    0.6618533333333333    0.0849850000000000 H
   0.1256933333333333    0.6845500000000000    0.3051800000000000 H
   0.1390166666666666    0.7341799999999999    0.3572300000000000 H
   0.0745666666666667    0.7628566666666666    0.4023650000000000 H
   0.9871699999999999    0.6968733333333333    0.3486950000000000 H
   0.9950800000000000    0.6231000000000000    0.3349700000000000 H
   0.0899933333333333    0.6840233333333333    0.2429750000000000 H
   0.0198866666666667    0.5843933333333333    0.2125550000000000 H
   0.8836766666666667    0.4428100000000000    0.2556100000000000 H
   0.8339099999999999    0.4296000000000000    0.2036100000000000 H
   0.8053366666666666    0.4940433333333333    0.1584400000000000 H
   0.8716566666666666    0.5811933333333333    0.2120300000000000 H
   0.9453466666666666    0.5732933333333333    0.2257500000000000 H
   0.8844333333333333    0.4784266666666667    0.3177700000000000 H
   0.9840933333333333    0.5485599999999999    0.3481650000000000 H
   0.7762066666666666    0.5505200000000000    0.5056600000000000 H
   0.7628733333333333    0.5008600000000000    0.4536200000000000 H
   0.8273100000000000    0.4722300000000000    0.4084450000000000 H
   0.9146833333333333    0.5383166666666667    0.4620300000000000 H
   0.0182933333333333    0.7923199999999999    0.5550800000000000 H
   0.0680766666666667    0.8055399999999999    0.6070600000000000 H
   0.0966200000000000    0.7411066666666666    0.6522600000000001 H
   0.0302600000000000    0.6539599999999999    0.5987150000000000 H
   0.9068133333333332    0.6120500000000000    0.4757700000000000 H
   0.8119066666666666    0.5511266666666667    0.5678050000000000 H
   0.8820033333333333    0.6507766666666666    0.5982000000000000 H
   0.9177933333333332    0.6865833333333333    0.4625650000000000 H
   0.0174633333333333    0.7567166666666666    0.4929500000000000 H
   0.9565800000000000    0.6618533333333333    0.5849850000000000 H
   0.1256933333333333    0.6845500000000000    0.8051800000000000 H
   0.1390166666666666    0.7341799999999999    0.8572299999999999 H
   0.0745666666666667    0.7628566666666666    0.9023650000000000 H
   0.9871699999999999    0.6968733333333333    0.8486950000000000 H
   0.9950800000000000    0.6231000000000000    0.8349700000000000 H
   0.0899933333333333    0.6840233333333333    0.7429749999999999 H
   0.0198866666666667    0.5843933333333333    0.7125550000000000 H
   0.8836766666666667    0.4428100000000000    0.7556100000000000 H
   0.8339099999999999    0.4296000000000000    0.7036100000000001 H
   0.8053366666666666    0.4940433333333333    0.6584400000000000 H
   0.8716566666666666    0.5811933333333333    0.7120299999999999 H
   0.9453466666666666    0.5732933333333333    0.7257500000000000 H
   0.8844333333333333    0.4784266666666667    0.8177700000000000 H
   0.9840933333333333    0.5485599999999999    0.8481650000000001 H
   0.6547030271226199    0.7295888685272285    0.4943091317085138 H
   0.5450922235052832    0.5242838609057582    0.4532055754798403 H
   0.4428733333333333    0.5505200000000000    0.0056600000000000 H
   0.4295400000000000    0.5008600000000000    0.9536200000000000 H
   0.4939766666666666    0.4722300000000000    0.9084449999999999 H
   0.5813500000000000    0.5383166666666667    0.9620299999999999 H
   0.6849600000000000    0.7923199999999999    0.0550800000000000 H
   0.7347433333333333    0.8055399999999999    0.1070600000000000 H
   0.7632866666666667    0.7411066666666666    0.1522600000000000 H
   0.6969266666666666    0.6539599999999999    0.0987150000000000 H
   0.5734800000000000    0.6120500000000000    0.9757700000000000 H
   0.4785733333333333    0.5511266666666667    0.0678050000000000 H
   0.5486700000000000    0.6507766666666666    0.0982000000000000 H
   0.5844600000000000    0.6865833333333333    0.9625650000000000 H
   0.6841299999999999    0.7567166666666666    0.9929500000000000 H
   0.6232466666666666    0.6618533333333333    0.0849850000000000 H
   0.7923600000000000    0.6845500000000000    0.3051800000000000 H
   0.8056833333333333    0.7341799999999999    0.3572300000000000 H
   0.7412333333333333    0.7628566666666666    0.4023650000000000 H
   0.6538366666666666    0.6968733333333333    0.3486950000000000 H
   0.6617466666666667    0.6231000000000000    0.3349700000000000 H
   0.7566600000000000    0.6840233333333333    0.2429750000000000 H
   0.6865533333333333    0.5843933333333333    0.2125550000000000 H
   0.5503433333333333    0.4428100000000000    0.2556100000000000 H
   0.5005766666666667    0.4296000000000000    0.2036100000000000 H
   0.4720033333333333    0.4940433333333333    0.1584400000000000 H
   0.5383233333333333    0.5811933333333333    0.2120300000000000 H
   0.6120133333333333    0.5732933333333333    0.2257500000000000 H
   0.5510999999999999    0.4784266666666667    0.3177700000000000 H
   0.6507600000000000    0.5485599999999999    0.3481650000000000 H
   0.5061433291730464    0.5817555569553458    0.5652721573158804 H
   0.7110294441397262    0.6901482510969120    0.6075367935360974 H
   0.7923600000000000    0.6845500000000000    0.8051800000000000 H
   0.8056833333333333    0.7341799999999999    0.8572299999999999 H
   0.7412333333333333    0.7628566666666666    0.9023650000000000 H
   0.6538366666666666    0.6968733333333333    0.8486950000000000 H
   0.6617466666666667    0.6231000000000000    0.8349700000000000 H
   0.7566600000000000    0.6840233333333333    0.7429749999999999 H
   0.6865533333333333    0.5843933333333333    0.7125550000000000 H
   0.5503433333333333    0.4428100000000000    0.7556100000000000 H
   0.5005766666666667    0.4296000000000000    0.7036100000000001 H
   0.4720033333333333    0.4940433333333333    0.6584400000000000 H
   0.5383233333333333    0.5811933333333333    0.7120299999999999 H
   0.6120133333333333    0.5732933333333333    0.7257500000000000 H
   0.5510999999999999    0.4784266666666667    0.8177700000000000 H
   0.6507600000000000    0.5485599999999999    0.8481650000000001 H
   0.1095400000000000    0.2171866666666667    0.5056600000000000 H
   0.0962066666666667    0.1675266666666667    0.4536200000000000 H
   0.1606433333333333    0.1388966666666667    0.4084450000000000 H
   0.2480166666666667    0.2049833333333333    0.4620300000000000 H
   0.3516266666666666    0.4589866666666667    0.5550800000000000 H
   0.4014100000000000    0.4722066666666667    0.6070600000000000 H
   0.4299533333333333    0.4077733333333333    0.6522600000000001 H
   0.3635933333333333    0.3206266666666666    0.5987150000000000 H
   0.2401466666666666    0.2787166666666666    0.4757700000000000 H
   0.1452400000000000    0.2177933333333333    0.5678050000000000 H
   0.2153366666666666    0.3174433333333333    0.5982000000000000 H
   0.2511266666666667    0.3532500000000000    0.4625650000000000 H
   0.3507966666666666    0.4233833333333333    0.4929500000000000 H
   0.2899133333333333    0.3285200000000000    0.5849850000000000 H
   0.4590266666666666    0.3512166666666666    0.8051800000000000 H
   0.4723499999999999    0.4008466666666666    0.8572299999999999 H
   0.4079000000000000    0.4295233333333333    0.9023650000000000 H
   0.3205033333333333    0.3635400000000000    0.8486950000000000 H
   0.3284133333333333    0.2897666666666666    0.8349700000000000 H
   0.4233266666666666    0.3506900000000000    0.7429749999999999 H
   0.3532200000000000    0.2510599999999999    0.7125550000000000 H
   0.2170100000000000    0.1094766666666667    0.7556100000000000 H
   0.1672433333333333    0.0962666666666667    0.7036100000000001 H
   0.1386700000000000    0.1607100000000000    0.6584400000000000 H
   0.2049900000000000    0.2478600000000000    0.7120299999999999 H
   0.2786800000000000    0.2399600000000000    0.7257500000000000 H
   0.2177666666666667    0.1450933333333333    0.8177700000000000 H
   0.3174266666666666    0.2152266666666667    0.8481650000000001 H
   0.1095400000000000    0.2171866666666667    0.0056600000000000 H
   0.0962066666666667    0.1675266666666667    0.9536200000000000 H
   0.1606433333333333    0.1388966666666667    0.9084449999999999 H
   0.2480166666666667    0.2049833333333333    0.9620299999999999 H
   0.3516266666666666    0.4589866666666667    0.0550800000000000 H
   0.4014100000000000    0.4722066666666667    0.1070600000000000 H
   0.4299533333333333    0.4077733333333333    0.1522600000000000 H
   0.3635933333333333    0.3206266666666666    0.0987150000000000 H
   0.2401466666666666    0.2787166666666666    0.9757700000000000 H
   0.1452400000000000    0.2177933333333333    0.0678050000000000 H