H4 O4
1.0
  30.4248869260653869    0.0000000000000000    3.5127460107635806
   1.7440059433430939   30.4004188617282836    3.5140763439429277
   0.0000000000000000    0.0000000000000000   33.1259999999999977
H O
4 4
direct
   0.5450922235052832    0.5242838609057582    0.4532055754798403 H
   0.5061433291730464    0.5817555569553458    0.5652721573158804 H
   0.7110294441397262    0.6901482510969120    0.6075367935360974 H
   0.6547030271226199    0.7295888685272285    0.4943091317085138 H
   0.5400733333333333    0.5049266666666666    0.4328700000000000 O
   0.5128966666666667    0.6001333333333333    0.5857750000000000 O
   0.7304133333333332    0.6951266666666667    0.6278750000000000 O
   0.6350966666666666    0.7223900000000000    0.4749950000000000 O
