H4 O3
1.0
  12.7645181064589650    0.0000000000000000   -4.2199779039565231
  -0.9462934635760799   14.1681378330932031   -0.1918333215743450
   0.0000000000000000    0.0000000000000000   19.0450000000000017
H O
4 3
direct
   0.0222298990663463    0.6556956462719272    0.2368159663469602 H
   0.3885947326123882    0.8554864995548013    0.4574395494859965 H
   0.3043561232169181    0.0750771199783929    0.3381033873169835 H
   0.3303401739538425    0.9755796794997413    0.3833344366090130 H
   0.0334800000000000    0.5950200000000000    0.2608600000000000 O
   0.4077600000000000    0.9217400000000000    0.4537800000000000 O
   0.3499500000000000    0.0433700000000000    0.3795900000000000 O
