H12 C15 N6
1.0
  12.7645181064589650    0.0000000000000000   -4.2199779039565231
  -0.9462934635760799   14.1681378330932031   -0.1918333215743450
   0.0000000000000000    0.0000000000000000   19.0450000000000017
H C N
12 15 6
direct
   0.0556600000000000    0.4457700000000000    0.3776000000000000 H
   0.1041700000000000    0.2680600000000000    0.2144700000000000 H
   0.2497000000000000    0.2320700000000000    0.3497800000000000 H
   0.2763300000000000    0.6024700000000000    0.5929400000000000 H
   0.1898400000000000    0.6803700000000000    0.6933300000000000 H
   0.1614400000000000    0.3845300000000000    0.7040000000000000 H
   0.1817200000000000    0.4780300000000000    0.4898900000000000 H
   0.2479400000000000    0.1892800000000000    0.4588700000000000 H
   0.3113700000000000    0.3085600000000000    0.6795800000000000 H
   0.3827200000000000    0.1012200000000000    0.5140500000000000 H
   0.2941300000000000    0.1550400000000000    0.7057000000000000 H
   0.3710900000000000    0.9773600000000000    0.7117200000000000 H
   0.0881400000000000    0.3935600000000000    0.3507600000000000 C
   0.1160800000000000    0.3002000000000000    0.2686700000000000 C
   0.1873800000000000    0.2802300000000000    0.3349000000000000 C
   0.2377100000000000    0.5695000000000000    0.6295700000000000 C
   0.1959600000000000    0.6070000000000000    0.6800400000000000 C
   0.1809600000000000    0.4548500000000000    0.6894000000000000 C
   0.2439100000000000    0.3995400000000000    0.5887000000000000 C
   0.2114400000000000    0.4114500000000000    0.5122400000000000 C
   0.2135400000000000    0.3350300000000000    0.4658300000000000 C
   0.2509300000000000    0.2497200000000000    0.4951700000000000 C
   0.2879200000000000    0.2413500000000000    0.5717600000000000 C
   0.2844800000000000    0.3157700000000000    0.6196000000000000 C
   0.3676700000000000    0.0890700000000000    0.5658400000000000 C
   0.3216600000000000    0.1160100000000000    0.6668200000000000 C
   0.3607100000000000    0.0289400000000000    0.6691000000000000 C
   0.0547000000000000    0.3710700000000000    0.2789000000000000 N
   0.1691700000000000    0.3401000000000000    0.3875000000000000 N
   0.2280600000000000    0.4719200000000000    0.6360800000000000 N
   0.1602300000000000    0.5351300000000000    0.7164100000000000 N
   0.3259300000000000    0.1539100000000000    0.6005900000000000 N
   0.3889400000000000    0.0128100000000000    0.6059800000000000 N
