C8 O4
1.0
  12.7645181064589650    0.0000000000000000   -4.2199779039565231
  -0.9462934635760799   14.1681378330932031   -0.1918333215743450
   0.0000000000000000    0.0000000000000000   19.0450000000000017
C O
8 4
direct
   0.0187600000000000    0.6744100000000000    0.2294000000000000 C
   0.0972300000000000    0.7541300000000000    0.2711500000000000 C
   0.1861100000000000    0.7779400000000000    0.2499000000000000 C
   0.2628300000000000    0.8464800000000000    0.2897300000000000 C
   0.2532500000000000    0.8931700000000000    0.3523700000000000 C
   0.1624000000000000    0.8725300000000000    0.3718900000000000 C
   0.0854000000000000    0.8041199999999999    0.3316900000000000 C
   0.3438600000000000    0.9587700000000000    0.3998800000000000 C
   0.0334800000000000    0.5950200000000000    0.2608600000000000 O
   0.9509800000000000    0.6915600000000000    0.1699000000000000 O
   0.3499500000000000    0.0433700000000000    0.3795900000000000 O
   0.4077600000000000    0.9217400000000000    0.4537800000000000 O
