Cd4 H48 C84 Br16 N24 O12
1.0
  12.7645181064589650    0.0000000000000000   -4.2199779039565231
  -0.9462934635760799   14.1681378330932031   -0.1918333215743450
   0.0000000000000000    0.0000000000000000   19.0450000000000017
Cd H C Br N O
4 48 84 16 24 12
direct
   0.4768500000000000    0.8878200000000001    0.5816000000000000 Cd
   0.0690800000000000    0.5305200000000000    0.8050000000000000 Cd
   0.5231100000000000    0.1121200000000000    0.4183000000000000 Cd
   0.9308700000000000    0.4694300000000000    0.1949500000000000 Cd
   0.1752200000000000    0.4342600000000000    0.1711000000000000 H
   0.8759100000000000    0.3972900000000000    0.0112500000000000 H
   0.0216800000000000    0.3219600000000000    0.9531900000000000 H
   0.1917900000000000    0.3505100000000000    0.9430200000000000 H
   0.4798800000000000    0.2220700000000000    0.0573100000000000 H
   0.2764300000000000    0.3072600000000000    0.1780300000000000 H
   0.3499300000000000    0.1631900000000000    0.2417800000000000 H
   0.6069400000000000    0.2812700000000000    0.1791000000000000 H
   0.6795000000000000    0.2046000000000000    0.3184400000000000 H
   0.2044500000000000    0.2800000000000000    0.8440800000000001 H
   0.4975200000000000    0.2438500000000000    0.8135200000000000 H
   0.5284400000000000    0.2621100000000000    0.9630700000000000 H
   0.0556600000000000    0.4457700000000000    0.3776000000000000 H
   0.1041700000000000    0.2680600000000000    0.2144700000000000 H
   0.2497000000000000    0.2320700000000000    0.3497800000000000 H
   0.2763300000000000    0.6024700000000000    0.5929400000000000 H
   0.1898400000000000    0.6803700000000000    0.6933300000000000 H
   0.1614400000000000    0.3845300000000000    0.7040000000000000 H
   0.1817200000000000    0.4780300000000000    0.4898900000000000 H
   0.2479400000000000    0.1892800000000000    0.4588700000000000 H
   0.3113700000000000    0.3085600000000000    0.6795800000000000 H
   0.3827200000000000    0.1012200000000000    0.5140500000000000 H
   0.2941300000000000    0.1550400000000000    0.7057000000000000 H
   0.3710900000000000    0.9773600000000000    0.7117200000000000 H
   0.8247400000000000    0.5657200000000000    0.8288600000000000 H
   0.1240600000000000    0.6027000000000000    0.9887000000000000 H
   0.9782999999999999    0.6780400000000000    0.0467600000000000 H
   0.8081800000000000    0.6494799999999999    0.0569300000000000 H
   0.5200900000000001    0.7779100000000000    0.9426500000000000 H
   0.7235400000000000    0.6927200000000000    0.8219000000000000 H
   0.6500300000000000    0.8367900000000000    0.7581599999999999 H
   0.3930300000000000    0.7187200000000000    0.8208600000000000 H
   0.3204600000000000    0.7953700000000000    0.6815099999999999 H
   0.7955200000000000    0.7199800000000000    0.1558800000000000 H
   0.5024500000000000    0.7561300000000000    0.1864300000000000 H
   0.4715300000000000    0.7378900000000000    0.0368800000000000 H
   0.9443000000000000    0.5542000000000000    0.6222800000000001 H
   0.8958000000000000    0.7319099999999999    0.7854900000000000 H
   0.7502799999999999    0.7679100000000000    0.6501800000000000 H
   0.7236200000000000    0.3975100000000000    0.4070100000000000 H
   0.8101000000000000    0.3196000000000000    0.3066300000000000 H
   0.8385300000000000    0.6154300000000000    0.2955600000000000 H
   0.8182500000000000    0.5219400000000000    0.5100600000000000 H
   0.7520400000000000    0.8107000000000000    0.5410900000000000 H
   0.6886000000000000    0.6914100000000000    0.3203800000000000 H
   0.6172700000000000    0.8987600000000000    0.4859100000000000 H
   0.7058400000000000    0.8449300000000000    0.2941700000000000 H
   0.6288700000000000    0.0226100000000000    0.2882300000000000 H
   0.1124000000000000    0.4130900000000000    0.1209000000000000 C
   0.9599000000000000    0.3931000000000000    0.0356900000000000 C
   0.0305000000000000    0.3554900000000000    0.0065400000000000 C
   0.2227800000000000    0.3296500000000000    0.0598600000000000 C
   0.2442700000000000    0.3226900000000000    0.9930000000000000 C
   0.3372500000000000    0.2837300000000000    0.9922100000000000 C
   0.4083800000000000    0.2537700000000000    0.0576000000000000 C
   0.3854600000000000    0.2629100000000000    0.1237500000000000 C
   0.2927800000000000    0.3003900000000000    0.1258400000000000 C
   0.4298900000000000    0.1855500000000000    0.2454100000000000 C
   0.5658200000000000    0.2445500000000000    0.2126300000000000 C
   0.6001100000000000    0.2065800000000000    0.2811500000000000 C
   0.2877200000000000    0.2725300000000000    0.8541800000000001 C
   0.4399200000000000    0.2523700000000000    0.8418000000000000 C
   0.4571300000000000    0.2604300000000000    0.9164300000000000 C
   0.0881400000000000    0.3935600000000000    0.3507600000000000 C
   0.1160800000000000    0.3002000000000000    0.2686700000000000 C
   0.1873800000000000    0.2802300000000000    0.3349000000000000 C
   0.2377100000000000    0.5695000000000000    0.6295700000000000 C
   0.1959600000000000    0.6070000000000000    0.6800400000000000 C
   0.1809600000000000    0.4548500000000000    0.6894000000000000 C
   0.2439100000000000    0.3995400000000000    0.5887000000000000 C
   0.2114400000000000    0.4114500000000000    0.5122400000000000 C
   0.2135400000000000    0.3350300000000000    0.4658300000000000 C
   0.2509300000000000    0.2497200000000000    0.4951700000000000 C
   0.2879200000000000    0.2413500000000000    0.5717600000000000 C
   0.2844800000000000    0.3157700000000000    0.6196000000000000 C
   0.3676700000000000    0.0890700000000000    0.5658400000000000 C
   0.3216600000000000    0.1160100000000000    0.6668200000000000 C
   0.3607100000000000    0.0289400000000000    0.6691000000000000 C
   0.4696500000000000    0.6948100000000000    0.5401500000000000 C
   0.4865300000000000    0.5943600000000000    0.5194200000000000 C
   0.5206400000000000    0.5273500000000000    0.5737300000000000 C
   0.5334800000000000    0.4340300000000000    0.5548900000000000 C
   0.7028200000000000    0.4336700000000000    0.0915900000000000 C
   0.5982100000000000    0.4684200000000000    0.0439300000000000 C
   0.5239800000000000    0.4964900000000000    0.0764700000000000 C
   0.4274200000000000    0.5272000000000000    0.0330800000000000 C
   0.8875700000000000    0.5868900000000000    0.8790600000000000 C
   0.0400700000000000    0.6068900000000000    0.9642600000000000 C
   0.9694700000000001    0.6445000000000000    0.9934100000000000 C
   0.7771900000000000    0.6703400000000000    0.9401000000000000 C
   0.7557000000000000    0.6773000000000000    0.0069300000000000 C
   0.6627200000000000    0.7162600000000000    0.0077500000000000 C
   0.5915899999999999    0.7462200000000000    0.9423600000000000 C
   0.6145100000000000    0.7370700000000000    0.8762000000000000 C
   0.7071900000000000    0.6996000000000000    0.8741200000000000 C
   0.5700800000000000    0.8144200000000000    0.7545400000000000 C
   0.4341500000000000    0.7554300000000000    0.7873300000000000 C
   0.3998600000000000    0.7933900000000000    0.7188000000000000 C
   0.7122500000000000    0.7274500000000000    0.1457800000000000 C
   0.5600500000000000    0.7476200000000000    0.1581100000000000 C
   0.5428400000000000    0.7395600000000000    0.0835200000000000 C
   0.9118200000000000    0.6064100000000000    0.6491900000000000 C
   0.8838900000000000    0.6997700000000000    0.7312900000000000 C
   0.8126000000000000    0.7197500000000000    0.6649900000000000 C
   0.7622400000000000    0.4304700000000000    0.3703900000000000 C
   0.8039900000000000    0.3929700000000000    0.3199100000000000 C
   0.8190100000000000    0.5451100000000000    0.3105600000000000 C
   0.7560600000000000    0.6004300000000000    0.4112600000000000 C
   0.7885300000000000    0.5885300000000000    0.4877200000000000 C
   0.7864300000000000    0.6649500000000000    0.5341300000000000 C
   0.7490400000000000    0.7502500000000000    0.5047800000000000 C
   0.7120600000000000    0.7586200000000000    0.4282000000000000 C
   0.7154900000000000    0.6842000000000000    0.3803400000000000 C
   0.6323100000000000    0.9109000000000000    0.4341200000000000 C
   0.6783200000000000    0.8839600000000000    0.3331300000000000 C
   0.6392600000000001    0.9710299999999999    0.3308500000000000 C
   0.5302900000000000    0.3051200000000000    0.4598000000000000 C
   0.5133700000000000    0.4055600000000000    0.4805500000000000 C
   0.4792600000000000    0.4725700000000000    0.4262400000000000 C
   0.4664200000000000    0.5658800000000000    0.4450000000000000 C
   0.2971400000000000    0.5663300000000000    0.9083700000000000 C
   0.4017500000000000    0.5315700000000000    0.9560400000000000 C
   0.4759800000000000    0.5034999999999999    0.9235000000000000 C
   0.5725400000000000    0.4727900000000000    0.9668800000000000 C
   0.9812100000000000    0.3255400000000000    0.7705600000000000 C
   0.9027400000000000    0.2458200000000000    0.7288300000000000 C
   0.8138600000000000    0.2220000000000000    0.7500400000000000 C
   0.7371500000000000    0.1534500000000000    0.7102500000000000 C
   0.7467400000000000    0.1067600000000000    0.6476000000000000 C
   0.8375899999999999    0.1274100000000000    0.6280900000000000 C
   0.9145799999999999    0.1958200000000000    0.6682900000000001 C
   0.6561200000000000    0.0411800000000000    0.6000700000000000 C
   0.5488800000000000    0.5661200000000000    0.6753800000000000 Br
   0.5772900000000000    0.3422900000000000    0.6288300000000000 Br
   0.5575400000000000    0.4924000000000000    0.1816100000000000 Br
   0.3283900000000000    0.5660900000000000    0.0795800000000000 Br
   0.9608200000000000    0.7779000000000000    0.3587600000000000 Br
   0.1468600000000000    0.9399800000000000    0.4552500000000000 Br
   0.2017100000000000    0.7136700000000000    0.1653600000000000 Br
   0.3860200000000000    0.8764400000000000    0.2619000000000000 Br
   0.4510400000000000    0.4338100000000000    0.3245800000000000 Br
   0.4226400000000000    0.6576400000000000    0.3711400000000000 Br
   0.4424200000000000    0.5075800000000000    0.8183600000000000 Br
   0.6715800000000000    0.4339100000000000    0.9203800000000000 Br
   0.0391700000000000    0.2220500000000000    0.6412300000000000 Br
   0.8531200000000000    0.0599800000000000    0.5447200000000000 Br
   0.7982500000000000    0.2862700000000000    0.8346100000000000 Br
   0.6139500000000000    0.1234900000000000    0.7379900000000000 Br
   0.0115800000000000    0.4287100000000000    0.1068400000000000 N
   0.1276600000000000    0.3675700000000000    0.0615500000000000 N
   0.3593900000000000    0.2739400000000000    0.9246799999999999 N
   0.3341800000000000    0.2593400000000000    0.8033800000000000 N
   0.4567500000000000    0.2315400000000000    0.1904000000000000 N
   0.5152700000000000    0.1695100000000000    0.3007400000000000 N
   0.0547000000000000    0.3710700000000000    0.2789000000000000 N
   0.1691700000000000    0.3401000000000000    0.3875000000000000 N
   0.2280600000000000    0.4719200000000000    0.6360800000000000 N
   0.1602300000000000    0.5351300000000000    0.7164100000000000 N
   0.3259300000000000    0.1539100000000000    0.6005900000000000 N
   0.3889400000000000    0.0128100000000000    0.6059800000000000 N
   0.9883900000000000    0.5712699999999999    0.8931100000000000 N
   0.8723100000000000    0.6324100000000000    0.9384100000000000 N
   0.6405800000000000    0.7260400000000000    0.0752700000000000 N
   0.6657900000000000    0.7406400000000000    0.1965800000000000 N
   0.5432200000000000    0.7684500000000000    0.8095599999999999 N
   0.4846900000000000    0.8304500000000000    0.6992100000000000 N
   0.9452700000000001    0.6288899999999999    0.7209800000000000 N
   0.8308000000000000    0.6598800000000000    0.6124000000000001 N
   0.7719000000000000    0.5280500000000000    0.3638000000000000 N
   0.8397300000000000    0.4648300000000000    0.2835500000000000 N
   0.6740400000000000    0.8460700000000000    0.3993600000000000 N
   0.6110300000000000    0.9871600000000000    0.3939700000000000 N
   0.5922400000000000    0.0782500000000000    0.5461900000000000 O
   0.7789900000000000    0.4973300000000000    0.1064700000000000 O
   0.7046900000000000    0.3502600000000000    0.1111000000000000 O
   0.5480100000000000    0.7550900000000000    0.5504599999999999 O
   0.3820600000000000    0.7118000000000000    0.5460000000000000 O
   0.2209700000000000    0.5026700000000000    0.8934900000000000 O
   0.2952800000000000    0.6497400000000000    0.8888000000000000 O
   0.9664900000000000    0.4049200000000000    0.7390800000000000 O
   0.0489700000000000    0.3084400000000000    0.8300800000000000 O
   0.4519800000000000    0.2447900000000000    0.4495300000000000 O
   0.6178800000000000    0.2881900000000000    0.4539400000000000 O
   0.6500100000000000    0.9565600000000000    0.6203400000000000 O
