C1 N1
1.0
  35.1696350956505341    0.0000000000000000   -3.4862201936748032
  -0.4936850450067164    8.7786596678487445   -0.8703273880686958
   0.0000000000000000    0.0000000000000000   27.4059999999999988
C N
1 1
direct
   0.8384575000000000    0.8330700000000000    0.9887250000000001 C
   0.8176925000000000    0.7220500000000000    0.9813100000000000 N
