H2 C4 O4
1.0
  35.5993325906932014    0.0000000000000000    9.6954801375284614
   5.8640428308437675   34.9432617835341688    6.5707498510771440
   0.0000000000000000    0.0000000000000000   25.1520000000000010
H C O
2 4 4
direct
   0.5845850000000000    0.3576533333333333    0.0065600000000000 H
   0.6654200000000000    0.3090000000000000    0.9934450000000000 H
   0.6534000000000000    0.3678966666666666    0.0142800000000000 C
   0.6429950000000000    0.3336633333333333    0.0009500000000000 C
   0.5966050000000001    0.2987566666666667    0.9857199999999999 C
   0.6070150000000000    0.3329933333333333    0.9990500000000000 C
   0.6866350000000000    0.3646900000000000    0.0260350000000000 O
   0.6308000000000000    0.3991566666666667    0.0161050000000000 O
   0.5633750000000000    0.3019633333333333    0.9739700000000000 O
   0.6192050000000000    0.2674966666666667    0.9839050000000000 O
