H6 O4
1.0
  35.5993325906932014    0.0000000000000000    9.6954801375284614
   5.8640428308437675   34.9432617835341688    6.5707498510771440
   0.0000000000000000    0.0000000000000000   25.1520000000000010
H O
6 4
direct
   0.5466578244959769    0.3263666820621993    0.9778990948889689 H
   0.6432833817698670    0.2647949259171805    0.9941524861880578 H
   0.5982768244284239    0.2980471365477299    0.9888238206257650 H
   0.7040159594298390    0.3410458324611270    0.0321397722829449 H
   0.6422035362461875    0.3836438796638052    0.0201103020251442 H
   0.6050828754775706    0.4101272546760567    0.0126757590364029 H
   0.5633750000000000    0.3019633333333333    0.9739700000000000 O
   0.6192050000000000    0.2674966666666667    0.9839050000000000 O
   0.6866350000000000    0.3646900000000000    0.0260350000000000 O
   0.6308000000000000    0.3991566666666667    0.0161050000000000 O
