H8 O5
1.0
  36.5597882615497412    0.0000000000000000   -0.1244277728234330
  -8.5176016849461984   27.2798399719790972    0.2778356345273212
   0.0000000000000000    0.0000000000000000   30.6479999999999997
H O
8 5
direct
   0.1057701516015568    0.8070479988826236    0.6046422768838919 H
   0.1377585974942536    0.9462235774749023    0.5885287172743122 H
   0.1154427782175044    0.8800981566008579    0.5949867250456429 H
   1.0613697577756562    0.9817758365872711    0.6230947396224422 H
   0.0796765801634596    0.0072233993410529    0.6261181336967847 H
   1.0020390655753599    0.9460931268112491    0.6059820207481930 H
   0.9622037649280151    0.8945922759426685    0.6025064284354003 H
   0.9926191389154032    0.8718030310632081    0.6115588793266449 H
   0.1286650000000000    0.8350200000000000    0.6041750000000000 O
   0.1461500000000000    0.9176150000000001    0.5943600000000000 O
   0.0537050000000000    0.0040600000000000    0.6166800000000000 O
   0.9926450000000000    0.9734050000000001    0.5981200000000000 O
   0.9654400000000001    0.8696600000000000    0.6131750000000000 O
