H2 O1
1.0
  13.9773617707039080    0.0000000000000000   -4.9139814744120613
  -6.9389354307086180   12.1336189574789852   -4.9313436387219136
   0.0000000000000000    0.0000000000000000   29.6179999999999986
H O
2 1
direct
   0.5407920526733219    0.2326479267414648    0.4673686209482999 H
   0.6102054627317834    0.3586325624564833    0.4879347846864160 H
   0.5581800000000000    0.2862000000000000    0.4548500000000000 O
