Zn12 H114 C92 N46 O1
1.0
  13.9773617707039080    0.0000000000000000   -4.9139814744120613
  -6.9389354307086180   12.1336189574789852   -4.9313436387219136
   0.0000000000000000    0.0000000000000000   29.6179999999999986
Zn H C N O
12 114 92 46 1
direct
   0.7516699999999999    0.5008600000000000    0.6266050000000000 Zn
   0.2502000000000000    0.7505100000000000    0.7495900000000000 Zn
   0.7502200000000000    0.2498800000000000    0.7507900000000001 Zn
   0.2486100000000000    0.5002600000000000    0.3751150000000000 Zn
   0.5011200000000000    0.7514000000000000    0.6246600000000000 Zn
   0.4989200000000000    0.2494800000000000    0.8755150000000000 Zn
   0.7516699999999999    0.5008600000000000    0.1266050000000000 Zn
   0.2502000000000000    0.7505100000000000    0.2495900000000000 Zn
   0.7502200000000000    0.2498800000000000    0.2507900000000000 Zn
   0.2486100000000000    0.5002600000000000    0.8751150000000000 Zn
   0.5011200000000000    0.7514000000000000    0.1246600000000000 Zn
   0.4989200000000000    0.2494800000000000    0.3755150000000000 Zn
   0.6360900000000000    0.4791500000000000    0.4588400000000000 H
   0.6683500000000000    0.5545400000000000    0.5283400000000000 H
   0.7664100000000000    0.5267500000000001    0.5147000000000000 H
   0.4758700000000000    0.1228500000000000    0.4443050000000000 H
   0.6360900000000000    0.4791500000000000    0.9588400000000000 H
   0.6683500000000000    0.5545400000000000    0.0283400000000000 H
   0.7664100000000000    0.5267500000000001    0.0147000000000000 H
   0.4758700000000000    0.1228500000000000    0.9443049999999999 H
   0.5238200000000000    0.4478000000000000    0.6032800000000000 H
   0.4511200000000000    0.5223600000000000    0.6069599999999999 H
   0.4692000000000000    0.4741800000000000    0.5491950000000000 H
   0.8763300000000001    0.7604800000000000    0.6723399999999999 H
   0.7614500000000000    0.8754500000000000    0.6714500000000000 H
   0.8270700000000000    0.2669200000000000    0.6747000000000000 H
   0.8784000000000000    0.3778300000000000    0.6623000000000000 H
   0.7466900000000000    0.2613300000000000    0.6127700000000000 H
   0.6612000000000000    0.4209300000000000    0.7693150000000000 H
   0.6598000000000001    0.5360500000000000    0.7120100000000000 H
   0.9195900000000000    0.6658600000000000    0.7388800000000000 H
   0.0578600000000000    0.7724700000000000    0.7699900000000000 H
   0.0321400000000000    0.6498400000000000    0.7727150000000000 H
   0.8853400000000000    0.4655400000000000    0.5629550000000000 H
   0.1142400000000000    0.5816100000000000    0.6188899999999999 H
   0.3584000000000000    0.8379799999999999    0.6372750000000000 H
   0.3350500000000000    0.8887800000000000    0.6934050000000000 H
   0.2319700000000000    0.7615000000000000    0.6333050000000000 H
   0.5313800000000000    0.6550000000000000    0.7073050000000000 H
   0.4153800000000000    0.6526999999999999    0.7641650000000000 H
   0.2086400000000000    0.5212700000000000    0.2240200000000000 H
   0.2043500000000000    0.4472200000000000    0.2606700000000000 H
   0.0952700000000000    0.4730600000000000    0.2346200000000000 H
   0.3442200000000000    0.8756800000000000    0.3802300000000000 H
   0.3427600000000000    0.7605300000000000    0.4374650000000000 H
   0.7509400000000001    0.0763300000000000    0.7779450000000000 H
   0.6931300000000000    0.9306300000000000    0.7401350000000000 H
   0.6153800000000000    0.9865500000000000    0.7601150000000000 H
   0.5926300000000000    0.1175900000000000    0.6196100000000000 H
   0.4796100000000000    0.8888400000000000    0.5613700000000000 H
   0.0732700000000000    0.5534100000000000    0.3771350000000000 H
   0.9264200000000000    0.4790900000000000    0.3428850000000000 H
   0.9942600000000000    0.5235000000000000    0.3089300000000000 H
   0.1155600000000000    0.2373000000000000    0.2964050000000000 H
   0.8866400000000000    0.1221400000000000    0.2395200000000000 H
   0.5556000000000000    0.7495700000000000    0.5381750000000000 H
   0.4800700000000000    0.6958500000000000    0.4656750000000000 H
   0.5184200000000000    0.6146500000000000    0.4913000000000000 H
   0.2391600000000000    0.5935700000000000    0.5586650000000000 H
   0.1227600000000000    0.4779600000000000    0.4441200000000000 H
   0.2460400000000000    0.3245900000000000    0.9018850000000000 H
   0.3084400000000000    0.2401500000000000    0.8958850000000000 H
   0.3813800000000000    0.3742700000000000    0.9534549999999999 H
   0.4114500000000000    0.5265200000000000    0.8251250000000000 H
   0.5251000000000000    0.4104400000000000    0.8246899999999999 H
   0.4442300000000000    0.1966000000000000    0.7616000000000001 H
   0.5199300000000000    0.2150000000000000    0.7263999999999999 H
   0.4788400000000000    0.0961100000000000    0.7333000000000001 H
   0.7601400000000000    0.3486400000000000    0.9389500000000000 H
   0.8759400000000001    0.3488000000000000    0.8819500000000000 H
   0.4761800000000000    0.9228000000000000    0.8406350000000000 H
   0.5483900000000000    0.0693000000000000    0.8817950000000000 H
   0.5316500000000000    0.0063400000000000    0.8151500000000000 H
   0.1247800000000000    0.8869300000000000    0.7334600000000000 H
   0.2384800000000000    0.1157400000000000    0.7927700000000000 H
   0.5238200000000000    0.4478000000000000    0.1032800000000000 H
   0.4511200000000000    0.5223600000000000    0.1069600000000000 H
   0.4692000000000000    0.4741800000000000    0.0491950000000000 H
   0.8763300000000001    0.7604800000000000    0.1723400000000000 H
   0.7614500000000000    0.8754500000000000    0.1714500000000000 H
   0.8270700000000000    0.2669200000000000    0.1747000000000000 H
   0.8784000000000000    0.3778300000000000    0.1623000000000000 H
   0.7466900000000000    0.2613300000000000    0.1127700000000000 H
   0.6612000000000000    0.4209300000000000    0.2693150000000000 H
   0.6598000000000001    0.5360500000000000    0.2120100000000000 H
   0.9195900000000000    0.6658600000000000    0.2388800000000000 H
   0.0578600000000000    0.7724700000000000    0.2699900000000000 H
   0.0321400000000000    0.6498400000000000    0.2727150000000000 H
   0.8853400000000000    0.4655400000000000    0.0629550000000000 H
   0.1142400000000000    0.5816100000000000    0.1188900000000000 H
   0.3584000000000000    0.8379799999999999    0.1372750000000000 H
   0.3350500000000000    0.8887800000000000    0.1934050000000000 H
   0.2319700000000000    0.7615000000000000    0.1333050000000000 H
   0.5313800000000000    0.6550000000000000    0.2073050000000000 H
   0.4153800000000000    0.6526999999999999    0.2641650000000000 H
   0.2086400000000000    0.5212700000000000    0.7240200000000000 H
   0.2043500000000000    0.4472200000000000    0.7606700000000000 H
   0.0952700000000000    0.4730600000000000    0.7346200000000001 H
   0.3442200000000000    0.8756800000000000    0.8802300000000001 H
   0.3427600000000000    0.7605300000000000    0.9374650000000000 H
   0.7509400000000001    0.0763300000000000    0.2779450000000000 H
   0.6931300000000000    0.9306300000000000    0.2401350000000000 H
   0.6153800000000000    0.9865500000000000    0.2601150000000000 H
   0.5926300000000000    0.1175900000000000    0.1196100000000000 H
   0.4796100000000000    0.8888400000000000    0.0613700000000000 H
   0.0251246494071654    0.3827424809494829    0.8183768638545673 H
   0.5556000000000000    0.7495700000000000    0.0381750000000000 H
   0.4800700000000000    0.6958500000000000    0.9656750000000001 H
   0.5184200000000000    0.6146500000000000    0.9913000000000001 H
   0.2391600000000000    0.5935700000000000    0.0586650000000000 H
   0.1227600000000000    0.4779600000000000    0.9441200000000001 H
   0.2460400000000000    0.3245900000000000    0.4018850000000000 H
   0.3084400000000000    0.2401500000000000    0.3958850000000000 H
   0.3813800000000000    0.3742700000000000    0.4534550000000000 H
   0.4114500000000000    0.5265200000000000    0.3251250000000000 H
   0.5251000000000000    0.4104400000000000    0.3246900000000000 H
   0.4442300000000000    0.1966000000000000    0.2616000000000000 H
   0.5199300000000000    0.2150000000000000    0.2264000000000000 H
   0.4788400000000000    0.0961100000000000    0.2333000000000000 H
   0.7601400000000000    0.3486400000000000    0.4389500000000000 H
   0.8759400000000001    0.3488000000000000    0.3819500000000000 H
   0.4761800000000000    0.9228000000000000    0.3406350000000000 H
   0.5483900000000000    0.0693000000000000    0.3817950000000000 H
   0.5316500000000000    0.0063400000000000    0.3151500000000000 H
   0.1247800000000000    0.8869300000000000    0.2334600000000000 H
   0.2384800000000000    0.1157400000000000    0.2927700000000000 H
   0.6776799999999999    0.4920500000000000    0.5005350000000000 C
   0.6302000000000000    0.3864700000000000    0.5006500000000000 C
   0.5333800000000000    0.2098200000000000    0.4727050000000000 C
   0.5935400000000000    0.2696200000000000    0.5289850000000000 C
   0.6776799999999999    0.4920500000000000    0.0005350000000000 C
   0.6302000000000000    0.3864700000000000    0.0006500000000000 C
   0.5333800000000000    0.2098200000000000    0.9727049999999999 C
   0.5935400000000000    0.2696200000000000    0.0289850000000000 C
   0.5095300000000000    0.5094400000000000    0.5942800000000000 C
   0.6149700000000000    0.6146500000000000    0.6225900000000000 C
   0.7894800000000000    0.7319400000000000    0.6583200000000000 C
   0.7327200000000000    0.7887300000000000    0.6579400000000000 C
   0.8041500000000000    0.3159400000000000    0.6574200000000000 C
   0.7542700000000000    0.3697000000000000    0.6853300000000000 C
   0.6865500000000000    0.4184200000000000    0.7387300000000000 C
   0.6860500000000000    0.4754600000000000    0.7104900000000001 C
   0.0025600000000000    0.6827900000000000    0.7462949999999999 C
   0.0013200000000000    0.6319100000000000    0.6932199999999999 C
   0.9436300000000000    0.5264400000000000    0.6060449999999999 C
   0.0568000000000000    0.5838400000000000    0.6337300000000000 C
   0.3216500000000000    0.8141500000000000    0.6609100000000000 C
   0.3713500000000000    0.7575499999999999    0.6852250000000000 C
   0.4722600000000000    0.6829200000000000    0.7069200000000000 C
   0.4149300000000000    0.6818300000000000    0.7350500000000000 C
   0.1853400000000000    0.5086500000000000    0.2535000000000000 C
   0.2432700000000000    0.6141799999999999    0.3066950000000000 C
   0.3159500000000000    0.7887300000000000    0.3657200000000000 C
   0.3153000000000000    0.7318200000000000    0.3940250000000000 C
   0.6752899999999999    0.9985100000000000    0.7454149999999999 C
   0.6311800000000000    0.0003300000000000    0.6927700000000000 C
   0.5912900000000000    0.0589900000000000    0.6339550000000000 C
   0.5354300000000000    0.9458500000000000    0.6051400000000000 C
   0.9983800000000000    0.4905700000000000    0.3374000000000000 C
   0.9994000000000000    0.3848700000000000    0.3154300000000000 C
   0.0572200000000000    0.2664500000000000    0.2956600000000000 C
   0.9440400000000000    0.2095000000000000    0.2675200000000000 C
   0.4901300000000000    0.6753300000000000    0.4987300000000000 C
   0.3850200000000000    0.6309000000000000    0.4997200000000000 C
   0.2676600000000000    0.5915700000000000    0.5292250000000001 C
   0.2101100000000000    0.5345500000000000    0.4726100000000000 C
   0.3234700000000000    0.3246400000000000    0.9087050000000000 C
   0.3689900000000000    0.3700800000000000    0.8783400000000000 C
   0.4116100000000000    0.4688500000000000    0.8399799999999999 C
   0.4678900000000000    0.4115700000000000    0.8398050000000000 C
   0.5088700000000000    0.1852900000000000    0.7546349999999999 C
   0.6139800000000000    0.2441000000000000    0.8077600000000000 C
   0.7315500000000000    0.3193200000000000    0.8954299999999999 C
   0.7887800000000000    0.3195400000000000    0.8672450000000000 C
   0.4905400000000000    0.9995300000000000    0.8397150000000000 C
   0.3850400000000000    0.0000100000000000    0.8156950000000001 C
   0.2111600000000000    0.9443600000000000    0.7637350000000001 C
   0.2674000000000000    0.0574900000000000    0.7929800000000000 C
   0.5095300000000000    0.5094400000000000    0.0942800000000000 C
   0.6149700000000000    0.6146500000000000    0.1225900000000000 C
   0.7894800000000000    0.7319400000000000    0.1583200000000000 C
   0.7327200000000000    0.7887300000000000    0.1579400000000000 C
   0.8041500000000000    0.3159400000000000    0.1574200000000000 C
   0.7542700000000000    0.3697000000000000    0.1853300000000000 C
   0.6865500000000000    0.4184200000000000    0.2387300000000000 C
   0.6860500000000000    0.4754600000000000    0.2104900000000000 C
   0.0025600000000000    0.6827900000000000    0.2462950000000000 C
   0.0013200000000000    0.6319100000000000    0.1932200000000000 C
   0.9436300000000000    0.5264400000000000    0.1060450000000000 C
   0.0568000000000000    0.5838400000000000    0.1337300000000000 C
   0.3216500000000000    0.8141500000000000    0.1609100000000000 C
   0.3713500000000000    0.7575499999999999    0.1852250000000000 C
   0.4722600000000000    0.6829200000000000    0.2069200000000000 C
   0.4149300000000000    0.6818300000000000    0.2350500000000000 C
   0.1853400000000000    0.5086500000000000    0.7535000000000001 C
   0.2432700000000000    0.6141799999999999    0.8066949999999999 C
   0.3159500000000000    0.7887300000000000    0.8657200000000000 C
   0.3153000000000000    0.7318200000000000    0.8940250000000001 C
   0.6752899999999999    0.9985100000000000    0.2454150000000000 C
   0.6311800000000000    0.0003300000000000    0.1927700000000000 C
   0.5912900000000000    0.0589900000000000    0.1339550000000000 C
   0.5354300000000000    0.9458500000000000    0.1051400000000000 C
   0.4901300000000000    0.6753300000000000    0.9987300000000000 C
   0.3850200000000000    0.6309000000000000    0.9997199999999999 C
   0.2676600000000000    0.5915700000000000    0.0292250000000000 C
   0.2101100000000000    0.5345500000000000    0.9726100000000000 C
   0.3234700000000000    0.3246400000000000    0.4087050000000000 C
   0.3689900000000000    0.3700800000000000    0.3783400000000000 C
   0.4116100000000000    0.4688500000000000    0.3399800000000000 C
   0.4678900000000000    0.4115700000000000    0.3398050000000000 C
   0.5088700000000000    0.1852900000000000    0.2546350000000000 C
   0.6139800000000000    0.2441000000000000    0.3077600000000000 C
   0.7315500000000000    0.3193200000000000    0.3954300000000000 C
   0.7887800000000000    0.3195400000000000    0.3672450000000000 C
   0.4905400000000000    0.9995300000000000    0.3397150000000000 C
   0.3850400000000000    0.0000100000000000    0.3156950000000000 C
   0.2111600000000000    0.9443600000000000    0.2637350000000000 C
   0.2674000000000000    0.0574900000000000    0.2929800000000000 C
   0.5581800000000000    0.2862000000000000    0.4548500000000000 N
   0.6537500000000001    0.3786700000000000    0.5474200000000000 N
   0.5581800000000000    0.2862000000000000    0.9548500000000000 N
   0.6537500000000001    0.3786700000000000    0.0474200000000000 N
   0.6226100000000000    0.7145500000000000    0.6355350000000000 N
   0.7149799999999999    0.6220100000000000    0.6361200000000000 N
   0.7294900000000000    0.3514600000000000    0.7226700000000000 N
   0.7286899999999999    0.4443700000000000    0.6767000000000000 N
   0.0930500000000000    0.6507200000000000    0.6887300000000001 N
   0.9087300000000000    0.5572000000000000    0.6436950000000000 N
   0.4443500000000000    0.7304900000000000    0.6753300000000000 N
   0.3509900000000000    0.7287200000000000    0.7211650000000001 N
   0.2697200000000000    0.6216200000000000    0.3566900000000000 N
   0.2707800000000000    0.7143400000000000    0.3105800000000000 N
   0.6519900000000000    0.0932200000000000    0.6892950000000000 N
   0.5609900000000000    0.9089200000000000    0.6423550000000000 N
   0.0920200000000000    0.3772100000000000    0.3260400000000000 N
   0.9076800000000000    0.2844600000000000    0.2802050000000000 N
   0.3781300000000000    0.6526000000000000    0.5462850000000000 N
   0.2843900000000000    0.5598200000000000    0.4540000000000000 N
   0.3489000000000000    0.4422300000000000    0.8641650000000001 N
   0.4405800000000000    0.3489200000000000    0.8639150000000000 N
   0.7143900000000000    0.2723700000000000    0.8119000000000001 N
   0.6211700000000000    0.2718900000000000    0.8577900000000001 N
   0.3771900000000000    0.0924800000000000    0.8259400000000000 N
   0.2855400000000000    0.9081800000000000    0.7783249999999999 N
   0.6226100000000000    0.7145500000000000    0.1355350000000000 N
   0.7149799999999999    0.6220100000000000    0.1361200000000000 N
   0.7294900000000000    0.3514600000000000    0.2226700000000000 N
   0.7286899999999999    0.4443700000000000    0.1767000000000000 N
   0.0930500000000000    0.6507200000000000    0.1887300000000000 N
   0.9087300000000000    0.5572000000000000    0.1436950000000000 N
   0.4443500000000000    0.7304900000000000    0.1753300000000000 N
   0.3509900000000000    0.7287200000000000    0.2211650000000000 N
   0.2697200000000000    0.6216200000000000    0.8566900000000000 N
   0.2707800000000000    0.7143400000000000    0.8105800000000001 N
   0.6519900000000000    0.0932200000000000    0.1892950000000000 N
   0.5609900000000000    0.9089200000000000    0.1423550000000000 N
   0.3781300000000000    0.6526000000000000    0.0462850000000000 N
   0.2843900000000000    0.5598200000000000    0.9540000000000000 N
   0.3489000000000000    0.4422300000000000    0.3641650000000000 N
   0.4405800000000000    0.3489200000000000    0.3639150000000000 N
   0.7143900000000000    0.2723700000000000    0.3119000000000000 N
   0.6211700000000000    0.2718900000000000    0.3577900000000000 N
   0.3771900000000000    0.0924800000000000    0.3259400000000000 N
   0.2855400000000000    0.9081800000000000    0.2783250000000000 N
   0.0920200000000000    0.3772100000000000    0.8260400000000000 O
