Ca32 H124 C124 O186
1.0
  19.0689999999999991    0.0000000000000000    0.0000000000000012
  -0.0073482021313318   11.0794975632438053    0.0000000000000007
   0.0000000000000000    0.0000000000000000   34.1180000000000021
Ca H C O
32 124 124 186
direct
   0.1670000000000000    0.3492200000000000    0.0566750000000000 Ca
   0.0823950000000000    0.6490899999999999    0.4316700000000000 Ca
   0.0823950000000000    0.6490899999999999    0.1816650000000000 Ca
   0.3326150000000000    0.8502600000000000    0.3183000000000000 Ca
   0.3326150000000000    0.8502600000000000    0.0682950000000000 Ca
   0.4170750000000000    0.1500300000000000    0.4433200000000000 Ca
   0.4170750000000000    0.1500300000000000    0.1933150000000000 Ca
   0.1670000000000000    0.3492200000000000    0.3066800000000000 Ca
   0.6670000000000000    0.3492200000000000    0.0566750000000000 Ca
   0.5823950000000000    0.6490899999999999    0.4316700000000000 Ca
   0.5823950000000000    0.6490899999999999    0.1816650000000000 Ca
   0.8326150000000000    0.8502600000000000    0.3183000000000000 Ca
   0.8326150000000000    0.8502600000000000    0.0682950000000000 Ca
   0.9170750000000000    0.1500300000000000    0.4433200000000000 Ca
   0.9170750000000000    0.1500300000000000    0.1933150000000000 Ca
   0.6670000000000000    0.3492200000000000    0.3066800000000000 Ca
   0.1670000000000000    0.3492200000000000    0.5566750000000000 Ca
   0.0823950000000000    0.6490899999999999    0.9316700000000000 Ca
   0.0823950000000000    0.6490899999999999    0.6816650000000000 Ca
   0.3326150000000000    0.8502600000000000    0.8183000000000000 Ca
   0.3326150000000000    0.8502600000000000    0.5682950000000000 Ca
   0.4170750000000000    0.1500300000000000    0.9433199999999999 Ca
   0.4170750000000000    0.1500300000000000    0.6933150000000000 Ca
   0.1670000000000000    0.3492200000000000    0.8066800000000001 Ca
   0.6670000000000000    0.3492200000000000    0.5566750000000000 Ca
   0.5823950000000000    0.6490899999999999    0.9316700000000000 Ca
   0.5823950000000000    0.6490899999999999    0.6816650000000000 Ca
   0.8326150000000000    0.8502600000000000    0.8183000000000000 Ca
   0.8326150000000000    0.8502600000000000    0.5682950000000000 Ca
   0.9170750000000000    0.1500300000000000    0.9433199999999999 Ca
   0.9170750000000000    0.1500300000000000    0.6933150000000000 Ca
   0.6670000000000000    0.3492200000000000    0.8066800000000001 Ca
   0.3825950000000000    0.3368600000000000    0.3065450000000000 H
   0.3825950000000000    0.3368600000000000    0.0565400000000000 H
   0.4104650000000000    0.1367700000000000    0.2870800000000000 H
   0.4104650000000000    0.1367700000000000    0.0370700000000000 H
   0.3043000000000000    0.2844300000000000    0.3553500000000000 H
   0.3043000000000000    0.2844300000000000    0.1053450000000000 H
   0.3184300000000000    0.0414100000000000    0.2658150000000000 H
   0.3184300000000000    0.0414100000000000    0.0158050000000000 H
   0.3661500000000000    0.6625200000000000    0.4310500000000000 H
   0.3396100000000000    0.8629599999999999    0.4122300000000000 H
   0.4445350000000000    0.7120300000000001    0.4802650000000000 H
   0.4314650000000000    0.9575300000000000    0.3908300000000000 H
   0.1171100000000000    0.8358700000000000    0.3184400000000000 H
   0.1171100000000000    0.8358700000000000    0.0684300000000000 H
   0.0893800000000000    0.6358400000000000    0.3378250000000000 H
   0.0893800000000000    0.6358400000000000    0.0878150000000000 H
   0.1955650000000000    0.7839300000000000    0.2696250000000000 H
   0.1955650000000000    0.7839300000000000    0.0196200000000000 H
   0.1810800000000000    0.5406600000000000    0.3591950000000000 H
   0.1810800000000000    0.5406600000000000    0.1091900000000000 H
   0.1334800000000000    0.1621400000000000    0.4438650000000000 H
   0.1334800000000000    0.1621400000000000    0.1938600000000000 H
   0.1600600000000000    0.3626900000000000    0.4628400000000000 H
   0.1600600000000000    0.3626900000000000    0.2128350000000000 H
   0.0551000000000000    0.2118300000000000    0.3946850000000000 H
   0.0551000000000000    0.2118300000000000    0.1446800000000000 H
   0.0678300000000000    0.4567300000000000    0.4841350000000000 H
   0.0678300000000000    0.4567300000000000    0.2341300000000000 H
   0.8825950000000000    0.3368600000000000    0.3065450000000000 H
   0.8825950000000000    0.3368600000000000    0.0565400000000000 H
   0.9104650000000001    0.1367700000000000    0.2870800000000000 H
   0.9104650000000001    0.1367700000000000    0.0370700000000000 H
   0.8043000000000000    0.2844300000000000    0.3553500000000000 H
   0.8043000000000000    0.2844300000000000    0.1053450000000000 H
   0.8184300000000000    0.0414100000000000    0.2658150000000000 H
   0.8184300000000000    0.0414100000000000    0.0158050000000000 H
   0.8661500000000000    0.6625200000000000    0.4310500000000000 H
   0.8661500000000000    0.6625200000000000    0.1810400000000000 H
   0.8396100000000000    0.8629599999999999    0.4122300000000000 H
   0.8396100000000000    0.8629599999999999    0.1622250000000000 H
   0.9445350000000000    0.7120300000000001    0.4802650000000000 H
   0.9445350000000000    0.7120300000000001    0.2302600000000000 H
   0.9314650000000000    0.9575300000000000    0.3908300000000000 H
   0.9314650000000000    0.9575300000000000    0.1408250000000000 H
   0.6171100000000000    0.8358700000000000    0.3184400000000000 H
   0.6171100000000000    0.8358700000000000    0.0684300000000000 H
   0.5893800000000000    0.6358400000000000    0.3378250000000000 H
   0.5893800000000000    0.6358400000000000    0.0878150000000000 H
   0.6955650000000000    0.7839300000000000    0.2696250000000000 H
   0.6955650000000000    0.7839300000000000    0.0196200000000000 H
   0.6810800000000000    0.5406600000000000    0.3591950000000000 H
   0.6810800000000000    0.5406600000000000    0.1091900000000000 H
   0.6334800000000000    0.1621400000000000    0.4438650000000000 H
   0.6334800000000000    0.1621400000000000    0.1938600000000000 H
   0.6600600000000000    0.3626900000000000    0.4628400000000000 H
   0.6600600000000000    0.3626900000000000    0.2128350000000000 H
   0.5551000000000000    0.2118300000000000    0.3946850000000000 H
   0.5551000000000000    0.2118300000000000    0.1446800000000000 H
   0.5678300000000001    0.4567300000000000    0.4841350000000000 H
   0.5678300000000001    0.4567300000000000    0.2341300000000000 H
   0.3825950000000000    0.3368600000000000    0.8065450000000001 H
   0.3825950000000000    0.3368600000000000    0.5565400000000000 H
   0.4104650000000000    0.1367700000000000    0.7870800000000000 H
   0.4104650000000000    0.1367700000000000    0.5370700000000000 H
   0.3043000000000000    0.2844300000000000    0.8553500000000001 H
   0.3043000000000000    0.2844300000000000    0.6053450000000000 H
   0.3184300000000000    0.0414100000000000    0.7658150000000000 H
   0.3184300000000000    0.0414100000000000    0.5158050000000000 H
   0.3661500000000000    0.6625200000000000    0.9310499999999999 H
   0.3661500000000000    0.6625200000000000    0.6810400000000000 H
   0.3396100000000000    0.8629599999999999    0.9122300000000000 H
   0.3396100000000000    0.8629599999999999    0.6622250000000001 H
   0.4445350000000000    0.7120300000000001    0.9802649999999999 H
   0.4445350000000000    0.7120300000000001    0.7302600000000000 H
   0.4314650000000000    0.9575300000000000    0.8908300000000000 H
   0.4314650000000000    0.9575300000000000    0.6408250000000000 H
   0.1171100000000000    0.8358700000000000    0.8184400000000001 H
   0.1171100000000000    0.8358700000000000    0.5684300000000000 H
   0.0893800000000000    0.6358400000000000    0.8378250000000000 H
   0.0893800000000000    0.6358400000000000    0.5878150000000000 H
   0.1955650000000000    0.7839300000000000    0.7696250000000000 H
   0.1955650000000000    0.7839300000000000    0.5196200000000000 H
   0.1810800000000000    0.5406600000000000    0.8591949999999999 H
   0.1810800000000000    0.5406600000000000    0.6091900000000000 H
   0.1334800000000000    0.1621400000000000    0.9438650000000000 H
   0.1334800000000000    0.1621400000000000    0.6938600000000000 H
   0.1600600000000000    0.3626900000000000    0.9628399999999999 H
   0.1600600000000000    0.3626900000000000    0.7128350000000000 H
   0.0551000000000000    0.2118300000000000    0.8946850000000000 H
   0.0551000000000000    0.2118300000000000    0.6446800000000000 H
   0.0678300000000000    0.4567300000000000    0.9841350000000000 H
   0.0678300000000000    0.4567300000000000    0.7341299999999999 H
   0.8825950000000000    0.3368600000000000    0.8065450000000001 H
   0.8825950000000000    0.3368600000000000    0.5565400000000000 H
   0.9104650000000001    0.1367700000000000    0.7870800000000000 H
   0.9104650000000001    0.1367700000000000    0.5370700000000000 H
   0.8043000000000000    0.2844300000000000    0.8553500000000001 H
   0.8043000000000000    0.2844300000000000    0.6053450000000000 H
   0.8184300000000000    0.0414100000000000    0.7658150000000000 H
   0.8184300000000000    0.0414100000000000    0.5158050000000000 H
   0.8661500000000000    0.6625200000000000    0.9310499999999999 H
   0.8661500000000000    0.6625200000000000    0.6810400000000000 H
   0.8396100000000000    0.8629599999999999    0.9122300000000000 H
   0.8396100000000000    0.8629599999999999    0.6622250000000001 H
   0.9445350000000000    0.7120300000000001    0.9802649999999999 H
   0.9445350000000000    0.7120300000000001    0.7302600000000000 H
   0.9314650000000000    0.9575300000000000    0.8908300000000000 H
   0.9314650000000000    0.9575300000000000    0.6408250000000000 H
   0.6171100000000000    0.8358700000000000    0.8184400000000001 H
   0.6171100000000000    0.8358700000000000    0.5684300000000000 H
   0.5893800000000000    0.6358400000000000    0.8378250000000000 H
   0.5893800000000000    0.6358400000000000    0.5878150000000000 H
   0.6955650000000000    0.7839300000000000    0.7696250000000000 H
   0.6955650000000000    0.7839300000000000    0.5196200000000000 H
   0.6810800000000000    0.5406600000000000    0.8591949999999999 H
   0.6810800000000000    0.5406600000000000    0.6091900000000000 H
   0.6334800000000000    0.1621400000000000    0.9438650000000000 H
   0.6334800000000000    0.1621400000000000    0.6938600000000000 H
   0.6600600000000000    0.3626900000000000    0.9628399999999999 H
   0.6600600000000000    0.3626900000000000    0.7128350000000000 H
   0.5551000000000000    0.2118300000000000    0.8946850000000000 H
   0.5551000000000000    0.2118300000000000    0.6446800000000000 H
   0.5678300000000001    0.4567300000000000    0.9841350000000000 H
   0.5678300000000001    0.4567300000000000    0.7341299999999999 H
   0.3099650000000000    0.3020000000000000    0.2597500000000000 C
   0.3099650000000000    0.3020000000000000    0.0097400000000000 C
   0.3375800000000000    0.2760600000000000    0.3015150000000000 C
   0.3375800000000000    0.2760600000000000    0.0515050000000000 C
   0.3632500000000000    0.1461600000000000    0.3056300000000000 C
   0.3632500000000000    0.1461600000000000    0.0556200000000000 C
   0.3864100000000000    0.1106500000000000    0.3470100000000000 C
   0.3864100000000000    0.1106500000000000    0.0970050000000000 C
   0.4396350000000000    0.6974100000000000    0.3846300000000000 C
   0.4117100000000000    0.7223900000000000    0.4263800000000000 C
   0.3869000000000000    0.8528300000000000    0.4306850000000000 C
   0.3641150000000000    0.8887100000000000    0.4721000000000000 C
   0.1897800000000000    0.8014000000000000    0.3652450000000000 C
   0.1897800000000000    0.8014000000000000    0.1152350000000000 C
   0.1622100000000000    0.7753300000000000    0.3234550000000000 C
   0.1622100000000000    0.7753300000000000    0.0734500000000000 C
   0.1366350000000000    0.6452800000000000    0.3193050000000000 C
   0.1366350000000000    0.6452800000000000    0.0693000000000000 C
   0.1135400000000000    0.6094600000000000    0.2779200000000000 C
   0.1135400000000000    0.6094600000000000    0.0279150000000000 C
   0.0600450000000000    0.1969800000000000    0.4903050000000000 C
   0.0600450000000000    0.1969800000000000    0.2403000000000000 C
   0.0879750000000000    0.2220000000000000    0.4485650000000000 C
   0.0879750000000000    0.2220000000000000    0.1985550000000000 C
   0.1128550000000000    0.3524600000000000    0.4443150000000000 C
   0.1128550000000000    0.3524600000000000    0.1943100000000000 C
   0.1358100000000000    0.3883500000000000    0.4029400000000000 C
   0.1358100000000000    0.3883500000000000    0.1529300000000000 C
   0.8099650000000000    0.3020000000000000    0.2597500000000000 C
   0.8099650000000000    0.3020000000000000    0.0097400000000000 C
   0.8375800000000000    0.2760600000000000    0.3015150000000000 C
   0.8375800000000000    0.2760600000000000    0.0515050000000000 C
   0.8632500000000001    0.1461600000000000    0.3056300000000000 C
   0.8632500000000001    0.1461600000000000    0.0556200000000000 C
   0.8864099999999999    0.1106500000000000    0.3470100000000000 C
   0.8864099999999999    0.1106500000000000    0.0970050000000000 C
   0.9396350000000000    0.6974100000000000    0.3846300000000000 C
   0.9396350000000000    0.6974100000000000    0.1346250000000000 C
   0.9117100000000000    0.7223900000000000    0.4263800000000000 C
   0.9117100000000000    0.7223900000000000    0.1763750000000000 C
   0.8869000000000000    0.8528300000000000    0.4306850000000000 C
   0.8869000000000000    0.8528300000000000    0.1806800000000000 C
   0.8641150000000000    0.8887100000000000    0.4721000000000000 C
   0.8641150000000000    0.8887100000000000    0.2220950000000000 C
   0.6897800000000001    0.8014000000000000    0.3652450000000000 C
   0.6897800000000001    0.8014000000000000    0.1152350000000000 C
   0.6622100000000000    0.7753300000000000    0.3234550000000000 C
   0.6622100000000000    0.7753300000000000    0.0734500000000000 C
   0.6366350000000001    0.6452800000000000    0.3193050000000000 C
   0.6366350000000001    0.6452800000000000    0.0693000000000000 C
   0.6135400000000000    0.6094600000000000    0.2779200000000000 C
   0.6135400000000000    0.6094600000000000    0.0279150000000000 C
   0.5600450000000000    0.1969800000000000    0.4903050000000000 C
   0.5600450000000000    0.1969800000000000    0.2403000000000000 C
   0.5879750000000000    0.2220000000000000    0.4485650000000000 C
   0.5879750000000000    0.2220000000000000    0.1985550000000000 C
   0.6128550000000000    0.3524600000000000    0.4443150000000000 C
   0.6128550000000000    0.3524600000000000    0.1943100000000000 C
   0.6358100000000000    0.3883500000000000    0.4029400000000000 C
   0.6358100000000000    0.3883500000000000    0.1529300000000000 C
   0.3099650000000000    0.3020000000000000    0.7597499999999999 C
   0.3099650000000000    0.3020000000000000    0.5097400000000000 C
   0.3375800000000000    0.2760600000000000    0.8015150000000000 C
   0.3375800000000000    0.2760600000000000    0.5515050000000000 C
   0.3632500000000000    0.1461600000000000    0.8056300000000001 C
   0.3632500000000000    0.1461600000000000    0.5556200000000000 C
   0.3864100000000000    0.1106500000000000    0.8470100000000000 C
   0.3864100000000000    0.1106500000000000    0.5970050000000000 C
   0.4396350000000000    0.6974100000000000    0.8846300000000000 C
   0.4396350000000000    0.6974100000000000    0.6346250000000000 C
   0.4117100000000000    0.7223900000000000    0.9263800000000000 C
   0.4117100000000000    0.7223900000000000    0.6763749999999999 C
   0.3869000000000000    0.8528300000000000    0.9306850000000000 C
   0.3869000000000000    0.8528300000000000    0.6806800000000000 C
   0.3641150000000000    0.8887100000000000    0.9721000000000000 C
   0.3641150000000000    0.8887100000000000    0.7220949999999999 C
   0.1897800000000000    0.8014000000000000    0.8652450000000000 C
   0.1897800000000000    0.8014000000000000    0.6152350000000000 C
   0.1622100000000000    0.7753300000000000    0.8234550000000000 C
   0.1622100000000000    0.7753300000000000    0.5734500000000000 C
   0.1366350000000000    0.6452800000000000    0.8193049999999999 C
   0.1366350000000000    0.6452800000000000    0.5693000000000000 C
   0.1135400000000000    0.6094600000000000    0.7779199999999999 C
   0.1135400000000000    0.6094600000000000    0.5279150000000000 C
   0.0600450000000000    0.1969800000000000    0.9903050000000000 C
   0.0600450000000000    0.1969800000000000    0.7403000000000000 C
   0.0879750000000000    0.2220000000000000    0.9485650000000000 C
   0.0879750000000000    0.2220000000000000    0.6985550000000000 C
   0.1128550000000000    0.3524600000000000    0.9443150000000000 C
   0.1128550000000000    0.3524600000000000    0.6943100000000000 C
   0.1358100000000000    0.3883500000000000    0.9029400000000001 C
   0.1358100000000000    0.3883500000000000    0.6529300000000000 C
   0.8099650000000000    0.3020000000000000    0.7597499999999999 C
   0.8099650000000000    0.3020000000000000    0.5097400000000000 C
   0.8375800000000000    0.2760600000000000    0.8015150000000000 C
   0.8375800000000000    0.2760600000000000    0.5515050000000000 C
   0.8632500000000001    0.1461600000000000    0.8056300000000001 C
   0.8632500000000001    0.1461600000000000    0.5556200000000000 C
   0.8864099999999999    0.1106500000000000    0.8470100000000000 C
   0.8864099999999999    0.1106500000000000    0.5970050000000000 C
   0.9396350000000000    0.6974100000000000    0.8846300000000000 C
   0.9396350000000000    0.6974100000000000    0.6346250000000000 C
   0.9117100000000000    0.7223900000000000    0.9263800000000000 C
   0.9117100000000000    0.7223900000000000    0.6763749999999999 C
   0.8869000000000000    0.8528300000000000    0.9306850000000000 C
   0.8869000000000000    0.8528300000000000    0.6806800000000000 C
   0.8641150000000000    0.8887100000000000    0.9721000000000000 C
   0.8641150000000000    0.8887100000000000    0.7220949999999999 C
   0.6897800000000001    0.8014000000000000    0.8652450000000000 C
   0.6897800000000001    0.8014000000000000    0.6152350000000000 C
   0.6622100000000000    0.7753300000000000    0.8234550000000000 C
   0.6622100000000000    0.7753300000000000    0.5734500000000000 C
   0.6366350000000001    0.6452800000000000    0.8193049999999999 C
   0.6366350000000001    0.6452800000000000    0.5693000000000000 C
   0.6135400000000000    0.6094600000000000    0.7779199999999999 C
   0.6135400000000000    0.6094600000000000    0.5279150000000000 C
   0.5600450000000000    0.1969800000000000    0.9903050000000000 C
   0.5600450000000000    0.1969800000000000    0.7403000000000000 C
   0.5879750000000000    0.2220000000000000    0.9485650000000000 C
   0.5879750000000000    0.2220000000000000    0.6985550000000000 C
   0.6128550000000000    0.3524600000000000    0.9443150000000000 C
   0.6128550000000000    0.3524600000000000    0.6943100000000000 C
   0.6358100000000000    0.3883500000000000    0.9029400000000001 C
   0.6358100000000000    0.3883500000000000    0.6529300000000000 C
   0.2496900000000000    0.3486700000000000    0.2567400000000000 O
   0.2496900000000000    0.3486700000000000    0.0067350000000000 O
   0.3502500000000000    0.2753400000000000    0.2315200000000000 O
   0.3502500000000000    0.2753400000000000    0.0000000000000000 O
   0.2832450000000000    0.3024500000000000    0.3296750000000000 O
   0.2832450000000000    0.3024500000000000    0.0796650000000000 O
   0.3106550000000000    0.0593600000000000    0.2946850000000000 O
   0.3106550000000000    0.0593600000000000    0.0446750000000000 O
   0.3859250000000000    0.1860000000000000    0.3750100000000000 O
   0.3859250000000000    0.1860000000000000    0.1250000000000000 O
   0.4032300000000000    0.9999800000000000    0.3500200000000000 O
   0.4032300000000000    0.9999800000000000    0.1000100000000000 O
   0.0000000000000000    0.6511000000000000    0.3816650000000000 O
   0.0000000000000000    0.6511000000000000    0.1316550000000000 O
   0.3995600000000000    0.7247400000000001    0.3563800000000000 O
   0.4655300000000000    0.6935400000000000    0.4546050000000000 O
   0.4398050000000000    0.9389100000000000    0.4195750000000000 O
   0.3640800000000000    0.8132600000000000    0.0000500000000000 O
   0.3455200000000000    0.0003300000000000    0.4748800000000000 O
   0.2499750000000000    0.8485600000000000    0.3682400000000000 O
   0.2499750000000000    0.8485600000000000    0.1182350000000000 O
   0.1495450000000000    0.7744300000000000    0.3934700000000000 O
   0.1495450000000000    0.7744300000000000    0.1434600000000000 O
   0.2165200000000000    0.8022600000000000    0.2953100000000000 O
   0.2165200000000000    0.8022600000000000    0.0453050000000000 O
   0.1891700000000000    0.5585700000000000    0.3303550000000000 O
   0.1891700000000000    0.5585700000000000    0.0803500000000000 O
   0.1141800000000000    0.6845500000000000    0.4998650000000000 O
   0.1141800000000000    0.6845500000000000    0.2498550000000000 O
   0.0953350000000000    0.4985200000000000    0.2751100000000000 O
   0.0953350000000000    0.4985200000000000    0.0251000000000000 O
   0.4995750000000000    0.1510000000000000    0.4933050000000000 O
   0.4995750000000000    0.1510000000000000    0.2432950000000000 O
   0.1002400000000000    0.2240700000000000    0.0185300000000000 O
   0.1002400000000000    0.2240700000000000    0.2685250000000000 O
   0.0340950000000000    0.1933700000000000    0.4203450000000000 O
   0.0340950000000000    0.1933700000000000    0.1703400000000000 O
   0.0598900000000000    0.4384000000000000    0.4553200000000000 O
   0.0598900000000000    0.4384000000000000    0.2053150000000000 O
   0.1358650000000000    0.3129500000000000    0.3749700000000000 O
   0.1358650000000000    0.3129500000000000    0.1249650000000000 O
   0.1532450000000000    0.4996900000000000    0.4000500000000000 O
   0.1532450000000000    0.4996900000000000    0.1500400000000000 O
   0.7496900000000000    0.3486700000000000    0.2567400000000000 O
   0.7496900000000000    0.3486700000000000    0.0067350000000000 O
   0.8502500000000000    0.2753400000000000    0.2315200000000000 O
   0.8502500000000000    0.2753400000000000    0.0000000000000000 O
   0.7832450000000000    0.3024500000000000    0.3296750000000000 O
   0.7832450000000000    0.3024500000000000    0.0796650000000000 O
   0.8106550000000000    0.0593600000000000    0.2946850000000000 O
   0.8106550000000000    0.0593600000000000    0.0446750000000000 O
   0.8859250000000001    0.1860000000000000    0.3750100000000000 O
   0.8859250000000001    0.1860000000000000    0.1250000000000000 O
   0.9032300000000000    0.9999800000000000    0.3500200000000000 O
   0.9032300000000000    0.9999800000000000    0.1000100000000000 O
   0.5000000000000000    0.6511000000000000    0.3816650000000000 O
   0.8995600000000000    0.7247400000000001    0.3563800000000000 O
   0.8995600000000000    0.7247400000000001    0.1063750000000000 O
   0.9655300000000000    0.6935400000000000    0.4546050000000000 O
   0.9655300000000000    0.6935400000000000    0.2046000000000000 O
   0.9398050000000000    0.9389100000000000    0.4195750000000000 O
   0.9398050000000000    0.9389100000000000    0.1695700000000000 O
   0.8640800000000000    0.8132600000000000    0.2500550000000000 O
   0.8640800000000000    0.8132600000000000    0.0000500000000000 O
   0.8455200000000000    0.0003300000000000    0.4748800000000000 O
   0.8455200000000000    0.0003300000000000    0.2248750000000000 O
   0.7499750000000001    0.8485600000000000    0.3682400000000000 O
   0.7499750000000001    0.8485600000000000    0.1182350000000000 O
   0.6495450000000000    0.7744300000000000    0.3934700000000000 O
   0.6495450000000000    0.7744300000000000    0.1434600000000000 O
   0.7165200000000000    0.8022600000000000    0.2953100000000000 O
   0.7165200000000000    0.8022600000000000    0.0453050000000000 O
   0.6891700000000001    0.5585700000000000    0.3303550000000000 O
   0.6891700000000001    0.5585700000000000    0.0803500000000000 O
   0.6141799999999999    0.6845500000000000    0.4998650000000000 O
   0.6141799999999999    0.6845500000000000    0.2498550000000000 O
   0.5953349999999999    0.4985200000000000    0.2751100000000000 O
   0.5953349999999999    0.4985200000000000    0.0251000000000000 O
   0.9995750000000000    0.1510000000000000    0.4933050000000000 O
   0.9995750000000000    0.1510000000000000    0.2432950000000000 O
   0.6002400000000000    0.2240700000000000    0.0185300000000000 O
   0.6002400000000000    0.2240700000000000    0.2685250000000000 O
   0.5340950000000000    0.1933700000000000    0.4203450000000000 O
   0.5340950000000000    0.1933700000000000    0.1703400000000000 O
   0.5598900000000000    0.4384000000000000    0.4553200000000000 O
   0.5598900000000000    0.4384000000000000    0.2053150000000000 O
   0.6358650000000000    0.3129500000000000    0.3749700000000000 O
   0.6358650000000000    0.3129500000000000    0.1249650000000000 O
   0.6532450000000000    0.4996900000000000    0.4000500000000000 O
   0.6532450000000000    0.4996900000000000    0.1500400000000000 O
   0.2496900000000000    0.3486700000000000    0.7567400000000000 O
   0.2496900000000000    0.3486700000000000    0.5067350000000000 O
   0.3502500000000000    0.2753400000000000    0.7315199999999999 O
   0.3502500000000000    0.2753400000000000    0.5000000000000000 O
   0.2832450000000000    0.3024500000000000    0.8296749999999999 O
   0.2832450000000000    0.3024500000000000    0.5796650000000000 O
   0.3106550000000000    0.0593600000000000    0.7946850000000000 O
   0.3106550000000000    0.0593600000000000    0.5446750000000000 O
   0.3859250000000000    0.1860000000000000    0.8750100000000001 O
   0.3859250000000000    0.1860000000000000    0.6250000000000000 O
   0.4032300000000000    0.9999800000000000    0.8500200000000000 O
   0.4032300000000000    0.9999800000000000    0.6000100000000000 O
   0.0000000000000000    0.6511000000000000    0.8816649999999999 O
   0.0000000000000000    0.6511000000000000    0.6316550000000000 O
   0.3995600000000000    0.7247400000000001    0.8563799999999999 O
   0.3995600000000000    0.7247400000000001    0.6063750000000000 O
   0.4655300000000000    0.6935400000000000    0.9546049999999999 O
   0.4655300000000000    0.6935400000000000    0.7046000000000000 O
   0.4398050000000000    0.9389100000000000    0.9195750000000000 O
   0.4398050000000000    0.9389100000000000    0.6695700000000000 O
   0.3640800000000000    0.8132600000000000    0.7500550000000000 O
   0.3640800000000000    0.8132600000000000    0.5000500000000000 O
   0.3455200000000000    0.0003300000000000    0.9748800000000000 O
   0.3455200000000000    0.0003300000000000    0.7248749999999999 O
   0.2499750000000000    0.8485600000000000    0.8682400000000000 O
   0.2499750000000000    0.8485600000000000    0.6182350000000000 O
   0.1495450000000000    0.7744300000000000    0.8934700000000000 O
   0.1495450000000000    0.7744300000000000    0.6434600000000000 O
   0.2165200000000000    0.8022600000000000    0.7953100000000000 O
   0.2165200000000000    0.8022600000000000    0.5453050000000000 O
   0.1891700000000000    0.5585700000000000    0.8303550000000000 O
   0.1891700000000000    0.5585700000000000    0.5803500000000000 O
   0.1141800000000000    0.6845500000000000    0.9998650000000000 O
   0.1141800000000000    0.6845500000000000    0.7498549999999999 O
   0.0953350000000000    0.4985200000000000    0.7751100000000000 O
   0.0953350000000000    0.4985200000000000    0.5251000000000000 O
   0.4995750000000000    0.1510000000000000    0.9933050000000000 O
   0.4995750000000000    0.1510000000000000    0.7432950000000000 O
   0.1002400000000000    0.2240700000000000    0.5185300000000000 O
   0.1002400000000000    0.2240700000000000    0.7685250000000000 O
   0.0340950000000000    0.1933700000000000    0.9203450000000000 O
   0.0340950000000000    0.1933700000000000    0.6703399999999999 O
   0.0598900000000000    0.4384000000000000    0.9553199999999999 O
   0.0598900000000000    0.4384000000000000    0.7053150000000000 O
   0.1358650000000000    0.3129500000000000    0.8749700000000000 O
   0.1358650000000000    0.3129500000000000    0.6249650000000000 O
   0.1532450000000000    0.4996900000000000    0.9000500000000000 O
   0.1532450000000000    0.4996900000000000    0.6500400000000000 O
   0.7496900000000000    0.3486700000000000    0.7567400000000000 O
   0.7496900000000000    0.3486700000000000    0.5067350000000000 O
   0.8502500000000000    0.2753400000000000    0.7315199999999999 O
   0.8502500000000000    0.2753400000000000    0.5000000000000000 O
   0.7832450000000000    0.3024500000000000    0.8296749999999999 O
   0.7832450000000000    0.3024500000000000    0.5796650000000000 O
   0.8106550000000000    0.0593600000000000    0.7946850000000000 O
   0.8106550000000000    0.0593600000000000    0.5446750000000000 O
   0.8859250000000001    0.1860000000000000    0.8750100000000001 O
   0.8859250000000001    0.1860000000000000    0.6250000000000000 O
   0.9032300000000000    0.9999800000000000    0.8500200000000000 O
   0.9032300000000000    0.9999800000000000    0.6000100000000000 O
   0.5000000000000000    0.6511000000000000    0.8816649999999999 O
   0.5000000000000000    0.6511000000000000    0.6316550000000000 O
   0.8995600000000000    0.7247400000000001    0.8563799999999999 O
   0.8995600000000000    0.7247400000000001    0.6063750000000000 O
   0.9655300000000000    0.6935400000000000    0.9546049999999999 O
   0.9655300000000000    0.6935400000000000    0.7046000000000000 O