H2 C6 N2 O4
1.0
  35.2079201848025534    0.0000000000000000    0.0749683971609260
   5.8541560154578720   12.5511135102154174    3.2654016598829618
   0.0000000000000000    0.0000000000000000   28.6999999999999993
H C N O
2 6 2 4
direct
   0.9338533333333333    0.6029000000000000    0.3952550000000000 H
   0.9919433333333333    0.6363300000000000    0.4283750000000000 H
   0.9363033333333333    0.6077000000000000    0.4324500000000000 C
   0.9678766666666666    0.6283800000000000    0.4508950000000000 C
   0.9416099999999999    0.6231500000000000    0.5243200000000000 C
   0.9104933333333333    0.5978500000000000    0.5068200000000000 C
   0.9454766666666666    0.6360600000000000    0.5751200000000000 C
   0.8785799999999999    0.5776800000000000    0.5381850000000000 C
   0.9705999999999999    0.6371500000000000    0.4961650000000000 N
   0.9079900000000000    0.5914400000000000    0.4607900000000000 N
   0.9634833333333332    0.5469000000000001    0.6070400000000000 O
   0.9333699999999999    0.7283600000000000    0.5799700000000000 O
   0.8707799999999999    0.6160400000000000    0.5737600000000000 O
   0.8617833333333333    0.5217300000000000    0.5244650000000000 O
