Cd24 H286 C426 N94 O92
1.0
  35.2079201848025534    0.0000000000000000    0.0749683971609260
   5.8541560154578720   12.5511135102154174    3.2654016598829618
   0.0000000000000000    0.0000000000000000   28.6999999999999993
Cd H C N O
24 286 426 94 92
direct
   0.1466233333333333    0.4625400000000000    0.0629450000000000 Cd
   0.0323733333333333    0.4625900000000000    0.3129450000000000 Cd
   0.1867166666666667    0.5374100000000001    0.4370300000000000 Cd
   0.3009633333333333    0.5373599999999999    0.1870350000000000 Cd
   0.4799566666666666    0.4625400000000000    0.0629450000000000 Cd
   0.3657066666666666    0.4625900000000000    0.3129450000000000 Cd
   0.5200500000000000    0.5374100000000001    0.4370300000000000 Cd
   0.6342966666666666    0.5373599999999999    0.1870350000000000 Cd
   0.8132900000000000    0.4625400000000000    0.0629450000000000 Cd
   0.6990400000000000    0.4625900000000000    0.3129450000000000 Cd
   0.8533833333333333    0.5374100000000001    0.4370300000000000 Cd
   0.9676300000000000    0.5373599999999999    0.1870350000000000 Cd
   0.1466233333333333    0.4625400000000000    0.5629450000000000 Cd
   0.0323733333333333    0.4625900000000000    0.8129450000000000 Cd
   0.1867166666666667    0.5374100000000001    0.9370300000000000 Cd
   0.3009633333333333    0.5373599999999999    0.6870350000000001 Cd
   0.4799566666666666    0.4625400000000000    0.5629450000000000 Cd
   0.3657066666666666    0.4625900000000000    0.8129450000000000 Cd
   0.5200500000000000    0.5374100000000001    0.9370300000000000 Cd
   0.6342966666666666    0.5373599999999999    0.6870350000000001 Cd
   0.8132900000000000    0.4625400000000000    0.5629450000000000 Cd
   0.6990400000000000    0.4625900000000000    0.8129450000000000 Cd
   0.8533833333333333    0.5374100000000001    0.9370300000000000 Cd
   0.9676300000000000    0.5373599999999999    0.6870350000000001 Cd
   0.2671866666666667    0.6029000000000000    0.3952550000000000 H
   0.3252766666666667    0.6363300000000000    0.4283750000000000 H
   0.0276266666666667    0.6592300000000000    0.1925500000000000 H
   0.0258200000000000    0.8352200000000000    0.1915350000000000 H
   0.2238100000000000    0.9604600000000000    0.1795450000000000 H
   0.2315966666666667    0.7786900000000000    0.1784850000000000 H
   0.0449933333333333    0.1216900000000000    0.1832450000000000 H
   0.0366500000000000    0.3038600000000000    0.1842200000000000 H
   0.2429700000000000    0.4016600000000000    0.1995950000000000 H
   0.2449433333333333    0.2302900000000000    0.1960000000000000 H
   0.2534166666666666    0.0806200000000000    0.1841100000000000 H
   0.0163966666666667    0.0000000000000000    0.1897900000000000 H
   0.1344066666666667    0.3972400000000000    0.3545850000000000 H
   0.2037633333333333    0.3635400000000000    0.3215050000000000 H
   0.2471500000000000    0.3408900000000000    0.0574050000000000 H
   0.3041066666666666    0.1650500000000000    0.0585700000000000 H
   0.2106833333333333    0.0390100000000000    0.0703550000000000 H
   0.1577400000000000    0.2207300000000000    0.0712150000000000 H
   0.0855400000000000    0.8784500000000000    0.0666000000000000 H
   0.1378100000000000    0.6962000000000000    0.0656400000000000 H
   0.0433833333333333    0.5984200000000000    0.0505400000000000 H
   0.3216533333333333    0.7698500000000000    0.0541550000000000 H
   0.2803633333333333    0.9192000000000000    0.0660150000000000 H
   0.0142733333333333    0.0066100000000000    0.0601250000000000 H
   0.0661566666666667    0.3970500000000000    0.1047200000000000 H
   0.0080733333333333    0.3635900000000000    0.0716050000000000 H
   0.3057200000000000    0.3407200000000000    0.3074300000000000 H
   0.3075233333333333    0.1647300000000000    0.3084450000000000 H
   0.1095300000000000    0.0394900000000000    0.3204250000000000 H
   0.1017433333333333    0.2212600000000000    0.3214850000000000 H
   0.2883500000000000    0.8782700000000000    0.3167250000000000 H
   0.2966933333333333    0.6961000000000001    0.3157550000000000 H
   0.0903700000000000    0.5982800000000000    0.3003900000000000 H
   0.0883966666666667    0.7696499999999999    0.3039800000000000 H
   0.0799233333333333    0.9193300000000000    0.3158650000000000 H
   0.3169466666666667    0.0063300000000000    0.3101850000000000 H
   0.1989400000000000    0.6027000000000000    0.1453900000000000 H
   0.1295800000000000    0.6363900000000000    0.1784650000000000 H
   0.0861900000000000    0.6590600000000000    0.4425700000000000 H
   0.0292333333333333    0.8349000000000000    0.4414050000000000 H
   0.1226566666666667    0.9609500000000000    0.4296150000000000 H
   0.1756000000000000    0.7792200000000000    0.4287600000000000 H
   0.2478000000000000    0.1215000000000000    0.4333700000000000 H
   0.1955300000000000    0.3037500000000000    0.4343350000000000 H
   0.2899566666666666    0.4015300000000000    0.4494350000000000 H
   0.0116900000000000    0.2301100000000000    0.4458150000000000 H
   0.0529800000000000    0.0807500000000000    0.4339600000000000 H
   0.3190666666666667    0.0000000000000000    0.4398500000000000 H
   0.6005199999999999    0.6029000000000000    0.3952550000000000 H
   0.6586099999999999    0.6363300000000000    0.4283750000000000 H
   0.3609600000000000    0.6592300000000000    0.1925500000000000 H
   0.3591533333333333    0.8352200000000000    0.1915350000000000 H
   0.5571433333333333    0.9604600000000000    0.1795450000000000 H
   0.5649299999999999    0.7786900000000000    0.1784850000000000 H
   0.3783266666666666    0.1216900000000000    0.1832450000000000 H
   0.3699833333333333    0.3038600000000000    0.1842200000000000 H
   0.5763033333333333    0.4016600000000000    0.1995950000000000 H
   0.5782766666666667    0.2302900000000000    0.1960000000000000 H
   0.5867499999999999    0.0806200000000000    0.1841100000000000 H
   0.3497300000000000    0.0000000000000000    0.1897900000000000 H
   0.4677400000000000    0.3972400000000000    0.3545850000000000 H
   0.5370966666666667    0.3635400000000000    0.3215050000000000 H
   0.5804833333333334    0.3408900000000000    0.0574050000000000 H
   0.6374400000000000    0.1650500000000000    0.0585700000000000 H
   0.5440166666666666    0.0390100000000000    0.0703550000000000 H
   0.4910733333333333    0.2207300000000000    0.0712150000000000 H
   0.4188733333333333    0.8784500000000000    0.0666000000000000 H
   0.4711433333333333    0.6962000000000000    0.0656400000000000 H
   0.3767166666666666    0.5984200000000000    0.0505400000000000 H
   0.6549866666666666    0.7698500000000000    0.0541550000000000 H
   0.6136966666666666    0.9192000000000000    0.0660150000000000 H
   0.3476066666666666    0.0066100000000000    0.0601250000000000 H
   0.3994900000000000    0.3970500000000000    0.1047200000000000 H
   0.3414066666666666    0.3635900000000000    0.0716050000000000 H
   0.6390533333333333    0.3407200000000000    0.3074300000000000 H
   0.6408566666666666    0.1647300000000000    0.3084450000000000 H
   0.4428633333333333    0.0394900000000000    0.3204250000000000 H
   0.4350766666666667    0.2212600000000000    0.3214850000000000 H
   0.6216833333333334    0.8782700000000000    0.3167250000000000 H
   0.6300266666666666    0.6961000000000001    0.3157550000000000 H
   0.4237033333333333    0.5982800000000000    0.3003900000000000 H
   0.4217299999999999    0.7696499999999999    0.3039800000000000 H
   0.4132566666666667    0.9193300000000000    0.3158650000000000 H
   0.6502800000000000    0.0063300000000000    0.3101850000000000 H
   0.5322733333333334    0.6027000000000000    0.1453900000000000 H
   0.4629133333333333    0.6363900000000000    0.1784650000000000 H
   0.4195233333333333    0.6590600000000000    0.4425700000000000 H
   0.3625666666666666    0.8349000000000000    0.4414050000000000 H
   0.4559900000000000    0.9609500000000000    0.4296150000000000 H
   0.5089333333333333    0.7792200000000000    0.4287600000000000 H
   0.5811333333333333    0.1215000000000000    0.4333700000000000 H
   0.5288633333333332    0.3037500000000000    0.4343350000000000 H
   0.6232899999999999    0.4015300000000000    0.4494350000000000 H
   0.3450233333333333    0.2301100000000000    0.4458150000000000 H
   0.3863133333333333    0.0807500000000000    0.4339600000000000 H
   0.6524000000000000    0.0000000000000000    0.4398500000000000 H
   0.6942933333333333    0.6592300000000000    0.1925500000000000 H
   0.6924866666666666    0.8352200000000000    0.1915350000000000 H
   0.8904766666666666    0.9604600000000000    0.1795450000000000 H
   0.8982633333333333    0.7786900000000000    0.1784850000000000 H
   0.7116600000000000    0.1216900000000000    0.1832450000000000 H
   0.7033166666666666    0.3038600000000000    0.1842200000000000 H
   0.9096366666666666    0.4016600000000000    0.1995950000000000 H
   0.9116099999999999    0.2302900000000000    0.1960000000000000 H
   0.9200833333333333    0.0806200000000000    0.1841100000000000 H
   0.6830633333333332    0.0000000000000000    0.1897900000000000 H
   0.8010733333333333    0.3972400000000000    0.3545850000000000 H
   0.8704299999999999    0.3635400000000000    0.3215050000000000 H
   0.9138166666666666    0.3408900000000000    0.0574050000000000 H
   0.9707733333333333    0.1650500000000000    0.0585700000000000 H
   0.8773500000000000    0.0390100000000000    0.0703550000000000 H
   0.8244066666666666    0.2207300000000000    0.0712150000000000 H
   0.7522066666666667    0.8784500000000000    0.0666000000000000 H
   0.8044766666666666    0.6962000000000000    0.0656400000000000 H
   0.7100500000000000    0.5984200000000000    0.0505400000000000 H
   0.9883200000000000    0.7698500000000000    0.0541550000000000 H
   0.9470299999999999    0.9192000000000000    0.0660150000000000 H
   0.6809400000000000    0.0066100000000000    0.0601250000000000 H
   0.7328233333333333    0.3970500000000000    0.1047200000000000 H
   0.6747400000000000    0.3635900000000000    0.0716050000000000 H
   0.9723866666666666    0.3407200000000000    0.3074300000000000 H
   0.9741899999999999    0.1647300000000000    0.3084450000000000 H
   0.7761966666666666    0.0394900000000000    0.3204250000000000 H
   0.7684099999999999    0.2212600000000000    0.3214850000000000 H
   0.9550166666666666    0.8782700000000000    0.3167250000000000 H
   0.9633600000000000    0.6961000000000001    0.3157550000000000 H
   0.7570366666666666    0.5982800000000000    0.3003900000000000 H
   0.7550633333333333    0.7696499999999999    0.3039800000000000 H
   0.7465900000000000    0.9193300000000000    0.3158650000000000 H
   0.9836133333333332    0.0063300000000000    0.3101850000000000 H
   0.8656066666666666    0.6027000000000000    0.1453900000000000 H
   0.7962466666666665    0.6363900000000000    0.1784650000000000 H
   0.7528566666666666    0.6590600000000000    0.4425700000000000 H
   0.6959000000000000    0.8349000000000000    0.4414050000000000 H
   0.7893233333333333    0.9609500000000000    0.4296150000000000 H
   0.8422666666666666    0.7792200000000000    0.4287600000000000 H
   0.9144666666666665    0.1215000000000000    0.4333700000000000 H
   0.8621966666666666    0.3037500000000000    0.4343350000000000 H
   0.9566233333333333    0.4015300000000000    0.4494350000000000 H
   0.6783566666666666    0.2301100000000000    0.4458150000000000 H
   0.7196466666666667    0.0807500000000000    0.4339600000000000 H
   0.9857333333333334    0.0000000000000000    0.4398500000000000 H
   0.2671866666666667    0.6029000000000000    0.8952550000000000 H
   0.3252766666666667    0.6363300000000000    0.9283750000000000 H
   0.0276266666666667    0.6592300000000000    0.6925500000000000 H
   0.0258200000000000    0.8352200000000000    0.6915350000000000 H
   0.2238100000000000    0.9604600000000000    0.6795450000000001 H
   0.2315966666666667    0.7786900000000000    0.6784850000000000 H
   0.0449933333333333    0.1216900000000000    0.6832450000000000 H
   0.0366500000000000    0.3038600000000000    0.6842200000000001 H
   0.2429700000000000    0.4016600000000000    0.6995950000000000 H
   0.2449433333333333    0.2302900000000000    0.6960000000000000 H
   0.2534166666666666    0.0806200000000000    0.6841100000000000 H
   0.0163966666666667    0.0000000000000000    0.6897900000000000 H
   0.1344066666666667    0.3972400000000000    0.8545849999999999 H
   0.2037633333333333    0.3635400000000000    0.8215049999999999 H
   0.2471500000000000    0.3408900000000000    0.5574050000000000 H
   0.3041066666666666    0.1650500000000000    0.5585700000000000 H
   0.2106833333333333    0.0390100000000000    0.5703549999999999 H
   0.1577400000000000    0.2207300000000000    0.5712150000000000 H
   0.0855400000000000    0.8784500000000000    0.5666000000000000 H
   0.1378100000000000    0.6962000000000000    0.5656400000000000 H
   0.0433833333333333    0.5984200000000000    0.5505400000000000 H
   0.3216533333333333    0.7698500000000000    0.5541550000000000 H
   0.2803633333333333    0.9192000000000000    0.5660150000000000 H
   0.0142733333333333    0.0066100000000000    0.5601250000000000 H
   0.0661566666666667    0.3970500000000000    0.6047200000000000 H
   0.0080733333333333    0.3635900000000000    0.5716050000000000 H
   0.3057200000000000    0.3407200000000000    0.8074300000000000 H
   0.3075233333333333    0.1647300000000000    0.8084450000000001 H
   0.1095300000000000    0.0394900000000000    0.8204250000000000 H
   0.1017433333333333    0.2212600000000000    0.8214850000000000 H
   0.2883500000000000    0.8782700000000000    0.8167249999999999 H
   0.2966933333333333    0.6961000000000001    0.8157550000000000 H
   0.0903700000000000    0.5982800000000000    0.8003899999999999 H
   0.0883966666666667    0.7696499999999999    0.8039799999999999 H
   0.0799233333333333    0.9193300000000000    0.8158650000000001 H
   0.3169466666666667    0.0063300000000000    0.8101849999999999 H
   0.1989400000000000    0.6027000000000000    0.6453900000000000 H
   0.1295800000000000    0.6363900000000000    0.6784650000000000 H
   0.0861900000000000    0.6590600000000000    0.9425700000000000 H
   0.0292333333333333    0.8349000000000000    0.9414050000000000 H
   0.1226566666666667    0.9609500000000000    0.9296150000000001 H
   0.1756000000000000    0.7792200000000000    0.9287600000000000 H
   0.2478000000000000    0.1215000000000000    0.9333700000000000 H
   0.1955300000000000    0.3037500000000000    0.9343350000000000 H
   0.2899566666666666    0.4015300000000000    0.9494350000000000 H
   0.0116900000000000    0.2301100000000000    0.9458150000000001 H
   0.0529800000000000    0.0807500000000000    0.9339600000000000 H
   0.3190666666666667    0.0000000000000000    0.9398500000000001 H
   0.6005199999999999    0.6029000000000000    0.8952550000000000 H
   0.6586099999999999    0.6363300000000000    0.9283750000000000 H
   0.3609600000000000    0.6592300000000000    0.6925500000000000 H
   0.3591533333333333    0.8352200000000000    0.6915350000000000 H
   0.5571433333333333    0.9604600000000000    0.6795450000000001 H
   0.5649299999999999    0.7786900000000000    0.6784850000000000 H
   0.3783266666666666    0.1216900000000000    0.6832450000000000 H
   0.3699833333333333    0.3038600000000000    0.6842200000000001 H
   0.5763033333333333    0.4016600000000000    0.6995950000000000 H
   0.5782766666666667    0.2302900000000000    0.6960000000000000 H
   0.5867499999999999    0.0806200000000000    0.6841100000000000 H
   0.3497300000000000    0.0000000000000000    0.6897900000000000 H
   0.4677400000000000    0.3972400000000000    0.8545849999999999 H
   0.5370966666666667    0.3635400000000000    0.8215049999999999 H
   0.5804833333333334    0.3408900000000000    0.5574050000000000 H
   0.6374400000000000    0.1650500000000000    0.5585700000000000 H
   0.5440166666666666    0.0390100000000000    0.5703549999999999 H
   0.4910733333333333    0.2207300000000000    0.5712150000000000 H
   0.4188733333333333    0.8784500000000000    0.5666000000000000 H
   0.4711433333333333    0.6962000000000000    0.5656400000000000 H
   0.3767166666666666    0.5984200000000000    0.5505400000000000 H
   0.6549866666666666    0.7698500000000000    0.5541550000000000 H
   0.6136966666666666    0.9192000000000000    0.5660150000000000 H
   0.3476066666666666    0.0066100000000000    0.5601250000000000 H
   0.3994900000000000    0.3970500000000000    0.6047200000000000 H
   0.3414066666666666    0.3635900000000000    0.5716050000000000 H
   0.6390533333333333    0.3407200000000000    0.8074300000000000 H
   0.6408566666666666    0.1647300000000000    0.8084450000000001 H
   0.4428633333333333    0.0394900000000000    0.8204250000000000 H
   0.4350766666666667    0.2212600000000000    0.8214850000000000 H
   0.6216833333333334    0.8782700000000000    0.8167249999999999 H
   0.6300266666666666    0.6961000000000001    0.8157550000000000 H
   0.4237033333333333    0.5982800000000000    0.8003899999999999 H
   0.4217299999999999    0.7696499999999999    0.8039799999999999 H
   0.4132566666666667    0.9193300000000000    0.8158650000000001 H
   0.6502800000000000    0.0063300000000000    0.8101849999999999 H
   0.5322733333333334    0.6027000000000000    0.6453900000000000 H
   0.4629133333333333    0.6363900000000000    0.6784650000000000 H
   0.4195233333333333    0.6590600000000000    0.9425700000000000 H
   0.3625666666666666    0.8349000000000000    0.9414050000000000 H
   0.4559900000000000    0.9609500000000000    0.9296150000000001 H
   0.5089333333333333    0.7792200000000000    0.9287600000000000 H
   0.5811333333333333    0.1215000000000000    0.9333700000000000 H
   0.5288633333333332    0.3037500000000000    0.9343350000000000 H
   0.6232899999999999    0.4015300000000000    0.9494350000000000 H
   0.3450233333333333    0.2301100000000000    0.9458150000000001 H
   0.3863133333333333    0.0807500000000000    0.9339600000000000 H
   0.6524000000000000    0.0000000000000000    0.9398500000000001 H
   0.9338533333333333    0.6029000000000000    0.8952550000000000 H
   0.9919433333333333    0.6363300000000000    0.9283750000000000 H
   0.6942933333333333    0.6592300000000000    0.6925500000000000 H
   0.6924866666666666    0.8352200000000000    0.6915350000000000 H
   0.8904766666666666    0.9604600000000000    0.6795450000000001 H
   0.8982633333333333    0.7786900000000000    0.6784850000000000 H
   0.7116600000000000    0.1216900000000000    0.6832450000000000 H
   0.7033166666666666    0.3038600000000000    0.6842200000000001 H
   0.9096366666666666    0.4016600000000000    0.6995950000000000 H
   0.9116099999999999    0.2302900000000000    0.6960000000000000 H
   0.9200833333333333    0.0806200000000000    0.6841100000000000 H
   0.6830633333333332    0.0000000000000000    0.6897900000000000 H
   0.8010733333333333    0.3972400000000000    0.8545849999999999 H
   0.8704299999999999    0.3635400000000000    0.8215049999999999 H
   0.9138166666666666    0.3408900000000000    0.5574050000000000 H
   0.9707733333333333    0.1650500000000000    0.5585700000000000 H
   0.8773500000000000    0.0390100000000000    0.5703549999999999 H
   0.8244066666666666    0.2207300000000000    0.5712150000000000 H
   0.7522066666666667    0.8784500000000000    0.5666000000000000 H
   0.8044766666666666    0.6962000000000000    0.5656400000000000 H
   0.7100500000000000    0.5984200000000000    0.5505400000000000 H
   0.9883200000000000    0.7698500000000000    0.5541550000000000 H
   0.9470299999999999    0.9192000000000000    0.5660150000000000 H
   0.6809400000000000    0.0066100000000000    0.5601250000000000 H
   0.7328233333333333    0.3970500000000000    0.6047200000000000 H
   0.6747400000000000    0.3635900000000000    0.5716050000000000 H
   0.9723866666666666    0.3407200000000000    0.8074300000000000 H
   0.9741899999999999    0.1647300000000000    0.8084450000000001 H
   0.7761966666666666    0.0394900000000000    0.8204250000000000 H
   0.7684099999999999    0.2212600000000000    0.8214850000000000 H
   0.9550166666666666    0.8782700000000000    0.8167249999999999 H
   0.9633600000000000    0.6961000000000001    0.8157550000000000 H
   0.7570366666666666    0.5982800000000000    0.8003899999999999 H
   0.7550633333333333    0.7696499999999999    0.8039799999999999 H
   0.7465900000000000    0.9193300000000000    0.8158650000000001 H
   0.9836133333333332    0.0063300000000000    0.8101849999999999 H
   0.8656066666666666    0.6027000000000000    0.6453900000000000 H
   0.7962466666666665    0.6363900000000000    0.6784650000000000 H
   0.7528566666666666    0.6590600000000000    0.9425700000000000 H
   0.6959000000000000    0.8349000000000000    0.9414050000000000 H
   0.7893233333333333    0.9609500000000000    0.9296150000000001 H
   0.8422666666666666    0.7792200000000000    0.9287600000000000 H
   0.9144666666666665    0.1215000000000000    0.9333700000000000 H
   0.8621966666666666    0.3037500000000000    0.9343350000000000 H
   0.9566233333333333    0.4015300000000000    0.9494350000000000 H
   0.6783566666666666    0.2301100000000000    0.9458150000000001 H
   0.7196466666666667    0.0807500000000000    0.9339600000000000 H
   0.9857333333333334    0.0000000000000000    0.9398500000000001 H
   0.2749433333333333    0.6231500000000000    0.0243200000000000 C
   0.2438266666666667    0.5978500000000000    0.0068200000000000 C
   0.2696366666666666    0.6077000000000000    0.4324500000000000 C
   0.3012100000000000    0.6283800000000000    0.4508950000000000 C
   0.2788100000000000    0.6360600000000000    0.0751200000000000 C
   0.2119133333333333    0.5776800000000000    0.0381850000000000 C
   0.3312000000000000    0.7286300000000000    0.1890400000000000 C
   0.3297666666666667    0.8276300000000000    0.1886750000000000 C
   0.2908066666666667    0.9150700000000001    0.1857300000000000 C
   0.2549066666666666    0.8958199999999999    0.1821800000000000 C
   0.2590633333333333    0.7945400000000000    0.1819850000000000 C
   0.3124366666666666    0.1582600000000000    0.1893600000000000 C
   0.0141900000000000    0.1822300000000000    0.1862850000000000 C
   0.0099600000000000    0.2832300000000000    0.1872800000000000 C
   0.2725100000000000    0.3387600000000000    0.1951850000000000 C
   0.2739666666666666    0.2405900000000000    0.1937000000000000 C
   0.2858066666666667    0.0216500000000000    0.1862550000000000 C
   0.3173533333333333    0.0518400000000000    0.1885800000000000 C
   0.1493600000000000    0.3768600000000000    0.2255700000000000 C
   0.1097533333333333    0.4021500000000000    0.2430600000000000 C
   0.1385833333333333    0.3923700000000000    0.3174000000000000 C
   0.1771200000000000    0.3715900000000000    0.2989750000000000 C
   0.1576500000000000    0.3641400000000000    0.1747600000000000 C
   0.0712800000000000    0.4219700000000000    0.2117050000000000 C
   0.2405733333333333    0.2713600000000000    0.0609200000000000 C
   0.2722033333333333    0.1724400000000000    0.0613650000000000 C
   0.2624733333333333    0.0848200000000000    0.0642900000000000 C
   0.2201700000000000    0.1038100000000000    0.0677500000000000 C
   0.1905000000000000    0.2050500000000000    0.0678400000000000 C
   0.0318433333333333    0.8418400000000000    0.0606550000000000 C
   0.0748833333333333    0.8178800000000001    0.0636550000000000 C
   0.1042566666666667    0.7168600000000001    0.0626450000000000 C
   0.0519833333333333    0.6613200000000000    0.0549000000000000 C
   0.0207733333333333    0.7595000000000000    0.0564150000000000 C
   0.2930600000000000    0.9783200000000000    0.0638050000000000 C
   0.0013200000000000    0.9482900000000000    0.0614200000000000 C
   0.0583933333333333    0.3768000000000000    0.4756550000000000 C
   0.0895133333333333    0.4021000000000000    0.4931550000000000 C
   0.0637066666666667    0.3922400000000000    0.0675300000000000 C
   0.0321333333333333    0.3715600000000000    0.0490850000000000 C
   0.0545266666666667    0.3638900000000000    0.4248550000000000 C
   0.1214233333333333    0.4222700000000000    0.4617900000000000 C
   0.0021466666666667    0.2713200000000000    0.3109400000000000 C
   0.0035766666666667    0.1723200000000000    0.3113000000000000 C
   0.0425333333333333    0.0848800000000000    0.3142400000000000 C
   0.0784300000000000    0.1041300000000000    0.3177950000000000 C
   0.0742766666666667    0.2054100000000000    0.3179900000000000 C
   0.0209033333333333    0.8416800000000000    0.3106150000000000 C
   0.3191533333333333    0.8177300000000000    0.3136900000000000 C
   0.3233833333333333    0.7167300000000000    0.3126950000000000 C
   0.0608300000000000    0.6611900000000001    0.3048000000000000 C
   0.0593733333333333    0.7593600000000000    0.3062800000000000 C
   0.0475333333333333    0.9782999999999999    0.3137150000000000 C
   0.0159866666666667    0.9481100000000000    0.3113950000000000 C
   0.1839800000000000    0.6230800000000000    0.2744050000000000 C
   0.2235866666666667    0.5978000000000000    0.2569200000000000 C
   0.1947600000000000    0.6075700000000001    0.1825750000000000 C
   0.1562233333333333    0.6283500000000000    0.2010000000000000 C
   0.1756866666666667    0.6358000000000000    0.3252150000000000 C
   0.2620566666666667    0.5779900000000000    0.2882700000000000 C
   0.0927666666666667    0.7286000000000000    0.4390550000000000 C
   0.0611366666666667    0.8275100000000000    0.4386100000000000 C
   0.0708666666666667    0.9151300000000000    0.4356800000000000 C
   0.1131733333333333    0.8961400000000000    0.4322200000000000 C
   0.1428400000000000    0.7949100000000000    0.4321300000000000 C
   0.3014966666666666    0.1581100000000000    0.4393200000000000 C
   0.2584566666666667    0.1820600000000000    0.4363200000000000 C
   0.2290800000000000    0.2830900000000000    0.4373250000000000 C
   0.2813566666666666    0.3386200000000000    0.4450750000000000 C
   0.3125666666666667    0.2404500000000000    0.4435600000000000 C
   0.0402833333333333    0.0216300000000000    0.4361650000000000 C
   0.3320200000000000    0.0516600000000000    0.4385500000000000 C
   0.6082766666666666    0.6231500000000000    0.0243200000000000 C
   0.5771600000000000    0.5978500000000000    0.0068200000000000 C
   0.6029700000000000    0.6077000000000000    0.4324500000000000 C
   0.6345433333333332    0.6283800000000000    0.4508950000000000 C
   0.6121433333333333    0.6360600000000000    0.0751200000000000 C
   0.5452466666666667    0.5776800000000000    0.0381850000000000 C
   0.6645333333333333    0.7286300000000000    0.1890400000000000 C
   0.6631000000000000    0.8276300000000000    0.1886750000000000 C
   0.6241399999999999    0.9150700000000001    0.1857300000000000 C
   0.5882399999999999    0.8958199999999999    0.1821800000000000 C
   0.5923966666666667    0.7945400000000000    0.1819850000000000 C
   0.6457700000000000    0.1582600000000000    0.1893600000000000 C
   0.3475233333333333    0.1822300000000000    0.1862850000000000 C
   0.3432933333333333    0.2832300000000000    0.1872800000000000 C
   0.6058433333333333    0.3387600000000000    0.1951850000000000 C
   0.6073000000000000    0.2405900000000000    0.1937000000000000 C
   0.6191400000000000    0.0216500000000000    0.1862550000000000 C
   0.6506866666666666    0.0518400000000000    0.1885800000000000 C
   0.4826933333333333    0.3768600000000000    0.2255700000000000 C
   0.4430866666666666    0.4021500000000000    0.2430600000000000 C
   0.4719166666666667    0.3923700000000000    0.3174000000000000 C
   0.5104533333333333    0.3715900000000000    0.2989750000000000 C
   0.4909833333333333    0.3641400000000000    0.1747600000000000 C
   0.4046133333333333    0.4219700000000000    0.2117050000000000 C
   0.5739066666666667    0.2713600000000000    0.0609200000000000 C
   0.6055366666666666    0.1724400000000000    0.0613650000000000 C
   0.5958066666666666    0.0848200000000000    0.0642900000000000 C
   0.5535033333333333    0.1038100000000000    0.0677500000000000 C
   0.5238333333333334    0.2050500000000000    0.0678400000000000 C
   0.3651766666666666    0.8418400000000000    0.0606550000000000 C
   0.4082166666666667    0.8178800000000001    0.0636550000000000 C
   0.4375900000000000    0.7168600000000001    0.0626450000000000 C
   0.3853166666666666    0.6613200000000000    0.0549000000000000 C
   0.3541066666666666    0.7595000000000000    0.0564150000000000 C
   0.6263933333333334    0.9783200000000000    0.0638050000000000 C
   0.3346533333333333    0.9482900000000000    0.0614200000000000 C
   0.3917266666666667    0.3768000000000000    0.4756550000000000 C
   0.4228466666666666    0.4021000000000000    0.4931550000000000 C
   0.3970399999999999    0.3922400000000000    0.0675300000000000 C
   0.3654666666666667    0.3715600000000000    0.0490850000000000 C
   0.3878600000000000    0.3638900000000000    0.4248550000000000 C
   0.4547566666666666    0.4222700000000000    0.4617900000000000 C
   0.3354800000000000    0.2713200000000000    0.3109400000000000 C
   0.3369100000000000    0.1723200000000000    0.3113000000000000 C
   0.3758666666666666    0.0848800000000000    0.3142400000000000 C
   0.4117633333333333    0.1041300000000000    0.3177950000000000 C
   0.4076100000000000    0.2054100000000000    0.3179900000000000 C
   0.3542366666666666    0.8416800000000000    0.3106150000000000 C
   0.6524866666666667    0.8177300000000000    0.3136900000000000 C
   0.6567166666666666    0.7167300000000000    0.3126950000000000 C
   0.3941633333333333    0.6611900000000001    0.3048000000000000 C
   0.3927066666666666    0.7593600000000000    0.3062800000000000 C
   0.3808666666666666    0.9782999999999999    0.3137150000000000 C
   0.3493200000000000    0.9481100000000000    0.3113950000000000 C
   0.5173133333333333    0.6230800000000000    0.2744050000000000 C