P2 H4 C2 O6
1.0
  10.5142639654645649    0.0000000000000000   -1.0135197405740834
  -2.3919486596610708   10.9845626608535660   -1.6676899470007145
   0.0000000000000000    0.0000000000000000   33.6319999999999979
P H C O
2 4 2 6
direct
   0.2279700000000000    0.7455000000000001    0.3085400000000000 P
   0.2610500000000000    0.7467300000000000    0.4424800000000000 P
   0.3875500000000000    0.7950000000000000    0.3663300000000000 H
   0.2692300000000000    0.8854300000000001    0.3704400000000000 H
   0.1056000000000000    0.7013200000000001    0.3840450000000000 H
   0.2253500000000000    0.6131300000000000    0.3796300000000000 H
   0.2822600000000000    0.7916299999999999    0.3622800000000000 C
   0.2111800000000000    0.7063600000000000    0.3883000000000000 C
   0.3184800000000000    0.8282600000000000    0.2847000000000000 O
   0.2376600000000000    0.6117300000000000    0.2972400000000000 O
   1.0844600000000000    0.7616100000000000    0.3022950000000000 O
   0.1855700000000000    0.6409600000000000    0.4616050000000000 O
   0.2202200000000000    0.8675000000000000    0.4568900000000000 O
   0.4104900000000000    0.7597699999999999    0.4495250000000000 O
