H4 C8 O9
1.0
  18.5909920461169946    0.0000000000000000    0.0171971280931134
  -4.6262587586874133   13.4789878656791959   -2.2670500688209332
   0.0000000000000000    0.0000000000000000   17.4589999999999996
H C O
4 8 9
direct
   0.6640600000000000    0.5220000000000000    0.6752000000000000 H
   0.5459000000000001    0.4035900000000000    0.5462000000000000 H
   0.4785200000000000    0.2900300000000000    0.6264000000000000 H
   0.4706200000000000    0.4342300000000000    0.7448200000000000 H
   0.6127500000000000    0.5132500000000000    0.6399700000000000 C
   0.5804700000000000    0.4054300000000000    0.5980500000000000 C
   0.5239800000000000    0.3548400000000000    0.6561000000000000 C
   0.4914400000000000    0.4386900000000000    0.6861800000000000 C
   0.6320600000000000    0.5871499999999999    0.5833900000000000 C
   0.6383700000000000    0.3551000000000000    0.5680300000000000 C
   0.5561900000000000    0.3235000000000000    0.7252000000000000 C
   0.4265100000000000    0.4397500000000000    0.6319300000000000 C
   0.5551500000000000    0.5294700000000000    0.6918600000000000 O
   0.5942300000000000    0.6455400000000000    0.5797200000000000 O
   0.6879500000000000    0.5829000000000000    0.5424800000000000 O
   0.7060200000000000    0.3904800000000000    0.5994800000000000 O
   0.6160500000000000    0.2817700000000000    0.5138600000000000 O
   0.6260700000000000    0.3676400000000000    0.7457700000000000 O
   0.5095499999999999    0.2571100000000000    0.7570800000000000 O
   0.3704700000000000    0.3582700000000000    0.6200000000000000 O
   0.4313100000000000    0.5158700000000001    0.6032800000000000 O
