H8 C10 N2
1.0
  18.5909920461169946    0.0000000000000000    0.0171971280931134
  -4.6262587586874133   13.4789878656791959   -2.2670500688209332
   0.0000000000000000    0.0000000000000000   17.4589999999999996
H C N
8 10 2
direct
   0.8281500000000001    0.2762700000000000    0.7748800000000000 H
   0.8454600000000000    0.1366200000000000    0.6858000000000000 H
   0.5998000000000000    0.0141800000000000    0.6535500000000000 H
   0.5932100000000000    0.1627300000000000    0.7412100000000000 H
   0.8373900000000000    0.8235700000000000    0.5592000000000000 H
   0.8381400000000000    0.9756500000000000    0.6511900000000000 H
   0.6191600000000000    0.9426500000000000    0.5448000000000000 H
   0.6260599999999999    0.7897200000000000    0.4624800000000000 H
   0.7234800000000000    0.0611700000000000    0.6604000000000000 C
   0.6523099999999999    0.0713500000000000    0.6776000000000000 C
   0.7785500000000000    0.2170600000000000    0.7467800000000000 C
   0.7877900000000000    0.1370000000000000    0.6965500000000000 C
   0.6480399999999999    0.1536800000000000    0.7278200000000000 C
   0.7904600000000001    0.8534200000000000    0.5592500000000000 C
   0.7903200000000000    0.9384600000000000    0.6092400000000000 C
   0.7281400000000000    0.9733600000000000    0.6067600000000000 C
   0.6687100000000000    0.9194700000000000    0.5514500000000000 C
   0.6722500000000000    0.8345600000000000    0.5042400000000000 C
   0.7100400000000000    0.2261100000000000    0.7627400000000000 N
   0.7320100000000000    0.8012700000000000    0.5076000000000001 N
