H8 C10 N2
1.0
  22.1115988415564750    0.0000000000000000   -0.2489290462730398
   3.7996732782992626   21.7761123101934189    0.7545459774070029
   0.0000000000000000    0.0000000000000000   28.1359999999999992
H C N
8 10 2
direct
   0.4608100000000000    0.1534100000000000    0.2284800000000000 H
   0.4673500000000000    0.1510900000000000    0.1399900000000000 H
   0.2685400000000000    0.1839700000000000    0.1346050000000000 H
   0.2705600000000000    0.1846200000000000    0.2231250000000000 H
   0.4440600000000000    0.0902100000000000    0.0725950000000000 H
   0.2951500000000000    0.2454100000000000    0.0666200000000000 H
   0.4414400000000000    0.0934000000000000    0.9835149999999999 H
   0.3011200000000000    0.2434100000000000    0.9777549999999999 H
   0.4196200000000000    0.1593000000000000    0.2060100000000000 C
   0.4226500000000000    0.1577600000000000    0.1568050000000000 C
   0.3680600000000000    0.1671000000000000    0.1296350000000000 C
   0.3123300000000000    0.1768100000000000    0.1538500000000000 C
   0.3129600000000000    0.1771100000000000    0.2032000000000000 C
   0.3691500000000000    0.1673700000000000    0.0771300000000000 C
   0.4113800000000000    0.1249500000000000    0.0530300000000000 C
   0.4103300000000000    0.1263100000000000    0.0000000000000000 C
   0.3308700000000000    0.2096900000000000    0.0000000000000000 C
   0.3279800000000000    0.2105200000000000    0.0496950000000000 C
   0.3657500000000000    0.1688800000000000    0.2290000000000000 N
   0.3707800000000000    0.1680100000000000    0.9775150000000000 N
