H6 O4
1.0
  22.1115988415564750    0.0000000000000000   -0.2489290462730398
   3.7996732782992626   21.7761123101934189    0.7545459774070029
   0.0000000000000000    0.0000000000000000   28.1359999999999992
H O
6 4
direct
   0.0152825681743729    0.3425321775416190    0.5771452269381139 H
   0.0205622016941960    0.3281815648687657    0.7189284976985312 H
   0.0114093556983594    0.3356127164753236    0.6482181803136412 H
   0.7440172184711220    0.3258915976345477    0.5775602187445190 H
   0.7468490642374351    0.3206164349580175    0.7197547589262827 H
   0.7518120084232776    0.3228334198452658    0.6490296646624995 H
   0.0368700000000000    0.3385900000000000    0.6075950000000000 O
   0.0397900000000000    0.3304300000000000    0.6882500000000000 O
   0.7243400000000000    0.3260500000000000    0.6082050000000000 O
   0.7261500000000000    0.3230400000000000    0.6889950000000000 O
