H12 C9 N4 O3
1.0
  36.9259900789973372    0.0000000000000000    0.0270681693186871
   0.0340926427311810   20.9630361331578889   -1.4765428444946942
   0.0000000000000000    0.0000000000000000   31.3359999999999985
H C N O
12 9 4 3
direct
   0.3434800000000000    0.6567200000000000    0.4931050000000000 H
   0.3914600000000000    0.6635100000000000    0.4960750000000000 H
   0.3949950000000000    0.5900000000000000    0.6425800000000000 H
   0.3111900000000000    0.5907000000000000    0.5516250000000000 H
   0.3889550000000000    0.7659100000000000    0.5349350000000000 H
   0.3051350000000000    0.7843800000000000    0.6340900000000000 H
   0.2821600000000000    0.8235200000000000    0.5948500000000000 H
   0.2900750000000000    0.9433600000000000    0.5965150000000000 H
   0.3345550000000000    0.9404900000000000    0.5966500000000000 H
   0.2895250000000000    0.8907600000000000    0.6647650000000001 H
   0.3372050000000000    0.8862000000000000    0.6590950000000000 H
   0.3087950000000000    0.7483000000000000    0.5459000000000001 H
   0.3592150000000000    0.7744799999999999    0.4769950000000000 C
   0.3397300000000000    0.8110000000000001    0.5835750000000000 C
   0.3796600000000000    0.6021000000000000    0.6147500000000000 C
   0.3367450000000000    0.6020200000000000    0.5673700000000000 C
   0.3646850000000000    0.6386700000000000    0.5534500000000000 C
   0.3634650000000000    0.7475400000000000    0.5211050000000000 C
   0.3661200000000000    0.6737200000000000    0.5137250000000000 C
   0.3075250000000000    0.8244300000000000    0.6133350000000000 C
   0.3116100000000000    0.8863200000000000    0.6413400000000000 C
   0.3461750000000000    0.5791600000000000    0.6062400000000000 N
   0.3920000000000000    0.6384500000000000    0.5839500000000000 N
   0.3122250000000000    0.9440900000000000    0.6163500000000000 N
   0.3345600000000000    0.7670600000000000    0.5507500000000000 N
   0.3264450000000000    0.7888400000000000    0.4668000000000000 O
   0.3863250000000000    0.7780600000000000    0.4533500000000000 O
   0.3692700000000000    0.8392900000000000    0.5907000000000000 O
