H8 C10 N4
1.0
  28.5458787441680215    0.0000000000000000    0.0832029041336569
  -7.1665898618756287   13.0709999220818975   -5.6455779853436159
   0.0000000000000000    0.0000000000000000   39.4600000000000009
H C N
8 10 4
direct
   0.2609950000000000    0.3677600000000000    0.2294550000000000 H
   0.2111400000000000    0.1773700000000000    0.2057050000000000 H
   0.2273900000000000    0.2048000000000000    0.3185750000000000 H
   0.2726800000000000    0.3947600000000000    0.3382500000000000 H
   0.0186800000000000    0.6959100000000000    0.1595000000000000 H
   0.0617700000000000    0.8877400000000000    0.1818300000000000 H
   0.2035700000000000    0.9055500000000000    0.2297150000000000 H
   0.1561250000000000    0.7128100000000001    0.2031750000000000 H
   0.2524000000000000    0.3292200000000000    0.2483600000000000 C
   0.2246400000000000    0.2232200000000000    0.2351950000000000 C
   0.2158350000000000    0.1767900000000000    0.2604800000000000 C
   0.2337100000000000    0.2384900000000000    0.2982150000000000 C
   0.2595500000000000    0.3439600000000000    0.3092650000000000 C
   0.0595750000000000    0.7454100000000000    0.1748000000000000 C
   0.0833550000000000    0.8511300000000001    0.1874400000000000 C
   0.1353200000000000    0.9105500000000000    0.2082150000000000 C
   0.1626300000000000    0.8615200000000000    0.2145050000000000 C
   0.1366250000000000    0.7552800000000000    0.1999000000000000 C
   0.2699700000000000    0.3887300000000000    0.2848100000000000 N
   0.1916400000000000    0.0693500000000000    0.2501000000000000 N
   0.1574150000000000    0.0179800000000000    0.2201500000000000 N
   0.0859900000000000    0.6982000000000000    0.1807700000000000 N
