Zn32 H216 C406 N60 O128
1.0
  28.5458787441680215    0.0000000000000000    0.0832029041336569
  -7.1665898618756287   13.0709999220818975   -5.6455779853436159
   0.0000000000000000    0.0000000000000000   39.4600000000000009
Zn H C N O
32 216 406 60 128
direct
   0.2774750000000000    0.4602900000000000    0.0950050000000000 Zn
   0.3176950000000000    0.5441000000000000    0.3027700000000000 Zn
   0.0472700000000000    0.5397600000000000    0.1548400000000000 Zn
   0.4546800000000000    0.5437700000000000    0.0524500000000000 Zn
   0.2225400000000000    0.5397500000000000    0.4049200000000000 Zn
   0.1823050000000000    0.4558700000000000    0.1971300000000000 Zn
   0.4527450000000000    0.4602800000000000    0.3450850000000000 Zn
   0.0453300000000000    0.4562500000000000    0.4474650000000000 Zn
   0.7774750000000000    0.4602900000000000    0.0950050000000000 Zn
   0.8176950000000001    0.5441000000000000    0.3027700000000000 Zn
   0.5472700000000000    0.5397600000000000    0.1548400000000000 Zn
   0.9546800000000000    0.5437700000000000    0.0524500000000000 Zn
   0.7225400000000000    0.5397500000000000    0.4049200000000000 Zn
   0.6823049999999999    0.4558700000000000    0.1971300000000000 Zn
   0.9527450000000000    0.4602800000000000    0.3450850000000000 Zn
   0.5453300000000000    0.4562500000000000    0.4474650000000000 Zn
   0.2774750000000000    0.4602900000000000    0.5950050000000000 Zn
   0.3176950000000000    0.5441000000000000    0.8027700000000000 Zn
   0.0472700000000000    0.5397600000000000    0.6548400000000000 Zn
   0.4546800000000000    0.5437700000000000    0.5524500000000000 Zn
   0.2225400000000000    0.5397500000000000    0.9049199999999999 Zn
   0.1823050000000000    0.4558700000000000    0.6971300000000000 Zn
   0.4527450000000000    0.4602800000000000    0.8450850000000000 Zn
   0.0453300000000000    0.4562500000000000    0.9474650000000000 Zn
   0.7774750000000000    0.4602900000000000    0.5950050000000000 Zn
   0.8176950000000001    0.5441000000000000    0.8027700000000000 Zn
   0.5472700000000000    0.5397600000000000    0.6548400000000000 Zn
   0.9546800000000000    0.5437700000000000    0.5524500000000000 Zn
   0.7225400000000000    0.5397500000000000    0.9049199999999999 Zn
   0.6823049999999999    0.4558700000000000    0.6971300000000000 Zn
   0.9527450000000000    0.4602800000000000    0.8450850000000000 Zn
   0.5453300000000000    0.4562500000000000    0.9474650000000000 Zn
   0.2619550000000000    0.7793800000000000    0.3598950000000000 H
   0.1999800000000000    0.8540800000000000    0.3706500000000000 H
   0.1013400000000000    0.7361600000000000    0.3591850000000000 H
   0.0802250000000000    0.2491800000000000    0.3536050000000000 H
   0.0837650000000000    0.1544100000000000    0.2886550000000000 H
   0.1131250000000000    0.2478500000000000    0.2467300000000000 H
   0.0780500000000000    0.6329399999999999    0.0206900000000000 H
   0.1233950000000000    0.8233300000000000    0.0442900000000000 H
   0.1245800000000000    0.7950400000000000    0.4312450000000000 H
   0.0749150000000000    0.6051299999999999    0.4117450000000000 H
   0.1702550000000000    0.3035300000000000    0.0901300000000000 H
   0.1174000000000000    0.1116200000000000    0.0678000000000000 H
   0.2510800000000000    0.0953000000000000    0.0202100000000000 H
   0.3000050000000000    0.2880800000000000    0.0467650000000000 H
   0.3714250000000000    0.2208200000000000    0.3902500000000000 H
   0.2719550000000000    0.1464400000000000    0.3795550000000000 H
   0.2327100000000000    0.2645500000000000    0.3910050000000000 H
   0.4563550000000000    0.7509500000000000    0.3963200000000000 H
   0.0000000000000000    0.8457400000000000    0.4611100000000000 H
   0.4902500000000000    0.7523800000000000    0.0030100000000000 H
   0.2380600000000000    0.2206300000000000    0.1400200000000000 H
   0.3000300000000000    0.1459200000000000    0.1292200000000000 H
   0.3986650000000000    0.2638300000000000    0.1407150000000000 H
   0.4197650000000000    0.7508300000000000    0.1463100000000000 H
   0.4162350000000000    0.8455900000000000    0.2112650000000000 H
   0.3868950000000000    0.7521400000000000    0.2531850000000000 H
   0.4219600000000000    0.3670800000000000    0.4792250000000000 H
   0.3766200000000000    0.1766900000000000    0.4556250000000000 H
   0.3754350000000000    0.2049700000000000    0.0686650000000000 H
   0.4250900000000000    0.3948900000000000    0.0881700000000000 H
   0.3297550000000000    0.6964800000000000    0.4097900000000000 H
   0.3826050000000000    0.8883900000000000    0.4321050000000000 H
   0.2489350000000000    0.9047300000000000    0.4797050000000000 H
   0.2000150000000000    0.7119500000000000    0.4531650000000000 H
   0.1285850000000000    0.7791900000000000    0.1096600000000000 H
   0.2280550000000000    0.8535800000000000    0.1203750000000000 H
   0.2673000000000000    0.7354700000000000    0.1089100000000000 H
   0.0436400000000000    0.2490700000000000    0.1035950000000000 H
   0.4923950000000000    0.1542800000000000    0.0388000000000000 H
   0.0097600000000000    0.2476300000000000    0.4969000000000000 H
   0.2390000000000000    0.6322200000000000    0.2704550000000000 H
   0.2888400000000000    0.8226100000000000    0.2942150000000000 H
   0.2726000000000000    0.7952200000000000    0.1813500000000000 H
   0.2273250000000000    0.6052600000000000    0.1616350000000000 H
   0.4813250000000000    0.3040900000000000    0.3404200000000000 H
   0.4382300000000000    0.1122600000000000    0.3180850000000000 H
   0.2964300000000000    0.0944800000000000    0.2702150000000000 H
   0.3438800000000000    0.2872200000000000    0.2967550000000000 H
   0.7619549999999999    0.7793800000000000    0.3598950000000000 H
   0.6999800000000000    0.8540800000000000    0.3706500000000000 H
   0.6013400000000000    0.7361600000000000    0.3591850000000000 H
   0.5802250000000000    0.2491800000000000    0.3536050000000000 H
   0.5837650000000000    0.1544100000000000    0.2886550000000000 H
   0.6131250000000000    0.2478500000000000    0.2467300000000000 H
   0.5780500000000000    0.6329399999999999    0.0206900000000000 H
   0.6233950000000000    0.8233300000000000    0.0442900000000000 H
   0.6245800000000000    0.7950400000000000    0.4312450000000000 H
   0.5749150000000000    0.6051299999999999    0.4117450000000000 H
   0.6702550000000000    0.3035300000000000    0.0901300000000000 H
   0.6173999999999999    0.1116200000000000    0.0678000000000000 H
   0.7510800000000000    0.0953000000000000    0.0202100000000000 H
   0.8000050000000001    0.2880800000000000    0.0467650000000000 H
   0.8714250000000000    0.2208200000000000    0.3902500000000000 H
   0.7719549999999999    0.1464400000000000    0.3795550000000000 H
   0.7327100000000000    0.2645500000000000    0.3910050000000000 H
   0.9563550000000001    0.7509500000000000    0.3963200000000000 H
   0.5000000000000000    0.8457400000000000    0.4611100000000000 H
   0.9902500000000001    0.7523800000000000    0.0030100000000000 H
   0.7609950000000000    0.3677600000000000    0.2294550000000000 H
   0.7111400000000000    0.1773700000000000    0.2057050000000000 H
   0.7273900000000000    0.2048000000000000    0.3185750000000000 H
   0.7726800000000000    0.3947600000000000    0.3382500000000000 H
   0.5186800000000000    0.6959100000000000    0.1595000000000000 H
   0.5617700000000000    0.8877400000000000    0.1818300000000000 H
   0.7035700000000000    0.9055500000000000    0.2297150000000000 H
   0.6561250000000001    0.7128100000000001    0.2031750000000000 H
   0.7380599999999999    0.2206300000000000    0.1400200000000000 H
   0.8000300000000000    0.1459200000000000    0.1292200000000000 H
   0.8986650000000000    0.2638300000000000    0.1407150000000000 H
   0.9197649999999999    0.7508300000000000    0.1463100000000000 H
   0.9162350000000000    0.8455900000000000    0.2112650000000000 H
   0.8868950000000000    0.7521400000000000    0.2531850000000000 H
   0.9219600000000000    0.3670800000000000    0.4792250000000000 H
   0.8766200000000000    0.1766900000000000    0.4556250000000000 H
   0.8754350000000000    0.2049700000000000    0.0686650000000000 H
   0.9250900000000000    0.3948900000000000    0.0881700000000000 H
   0.8297550000000000    0.6964800000000000    0.4097900000000000 H
   0.8826050000000000    0.8883900000000000    0.4321050000000000 H
   0.7489350000000000    0.9047300000000000    0.4797050000000000 H
   0.7000150000000001    0.7119500000000000    0.4531650000000000 H
   0.6285849999999999    0.7791900000000000    0.1096600000000000 H
   0.7280550000000000    0.8535800000000000    0.1203750000000000 H
   0.7673000000000000    0.7354700000000000    0.1089100000000000 H
   0.5436400000000000    0.2490700000000000    0.1035950000000000 H
   0.9923950000000000    0.1542800000000000    0.0388000000000000 H
   0.5097600000000000    0.2476300000000000    0.4969000000000000 H
   0.7390000000000000    0.6322200000000000    0.2704550000000000 H
   0.7888400000000000    0.8226100000000000    0.2942150000000000 H
   0.7726000000000000    0.7952200000000000    0.1813500000000000 H
   0.7273250000000000    0.6052600000000000    0.1616350000000000 H
   0.9813250000000000    0.3040900000000000    0.3404200000000000 H
   0.9382300000000000    0.1122600000000000    0.3180850000000000 H
   0.7964300000000000    0.0944800000000000    0.2702150000000000 H
   0.8438800000000000    0.2872200000000000    0.2967550000000000 H
   0.2619550000000000    0.7793800000000000    0.8598950000000001 H
   0.1999800000000000    0.8540800000000000    0.8706499999999999 H
   0.1013400000000000    0.7361600000000000    0.8591850000000000 H
   0.0802250000000000    0.2491800000000000    0.8536049999999999 H
   0.0837650000000000    0.1544100000000000    0.7886550000000000 H
   0.1131250000000000    0.2478500000000000    0.7467300000000000 H
   0.0780500000000000    0.6329399999999999    0.5206900000000000 H
   0.1233950000000000    0.8233300000000000    0.5442900000000001 H
   0.1245800000000000    0.7950400000000000    0.9312450000000000 H
   0.0749150000000000    0.6051299999999999    0.9117450000000000 H
   0.1702550000000000    0.3035300000000000    0.5901300000000000 H
   0.1174000000000000    0.1116200000000000    0.5678000000000000 H
   0.2510800000000000    0.0953000000000000    0.5202100000000000 H
   0.3000050000000000    0.2880800000000000    0.5467649999999999 H
   0.3714250000000000    0.2208200000000000    0.8902500000000000 H
   0.2719550000000000    0.1464400000000000    0.8795550000000000 H
   0.2327100000000000    0.2645500000000000    0.8910050000000000 H
   0.4563550000000000    0.7509500000000000    0.8963200000000000 H
   0.0000000000000000    0.8457400000000000    0.9611100000000000 H
   0.4902500000000000    0.7523800000000000    0.5030100000000000 H
   0.2609950000000000    0.3677600000000000    0.7294550000000000 H
   0.2111400000000000    0.1773700000000000    0.7057050000000000 H
   0.2273900000000000    0.2048000000000000    0.8185750000000001 H
   0.2726800000000000    0.3947600000000000    0.8382499999999999 H
   0.0186800000000000    0.6959100000000000    0.6595000000000000 H
   0.0617700000000000    0.8877400000000000    0.6818299999999999 H
   0.2035700000000000    0.9055500000000000    0.7297150000000000 H
   0.1561250000000000    0.7128100000000001    0.7031750000000000 H
   0.2380600000000000    0.2206300000000000    0.6400200000000000 H
   0.3000300000000000    0.1459200000000000    0.6292200000000000 H
   0.3986650000000000    0.2638300000000000    0.6407150000000000 H
   0.4197650000000000    0.7508300000000000    0.6463099999999999 H
   0.4162350000000000    0.8455900000000000    0.7112650000000000 H
   0.3868950000000000    0.7521400000000000    0.7531850000000000 H
   0.4219600000000000    0.3670800000000000    0.9792250000000000 H
   0.3766200000000000    0.1766900000000000    0.9556249999999999 H
   0.3754350000000000    0.2049700000000000    0.5686650000000000 H
   0.4250900000000000    0.3948900000000000    0.5881700000000000 H
   0.3297550000000000    0.6964800000000000    0.9097900000000000 H
   0.3826050000000000    0.8883900000000000    0.9321050000000000 H
   0.2489350000000000    0.9047300000000000    0.9797050000000000 H
   0.2000150000000000    0.7119500000000000    0.9531650000000000 H
   0.1285850000000000    0.7791900000000000    0.6096600000000000 H
   0.2280550000000000    0.8535800000000000    0.6203750000000000 H
   0.2673000000000000    0.7354700000000000    0.6089100000000001 H
   0.0436400000000000    0.2490700000000000    0.6035950000000000 H
   0.4923950000000000    0.1542800000000000    0.5387999999999999 H
   0.0097600000000000    0.2476300000000000    0.9969000000000000 H
   0.2390000000000000    0.6322200000000000    0.7704550000000000 H
   0.2888400000000000    0.8226100000000000    0.7942150000000000 H
   0.2726000000000000    0.7952200000000000    0.6813500000000000 H
   0.2273250000000000    0.6052600000000000    0.6616350000000000 H
   0.4813250000000000    0.3040900000000000    0.8404199999999999 H
   0.4382300000000000    0.1122600000000000    0.8180850000000000 H
   0.2964300000000000    0.0944800000000000    0.7702150000000000 H
   0.3438800000000000    0.2872200000000000    0.7967550000000000 H
   0.7619549999999999    0.7793800000000000    0.8598950000000001 H
   0.6999800000000000    0.8540800000000000    0.8706499999999999 H
   0.6013400000000000    0.7361600000000000    0.8591850000000000 H
   0.5802250000000000    0.2491800000000000    0.8536049999999999 H
   0.5837650000000000    0.1544100000000000    0.7886550000000000 H
   0.6131250000000000    0.2478500000000000    0.7467300000000000 H
   0.5780500000000000    0.6329399999999999    0.5206900000000000 H
   0.6233950000000000    0.8233300000000000    0.5442900000000001 H
   0.6245800000000000    0.7950400000000000    0.9312450000000000 H
   0.5749150000000000    0.6051299999999999    0.9117450000000000 H
   0.6702550000000000    0.3035300000000000    0.5901300000000000 H
   0.6173999999999999    0.1116200000000000    0.5678000000000000 H
   0.7510800000000000    0.0953000000000000    0.5202100000000000 H
   0.8000050000000001    0.2880800000000000    0.5467649999999999 H
   0.8714250000000000    0.2208200000000000    0.8902500000000000 H
   0.7719549999999999    0.1464400000000000    0.8795550000000000 H
   0.7327100000000000    0.2645500000000000    0.8910050000000000 H
   0.9563550000000001    0.7509500000000000    0.8963200000000000 H
   0.5000000000000000    0.8457400000000000    0.9611100000000000 H
   0.9902500000000001    0.7523800000000000    0.5030100000000000 H
   0.7609950000000000    0.3677600000000000    0.7294550000000000 H
   0.7111400000000000    0.1773700000000000    0.7057050000000000 H
   0.7273900000000000    0.2048000000000000    0.8185750000000001 H
   0.7726800000000000    0.3947600000000000    0.8382499999999999 H
   0.5186800000000000    0.6959100000000000    0.6595000000000000 H
   0.5617700000000000    0.8877400000000000    0.6818299999999999 H
   0.7035700000000000    0.9055500000000000    0.7297150000000000 H
   0.6561250000000001    0.7128100000000001    0.7031750000000000 H
   0.7380599999999999    0.2206300000000000    0.6400200000000000 H
   0.8000300000000000    0.1459200000000000    0.6292200000000000 H
   0.8986650000000000    0.2638300000000000    0.6407150000000000 H
   0.9197649999999999    0.7508300000000000    0.6463099999999999 H
   0.9162350000000000    0.8455900000000000    0.7112650000000000 H
   0.8868950000000000    0.7521400000000000    0.7531850000000000 H
   0.9219600000000000    0.3670800000000000    0.9792250000000000 H
   0.8766200000000000    0.1766900000000000    0.9556249999999999 H
   0.8754350000000000    0.2049700000000000    0.5686650000000000 H
   0.9250900000000000    0.3948900000000000    0.5881700000000000 H
   0.8297550000000000    0.6964800000000000    0.9097900000000000 H
   0.8826050000000000    0.8883900000000000    0.9321050000000000 H
   0.7489350000000000    0.9047300000000000    0.9797050000000000 H
   0.7000150000000001    0.7119500000000000    0.9531650000000000 H
   0.6285849999999999    0.7791900000000000    0.6096600000000000 H
   0.7280550000000000    0.8535800000000000    0.6203750000000000 H
   0.7673000000000000    0.7354700000000000    0.6089100000000001 H
   0.5436400000000000    0.2490700000000000    0.6035950000000000 H
   0.9923950000000000    0.1542800000000000    0.5387999999999999 H
   0.5097600000000000    0.2476300000000000    0.9969000000000000 H
   0.7390000000000000    0.6322200000000000    0.7704550000000000 H
   0.7888400000000000    0.8226100000000000    0.7942150000000000 H
   0.7726000000000000    0.7952200000000000    0.6813500000000000 H
   0.7273250000000000    0.6052600000000000    0.6616350000000000 H
   0.9813250000000000    0.3040900000000000    0.8404199999999999 H
   0.9382300000000000    0.1122600000000000    0.8180850000000000 H
   0.7964300000000000    0.0944800000000000    0.7702150000000000 H
   0.8438800000000000    0.2872200000000000    0.7967550000000000 H
   0.2377000000000000    0.5840900000000000    0.3379650000000000 C
   0.1990050000000000    0.6250500000000000    0.3446400000000000 C
   0.2189650000000000    0.7304400000000000    0.3557950000000000 C
   0.1843800000000000    0.7717900000000000    0.3616500000000000 C
   0.1296650000000000    0.7067800000000000    0.3555350000000000 C
   0.1088650000000000    0.6006899999999999    0.3436500000000000 C
   0.1436200000000000    0.5580300000000000    0.3380950000000000 C
   0.0494650000000000    0.5352100000000000    0.3367150000000000 C
   0.1066900000000000    0.4424900000000000    0.3875950000000000 C
   0.1085900000000000    0.3922900000000000    0.3478450000000000 C
   0.0929400000000000    0.2878800000000000    0.3347350000000000 C
   0.0948700000000000    0.2352500000000000    0.2985000000000000 C
   0.1111500000000000    0.2868300000000000    0.2751550000000000 C
   0.1253950000000000    0.3907000000000000    0.2872900000000000 C
   0.1246750000000000    0.4453300000000000    0.3242350000000000 C
   0.1404650000000000    0.4401400000000000    0.2597000000000000 C
   0.0884550000000000    0.6713100000000000    0.0017200000000000 C
   0.1136800000000000    0.7772900000000000    0.0147950000000000 C
   0.1276450000000000    0.8234600000000000    0.4894150000000000 C
   0.1143650000000000    0.7615499999999999    0.4516850000000000 C
   0.0874900000000000    0.6561100000000000    0.4407400000000000 C
   0.1865550000000000    0.2543200000000000    0.0748600000000000 C
   0.1574650000000000    0.1485700000000000    0.0622500000000000 C
   0.1799550000000000    0.0895700000000000    0.0415650000000000 C
   0.2319950000000000    0.1390200000000000    0.0353450000000000 C
   0.2591000000000000    0.2452600000000000    0.0499250000000000 C
   0.4454250000000000    0.4160900000000000    0.4120500000000000 C
   0.3861600000000000    0.3752400000000000    0.4054750000000000 C
   0.3531050000000000    0.2698800000000000    0.3943700000000000 C
   0.2977600000000000    0.2287000000000000    0.3885100000000000 C
   0.2757850000000000    0.2938200000000000    0.3946500000000000 C
   0.3083450000000000    0.3998800000000000    0.4064950000000000 C
   0.3645200000000000    0.4423600000000000    0.4120000000000000 C
   0.2819100000000000    0.4655000000000000    0.4134100000000000 C
   0.3856900000000000    0.5575400000000000    0.3624800000000000 C
   0.4128200000000000    0.6079200000000000    0.4021650000000000 C
   0.4496450000000000    0.7123000000000000    0.4151900000000000 C
   0.4780900000000000    0.7649200000000000    0.4513050000000000 C
   0.4685600000000000    0.7133800000000000    0.4746750000000000 C
   0.4305700000000000    0.6095800000000000    0.4626350000000000 C
   0.4022700000000000    0.5549800000000000    0.4257950000000000 C
   0.4209100000000000    0.5601600000000000    0.4902200000000000 C
   0.2623150000000000    0.4159200000000000    0.1619450000000000 C
   0.3010100000000000    0.3749600000000000    0.1552700000000000 C
   0.2810450000000000    0.2695600000000000    0.1441200000000000 C
   0.3156300000000000    0.2282100000000000    0.1382150000000000 C
   0.3703400000000000    0.2932100000000000    0.1443500000000000 C
   0.3911450000000000    0.3993000000000000    0.1562550000000000 C
   0.3563900000000000    0.4419700000000000    0.1618000000000000 C
   0.4505450000000000    0.4647800000000000    0.1631900000000000 C
   0.3933250000000000    0.5575200000000000    0.1123250000000000 C
   0.3914150000000000    0.6077200000000000    0.1520700000000000 C
   0.4070650000000000    0.7121300000000000    0.1651800000000000 C
   0.4051350000000000    0.7647500000000000    0.2013850000000000 C
   0.3888650000000000    0.7131600000000000    0.2247600000000000 C
   0.3746250000000000    0.6093000000000000    0.2126200000000000 C
   0.3753400000000000    0.5546700000000000    0.1756800000000000 C
   0.3595650000000000    0.5598400000000000    0.2402000000000000 C
   0.4115550000000000    0.3287100000000000    0.4981950000000000 C
   0.3863350000000000    0.2227300000000000    0.4851150000000000 C
   0.3723700000000000    0.1765600000000000    0.0105000000000000 C
   0.3856500000000000    0.2384700000000000    0.0482300000000000 C
   0.4125200000000000    0.3439100000000000    0.0591750000000000 C
   0.3134550000000000    0.7457000000000000    0.4250600000000000 C
   0.3425400000000000    0.8514400000000000    0.4376600000000000 C
   0.3200550000000000    0.9104500000000000    0.4580000000000000 C
   0.2680200000000000    0.8610000000000000    0.4645700000000000 C
   0.2409150000000000    0.7547600000000000    0.4499950000000000 C
   0.0545850000000000    0.5839200000000000    0.0878400000000000 C
   0.1138500000000000    0.6247700000000000    0.0944350000000000 C
   0.1469100000000000    0.7301400000000000    0.1055500000000000 C
   0.2022500000000000    0.7713200000000000    0.1114100000000000 C
   0.2242250000000000    0.7062000000000000    0.1052650000000000 C
   0.1916650000000000    0.6001300000000001    0.0934100000000000 C
   0.1354950000000000    0.5576500000000000    0.0878850000000000 C
   0.2180950000000000    0.5345100000000000    0.0865000000000000 C
   0.1143150000000000    0.4424800000000000    0.1374300000000000 C
   0.0871850000000000    0.3921000000000000    0.0977450000000000 C
   0.0503550000000000    0.2877200000000000    0.0847250000000000 C
   0.0219100000000000    0.2350900000000000    0.0486100000000000 C
   0.0314450000000000    0.2866300000000000    0.0252350000000000 C
   0.0694400000000000    0.3904300000000000    0.0372750000000000 C
   0.0977350000000000    0.4450300000000000    0.0741150000000000 C
   0.0791000000000000    0.4398500000000000    0.0096900000000000 C
   0.2475900000000000    0.6707600000000000    0.2515500000000000 C
   0.2753450000000000    0.7767700000000000    0.2647200000000000 C
   0.2841550000000000    0.8232100000000000    0.2394450000000000 C
   0.2662800000000000    0.7615200000000000    0.2017050000000000 C
   0.2404450000000000    0.6560500000000000    0.1906500000000000 C
   0.4404250000000000    0.2545900000000000    0.3250500000000000 C
   0.4166450000000000    0.1488800000000000    0.3124800000000000 C
   0.3646750000000000    0.0894600000000000    0.2917100000000000 C
   0.3373700000000000    0.1385000000000000    0.2854250000000000 C
   0.3633800000000000    0.2447400000000000    0.2999950000000000 C
   0.7377000000000000    0.5840900000000000    0.3379650000000000 C
   0.6990050000000000    0.6250500000000000    0.3446400000000000 C
   0.7189650000000000    0.7304400000000000    0.3557950000000000 C
   0.6843800000000000    0.7717900000000000    0.3616500000000000 C
   0.6296650000000000    0.7067800000000000    0.3555350000000000 C
   0.6088650000000000    0.6006899999999999    0.3436500000000000 C
   0.6436200000000000    0.5580300000000000    0.3380950000000000 C
   0.5494650000000000    0.5352100000000000    0.3367150000000000 C
   0.6066900000000000    0.4424900000000000    0.3875950000000000 C
   0.6085900000000000    0.3922900000000000    0.3478450000000000 C
   0.5929400000000000    0.2878800000000000    0.3347350000000000 C
   0.5948700000000000    0.2352500000000000    0.2985000000000000 C
   0.6111500000000000    0.2868300000000000    0.2751550000000000 C
   0.6253950000000000    0.3907000000000000    0.2872900000000000 C
   0.6246750000000000    0.4453300000000000    0.3242350000000000 C
   0.6404650000000001    0.4401400000000000    0.2597000000000000 C
   0.5884550000000000    0.6713100000000000    0.0017200000000000 C
   0.6136800000000000    0.7772900000000000    0.0147950000000000 C
   0.6276450000000000    0.8234600000000000    0.4894150000000000 C
   0.6143650000000000    0.7615499999999999    0.4516850000000000 C
   0.5874900000000000    0.6561100000000000    0.4407400000000000 C
   0.6865550000000000    0.2543200000000000    0.0748600000000000 C
   0.6574650000000000    0.1485700000000000    0.0622500000000000 C
   0.6799550000000000    0.0895700000000000    0.0415650000000000 C
   0.7319950000000000    0.1390200000000000    0.0353450000000000 C
   0.7591000000000000    0.2452600000000000    0.0499250000000000 C
   0.9454250000000000    0.4160900000000000    0.4120500000000000 C
   0.8861600000000001    0.3752400000000000    0.4054750000000000 C
   0.8531050000000000    0.2698800000000000    0.3943700000000000 C
   0.7977600000000000    0.2287000000000000    0.3885100000000000 C
   0.7757849999999999    0.2938200000000000    0.3946500000000000 C
   0.8083450000000000    0.3998800000000000    0.4064950000000000 C
   0.8645200000000000    0.4423600000000000    0.4120000000000000 C
   0.7819100000000000    0.4655000000000000    0.4134100000000000 C
   0.8856900000000000    0.5575400000000000    0.3624800000000000 C
   0.9128200000000000    0.6079200000000000    0.4021650000000000 C
   0.9496450000000001    0.7123000000000000    0.4151900000000000 C
   0.9780900000000000    0.7649200000000000    0.4513050000000000 C
   0.9685600000000000    0.7133800000000000    0.4746750000000000 C
   0.9305700000000000    0.6095800000000000    0.4626350000000000 C
   0.9022700000000000    0.5549800000000000    0.4257950000000000 C
   0.9209100000000000    0.5601600000000000    0.4902200000000000 C
   0.7524000000000000    0.3292200000000000    0.2483600000000000 C
   0.7246400000000000    0.2232200000000000    0.2351950000000000 C
   0.7158350000000000    0.1767900000000000    0.2604800000000000 C
   0.7337100000000000    0.2384900000000000    0.2982150000000000 C
   0.7595499999999999    0.3439600000000000    0.3092650000000000 C
   0.5595750000000000    0.7454100000000000    0.1748000000000000 C
   0.5833550000000000    0.8511300000000001    0.1874400000000000 C
   0.6353200000000000    0.9105500000000000    0.2082150000000000 C
   0.6626300000000001    0.8615200000000000    0.2145050000000000 C
   0.6366250000000000    0.7552800000000000    0.1999000000000000 C
   0.7623150000000001    0.4159200000000000    0.1619450000000000 C
   0.8010100000000000    0.3749600000000000    0.1552700000000000 C
   0.7810450000000000    0.2695600000000000    0.1441200000000000 C
   0.8156300000000001    0.2282100000000000    0.1382150000000000 C
   0.8703400000000000    0.2932100000000000    0.1443500000000000 C
   0.8911450000000001    0.3993000000000000    0.1562550000000000 C
   0.8563900000000000    0.4419700000000000    0.1618000000000000 C
   0.9505450000000000    0.4647800000000000    0.1631900000000000 C
   0.8933249999999999    0.5575200000000000    0.1123250000000000 C
   0.8914150000000001    0.6077200000000000    0.1520700000000000 C
   0.9070650000000000    0.7121300000000000    0.1651800000000000 C
   0.9051350000000000    0.7647500000000000    0.2013850000000000 C
   0.8888650000000000    0.7131600000000000    0.2247600000000000 C
   0.8746250000000000    0.6093000000000000    0.2126200000000000 C
   0.8753400000000000    0.5546700000000000    0.1756800000000000 C
   0.8595650000000000    0.5598400000000000    0.2402000000000000 C
   0.9115550000000000    0.3287100000000000    0.4981950000000000 C
   0.8863350000000000    0.2227300000000000    0.4851150000000000 C
   0.8723700000000000    0.1765600000000000    0.0105000000000000 C
   0.8856500000000000    0.2384700000000000    0.0482300000000000 C
   0.9125200000000000    0.3439100000000000    0.0591750000000000 C
   0.8134550000000000    0.7457000000000000    0.4250600000000000 C
   0.8425400000000001    0.8514400000000000    0.4376600000000000 C
   0.8200550000000000    0.9104500000000000    0.4580000000000000 C
   0.7680199999999999    0.8610000000000000    0.4645700000000000 C
   0.7409150000000000    0.7547600000000000    0.4499950000000000 C
   0.5545850000000000    0.5839200000000000    0.0878400000000000 C
   0.6138500000000000    0.6247700000000000    0.0944350000000000 C
   0.6469100000000000    0.7301400000000000    0.1055500000000000 C
   0.7022500000000000    0.7713200000000000    0.1114100000000000 C
   0.7242250000000000    0.7062000000000000    0.1052650000000000 C
   0.6916650000000000    0.6001300000000001    0.0934100000000000 C
   0.6354950000000000    0.5576500000000000    0.0878850000000000 C
   0.7180950000000000    0.5345100000000000    0.0865000000000000 C
   0.6143149999999999    0.4424800000000000    0.1374300000000000 C
   0.5871850000000000    0.3921000000000000    0.0977450000000000 C
   0.5503550000000000    0.2877200000000000    0.0847250000000000 C
   0.5219100000000000    0.2350900000000000    0.0486100000000000 C
   0.5314449999999999    0.2866300000000000    0.0252350000000000 C
   0.5694399999999999    0.3904300000000000    0.0372750000000000 C
   0.5977350000000000    0.4450300000000000    0.0741150000000000 C
   0.5790999999999999    0.4398500000000000    0.0096900000000000 C