H5 C6 N6 O2
1.0
  20.4719999875277452    0.0000000000000000   -0.0007146076087883
  -0.0026455150838022   12.6309994901722682   -0.0024249779011150
   0.0000000000000000    0.0000000000000000   15.3859999999999992
H C N O
5 6 6 2
direct
   0.9381100000000000    0.7581599999999999    0.4329000000000000 H
   0.0771300000000000    0.7824500000000000    0.6326000000000001 H
   0.0100900000000000    0.4935400000000000    0.6098300000000000 H
   0.9686800000000000    0.4730500000000000    0.7692500000000000 H
   0.1158800000000000    0.6526999999999999    0.8895999999999999 H
   0.9713200000000000    0.7372800000000000    0.4849400000000000 C
   0.0419400000000000    0.7518400000000000    0.5863300000000000 C
   0.0457000000000000    0.5556400000000000    0.6251500000000000 C
   0.1145000000000000    0.5111100000000000    0.5976100000000000 C
   0.0107700000000000    0.5235800000000000    0.7804700000000000 C
   0.0855600000000000    0.6168200000000000    0.8398300000000000 C
   0.0235000000000000    0.6496000000000000    0.5787600000000001 N
   0.9782100000000000    0.6386900000000000    0.5134800000000000 N
   0.0091400000000000    0.8096600000000000    0.5280300000000000 N
   0.0460600000000000    0.5730100000000000    0.7184400000000000 N
   0.0948800000000000    0.6326600000000000    0.7555500000000001 N
   0.0345800000000000    0.5501100000000000    0.8581900000000000 N
   0.1417600000000000    0.5554400000000000    0.5333400000000000 O
   0.1332800000000000    0.4356800000000000    0.6436900000000000 O
