H5 O3
1.0
  20.4719999875277452    0.0000000000000000   -0.0007146076087883
  -0.0026455150838022   12.6309994901722682   -0.0024249779011150
   0.0000000000000000    0.0000000000000000   15.3859999999999992
H O
5 3
direct
   0.0709757106827611    0.5977356935984111    0.8450824039204493 H
   0.0171141315493603    0.5306488706427773    0.8011783538016077 H
   0.1206903690522458    0.5211767300104936    0.5830151717172474 H
   0.0331349964504490    0.7673615032083853    0.5706796430811335 H
  -0.0178929494694096    0.7579242812639910    0.4972301641291154 H
   0.0345800000000000    0.5501100000000000    0.8581900000000000 O
   0.1417600000000000    0.5554400000000000    0.5333400000000000 O
   0.0091400000000000    0.8096600000000000    0.5280300000000000 O
