H8 C12 N6
1.0
  23.4159154178677511    0.0000000000000000    0.0629376140574667
  -0.0037498337137816   15.7295673330106780    0.3734346730425808
   0.0000000000000000    0.0000000000000000   18.0459999999999994
H C N
8 12 6
direct
   0.7878500000000001    0.5109700000000000    0.8048800000000000 H
   0.9728100000000000    0.4994400000000000    0.8052000000000000 H
   0.7911600000000000    0.5067000000000000    0.9427000000000000 H
   0.9686900000000001    0.4964700000000000    0.9429600000000000 H
   0.7893700000000000    0.5276000000000000    0.4754300000000000 H
   0.9697000000000000    0.4691100000000000    0.4756500000000000 H
   0.7923000000000000    0.5225800000000000    0.3371400000000000 H
   0.9648400000000000    0.4630600000000000    0.3375400000000000 H
   0.8287600000000001    0.5076600000000000    0.8333100000000000 C
   0.9317299999999999    0.5011500000000000    0.8335000000000000 C
   0.8304100000000000    0.5058000000000000    0.9102900000000000 C
   0.9296200000000000    0.4989400000000000    0.9104500000000000 C
   0.8803600000000000    0.5051800000000000    0.7938400000000000 C
   0.8806500000000000    0.5062300000000000    0.7122500000000000 C
   0.8802800000000000    0.5030100000000000    0.5687500000000000 C
   0.8796200000000000    0.4989500000000000    0.4871000000000000 C
   0.8291500000000001    0.5137200000000000    0.4471700000000000 C
   0.9294800000000000    0.4805100000000000    0.4473400000000000 C
   0.8303500000000000    0.5103400000000000    0.3703400000000000 C
   0.9272100000000000    0.4776500000000000    0.3705400000000000 C
   0.8799000000000000    0.5011400000000000    0.9483900000000000 N
   0.9293100000000000    0.4822100000000000    0.6775600000000001 N
   0.8326700000000000    0.5324400000000000    0.6764800000000000 N
   0.9291700000000001    0.4810300000000000    0.6041900000000000 N
   0.8324300000000000    0.5302000000000000    0.6031100000000000 N
   0.8785300000000000    0.4925800000000000    0.3326300000000000 N
