H4 O2
1.0
  23.4159154178677511    0.0000000000000000    0.0629376140574667
  -0.0037498337137816   15.7295673330106780    0.3734346730425808
   0.0000000000000000    0.0000000000000000   18.0459999999999994
H O
4 2
direct
   0.8435726093759823    0.5054659123595383    0.3599907970201683 H
   0.9138479856676444    0.4817480869758026    0.3601342078196466 H
   0.8440313971135516    0.5045174033027046    0.9207764665594326 H
   0.9159421609111134    0.4995452141189773    0.9208871925790900 H
   0.8785300000000000    0.4925800000000000    0.3326300000000000 O
   0.8799000000000000    0.5011400000000000    0.9483900000000001 O
