Ca12 H51 C99 O71
1.0
  20.2318738990884306    0.0000000000000000    3.0467816678233444
   2.1376445088146925    8.3156317168056848    3.6104882768525575
   0.0000000000000000    0.0000000000000000   20.3670000000000009
Ca H C O
12 51 99 71
direct
   0.0816066666666667    0.4552000000000000    0.3090600000000000 Ca
   0.2517166666666666    0.5448300000000000    0.6909350000000000 Ca
   0.7482733333333333    0.4552000000000000    0.3090600000000000 Ca
   0.4149400000000000    0.4552000000000000    0.3090600000000000 Ca
   0.5850500000000000    0.5448300000000000    0.6909350000000000 Ca
   0.9183833333333333    0.5448300000000000    0.6909350000000000 Ca
   0.4149400000000000    0.4552000000000000    0.8090600000000000 Ca
   0.5850500000000000    0.5448300000000000    0.1909350000000000 Ca
   0.7482733333333333    0.4552000000000000    0.8090600000000000 Ca
   0.9183833333333333    0.5448300000000000    0.1909350000000000 Ca
   0.0816066666666667    0.4552000000000000    0.8090600000000000 Ca
   0.2517166666666666    0.5448300000000000    0.1909350000000000 Ca
   0.0833266666666667    0.2730300000000000    0.4732550000000000 H
   0.0813700000000000    0.9127400000000000    0.3700900000000000 H
   0.0741366666666667    0.4773900000000000    0.5492650000000000 H
   0.0915033333333333    0.8930200000000000    0.5836400000000000 H
   0.2500066666666667    0.7270100000000000    0.5267450000000000 H
   0.2519633333333333    0.0872900000000000    0.6299049999999999 H
   0.2591933333333333    0.5226400000000000    0.4507350000000000 H
   0.2418300000000000    0.1070100000000000    0.4163500000000000 H
   0.7524921813831557    0.1130103328174331    0.4311473923821111 H
   0.7434582182480839    0.7976305512460785    0.3143456412521603 H
   0.7399148988080222    0.3873032589303469    0.4792381171362411 H
   0.7414233377912942    0.5970673359884835    0.4005129646761740 H
   0.4166600000000000    0.2730300000000000    0.4732550000000000 H
   0.4147033333333333    0.9127400000000000    0.3700900000000000 H
   0.4074700000000000    0.4773900000000000    0.5492650000000000 H
   0.4248366666666666    0.8930200000000000    0.5836400000000000 H
   0.9166733333333332    0.7270100000000000    0.5267450000000000 H
   0.9186299999999999    0.0872900000000000    0.6299049999999999 H
   0.9258599999999999    0.5226400000000000    0.4507350000000000 H
   0.9084966666666666    0.1070100000000000    0.4163500000000000 H
   0.5833400000000000    0.7270100000000000    0.5267450000000000 H
   0.5852966666666666    0.0872900000000000    0.6299049999999999 H
   0.5925266666666666    0.5226400000000000    0.4507350000000000 H
   0.5751633333333332    0.1070100000000000    0.4163500000000000 H
   0.8330962072518644    0.6516387571619221    0.6733570736372771 H
   0.6717987845093574    0.4800229974428613    0.6697598625527278 H
   0.7521267013478707    0.5678922947749275    0.6684379869851735 H
   0.4166600000000000    0.2730300000000000    0.9732550000000000 H
   0.4147033333333333    0.9127400000000000    0.8700900000000000 H
   0.4074700000000000    0.4773900000000000    0.0492650000000000 H
   0.4248366666666666    0.8930200000000000    0.0836400000000000 H
   0.5833400000000000    0.7270100000000000    0.0267450000000000 H
   0.5852966666666666    0.0872900000000000    0.1299050000000000 H
   0.5925266666666666    0.5226400000000000    0.9507350000000000 H
   0.5751633333333332    0.1070100000000000    0.9163500000000000 H
   0.7499933333333333    0.2730300000000000    0.9732550000000000 H
   0.7480366666666667    0.9127400000000000    0.8700900000000000 H
   0.7408033333333333    0.4773900000000000    0.0492650000000000 H
   0.7581700000000000    0.8930200000000000    0.0836400000000000 H
   0.9166733333333332    0.7270100000000000    0.0267450000000000 H
   0.9186299999999999    0.0872900000000000    0.1299050000000000 H
   0.9258599999999999    0.5226400000000000    0.9507350000000000 H
   0.9084966666666666    0.1070100000000000    0.9163500000000000 H
   0.0833266666666667    0.2730300000000000    0.9732550000000000 H
   0.0813700000000000    0.9127400000000000    0.8700900000000000 H
   0.0741366666666667    0.4773900000000000    0.0492650000000000 H
   0.0915033333333333    0.8930200000000000    0.0836400000000000 H
   0.2500066666666667    0.7270100000000000    0.0267450000000000 H
   0.2519633333333333    0.0872900000000000    0.1299050000000000 H
   0.2591933333333333    0.5226400000000000    0.9507350000000000 H
   0.2418300000000000    0.1070100000000000    0.9163500000000000 H
   0.0767900000000000    0.6057300000000000    0.4041000000000000 C
   0.0845933333333333    0.5880400000000000    0.6536450000000000 C
   0.0857433333333333    0.0955400000000000    0.4450900000000000 C
   0.0819966666666667    0.8470299999999999    0.4274600000000000 C
   0.0852266666666667    0.9228900000000000    0.4738400000000000 C
   0.0791300000000000    0.6858700000000000    0.4546150000000000 C
   0.0781200000000000    0.6014100000000000    0.5284200000000000 C
   0.0875233333333333    0.8356100000000000    0.5474500000000000 C
   0.0833766666666667    0.6756700000000000    0.5747599999999999 C
   0.2565400000000000    0.3943000000000000    0.5958950000000000 C
   0.2487333333333333    0.4120000000000000    0.3463500000000000 C
   0.2475833333333333    0.9045000000000000    0.5549100000000000 C
   0.2513300000000000    0.1530100000000000    0.5725300000000000 C
   0.2481033333333333    0.0771400000000000    0.5261550000000000 C
   0.2541966666666666    0.3141700000000000    0.5453800000000000 C
   0.2552033333333333    0.3986200000000000    0.4715750000000000 C
   0.2458033333333333    0.1644200000000000    0.4525400000000000 C
   0.2499466666666667    0.3243700000000000    0.4252300000000000 C
   0.4101233333333333    0.6057300000000000    0.4041000000000000 C
   0.4179266666666667    0.5880400000000000    0.6536450000000000 C
   0.4190766666666667    0.0955400000000000    0.4450900000000000 C
   0.4153300000000000    0.8470299999999999    0.4274600000000000 C
   0.4185600000000000    0.9228900000000000    0.4738400000000000 C
   0.4124633333333333    0.6858700000000000    0.4546150000000000 C
   0.4114533333333333    0.6014100000000000    0.5284200000000000 C
   0.4208566666666667    0.8356100000000000    0.5474500000000000 C
   0.4167100000000000    0.6756700000000000    0.5747599999999999 C
   0.9232066666666666    0.3943000000000000    0.5958950000000000 C
   0.9154000000000000    0.4120000000000000    0.3463500000000000 C
   0.9142500000000000    0.9045000000000000    0.5549100000000000 C
   0.9179966666666666    0.1530100000000000    0.5725300000000000 C
   0.9147700000000000    0.0771400000000000    0.5261550000000000 C
   0.9208633333333333    0.3141700000000000    0.5453800000000000 C
   0.9218700000000000    0.3986200000000000    0.4715750000000000 C
   0.9124699999999999    0.1644200000000000    0.4525400000000000 C
   0.9166133333333333    0.3243700000000000    0.4252300000000000 C
   0.5898733333333332    0.3943000000000000    0.5958950000000000 C
   0.5820666666666666    0.4120000000000000    0.3463500000000000 C
   0.5809166666666666    0.9045000000000000    0.5549100000000000 C
   0.5846633333333333    0.1530100000000000    0.5725300000000000 C
   0.5814366666666666    0.0771400000000000    0.5261550000000000 C
   0.5875299999999999    0.3141700000000000    0.5453800000000000 C
   0.5885366666666667    0.3986200000000000    0.4715750000000000 C
   0.5791366666666666    0.1644200000000000    0.4525400000000000 C
   0.5832800000000000    0.3243700000000000    0.4252300000000000 C
   0.4101233333333333    0.6057300000000000    0.9041000000000000 C
   0.4179266666666667    0.5880400000000000    0.1536450000000000 C
   0.4190766666666667    0.0955400000000000    0.9450900000000000 C
   0.4153300000000000    0.8470299999999999    0.9274600000000000 C
   0.4185600000000000    0.9228900000000000    0.9738400000000000 C
   0.4124633333333333    0.6858700000000000    0.9546150000000000 C
   0.4114533333333333    0.6014100000000000    0.0284200000000000 C
   0.4208566666666667    0.8356100000000000    0.0474500000000000 C
   0.4167100000000000    0.6756700000000000    0.0747600000000000 C
   0.5898733333333332    0.3943000000000000    0.0958950000000000 C
   0.5820666666666666    0.4120000000000000    0.8463499999999999 C
   0.5809166666666666    0.9045000000000000    0.0549100000000000 C
   0.5846633333333333    0.1530100000000000    0.0725300000000000 C
   0.5814366666666666    0.0771400000000000    0.0261550000000000 C
   0.5875299999999999    0.3141700000000000    0.0453800000000000 C
   0.5885366666666667    0.3986200000000000    0.9715750000000001 C
   0.5791366666666666    0.1644200000000000    0.9525399999999999 C
   0.5832800000000000    0.3243700000000000    0.9252300000000000 C
   0.7434566666666667    0.6057300000000000    0.9041000000000000 C
   0.7512599999999999    0.5880400000000000    0.1536450000000000 C
   0.7524100000000000    0.0955400000000000    0.9450900000000000 C
   0.7486633333333332    0.8470299999999999    0.9274600000000000 C
   0.7518933333333333    0.9228900000000000    0.9738400000000000 C
   0.7457966666666667    0.6858700000000000    0.9546150000000000 C
   0.7447866666666666    0.6014100000000000    0.0284200000000000 C
   0.7541899999999999    0.8356100000000000    0.0474500000000000 C
   0.7500433333333333    0.6756700000000000    0.0747600000000000 C
   0.9232066666666666    0.3943000000000000    0.0958950000000000 C
   0.9154000000000000    0.4120000000000000    0.8463499999999999 C
   0.9142500000000000    0.9045000000000000    0.0549100000000000 C
   0.9179966666666666    0.1530100000000000    0.0725300000000000 C
   0.9147700000000000    0.0771400000000000    0.0261550000000000 C
   0.9208633333333333    0.3141700000000000    0.0453800000000000 C
   0.9218700000000000    0.3986200000000000    0.9715750000000001 C
   0.9124699999999999    0.1644200000000000    0.9525399999999999 C
   0.9166133333333333    0.3243700000000000    0.9252300000000000 C
   0.0767900000000000    0.6057300000000000    0.9041000000000000 C
   0.0845933333333333    0.5880400000000000    0.1536450000000000 C
   0.0857433333333333    0.0955400000000000    0.9450900000000000 C
   0.0819966666666667    0.8470299999999999    0.9274600000000000 C
   0.0852266666666667    0.9228900000000000    0.9738400000000000 C
   0.0791300000000000    0.6858700000000000    0.9546150000000000 C
   0.0781200000000000    0.6014100000000000    0.0284200000000000 C
   0.0875233333333333    0.8356100000000000    0.0474500000000000 C
   0.0833766666666667    0.6756700000000000    0.0747600000000000 C
   0.2565400000000000    0.3943000000000000    0.0958950000000000 C
   0.2487333333333333    0.4120000000000000    0.8463499999999999 C
   0.2475833333333333    0.9045000000000000    0.0549100000000000 C
   0.2513300000000000    0.1530100000000000    0.0725300000000000 C
   0.2481033333333333    0.0771400000000000    0.0261550000000000 C
   0.2541966666666666    0.3141700000000000    0.0453800000000000 C
   0.2552033333333333    0.3986200000000000    0.9715750000000001 C
   0.2458033333333333    0.1644200000000000    0.9525399999999999 C
   0.2499466666666667    0.3243700000000000    0.9252300000000000 C
   0.0770166666666667    0.6848000000000000    0.3376350000000000 O
   0.0750366666666667    0.4567300000000000    0.4294800000000000 O
   0.1289633333333333    0.5997800000000000    0.6880650000000000 O
   0.0409400000000000    0.5062700000000000    0.6859150000000001 O
   0.0853533333333333    0.1536000000000000    0.4952450000000000 O
   0.0861266666666667    0.1770300000000000    0.3800550000000000 O
   0.2563133333333333    0.3152200000000000    0.6623600000000001 O
   0.2582900000000000    0.5433000000000000    0.5705200000000000 O
   0.2043633333333333    0.4002600000000000    0.3119300000000000 O
   0.2923866666666667    0.4937600000000000    0.3140800000000000 O
   0.2479833333333333    0.8464400000000000    0.5047550000000000 O
   0.2472000000000000    0.8230200000000000    0.6199450000000000 O
   0.7527933333333333    0.1770300000000000    0.3800550000000000 O
   0.7436833333333333    0.6848000000000000    0.3376350000000000 O
   0.7417033333333333    0.4567300000000000    0.4294800000000000 O
   0.4103500000000000    0.6848000000000000    0.3376350000000000 O
   0.4083700000000000    0.4567300000000000    0.4294800000000000 O
   0.4622966666666666    0.5997800000000000    0.6880650000000000 O
   0.3742733333333333    0.5062700000000000    0.6859150000000001 O
   0.4186866666666667    0.1536000000000000    0.4952450000000000 O
   0.4194599999999999    0.1770300000000000    0.3800550000000000 O
   0.9229799999999999    0.3152200000000000    0.6623600000000001 O
   0.9249566666666666    0.5433000000000000    0.5705200000000000 O
   0.8710300000000000    0.4002600000000000    0.3119300000000000 O
   0.9590533333333333    0.4937600000000000    0.3140800000000000 O
   0.9146500000000000    0.8464400000000000    0.5047550000000000 O
   0.9138666666666666    0.8230200000000000    0.6199450000000000 O
   0.5896466666666667    0.3152200000000000    0.6623600000000001 O
   0.5916233333333333    0.5433000000000000    0.5705200000000000 O
   0.5376966666666667    0.4002600000000000    0.3119300000000000 O
   0.6257200000000001    0.4937600000000000    0.3140800000000000 O
   0.5813166666666667    0.8464400000000000    0.5047550000000000 O
   0.5805333333333333    0.8230200000000000    0.6199450000000000 O
   0.7956299999999999    0.5997800000000000    0.6880650000000000 O
   0.7076066666666666    0.5062700000000000    0.6859150000000001 O
   0.4103500000000000    0.6848000000000000    0.8376350000000000 O
   0.4083700000000000    0.4567300000000000    0.9294800000000000 O
   0.4622966666666666    0.5997800000000000    0.1880650000000000 O
   0.3742733333333333    0.5062700000000000    0.1859150000000000 O
   0.4186866666666667    0.1536000000000000    0.9952449999999999 O
   0.4194599999999999    0.1770300000000000    0.8800550000000000 O
   0.5896466666666667    0.3152200000000000    0.1623600000000000 O
   0.5916233333333333    0.5433000000000000    0.0705200000000000 O
   0.5376966666666667    0.4002600000000000    0.8119300000000000 O
   0.6257200000000001    0.4937600000000000    0.8140800000000000 O
   0.5813166666666667    0.8464400000000000    0.0047550000000000 O
   0.5805333333333333    0.8230200000000000    0.1199450000000000 O
   0.7436833333333333    0.6848000000000000    0.8376350000000000 O
   0.7417033333333333    0.4567300000000000    0.9294800000000000 O
   0.7956299999999999    0.5997800000000000    0.1880650000000000 O
   0.7076066666666666    0.5062700000000000    0.1859150000000000 O
   0.7520199999999999    0.1536000000000000    0.9952449999999999 O
   0.7527933333333333    0.1770300000000000    0.8800550000000000 O
   0.9229799999999999    0.3152200000000000    0.1623600000000000 O
   0.9249566666666666    0.5433000000000000    0.0705200000000000 O
   0.8710300000000000    0.4002600000000000    0.8119300000000000 O
   0.9590533333333333    0.4937600000000000    0.8140800000000000 O
   0.9146500000000000    0.8464400000000000    0.0047550000000000 O
   0.9138666666666666    0.8230200000000000    0.1199450000000000 O
   0.0770166666666667    0.6848000000000000    0.8376350000000000 O
   0.0750366666666667    0.4567300000000000    0.9294800000000000 O
   0.1289633333333333    0.5997800000000000    0.1880650000000000 O
   0.0409400000000000    0.5062700000000000    0.1859150000000000 O
   0.0853533333333333    0.1536000000000000    0.9952449999999999 O
   0.0861266666666667    0.1770300000000000    0.8800550000000000 O
   0.2563133333333333    0.3152200000000000    0.1623600000000000 O
   0.2582900000000000    0.5433000000000000    0.0705200000000000 O
   0.2043633333333333    0.4002600000000000    0.8119300000000000 O
   0.2923866666666667    0.4937600000000000    0.8140800000000000 O
   0.2479833333333333    0.8464400000000000    0.0047550000000000 O
   0.2472000000000000    0.8230200000000000    0.1199450000000000 O
