H4 C9 O6
1.0
  20.2318738990884306    0.0000000000000000    3.0467816678233444
   2.1376445088146925    8.3156317168056848    3.6104882768525575
   0.0000000000000000    0.0000000000000000   20.3670000000000009
H C O
4 9 6
direct
   0.7499933333333333    0.2730300000000000    0.4732550000000000 H
   0.7480366666666667    0.9127400000000000    0.3700900000000000 H
   0.7408033333333333    0.4773900000000000    0.5492650000000000 H
   0.7581700000000000    0.8930200000000000    0.5836400000000000 H
   0.7457966666666667    0.6858700000000000    0.4546150000000000 C
   0.7486633333333332    0.8470299999999999    0.4274600000000000 C
   0.7518933333333333    0.9228900000000000    0.4738400000000000 C
   0.7434566666666667    0.6057300000000000    0.4041000000000000 C
   0.7524100000000000    0.0955400000000000    0.4450900000000000 C
   0.7500433333333333    0.6756700000000000    0.5747599999999999 C
   0.7447866666666666    0.6014100000000000    0.5284200000000000 C
   0.7541899999999999    0.8356100000000000    0.5474500000000000 C
   0.7512599999999999    0.5880400000000000    0.6536450000000000 C
   0.7417033333333333    0.4567300000000000    0.4294800000000000 O
   0.7436833333333333    0.6848000000000000    0.3376350000000000 O
   0.7520199999999999    0.1536000000000000    0.4952450000000000 O
   0.7527933333333333    0.1770300000000000    0.3800550000000000 O
   0.7956299999999999    0.5997800000000000    0.6880650000000000 O
   0.7076066666666666    0.5062700000000000    0.6859150000000001 O
