H12 C6 N4
1.0
  24.7087049888571251    0.0000000000000000   -2.0305570106813122
  -1.9419506547423719   19.5624806354538343   -4.4363935851138558
   0.0000000000000000    0.0000000000000000   20.2250000000000014
H C N
12 6 4
direct
   0.7691850000000000    0.1827600000000000    0.5966700000000000 H
   0.7791900000000000    0.1220700000000000    0.6478600000000000 H
   0.6792899999999999    0.0651500000000000    0.4621900000000000 H
   0.7121649999999999    0.1496300000000000    0.4897500000000000 H
   0.7341750000000000    0.0071500000000000    0.6108000000000000 H
   0.6922450000000000    0.9827800000000000    0.5318000000000001 H
   0.8492649999999999    0.1002800000000000    0.4633400000000000 H
   0.8103800000000000    0.1699900000000000    0.4900200000000000 H
   0.8312250000000000    0.0289000000000000    0.6121400000000000 H
   0.8612550000000000    0.0184300000000000    0.5335800000000001 H
   0.7327800000000000    0.9697500000000000    0.4262400000000000 H
   0.8047750000000000    0.9852100000000000    0.4265800000000000 H
   0.7740850000000000    0.1288200000000000    0.5954199999999999 C
   0.7164200000000001    0.0957100000000000    0.4888100000000000 C
   0.7296500000000000    0.0131000000000000    0.5581100000000000 C
   0.8142950000000000    0.1162300000000000    0.4906000000000000 C
   0.8257200000000000    0.0348600000000000    0.5593900000000001 C
   0.7696600000000000    0.0000000000000000    0.4537500000000000 C
   0.7229200000000000    0.0870700000000000    0.5600000000000001 N
   0.7640250000000000    0.0741200000000000    0.4521000000000000 N
   0.8216000000000000    0.1078800000000000    0.5606300000000000 N
   0.7768150000000000    0.9914900000000000    0.5233600000000000 N
