H6 C12 O4
1.0
  24.7087049888571251    0.0000000000000000   -2.0305570106813122
  -1.9419506547423719   19.5624806354538343   -4.4363935851138558
   0.0000000000000000    0.0000000000000000   20.2250000000000014
H C O
6 12 4
direct
   0.3429750000000000    0.3841200000000000    0.1054900000000000 H
   0.2438950000000000    0.3854200000000000    0.1132200000000000 H
   0.1490350000000000    0.3403000000000000    0.0659500000000000 H
   0.3144950000000000    0.2262200000000000    0.9213300000000000 H
   0.2190950000000000    0.1777900000000000    0.8760100000000000 H
   0.1201650000000000    0.1789600000000000    0.8841000000000000 H
   0.3344150000000000    0.3055400000000000    0.0119600000000000 C
   0.3942750000000000    0.3049100000000000    0.0092200000000000 C
   0.3142500000000000    0.3503500000000000    0.0668700000000000 C
   0.2592600000000000    0.3509100000000000    0.0710400000000000 C
   0.1648550000000000    0.3062000000000000    0.0230000000000000 C
   0.0693750000000000    0.2635300000000000    0.9787700000000000 C
   0.2216100000000000    0.3061800000000000    0.0210500000000000 C
   0.2417700000000000    0.2597600000000000    0.9660000000000000 C
   0.2985950000000000    0.2612400000000000    0.9625700000000000 C
   0.2039450000000000    0.2137600000000000    0.9172800000000000 C
   0.1289500000000000    0.2615700000000000    0.9748200000000000 C
   0.1489050000000000    0.2142800000000000    0.9216100000000000 C
   0.0533100000000000    0.3163200000000000    0.0164000000000000 O
   0.0381300000000000    0.2129100000000000    0.9424900000000000 O
   0.4242350000000000    0.3331900000000000    0.0642200000000000 O
   0.4121250000000000    0.2779200000000000    0.9529300000000001 O
