In24 H98 C184 O96
1.0
  29.2179991277694491    0.0000000000000000   -0.0071393041408249
   0.0053099191053414   19.1853208717477237   10.7381390777378325
   0.0000000000000000    0.0000000000000000   21.9720000000000013
In H C O
24 98 184 96
direct
   0.3749750000000000    0.5019100000000000    0.0000000000000000 In
   0.8749750000000001    0.5019100000000000    0.0000000000000000 In
   0.6249700000000000    0.5019100000000000    0.0000000000000000 In
   0.1249700000000000    0.5019100000000000    0.0000000000000000 In
   0.7500750000000000    0.5018400000000000    0.0000000000000000 In
   0.8749700000000000    0.9979400000000000    0.0025600000000000 In
   0.7500300000000000    0.9980599999999999    0.0024700000000000 In
   0.5000700000000000    0.5018400000000000    0.0000000000000000 In
   0.5000250000000001    0.9980599999999999    0.0024000000000000 In
   0.6249650000000000    0.9979500000000000    0.0025600000000000 In
   0.2500750000000000    0.5018400000000000    0.0000000000000000 In
   0.3749700000000000    0.9979400000000000    0.0025600000000000 In
   0.2500300000000000    0.9980599999999999    0.0024700000000000 In
   0.0000700000000000    0.5018400000000000    0.0000000000000000 In
   0.0000250000000000    0.9980599999999999    0.0024000000000000 In
   0.1249650000000000    0.9979500000000000    0.0025600000000000 In
   0.9999199999999999    0.9996800000000000    0.5001000000000000 In
   0.4999200000000000    0.9996800000000000    0.5001000000000000 In
   0.7499300000000000    0.9996800000000000    0.5001000000000000 In
   0.2499300000000000    0.9996800000000000    0.5001000000000000 In
   0.6250850000000000    0.9996900000000000    0.5000900000000000 In
   0.1250850000000000    0.9996900000000000    0.5000900000000000 In
   0.3750900000000000    0.9996900000000000    0.5000900000000000 In
   0.8750899999999999    0.9996900000000000    0.5000900000000000 In
   0.8817871188881470    1.0346074258065379   -0.1256062276123254 H
   0.7432098526686296    1.0349963857069742   -0.1258133954761137 H
   0.8124937911779394    1.0364822791314403   -0.1315645123981044 H
   0.7609250000000001    0.3222800000000000    0.9688000000000000 H
   0.7608850000000000    0.2096100000000000    0.9661999999999999 H
   0.6140200000000000    0.2099600000000000    0.9656700000000000 H
   0.6140200000000000    0.3226800000000000    0.9682100000000000 H
   0.2609250000000000    0.3222800000000000    0.9688000000000000 H
   0.2608850000000000    0.2096100000000000    0.9661999999999999 H
   0.1140200000000000    0.2099600000000000    0.9656700000000000 H
   0.1140200000000000    0.3226800000000000    0.9682100000000000 H
   0.8640250000000000    0.2099600000000000    0.9656700000000000 H
   0.8640250000000000    0.3226900000000000    0.9682100000000000 H
   0.0108750000000000    0.2096100000000000    0.9661999999999999 H
   0.0109200000000000    0.3222800000000000    0.9688300000000000 H
   0.3640250000000000    0.2099600000000000    0.9656700000000000 H
   0.3640250000000000    0.3226900000000000    0.9682100000000000 H
   0.5108750000000000    0.2096100000000000    0.9661999999999999 H
   0.5109200000000000    0.3222800000000000    0.9688300000000000 H
   0.4890750000000000    0.3159600000000000    0.2031300000000000 H
   0.4890450000000000    0.2025500000000000    0.3152200000000000 H
   0.6359650000000000    0.3155000000000000    0.2029500000000000 H
   0.6359350000000000    0.2021300000000000    0.3150700000000000 H
   0.9890749999999999    0.3159600000000000    0.2031300000000000 H
   0.9890450000000000    0.2025500000000000    0.3152200000000000 H
   0.1359650000000000    0.3155000000000000    0.2029500000000000 H
   0.1359350000000000    0.2021300000000000    0.3150700000000000 H
   0.2390700000000000    0.3159600000000000    0.2031300000000000 H
   0.2390400000000000    0.2025500000000000    0.3152200000000000 H
   0.3859700000000000    0.3155000000000000    0.2029500000000000 H
   0.3859400000000000    0.2021300000000000    0.3150700000000000 H
   0.7390700000000000    0.3159600000000000    0.2031300000000000 H
   0.7390400000000000    0.2025500000000000    0.3152200000000000 H
   0.8859699999999999    0.3155000000000000    0.2029500000000000 H
   0.8859399999999999    0.2021300000000000    0.3150700000000000 H
   0.9890450000000000    0.0339000000000000    0.7909700000000000 H
   0.9890700000000000    0.0311000000000000    0.6781000000000000 H
   0.1359500000000000    0.0307200000000000    0.6783600000000000 H
   0.1359600000000000    0.0335100000000000    0.7912300000000000 H
   0.4890450000000000    0.0339000000000000    0.7909700000000000 H
   0.4890700000000000    0.0311000000000000    0.6781000000000000 H
   0.6359500000000000    0.0307200000000000    0.6783600000000000 H
   0.6359600000000000    0.0335100000000000    0.7912300000000000 H
   0.2390350000000000    0.0339000000000000    0.7909700000000000 H
   0.2390650000000000    0.0311000000000000    0.6781000000000000 H
   0.3859700000000000    0.0335100000000000    0.7912300000000000 H
   0.3859550000000000    0.0307200000000000    0.6783600000000000 H
   0.8815237828163381    1.0282211000461645    0.5977241461665129 H
   0.7434956403844351    1.0284323598453045    0.5975798035753073 H
   0.8125068514376307    1.0297663648771724    0.6025555166247586 H
   0.3640350000000000    0.7986100000000000    0.6863200000000000 H
   0.3640150000000000    0.6862100000000000    0.7997000000000000 H
   0.5109900000000001    0.7974700000000000    0.6855700000000000 H
   0.5109100000000000    0.6849800000000000    0.7989000000000001 H
   0.8640350000000000    0.7986100000000000    0.6863200000000000 H
   0.8640150000000000    0.6862100000000000    0.7997000000000000 H
   0.0109900000000000    0.7974700000000000    0.6855700000000000 H
   0.0109100000000000    0.6849800000000000    0.7989000000000001 H
   0.7609950000000000    0.7974700000000000    0.6855700000000000 H
   0.7609150000000000    0.6849800000000000    0.7989000000000001 H
   0.6140099999999999    0.6862100000000000    0.7997000000000000 H
   0.6140300000000000    0.7986100000000000    0.6863200000000000 H
   0.2609950000000000    0.7974700000000000    0.6855700000000000 H
   0.2609150000000000    0.6849800000000000    0.7989000000000001 H
   0.1140100000000000    0.6862100000000000    0.7997000000000000 H
   0.1140300000000000    0.7986100000000000    0.6863200000000000 H
   0.7390150000000000    0.7906000000000000    0.0374300000000000 H
   0.7389400000000000    0.6789600000000000    0.0319200000000000 H
   0.8859200000000000    0.6777500000000000    0.0339100000000000 H
   0.8859699999999999    0.7894700000000000    0.0392800000000000 H
   0.0110000000000000    0.9623400000000000    0.2107400000000000 H
   0.0109950000000000    0.9667800000000000    0.3230000000000000 H
   0.8640550000000000    0.9669600000000000    0.3228000000000000 H
   0.8640550000000000    0.9625000000000000    0.2106000000000000 H
   0.4889450000000000    0.6789700000000000    0.0319200000000000 H
   0.4890200000000000    0.7906000000000000    0.0374300000000000 H
   0.6359100000000000    0.6777500000000000    0.0339100000000000 H
   0.6359600000000000    0.7894700000000000    0.0392900000000000 H
   0.7610100000000000    0.9623400000000000    0.2107400000000000 H
   0.7610000000000000    0.9667800000000000    0.3230400000000000 H
   0.6140500000000000    0.9625100000000000    0.2106000000000000 H
   0.6140450000000000    0.9669600000000000    0.3228900000000000 H
   0.2390150000000000    0.7906000000000000    0.0374300000000000 H
   0.2389400000000000    0.6789600000000000    0.0319200000000000 H
   0.3859200000000000    0.6777500000000000    0.0339100000000000 H
   0.3859700000000000    0.7894700000000000    0.0392800000000000 H
   0.5110000000000000    0.9623400000000000    0.2107400000000000 H
   0.5109950000000000    0.9667800000000000    0.3230000000000000 H
   0.3640550000000000    0.9669600000000000    0.3228000000000000 H
   0.3640550000000000    0.9625000000000000    0.2106000000000000 H
   0.9889450000000000    0.6789700000000000    0.0319200000000000 H
   0.9890200000000000    0.7906000000000000    0.0374300000000000 H
   0.1359100000000000    0.6777500000000000    0.0339100000000000 H
   0.1359600000000000    0.7894700000000000    0.0392900000000000 H
   0.2610100000000000    0.9623400000000000    0.2107400000000000 H
   0.2610000000000000    0.9667800000000000    0.3230400000000000 H
   0.1140500000000000    0.9625100000000000    0.2106000000000000 H
   0.1140450000000000    0.9669600000000000    0.3228900000000000 H
   0.6874650000000000    0.1331700000000000    0.9692200000000000 C
   0.6875450000000000    0.3951100000000000    0.9731100000000000 C
   0.7289350000000000    0.2975400000000000    0.9676100000000000 C
   0.7289099999999999    0.2349300000000000    0.9663700000000000 C
   0.6460049999999999    0.2351200000000000    0.9660600000000000 C
   0.6460000000000000    0.2977700000000000    0.9672700000000000 C
   0.6874500000000000    0.2028900000000000    0.9661100000000000 C
   0.6874750000000001    0.3292700000000000    0.9685300000000000 C
   0.1874650000000000    0.1331700000000000    0.9692200000000000 C
   0.1875450000000000    0.3951100000000000    0.9731100000000000 C
   0.2289350000000000    0.2975400000000000    0.9676100000000000 C
   0.2289100000000000    0.2349300000000000    0.9663700000000000 C
   0.1460050000000000    0.2351200000000000    0.9660600000000000 C
   0.1460000000000000    0.2977700000000000    0.9672700000000000 C
   0.1874500000000000    0.2028900000000000    0.9661100000000000 C
   0.1874750000000000    0.3292700000000000    0.9685300000000000 C
   0.9374700000000000    0.1331700000000000    0.9692300000000000 C
   0.9375500000000000    0.3951100000000000    0.9731100000000000 C
   0.8960150000000000    0.2351300000000000    0.9660500000000000 C
   0.8960100000000000    0.2977600000000000    0.9671999999999999 C
   0.9789150000000000    0.2349300000000000    0.9663600000000000 C
   0.9789450000000000    0.2975300000000000    0.9676200000000000 C
   0.9374600000000000    0.2028900000000000    0.9661000000000000 C
   0.9374800000000000    0.3292700000000000    0.9685300000000000 C
   0.4374700000000000    0.1331700000000000    0.9692300000000000 C
   0.4375500000000000    0.3951100000000000    0.9731100000000000 C
   0.3960150000000000    0.2351300000000000    0.9660500000000000 C
   0.3960100000000000    0.2977600000000000    0.9671999999999999 C
   0.4789150000000000    0.2349300000000000    0.9663600000000000 C
   0.4789450000000000    0.2975300000000000    0.9676200000000000 C
   0.4374600000000000    0.2028900000000000    0.9661000000000000 C
   0.4374800000000000    0.3292700000000000    0.9685300000000000 C
   0.5625599999999999    0.3896900000000000    0.1286400000000000 C
   0.5624800000000000    0.1273300000000000    0.3883000000000000 C
   0.5210399999999999    0.2909000000000000    0.2283400000000000 C
   0.5210200000000000    0.2280500000000000    0.2905700000000000 C
   0.5625150000000000    0.3227600000000000    0.1966600000000000 C
   0.6039750000000000    0.2906400000000000    0.2282400000000000 C
   0.6039650000000000    0.2278100000000000    0.2904800000000000 C
   0.5624850000000000    0.1959500000000000    0.3221400000000000 C
   0.0625600000000000    0.3896900000000000    0.1286400000000000 C
   0.0624800000000000    0.1273300000000000    0.3883000000000000 C
   0.0210400000000000    0.2909000000000000    0.2283400000000000 C
   0.0210200000000000    0.2280500000000000    0.2905700000000000 C
   0.0625150000000000    0.3227600000000000    0.1966600000000000 C
   0.1039750000000000    0.2906400000000000    0.2282400000000000 C
   0.1039650000000000    0.2278100000000000    0.2904800000000000 C
   0.0624850000000000    0.1959500000000000    0.3221400000000000 C
   0.3125650000000000    0.3896900000000000    0.1286400000000000 C
   0.3124850000000000    0.1273300000000000    0.3883000000000000 C
   0.2710450000000000    0.2909000000000000    0.2283400000000000 C
   0.2710250000000000    0.2280500000000000    0.2905700000000000 C
   0.3539850000000000    0.2906400000000000    0.2282400000000000 C
   0.3539700000000000    0.2278100000000000    0.2904800000000000 C
   0.3124900000000000    0.1959500000000000    0.3221400000000000 C
   0.3125250000000000    0.3227600000000000    0.1966600000000000 C
   0.8125650000000000    0.3896900000000000    0.1286400000000000 C
   0.8124850000000000    0.1273300000000000    0.3883000000000000 C
   0.7710450000000000    0.2909000000000000    0.2283400000000000 C
   0.7710250000000001    0.2280500000000000    0.2905700000000000 C
   0.8539850000000000    0.2906400000000000    0.2282400000000000 C
   0.8539700000000000    0.2278100000000000    0.2904800000000000 C
   0.8124899999999999    0.1959500000000000    0.3221400000000000 C
   0.8125249999999999    0.3227600000000000    0.1966600000000000 C
   0.0625050000000000    0.0255600000000000    0.6063200000000000 C
   0.0624850000000000    0.0305400000000000    0.8676199999999999 C
   0.0210150000000000    0.0333300000000000    0.7658800000000000 C
   0.0209700000000000    0.0318800000000000    0.7033199999999999 C
   0.1040300000000000    0.0316600000000000    0.7034000000000000 C
   0.1039800000000000    0.0331100000000000    0.7660200000000000 C
   0.0625000000000000    0.0304300000000000    0.6720300000000000 C
   0.0624950000000000    0.0333900000000000    0.7980600000000000 C
   0.5625050000000000    0.0255600000000000    0.6063200000000000 C
   0.5624850000000000    0.0305400000000000    0.8676199999999999 C
   0.5210150000000000    0.0333300000000000    0.7658800000000000 C
   0.5209700000000000    0.0318800000000000    0.7033199999999999 C
   0.6040300000000000    0.0316600000000000    0.7034000000000000 C
   0.6039800000000000    0.0331100000000000    0.7660200000000000 C
   0.5625000000000000    0.0304300000000000    0.6720300000000000 C
   0.5624950000000000    0.0333900000000000    0.7980600000000000 C
   0.3125100000000000    0.0255600000000000    0.6063200000000000 C
   0.3124950000000000    0.0305400000000000    0.8676199999999999 C
   0.2710250000000000    0.0333300000000000    0.7658800000000000 C
   0.2709750000000000    0.0318800000000000    0.7033199999999999 C
   0.3539850000000000    0.0331100000000000    0.7660200000000000 C
   0.3540400000000000    0.0316600000000000    0.7034600000000000 C
   0.3125100000000000    0.0304300000000000    0.6720300000000000 C
   0.3125000000000000    0.0333800000000000    0.7980600000000000 C
   0.4374300000000000    0.6132500000000000    0.8744499999999999 C
   0.4375350000000000    0.8724700000000000    0.6123000000000000 C
   0.3960000000000000    0.7731300000000000    0.7111400000000000 C
   0.3959400000000000    0.7109400000000000    0.7740000000000000 C
   0.4790100000000000    0.7724800000000001    0.7107000000000000 C
   0.4790200000000000    0.7102500000000000    0.7735800000000000 C
   0.4374650000000000    0.6792300000000000    0.8057299999999999 C
   0.4375200000000000    0.8044500000000000    0.6790300000000000 C
   0.9374300000000000    0.6132500000000000    0.8744499999999999 C
   0.9375350000000000    0.8724700000000000    0.6123000000000000 C
   0.8960000000000000    0.7731300000000000    0.7111400000000000 C
   0.8959400000000000    0.7109400000000000    0.7740000000000000 C
   0.9790099999999999    0.7724800000000001    0.7107000000000000 C
   0.9790200000000000    0.7102500000000000    0.7735800000000000 C
   0.9374650000000000    0.6792300000000000    0.8057299999999999 C
   0.9375200000000000    0.8044500000000000    0.6790300000000000 C
   0.6874200000000000    0.6132500000000000    0.8744499999999999 C
   0.6875249999999999    0.8724700000000000    0.6123300000000000 C
   0.7290000000000000    0.7724800000000001    0.7107100000000000 C
   0.7290099999999999    0.7102600000000000    0.7735800000000000 C
   0.6459350000000000    0.7109400000000000    0.7740400000000000 C
   0.6459950000000000    0.7731200000000000    0.7111400000000000 C
   0.6874600000000000    0.6792300000000000    0.8057299999999999 C
   0.6875100000000001    0.8044500000000000    0.6790300000000000 C
   0.1874200000000000    0.6132500000000000    0.8744499999999999 C
   0.1875250000000000    0.8724700000000000    0.6123300000000000 C
   0.2290000000000000    0.7724800000000001    0.7107100000000000 C
   0.2290100000000000    0.7102600000000000    0.7735800000000000 C
   0.1459350000000000    0.7109400000000000    0.7740400000000000 C
   0.1459950000000000    0.7731200000000000    0.7111400000000000 C
   0.1874600000000000    0.6792300000000000    0.8057299999999999 C
   0.1875100000000000    0.8044500000000000    0.6790300000000000 C
   0.8125300000000000    0.8652000000000000    0.0367400000000000 C
   0.8124100000000001    0.6078700000000000    0.0254100000000000 C
   0.7708950000000000    0.7650900000000000    0.0371300000000000 C
   0.7708650000000000    0.7034700000000000    0.0339400000000000 C
   0.8540200000000000    0.7027900000000000    0.0350500000000000 C
   0.8540550000000000    0.7644500000000000    0.0381800000000000 C
   0.8124950000000000    0.7962200000000000    0.0386600000000000 C
   0.8124300000000000    0.6722600000000000    0.0323600000000000 C
   0.9375300000000000    0.9644400000000000    0.1352700000000000 C
   0.9375200000000000    0.9736000000000000    0.3900000000000000 C
   0.9791150000000000    0.9629200000000000    0.2360700000000000 C
   0.9791050000000000    0.9655400000000000    0.2980000000000000 C
   0.8959600000000000    0.9656400000000001    0.2979500000000000 C
   0.8959550000000001    0.9630100000000000    0.2359900000000000 C
   0.9375350000000000    0.9622200000000000    0.2044200000000000 C
   0.9375300000000000    0.9674500000000000    0.3290400000000000 C
   0.5625249999999999    0.8652000000000000    0.0367400000000000 C
   0.5624050000000000    0.6078700000000000    0.0254100000000000 C
   0.5208550000000000    0.7034600000000000    0.0339000000000000 C
   0.5208900000000000    0.7650900000000000    0.0371200000000000 C
   0.6040100000000000    0.7027900000000000    0.0350000000000000 C
   0.6040449999999999    0.7644500000000000    0.0381800000000000 C
   0.5624200000000000    0.6722600000000000    0.0323600000000000 C
   0.5624850000000000    0.7962200000000000    0.0386600000000000 C
   0.6875150000000000    0.9736000000000000    0.3940000000000000 C
   0.6875249999999999    0.9644400000000000    0.1352700000000000 C
   0.7291050000000000    0.9629100000000000    0.2360000000000000 C
   0.7290950000000000    0.9655500000000000    0.2980300000000000 C
   0.6875300000000000    0.9622200000000000    0.2044200000000000 C
   0.6459450000000000    0.9630000000000000    0.2360000000000000 C
   0.6459500000000000    0.9656500000000000    0.2979500000000000 C
   0.6875200000000000    0.9674500000000000    0.3290400000000000 C
   0.3125300000000000    0.8652000000000000    0.0367400000000000 C
   0.3124100000000000    0.6078700000000000    0.0254100000000000 C
   0.2708950000000000    0.7650900000000000    0.0371300000000000 C
   0.2708650000000000    0.7034700000000000    0.0339400000000000 C
   0.3540200000000000    0.7027900000000000    0.0350500000000000 C
   0.3540550000000000    0.7644500000000000    0.0381800000000000 C
   0.3124950000000000    0.7962200000000000    0.0386600000000000 C
   0.3124300000000000    0.6722600000000000    0.0323600000000000 C
   0.4375300000000000    0.9644400000000000    0.1352700000000000 C
   0.4375200000000000    0.9736000000000000    0.3900000000000000 C
   0.4791150000000000    0.9629200000000000    0.2360700000000000 C
   0.4791050000000000    0.9655400000000000    0.2980000000000000 C
   0.3959600000000000    0.9656400000000001    0.2979500000000000 C
   0.3959550000000000    0.9630100000000000    0.2359900000000000 C
   0.4375350000000000    0.9622200000000000    0.2044200000000000 C
   0.4375300000000000    0.9674500000000000    0.3290400000000000 C
   0.0625250000000000    0.8652000000000000    0.0367400000000000 C
   0.0624050000000000    0.6078700000000000    0.0254100000000000 C
   0.0208550000000000    0.7034600000000000    0.0339000000000000 C
   0.0208900000000000    0.7650900000000000    0.0371200000000000 C
   0.1040100000000000    0.7027900000000000    0.0350000000000000 C
   0.1040450000000000    0.7644500000000000    0.0381800000000000 C
   0.0624200000000000    0.6722600000000000    0.0323600000000000 C
   0.0624850000000000    0.7962200000000000    0.0386600000000000 C
   0.1875150000000000    0.9736000000000000    0.3940000000000000 C
   0.1875250000000000    0.9644400000000000    0.1352700000000000 C
   0.2291050000000000    0.9629100000000000    0.2360000000000000 C
   0.2290950000000000    0.9655500000000000    0.2980300000000000 C
   0.1875300000000000    0.9622200000000000    0.2044200000000000 C
   0.1459450000000000    0.9630000000000000    0.2360000000000000 C
   0.1459500000000000    0.9656500000000000    0.2979500000000000 C
   0.1875200000000000    0.9674500000000000    0.3290400000000000 C
   0.8515150000000000    1.0288800000000000   -0.1054000000000000 O
   0.7734750000000000    1.0291000000000001   -0.1055199999999999 O
   0.6484500000000000    0.1063200000000000    0.9709000000000000 O
   0.7265050000000000    0.1063700000000000    0.9708700000000000 O
   0.6485700000000000    0.4206700000000000    0.9744000000000000 O
   0.7266300000000000    0.4196100000000000    0.9758000000000000 O
   0.1484500000000000    0.1063200000000000    0.9709000000000000 O
   0.2265050000000000    0.1063700000000000    0.9708700000000000 O
   0.1485700000000000    0.4206700000000000    0.9744000000000000 O
   0.2266300000000000    0.4196100000000000    0.9758000000000000 O
   0.8984550000000000    0.1063200000000000    0.9709000000000000 O
   0.9765150000000000    0.1063700000000000    0.9708700000000000 O
   0.9766349999999999    0.4196100000000000    0.9758000000000000 O
   0.8985799999999999    0.4206700000000000    0.9744400000000000 O
   0.3984550000000000    0.1063200000000000    0.9709000000000000 O
   0.4765150000000000    0.1063700000000000    0.9708700000000000 O
   0.4766350000000000    0.4196100000000000    0.9758000000000000 O
   0.3985800000000000    0.4206700000000000    0.9744400000000000 O
   0.6016150000000000    0.4147900000000000    0.1024100000000000 O
   0.5235600000000000    0.4155000000000000    0.1027000000000000 O
   0.6014650000000000    0.1009900000000000    0.4135000000000000 O
   0.5235050000000000    0.1010000000000000    0.4135500000000000 O
   0.1016150000000000    0.4147900000000000    0.1024100000000000 O
   0.0235600000000000    0.4155000000000000    0.1027000000000000 O
   0.1014650000000000    0.1009900000000000    0.4135000000000000 O
   0.0235050000000000    0.1010000000000000    0.4135500000000000 O
   0.2735650000000000    0.4155000000000000    0.1027000000000000 O
   0.3516250000000000    0.4147900000000000    0.1024100000000000 O
   0.3514750000000000    0.1009900000000000    0.4135000000000000 O
   0.2735100000000000    0.1010000000000000    0.4135500000000000 O
   0.7735650000000001    0.4155000000000000    0.1027000000000000 O
   0.8516250000000001    0.4147900000000000    0.1024100000000000 O
   0.8514750000000000    0.1009900000000000    0.4135000000000000 O
   0.7735099999999999    0.1010000000000000    0.4135500000000000 O
   0.1015450000000000    0.0235100000000000    0.5814900000000000 O
   0.0234600000000000    0.0236300000000000    0.5814100000000000 O
   0.0234700000000000    0.0291000000000000    0.8944800000000001 O
   0.1015050000000000    0.0288800000000000    0.8946000000000000 O
   0.6015450000000000    0.0235100000000000    0.5814900000000000 O
   0.5234600000000000    0.0236300000000000    0.5814100000000000 O
   0.5234700000000000    0.0291000000000000    0.8944800000000001 O
   0.6015050000000000    0.0288800000000000    0.8946000000000000 O
   0.3515500000000000    0.0235100000000000    0.5814900000000000 O
   0.2734650000000000    0.0236300000000000    0.5814100000000000 O
   0.3515150000000000    0.0288800000000000    0.8946000000000000 O
   0.2734750000000000    0.0291000000000000    0.8944800000000001 O
   0.8515500000000000    1.0235099999999999    0.5814900000000000 O
   0.7734650000000001    1.0236300000000000    0.5814100000000000 O
   0.4763700000000000    0.5873100000000000    0.9001300000000000 O
   0.3984350000000000    0.5889700000000000    0.9012600000000000 O
   0.4765000000000000    0.8987300000000000    0.5867599999999999 O
   0.3985650000000000    0.8987600000000000    0.5867300000000000 O
   0.9763700000000000    0.5873100000000000    0.9001300000000000 O
   0.8984350000000000    0.5889700000000000    0.9012600000000000 O
   0.9764999999999999    0.8987300000000000    0.5867599999999999 O
   0.8985650000000001    0.8987600000000000    0.5867300000000000 O
   0.7263600000000000    0.5873100000000000    0.9001300000000000 O
   0.6484250000000000    0.5889700000000000    0.9012600000000000 O
   0.6485550000000000    0.8987600000000000    0.5867300000000000 O
   0.7264950000000000    0.8987300000000000    0.5867599999999999 O
   0.2263600000000000    0.5873100000000000    0.9001300000000000 O
   0.1484250000000000    0.5889700000000000    0.9012600000000000 O
   0.1485550000000000    0.8987600000000000    0.5867300000000000 O
   0.2264950000000000    0.8987300000000000    0.5867599999999999 O
   0.7735900000000000    0.8920500000000000    0.0352000000000000 O
   0.8514900000000001    0.8918500000000000    0.0355800000000000 O
   0.8513500000000001    0.5826000000000000    0.0236700000000000 O
   0.7734350000000000    0.5840100000000000    0.0213700000000000 O
   0.9764800000000000    0.9658900000000000    0.1084400000000000 O
   0.8985600000000000    0.9658400000000000    0.1084800000000000 O
   0.8984850000000000    0.9761800000000000    0.4186100000000000 O
   0.9765600000000000    0.9761500000000000    0.4186500000000000 O
   0.6014850000000000    0.8918500000000000    0.0355800000000000 O
   0.5235800000000000    0.8920500000000000    0.0352900000000000 O
   0.6013450000000000    0.5826000000000000    0.0236700000000000 O
   0.5234250000000000    0.5840100000000000    0.0213700000000000 O
   0.6484799999999999    0.9761800000000000    0.4186100000000000 O
   0.7265500000000000    0.9761500000000000    0.4186500000000000 O
   0.7264750000000000    0.9658900000000000    0.1084400000000000 O
   0.6485550000000000    0.9658400000000000    0.1084800000000000 O
   0.2735900000000000    0.8920500000000000    0.0352000000000000 O
   0.3514900000000000    0.8918500000000000    0.0355800000000000 O
   0.3513500000000000    0.5826000000000000    0.0236700000000000 O
   0.2734350000000000    0.5840100000000000    0.0213700000000000 O
   0.4764800000000000    0.9658900000000000    0.1084400000000000 O
   0.3985600000000000    0.9658400000000000    0.1084800000000000 O
   0.3984850000000000    0.9761800000000000    0.4186100000000000 O
   0.4765600000000000    0.9761500000000000    0.4186500000000000 O
   0.1014850000000000    0.8918500000000000    0.0355800000000000 O
   0.0235800000000000    0.8920500000000000    0.0352900000000000 O
   0.1013450000000000    0.5826000000000000    0.0236700000000000 O
   0.0234250000000000    0.5840100000000000    0.0213700000000000 O
   0.1484800000000000    0.9761800000000000    0.4186100000000000 O
   0.2265500000000000    0.9761500000000000    0.4186500000000000 O
   0.2264750000000000    0.9658900000000000    0.1084400000000000 O
   0.1485550000000000    0.9658400000000000    0.1084800000000000 O
