H4 C8 O4
1.0
  29.2179991277694491    0.0000000000000000   -0.0071393041408249
   0.0053099191053414   19.1853208717477237   10.7381390777378325
   0.0000000000000000    0.0000000000000000   21.9720000000000013
H C O
4 8 4
direct
   0.8859550000000000    0.0307200000000000    0.6783600000000000 H
   0.8859699999999999    0.0335100000000000    0.7912300000000000 H
   0.7390650000000000    0.0311000000000000    0.6781000000000000 H
   0.7390350000000000    0.0339000000000000    0.7909700000000000 H
   0.8540400000000000    0.0316600000000000    0.7034600000000000 C
   0.8539850000000000    0.0331100000000000    0.7660200000000000 C
   0.7709750000000000    0.0318800000000000    0.7033199999999999 C
   0.7710250000000001    0.0333300000000000    0.7658800000000000 C
   0.8125100000000001    0.0255600000000000    0.6063200000000000 C
   0.8125100000000001    0.0304300000000000    0.6720300000000000 C
   0.8125000000000000    0.0333800000000000    0.7980600000000000 C
   0.8124950000000000    0.0305400000000000    0.8676199999999999 C
   0.8515500000000000    1.0235099999999999    0.5814900000000000 O
   0.8515150000000000    1.0288800000000000   -0.1054000000000000 O
   0.7734650000000001    1.0236300000000000    0.5814100000000000 O
   0.7734750000000000    1.0291000000000001   -0.1055199999999999 O
