H4 C8 O4
1.0
  13.4169940410787394    0.0000000000000000   -0.0126452227179129
  -0.0255882520961436   13.8309763279055034   -0.0002413964888327
   0.0000000000000000    0.0000000000000000   32.3939999999999984
H C O
4 8 4
direct
   0.7841600000000000    0.7032000000000000    0.6588900000000000 H
   0.7842600000000000    0.8202700000000001    0.5994850000000000 H
   0.4658600000000000    0.6794300000000000    0.6502900000000000 H
   0.4661300000000000    0.7967400000000000    0.5909300000000000 H
   0.6245800000000000    0.6161600000000000    0.6936900000000000 C
   0.6249200000000000    0.6850700000000000    0.6581850000000000 C
   0.7149799999999999    0.7243100000000000    0.6438450000000000 C
   0.6256000000000000    0.8839200000000000    0.5562800000000000 C
   0.6252200000000000    0.8150300000000000    0.5918850000000000 C
   0.7151600000000000    0.7888500000000001    0.6109350000000000 C
   0.5350100000000000    0.7111499999999999    0.6390500000000000 C
   0.5351500000000000    0.7757300000000000    0.6061500000000000 C
   0.5411300000000000   -0.0920299999999999    0.5415050000000000 O
   0.5399000000000000    0.5876400000000001    0.7067600000000001 O
   0.7104700000000000   -0.0879299999999999    0.5433200000000000 O
   0.7089299999999999    0.5917200000000000    0.7085350000000000 O
