Al16 H66 C120 O64
1.0
  13.4169940410787394    0.0000000000000000   -0.0126452227179129
  -0.0255882520961436   13.8309763279055034   -0.0002413964888327
   0.0000000000000000    0.0000000000000000   32.3939999999999984
Al H C O
16 66 120 64
direct
   0.2499900000000000    0.9999900000000000    0.4999900000000000 Al
   0.7500000000000000    0.0000100000000000    0.5000050000000000 Al
   0.5000100000000000    0.0000000000000000    0.4999900000000000 Al
   0.9999900000000000    0.0000000000000000    0.5000100000000000 Al
   0.5000400000000000    0.5000200000000000    0.7499700000000000 Al
   0.9999700000000000    0.5000100000000000    0.7500350000000000 Al
   0.7500000000000000    0.5000200000000000    0.7500000000000000 Al
   0.2500000000000000    0.5000100000000000    0.7500050000000000 Al
   0.2499900000000000    0.9999900000000000    0.9999899999999999 Al
   0.7500000000000000    0.0000100000000000    0.0000050000000000 Al
   0.5000100000000000    0.0000000000000000    0.9999899999999999 Al
   0.9999900000000000    0.0000000000000000    0.0000100000000000 Al
   0.5000400000000000    0.5000200000000000    0.2499700000000000 Al
   0.9999700000000000    0.5000100000000000    0.2500350000000000 Al
   0.7500000000000000    0.5000200000000000    0.2500000000000000 Al
   0.2500000000000000    0.5000100000000000    0.2500050000000000 Al
   0.5220164159819370   -0.0800845861127382    0.5699194420578153 H
   0.7291074571550802   -0.0752392978765261    0.5717498953521960 H
   0.5349400000000000    0.2018900000000000    0.5923700000000000 H
   0.5336400000000000    0.3189400000000000    0.6517950000000000 H
   0.2161700000000000    0.1809300000000000    0.5984200000000000 H
   0.2150100000000000    0.2982400000000000    0.6577649999999999 H
   0.0000000000000000    0.7981300000000000    0.4076300000000000 H
   0.0000000000000000    0.6810700000000000    0.3482100000000000 H
   0.2837900000000000    0.8191400000000000    0.4015900000000000 H
   0.2849700000000000    0.7018200000000000    0.3422400000000000 H
   0.0349200000000000    0.2019800000000000    0.5922400000000000 H
   0.0337800000000000    0.3190800000000000    0.6516500000000001 H
   0.7161999999999999    0.1805900000000000    0.5986050000000001 H
   0.7152300000000000    0.2978700000000000    0.6579750000000000 H
   0.7838500000000000    0.8194200000000000    0.4014000000000000 H
   0.7848100000000000    0.7021300000000000    0.3420350000000000 H
   0.4651300000000000    0.7980800000000000    0.4077700000000000 H
   0.4662500000000000    0.6809800000000000    0.3483550000000000 H
   0.5343599999999999    0.3206600000000000    0.8498700000000000 H
   0.5338400000000000    0.2033500000000000    0.9092199999999999 H
   0.2161300000000000    0.2967400000000000    0.8409500000000000 H
   0.2157600000000000    0.1796600000000000    0.9003700000000000 H
   0.7682632016969948    0.6201032322316534    0.6964357387445801 H
   0.4805961501363101    0.6129821736435502    0.6934986760999817 H
   0.6241567924378589    0.6279459339199471    0.6895783055171119 H
   0.2838900000000000    0.7033000000000000    0.6590650000000000 H
   0.2842800000000000    0.8203900000000000    0.5996500000000000 H
   0.0000000000000000    0.6793500000000000    0.6501250000000001 H
   0.0000000000000000    0.7966500000000000    0.5907650000000000 H
   0.0341100000000000    0.3206400000000000    0.8497300000000000 H
   0.0338300000000000    0.2033400000000000    0.9090950000000000 H
   0.7158300000000000    0.2967700000000000    0.8410850000000001 H
   0.7157100000000000    0.1797100000000000    0.9004850000000000 H
   0.5349400000000000    0.2018900000000000    0.0923700000000000 H
   0.5336400000000000    0.3189400000000000    0.1517950000000000 H
   0.2161700000000000    0.1809300000000000    0.0984200000000000 H
   0.2150100000000000    0.2982400000000000    0.1577650000000000 H
   0.0000000000000000    0.7981300000000000    0.9076299999999999 H
   0.0000000000000000    0.6810700000000000    0.8482100000000000 H
   0.2837900000000000    0.8191400000000000    0.9015900000000000 H
   0.2849700000000000    0.7018200000000000    0.8422400000000000 H
   0.0349200000000000    0.2019800000000000    0.0922400000000000 H
   0.0337800000000000    0.3190800000000000    0.1516500000000000 H
   0.7161999999999999    0.1805900000000000    0.0986050000000000 H
   0.7152300000000000    0.2978700000000000    0.1579750000000000 H
   0.7838500000000000    0.8194200000000000    0.9014000000000000 H
   0.7848100000000000    0.7021300000000000    0.8420350000000000 H
   0.4651300000000000    0.7980800000000000    0.9077700000000000 H
   0.4662500000000000    0.6809800000000000    0.8483550000000000 H
   0.5343599999999999    0.3206600000000000    0.3498700000000000 H
   0.5338400000000000    0.2033500000000000    0.4092200000000000 H
   0.2161300000000000    0.2967400000000000    0.3409500000000000 H
   0.2157600000000000    0.1796600000000000    0.4003700000000000 H
   0.7841600000000000    0.7032000000000000    0.1588900000000000 H
   0.7842600000000000    0.8202700000000001    0.0994850000000000 H
   0.4658600000000000    0.6794300000000000    0.1502900000000000 H
   0.4661300000000000    0.7967400000000000    0.0909300000000000 H
   0.2838900000000000    0.7033000000000000    0.1590650000000000 H
   0.2842800000000000    0.8203900000000000    0.0996500000000000 H
   0.0000000000000000    0.6793500000000000    0.1501250000000000 H
   0.0000000000000000    0.7966500000000000    0.0907650000000000 H
   0.0341100000000000    0.3206400000000000    0.3497300000000000 H
   0.0338300000000000    0.2033400000000000    0.4090950000000000 H
   0.7158300000000000    0.2967700000000000    0.3410850000000000 H
   0.7157100000000000    0.1797100000000000    0.4004850000000000 H
   0.6253116881083126   -0.0347086219201276    0.6699171843219458 H
   0.3737700000000000    0.3839500000000000    0.6937250000000000 C
   0.3760700000000000    0.1163100000000000    0.5562700000000000 C
   0.4653600000000000    0.2235800000000000    0.6068800000000000 C
   0.4647500000000000    0.2881200000000000    0.6397900000000000 C
   0.2851200000000000    0.2120700000000000    0.6102000000000000 C
   0.2844600000000000    0.2766500000000000    0.6431000000000000 C
   0.3742700000000000    0.3151000000000000    0.6581100000000000 C
   0.3755600000000000    0.1851800000000000    0.5917950000000000 C
   0.1262200000000000    0.6160900000000000    0.3062800000000000 C
   0.1238800000000000    0.8837500000000000    0.4437250000000000 C
   0.0346100000000000    0.7764500000000000    0.3931250000000000 C
   0.0352300000000000    0.7119100000000000    0.3602100000000000 C
   0.2148500000000000    0.7879800000000000    0.3898050000000000 C
   0.2155100000000000    0.7234000000000000    0.3569050000000000 C
   0.1257100000000000    0.6849400000000000    0.3418950000000000 C
   0.1244000000000000    0.8148700000000000    0.4082050000000000 C
   0.8739800000000000    0.3838600000000000    0.6937400000000000 C
   0.8760100000000000    0.1162300000000000    0.5562950000000000 C
   0.9653900000000000    0.2235900000000000    0.6068150000000000 C
   0.9648600000000001    0.2881300000000000    0.6397250000000000 C
   0.7851800000000000    0.2118300000000000    0.6103149999999999 C
   0.7846100000000000    0.2764000000000000    0.6432150000000000 C
   0.8744499999999999    0.3149900000000000    0.6581350000000000 C
   0.8755500000000001    0.1850700000000000    0.5918200000000000 C
   0.6260400000000000    0.6161900000000000    0.3062600000000000 C
   0.6240500000000000    0.8838000000000000    0.4437150000000000 C
   0.7148700000000000    0.7881800000000000    0.3896900000000000 C
   0.7154300000000000    0.7236200000000000    0.3567900000000000 C
   0.5346600000000000    0.7764600000000000    0.3931900000000000 C
   0.5351700000000000    0.7119200000000000    0.3602800000000000 C
   0.6255700000000000    0.6850500000000000    0.3418700000000000 C
   0.6245000000000001    0.8149600000000000    0.4081850000000000 C
   0.3743000000000000    0.1160700000000000    0.9437150000000001 C
   0.3757700000000000    0.3837900000000000    0.8062800000000000 C
   0.4651600000000000    0.2888900000000000    0.8610300000000000 C
   0.4648900000000000    0.2243100000000000    0.8939349999999999 C
   0.2852300000000000    0.2756500000000000    0.8560749999999999 C
   0.2849200000000000    0.2111100000000000    0.8889850000000000 C
   0.3747600000000000    0.1849700000000000    0.9081200000000000 C
   0.3753500000000000    0.3149300000000000    0.8418099999999999 C
   0.1257400000000000    0.8839399999999999    0.5562850000000000 C
   0.1242500000000000    0.6162400000000000    0.6937250000000000 C
   0.2148000000000000    0.7243900000000000    0.6439350000000000 C
   0.2151200000000000    0.7889200000000000    0.6110250000000000 C
   0.0348800000000000    0.7111200000000000    0.6389650000000000 C
   0.0351500000000000    0.7756900000000000    0.6060600000000000 C
   0.1252800000000000    0.8150500000000001    0.5918850000000000 C
   0.1246800000000000    0.6851000000000000    0.6581950000000000 C
   0.8743600000000000    0.1161200000000000    0.9437249999999999 C
   0.8754000000000000    0.3838700000000000    0.8063050000000000 C
   0.9649600000000000    0.2889000000000000    0.8609599999999999 C
   0.9648200000000000    0.2243200000000000    0.8938650000000000 C
   0.7850000000000000    0.2756900000000000    0.8561400000000000 C
   0.7848200000000000    0.2111500000000000    0.8890500000000000 C
   0.8747400000000000    0.1850000000000000    0.9081200000000000 C
   0.8750599999999999    0.3149600000000000    0.8418150000000000 C
   0.3737700000000000    0.3839500000000000    0.1937250000000000 C
   0.3760700000000000    0.1163100000000000    0.0562700000000000 C
   0.4653600000000000    0.2235800000000000    0.1068800000000000 C
   0.4647500000000000    0.2881200000000000    0.1397900000000000 C
   0.2851200000000000    0.2120700000000000    0.1102000000000000 C
   0.2844600000000000    0.2766500000000000    0.1431000000000000 C
   0.3742700000000000    0.3151000000000000    0.1581100000000000 C
   0.3755600000000000    0.1851800000000000    0.0917950000000000 C
   0.1262200000000000    0.6160900000000000    0.8062800000000000 C
   0.1238800000000000    0.8837500000000000    0.9437249999999999 C
   0.0346100000000000    0.7764500000000000    0.8931249999999999 C
   0.0352300000000000    0.7119100000000000    0.8602099999999999 C
   0.2148500000000000    0.7879800000000000    0.8898050000000000 C
   0.2155100000000000    0.7234000000000000    0.8569050000000000 C
   0.1257100000000000    0.6849400000000000    0.8418950000000001 C
   0.1244000000000000    0.8148700000000000    0.9082049999999999 C
   0.8739800000000000    0.3838600000000000    0.1937400000000000 C
   0.8760100000000000    0.1162300000000000    0.0562950000000000 C
   0.9653900000000000    0.2235900000000000    0.1068150000000000 C
   0.9648600000000001    0.2881300000000000    0.1397250000000000 C
   0.7851800000000000    0.2118300000000000    0.1103150000000000 C
   0.7846100000000000    0.2764000000000000    0.1432150000000000 C
   0.8744499999999999    0.3149900000000000    0.1581350000000000 C
   0.8755500000000001    0.1850700000000000    0.0918200000000000 C
   0.6260400000000000    0.6161900000000000    0.8062600000000000 C
   0.6240500000000000    0.8838000000000000    0.9437150000000001 C
   0.7148700000000000    0.7881800000000000    0.8896900000000000 C
   0.7154300000000000    0.7236200000000000    0.8567899999999999 C
   0.5346600000000000    0.7764600000000000    0.8931899999999999 C
   0.5351700000000000    0.7119200000000000    0.8602799999999999 C
   0.6255700000000000    0.6850500000000000    0.8418700000000000 C
   0.6245000000000001    0.8149600000000000    0.9081850000000000 C
   0.3743000000000000    0.1160700000000000    0.4437150000000000 C
   0.3757700000000000    0.3837900000000000    0.3062800000000000 C
   0.4651600000000000    0.2888900000000000    0.3610300000000000 C
   0.4648900000000000    0.2243100000000000    0.3939350000000000 C
   0.2852300000000000    0.2756500000000000    0.3560750000000000 C
   0.2849200000000000    0.2111100000000000    0.3889850000000000 C
   0.3747600000000000    0.1849700000000000    0.4081200000000000 C
   0.3753500000000000    0.3149300000000000    0.3418100000000000 C
   0.6256000000000000    0.8839200000000000    0.0562800000000000 C
   0.6245800000000000    0.6161600000000000    0.1936900000000000 C
   0.7149799999999999    0.7243100000000000    0.1438450000000000 C
   0.7151600000000000    0.7888500000000001    0.1109350000000000 C
   0.5350100000000000    0.7111499999999999    0.1390500000000000 C
   0.5351500000000000    0.7757300000000000    0.1061500000000000 C
   0.6252200000000000    0.8150300000000000    0.0918850000000000 C
   0.6249200000000000    0.6850700000000000    0.1581850000000000 C
   0.1257400000000000    0.8839399999999999    0.0562850000000000 C
   0.1242500000000000    0.6162400000000000    0.1937250000000000 C
   0.2148000000000000    0.7243900000000000    0.1439350000000000 C
   0.2151200000000000    0.7889200000000000    0.1110250000000000 C
   0.0348800000000000    0.7111200000000000    0.1389650000000000 C
   0.0351500000000000    0.7756900000000000    0.1060600000000000 C
   0.1252800000000000    0.8150500000000001    0.0918850000000000 C
   0.1246800000000000    0.6851000000000000    0.1581950000000000 C
   0.8743600000000000    0.1161200000000000    0.4437250000000000 C
   0.8754000000000000    0.3838700000000000    0.3063050000000000 C
   0.9649600000000000    0.2889000000000000    0.3609600000000000 C
   0.9648200000000000    0.2243200000000000    0.3938650000000000 C
   0.7850000000000000    0.2756900000000000    0.3561400000000000 C
   0.7848200000000000    0.2111500000000000    0.3890500000000000 C
   0.8747400000000000    0.1850000000000000    0.4081200000000000 C
   0.8750599999999999    0.3149600000000000    0.3418150000000000 C
   0.5411300000000000   -0.0920299999999999    0.5415050000000000 O
   0.7104700000000000   -0.0879299999999999    0.5433200000000000 O
   0.4582900000000000    0.4083800000000000    0.7084000000000000 O
   0.2889100000000000    0.4116700000000000    0.7067800000000000 O
   0.4607700000000000    0.0881900000000000    0.5431450000000000 O
   0.2916500000000000    0.0915500000000000    0.5415050000000000 O
   0.0417000000000000    0.5916600000000000    0.2916000000000000 O
   0.2110800000000000    0.5883600000000000    0.2932300000000000 O
   0.0391700000000000    0.9118700000000000    0.4568500000000000 O
   0.2083000000000000    0.9085100000000000    0.4584900000000000 O
   0.7891600000000000    0.4116800000000000    0.7067500000000000 O
   0.9585399999999999    0.4082100000000000    0.7084450000000000 O
   0.9606800000000000    0.0880800000000000    0.5431550000000001 O
   0.7915800000000000    0.0914900000000000    0.5415250000000000 O
   0.7108700000000000    0.5883800000000000    0.2932450000000000 O
   0.5414800000000000    0.5918300000000000    0.2915650000000000 O
   0.5393900000000000    0.9119500000000000    0.4568500000000000 O
   0.7084900000000000    0.9085299999999999    0.4584850000000000 O
   0.4587400000000000    0.0919800000000000    0.9584900000000001 O
   0.2894100000000000    0.0879600000000000    0.9566800000000000 O
   0.2914400000000000    0.4082600000000000    0.7914550000000000 O
   0.4605500000000000    0.4121900000000000    0.7932000000000000 O
   0.7089299999999999    0.5917200000000000    0.7085350000000000 O
   0.5399000000000000    0.5876400000000001    0.7067600000000001 O
   0.0413000000000000    0.9080600000000000    0.5415200000000000 O
   0.2106400000000000    0.9120300000000000    0.5433100000000000 O
   0.2085800000000000    0.5917800000000000    0.7085550000000000 O
   0.0394800000000000    0.5878400000000000    0.7068000000000000 O
   0.7894800000000000    0.0879900000000000    0.9566900000000000 O
   0.9588200000000000    0.0920600000000000    0.9584900000000001 O
   0.9600900000000000    0.4123800000000000    0.7932399999999999 O
   0.7910600000000000    0.4083100000000000    0.7914600000000001 O
   0.4582900000000000    0.4083800000000000    0.2084000000000000 O
   0.2889100000000000    0.4116700000000000    0.2067800000000000 O
   0.4607700000000000    0.0881900000000000    0.0431450000000000 O
   0.2916500000000000    0.0915500000000000    0.0415050000000000 O
   0.0417000000000000    0.5916600000000000    0.7916000000000001 O
   0.2110800000000000    0.5883600000000000    0.7932300000000000 O
   0.0391700000000000    0.9118700000000000    0.9568500000000000 O
   0.2083000000000000    0.9085100000000000    0.9584900000000001 O
   0.7891600000000000    0.4116800000000000    0.2067500000000000 O
   0.9585399999999999    0.4082100000000000    0.2084450000000000 O
   0.9606800000000000    0.0880800000000000    0.0431550000000000 O
   0.7915800000000000    0.0914900000000000    0.0415250000000000 O
   0.7108700000000000    0.5883800000000000    0.7932450000000000 O
   0.5414800000000000    0.5918300000000000    0.7915650000000001 O
   0.5393900000000000    0.9119500000000000    0.9568500000000000 O
   0.7084900000000000    0.9085299999999999    0.9584850000000000 O
   0.4587400000000000    0.0919800000000000    0.4584900000000000 O
   0.2894100000000000    0.0879600000000000    0.4566800000000000 O
   0.2914400000000000    0.4082600000000000    0.2914550000000000 O
   0.4605500000000000    0.4121900000000000    0.2932000000000000 O
   0.7104700000000000    0.9120700000000000    0.0433200000000000 O
   0.5411300000000000    0.9079700000000001    0.0415050000000000 O
   0.5399000000000000    0.5876400000000001    0.2067600000000000 O
   0.7089299999999999    0.5917200000000000    0.2085350000000000 O
   0.0413000000000000    0.9080600000000000    0.0415200000000000 O
   0.2106400000000000    0.9120300000000000    0.0433100000000000 O
   0.2085800000000000    0.5917800000000000    0.2085550000000000 O
   0.0394800000000000    0.5878400000000000    0.2068000000000000 O
   0.7894800000000000    0.0879900000000000    0.4566900000000000 O
   0.9588200000000000    0.0920600000000000    0.4584900000000000 O
   0.9600900000000000    0.4123800000000000    0.2932400000000000 O
   0.7910600000000000    0.4083100000000000    0.2914600000000000 O
