H19 C24 N2 O2
1.0
  31.3783682284274548    0.0000000000000000   -7.6776574110346072
   0.0049194456774472   16.3859602657602039    0.0357486780454411
   0.0000000000000000    0.0000000000000000   34.5940000000000012
H C N O
19 24 2 2
direct
   0.2402350000000000    0.9157300000000000    0.0692700000000000 H
   0.2582200000000000    0.8554000000000000    0.0103450000000000 H
   0.2036750000000000    0.0000000000000000    0.0973200000000000 H
   0.0945650000000000    0.0544400000000000    0.0485750000000000 H
   0.0490000000000000    0.8764500000000000    0.1206900000000000 H
   0.1249450000000000    0.8327200000000000    0.1470800000000000 H
   0.1832200000000000    0.9042500000000000    0.1240300000000000 H
   0.4022400000000000    0.9688600000000001    0.8209750000000000 H
   0.4272800000000000    0.8364900000000000    0.8537100000000000 H
   0.3726900000000000    0.7286100000000000    0.8586800000000000 H
   0.2751750000000000    0.9040600000000000    0.8062100000000000 H
   0.2326350000000000    0.7026700000000000    0.8238650000000001 H
   0.2355500000000000    0.7997700000000000    0.8009750000000000 H
   0.2079350000000000    0.9125100000000000    0.8330350000000000 H
   0.1911950000000000    0.9750400000000000    0.8922950000000001 H
   0.2443900000000000    0.7652099999999999    0.9623900000000001 H
   0.2620150000000000    0.7043000000000000    0.9032700000000000 H
   0.1512150000000000    0.9802700000000000    0.9349750000000000 H
   0.1351600000000000    0.0439400000000000    0.9933100000000000 H
   0.1860950000000000    0.9836900000000000    0.0358400000000000 C
   0.2204200000000000    0.9296100000000000    0.0397700000000000 C
   0.2304450000000000    0.8950500000000000    0.0063800000000000 C
   0.1759000000000000    0.0000000000000000    0.0719200000000000 C
   0.0999300000000000    0.0000000000000000    0.0700350000000000 C
   0.0650400000000000    0.9678099999999999    0.0812300000000000 C
   0.0747750000000000    0.9052700000000000    0.1102300000000000 C
   0.1168800000000000    0.8812300000000000    0.1250300000000000 C
   0.1498000000000000    0.9191500000000000    0.1124400000000000 C
   0.3797950000000000    0.9224700000000000    0.8254650000000000 C
   0.3932800000000000    0.8474500000000000    0.8430700000000000 C
   0.3633000000000000    0.7888400000000000    0.8462100000000000 C
   0.3196900000000000    0.8070100000000000    0.8326350000000000 C
   0.3081900000000000    0.8846600000000000    0.8167300000000000 C
   0.2467650000000000    0.7638900000000000    0.8283750000000000 C
   0.2364700000000000    0.8042200000000000    0.8640650000000001 C
   0.2161500000000000    0.8802500000000000    0.8614800000000000 C
   0.2064700000000000    0.9152700000000000    0.8950450000000000 C
   0.2167300000000000    0.8756800000000000    0.9322650000000000 C
   0.2370900000000000    0.7991000000000000    0.9344000000000000 C
   0.2467450000000000    0.7640400000000001    0.9010150000000000 C
   0.2062200000000000    0.9126500000000000    0.9678000000000000 C
   0.1716150000000000    0.9666200000000000    0.9641750000000000 C
   0.1619550000000000    0.0000000000000000    0.9975050000000000 C
   0.1404650000000000    0.9807600000000000    0.0854450000000000 N
   0.3380350000000000    0.9400500000000001    0.8127050000000000 N
   0.0261800000000000    0.9926900000000000    0.0644500000000000 O
   0.2921600000000000    0.7460700000000000    0.8351500000000001 O
