H3 C8 O4
1.0
  31.3783682284274548    0.0000000000000000   -7.6776574110346072
   0.0049194456774472   16.3859602657602039    0.0357486780454411
   0.0000000000000000    0.0000000000000000   34.5940000000000012
H C O
3 8 4
direct
   0.4500050000000000    0.9137999999999999    0.7003050000000000 H
   0.4512300000000000    0.9043300000000000    0.7731350000000000 H
   0.5496900000000000    0.0855000000000000    0.7988350000000000 H
   0.4983650000000000    0.0123300000000000    0.6655150000000000 C
   0.4990750000000000    0.0051900000000000    0.7088500000000000 C
   0.4717450000000000    0.9510100000000000    0.7221850000000000 C
   0.4725350000000000    0.9456300000000000    0.7624949999999999 C
   0.5013450000000000    0.9875000000000000    0.8336500000000000 C
   0.5006050000000000    0.9941400000000000    0.7902750000000001 C
   0.5279550000000000    0.0482700000000000    0.7769500000000000 C
   0.5271749999999999    0.0536300000000000    0.7366699999999999 C
   0.4752650000000000    0.9587100000000000    0.6421000000000000 O
   0.4808950000000000   -0.0673000000000000    0.8463700000000001 O
   0.5189800000000000    1.0672600000000001    0.6531350000000000 O
   0.5243600000000000    0.0415100000000000    0.8568350000000000 O
