H6 O4
1.0
  31.3783682284274548    0.0000000000000000   -7.6776574110346072
   0.0049194456774472   16.3859602657602039    0.0357486780454411
   0.0000000000000000    0.0000000000000000   34.5940000000000012
H O
6 4
direct
   0.1772534116025306    0.7841933878651577    0.7271224834638546 H
   0.0815122825275255    0.9278395741401382    0.7240309876058950 H
   0.1232954868348348    0.8513993302631752    0.7259443442973470 H
   0.0611955218810512    0.4790224023512901    0.7166384902940014 H
   0.9708461219355251    0.6062979571580771    0.6698165061366882 H
   1.0148463928458480    0.5550277349017566    0.6820666752495712 H
   0.1673750000000000    0.8402900000000000    0.7251100000000000 O
   0.1111500000000000    0.9203700000000000    0.7234700000000001 O
   0.0356050000000000    0.4928700000000000    0.7252450000000000 O
   0.9820400000000000    0.5727800000000000    0.6931000000000000 O
