H4 C8 O4
1.0
  31.3783682284274548    0.0000000000000000   -7.6776574110346072
   0.0049194456774472   16.3859602657602039    0.0357486780454411
   0.0000000000000000    0.0000000000000000   34.5940000000000012
H C O
4 8 4
direct
   0.0425650000000000    0.8438099999999999    0.7171000000000000 H
   0.1081550000000000    0.5671700000000000    0.7243600000000000 H
   0.1535000000000000    0.6924400000000001    0.7296199999999999 H
   0.9964350000000000    0.7187100000000000    0.7092499999999999 H
   0.1273950000000000    0.8501900000000000    0.7247399999999999 C
   0.1006750000000000    0.7752500000000000    0.7234700000000001 C
   0.0564050000000000    0.7830000000000000    0.7181500000000001 C
   0.0309050000000000    0.7136600000000000    0.7139100000000000 C
   0.0493500000000000    0.6355600000000000    0.7159300000000000 C
   0.0208500000000000    0.5625300000000000    0.7114300000000000 C
   0.0937550000000000    0.6277000000000000    0.7223550000000000 C
   0.1191200000000000    0.6972699999999999    0.7256100000000000 C
   0.1111500000000000    0.9203700000000000    0.7234700000000001 O
   0.1673750000000000    0.8402900000000000    0.7251100000000000 O
   0.0356050000000000    0.4928700000000000    0.7252450000000000 O
   0.9820400000000000    0.5727800000000000    0.6931000000000000 O
