H5 O3
1.0
  31.3783682284274548    0.0000000000000000   -7.6776574110346072
   0.0049194456774472   16.3859602657602039    0.0357486780454411
   0.0000000000000000    0.0000000000000000   34.5940000000000012
H O
5 3
direct
   0.0782206123275042    0.1275244152881237    0.4304417832786696 H
   0.0616365496154797    0.1216026327035592    0.4682683905826264 H
   0.2079078572741474    0.4322516831451120    0.5323803712275633 H
   0.1941466923434549    0.4180181747481901    0.5950513602530491 H
   0.2248433658222415    0.4781472487719122    0.7163471393702066 H
   0.0605450000000000    0.1008900000000000    0.4415350000000000 O
   0.2015450000000000    0.4194600000000000    0.5042200000000000 O
   0.1910350000000000    0.4101800000000000    0.5667200000000000 O
