H4 O2
1.0
  31.3783682284274548    0.0000000000000000   -7.6776574110346072
   0.0049194456774472   16.3859602657602039    0.0357486780454411
   0.0000000000000000    0.0000000000000000   34.5940000000000012
H O
4 2
direct
   0.8814210249682716    0.4275228964319054    0.6770289615434266 H
   0.9333056555542293    0.4001268189750257    0.6834160588202999 H
   0.1949458981985604    0.4740893571865539    0.4224339204259138 H
   0.2347719651560143    0.5062176951140852    0.4027459766082790 H
   0.9117700000000000    0.4402800000000000    0.6861500000000000 O
   0.2238250000000000    0.4926800000000000    0.4348500000000000 O
