Zn40 H472 C696 N32 O184
1.0
  31.3783682284274548    0.0000000000000000   -7.6776574110346072
   0.0049194456774472   16.3859602657602039    0.0357486780454411
   0.0000000000000000    0.0000000000000000   34.5940000000000012
Zn H C N O
40 472 696 32 184
direct
   0.4742900000000000    0.9895000000000000    0.0871700000000000 Zn
   0.4322900000000000    0.5417100000000000    0.2184550000000000 Zn
   0.2754800000000000    0.4897000000000000    0.4117950000000000 Zn
   0.1824050000000000    0.9585000000000000    0.2198200000000000 Zn
   0.0246850000000000    0.0104200000000000    0.4116500000000000 Zn
   0.0675650000000000    0.4583700000000000    0.2799400000000000 Zn
   0.2240300000000000    0.5101900000000000    0.0869900000000000 Zn
   0.0000050000000000    0.0002800000000000    0.4998350000000000 Zn
   0.2499800000000000    0.5000500000000000    0.4997850000000000 Zn
   0.3176250000000000    0.0414700000000000    0.2799500000000000 Zn
   0.9742900000000000    0.9895000000000000    0.0871700000000000 Zn
   0.9322900000000001    0.5417100000000000    0.2184550000000000 Zn
   0.7754799999999999    0.4897000000000000    0.4117950000000000 Zn
   0.6824050000000000    0.9585000000000000    0.2198200000000000 Zn
   0.5246850000000000    0.0104200000000000    0.4116500000000000 Zn
   0.5675650000000000    0.4583700000000000    0.2799400000000000 Zn
   0.7240300000000000    0.5101900000000000    0.0869900000000000 Zn
   0.5000050000000000    0.0002800000000000    0.4998350000000000 Zn
   0.7499800000000000    0.5000500000000000    0.4997850000000000 Zn
   0.8176250000000000    0.0414700000000000    0.2799500000000000 Zn
   0.4742900000000000    0.9895000000000000    0.5871700000000000 Zn
   0.4322900000000000    0.5417100000000000    0.7184550000000001 Zn
   0.2754800000000000    0.4897000000000000    0.9117950000000000 Zn
   0.1824050000000000    0.9585000000000000    0.7198200000000000 Zn
   0.0246850000000000    0.0104200000000000    0.9116500000000001 Zn
   0.0675650000000000    0.4583700000000000    0.7799400000000001 Zn
   0.2240300000000000    0.5101900000000000    0.5869900000000000 Zn
   0.0000050000000000    0.0002800000000000    0.9998350000000000 Zn
   0.2499800000000000    0.5000500000000000    0.9997849999999999 Zn
   0.3176250000000000    0.0414700000000000    0.7799499999999999 Zn
   0.9742900000000000    0.9895000000000000    0.5871700000000000 Zn
   0.9322900000000001    0.5417100000000000    0.7184550000000001 Zn
   0.7754799999999999    0.4897000000000000    0.9117950000000000 Zn
   0.6824050000000000    0.9585000000000000    0.7198200000000000 Zn
   0.5246850000000000    0.0104200000000000    0.9116500000000001 Zn
   0.5675650000000000    0.4583700000000000    0.7799400000000001 Zn
   0.7240300000000000    0.5101900000000000    0.5869900000000000 Zn
   0.5000050000000000    0.0002800000000000    0.9998350000000000 Zn
   0.7499800000000000    0.5000500000000000    0.9997849999999999 Zn
   0.8176250000000000    0.0414700000000000    0.7799499999999999 Zn
   0.4022400000000000    0.9688600000000001    0.3209750000000000 H
   0.4272800000000000    0.8364900000000000    0.3537100000000000 H
   0.3726900000000000    0.7286100000000000    0.3586800000000000 H
   0.2751750000000000    0.9040600000000000    0.3062100000000000 H
   0.2326350000000000    0.7026700000000000    0.3238650000000000 H
   0.2355500000000000    0.7997700000000000    0.3009750000000000 H
   0.2079350000000000    0.9125100000000000    0.3330350000000000 H
   0.1911950000000000    0.9750400000000000    0.3922950000000000 H
   0.2443900000000000    0.7652099999999999    0.4623900000000000 H
   0.2620150000000000    0.7043000000000000    0.4032700000000000 H
   0.1512150000000000    0.9802700000000000    0.4349750000000000 H
   0.1351600000000000    0.0439400000000000    0.4933100000000000 H
   0.2402350000000000    0.9157300000000000    0.0692700000000000 H
   0.2582200000000000    0.8554000000000000    0.0103450000000000 H
   0.1658400000000000    0.0864400000000000    0.0655000000000000 H
   0.2036750000000000    0.0000000000000000    0.0973200000000000 H
   0.0945650000000000    0.0544400000000000    0.0485750000000000 H
   0.0490000000000000    0.8764500000000000    0.1206900000000000 H
   0.1249450000000000    0.8327200000000000    0.1470800000000000 H
   0.1832200000000000    0.9042500000000000    0.1240300000000000 H
   0.4571750000000000    0.1561700000000000    0.2821850000000000 H
   0.0000000000000000    0.2812400000000000    0.2896150000000000 H
   0.3915950000000000    0.4329000000000000    0.2741850000000000 H
   0.3462300000000000    0.3076900000000000    0.2692100000000000 H
   0.3338550000000000    0.3026900000000000    0.0507750000000000 H
   0.3600850000000000    0.2931900000000000    0.4348550000000000 H
   0.4137600000000000    0.1821600000000000    0.4585000000000000 H
   0.3883000000000000    0.1935500000000000    0.0744850000000000 H
   0.4500050000000000    0.9137999999999999    0.2003050000000000 H
   0.3475650000000000    0.4692100000000000    0.1779650000000000 H
   0.3224500000000000    0.3366300000000000    0.1458700000000000 H
   0.3769750000000000    0.2284100000000000    0.1413000000000000 H
   0.4746050000000000    0.4040400000000000    0.1927000000000000 H
   0.0170600000000000    0.2022000000000000    0.1759150000000000 H
   0.0142000000000000    0.2992100000000000    0.1987000000000000 H
   0.0418950000000000    0.4119800000000000    0.1665300000000000 H
   0.0586550000000000    0.4746700000000000    0.1072150000000000 H
   0.0052600000000000    0.2652800000000000    0.0373400000000000 H
   0.4875850000000000    0.2042300000000000    0.0965150000000000 H
   0.0984050000000000    0.4805400000000000    0.0644700000000000 H
   0.1145650000000000    0.5440700000000001    0.0000000000000000 H
   0.0098900000000000    0.4150500000000000    0.4302450000000000 H
   0.4917650000000000    0.3549900000000000    0.4892650000000000 H
   0.0840950000000000    0.5859900000000000    0.4332250000000000 H
   0.0463150000000000    0.5217900000000000    0.4019750000000000 H
   0.1554200000000000    0.5540400000000000    0.4507050000000000 H
   0.2011000000000000    0.3765500000000000    0.3787900000000000 H
   0.1252100000000000    0.3326000000000000    0.3525100000000000 H
   0.0668750000000000    0.4037000000000000    0.3755500000000000 H
   0.2925200000000000    0.6558900000000000    0.2175550000000000 H
   0.2463300000000000    0.7808900000000000    0.2101300000000000 H
   0.3578000000000000    0.9326600000000000    0.2238950000000000 H
   0.4031500000000000    0.8075500000000000    0.2286000000000000 H
   0.4159150000000000    0.8028600000000000    0.4485350000000000 H
   0.3898500000000000    0.7927600000000000    0.0645350000000000 H
   0.3361800000000000    0.6818800000000000    0.0410200000000000 H
   0.3615350000000000    0.6936900000000000    0.4250200000000000 H
   0.3000950000000000    0.4150400000000000    0.2990150000000000 H
   0.2011300000000000    0.5953000000000001    0.2729400000000000 H
   0.0976750000000000    0.0306900000000000    0.1786750000000000 H
   0.0724950000000000    0.1627700000000000    0.1457300000000000 H
   0.1269550000000000    0.2710000000000000    0.1408000000000000 H
   0.2246700000000000    0.0962000000000000    0.1936450000000000 H
   0.2670100000000000    0.2976500000000000    0.1758050000000000 H
   0.2642300000000000    0.2007200000000000    0.1988750000000000 H
   0.2919550000000000    0.0879300000000000    0.1669500000000000 H
   0.3087300000000000    0.0251100000000000    0.1078000000000000 H
   0.2549950000000000    0.2341300000000000    0.0373450000000000 H
   0.2373350000000000    0.2953300000000000    0.0963500000000000 H
   0.3485600000000000    0.0196100000000000    0.0650500000000000 H
   0.3647300000000000    0.9558700000000000    0.0000000000000000 H
   0.2595900000000000    0.0837400000000000    0.4306950000000000 H
   0.2414800000000000    0.1440300000000000    0.4895500000000000 H
   0.3344900000000000    0.9135700000000000    0.4342300000000000 H
   0.2961550000000000    0.9767200000000000    0.4027950000000000 H
   0.4055700000000000    0.9471300000000000    0.4512450000000000 H
   0.4497000000000000    0.1253200000000000    0.3782950000000000 H
   0.3734900000000000    0.1675200000000000    0.3521200000000000 H
   0.3157900000000000    0.0951800000000000    0.3756850000000000 H
   0.0425650000000000    0.8438099999999999    0.2171000000000000 H
   0.4964350000000000    0.7187100000000000    0.2092500000000000 H
   0.1081550000000000    0.5671700000000000    0.2243600000000000 H
   0.1535000000000000    0.6924400000000001    0.2296200000000000 H
   0.1651900000000000    0.6971000000000001    0.4482650000000000 H
   0.1400100000000000    0.7076200000000000    0.0645850000000000 H
   0.0862400000000000    0.8184800000000000    0.0410600000000000 H
   0.1105250000000000    0.8059100000000000    0.4246750000000000 H
   0.0496900000000000    0.0855000000000000    0.2988350000000000 H
   0.4512300000000000    0.9043300000000000    0.2731350000000000 H
   0.1522050000000000    0.5304900000000000    0.3206400000000000 H
   0.1774600000000000    0.6623400000000000    0.3535100000000000 H
   0.1230400000000000    0.7703700000000000    0.3586250000000000 H
   0.0252450000000000    0.5958599999999999    0.3060850000000000 H
   0.4830000000000000    0.7973700000000000    0.3238050000000000 H
   0.4858050000000000    0.7005200000000000    0.3008350000000000 H
   0.4579600000000000    0.5874000000000000    0.3329150000000000 H
   0.4411400000000000    0.5245600000000000    0.3921950000000000 H
   0.4945750000000000    0.7337300000000000    0.4622050000000000 H
   0.0122850000000000    0.7949500000000000    0.4030950000000000 H
   0.4012900000000000    0.5188800000000000    0.4350650000000000 H
   0.3851100000000000    0.4556100000000000    0.4936200000000000 H
   0.4900850000000000    0.5840700000000000    0.0692250000000000 H
   0.0000000000000000    0.6438700000000001    0.0101500000000000 H
   0.4156450000000000    0.4137300000000000    0.0664450000000000 H
   0.4534400000000000    0.4780400000000000    0.0976150000000000 H
   0.3443800000000000    0.4455100000000000    0.0489750000000000 H
   0.2986350000000000    0.6243200000000000    0.1202050000000000 H
   0.3745300000000000    0.6685200000000000    0.1463150000000000 H
   0.4328800000000000    0.5968900000000000    0.1235450000000000 H
   0.2074650000000000    0.3440400000000000    0.2813850000000000 H
   0.2536650000000000    0.2190300000000000    0.2892300000000000 H
   0.1421650000000000    0.0673500000000000    0.2755600000000000 H
   0.0967900000000000    0.1925100000000000    0.2703750000000000 H
   0.0835850000000000    0.1975500000000000    0.0501850000000000 H
   0.1110250000000000    0.2052400000000000    0.4347100000000000 H
   0.1644850000000000    0.3165600000000000    0.4581750000000000 H
   0.1379600000000000    0.3067000000000000    0.0737600000000000 H
   0.1993350000000000    0.5848600000000000    0.2000000000000000 H
   0.2984450000000000    0.4049400000000000    0.2261000000000000 H
   0.9022399999999999    0.9688600000000001    0.3209750000000000 H
   0.9272800000000000    0.8364900000000000    0.3537100000000000 H
   0.8726900000000000    0.7286100000000000    0.3586800000000000 H
   0.7751749999999999    0.9040600000000000    0.3062100000000000 H
   0.7326350000000000    0.7026700000000000    0.3238650000000000 H
   0.7355500000000000    0.7997700000000000    0.3009750000000000 H
   0.7079350000000000    0.9125100000000000    0.3330350000000000 H
   0.6911950000000000    0.9750400000000000    0.3922950000000000 H
   0.7443900000000000    0.7652099999999999    0.4623900000000000 H
   0.7620150000000000    0.7043000000000000    0.4032700000000000 H
   0.6512150000000000    0.9802700000000000    0.4349750000000000 H
   0.6351599999999999    0.0439400000000000    0.4933100000000000 H
   0.7402350000000000    0.9157300000000000    0.0692700000000000 H
   0.7582200000000000    0.8554000000000000    0.0103450000000000 H
   0.6658400000000000    0.0864400000000000    0.0655000000000000 H
   0.7036750000000001    0.0000000000000000    0.0973200000000000 H
   0.5945650000000000    0.0544400000000000    0.0485750000000000 H
   0.5490000000000000    0.8764500000000000    0.1206900000000000 H
   0.6249450000000000    0.8327200000000000    0.1470800000000000 H
   0.6832199999999999    0.9042500000000000    0.1240300000000000 H
   0.9571750000000000    0.1561700000000000    0.2821850000000000 H
   0.5000000000000000    0.2812400000000000    0.2896150000000000 H
   0.8915950000000000    0.4329000000000000    0.2741850000000000 H
   0.8462300000000000    0.3076900000000000    0.2692100000000000 H
   0.8338550000000000    0.3026900000000000    0.0507750000000000 H
   0.8600850000000000    0.2931900000000000    0.4348550000000000 H
   0.9137600000000000    0.1821600000000000    0.4585000000000000 H
   0.8883000000000000    0.1935500000000000    0.0744850000000000 H
   0.9500050000000000    0.9137999999999999    0.2003050000000000 H
   0.8475650000000000    0.4692100000000000    0.1779650000000000 H
   0.8224500000000000    0.3366300000000000    0.1458700000000000 H
   0.8769750000000001    0.2284100000000000    0.1413000000000000 H
   0.9746049999999999    0.4040400000000000    0.1927000000000000 H
   0.5170600000000000    0.2022000000000000    0.1759150000000000 H
   0.5142000000000000    0.2992100000000000    0.1987000000000000 H
   0.5418950000000000    0.4119800000000000    0.1665300000000000 H
   0.5586550000000000    0.4746700000000000    0.1072150000000000 H
   0.5052600000000000    0.2652800000000000    0.0373400000000000 H
   0.9875849999999999    0.2042300000000000    0.0965150000000000 H
   0.5984050000000000    0.4805400000000000    0.0644700000000000 H
   0.6145650000000000    0.5440700000000001    0.0000000000000000 H
   0.5098900000000000    0.4150500000000000    0.4302450000000000 H
   0.9917650000000000    0.3549900000000000    0.4892650000000000 H
   0.5840950000000000    0.5859900000000000    0.4332250000000000 H
   0.5463150000000000    0.5217900000000000    0.4019750000000000 H
   0.6554200000000000    0.5540400000000000    0.4507050000000000 H
   0.7011000000000001    0.3765500000000000    0.3787900000000000 H
   0.6252100000000000    0.3326000000000000    0.3525100000000000 H
   0.5668750000000000    0.4037000000000000    0.3755500000000000 H
   0.7925200000000000    0.6558900000000000    0.2175550000000000 H
   0.7463299999999999    0.7808900000000000    0.2101300000000000 H
   0.8578000000000000    0.9326600000000000    0.2238950000000000 H
   0.9031500000000000    0.8075500000000000    0.2286000000000000 H
   0.9159150000000000    0.8028600000000000    0.4485350000000000 H
   0.8898500000000000    0.7927600000000000    0.0645350000000000 H
   0.8361799999999999    0.6818800000000000    0.0410200000000000 H
   0.8615349999999999    0.6936900000000000    0.4250200000000000 H
   0.8000950000000000    0.4150400000000000    0.2990150000000000 H
   0.7011300000000000    0.5953000000000001    0.2729400000000000 H
   0.5976750000000000    0.0306900000000000    0.1786750000000000 H
   0.5724950000000000    0.1627700000000000    0.1457300000000000 H
   0.6269550000000000    0.2710000000000000    0.1408000000000000 H
   0.7246700000000000    0.0962000000000000    0.1936450000000000 H
   0.7670100000000000    0.2976500000000000    0.1758050000000000 H
   0.7642300000000000    0.2007200000000000    0.1988750000000000 H
   0.7919550000000000    0.0879300000000000    0.1669500000000000 H
   0.8087299999999999    0.0251100000000000    0.1078000000000000 H
   0.7549950000000001    0.2341300000000000    0.0373450000000000 H
   0.7373350000000000    0.2953300000000000    0.0963500000000000 H
   0.8485600000000000    0.0196100000000000    0.0650500000000000 H
   0.8647300000000000    0.9558700000000000    0.0000000000000000 H
   0.7595900000000000    0.0837400000000000    0.4306950000000000 H
   0.7414800000000000    0.1440300000000000    0.4895500000000000 H
   0.8344900000000000    0.9135700000000000    0.4342300000000000 H
   0.7961549999999999    0.9767200000000000    0.4027950000000000 H
   0.9055700000000000    0.9471300000000000    0.4512450000000000 H
   0.9497000000000000    0.1253200000000000    0.3782950000000000 H
   0.8734900000000000    0.1675200000000000    0.3521200000000000 H
   0.8157900000000000    0.0951800000000000    0.3756850000000000 H
   0.5425650000000000    0.8438099999999999    0.2171000000000000 H
   0.9964350000000000    0.7187100000000000    0.2092500000000000 H
   0.6081550000000000    0.5671700000000000    0.2243600000000000 H
   0.6535000000000000    0.6924400000000001    0.2296200000000000 H
   0.6651899999999999    0.6971000000000001    0.4482650000000000 H
   0.6400100000000000    0.7076200000000000    0.0645850000000000 H
   0.5862400000000000    0.8184800000000000    0.0410600000000000 H
   0.6105250000000000    0.8059100000000000    0.4246750000000000 H
   0.5496900000000000    0.0855000000000000    0.2988350000000000 H
   0.9512300000000000    0.9043300000000000    0.2731350000000000 H
   0.6522050000000000    0.5304900000000000    0.3206400000000000 H
   0.6774600000000000    0.6623400000000000    0.3535100000000000 H
   0.6230400000000000    0.7703700000000000    0.3586250000000000 H
   0.5252450000000000    0.5958599999999999    0.3060850000000000 H
   0.9830000000000000    0.7973700000000000    0.3238050000000000 H
   0.9858050000000000    0.7005200000000000    0.3008350000000000 H
   0.9579599999999999    0.5874000000000000    0.3329150000000000 H
   0.9411400000000000    0.5245600000000000    0.3921950000000000 H
   0.9945750000000000    0.7337300000000000    0.4622050000000000 H
   0.5122850000000000    0.7949500000000000    0.4030950000000000 H
   0.9012899999999999    0.5188800000000000    0.4350650000000000 H
   0.8851100000000001    0.4556100000000000    0.4936200000000000 H
   0.9900850000000000    0.5840700000000000    0.0692250000000000 H
   0.5000000000000000    0.6438700000000001    0.0101500000000000 H
   0.9156450000000000    0.4137300000000000    0.0664450000000000 H
   0.9534400000000001    0.4780400000000000    0.0976150000000000 H
   0.8443800000000000    0.4455100000000000    0.0489750000000000 H
   0.7986350000000000    0.6243200000000000    0.1202050000000000 H
   0.8745300000000000    0.6685200000000000    0.1463150000000000 H
   0.9328799999999999    0.5968900000000000    0.1235450000000000 H
   0.7074650000000000    0.3440400000000000    0.2813850000000000 H
   0.7536650000000000    0.2190300000000000    0.2892300000000000 H
   0.6421650000000000    0.0673500000000000    0.2755600000000000 H
   0.5967900000000000    0.1925100000000000    0.2703750000000000 H
   0.5835850000000000    0.1975500000000000    0.0501850000000000 H
   0.6110250000000000    0.2052400000000000    0.4347100000000000 H
   0.6644850000000000    0.3165600000000000    0.4581750000000000 H
   0.6379600000000000    0.3067000000000000    0.0737600000000000 H
   0.6993350000000000    0.5848600000000000    0.2000000000000000 H
   0.7984450000000001    0.4049400000000000    0.2261000000000000 H
   0.4022400000000000    0.9688600000000001    0.8209750000000000 H
   0.4272800000000000    0.8364900000000000    0.8537100000000000 H
   0.3726900000000000    0.7286100000000000    0.8586800000000000 H
   0.2751750000000000    0.9040600000000000    0.8062100000000000 H
   0.2326350000000000    0.7026700000000000    0.8238650000000001 H
   0.2355500000000000    0.7997700000000000    0.8009750000000000 H
   0.2079350000000000    0.9125100000000000    0.8330350000000000 H
   0.1911950000000000    0.9750400000000000    0.8922950000000001 H
   0.2443900000000000    0.7652099999999999    0.9623900000000001 H
   0.2620150000000000    0.7043000000000000    0.9032700000000000 H
   0.1512150000000000    0.9802700000000000    0.9349750000000000 H
   0.1351600000000000    0.0439400000000000    0.9933100000000000 H
   0.2402350000000000    0.9157300000000000    0.5692699999999999 H
   0.2582200000000000    0.8554000000000000    0.5103450000000000 H
   0.1658400000000000    0.0864400000000000    0.5655000000000000 H
   0.2036750000000000    0.0000000000000000    0.5973200000000000 H
   0.0945650000000000    0.0544400000000000    0.5485750000000000 H
   0.0490000000000000    0.8764500000000000    0.6206900000000000 H
   0.1249450000000000    0.8327200000000000    0.6470800000000000 H
   0.1832200000000000    0.9042500000000000    0.6240300000000000 H
   0.4571750000000000    0.1561700000000000    0.7821850000000000 H
   0.0000000000000000    0.2812400000000000    0.7896150000000000 H
   0.3915950000000000    0.4329000000000000    0.7741850000000000 H
   0.3462300000000000    0.3076900000000000    0.7692099999999999 H
   0.3338550000000000    0.3026900000000000    0.5507750000000000 H
   0.3600850000000000    0.2931900000000000    0.9348550000000000 H
   0.4137600000000000    0.1821600000000000    0.9585000000000000 H
   0.3883000000000000    0.1935500000000000    0.5744850000000000 H
   0.4500050000000000    0.9137999999999999    0.7003050000000000 H
   0.3475650000000000    0.4692100000000000    0.6779650000000000 H
   0.3224500000000000    0.3366300000000000    0.6458699999999999 H
   0.3769750000000000    0.2284100000000000    0.6413000000000000 H
   0.4746050000000000    0.4040400000000000    0.6927000000000000 H
   0.0170600000000000    0.2022000000000000    0.6759150000000000 H
   0.0142000000000000    0.2992100000000000    0.6987000000000000 H
   0.0418950000000000    0.4119800000000000    0.6665300000000001 H
   0.0586550000000000    0.4746700000000000    0.6072150000000001 H
   0.0052600000000000    0.2652800000000000    0.5373400000000000 H
   0.4875850000000000    0.2042300000000000    0.5965150000000000 H
   0.0984050000000000    0.4805400000000000    0.5644700000000000 H
   0.1145650000000000    0.5440700000000001    0.5000000000000000 H
   0.0098900000000000    0.4150500000000000    0.9302450000000000 H
   0.4917650000000000    0.3549900000000000    0.9892650000000001 H
   0.0840950000000000    0.5859900000000000    0.9332250000000000 H
   0.0463150000000000    0.5217900000000000    0.9019750000000000 H
   0.1554200000000000    0.5540400000000000    0.9507050000000000 H
   0.2011000000000000    0.3765500000000000    0.8787900000000000 H
   0.1252100000000000    0.3326000000000000    0.8525100000000000 H
   0.0668750000000000    0.4037000000000000    0.8755500000000001 H
   0.2925200000000000    0.6558900000000000    0.7175549999999999 H
   0.2463300000000000    0.7808900000000000    0.7101300000000000 H
   0.3578000000000000    0.9326600000000000    0.7238950000000000 H
   0.4031500000000000    0.8075500000000000    0.7286000000000000 H
   0.4159150000000000    0.8028600000000000    0.9485350000000000 H
   0.3898500000000000    0.7927600000000000    0.5645350000000000 H
   0.3361800000000000    0.6818800000000000    0.5410200000000001 H
   0.3615350000000000    0.6936900000000000    0.9250200000000000 H
   0.3000950000000000    0.4150400000000000    0.7990150000000000 H
   0.2011300000000000    0.5953000000000001    0.7729400000000000 H
   0.0976750000000000    0.0306900000000000    0.6786750000000000 H
   0.0724950000000000    0.1627700000000000    0.6457300000000000 H
   0.1269550000000000    0.2710000000000000    0.6408000000000000 H
   0.2246700000000000    0.0962000000000000    0.6936450000000001 H
   0.2670100000000000    0.2976500000000000    0.6758050000000000 H
   0.2642300000000000    0.2007200000000000    0.6988750000000000 H
   0.2919550000000000    0.0879300000000000    0.6669499999999999 H
   0.3087300000000000    0.0251100000000000    0.6078000000000000 H
   0.2549950000000000    0.2341300000000000    0.5373450000000000 H
   0.2373350000000000    0.2953300000000000    0.5963500000000000 H
   0.3485600000000000    0.0196100000000000    0.5650500000000001 H
   0.3647300000000000    0.9558700000000000    0.5000000000000000 H
   0.2595900000000000    0.0837400000000000    0.9306950000000001 H
   0.2414800000000000    0.1440300000000000    0.9895499999999999 H
   0.3344900000000000    0.9135700000000000    0.9342300000000000 H
   0.2961550000000000    0.9767200000000000    0.9027950000000000 H
   0.4055700000000000    0.9471300000000000    0.9512450000000000 H
   0.4497000000000000    0.1253200000000000    0.8782950000000000 H
   0.3734900000000000    0.1675200000000000    0.8521200000000000 H
   0.3157900000000000    0.0951800000000000    0.8756850000000000 H
   0.4964350000000000    0.7187100000000000    0.7092499999999999 H
   0.1651900000000000    0.6971000000000001    0.9482650000000000 H
   0.1400100000000000    0.7076200000000000    0.5645850000000000 H
   0.0862400000000000    0.8184800000000000    0.5410600000000000 H
   0.1105250000000000    0.8059100000000000    0.9246750000000000 H
   0.0496900000000000    0.0855000000000000    0.7988350000000000 H
   0.4512300000000000    0.9043300000000000    0.7731350000000000 H
   0.1522050000000000    0.5304900000000000    0.8206400000000000 H
   0.1774600000000000    0.6623400000000000    0.8535100000000000 H
   0.1230400000000000    0.7703700000000000    0.8586250000000000 H
   0.0252450000000000    0.5958599999999999    0.8060849999999999 H
   0.4830000000000000    0.7973700000000000    0.8238050000000000 H
   0.4858050000000000    0.7005200000000000    0.8008350000000000 H
   0.4579600000000000    0.5874000000000000    0.8329150000000001 H
   0.4411400000000000    0.5245600000000000    0.8921950000000001 H
   0.4945750000000000    0.7337300000000000    0.9622050000000000 H
   0.0122850000000000    0.7949500000000000    0.9030950000000000 H
   0.4012900000000000    0.5188800000000000    0.9350650000000000 H
   0.3851100000000000    0.4556100000000000    0.9936199999999999 H
   0.4900850000000000    0.5840700000000000    0.5692250000000000 H
   0.0000000000000000    0.6438700000000001    0.5101500000000000 H
   0.4156450000000000    0.4137300000000000    0.5664450000000000 H
   0.4534400000000000    0.4780400000000000    0.5976150000000000 H
   0.3443800000000000    0.4455100000000000    0.5489750000000000 H
   0.2986350000000000    0.6243200000000000    0.6202050000000000 H
   0.3745300000000000    0.6685200000000000    0.6463150000000000 H
   0.4328800000000000    0.5968900000000000    0.6235450000000000 H
   0.2074650000000000    0.3440400000000000    0.7813850000000000 H
   0.2536650000000000    0.2190300000000000    0.7892300000000000 H
   0.1421650000000000    0.0673500000000000    0.7755600000000000 H
   0.0967900000000000    0.1925100000000000    0.7703750000000000 H
   0.0835850000000000    0.1975500000000000    0.5501850000000000 H
   0.1110250000000000    0.2052400000000000    0.9347099999999999 H
   0.1644850000000000    0.3165600000000000    0.9581750000000000 H
   0.1379600000000000    0.3067000000000000    0.5737600000000000 H
   0.1993350000000000    0.5848600000000000    0.7000000000000000 H
   0.2984450000000000    0.4049400000000000    0.7261000000000000 H
   0.9022399999999999    0.9688600000000001    0.8209750000000000 H
   0.9272800000000000    0.8364900000000000    0.8537100000000000 H
   0.8726900000000000    0.7286100000000000    0.8586800000000000 H
   0.7751749999999999    0.9040600000000000    0.8062100000000000 H
   0.7326350000000000    0.7026700000000000    0.8238650000000001 H
   0.7355500000000000    0.7997700000000000    0.8009750000000000 H
   0.7079350000000000    0.9125100000000000    0.8330350000000000 H
   0.6911950000000000    0.9750400000000000    0.8922950000000001 H
   0.7443900000000000    0.7652099999999999    0.9623900000000001 H
   0.7620150000000000    0.7043000000000000    0.9032700000000000 H
   0.6512150000000000    0.9802700000000000    0.9349750000000000 H
   0.6351599999999999    0.0439400000000000    0.9933100000000000 H
   0.7402350000000000    0.9157300000000000    0.5692699999999999 H
   0.7582200000000000    0.8554000000000000    0.5103450000000000 H
   0.6658400000000000    0.0864400000000000    0.5655000000000000 H
   0.7036750000000001    0.0000000000000000    0.5973200000000000 H
   0.5945650000000000    0.0544400000000000    0.5485750000000000 H
   0.5490000000000000    0.8764500000000000    0.6206900000000000 H
   0.6249450000000000    0.8327200000000000    0.6470800000000000 H
   0.6832199999999999    0.9042500000000000    0.6240300000000000 H
   0.9571750000000000    0.1561700000000000    0.7821850000000000 H
   0.5000000000000000    0.2812400000000000    0.7896150000000000 H
   0.8915950000000000    0.4329000000000000    0.7741850000000000 H
   0.8462300000000000    0.3076900000000000    0.7692099999999999 H
   0.8338550000000000    0.3026900000000000    0.5507750000000000 H
   0.8600850000000000    0.2931900000000000    0.9348550000000000 H
   0.9137600000000000    0.1821600000000000    0.9585000000000000 H
   0.8883000000000000    0.1935500000000000    0.5744850000000000 H
   0.9500050000000000    0.9137999999999999    0.7003050000000000 H
   0.8475650000000000    0.4692100000000000    0.6779650000000000 H
   0.8224500000000000    0.3366300000000000    0.6458699999999999 H
   0.8769750000000001    0.2284100000000000    0.6413000000000000 H
   0.9746049999999999    0.4040400000000000    0.6927000000000000 H
   0.5170600000000000    0.2022000000000000    0.6759150000000000 H
   0.5142000000000000    0.2992100000000000    0.6987000000000000 H
   0.5418950000000000    0.4119800000000000    0.6665300000000001 H
   0.5586550000000000    0.4746700000000000    0.6072150000000001 H
   0.5052600000000000    0.2652800000000000    0.5373400000000000 H
   0.9875849999999999    0.2042300000000000    0.5965150000000000 H
   0.5984050000000000    0.4805400000000000    0.5644700000000000 H
   0.6145650000000000    0.5440700000000001    0.5000000000000000 H
   0.5098900000000000    0.4150500000000000    0.9302450000000000 H