H3 C9 O6
1.0
  21.3078503187301855    0.0000000000000000    6.7551553494046281
  -4.9107126958321770   29.3728738502010636   15.3853691083174056
   0.0000000000000000    0.0000000000000000   36.5240000000000009
H C O
3 9 6
direct
   0.8782900000000000    0.2468000000000000    0.8475150000000000 H
   0.8601500000000000    0.1499150000000000    0.9804050000000000 H
   0.8174700000000000    0.2838850000000000    0.9499550000000000 H
   0.8247900000000000    0.2052700000000000    0.0167400000000000 C
   0.8675900000000000    0.2383150000000000    0.8816050000000000 C
   0.8724800000000000    0.1948650000000000    0.9121200000000000 C
   0.8577399999999999    0.1839050000000000    0.9561999999999999 C
   0.8396100000000000    0.2164250000000000    0.9695199999999999 C
   0.8331900000000000    0.2593350000000000    0.9389149999999999 C
   0.8463800000000000    0.2702400000000000    0.8951200000000000 C
   0.8376100000000000    0.3152150000000000    0.8625000000000000 C
   0.8895100000000000    0.1597450000000000    0.8978450000000000 C
   0.8175500000000000    0.2412750000000000    0.0222300000000000 O
   0.8199600000000000    0.1658850000000000    0.0460400000000000 O
   0.8698900000000001    0.3333800000000000    0.8230050000000000 O
   0.7939700000000000    0.3356400000000000    0.8778450000000000 O
   0.9134600000000000    0.1734050000000000    0.8564499999999999 O
   0.8780900000000000    0.1185500000000000    0.9279500000000001 O
