H5 O3
1.0
   9.3202074577808016    0.0000000000000000    4.0017723503376796
   4.6452164197209331   11.7786647855139304    1.9836522589529451
   0.0000000000000000    0.0000000000000000   38.4780000000000015
H O
5 3
direct
   0.8892311903409694    0.7755876361511772    0.5374895433589169 H
   0.7225528736429223    0.7754979009789376    0.5378991723670319 H
   0.4727874572405138    0.1084380513238145    0.5178409733531867 H
   0.8630386600690202    0.1096063593792445    0.5190261416758720 H
   0.6729627372983956    0.0986938960105258    0.5185345386458156 H
   0.8227000000000000    0.7340400000000000    0.5403466666666666 O
   0.5405400000000000    0.1448800000000000    0.5177466666666666 O
   0.7600400000000000    0.1455300000000000    0.5184133333333333 O
