S1 O4
1.0
   9.3202074577808016    0.0000000000000000    4.0017723503376796
   4.6452164197209331   11.7786647855139304    1.9836522589529451
   0.0000000000000000    0.0000000000000000   38.4780000000000015
S O
1 4
direct
   0.2499300000000000    0.5000400000000000    0.4999933333333333 S
   0.4060400000000000    0.4087300000000000    0.4829500000000000 O
   0.2639900000000000    0.5913400000000000    0.5170699999999999 O
   0.1447400000000000    0.4489000000000000    0.5303766666666667 O
   0.1849700000000000    0.5512000000000000    0.4695766666666666 O
