H4 C6 N1 O2
1.0
   9.3202074577808016    0.0000000000000000    4.0017723503376796
   4.6452164197209331   11.7786647855139304    1.9836522589529451
   0.0000000000000000    0.0000000000000000   38.4780000000000015
H C N O
4 6 1 2
direct
   0.0267900000000000    0.7419200000000000    0.5383433333333333 H
   0.9475100000000000    0.9506300000000000    0.5266266666666666 H
   0.6152400000000000    0.7416800000000000    0.5393933333333333 H
   0.5210600000000000    0.9502800000000000    0.5274233333333334 H
   0.9146800000000000    0.7914800000000000    0.5363966666666666 C
   0.8702400000000000    0.9075900000000000    0.5296566666666667 C
   0.6842600000000000    0.7913500000000000    0.5369633333333333 C
   0.6327300000000000    0.9074200000000000    0.5301466666666667 C
   0.7262999999999999    0.9674800000000000    0.5266833333333333 C
   0.6726000000000000    0.0938800000000000    0.5203400000000000 C
   0.8227000000000000    0.7340400000000000    0.5403466666666666 N
   0.7600400000000000    0.1455300000000000    0.5184133333333333 O
   0.5405400000000000    0.1448800000000000    0.5177466666666666 O
