H3 C9 O6
1.0
  20.7519849518598534    0.0000000000000000    0.0249911540790863
   0.0911913597030649   20.6667231862828302    0.0559095472638920
   0.0000000000000000    0.0000000000000000   14.0429999999999993
H C O
3 9 6
direct
   0.0371400000000000    0.7359200000000000    0.1433600000000000 H
   0.9647200000000000    0.7374300000000000    0.8557600000000000 H
   0.0000000000000000    0.5564100000000000    0.9985200000000000 H
   0.0007600000000000    0.8162800000000000    0.0002100000000000 C
   0.0213700000000000    0.7097100000000000    0.0804500000000000 C
   0.0207600000000000    0.6419600000000000    0.0805100000000000 C
   0.0390400000000000    0.6042500000000000    0.1669000000000000 C
   0.9806200000000000    0.7105399999999999    0.9183300000000000 C
   0.9815700000000001    0.6427500000000000    0.9175000000000000 C
   0.9633400000000000    0.6059500000000000    0.8306700000000000 C
   0.0009200000000000    0.7438100000000000    0.9996000000000000 C
   0.0012500000000000    0.6089599999999999    0.9988100000000000 C
   0.0442500000000000    0.6328900000000000    0.2466500000000000 O
   0.0432400000000000    0.8439300000000000    0.0510900000000000 O
   0.0473400000000000    0.5430400000000000    0.1592100000000000 O
   0.9579100000000000    0.6352600000000000    0.7513000000000000 O
   0.9581700000000000    0.8447200000000000    0.9499300000000001 O
   0.9551800000000000    0.5445800000000000    0.8372000000000001 O
