H6 O4
1.0
  10.4107011858003435    0.0000000000000000    0.1644530935413819
   0.0019774482745346   18.7819998844602978   -0.0006556154800831
   0.0000000000000000    0.0000000000000000   27.6690000000000005
H O
6 4
direct
   0.4973275174658913    0.8813522824778171    0.6052630099400297 H
   0.8557484195336206    0.9319025612548414    0.6151795900417841 H
   0.6829581609148407    0.9083230434057599    0.6180044105300834 H
   0.1880379878975000    0.5759665948762261   -0.0502524800359914 H
   1.1688712964715364    0.5254940142867265   -0.0401487222507209 H
   0.6801800414470222    0.5381784893021787   -0.0615999952022722 H
   0.5760600000000000    0.8903400000000000    0.5870700000000000 O
   0.7844600000000000    0.9199100000000000    0.5945500000000000 O
   0.2796300000000000    0.5749800000000000   -0.0444000000000000 O
   1.0773800000000000    0.5339000000000000   -0.0362200000000000 O
