H7 C16 N4 O4
1.0
  10.4107011858003435    0.0000000000000000    0.1644530935413819
   0.0019774482745346   18.7819998844602978   -0.0006556154800831
   0.0000000000000000    0.0000000000000000   27.6690000000000005
H C N O
7 16 4 4
direct
   0.4957700000000000    0.8294899999999999    0.6644300000000000 H
   0.6230400000000000    0.8902500000000000    0.8060100000000000 H
   0.7947100000000000    0.9652200000000000    0.7684200000000000 H
   0.8220100000000000    0.9676800000000000    0.6786100000000000 H
   0.2994200000000000    0.6670800000000000    0.8895600000000000 H
   0.9373100000000000    0.5666900000000000    0.7963700000000000 H
   0.9714000000000000    0.5287200000000000    0.8815400000000000 H
   0.6751200000000001    0.9029800000000000    0.6120700000000000 C
   0.6604300000000000    0.8990700000000000    0.6661000000000000 C
   0.5621500000000000    0.8583400000000000    0.6872300000000000 C
   0.5495800000000000    0.8540600000000000    0.7377600000000000 C
   0.6334500000000000    0.8934500000000000    0.7668900000000000 C
   0.7296700000000000    0.9350500000000000    0.7456900000000000 C
   0.7450100000000000    0.9369200000000000    0.6955100000000000 C
   0.4497500000000000    0.8088500000000000    0.7601700000000000 C
   0.2850000000000000    0.7224000000000000    0.7997900000000000 C
   0.1679700000000000    0.5666600000000001    0.9397400000000000 C
   0.1388400000000000    0.5944700000000001    0.8904600000000000 C
   0.2194800000000000    0.6457000000000001    0.8693000000000000 C
   0.1991700000000000    0.6688400000000000    0.8218800000000001 C
   0.0982600000000000    0.6389700000000000    0.7953000000000000 C
   0.0162800000000000    0.5891500000000000    0.8168100000000000 C
   0.0349500000000000    0.5675400000000000    0.8643999999999999 C
   0.3710600000000000    0.7718699999999999    0.7306600000000000 N
   0.2866400000000000    0.7280200000000000    0.7509000000000000 N
   0.3539100000000000    0.7647400000000000    0.8293700000000001 N
   0.4377800000000000    0.8091100000000000    0.8090300000000000 N
   0.7844600000000000    0.9199100000000000    0.5945500000000000 O
   0.5760600000000000    0.8903400000000000    0.5870700000000000 O
   0.2796300000000000    0.5749800000000000   -0.0444000000000000 O
   1.0773800000000000    0.5339000000000000   -0.0362200000000000 O
