H14 C24 O10
1.0
  30.4564602461179419    0.0000000000000000    2.4643792883072044
   0.8393796667693515   12.6254618327635608    2.0852173230732545
   0.0000000000000000    0.0000000000000000   25.8580000000000005
H C O
14 24 10
direct
   0.4834125000000000    0.7975500000000000    0.4746400000000000 H
   0.3119875000000000    0.0134700000000000    0.4942400000000000 H
   0.4464175000000000    0.5517200000000000    0.6019000000000000 H
   0.3773975000000000    0.6305100000000000    0.5705050000000000 H
   0.3974350000000000    0.6957900000000000    0.6190850000000000 H
   0.3757650000000000    0.8803800000000001    0.5017900000000000 H
   0.2987825000000000    0.9493000000000000    0.7328800000000000 H
   0.4287925000000000    0.7953400000000000    0.7246049999999999 H
   0.3908225000000000    0.0486900000000000    0.6018300000000000 H
   0.4975575000000000    0.8593400000000000    0.6844399999999999 H
   0.4775800000000000    0.7601100000000000    0.6528300000000000 H
   0.4984925000000000    0.9970300000000000    0.5608200000000000 H
   0.3124400000000000    0.7139100000000000    0.6424449999999999 H
   0.5761325000000000    0.5358400000000000    0.5242750000000000 H
   0.5333425000000001    0.6712399999999999    0.4945950000000000 C
   0.5652025000000001    0.7125100000000000    0.4508650000000000 C
   0.4705375000000000    0.5876900000000000    0.5724800000000000 C
   0.4607925000000000    0.6835000000000000    0.5397700000000000 C
   0.4921050000000000    0.7244800000000000    0.5005500000000001 C
   0.3868300000000000    0.7074300000000000    0.5785700000000000 C
   0.3484650000000000    0.7892100000000000    0.5728600000000000 C
   0.3479875000000000    0.8733700000000000    0.5309199999999999 C
   0.3412000000000000    0.0087100000000000    0.6650700000000001 C
   0.3308175000000000    0.9406800000000000    0.7119250000000000 C
   0.3624575000000000    0.8642200000000000    0.7326300000000000 C
   0.4044825000000000    0.8538000000000000    0.7066900000000000 C
   0.4139175000000000    0.9190700000000001    0.6588250000000000 C
   0.3823600000000000    0.9970599999999999    0.6383900000000000 C
   0.3091300000000000    0.0958800000000000    0.6445500000000000 C
   0.4879925000000000    0.8420700000000000    0.6465650000000001 C
   0.2761425000000000    0.8539099999999999    0.6056000000000000 C
   0.2763425000000000    0.9386600000000000    0.5639400000000000 C
   0.3510700000000000    0.7966299999999999    0.7842000000000000 C
   0.3120950000000000    0.9476800000000000    0.5268000000000000 C
   0.3123450000000000    0.7798600000000000    0.6098100000000000 C
   0.5440300000000000    0.5775600000000000    0.5286900000000000 C
   0.5126375000000000    0.5359699999999999    0.5671500000000000 C
   0.5243075000000000    0.4328100000000000    0.6011299999999999 C
   0.6039725000000000    0.6667500000000000    0.4490750000000000 O
   0.5536650000000000    0.7910400000000000    0.4162300000000000 O
   0.4924575000000000    0.3777900000000000    0.6222350000000000 O
   0.4221850000000000    0.7440700000000000    0.5420450000000000 O
   0.2702550000000000    0.0985600000000000    0.6670850000000000 O
   0.3205200000000000    0.1663000000000000    0.6056900000000001 O
   0.3104300000000000    0.7856300000000001    0.7962750000000001 O
   0.3831325000000000    0.7554200000000000    0.8113300000000000 O
   0.4524150000000000    0.9147900000000000    0.6285000000000001 O
   0.5649975000000000    0.4092600000000000    0.6064050000000000 O
