H12 O8
1.0
  30.4564602461179419    0.0000000000000000    2.4643792883072044
   0.8393796667693515   12.6254618327635608    2.0852173230732545
   0.0000000000000000    0.0000000000000000   25.8580000000000005
H O
12 8
direct
   0.5848338371600229    0.4657263921800460    0.5964703491215565 H
   0.4628432403571856    0.4110579339089473    0.6232961051245333 H
   0.5209108909156454    0.4587858167848130    0.6079846622095888 H
   0.5332279952645385    0.8312872331066157    0.4373549414001799 H
   0.6168368684301098    0.6281900693460849    0.4802757733154664 H
   0.5781938526106636    0.7175166971790445    0.4757213908251053 H
   0.2906310911840803    0.8047479871950800    0.7682511905792189 H
   0.4127425859173104    0.7534672816639927    0.7947234850791181 H
   0.3548824683688625    0.7826984600407081    0.7713442861446246 H
   0.2903309302853929    0.1097593637845492    0.6925674298241253 H
   0.3481027904431332    0.1969162661522527    0.5926742366841449 H
   0.3421581455591899    0.1783708460477528    0.6331553536796477 H
   0.5649975000000000    0.4092600000000000    0.6064050000000000 O
   0.4924575000000000    0.3777900000000000    0.6222350000000000 O
   0.5536650000000000    0.7910400000000000    0.4162300000000000 O
   0.6039725000000000    0.6667500000000000    0.4490750000000000 O
   0.3104300000000000    0.7856300000000001    0.7962750000000001 O
   0.3831325000000000    0.7554200000000000    0.8113300000000000 O
   0.2702550000000000    0.0985600000000000    0.6670850000000000 O
   0.3205200000000000    0.1663000000000000    0.6056900000000001 O
