H14 C18 N6
1.0
  31.6319459329918509    0.0000000000000000   -8.7223937507017091
  -0.0135941547687192   26.9259837074146411   -0.0263170476559208
   0.0000000000000000    0.0000000000000000   30.2600000000000016
H C N
14 18 6
direct
   0.2462566666666667    0.4711750000000000    0.2886700000000000 H
   0.3113433333333333    0.4335900000000000    0.3590350000000000 H
   0.4519766666666666    0.4147500000000000    0.4320850000000000 H
   0.3846700000000000    0.4242000000000000    0.3710450000000000 H
   0.3406933333333333    0.5805250000000000    0.3260450000000000 H
   0.3782500000000000    0.5779350000000000    0.4088350000000000 H
   0.4471433333333333    0.5688250000000000    0.4682100000000000 H
   0.3253600000000000    0.4198800000000000    0.6737350000000000 H
   0.6214333333333333    0.4223900000000000    0.5908850000000000 H
   0.5526599999999999    0.4314750000000000    0.5313150000000000 H
   0.4210633333333333    0.5285450000000000    0.7112499999999999 H
   0.3557133333333333    0.5661950000000000    0.6411800000000000 H
   0.5478900000000000    0.5856650000000000    0.5670800000000000 H
   0.6150833333333332    0.5762650000000000    0.6282799999999999 H
   0.2761566666666667    0.4878900000000000    0.3064750000000000 C
   0.3078500000000000    0.4687350000000000    0.3411500000000000 C
   0.4537966666666666    0.4911900000000000    0.4538650000000000 C
   0.4357866666666667    0.4504500000000000    0.4266100000000000 C
   0.3979133333333333    0.4555100000000000    0.3928800000000000 C
   0.3244266666666666    0.5454750000000000    0.3248500000000000 C
   0.3773966666666667    0.5014600000000000    0.3865450000000000 C
   0.3949700000000000    0.5425800000000000    0.4134800000000000 C
   0.4330900000000000    0.5375300000000000    0.4467300000000000 C
   0.3428466666666666    0.4542500000000000    0.6753600000000000 C
   0.6223000000000000    0.4989150000000000    0.6130300000000000 C
   0.6047499999999999    0.4577700000000000    0.5861200000000000 C
   0.5666966666666666    0.4628050000000000    0.5527550000000000 C
   0.3911200000000000    0.5118450000000000    0.6935650000000000 C
   0.3592966666666667    0.5310350000000000    0.6590500000000000 C
   0.5460333333333334    0.5091650000000000    0.5454850000000000 C
   0.5640400000000000    0.5499450000000000    0.5726800000000000 C
   0.6018500000000000    0.5449050000000000    0.6065100000000000 C
   0.4921333333333333    0.4814500000000000    0.4872300000000000 N
   0.2869766666666667    0.5354750000000000    0.2962500000000000 N
   0.3380966666666667    0.5058450000000000    0.3525900000000000 N
   0.3803733333333333    0.4642350000000000    0.7037949999999999 N
   0.6614899999999999    0.4945100000000000    0.6471650000000000 N
   0.5077199999999999    0.5188950000000000    0.5120800000000000 N
