Zn16 H94 C93 N62 O1
1.0
  15.5030000000000001    0.0000000000000000    0.0000000000000009
   0.0103900839017500   15.6659964018091742   -0.0021873862378289
   0.0000000000000000    0.0000000000000000   18.5590000000000011
Zn H C N O
16 94 93 62 1
direct
   0.7965100000000001    0.6375600000000000    0.0940400000000000 Zn
   0.9892000000000000    0.6632800000000000    0.8131000000000000 Zn
   0.2034800000000000    0.3624700000000000    0.9059300000000000 Zn
   0.0107800000000000    0.3367400000000000    0.1868700000000000 Zn
   0.2964300000000000    0.8625900000000000    0.9059600000000000 Zn
   0.4891400000000000    0.8368800000000000    0.1868700000000000 Zn
   0.7035500000000000    0.1374400000000000    0.0940100000000000 Zn
   0.5108400000000000    0.1631500000000000    0.8131000000000000 Zn
   0.9891400000000000    0.8368600000000000    0.3131200000000000 Zn
   0.7964300000000000    0.8625699999999999    0.5940200000000000 Zn
   0.2965600000000000    0.6375999999999999    0.4059300000000000 Zn
   0.4892200000000000    0.6632800000000000    0.6860000000000001 Zn
   0.7034300000000000    0.3624300000000000    0.5940400000000000 Zn
   0.5107600000000000    0.3367500000000000    0.3130700000000000 Zn
   0.2035600000000000    0.1374600000000000    0.4059500000000000 Zn
   0.0108400000000000    0.1631600000000000    0.6868500000000000 Zn
   0.6842600000000000    0.7854800000000000    0.1613700000000000 H
   0.4594900000000000    0.6426400000000000    0.1192500000000000 H
   0.6024800000000000    0.5501500000000000    0.0749000000000000 H
   0.9501300000000000    0.6822100000000000    0.9852400000000000 H
   0.7996400000000000    0.5801900000000000    0.8169100000000000 H
   0.7097800000000000    0.5654300000000000    0.9458000000000000 H
   0.0624500000000000    0.5150800000000000    0.9152000000000000 H
   0.1291300000000000    0.5793100000000000    0.7019800000000000 H
   0.2362900000000000    0.4485400000000000    0.7499900000000000 H
   0.9252200000000000    0.8237200000000000    0.7229200000000000 H
   0.8196900000000000    0.6537200000000000    0.5706700000000000 H
   0.9090600000000000    0.5612900000000000    0.6742000000000000 H
   0.3157300000000000    0.2145500000000000    0.8385899999999999 H
   0.3975200000000000    0.4498700000000000    0.9250000000000000 H
   0.5405000000000000    0.3573800000000000    0.8807100000000000 H
   0.0498600000000000    0.3178100000000000    0.0147200000000000 H
   0.2003500000000000    0.4198500000000000    0.1830500000000000 H
   0.2902000000000000    0.4346100000000000    0.0541600000000000 H
   0.9375400000000000    0.4849400000000000    0.0846800000000000 H
   0.8708600000000000    0.4207100000000000    0.2979800000000000 H
   0.7637000000000000    0.5514900000000000    0.2499700000000000 H
   0.0747700000000000    0.1763000000000000    0.2770400000000000 H
   0.1803000000000000    0.3463000000000000    0.4290000000000000 H
   0.0909300000000000    0.4387300000000000    0.3257600000000000 H
   0.1843400000000000    0.7147500000000000    0.8384800000000000 H
   0.1022200000000000    0.9499900000000000    0.9250500000000000 H
   0.9593699999999999    0.8575300000000000    0.8807300000000000 H
   0.4501100000000000    0.8182400000000000    0.0147400000000000 H
   0.2992500000000000    0.9197400000000000    0.1831500000000000 H
   0.2093600000000000    0.9344900000000000    0.0542700000000000 H
   0.5626700000000000    0.9848400000000000    0.0844700000000000 H
   0.7359700000000000    0.0515100000000000    0.2500000000000000 H
   0.6286400000000000    0.9210199999999999    0.2980500000000000 H
   0.4254900000000000    0.6764700000000000    0.2771000000000000 H
   0.3195600000000000    0.8464699999999999    0.4292000000000000 H
   0.4087800000000000    0.9389100000000000    0.3257500000000000 H
   0.8156500000000000    0.2852700000000000    0.1614800000000000 H
   0.8977700000000000    0.0500300000000000    0.0749100000000000 H
   0.0406200000000000    0.1424900000000000    0.1192300000000000 H
   0.5498800000000000    0.1817900000000000    0.9852200000000000 H
   0.7906300000000001    0.0655400000000000    0.9450000000000000 H
   0.7007400000000000    0.0802900000000000    0.8168000000000000 H
   0.4373200000000000    0.0151800000000000    0.9154900000000000 H
   0.3713500000000000    0.0790000000000000    0.7019100000000000 H
   0.2640200000000000    0.9485100000000000    0.7499000000000000 H
   0.5745000000000000    0.3235500000000000    0.7228599999999999 H
   0.5912100000000000    0.0611100000000000    0.6742100000000000 H
   0.6804300000000000    0.1535500000000000    0.5706800000000000 H
   0.8811985744349436    0.2656504732754728    0.6455172587178160 H
   0.0626300000000000    0.9848900000000000    0.4155000000000000 H
   0.1286700000000000    0.9209300000000000    0.2019600000000000 H
   0.2360200000000000    0.0514200000000000    0.2499600000000000 H
   0.9253200000000000    0.6764300000000000    0.2229400000000000 H
   0.9088100000000000    0.9388500000000000    0.1742600000000000 H
   0.8194800000000000    0.8464300000000000    0.0707500000000000 H
   0.6843800000000000    0.7147700000000000    0.6615400000000000 H
   0.6022100000000000    0.9499100000000000    0.5748900000000000 H
   0.4593800000000000    0.8574600000000000    0.6192400000000000 H
   0.9500700000000000    0.8180800000000000    0.4852300000000000 H
   0.7993300000000000    0.9198200000000000    0.3168700000000000 H
   0.7094300000000000    0.9345599999999999    0.4457500000000000 H
   0.4252800000000000    0.8237100000000001    0.7771000000000000 H
   0.4090700000000000    0.5612900000000000    0.8257800000000000 H
   0.3196700000000000    0.6537400000000000    0.9293000000000000 H
   0.5624600000000000    0.5150600000000000    0.5847000000000000 H
   0.7361600000000000    0.4484000000000000    0.7500000000000000 H
   0.6290600000000000    0.5792300000000000    0.7980600000000000 H
   0.1843000000000000    0.7855400000000000    0.3380000000000000 H
   0.1026100000000000    0.5502100000000000    0.4249900000000000 H
   0.9595900000000001    0.6426200000000000    0.3806000000000000 H
   0.4502600000000000    0.6820900000000000    0.5147200000000000 H
   0.2996000000000000    0.5803800000000000    0.6830500000000000 H
   0.2097500000000000    0.5656300000000000    0.5541500000000000 H
   0.5497400000000000    0.3179300000000000    0.4852400000000000 H
   0.7003900000000000    0.4196600000000000    0.3169100000000000 H
   0.7902300000000000    0.4344100000000000    0.4458200000000000 H
   0.4375300000000000    0.4849600000000000    0.4152600000000000 H
   0.3709300000000000    0.4207900000000000    0.2019100000000000 H
   0.2638300000000000    0.5516300000000000    0.2499200000000000 H
   0.5747200000000000    0.1763100000000000    0.2228600000000000 H
   0.5909200000000000    0.4387300000000000    0.1741900000000000 H
   0.6803200000000000    0.3462900000000000    0.0706600000000000 H
   0.3156100000000000    0.2852600000000000    0.3384200000000000 H
   0.3977800000000000    0.0501100000000000    0.4250700000000000 H
   0.5406100000000000    0.1425600000000000    0.3807200000000000 H
   0.0499200000000000    0.1819400000000000    0.5147300000000000 H
   0.2006700000000000    0.0802000000000000    0.6830000000000001 H
   0.2905700000000000    0.0654600000000000    0.5542000000000000 H
   0.9373700000000000    0.0151400000000000    0.5844600000000000 H
   0.8713200000000000    0.0790900000000000    0.7980000000000000 H
   0.7639700000000000    0.9486100000000000    0.7500000000000000 H
   0.0746800000000000    0.3236000000000000    0.7770200000000000 H
   0.1805100000000000    0.1535900000000000    0.9292100000000000 H
   0.0911900000000000    0.0611700000000000    0.8257100000000001 H
   0.6425300000000000    0.7338500000000000    0.1439800000000000 C
   0.5274900000000000    0.6586800000000000    0.1216000000000000 C
   0.5985400000000000    0.6128200000000000    0.0996000000000000 C
   0.8974200000000000    0.6511700000000000    0.9570600000000000 C
   0.8180300000000000    0.5980200000000000    0.8712200000000000 C
   0.7735300000000001    0.5909300000000000    0.9350700000000000 C
   0.0953600000000000    0.5148400000000000    0.8636800000000000 C
   0.1310900000000000    0.5463800000000000    0.7533600000000000 C
   0.1842500000000000    0.4818400000000000    0.7771800000000000 C
   0.9088400000000000    0.7647500000000000    0.6954800000000000 C
   0.8550900000000000    0.6754800000000000    0.6176199999999999 C
   0.8994200000000000    0.6296000000000000    0.6689300000000000 C
   0.3574600000000000    0.2661700000000000    0.8559800000000000 C
   0.4014400000000000    0.3872000000000000    0.9003600000000000 C
   0.4725000000000000    0.3413400000000000    0.8783300000000001 C
   0.1025700000000000    0.3488600000000000    0.0429000000000000 C
   0.1819600000000000    0.4020100000000000    0.1287400000000000 C
   0.2264600000000000    0.4091100000000000    0.0648900000000000 C
   0.9046300000000000    0.4851800000000000    0.1362800000000000 C
   0.8689000000000000    0.4536400000000000    0.2466000000000000 C
   0.8157400000000000    0.5181800000000000    0.2227800000000000 C
   0.0911500000000000    0.2352700000000000    0.3044800000000000 C
   0.1449100000000000    0.3245500000000000    0.3823400000000000 C
   0.1005700000000000    0.3704300000000000    0.3310300000000000 C
   0.1425400000000000    0.7663500000000000    0.8559099999999999 C
   0.0983900000000000    0.8873500000000000    0.9003700000000000 C
   0.0273900000000000    0.8414900000000000    0.8783300000000001 C
   0.3972900000000000    0.8491300000000001    0.0429500000000000 C
   0.3177200000000000    0.9020100000000000    0.1288200000000000 C
   0.2731900000000000    0.9091000000000000    0.0649800000000000 C
   0.5954000000000000    0.9851600000000000    0.1361600000000000 C
   0.6840300000000000    0.0182100000000000    0.2228100000000000 C
   0.6307700000000001    0.9538300000000000    0.2466200000000000 C
   0.4089800000000000    0.7354400000000000    0.3045200000000000 C
   0.3550100000000000    0.8247200000000000    0.3823400000000000 C
   0.3992800000000000    0.8706000000000000    0.3310400000000000 C
   0.8574500000000000    0.2336700000000000    0.1440500000000000 C
   0.9016000000000000    0.1126800000000000    0.0990000000000000 C
   0.9726000000000000    0.1585300000000000    0.1216000000000000 C
   0.6027000000000000    0.1508900000000000    0.9570000000000000 C
   0.7268000000000000    0.0909200000000000    0.9349900000000000 C
   0.6822700000000000    0.0980200000000000    0.8711400000000000 C
   0.4045900000000000    0.0148600000000000    0.8638000000000000 C
   0.3692200000000000    0.0461900000000000    0.7533500000000000 C
   0.3159600000000000    0.9818100000000000    0.7771600000000000 C
   0.5910200000000000    0.2645800000000000    0.6954399999999999 C
   0.6007100000000000    0.1294200000000000    0.6689300000000000 C
   0.6449800000000000    0.1753100000000000    0.6176199999999999 C
   0.0953800000000000    0.9851700000000000    0.3638000000000000 C
   0.1307900000000000    0.9537700000000000    0.2533800000000000 C
   0.1840500000000000    0.0181500000000000    0.2772000000000000 C
   0.9088500000000000    0.7353900000000000    0.1955100000000000 C
   0.8992500000000000    0.8705500000000000    0.1689800000000000 C
   0.8549400000000000    0.8246700000000000    0.1176900000000000 C
   0.6425700000000000    0.7663400000000000    0.6441000000000000 C
   0.5983900000000000    0.8872900000000000    0.5996000000000000 C
   0.5274000000000000    0.8414400000000000    0.6216500000000000 C
   0.8972800000000000    0.8490400000000000    0.4570400000000000 C
   0.8177700000000000    0.9020400000000000    0.3711800000000000 C
   0.7732400000000000    0.9091300000000000    0.4350300000000000 C
   0.4088800000000000    0.7647500000000000    0.8045000000000000 C
   0.3994300000000000    0.6295900000000000    0.8310500000000000 C
   0.3550900000000000    0.6754800000000000    0.8823600000000000 C
   0.5953300000000000    0.5148000000000000    0.6363200000000000 C
   0.6841699999999999    0.4817400000000000    0.7228400000000000 C
   0.6310200000000000    0.5463000000000000    0.7466600000000000 C
   0.1426000000000000    0.7339100000000000    0.3559800000000000 C
   0.0986500000000000    0.6128600000000000    0.4003500000000000 C
   0.0275800000000000    0.6586900000000000    0.3783000000000000 C
   0.3975000000000000    0.6511300000000000    0.5429000000000000 C
   0.3180200000000000    0.5981500000000000    0.6287400000000000 C
   0.2735300000000000    0.5910500000000000    0.5648800000000000 C
   0.6024900000000000    0.3488900000000000    0.4570600000000000 C
   0.6819700000000000    0.4018800000000000    0.3712000000000000 C
   0.7264600000000000    0.4089800000000000    0.4350800000000000 C
   0.4046600000000000    0.4852200000000000    0.3636400000000000 C
   0.3689700000000000    0.4537200000000000    0.2533000000000000 C
   0.3158200000000000    0.5182800000000000    0.2771200000000000 C
   0.5911100000000000    0.2352700000000000    0.1954400000000000 C
   0.6005600000000000    0.3704300000000000    0.1689100000000000 C
   0.6449000000000000    0.3245400000000000    0.1176000000000000 C
   0.3574200000000000    0.2336800000000000    0.3558000000000000 C
   0.4016000000000000    0.1127300000000000    0.4003700000000000 C
   0.4725900000000000    0.1585800000000000    0.3783100000000000 C
   0.1027100000000000    0.1509800000000000    0.5429300000000000 C
   0.1822300000000000    0.0979800000000000    0.6287800000000000 C
   0.2267600000000000    0.0909000000000000    0.5649000000000000 C
   0.9046100000000000    0.0148500000000000    0.6361400000000000 C
   0.8692000000000000    0.0462500000000000    0.7465800000000000 C
   0.8159400000000000    0.9818700000000000    0.7227600000000000 C
   0.0911400000000000    0.2646300000000000    0.8044500000000000 C
   0.1450500000000000    0.1753500000000000    0.8822800000000000 C
   0.1007400000000000    0.1294800000000000    0.8309800000000001 C
   0.5558300000000000    0.7356000000000000    0.1497800000000000 N
   0.6715600000000000    0.6608500000000000    0.1139000000000000 N
   0.8966700000000000    0.6362500000000000    0.8854000000000000 N
   0.8241700000000000    0.6247400000000000    0.9895200000000000 N
   0.1613500000000000    0.4621200000000000    0.8473900000000000 N
   0.0746600000000000    0.5670800000000000    0.8085200000000000 N
   0.8612200000000000    0.7613799999999999    0.6347400000000000 N
   0.9336400000000000    0.6867100000000000    0.7182300000000000 N
   0.4441600000000000    0.2644300000000000    0.8501900000000000 N
   0.3284200000000000    0.3391700000000000    0.8860000000000000 N
   0.1033200000000000    0.3637700000000000    0.1144900000000000 N
   0.1758200000000000    0.3752900000000000    0.0104500000000000 N
   0.8386400000000001    0.5379000000000000    0.1525800000000000 N
   0.9253300000000000    0.4329500000000000    0.1914400000000000 N
   0.1387700000000000    0.2386400000000000    0.3652200000000000 N
   0.0663500000000000    0.3133100000000000    0.2817300000000000 N
   0.0558300000000000    0.7645999999999999    0.8501000000000000 N
   0.1714900000000000    0.8393300000000000    0.8860300000000000 N
   0.3964900000000000    0.8639500000000000    0.1145500000000000 N
   0.3239600000000000    0.8754600000000000    0.0105000000000000 N
   0.6613599999999999    0.0378000000000000    0.1525200000000000 N
   0.5745300000000000    0.9330800000000000    0.1913600000000000 N
   0.3613100000000000    0.7388100000000000    0.3652500000000000 N
   0.4336400000000000    0.8134800000000000    0.2817700000000000 N
   0.9441600000000000    0.2354200000000000    0.1498300000000000 N
   0.8285100000000000    0.1606900000000000    0.1139300000000000 N
   0.6035000000000000    0.1360700000000000    0.8854200000000000 N
   0.6760300000000000    0.1245600000000000    0.9894600000000000 N
   0.3386300000000000    0.9622200000000000    0.8474400000000000 N
   0.4254600000000000    0.0669400000000000    0.8086000000000000 N
   0.6386800000000000    0.2612100000000000    0.6347100000000000 N
   0.5663500000000000    0.1865400000000000    0.7181999999999999 N
   0.1613500000000000    0.0377900000000000    0.3474800000000000 N
   0.0745100000000000    0.9330600000000000    0.3086000000000000 N
   0.8611799999999999    0.7387700000000000    0.1347900000000000 N
   0.9335800000000000    0.8134300000000000    0.2182500000000000 N
   0.5558700000000000    0.7645800000000000    0.6498699999999999 N
   0.6715000000000000    0.8393100000000000    0.6139000000000000 N
   0.8965000000000000    0.8639100000000000    0.3854500000000000 N
   0.8239600000000000    0.8754000000000000    0.4894900000000000 N
   0.4336700000000000    0.6867100000000000    0.7817800000000000 N
   0.3612400000000000    0.7613799999999999    0.8652600000000000 N
   0.6613000000000000    0.4620500000000000    0.6526200000000000 N
   0.5746400000000000    0.5670400000000000    0.6914900000000000 N
   0.0558900000000000    0.7356100000000000    0.3501700000000000 N
   0.1716500000000000    0.6609300000000000    0.3860600000000000 N
   0.3967100000000000    0.6362700000000000    0.6144900000000000 N
   0.3242200000000000    0.6247600000000000    0.5104300000000001 N
   0.6032800000000000    0.3637500000000000    0.3854700000000000 N
   0.6757700000000000    0.3752600000000000    0.4895300000000000 N
   0.3386900000000000    0.5379699999999999    0.3473400000000000 N
   0.4253500000000000    0.4329800000000000    0.3084800000000000 N
   0.6387500000000000    0.2386400000000000    0.1347000000000000 N
   0.5663200000000000    0.3133200000000000    0.2181900000000000 N
   0.4441300000000000    0.2354400000000000    0.3500900000000000 N
   0.3284900000000000    0.1607100000000000    0.3860100000000000 N
   0.1034900000000000    0.1361100000000000    0.6145100000000000 N
   0.1760300000000000    0.1246200000000000    0.5104800000000000 N
   0.8386400000000001    0.9622400000000000    0.6524900000000000 N
   0.9254800000000000    0.0669600000000000    0.6913400000000000 N
   0.1388100000000000    0.2612600000000000    0.8651700000000000 N
   0.0664100000000000    0.1865900000000000    0.7817100000000000 N
   0.9441000000000001    0.2644100000000000    0.6497900000000000 O
