H3 C3 N2
1.0
  15.5030000000000001    0.0000000000000000    0.0000000000000009
   0.0103900839017500   15.6659964018091742   -0.0021873862378289
   0.0000000000000000    0.0000000000000000   18.5590000000000011
H C N
3 3 2
direct
   0.8156900000000000    0.2144800000000000    0.6613700000000000 H
   0.8973800000000000    0.4498100000000000    0.5749000000000000 H
   0.0404100000000000    0.3574100000000000    0.6192900000000000 H
   0.8573900000000000    0.2661200000000000    0.6439000000000000 C
   0.9013400000000000    0.3871600000000000    0.5996200000000000 C
   0.9724100000000000    0.3413300000000000    0.6216600000000000 C
   0.9441000000000001    0.2644100000000000    0.6497900000000000 N
   0.8283400000000000    0.3390900000000000    0.6139000000000000 N
