H12 O8
1.0
  31.2279999952437031    0.0000000000000000   -0.0005450314187887
  -0.0036076570979535   34.4559845081152218    0.0324740101340436
   0.0000000000000000    0.0000000000000000   36.8100000000000023
H O
12 8
direct
   0.6102574455120398    0.6476578527364729    0.3263445792414848 H
   0.5758577232099146    0.5431521075401158    0.2963955353409662 H
   0.5981178744221707    0.5918951721502679    0.3113120322545975 H
   0.7258617597134535    0.4812226893603860    0.3577894309422318 H
   0.6713577132004134    0.4782461325790954    0.2627272199734473 H
   0.6956738439473695    0.4844033719165419    0.3066444525928402 H
   0.7543615298715122    0.6462998947564133    0.3670369140305115 H
   0.7036428524597502    0.5555888615177200    0.4150265626836240 H
   0.7250512697111730    0.5978006295680015    0.3879890018108605 H
   0.7382621223265102    0.6602442876950941    0.2781345035316288 H
   0.7362015121050506    0.5657449682691722    0.2179842734276593 H
   0.7358470161744242    0.6066964132360033    0.2484777546501961 H
   0.5871850000000000    0.6306250000000000    0.3188000000000000 O
   0.5683100000000000    0.5698900000000000    0.3015650000000000 O
   0.7170600000000000    0.4650750000000000    0.3375500000000000 O
   0.6854000000000000    0.4655550000000000    0.2830200000000000 O
   0.7520700000000000    0.6307800000000000    0.3889500000000000 O
   0.7221550000000000    0.5781849999999999    0.4156850000000000 O
   0.7424999999999999    0.6482900000000000    0.2545600000000000 O
   0.7406050000000000    0.5932750000000000    0.2220100000000000 O
