Zn128 H768 C882 O512
1.0
  31.2279999952437031    0.0000000000000000   -0.0005450314187887
  -0.0036076570979535   34.4559845081152218    0.0324740101340436
   0.0000000000000000    0.0000000000000000   36.8100000000000023
Zn H C O
128 768 882 512
direct
   0.0094200000000000    0.1648900000000000    0.5435750000000000 Zn
   0.2594250000000000    0.0851050000000000    0.4564100000000000 Zn
   0.2594200000000000    0.1648950000000000    0.7063650000000000 Zn
   0.0094250000000000    0.0851000000000000    0.2936150000000000 Zn
   0.5094200000000000    0.1648900000000000    0.5435750000000000 Zn
   0.7594250000000000    0.0851050000000000    0.4564100000000000 Zn
   0.7594200000000000    0.1648950000000000    0.7063650000000000 Zn
   0.5094250000000000    0.0851000000000000    0.2936150000000000 Zn
   0.0094200000000000    0.1648900000000000    0.0435750000000000 Zn
   0.2594250000000000    0.0851050000000000    0.9564100000000000 Zn
   0.2594200000000000    0.1648950000000000    0.2063650000000000 Zn
   0.0094250000000000    0.0851000000000000    0.7936150000000000 Zn
   0.5094200000000000    0.1648900000000000    0.0435750000000000 Zn
   0.7594250000000000    0.0851050000000000    0.9564100000000000 Zn
   0.7594200000000000    0.1648950000000000    0.2063650000000000 Zn
   0.5094250000000000    0.0851000000000000    0.7936150000000000 Zn
   0.9668050000000000    0.9117400000000000    0.9294700000000000 Zn
   0.4668050000000000    0.9117400000000000    0.4294700000000000 Zn
   0.9668050000000000    0.9117400000000000    0.4294700000000000 Zn
   0.4668050000000000    0.9117400000000000    0.9294700000000000 Zn
   0.2168050000000000    0.3382500000000000    0.5705200000000000 Zn
   0.7168050000000000    0.3382500000000000    0.5705200000000000 Zn
   0.2168050000000000    0.3382500000000000    0.0705200000000000 Zn
   0.7168050000000000    0.3382500000000000    0.0705200000000000 Zn
   0.9668150000000000    0.3382300000000000    0.6794950000000000 Zn
   0.4668150000000000    0.3382300000000000    0.1794950000000000 Zn
   0.9668150000000000    0.3382300000000000    0.1794950000000000 Zn
   0.4668150000000000    0.3382300000000000    0.6794950000000000 Zn
   0.2168200000000000    0.9117550000000000    0.8205000000000000 Zn
   0.7168200000000000    0.9117550000000000    0.8205000000000000 Zn
   0.2168200000000000    0.9117550000000000    0.3205000000000000 Zn
   0.7168200000000000    0.9117550000000000    0.3205000000000000 Zn
   0.2405650000000000    0.9148849999999999    0.5435800000000000 Zn
   0.7405650000000000    0.9148849999999999    0.5435800000000000 Zn
   0.4905650000000000    0.8351000000000000    0.4564100000000000 Zn
   0.4905650000000000    0.9148900000000000    0.7063699999999999 Zn
   0.7405650000000000    0.8351000000000000    0.2936200000000000 Zn
   0.9905649999999999    0.8351000000000000    0.4564100000000000 Zn
   0.9905649999999999    0.9148900000000000    0.7063699999999999 Zn
   0.2405650000000000    0.8351000000000000    0.2936200000000000 Zn
   0.2405650000000000    0.9148849999999999    0.0435800000000000 Zn
   0.7405650000000000    0.9148849999999999    0.0435800000000000 Zn
   0.4905650000000000    0.8351000000000000    0.9564100000000000 Zn
   0.4905650000000000    0.9148900000000000    0.2063700000000000 Zn
   0.7405650000000000    0.8351000000000000    0.7936200000000000 Zn
   0.9905649999999999    0.8351000000000000    0.9564100000000000 Zn
   0.9905649999999999    0.9148900000000000    0.2063700000000000 Zn
   0.2405650000000000    0.8351000000000000    0.7936200000000000 Zn
   0.7831850000000000    0.6617450000000000    0.9294650000000000 Zn
   0.2831850000000000    0.6617450000000000    0.4294650000000000 Zn
   0.7831850000000000    0.6617450000000000    0.4294650000000000 Zn
   0.2831850000000000    0.6617450000000000    0.9294650000000000 Zn
   0.0331800000000000    0.0882550000000000    0.5705000000000000 Zn
   0.5331800000000000    0.0882550000000000    0.5705000000000000 Zn
   0.0331800000000000    0.0882550000000000    0.0705000000000000 Zn
   0.5331800000000000    0.0882550000000000    0.0705000000000000 Zn
   0.0331750000000000    0.6617600000000000    0.3204900000000000 Zn
   0.5331750000000000    0.6617600000000000    0.3204900000000000 Zn
   0.0331750000000000    0.6617600000000000    0.8204899999999999 Zn
   0.5331750000000000    0.6617600000000000    0.8204899999999999 Zn
   0.2831650000000000    0.0882400000000000    0.6794850000000000 Zn
   0.7831650000000000    0.0882400000000000    0.6794850000000000 Zn
   0.7831650000000000    0.0882400000000000    0.1794850000000000 Zn
   0.2831650000000000    0.0882400000000000    0.1794850000000000 Zn
   0.7168200000000000    0.4117550000000000    0.3205000000000000 Zn
   0.0094200000000000    0.6648900000000000    0.0435750000000000 Zn
   0.2594250000000000    0.5851050000000000    0.9564100000000000 Zn
   0.2594200000000000    0.6648950000000000    0.2063650000000000 Zn
   0.0094250000000000    0.5851000000000000    0.7936150000000000 Zn
   0.5094200000000000    0.6648900000000000    0.0435750000000000 Zn
   0.7594250000000000    0.5851050000000000    0.9564100000000000 Zn
   0.7594200000000000    0.6648950000000000    0.2063650000000000 Zn
   0.5094250000000000    0.5851000000000000    0.7936150000000000 Zn
   0.5094250000000000    0.5851000000000000    0.2936150000000000 Zn
   0.0094200000000000    0.6648900000000000    0.5435750000000000 Zn
   0.2594250000000000    0.5851050000000000    0.4564100000000000 Zn
   0.2594200000000000    0.6648950000000000    0.7063650000000000 Zn
   0.0094250000000000    0.5851000000000000    0.2936150000000000 Zn
   0.5094200000000000    0.6648900000000000    0.5435750000000000 Zn
   0.7594250000000000    0.5851050000000000    0.4564100000000000 Zn
   0.7594200000000000    0.6648950000000000    0.7063650000000000 Zn
   0.4668050000000000    0.4117400000000000    0.9294700000000000 Zn
   0.4668050000000000    0.4117400000000000    0.4294700000000000 Zn
   0.9668050000000000    0.4117400000000000    0.4294700000000000 Zn
   0.9668050000000000    0.4117400000000000    0.9294700000000000 Zn
   0.2168050000000000    0.8382499999999999    0.5705200000000000 Zn
   0.7168050000000000    0.8382499999999999    0.5705200000000000 Zn
   0.2168050000000000    0.8382499999999999    0.0705200000000000 Zn
   0.7168050000000000    0.8382499999999999    0.0705200000000000 Zn
   0.4668150000000000    0.8382300000000000    0.6794950000000000 Zn
   0.9668150000000000    0.8382300000000000    0.6794950000000000 Zn
   0.4668150000000000    0.8382300000000000    0.1794950000000000 Zn
   0.9668150000000000    0.8382300000000000    0.1794950000000000 Zn
   0.2168200000000000    0.4117550000000000    0.8205000000000000 Zn
   0.7168200000000000    0.4117550000000000    0.8205000000000000 Zn
   0.2168200000000000    0.4117550000000000    0.3205000000000000 Zn
   0.2405650000000000    0.4148850000000000    0.5435800000000000 Zn
   0.7405650000000000    0.4148850000000000    0.5435800000000000 Zn
   0.4905650000000000    0.3351000000000000    0.4564100000000000 Zn
   0.4905650000000000    0.4148900000000000    0.7063699999999999 Zn
   0.7405650000000000    0.3351000000000000    0.2936200000000000 Zn
   0.9905649999999999    0.3351000000000000    0.4564100000000000 Zn
   0.9905649999999999    0.4148900000000000    0.7063699999999999 Zn
   0.2405650000000000    0.3351000000000000    0.2936200000000000 Zn
   0.2405650000000000    0.4148850000000000    0.0435800000000000 Zn
   0.7405650000000000    0.4148850000000000    0.0435800000000000 Zn
   0.4905650000000000    0.3351000000000000    0.9564100000000000 Zn
   0.4905650000000000    0.4148900000000000    0.2063700000000000 Zn
   0.7405650000000000    0.3351000000000000    0.7936200000000000 Zn
   0.9905649999999999    0.3351000000000000    0.9564100000000000 Zn
   0.9905649999999999    0.4148900000000000    0.2063700000000000 Zn
   0.2405650000000000    0.3351000000000000    0.7936200000000000 Zn
   0.2831850000000000    0.1617450000000000    0.9294650000000000 Zn
   0.2831850000000000    0.1617450000000000    0.4294650000000000 Zn
   0.7831850000000000    0.1617450000000000    0.4294650000000000 Zn
   0.7831850000000000    0.1617450000000000    0.9294650000000000 Zn
   0.0331800000000000    0.5882550000000000    0.0705000000000000 Zn
   0.5331800000000000    0.5882550000000000    0.0705000000000000 Zn
   0.0331800000000000    0.5882550000000000    0.5705000000000000 Zn
   0.5331800000000000    0.5882550000000000    0.5705000000000000 Zn
   0.0331750000000000    0.1617600000000000    0.3204900000000000 Zn
   0.5331750000000000    0.1617600000000000    0.3204900000000000 Zn
   0.0331750000000000    0.1617600000000000    0.8204899999999999 Zn
   0.5331750000000000    0.1617600000000000    0.8204899999999999 Zn
   0.2831650000000000    0.5882400000000000    0.6794850000000000 Zn
   0.7831650000000000    0.5882400000000000    0.6794850000000000 Zn
   0.2831650000000000    0.5882400000000000    0.1794850000000000 Zn
   0.7831650000000000    0.5882400000000000    0.1794850000000000 Zn
   0.9119200000000001    0.1161700000000000    0.7156950000000000 H
   0.9014850000000000    0.1578050000000000    0.7430400000000000 H
   0.9082350000000000    0.1209900000000000    0.6469900000000000 H
   0.8959150000000000    0.1660550000000000    0.6257550000000001 H
   0.8833750000000000    0.2225100000000000    0.7129350000000000 H
   0.8805600000000000    0.2257450000000000    0.6650150000000000 H
   0.0000000000000000    0.2112200000000000    0.7194950000000000 H
   0.9544300000000000    0.2137700000000000    0.7445700000000000 H
   0.9992150000000000    0.2160300000000000    0.6495550000000000 H
   0.9494400000000001    0.2218100000000000    0.6274999999999999 H
   0.9803700000000000    0.1122600000000000    0.6786950000000000 H
   0.0177500000000000    0.1507850000000000    0.6795750000000000 H
   0.1619650000000000    0.1338300000000000    0.2842700000000000 H
   0.1515200000000000    0.0922000000000000    0.2569250000000000 H
   0.1582700000000000    0.1290300000000000    0.3529550000000000 H
   0.1459000000000000    0.0839850000000000    0.3742100000000000 H
   0.1333600000000000    0.0275100000000000    0.2870000000000000 H
   0.1305100000000000    0.0242650000000000    0.3349300000000000 H
   0.2044300000000000    0.0362150000000000    0.2554150000000000 H
   0.2525500000000000    0.0387500000000000    0.2805050000000000 H
   0.1993500000000000    0.0281900000000000    0.3723350000000000 H
   0.2491550000000000    0.0339300000000000    0.3504650000000000 H
   0.2304450000000000    0.1377100000000000    0.3212900000000000 H
   0.2677650000000000    0.0991500000000000    0.3204150000000000 H
   0.1582350000000000    0.1210150000000000    0.6029500000000000 H
   0.1459100000000000    0.1660750000000000    0.6241250000000000 H
   0.1619100000000000    0.1162150000000000    0.5342600000000000 H
   0.1514800000000000    0.1578600000000000    0.5068500000000000 H
   0.1334000000000000    0.2225300000000000    0.5368200000000000 H
   0.1305200000000000    0.2257950000000000    0.5847249999999999 H
   0.2043800000000000    0.2138150000000000    0.5052300000000000 H
   0.2525400000000000    0.2112900000000000    0.5302750000000001 H
   0.1994700000000000    0.2218250000000000    0.6221500000000000 H
   0.2492200000000000    0.2160300000000000    0.6002250000000000 H
   0.2303750000000000    0.1122950000000000    0.5712650000000000 H
   0.2677400000000000    0.1508250000000000    0.5703300000000000 H
   0.9119250000000000    0.1337900000000000    0.4656500000000000 H
   0.9014599999999999    0.0921600000000000    0.4930900000000000 H
   0.9082900000000000    0.1289850000000000    0.3969900000000000 H
   0.8959600000000000    0.0839250000000000    0.3758150000000000 H
   0.8833500000000001    0.0274500000000000    0.4630900000000000 H
   0.8805350000000001    0.0242200000000000    0.4151800000000000 H
   0.0000000000000000    0.0386900000000000    0.4697450000000000 H
   0.9543050000000000    0.0361900000000000    0.4947450000000000 H
   0.9495250000000000    0.0281550000000000    0.3778250000000000 H
   0.9992500000000000    0.0339650000000000    0.3997900000000000 H
   0.9804300000000000    0.1376900000000000    0.4287100000000000 H
   0.0177700000000000    0.0991450000000000    0.4296650000000000 H
   0.4119200000000000    0.1161700000000000    0.7156950000000000 H
   0.4014850000000000    0.1578050000000000    0.7430400000000000 H
   0.4082350000000000    0.1209900000000000    0.6469900000000000 H
   0.3959150000000000    0.1660550000000000    0.6257550000000001 H
   0.3833750000000000    0.2225100000000000    0.7129350000000000 H
   0.3805600000000000    0.2257450000000000    0.6650150000000000 H
   0.5000000000000000    0.2112200000000000    0.7194950000000000 H
   0.4544300000000000    0.2137700000000000    0.7445700000000000 H
   0.4992150000000000    0.2160300000000000    0.6495550000000000 H
   0.4494400000000000    0.2218100000000000    0.6274999999999999 H
   0.4803700000000000    0.1122600000000000    0.6786950000000000 H
   0.5177500000000000    0.1507850000000000    0.6795750000000000 H
   0.6619650000000000    0.1338300000000000    0.2842700000000000 H
   0.6515200000000000    0.0922000000000000    0.2569250000000000 H
   0.6582700000000000    0.1290300000000000    0.3529550000000000 H
   0.6459000000000000    0.0839850000000000    0.3742100000000000 H
   0.6333600000000000    0.0275100000000000    0.2870000000000000 H
   0.6305100000000000    0.0242650000000000    0.3349300000000000 H
   0.7044300000000000    0.0362150000000000    0.2554150000000000 H
   0.7525500000000001    0.0387500000000000    0.2805050000000000 H
   0.6993500000000000    0.0281900000000000    0.3723350000000000 H
   0.7491550000000000    0.0339300000000000    0.3504650000000000 H
   0.7304450000000000    0.1377100000000000    0.3212900000000000 H
   0.7677650000000000    0.0991500000000000    0.3204150000000000 H
   0.6582350000000000    0.1210150000000000    0.6029500000000000 H
   0.6459100000000000    0.1660750000000000    0.6241250000000000 H
   0.6619100000000000    0.1162150000000000    0.5342600000000000 H
   0.6514800000000001    0.1578600000000000    0.5068500000000000 H
   0.6334000000000000    0.2225300000000000    0.5368200000000000 H
   0.6305200000000000    0.2257950000000000    0.5847249999999999 H
   0.7043800000000000    0.2138150000000000    0.5052300000000000 H
   0.7525400000000000    0.2112900000000000    0.5302750000000001 H
   0.6994700000000000    0.2218250000000000    0.6221500000000000 H
   0.7492200000000000    0.2160300000000000    0.6002250000000000 H
   0.7303750000000000    0.1122950000000000    0.5712650000000000 H
   0.7677400000000000    0.1508250000000000    0.5703300000000000 H
   0.4119250000000000    0.1337900000000000    0.4656500000000000 H
   0.4014600000000000    0.0921600000000000    0.4930900000000000 H
   0.4082900000000000    0.1289850000000000    0.3969900000000000 H
   0.3959600000000000    0.0839250000000000    0.3758150000000000 H
   0.3833500000000000    0.0274500000000000    0.4630900000000000 H
   0.3805350000000000    0.0242200000000000    0.4151800000000000 H
   0.5000000000000000    0.0386900000000000    0.4697450000000000 H
   0.4543050000000000    0.0361900000000000    0.4947450000000000 H
   0.4495250000000000    0.0281550000000000    0.3778250000000000 H
   0.4992500000000000    0.0339650000000000    0.3997900000000000 H
   0.4804300000000000    0.1376900000000000    0.4287100000000000 H
   0.5177700000000000    0.0991450000000000    0.4296650000000000 H
   0.9119200000000001    0.1161700000000000    0.2156950000000000 H
   0.9014850000000000    0.1578050000000000    0.2430400000000000 H
   0.9082350000000000    0.1209900000000000    0.1469900000000000 H
   0.8959150000000000    0.1660550000000000    0.1257550000000000 H
   0.8833750000000000    0.2225100000000000    0.2129350000000000 H
   0.8805600000000000    0.2257450000000000    0.1650150000000000 H
   0.0000000000000000    0.2112200000000000    0.2194950000000000 H
   0.9544300000000000    0.2137700000000000    0.2445700000000000 H
   0.9992150000000000    0.2160300000000000    0.1495550000000000 H
   0.9494400000000001    0.2218100000000000    0.1275000000000000 H
   0.9803700000000000    0.1122600000000000    0.1786950000000000 H
   0.0177500000000000    0.1507850000000000    0.1795750000000000 H
   0.1619650000000000    0.1338300000000000    0.7842700000000000 H
   0.1515200000000000    0.0922000000000000    0.7569250000000001 H
   0.1582700000000000    0.1290300000000000    0.8529550000000000 H
   0.1459000000000000    0.0839850000000000    0.8742099999999999 H
   0.1333600000000000    0.0275100000000000    0.7869999999999999 H
   0.1305100000000000    0.0242650000000000    0.8349299999999999 H
   0.2044300000000000    0.0362150000000000    0.7554149999999999 H
   0.2525500000000000    0.0387500000000000    0.7805050000000000 H
   0.1993500000000000    0.0281900000000000    0.8723350000000001 H
   0.2491550000000000    0.0339300000000000    0.8504650000000000 H
   0.2304450000000000    0.1377100000000000    0.8212900000000001 H
   0.2677650000000000    0.0991500000000000    0.8204150000000000 H
   0.1582350000000000    0.1210150000000000    0.1029500000000000 H
   0.1459100000000000    0.1660750000000000    0.1241250000000000 H
   0.1619100000000000    0.1162150000000000    0.0342600000000000 H
   0.1514800000000000    0.1578600000000000    0.0068500000000000 H
   0.1334000000000000    0.2225300000000000    0.0368200000000000 H
   0.1305200000000000    0.2257950000000000    0.0847250000000000 H
   0.2043800000000000    0.2138150000000000    0.0052300000000000 H
   0.2525400000000000    0.2112900000000000    0.0302750000000000 H
   0.1994700000000000    0.2218250000000000    0.1221500000000000 H
   0.2492200000000000    0.2160300000000000    0.1002250000000000 H
   0.2303750000000000    0.1122950000000000    0.0712650000000000 H
   0.2677400000000000    0.1508250000000000    0.0703300000000000 H
   0.9119250000000000    0.1337900000000000    0.9656500000000000 H
   0.9014599999999999    0.0921600000000000    0.9930900000000000 H
   0.9082900000000000    0.1289850000000000    0.8969900000000000 H
   0.8959600000000000    0.0839250000000000    0.8758150000000000 H
   0.8833500000000001    0.0274500000000000    0.9630900000000000 H
   0.8805350000000001    0.0242200000000000    0.9151800000000000 H
   0.0000000000000000    0.0386900000000000    0.9697450000000001 H
   0.9543050000000000    0.0361900000000000    0.9947450000000000 H
   0.9495250000000000    0.0281550000000000    0.8778250000000001 H
   0.9992500000000000    0.0339650000000000    0.8997900000000000 H
   0.9804300000000000    0.1376900000000000    0.9287099999999999 H
   0.0177700000000000    0.0991450000000000    0.9296650000000000 H
   0.4119200000000000    0.1161700000000000    0.2156950000000000 H
   0.4014850000000000    0.1578050000000000    0.2430400000000000 H
   0.4082350000000000    0.1209900000000000    0.1469900000000000 H
   0.3959150000000000    0.1660550000000000    0.1257550000000000 H
   0.3833750000000000    0.2225100000000000    0.2129350000000000 H
   0.3805600000000000    0.2257450000000000    0.1650150000000000 H
   0.5000000000000000    0.2112200000000000    0.2194950000000000 H
   0.4544300000000000    0.2137700000000000    0.2445700000000000 H
   0.4992150000000000    0.2160300000000000    0.1495550000000000 H
   0.4494400000000000    0.2218100000000000    0.1275000000000000 H
   0.4803700000000000    0.1122600000000000    0.1786950000000000 H
   0.5177500000000000    0.1507850000000000    0.1795750000000000 H
   0.6619650000000000    0.1338300000000000    0.7842700000000000 H
   0.6515200000000000    0.0922000000000000    0.7569250000000001 H
   0.6582700000000000    0.1290300000000000    0.8529550000000000 H
   0.6459000000000000    0.0839850000000000    0.8742099999999999 H
   0.6333600000000000    0.0275100000000000    0.7869999999999999 H
   0.6305100000000000    0.0242650000000000    0.8349299999999999 H
   0.7044300000000000    0.0362150000000000    0.7554149999999999 H
   0.7525500000000001    0.0387500000000000    0.7805050000000000 H
   0.6993500000000000    0.0281900000000000    0.8723350000000001 H
   0.7491550000000000    0.0339300000000000    0.8504650000000000 H
   0.7304450000000000    0.1377100000000000    0.8212900000000001 H
   0.7677650000000000    0.0991500000000000    0.8204150000000000 H
   0.6582350000000000    0.1210150000000000    0.1029500000000000 H
   0.6459100000000000    0.1660750000000000    0.1241250000000000 H
   0.6619100000000000    0.1162150000000000    0.0342600000000000 H
   0.6514800000000001    0.1578600000000000    0.0068500000000000 H
   0.6334000000000000    0.2225300000000000    0.0368200000000000 H
   0.6305200000000000    0.2257950000000000    0.0847250000000000 H
   0.7043800000000000    0.2138150000000000    0.0052300000000000 H
   0.7525400000000000    0.2112900000000000    0.0302750000000000 H
   0.6994700000000000    0.2218250000000000    0.1221500000000000 H
   0.7492200000000000    0.2160300000000000    0.1002250000000000 H
   0.7303750000000000    0.1122950000000000    0.0712650000000000 H
   0.7677400000000000    0.1508250000000000    0.0703300000000000 H
   0.4119250000000000    0.1337900000000000    0.9656500000000000 H
   0.4014600000000000    0.0921600000000000    0.9930900000000000 H
   0.4082900000000000    0.1289850000000000    0.8969900000000000 H
   0.3959600000000000    0.0839250000000000    0.8758150000000000 H
   0.3833500000000000    0.0274500000000000    0.9630900000000000 H
   0.3805350000000000    0.0242200000000000    0.9151800000000000 H
   0.5000000000000000    0.0386900000000000    0.9697450000000001 H
   0.4543050000000000    0.0361900000000000    0.9947450000000000 H
   0.4495250000000000    0.0281550000000000    0.8778250000000001 H
   0.4992500000000000    0.0339650000000000    0.8997900000000000 H
   0.4804300000000000    0.1376900000000000    0.9287099999999999 H
   0.5177700000000000    0.0991450000000000    0.9296650000000000 H
   0.3380200000000000    0.8661650000000001    0.7157150000000000 H
   0.3484700000000000    0.9077950000000000    0.7430600000000001 H
   0.3417150000000000    0.8709650000000000    0.6470300000000000 H
   0.3540850000000000    0.9160100000000000    0.6257750000000000 H
   0.3666250000000000    0.9724850000000000    0.7129750000000000 H
   0.3694800000000000    0.9757300000000000    0.6650550000000000 H
   0.2955550000000000    0.9637800000000001    0.7445750000000000 H
   0.2474350000000000    0.9612450000000000    0.7194850000000000 H
   0.3006400000000000    0.9718050000000000    0.6276550000000000 H
   0.2508350000000000    0.9660650000000000    0.6495200000000000 H
   0.2695400000000000    0.8622850000000000    0.6786950000000000 H
   0.2322250000000000    0.9008450000000000    0.6795700000000000 H
   0.8380200000000000    0.8661650000000001    0.7157150000000000 H
   0.8484700000000001    0.9077950000000000    0.7430600000000001 H
   0.8417150000000000    0.8709650000000000    0.6470300000000000 H
   0.8540850000000000    0.9160100000000000    0.6257750000000000 H
   0.8666250000000000    0.9724850000000000    0.7129750000000000 H
   0.8694800000000000    0.9757300000000000    0.6650550000000000 H
   0.7955550000000000    0.9637800000000001    0.7445750000000000 H
   0.7474350000000000    0.9612450000000000    0.7194850000000000 H
   0.8006400000000000    0.9718050000000000    0.6276550000000000 H
   0.7508349999999999    0.9660650000000000    0.6495200000000000 H
   0.7695400000000000    0.8622850000000000    0.6786950000000000 H
   0.7322250000000000    0.9008450000000000    0.6795700000000000 H
   0.5880700000000000    0.8838200000000001    0.2842900000000000 H
   0.5985000000000000    0.8421850000000000    0.2569450000000000 H
   0.5917500000000000    0.8790050000000000    0.3529950000000000 H
   0.6040750000000000    0.8339350000000000    0.3742300000000000 H
   0.6166150000000000    0.7774799999999999    0.2870500000000000 H
   0.6194300000000000    0.7742500000000000    0.3349700000000000 H
   0.5505500000000000    0.7781850000000000    0.3723400000000000 H
   0.5007750000000000    0.7839650000000000    0.3504300000000000 H
   0.5196150000000000    0.8877300000000000    0.3212500000000000 H
   0.4822400000000000    0.8492100000000000    0.3204100000000000 H
   0.5455600000000000    0.7862250000000000    0.2554150000000000 H
   0.4974300000000000    0.7887700000000000    0.2804900000000000 H
   0.5880600000000000    0.8662050000000000    0.5343150000000000 H
   0.5985250000000000    0.9078349999999999    0.5068950000000000 H
   0.5917000000000000    0.8710100000000001    0.6029949999999999 H
   0.6040300000000000    0.9160699999999999    0.6241700000000000 H
   0.6166400000000000    0.9725400000000000    0.5368950000000000 H
   0.6194500000000001    0.9757750000000001    0.5848100000000001 H
   0.5456799999999999    0.9638050000000000    0.5052449999999999 H
   0.4974900000000000    0.9613050000000001    0.5302000000000000 H
   0.5504599999999999    0.9718400000000000    0.6221600000000000 H
   0.5007350000000000    0.9660250000000000    0.6001950000000000 H
   0.5195600000000000    0.8623050000000000    0.5712750000000000 H
   0.4822200000000000    0.9008499999999999    0.5703199999999999 H
   0.8380799999999999    0.8837800000000000    0.4657250000000000 H
   0.8485050000000001    0.8421400000000000    0.4931350000000000 H
   0.8417550000000000    0.8789800000000000    0.3970350000000000 H
   0.8540800000000000    0.8339250000000000    0.3758600000000000 H
   0.8665900000000000    0.7774650000000001    0.4631700000000000 H
   0.8694700000000000    0.7742000000000000    0.4152600000000000 H
   0.7956099999999999    0.7861800000000000    0.4947550000000000 H
   0.7474499999999999    0.7887000000000000    0.4697150000000000 H
   0.8005200000000000    0.7781700000000000    0.3778400000000000 H
   0.7507699999999999    0.7839650000000000    0.3997600000000000 H
   0.7696100000000000    0.8876999999999999    0.4287200000000000 H
   0.7322450000000000    0.8491649999999999    0.4296550000000000 H
   0.0880700000000000    0.8838200000000001    0.2842900000000000 H
   0.0985000000000000    0.8421850000000000    0.2569450000000000 H
   0.0917500000000000    0.8790050000000000    0.3529950000000000 H
   0.1040750000000000    0.8339350000000000    0.3742300000000000 H
   0.1166150000000000    0.7774799999999999    0.2870500000000000 H
   0.1194300000000000    0.7742500000000000    0.3349700000000000 H
   0.0505500000000000    0.7781850000000000    0.3723400000000000 H
   0.0007750000000000    0.7839650000000000    0.3504300000000000 H
   0.0196150000000000    0.8877300000000000    0.3212500000000000 H
   0.9822400000000000    0.8492100000000000    0.3204100000000000 H
   0.0455600000000000    0.7862250000000000    0.2554150000000000 H
   0.9974300000000000    0.7887700000000000    0.2804900000000000 H
   0.0880600000000000    0.8662050000000000    0.5343150000000000 H
   0.0985250000000000    0.9078349999999999    0.5068950000000000 H
   0.0917000000000000    0.8710100000000001    0.6029949999999999 H
   0.1040300000000000    0.9160699999999999    0.6241700000000000 H
   0.1166400000000000    0.9725400000000000    0.5368950000000000 H
   0.1194500000000000    0.9757750000000001    0.5848100000000001 H
   0.0456800000000000    0.9638050000000000    0.5052449999999999 H
   0.9974900000000000    0.9613050000000001    0.5302000000000000 H
   0.0504600000000000    0.9718400000000000    0.6221600000000000 H
   0.0007350000000000    0.9660250000000000    0.6001950000000000 H
   0.0195600000000000    0.8623050000000000    0.5712750000000000 H
   0.9822200000000000    0.9008499999999999    0.5703199999999999 H
   0.3380800000000000    0.8837800000000000    0.4657250000000000 H
   0.3485050000000000    0.8421400000000000    0.4931350000000000 H
   0.3417550000000000    0.8789800000000000    0.3970350000000000 H
   0.3540800000000000    0.8339250000000000    0.3758600000000000 H
   0.3665900000000000    0.7774650000000001    0.4631700000000000 H
   0.3694700000000000    0.7742000000000000    0.4152600000000000 H
   0.2956100000000000    0.7861800000000000    0.4947550000000000 H
   0.2474500000000000    0.7887000000000000    0.4697150000000000 H
   0.3005200000000000    0.7781700000000000    0.3778400000000000 H
   0.2507700000000000    0.7839650000000000    0.3997600000000000 H
   0.2696100000000000    0.8876999999999999    0.4287200000000000 H
   0.2322450000000000    0.8491649999999999    0.4296550000000000 H
   0.3380200000000000    0.8661650000000001    0.2157150000000000 H
   0.3484700000000000    0.9077950000000000    0.2430600000000000 H
   0.3417150000000000    0.8709650000000000    0.1470300000000000 H
   0.3540850000000000    0.9160100000000000    0.1257750000000000 H
   0.3666250000000000    0.9724850000000000    0.2129750000000000 H
   0.3694800000000000    0.9757300000000000    0.1650550000000000 H
   0.2955550000000000    0.9637800000000001    0.2445750000000000 H
   0.2474350000000000    0.9612450000000000    0.2194850000000000 H
   0.3006400000000000    0.9718050000000000    0.1276550000000000 H
   0.2508350000000000    0.9660650000000000    0.1495200000000000 H
   0.2695400000000000    0.8622850000000000    0.1786950000000000 H
   0.2322250000000000    0.9008450000000000    0.1795700000000000 H
   0.8380200000000000    0.8661650000000001    0.2157150000000000 H
   0.8484700000000001    0.9077950000000000    0.2430600000000000 H
   0.8417150000000000    0.8709650000000000    0.1470300000000000 H
   0.8540850000000000    0.9160100000000000    0.1257750000000000 H
   0.8666250000000000    0.9724850000000000    0.2129750000000000 H
   0.8694800000000000    0.9757300000000000    0.1650550000000000 H
   0.7955550000000000    0.9637800000000001    0.2445750000000000 H