Cd40 H112 C110 N165 O2
1.0
  23.2083113624504520    0.0000000000000000   13.4020253582640763
   7.7332503464050024   21.8793842349889758   13.4103164980377230
   0.0000000000000000    0.0000000000000000   26.8019999999999996
Cd H C N O
40 112 110 165 2
direct
   0.4999900000000000    0.2500000000000000    0.3000000000000000 Cd
   0.4999950000000000    0.2500000000000000    0.2500000000000000 Cd
   0.7499850000000000    0.2500000000000000    0.2500000000000000 Cd
   0.9999899999999999    0.2500000000000000    0.3000000000000000 Cd
   0.9999950000000000    0.2500000000000000    0.2500000000000000 Cd
   0.2499850000000000    0.2500000000000000    0.2500000000000000 Cd
   0.5624850000000000    0.3124650000000000    0.3124600000000000 Cd
   0.9374899999999999    0.1875400000000000    0.1875350000000000 Cd
   0.4374900000000000    0.1875400000000000    0.1875350000000000 Cd
   0.0624850000000000    0.3124650000000000    0.3124600000000000 Cd
   0.9999899999999999    0.2500000000000000    0.8000000000000000 Cd
   0.9999950000000000    0.2500000000000000    0.7500000000000000 Cd
   0.2499850000000000    0.2500000000000000    0.7500000000000000 Cd
   0.4999900000000000    0.2500000000000000    0.8000000000000000 Cd
   0.4999950000000000    0.2500000000000000    0.7500000000000000 Cd
   0.7499850000000000    0.2500000000000000    0.7500000000000000 Cd
   0.0624850000000000    0.3124650000000000    0.8124600000000000 Cd
   0.5624850000000000    0.3124650000000000    0.8124600000000000 Cd
   0.4374900000000000    0.1875400000000000    0.6875350000000000 Cd
   0.9374899999999999    0.1875400000000000    0.6875350000000000 Cd
   0.9999899999999999    0.7500000000000000    0.3000000000000000 Cd
   0.9999950000000000    0.7500000000000000    0.2500000000000000 Cd
   0.2499850000000000    0.7500000000000000    0.2500000000000000 Cd
   0.4999900000000000    0.7500000000000000    0.3000000000000000 Cd
   0.4999950000000000    0.7500000000000000    0.2500000000000000 Cd
   0.7499850000000000    0.7500000000000000    0.2500000000000000 Cd
   0.0624850000000000    0.8124650000000000    0.3124600000000000 Cd
   0.4374900000000000    0.6875400000000000    0.1875350000000000 Cd
   0.5624850000000000    0.8124650000000000    0.3124600000000000 Cd
   0.9374899999999999    0.6875400000000000    0.1875350000000000 Cd
   0.4999900000000000    0.7500000000000000    0.8000000000000000 Cd
   0.4999950000000000    0.7500000000000000    0.7500000000000000 Cd
   0.7499850000000000    0.7500000000000000    0.7500000000000000 Cd
   0.9999899999999999    0.7500000000000000    0.8000000000000000 Cd
   0.9999950000000000    0.7500000000000000    0.7500000000000000 Cd
   0.2499850000000000    0.7500000000000000    0.7500000000000000 Cd
   0.0624850000000000    0.8124650000000000    0.8124600000000000 Cd
   0.5624850000000000    0.8124650000000000    0.8124600000000000 Cd
   0.9374899999999999    0.6875400000000000    0.6875350000000000 Cd
   0.4374900000000000    0.6875400000000000    0.6875350000000000 Cd
   0.4231650000000000    0.1733350000000000    0.5000000000000000 H
   0.4231350000000000    0.1732150000000000    0.3993350000000000 H
   0.8508750000000000    0.3266400000000000    0.9956400000000001 H
   0.7456700000000001    0.3267000000000000    0.1005000000000000 H
   0.7456150000000000    0.3267150000000000    0.3267100000000000 H
   0.8507350000000000    0.3267700000000000    0.3267600000000000 H
   0.6492400000000000    0.1732300000000000    0.1732350000000000 H
   0.7543599999999999    0.1732850000000000    0.1732850000000000 H
   0.8508800000000001    0.9956450000000000    0.3266400000000000 H
   0.7456750000000000    0.1007950000000000    0.3267000000000000 H
   0.6491000000000000    0.1733600000000000    0.5000000000000000 H
   0.7543050000000000    0.1733000000000000    0.3992000000000000 H
   0.6490950000000000    0.5000000000000000    0.1733550000000000 H
   0.7543000000000000    0.3992050000000000    0.1732950000000000 H
   0.9231650000000000    0.1733350000000000    0.5000000000000000 H
   0.9231350000000000    0.1732150000000000    0.3993350000000000 H
   0.3508750000000000    0.3266400000000000    0.9956400000000001 H
   0.2456700000000000    0.3267000000000000    0.1005000000000000 H
   0.2456150000000000    0.3267150000000000    0.3267100000000000 H
   0.3507350000000000    0.3267700000000000    0.3267600000000000 H
   0.1492400000000000    0.1732300000000000    0.1732350000000000 H
   0.2543600000000000    0.1732850000000000    0.1732850000000000 H
   0.3508800000000000    0.9956450000000000    0.3266400000000000 H
   0.2456750000000000    0.1007950000000000    0.3267000000000000 H
   0.1491000000000000    0.1733600000000000    0.5000000000000000 H
   0.2543050000000000    0.1733000000000000    0.3992000000000000 H
   0.2008313316472413    0.3907343742663885    0.2042168505858931 H
   0.1107303620331861    0.4204799506555196    0.2343676385518424 H
   0.9231650000000000    0.1733350000000000    0.0000000000000000 H
   0.9231350000000000    0.1732150000000000    0.8993350000000000 H
   0.3508750000000000    0.3266400000000000    0.4956400000000000 H
   0.2456700000000000    0.3267000000000000    0.6005000000000000 H
   0.2456150000000000    0.3267150000000000    0.8267100000000001 H
   0.3507350000000000    0.3267700000000000    0.8267599999999999 H
   0.1492400000000000    0.1732300000000000    0.6732350000000000 H
   0.2543600000000000    0.1732850000000000    0.6732850000000000 H
   0.3508800000000000    0.9956450000000000    0.8266400000000000 H
   0.2456750000000000    0.1007950000000000    0.8267000000000000 H
   0.1491000000000000    0.1733600000000000    0.0000000000000000 H
   0.2543050000000000    0.1733000000000000    0.8992000000000000 H
   0.1490950000000000    0.5000000000000000    0.6733550000000000 H
   0.2543000000000000    0.3992050000000000    0.6732950000000000 H
   0.4231650000000000    0.1733350000000000    0.0000000000000000 H
   0.4231350000000000    0.1732150000000000    0.8993350000000000 H
   0.8508750000000000    0.3266400000000000    0.4956400000000000 H
   0.7456700000000001    0.3267000000000000    0.6005000000000000 H
   0.7456150000000000    0.3267150000000000    0.8267100000000001 H
   0.8507350000000000    0.3267700000000000    0.8267599999999999 H
   0.6492400000000000    0.1732300000000000    0.6732350000000000 H
   0.7543599999999999    0.1732850000000000    0.6732850000000000 H
   0.8508800000000001    0.9956450000000000    0.8266400000000000 H
   0.7456750000000000    0.1007950000000000    0.8267000000000000 H
   0.6491000000000000    0.1733600000000000    0.0000000000000000 H
   0.7543050000000000    0.1733000000000000    0.8992000000000000 H
   0.6490950000000000    0.5000000000000000    0.6733550000000000 H
   0.7543000000000000    0.3992050000000000    0.6732950000000000 H
   0.9231650000000000    0.6733350000000000    0.5000000000000000 H
   0.9231350000000000    0.6732150000000000    0.3993350000000000 H
   0.3508750000000000    0.8266400000000000    0.9956400000000001 H
   0.2456700000000000    0.8267000000000000    0.1005000000000000 H
   0.2456150000000000    0.8267150000000000    0.3267100000000000 H
   0.3507350000000000    0.8267700000000000    0.3267600000000000 H
   0.1492400000000000    0.6732300000000000    0.1732350000000000 H
   0.2543600000000000    0.6732850000000000    0.1732850000000000 H
   0.3508800000000000    0.4956450000000000    0.3266400000000000 H
   0.2456750000000000    0.6007950000000000    0.3267000000000000 H
   0.1491000000000000    0.6733600000000000    0.5000000000000000 H
   0.2543050000000000    0.6733000000000000    0.3992000000000000 H
   0.1490950000000000    0.0000000000000000    0.1733550000000000 H
   0.2543000000000000    0.8992050000000000    0.1732950000000000 H
   0.4231650000000000    0.6733350000000000    0.5000000000000000 H
   0.4231350000000000    0.6732150000000000    0.3993350000000000 H
   0.8508750000000000    0.8266400000000000    0.9956400000000001 H
   0.7456700000000001    0.8267000000000000    0.1005000000000000 H
   0.7456150000000000    0.8267150000000000    0.3267100000000000 H
   0.8507350000000000    0.8267700000000000    0.3267600000000000 H
   0.6492400000000000    0.6732300000000000    0.1732350000000000 H
   0.7543599999999999    0.6732850000000000    0.1732850000000000 H
   0.8508800000000001    0.4956450000000000    0.3266400000000000 H
   0.7456750000000000    0.6007950000000000    0.3267000000000000 H
   0.6491000000000000    0.6733600000000000    0.5000000000000000 H
   0.7543050000000000    0.6733000000000000    0.3992000000000000 H
   0.6490950000000000    0.0000000000000000    0.1733550000000000 H
   0.7543000000000000    0.8992050000000000    0.1732950000000000 H
   0.4231650000000000    0.6733350000000000    0.0000000000000000 H
   0.4231350000000000    0.6732150000000000    0.8993350000000000 H
   0.8508750000000000    0.8266400000000000    0.4956400000000000 H
   0.7456700000000001    0.8267000000000000    0.6005000000000000 H
   0.7456150000000000    0.8267150000000000    0.8267100000000001 H
   0.8507350000000000    0.8267700000000000    0.8267599999999999 H
   0.6492400000000000    0.6732300000000000    0.6732350000000000 H
   0.7543599999999999    0.6732850000000000    0.6732850000000000 H
   0.8508800000000001    0.4956450000000000    0.8266400000000000 H
   0.7456750000000000    0.6007950000000000    0.8267000000000000 H
   0.6491000000000000    0.6733600000000000    0.0000000000000000 H
   0.7543050000000000    0.6733000000000000    0.8992000000000000 H
   0.6490950000000000    0.0000000000000000    0.6733550000000000 H
   0.7543000000000000    0.8992050000000000    0.6732950000000000 H
   0.9231650000000000    0.6733350000000000    0.0000000000000000 H
   0.9231350000000000    0.6732150000000000    0.8993350000000000 H
   0.3508750000000000    0.8266400000000000    0.4956400000000000 H
   0.2456700000000000    0.8267000000000000    0.6005000000000000 H
   0.2456150000000000    0.8267150000000000    0.8267100000000001 H
   0.3507350000000000    0.8267700000000000    0.8267599999999999 H
   0.1492400000000000    0.6732300000000000    0.6732350000000000 H
   0.2543600000000000    0.6732850000000000    0.6732850000000000 H
   0.3508800000000000    0.4956450000000000    0.8266400000000000 H
   0.2456750000000000    0.6007950000000000    0.8267000000000000 H
   0.1491000000000000    0.6733600000000000    0.0000000000000000 H
   0.2543050000000000    0.6733000000000000    0.8992000000000000 H
   0.1490950000000000    0.0000000000000000    0.6733550000000000 H
   0.2543000000000000    0.8992050000000000    0.6732950000000000 H
   0.4446500000000000    0.1947500000000000    0.4562000000000000 C
   0.4446350000000000    0.1947000000000000    0.4045250000000000 C
   0.8455950000000000    0.3052250000000000    0.0438450000000000 C
   0.7938600000000000    0.3052600000000000    0.0955600000000000 C
   0.7938200000000000    0.3052650000000000    0.3052650000000000 C
   0.8455200000000000    0.3052900000000000    0.3052850000000000 C
   0.6544600000000000    0.1947100000000000    0.1947100000000000 C
   0.7061550000000000    0.1947350000000000    0.1947300000000000 C
   0.8455950000000000    0.0438500000000000    0.3052250000000000 C
   0.7938650000000000    0.0955600000000000    0.3052550000000000 C
   0.6543800000000000    0.1947750000000000    0.4561500000000000 C
   0.7061150000000000    0.1947400000000000    0.4044000000000000 C
   0.6543800000000000    0.4561550000000000    0.1947700000000000 C
   0.7061100000000000    0.4044400000000000    0.1947400000000000 C
   0.9446500000000000    0.1947500000000000    0.4562000000000000 C
   0.9446350000000000    0.1947000000000000    0.4045250000000000 C
   0.3455950000000000    0.3052250000000000    0.0438450000000000 C
   0.2938600000000000    0.3052600000000000    0.0955600000000000 C
   0.2938200000000000    0.3052650000000000    0.3052650000000000 C
   0.3455200000000000    0.3052900000000000    0.3052850000000000 C
   0.1544600000000000    0.1947100000000000    0.1947100000000000 C
   0.2061550000000000    0.1947350000000000    0.1947300000000000 C
   0.3455950000000000    0.0438500000000000    0.3052250000000000 C
   0.2938650000000000    0.0955600000000000    0.3052550000000000 C
   0.1543800000000000    0.1947750000000000    0.4561500000000000 C
   0.2061150000000000    0.1947400000000000    0.4044000000000000 C
   0.9446500000000000    0.1947500000000000    0.9561999999999999 C
   0.9446350000000000    0.1947000000000000    0.9045250000000000 C
   0.3455950000000000    0.3052250000000000    0.5438450000000000 C
   0.2938600000000000    0.3052600000000000    0.5955600000000000 C
   0.2938200000000000    0.3052650000000000    0.8052650000000000 C
   0.3455200000000000    0.3052900000000000    0.8052850000000000 C
   0.1544600000000000    0.1947100000000000    0.6947099999999999 C
   0.2061550000000000    0.1947350000000000    0.6947300000000000 C
   0.3455950000000000    0.0438500000000000    0.8052250000000001 C
   0.2938650000000000    0.0955600000000000    0.8052550000000001 C
   0.1543800000000000    0.1947750000000000    0.9561500000000001 C
   0.2061150000000000    0.1947400000000000    0.9044000000000000 C
   0.1543800000000000    0.4561550000000000    0.6947700000000000 C
   0.2061100000000000    0.4044400000000000    0.6947400000000000 C
   0.4446500000000000    0.1947500000000000    0.9561999999999999 C
   0.4446350000000000    0.1947000000000000    0.9045250000000000 C
   0.8455950000000000    0.3052250000000000    0.5438450000000000 C
   0.7938600000000000    0.3052600000000000    0.5955600000000000 C
   0.7938200000000000    0.3052650000000000    0.8052650000000000 C
   0.8455200000000000    0.3052900000000000    0.8052850000000000 C
   0.6544600000000000    0.1947100000000000    0.6947099999999999 C
   0.7061550000000000    0.1947350000000000    0.6947300000000000 C
   0.8455950000000000    0.0438500000000000    0.8052250000000001 C
   0.7938650000000000    0.0955600000000000    0.8052550000000001 C
   0.6543800000000000    0.1947750000000000    0.9561500000000001 C
   0.7061150000000000    0.1947400000000000    0.9044000000000000 C
   0.6543800000000000    0.4561550000000000    0.6947700000000000 C
   0.7061100000000000    0.4044400000000000    0.6947400000000000 C
   0.9446500000000000    0.6947500000000000    0.4562000000000000 C
   0.9446350000000000    0.6947000000000000    0.4045250000000000 C
   0.3455950000000000    0.8052250000000001    0.0438450000000000 C
   0.2938600000000000    0.8052600000000000    0.0955600000000000 C
   0.2938200000000000    0.8052650000000000    0.3052650000000000 C
   0.3455200000000000    0.8052900000000001    0.3052850000000000 C
   0.1544600000000000    0.6947099999999999    0.1947100000000000 C
   0.2061550000000000    0.6947350000000000    0.1947300000000000 C
   0.3455950000000000    0.5438499999999999    0.3052250000000000 C
   0.2938650000000000    0.5955600000000000    0.3052550000000000 C
   0.1543800000000000    0.6947750000000000    0.4561500000000000 C
   0.2061150000000000    0.6947400000000000    0.4044000000000000 C
   0.1543800000000000    0.9561550000000000    0.1947700000000000 C
   0.2061100000000000    0.9044400000000000    0.1947400000000000 C
   0.4446500000000000    0.6947500000000000    0.4562000000000000 C
   0.4446350000000000    0.6947000000000000    0.4045250000000000 C
   0.8455950000000000    0.8052250000000001    0.0438450000000000 C
   0.7938600000000000    0.8052600000000000    0.0955600000000000 C
   0.7938200000000000    0.8052650000000000    0.3052650000000000 C
   0.8455200000000000    0.8052900000000001    0.3052850000000000 C
   0.6544600000000000    0.6947099999999999    0.1947100000000000 C
   0.7061550000000000    0.6947350000000000    0.1947300000000000 C
   0.8455950000000000    0.5438499999999999    0.3052250000000000 C
   0.7938650000000000    0.5955600000000000    0.3052550000000000 C
   0.6543800000000000    0.6947750000000000    0.4561500000000000 C
   0.7061150000000000    0.6947400000000000    0.4044000000000000 C
   0.6543800000000000    0.9561550000000000    0.1947700000000000 C
   0.7061100000000000    0.9044400000000000    0.1947400000000000 C
   0.4446500000000000    0.6947500000000000    0.9561999999999999 C
   0.4446350000000000    0.6947000000000000    0.9045250000000000 C
   0.8455950000000000    0.8052250000000001    0.5438450000000000 C
   0.7938600000000000    0.8052600000000000    0.5955600000000000 C
   0.7938200000000000    0.8052650000000000    0.8052650000000000 C
   0.8455200000000000    0.8052900000000001    0.8052850000000000 C
   0.6544600000000000    0.6947099999999999    0.6947099999999999 C
   0.7061550000000000    0.6947350000000000    0.6947300000000000 C
   0.8455950000000000    0.5438499999999999    0.8052250000000001 C
   0.7938650000000000    0.5955600000000000    0.8052550000000001 C
   0.6543800000000000    0.6947750000000000    0.9561500000000001 C
   0.7061150000000000    0.6947400000000000    0.9044000000000000 C
   0.6543800000000000    0.9561550000000000    0.6947700000000000 C
   0.7061100000000000    0.9044400000000000    0.6947400000000000 C
   0.9446500000000000    0.6947500000000000    0.9561999999999999 C
   0.9446350000000000    0.6947000000000000    0.9045250000000000 C
   0.3455950000000000    0.8052250000000001    0.5438450000000000 C
   0.2938600000000000    0.8052600000000000    0.5955600000000000 C
   0.2938200000000000    0.8052650000000000    0.8052650000000000 C
   0.3455200000000000    0.8052900000000001    0.8052850000000000 C
   0.1544600000000000    0.6947099999999999    0.6947099999999999 C
   0.2061550000000000    0.6947350000000000    0.6947300000000000 C
   0.3455950000000000    0.5438499999999999    0.8052250000000001 C
   0.2938650000000000    0.5955600000000000    0.8052550000000001 C
   0.1543800000000000    0.6947750000000000    0.9561500000000001 C
   0.2061150000000000    0.6947400000000000    0.9044000000000000 C
   0.1543800000000000    0.9561550000000000    0.6947700000000000 C
   0.2061100000000000    0.9044400000000000    0.6947400000000000 C
   0.4787900000000000    0.2287950000000000    0.3552100000000000 N
   0.4992000000000000    0.2491850000000000    0.3757500000000000 N
   0.4788100000000000    0.2288750000000000    0.4371450000000000 N
   0.8948400000000001    0.2711450000000000    0.0628750000000000 N
   0.8742150000000000    0.2508250000000000    0.1242450000000000 N
   0.8128450000000000    0.2711800000000000    0.1448350000000000 N
   0.8948000000000000    0.2711750000000000    0.2711650000000000 N
   0.8742200000000000    0.2507800000000000    0.2507850000000000 N
   0.8128550000000000    0.2711400000000000    0.2711300000000000 N
   0.6051750000000000    0.2288300000000000    0.2288300000000000 N
   0.6257550000000001    0.2492250000000000    0.2492100000000000 N
   0.6871200000000000    0.2288600000000000    0.2288650000000000 N
   0.8948400000000001    0.0628800000000000    0.2711400000000000 N
   0.8742150000000000    0.1242500000000000    0.2508150000000000 N
   0.8128450000000000    0.1448400000000000    0.2711800000000000 N
   0.6051350000000000    0.2288550000000000    0.4371000000000000 N
   0.6257650000000000    0.2491750000000000    0.3757500000000000 N
   0.6871300000000000    0.2288250000000000    0.3551600000000000 N
   0.6051350000000000    0.4371250000000000    0.2288550000000000 N
   0.6257650000000000    0.3757550000000000    0.2491800000000000 N
   0.6871300000000000    0.3551600000000000    0.2288150000000000 N
   0.9787900000000000    0.2287950000000000    0.3552100000000000 N
   0.9992000000000000    0.2491850000000000    0.3757500000000000 N
   0.9788100000000000    0.2288750000000000    0.4371450000000000 N
   0.3948400000000000    0.2711450000000000    0.0628750000000000 N
   0.3742150000000000    0.2508250000000000    0.1242450000000000 N
   0.3128450000000000    0.2711800000000000    0.1448350000000000 N
   0.3948000000000000    0.2711750000000000    0.2711650000000000 N
   0.3742200000000000    0.2507800000000000    0.2507850000000000 N
   0.3128550000000000    0.2711400000000000    0.2711300000000000 N
   0.1051750000000000    0.2288300000000000    0.2288300000000000 N
   0.1257550000000000    0.2492250000000000    0.2492100000000000 N
   0.1871200000000000    0.2288600000000000    0.2288650000000000 N
   0.3948400000000000    0.0628800000000000    0.2711400000000000 N
   0.3742150000000000    0.1242500000000000    0.2508150000000000 N
   0.3128450000000000    0.1448400000000000    0.2711800000000000 N
   0.1051350000000000    0.2288550000000000    0.4371000000000000 N
   0.1257650000000000    0.2491750000000000    0.3757500000000000 N
   0.1871300000000000    0.2288250000000000    0.3551600000000000 N
   0.9787900000000000    0.2287950000000000    0.8552100000000000 N
   0.9992000000000000    0.2491850000000000    0.8757500000000000 N
   0.9788100000000000    0.2288750000000000    0.9371450000000000 N
   0.3948400000000000    0.2711450000000000    0.5628750000000000 N
   0.3742150000000000    0.2508250000000000    0.6242449999999999 N
   0.3128450000000000    0.2711800000000000    0.6448350000000000 N
   0.3948000000000000    0.2711750000000000    0.7711650000000000 N
   0.3742200000000000    0.2507800000000000    0.7507850000000000 N
   0.3128550000000000    0.2711400000000000    0.7711300000000000 N
   0.1051750000000000    0.2288300000000000    0.7288300000000000 N
   0.1257550000000000    0.2492250000000000    0.7492099999999999 N
   0.1871200000000000    0.2288600000000000    0.7288650000000000 N
   0.3948400000000000    0.0628800000000000    0.7711399999999999 N
   0.3742150000000000    0.1242500000000000    0.7508150000000000 N
   0.3128450000000000    0.1448400000000000    0.7711800000000000 N
   0.1051350000000000    0.2288550000000000    0.9371000000000000 N
   0.1257650000000000    0.2491750000000000    0.8757500000000000 N
   0.1871300000000000    0.2288250000000000    0.8551599999999999 N
   0.1051350000000000    0.4371250000000000    0.7288550000000000 N
   0.1257650000000000    0.3757550000000000    0.7491800000000000 N
   0.1871300000000000    0.3551600000000000    0.7288150000000000 N
   0.4787900000000000    0.2287950000000000    0.8552100000000000 N
   0.4992000000000000    0.2491850000000000    0.8757500000000000 N
   0.4788100000000000    0.2288750000000000    0.9371450000000000 N
   0.8948400000000001    0.2711450000000000    0.5628750000000000 N
   0.8742150000000000    0.2508250000000000    0.6242449999999999 N
   0.8128450000000000    0.2711800000000000    0.6448350000000000 N
   0.8948000000000000    0.2711750000000000    0.7711650000000000 N
   0.8742200000000000    0.2507800000000000    0.7507850000000000 N
   0.8128550000000000    0.2711400000000000    0.7711300000000000 N
   0.6051750000000000    0.2288300000000000    0.7288300000000000 N
   0.6257550000000001    0.2492250000000000    0.7492099999999999 N
   0.6871200000000000    0.2288600000000000    0.7288650000000000 N
   0.8948400000000001    0.0628800000000000    0.7711399999999999 N
   0.8742150000000000    0.1242500000000000    0.7508150000000000 N
   0.8128450000000000    0.1448400000000000    0.7711800000000000 N
   0.6051350000000000    0.2288550000000000    0.9371000000000000 N
   0.6257650000000000    0.2491750000000000    0.8757500000000000 N
   0.6871300000000000    0.2288250000000000    0.8551599999999999 N
   0.6051350000000000    0.4371250000000000    0.7288550000000000 N
   0.6257650000000000    0.3757550000000000    0.7491800000000000 N
   0.6871300000000000    0.3551600000000000    0.7288150000000000 N
   0.9787900000000000    0.7287950000000000    0.3552100000000000 N
   0.9992000000000000    0.7491850000000000    0.3757500000000000 N
   0.9788100000000000    0.7288749999999999    0.4371450000000000 N
   0.3948400000000000    0.7711450000000000    0.0628750000000000 N
   0.3742150000000000    0.7508250000000001    0.1242450000000000 N
   0.3128450000000000    0.7711800000000000    0.1448350000000000 N
   0.3948000000000000    0.7711749999999999    0.2711650000000000 N
   0.3742200000000000    0.7507800000000000    0.2507850000000000 N
   0.3128550000000000    0.7711399999999999    0.2711300000000000 N
   0.1051750000000000    0.7288300000000000    0.2288300000000000 N
   0.1257550000000000    0.7492250000000000    0.2492100000000000 N
   0.1871200000000000    0.7288600000000001    0.2288650000000000 N
   0.3948400000000000    0.5628800000000000    0.2711400000000000 N
   0.3742150000000000    0.6242500000000000    0.2508150000000000 N
   0.3128450000000000    0.6448400000000000    0.2711800000000000 N
   0.1051350000000000    0.7288550000000000    0.4371000000000000 N
   0.1257650000000000    0.7491750000000000    0.3757500000000000 N
   0.1871300000000000    0.7288250000000001    0.3551600000000000 N
   0.1051350000000000    0.9371250000000000    0.2288550000000000 N
   0.1257650000000000    0.8757550000000001    0.2491800000000000 N
   0.1871300000000000    0.8551599999999999    0.2288150000000000 N
   0.4787900000000000    0.7287950000000000    0.3552100000000000 N
   0.4992000000000000    0.7491850000000000    0.3757500000000000 N
   0.4788100000000000    0.7288749999999999    0.4371450000000000 N
   0.8948400000000001    0.7711450000000000    0.0628750000000000 N
   0.8742150000000000    0.7508250000000001    0.1242450000000000 N
   0.8128450000000000    0.7711800000000000    0.1448350000000000 N
   0.8948000000000000    0.7711749999999999    0.2711650000000000 N
   0.8742200000000000    0.7507800000000000    0.2507850000000000 N
   0.8128550000000000    0.7711399999999999    0.2711300000000000 N
   0.6051750000000000    0.7288300000000000    0.2288300000000000 N
   0.6257550000000001    0.7492250000000000    0.2492100000000000 N
   0.6871200000000000    0.7288600000000001    0.2288650000000000 N
   0.8948400000000001    0.5628800000000000    0.2711400000000000 N
   0.8742150000000000    0.6242500000000000    0.2508150000000000 N
   0.8128450000000000    0.6448400000000000    0.2711800000000000 N
   0.6051350000000000    0.7288550000000000    0.4371000000000000 N
   0.6257650000000000    0.7491750000000000    0.3757500000000000 N
   0.6871300000000000    0.7288250000000001    0.3551600000000000 N
   0.6051350000000000    0.9371250000000000    0.2288550000000000 N
   0.6257650000000000    0.8757550000000001    0.2491800000000000 N
   0.6871300000000000    0.8551599999999999    0.2288150000000000 N
   0.4787900000000000    0.7287950000000000    0.8552100000000000 N
   0.4992000000000000    0.7491850000000000    0.8757500000000000 N
   0.4788100000000000    0.7288749999999999    0.9371450000000000 N
   0.8948400000000001    0.7711450000000000    0.5628750000000000 N
   0.8742150000000000    0.7508250000000001    0.6242449999999999 N
   0.8128450000000000    0.7711800000000000    0.6448350000000000 N
   0.8948000000000000    0.7711749999999999    0.7711650000000000 N
   0.8742200000000000    0.7507800000000000    0.7507850000000000 N
   0.8128550000000000    0.7711399999999999    0.7711300000000000 N
   0.6051750000000000    0.7288300000000000    0.7288300000000000 N
   0.6257550000000001    0.7492250000000000    0.7492099999999999 N
   0.6871200000000000    0.7288600000000001    0.7288650000000000 N
   0.8948400000000001    0.5628800000000000    0.7711399999999999 N
   0.8742150000000000    0.6242500000000000    0.7508150000000000 N
   0.8128450000000000    0.6448400000000000    0.7711800000000000 N
   0.6051350000000000    0.7288550000000000    0.9371000000000000 N
   0.6257650000000000    0.7491750000000000    0.8757500000000000 N
   0.6871300000000000    0.7288250000000001    0.8551599999999999 N
   0.6051350000000000    0.9371250000000000    0.7288550000000000 N
   0.6257650000000000    0.8757550000000001    0.7491800000000000 N
   0.6871300000000000    0.8551599999999999    0.7288150000000000 N
   0.9787900000000000    0.7287950000000000    0.8552100000000000 N
   0.9992000000000000    0.7491850000000000    0.8757500000000000 N
   0.9788100000000000    0.7288749999999999    0.9371450000000000 N
   0.3948400000000000    0.7711450000000000    0.5628750000000000 N
   0.3742150000000000    0.7508250000000001    0.6242449999999999 N
   0.3128450000000000    0.7711800000000000    0.6448350000000000 N
   0.3948000000000000    0.7711749999999999    0.7711650000000000 N
   0.3742200000000000    0.7507800000000000    0.7507850000000000 N
   0.3128550000000000    0.7711399999999999    0.7711300000000000 N
   0.1051750000000000    0.7288300000000000    0.7288300000000000 N
   0.1257550000000000    0.7492250000000000    0.7492099999999999 N
   0.1871200000000000    0.7288600000000001    0.7288650000000000 N
   0.3948400000000000    0.5628800000000000    0.7711399999999999 N
   0.3742150000000000    0.6242500000000000    0.7508150000000000 N
   0.3128450000000000    0.6448400000000000    0.7711800000000000 N
   0.1051350000000000    0.7288550000000000    0.9371000000000000 N
   0.1257650000000000    0.7491750000000000    0.8757500000000000 N
   0.1871300000000000    0.7288250000000001    0.8551599999999999 N
   0.1051350000000000    0.9371250000000000    0.7288550000000000 N
   0.1257650000000000    0.8757550000000001    0.7491800000000000 N
   0.1871300000000000    0.8551599999999999    0.7288150000000000 N
   0.1871300000000000    0.3551600000000000    0.2288150000000000 O
   0.1257650000000000    0.3757550000000000    0.2491800000000000 O
