H2 O2
1.0
  23.2083113624504520    0.0000000000000000   13.4020253582640763
   7.7332503464050024   21.8793842349889758   13.4103164980377230
   0.0000000000000000    0.0000000000000000   26.8019999999999996
H O
2 2
direct
   0.2008313316472413    0.3907343742663885    0.2042168505858931 H
   0.1107303620331861    0.4204799506555196    0.2343676385518424 H
   0.1871300000000000    0.3551600000000000    0.2288150000000000 O
   0.1257650000000000    0.3757550000000000    0.2491800000000000 O
