H6 C16 N2 O7
1.0
   5.6149862062686218    0.0000000000000000    0.0124460199708497
   0.2844996832216740   37.9209060852315005    0.0450067250422980
   0.0000000000000000    0.0000000000000000   23.8880000000000017
H C N O
6 16 2 7
direct
   0.5414400000000000    0.4452100000000000    0.1478200000000000 H
   0.4301500000000000    0.4441350000000000    0.3093600000000000 H
   0.4890600000000000    0.4738450000000000    0.4836100000000000 H
   0.4919500000000000    0.5243850000000000    0.0191100000000000 H
   0.4361800000000000    0.5539400000000000    0.1936200000000000 H
   0.5532700000000000    0.5523350000000000    0.3543700000000000 H
   0.5180200000000000    0.4819550000000000    0.0788800000000000 C
   0.5063299999999999    0.4538550000000000    0.0353000000000000 C
   0.5256700000000000    0.4728100000000000    0.1355900000000000 C
   0.5065600000000000    0.4988400000000000    0.1769700000000000 C
   0.4645400000000000    0.4638450000000000    0.3413900000000000 C
   0.4625400000000000    0.4549000000000000    0.3980800000000000 C
   0.3966000000000000    0.4186300000000000    0.4154600000000000 C
   0.4970400000000000    0.4806700000000000    0.4393700000000000 C
   0.4028600000000000    0.5797950000000001    0.0877900000000000 C
   0.4669600000000000    0.5432399999999999    0.1047900000000000 C
   0.4981000000000000    0.5173950000000000    0.0633100000000000 C
   0.4677700000000000    0.5341450000000000    0.1614100000000000 C
   0.5085499999999999    0.5000000000000000    0.3256000000000000 C
   0.5229200000000001    0.5159450000000000    0.4235800000000000 C
   0.5151100000000000    0.5442200000000000    0.4669700000000000 C
   0.5325700000000000    0.5248800000000000    0.3668000000000000 C
   0.5118700000000000    0.4865800000000000    0.2329600000000000 N
   0.5154600000000000    0.5110500000000000    0.2695600000000000 N
   0.4901000000000000    0.4629200000000000    0.9836700000000000 O
   0.5005800000000000    0.4215600000000000    1.0505700000000000 O
   1.2288700000000001    0.4028650000000000    0.3911200000000000 O
   0.5115700000000000    0.4042550000000000    0.4576300000000000 O
   0.2327400000000000    0.5956550000000000    0.1119300000000000 O
   0.5201200000000000    0.5764850000000000    0.4515800000000000 O
   0.4901200000000000    0.5354300000000000    0.5185400000000000 O
