H12 O8
1.0
   5.6149862062686218    0.0000000000000000    0.0124460199708497
   0.2844996832216740   37.9209060852315005    0.0450067250422980
   0.0000000000000000    0.0000000000000000   23.8880000000000017
H O
12 8
direct
   1.0366684938404183    0.4146872489715979    0.5894315337008558 H
   1.0006267598354466    0.4871895475107501    0.4714052338579200 H
   1.0245005108565384    0.4537608569208111    0.5343645549048326 H
  -0.0817765824581136    0.5818946468677288    0.5948550326511204 H
  -0.0699742543212780    0.5870582065748888    0.6457391084105961 H
  -0.0804057556908170    0.5775888898389497    0.5256429217067570 H
   0.0309436257343176    0.5829432342149169   -0.0873398079150955 H
  -0.0050833086940067    0.5108884787701795    0.0293176916868866 H
   0.0137121456365415    0.5435640531301400   -0.0334967781019594 H
   0.8519611860984505    0.4123800449818159    0.9658085524495085 H
   0.8792717527651718    0.4086675729348158    0.8729370855690383 H
   0.4572988300764551    0.4176869165889974    0.9063462903448515 H
   1.0100899999999999    0.4216750000000000    0.5508600000000000 O
   0.9897200000000000    0.4629050000000000    0.4838900000000000 O
   0.0000000000000000    0.5957200000000000    0.6112500000000000 O
   0.0184400000000000    0.5943000000000001    0.5454599999999999 O
   0.0205800000000000    0.5768900000000000   -0.0479500000000000 O
   0.0000000000000000    0.5355550000000000    0.0186200000000000 O
   1.0111400000000001    0.4043050000000000    0.9561600000000000 O
   0.7258200000000000    0.4040650000000000    0.8900700000000000 O
