H1 O1
1.0
  16.5009999095231450    0.0000000000000000    0.0017279806760714
  -0.0133018165003258   19.5419954728701590    0.0000000000000012
   0.0000000000000000    0.0000000000000000   19.5399999999999991
H O
1 1
direct
   0.7616372178707139   -0.0118731274761190    0.6479881963334654 H
   0.7985600000000000    0.0160800000000000    0.6754700000000000 O
