H4 C6 N5
1.0
  34.2929997440669894    0.0000000000000000   -0.0041896803122844
  -1.6113599249124531   31.8087121577310192   -0.0005558786400894
   0.0000000000000000    0.0000000000000000   32.3900000000000006
H C N
4 6 5
direct
   0.7350749999999999    0.5654933333333333    0.2140050000000000 H
   0.7034483333333333    0.6096966666666666    0.1612100000000000 H
   0.7897166666666666    0.5712433333333333    0.0738000000000000 H
   0.8171516666666666    0.5276133333333333    0.1296550000000000 H
   0.7463266666666666    0.5676933333333334    0.1825400000000000 C
   0.7289133333333333    0.5923099999999999    0.1532200000000000 C
   0.7439483333333333    0.5940900000000000    0.1128100000000000 C
   0.7766949999999999    0.5708299999999999    0.1044150000000000 C
   0.7921683333333333    0.5466366666666667    0.1354950000000000 C
   0.7240599999999999    0.6172199999999999    0.0809050000000000 C
   0.7773900000000000    0.5444166666666667    0.1742050000000000 N
   0.7391799999999999    0.6305033333333333    0.0440700000000000 N
   0.7088449999999999    0.6467033333333333    0.0237600000000000 N
   0.6770200000000000    0.6434966666666666    0.0481650000000000 N
   0.6860400000000000    0.6255900000000000    0.0841500000000000 N
