H6 O4
1.0
  34.5887542657834715    0.0000000000000000   17.2845297113125334
   5.7822193793430472   12.9859503001024432    2.9055317675804209
   0.0000000000000000    0.0000000000000000   14.5259999999999998
H O
6 4
direct
   0.7925728219421063    0.6074176952199193    0.6794150788650021 H
   0.8662390380645572    0.3217946211365677    0.5777262702877758 H
   0.8315145342043005    0.4619651552566804    0.6378605846561737 H
   0.9600702116411124    1.0782479595509535    0.1329350117689136 H
  -0.0105094734299655    0.1001662774675609    0.9002121703514079 H
   0.9386790170385476    1.0542008047555320    0.0092857698963922 H
   0.8024466666666666    0.5537900000000000    0.6319600000000000 O
   0.8449266666666666    0.3891200000000000    0.5734000000000000 O
   0.9832500000000000    1.0998299999999999    0.1053100000000000 O
   0.0039900000000000    0.1150100000000000    0.9314500000000000 O
