Cu12 H94 C154 O48
1.0
  34.5887542657834715    0.0000000000000000   17.2845297113125334
   5.7822193793430472   12.9859503001024432    2.9055317675804209
   0.0000000000000000    0.0000000000000000   14.5259999999999998
Cu H C O
12 94 154 48
direct
   0.0379433333333333    0.9803500000000001    0.0918800000000000 Cu
   0.1525966666666667    0.4077100000000000    0.4786400000000000 Cu
   0.7818266666666667    0.5913100000000000    0.5187100000000000 Cu
   0.3955766666666666    0.0210100000000000    0.9084000000000000 Cu
   0.3712766666666666    0.9803500000000001    0.0918800000000000 Cu
   0.4859300000000000    0.4077100000000000    0.4786400000000000 Cu
   0.1151600000000000    0.5913100000000000    0.5187100000000000 Cu
   0.7289099999999999    0.0210100000000000    0.9084000000000000 Cu
   0.8192633333333332    0.4077100000000000    0.4786400000000000 Cu
   0.7046100000000000    0.9803500000000001    0.0918800000000000 Cu
   0.4484933333333333    0.5913100000000000    0.5187100000000000 Cu
   0.0622433333333333    0.0210100000000000    0.9084000000000000 Cu
   0.9600702116411124    1.0782479595509535    0.1329350117689136 H
   0.0754900000000000    0.5688299999999999    0.0256900000000000 H
   0.0799700000000000    0.7120500000000000    0.0822700000000000 H
   0.0923300000000000    0.6940600000000000    0.2397800000000000 H
   0.0996400000000000    0.3853600000000000    0.2807900000000000 H
   0.0446700000000000    0.1948900000000000    0.2271900000000000 H
   0.0516933333333333    0.3375900000000000    0.2765400000000000 H
   0.1004566666666667    0.2692000000000000    0.9076500000000000 H
   0.1098200000000000    0.4083900000000000    0.9556000000000000 H
   0.1676233333333333    0.4772600000000000    0.0661800000000000 H
   0.1910266666666667    0.4213300000000000    0.2093500000000000 H
   0.2556733333333333    0.2628000000000000    0.1929500000000000 H
   0.2766766666666667    0.2197900000000000    0.8852500000000000 H
   0.2043700000000000    0.2731900000000000    0.6940300000000000 H
   0.2276300000000000    0.2245500000000000    0.8370700000000000 H
   0.1532100000000000    0.5932900000000000    0.7661000000000000 H
   0.1784166666666667    0.5459900000000000    0.9055400000000000 H
   0.0166566666666667    0.5249100000000000    0.9293500000000000 H
   0.0692100000000000    0.5820700000000000    0.7868600000000000 H
   0.0749733333333333    0.7405900000000000    0.8049900000000000 H
   0.9781599999999999    0.7813400000000000    0.1124000000000000 H
   0.8600966666666666    0.7257500000000000    0.3026200000000000 H
   0.9147566666666667    0.7757700000000000    0.1598500000000000 H
   0.9409333333333333    0.4062500000000000    0.2286200000000000 H
   0.9967866666666666    0.4549400000000000    0.0894000000000000 H
   0.6075933333333332    0.4317400000000000    0.9772400000000000 H
   0.6791466666666667    0.2890400000000000    0.9207600000000000 H
   0.7380099999999999    0.3061800000000000    0.7616200000000000 H
   0.6552600000000000    0.6135500000000000    0.7190500000000000 H
   0.5186700000000000    0.8043000000000000    0.7745900000000000 H
   0.5899399999999999    0.6613200000000000    0.7250000000000000 H
   0.4924300000000000    0.7311800000000001    0.0941700000000000 H
   0.5644766666666666    0.5919400000000000    0.0459600000000000 H
   0.4088233333333333    0.5688299999999999    0.0256900000000000 H
   0.4133033333333333    0.7120500000000000    0.0822700000000000 H
   0.4256633333333333    0.6940600000000000    0.2397800000000000 H
   0.4329733333333333    0.3853600000000000    0.2807900000000000 H
   0.3780033333333333    0.1948900000000000    0.2271900000000000 H
   0.3850266666666666    0.3375900000000000    0.2765400000000000 H
   0.4337900000000000    0.2692000000000000    0.9076500000000000 H
   0.4431533333333333    0.4083900000000000    0.9556000000000000 H
   0.5009566666666667    0.4772600000000000    0.0661800000000000 H
   0.5243599999999999    0.4213300000000000    0.2093500000000000 H
   0.5890066666666667    0.2628000000000000    0.1929500000000000 H
   0.6100099999999999    0.2197900000000000    0.8852500000000000 H
   0.5377033333333333    0.2731900000000000    0.6940300000000000 H
   0.5609633333333333    0.2245500000000000    0.8370700000000000 H
   0.4865433333333333    0.5932900000000000    0.7661000000000000 H
   0.5117499999999999    0.5459900000000000    0.9055400000000000 H
   0.3499900000000000    0.5249100000000000    0.9293500000000000 H
   0.4025433333333333    0.5820700000000000    0.7868600000000000 H
   0.4083066666666667    0.7405900000000000    0.8049900000000000 H
   0.3114933333333333    0.7813400000000000    0.1124000000000000 H
   0.1934300000000000    0.7257500000000000    0.3026200000000000 H
   0.2480900000000000    0.7757700000000000    0.1598500000000000 H
   0.2742666666666667    0.4062500000000000    0.2286200000000000 H
   0.3301200000000000    0.4549400000000000    0.0894000000000000 H
   0.9409266666666666    0.4317400000000000    0.9772400000000000 H
   0.0124800000000000    0.2890400000000000    0.9207600000000000 H
   0.0713433333333333    0.3061800000000000    0.7616200000000000 H
   0.9885933333333332    0.6135500000000000    0.7190500000000000 H
   0.8520033333333332    0.8043000000000000    0.7745900000000000 H
   0.9232733333333333    0.6613200000000000    0.7250000000000000 H
   0.8257633333333333    0.7311800000000001    0.0941700000000000 H
   0.8978100000000000    0.5919400000000000    0.0459600000000000 H
   0.7925728219421063    0.6074176952199193    0.6794150788650021 H
   0.8662390380645572    0.3217946211365677    0.5777262702877758 H
   0.8315145342043005    0.4619651552566804    0.6378605846561737 H
   0.7421566666666666    0.5688299999999999    0.0256900000000000 H
   0.7466366666666666    0.7120500000000000    0.0822700000000000 H
   0.7589966666666667    0.6940600000000000    0.2397800000000000 H
   0.7663066666666667    0.3853600000000000    0.2807900000000000 H
   0.7113366666666666    0.1948900000000000    0.2271900000000000 H
   0.7183600000000000    0.3375900000000000    0.2765400000000000 H
   0.7671233333333333    0.2692000000000000    0.9076500000000000 H
   0.7764866666666667    0.4083900000000000    0.9556000000000000 H
  -0.0105094734299655    0.1001662774675609    0.9002121703514079 H
   0.6833233333333333    0.5249100000000000    0.9293500000000000 H
   0.7358766666666666    0.5820700000000000    0.7868600000000000 H
   0.7416400000000000    0.7405900000000000    0.8049900000000000 H
   0.6448266666666667    0.7813400000000000    0.1124000000000000 H
   0.5267633333333333    0.7257500000000000    0.3026200000000000 H
   0.5814233333333333    0.7757700000000000    0.1598500000000000 H
   0.6075999999999999    0.4062500000000000    0.2286200000000000 H
   0.6634533333333332    0.4549400000000000    0.0894000000000000 H
   0.2742599999999999    0.4317400000000000    0.9772400000000000 H
   0.3458133333333333    0.2890400000000000    0.9207600000000000 H
   0.4046766666666666    0.3061800000000000    0.7616200000000000 H
   0.3219266666666666    0.6135500000000000    0.7190500000000000 H
   0.1853366666666666    0.8043000000000000    0.7745900000000000 H
   0.2566066666666666    0.6613200000000000    0.7250000000000000 H
   0.1590966666666667    0.7311800000000001    0.0941700000000000 H
   0.2311433333333333    0.5919400000000000    0.0459600000000000 H
   0.9386790170385476    1.0542008047555320    0.0092857698963922 H
   0.1075600000000000    0.5243700000000000    0.3591100000000000 C
   0.0663233333333333    0.1380900000000000    0.0380000000000000 C
   0.0815233333333333    0.5596600000000000    0.0940700000000000 C
   0.0838633333333333    0.6405200000000000    0.1257300000000000 C
   0.0906866666666667    0.6310900000000000    0.2142200000000000 C
   0.0939733333333333    0.4574600000000000    0.2380000000000000 C
   0.0963700000000000    0.5385300000000000    0.2698900000000000 C
   0.0857933333333333    0.4674500000000000    0.1507600000000000 C
   0.0588600000000000    0.2422200000000000    0.1683500000000000 C
   0.0633000000000000    0.3215200000000000    0.1954300000000000 C
   0.0899733333333333    0.2843800000000000    0.9883400000000000 C
   0.0948466666666667    0.3630700000000000    0.0157700000000000 C
   0.0720866666666667    0.2227900000000000    0.0644100000000000 C
   0.0815533333333333    0.3832000000000000    0.1198800000000000 C
   0.3105933333333333    0.1415900000000000    0.0244300000000000 C
   0.1627800000000000    0.4623200000000000    0.6359800000000000 C
   0.1964133333333333    0.4084800000000000    0.0575400000000000 C
   0.2093233333333333    0.3771300000000000    0.1384200000000000 C
   0.2455466666666666    0.2880600000000000    0.1298800000000000 C
   0.2567366666666666    0.2632500000000000    0.9568300000000000 C
   0.2697233333333333    0.2315300000000000    0.0380000000000000 C
   0.2195333333333333    0.3510000000000000    0.9660200000000000 C
   0.1987900000000000    0.3323300000000000    0.7409500000000000 C
   0.2121466666666667    0.3056300000000000    0.8204000000000000 C
   0.1696666666666667    0.5126300000000000    0.7818400000000000 C
   0.1835866666666667    0.4855900000000000    0.8607000000000000 C
   0.1773000000000000    0.4362300000000000    0.7207800000000000 C
   0.2050600000000000    0.3815200000000000    0.8816100000000000 C
   0.0325866666666667    0.8604500000000000    0.9743300000000000 C
   0.8628733333333333    0.5364300000000000    0.3599400000000000 C
   0.0193533333333333    0.5937400000000000    0.9385000000000000 C
   0.0488300000000000    0.6257500000000000    0.8581100000000000 C
   0.0521933333333333    0.7147700000000000    0.8676000000000000 C
   0.9969066666666666    0.7383900000000000    0.0405000000000000 C
   0.0264966666666667    0.7706600000000000    0.9598700000000000 C
   0.9923966666666666    0.6505700000000000    0.0304400000000000 C
   0.8901366666666666    0.6670800000000000    0.2553100000000000 C
   0.9210566666666666    0.6945400000000000    0.1759900000000000 C
   0.9354533333333332    0.4870900000000000    0.2133000000000000 C
   0.9666199999999999    0.5149100000000000    0.1346600000000000 C
   0.8969400000000000    0.5629700000000000    0.2748900000000000 C
   0.9599899999999999    0.6192000000000000    0.1144600000000000 C
   0.7359766666666666    0.4748900000000000    0.6402200000000000 C
   0.4580866666666666    0.8622400000000000    0.9636500000000000 C
   0.6333599999999999    0.4406500000000000    0.9081700000000000 C
   0.6734700000000000    0.3600400000000000    0.8765300000000000 C
   0.7066666666666667    0.3689900000000000    0.7871600000000000 C
   0.6595133333333333    0.5418600000000000    0.7625000000000000 C
   0.6998033333333333    0.4609500000000000    0.7305000000000000 C
   0.6255566666666665    0.5322800000000000    0.8507000000000000 C
   0.5290133333333333    0.7571700000000000    0.8334000000000000 C
   0.5690566666666667    0.6777200000000000    0.8062100000000000 C
   0.5140133333333333    0.7157200000000000    0.0134200000000000 C
   0.5544266666666666    0.6369500000000000    0.9858700000000000 C
   0.5009633333333333    0.7770700000000000    0.9373899999999999 C
   0.5827133333333333    0.6164200000000000    0.8817100000000000 C
   0.4408933333333333    0.5243700000000000    0.3591100000000000 C
   0.3996566666666667    0.1380900000000000    0.0380000000000000 C
   0.4148566666666667    0.5596600000000000    0.0940700000000000 C
   0.4171966666666667    0.6405200000000000    0.1257300000000000 C
   0.4240200000000000    0.6310900000000000    0.2142200000000000 C
   0.4273066666666666    0.4574600000000000    0.2380000000000000 C
   0.4297033333333333    0.5385300000000000    0.2698900000000000 C
   0.4191266666666666    0.4674500000000000    0.1507600000000000 C
   0.3921933333333333    0.2422200000000000    0.1683500000000000 C
   0.3966333333333333    0.3215200000000000    0.1954300000000000 C
   0.4233066666666666    0.2843800000000000    0.9883400000000000 C
   0.4281800000000000    0.3630700000000000    0.0157700000000000 C
   0.4054200000000000    0.2227900000000000    0.0644100000000000 C
   0.4148866666666666    0.3832000000000000    0.1198800000000000 C
   0.6439266666666666    0.1415900000000000    0.0244300000000000 C
   0.4961133333333333    0.4623200000000000    0.6359800000000000 C
   0.5297466666666666    0.4084800000000000    0.0575400000000000 C
   0.5426566666666667    0.3771300000000000    0.1384200000000000 C
   0.5788800000000000    0.2880600000000000    0.1298800000000000 C
   0.5900699999999999    0.2632500000000000    0.9568300000000000 C
   0.6030566666666666    0.2315300000000000    0.0380000000000000 C
   0.5528666666666666    0.3510000000000000    0.9660200000000000 C
   0.5321233333333333    0.3323300000000000    0.7409500000000000 C
   0.5454800000000000    0.3056300000000000    0.8204000000000000 C
   0.5030000000000000    0.5126300000000000    0.7818400000000000 C
   0.5169200000000000    0.4855900000000000    0.8607000000000000 C
   0.5106333333333333    0.4362300000000000    0.7207800000000000 C
   0.5383933333333333    0.3815200000000000    0.8816100000000000 C
   0.3659200000000000    0.8604500000000000    0.9743300000000000 C
   0.1962066666666667    0.5364300000000000    0.3599400000000000 C
   0.3526866666666666    0.5937400000000000    0.9385000000000000 C
   0.3821633333333333    0.6257500000000000    0.8581100000000000 C
   0.3855266666666666    0.7147700000000000    0.8676000000000000 C
   0.3302400000000000    0.7383900000000000    0.0405000000000000 C
   0.3598300000000000    0.7706600000000000    0.9598700000000000 C
   0.3257300000000000    0.6505700000000000    0.0304400000000000 C
   0.2234700000000000    0.6670800000000000    0.2553100000000000 C
   0.2543900000000000    0.6945400000000000    0.1759900000000000 C
   0.2687866666666666    0.4870900000000000    0.2133000000000000 C
   0.2999533333333333    0.5149100000000000    0.1346600000000000 C
   0.2302733333333333    0.5629700000000000    0.2748900000000000 C
   0.2933233333333333    0.6192000000000000    0.1144600000000000 C
   0.0693100000000000    0.4748900000000000    0.6402200000000000 C
   0.7914200000000000    0.8622400000000000    0.9636500000000000 C
   0.9666933333333333    0.4406500000000000    0.9081700000000000 C
   0.0068033333333333    0.3600400000000000    0.8765300000000000 C
   0.0400000000000000    0.3689900000000000    0.7871600000000000 C
   0.9928466666666667    0.5418600000000000    0.7625000000000000 C
   0.0331366666666667    0.4609500000000000    0.7305000000000000 C
   0.9588899999999999    0.5322800000000000    0.8507000000000000 C
   0.8623466666666666    0.7571700000000000    0.8334000000000000 C
   0.9023899999999999    0.6777200000000000    0.8062100000000000 C
   0.8473466666666666    0.7157200000000000    0.0134200000000000 C
   0.8877599999999999    0.6369500000000000    0.9858700000000000 C
   0.8342966666666666    0.7770700000000000    0.9373899999999999 C
   0.9160466666666667    0.6164200000000000    0.8817100000000000 C
   0.7742266666666666    0.5243700000000000    0.3591100000000000 C
   0.7329899999999999    0.1380900000000000    0.0380000000000000 C
   0.7481899999999999    0.5596600000000000    0.0940700000000000 C
   0.7505299999999999    0.6405200000000000    0.1257300000000000 C
   0.7573533333333333    0.6310900000000000    0.2142200000000000 C
   0.7606400000000000    0.4574600000000000    0.2380000000000000 C
   0.7630366666666666    0.5385300000000000    0.2698900000000000 C
   0.7524599999999999    0.4674500000000000    0.1507600000000000 C
   0.7255266666666667    0.2422200000000000    0.1683500000000000 C
   0.7299666666666667    0.3215200000000000    0.1954300000000000 C
   0.7566400000000000    0.2843800000000000    0.9883400000000000 C
   0.7615133333333333    0.3630700000000000    0.0157700000000000 C
   0.7387533333333333    0.2227900000000000    0.0644100000000000 C
   0.7482200000000000    0.3832000000000000    0.1198800000000000 C
   0.6992533333333333    0.8604500000000000    0.9743300000000000 C
   0.5295400000000000    0.5364300000000000    0.3599400000000000 C
   0.6860200000000000    0.5937400000000000    0.9385000000000000 C
   0.7154966666666667    0.6257500000000000    0.8581100000000000 C
   0.7188599999999999    0.7147700000000000    0.8676000000000000 C
   0.6635733333333333    0.7383900000000000    0.0405000000000000 C
   0.6931633333333334    0.7706600000000000    0.9598700000000000 C
   0.6590633333333333    0.6505700000000000    0.0304400000000000 C
   0.5568033333333333    0.6670800000000000    0.2553100000000000 C
   0.5877233333333334    0.6945400000000000    0.1759900000000000 C
   0.6021200000000000    0.4870900000000000    0.2133000000000000 C
   0.6332866666666666    0.5149100000000000    0.1346600000000000 C
   0.5636066666666666    0.5629700000000000    0.2748900000000000 C
   0.6266566666666666    0.6192000000000000    0.1144600000000000 C
   0.4026433333333333    0.4748900000000000    0.6402200000000000 C
   0.1247533333333333    0.8622400000000000    0.9636500000000000 C
   0.3000266666666667    0.4406500000000000    0.9081700000000000 C
   0.3401366666666666    0.3600400000000000    0.8765300000000000 C
   0.3733333333333333    0.3689900000000000    0.7871600000000000 C
   0.3261800000000000    0.5418600000000000    0.7625000000000000 C
   0.3664700000000000    0.4609500000000000    0.7305000000000000 C
   0.2922233333333333    0.5322800000000000    0.8507000000000000 C
   0.1956800000000000    0.7571700000000000    0.8334000000000000 C
   0.2357233333333333    0.6777200000000000    0.8062100000000000 C
   0.1806800000000000    0.7157200000000000    0.0134200000000000 C
   0.2210933333333333    0.6369500000000000    0.9858700000000000 C
   0.1676300000000000    0.7770700000000000    0.9373899999999999 C
   0.2493800000000000    0.6164200000000000    0.8817100000000000 C
   0.9832500000000000    1.0998299999999999    0.1053100000000000 O
   0.0999266666666667    0.6051500000000000    0.4003600000000000 O
   0.1253533333333333    0.4312500000000000    0.3855900000000000 O
   0.0701066666666667    0.1343000000000000    0.9464200000000000 O
   0.0571666666666667    0.0753200000000000    0.1110500000000000 O
   0.3165833333333333    0.0998300000000000    0.1053100000000000 O
   0.3373233333333333    0.1150100000000000    0.9314500000000000 O
   0.1357800000000000    0.5537900000000000    0.6319600000000000 O
   0.1782600000000000    0.3891200000000000    0.5734000000000000 O
   0.0519600000000000    0.9022500000000000    0.8938600000000000 O
   0.0189333333333333    0.8868600000000000    0.0675200000000000 O
   0.8651633333333333    0.4449300000000000    0.3640600000000000 O
   0.8329466666666666    0.6095500000000000    0.4227000000000000 O
   0.7691300000000000    0.3941200000000000    0.5984600000000000 O
   0.7313733333333333    0.5680200000000000    0.6133000000000000 O
   0.4296666666666666    0.8662700000000000    0.0549000000000000 O
   0.4527766666666666    0.9253000000000000    0.8905200000000000 O
   0.4332600000000000    0.6051500000000000    0.4003600000000000 O
   0.4586866666666666    0.4312500000000000    0.3855900000000000 O
   0.4034400000000000    0.1343000000000000    0.9464200000000000 O
   0.3905000000000000    0.0753200000000000    0.1110500000000000 O
   0.6499166666666667    0.0998300000000000    0.1053100000000000 O
   0.6706566666666667    0.1150100000000000    0.9314500000000000 O
   0.4691133333333333    0.5537900000000000    0.6319600000000000 O
   0.5115933333333333    0.3891200000000000    0.5734000000000000 O
   0.3852933333333333    0.9022500000000000    0.8938600000000000 O
   0.3522666666666667    0.8868600000000000    0.0675200000000000 O
   0.1984966666666667    0.4449300000000000    0.3640600000000000 O
   0.1662800000000000    0.6095500000000000    0.4227000000000000 O
   0.1024633333333333    0.3941200000000000    0.5984600000000000 O
   0.0647066666666667    0.5680200000000000    0.6133000000000000 O
   0.7629999999999999    0.8662700000000000    0.0549000000000000 O
   0.7861100000000000    0.9253000000000000    0.8905200000000000 O
   0.8024466666666666    0.5537900000000000    0.6319600000000000 O
   0.8449266666666666    0.3891200000000000    0.5734000000000000 O
   0.7665933333333332    0.6051500000000000    0.4003600000000000 O
   0.7920199999999999    0.4312500000000000    0.3855900000000000 O
   0.7367733333333333    0.1343000000000000    0.9464200000000000 O
   0.7238333333333333    0.0753200000000000    0.1110500000000000 O
   0.0039900000000000    0.1150100000000000    0.9314500000000000 O
   0.7186266666666666    0.9022500000000000    0.8938600000000000 O
   0.6856000000000000    0.8868600000000000    0.0675200000000000 O
   0.5318300000000000    0.4449300000000000    0.3640600000000000 O
   0.4996133333333333    0.6095500000000000    0.4227000000000000 O
   0.4357966666666666    0.3941200000000000    0.5984600000000000 O
   0.3980399999999999    0.5680200000000000    0.6133000000000000 O
   0.0963333333333333    0.8662700000000000    0.0549000000000000 O
   0.1194433333333333    0.9253000000000000    0.8905200000000000 O
