H4 C8 O4
1.0
  15.9788253233603097    0.0000000000000000    9.1274720095730419
   5.3123087516209866   15.0964615414181118    9.1158624746062813
   0.0000000000000000    0.0000000000000000   18.4119999999999990
H C O
4 8 4
direct
   0.9323800000000000    0.4503800000000000    0.9520000000000000 H
   0.1643300000000000    0.4531400000000000    0.9520600000000000 H
   0.0676300000000000    0.5496100000000000    0.0480100000000000 H
   0.8356700000000000    0.5468499999999999    0.0479400000000000 H
   0.1114400000000000    0.3887700000000000    0.8891900000000000 C
   0.0539100000000000    0.4461700000000000    0.9465200000000000 C
   0.9612300000000000    0.4725200000000000    0.9734100000000000 C
   0.0923400000000000    0.4740600000000000    0.9734200000000000 C
   0.8885700000000000    0.6112200000000000    0.1108200000000000 C
   0.9461000000000001    0.5538300000000000    0.0534900000000000 C
   0.0387700000000000    0.5274700000000000    0.0266000000000000 C
   0.9076700000000000    0.5259400000000000    0.0265900000000000 C
   0.1952500000000000    0.3671400000000000    0.8671300000000000 O
   0.0718900000000000    0.3661000000000000    0.8671000000000000 O
   0.8047600000000000    0.6328500000000000    0.1328800000000000 O
   0.9281199999999999    0.6338900000000000    0.1328600000000000 O
