H14 C18 N6
1.0
  31.6319459329918509    0.0000000000000000   -8.7223937507017091
  -0.0067970773843596   13.4629918537073205   -0.0131585238279604
   0.0000000000000000    0.0000000000000000   15.1300000000000008
H C N
14 18 6
direct
   0.5076300000000000    0.8390400000000000    0.6524100000000000 H
   0.4127166666666666    0.0572800000000000    0.5772200000000000 H
   0.4779200000000000    0.1327000000000000    0.7178300000000000 H
   0.5449266666666667    0.8445100000000000    0.8181400000000000 H
   0.6137866666666667    0.8628300000000000    0.9370900000000000 H
   0.6188233333333333    0.1708500000000000    0.8651000000000000 H
   0.5515666666666666    0.1518500000000000    0.7428100000000000 H
   0.8262699999999999    0.1609200000000000    0.3473500000000000 H
   0.9207733333333332    0.9417300000000000    0.4225700000000000 H
   0.8553266666666666    0.8665700000000000    0.2824300000000000 H
   0.7886900000000000    0.1551500000000000    0.1815900000000000 H
   0.7198233333333333    0.1370300000000000    0.0627300000000000 H
   0.7144566666666666    0.8292700000000000    0.1352400000000000 H
   0.7817266666666667    0.8481000000000000    0.2574400000000000 H
   0.4907733333333333    0.9086100000000000    0.6495800000000000 C
   0.4425933333333333    0.0238600000000000    0.6128300000000000 C
   0.4743466666666666    0.0623100000000000    0.6820800000000000 C
   0.5442166666666667    0.9973600000000000    0.7736300000000000 C
   0.5616966666666666    0.9152000000000000    0.8275100000000000 C
   0.5997900000000000    0.9253500000000000    0.8941200000000000 C
   0.6205366666666666    0.0180200000000000    0.9084500000000000 C
   0.6025966666666667    0.0994600000000000    0.8540100000000000 C
   0.5647533333333333    0.0892700000000000    0.7864500000000000 C
   0.8429833333333333    0.0911400000000000    0.3502400000000000 C
   0.8909466666666666    0.9754200000000000    0.3870300000000000 C
   0.8590633333333333    0.9370900000000000    0.3179800000000000 C
   0.7892733333333333    0.0024600000000000    0.2264200000000000 C
   0.7718499999999999    0.0845600000000000    0.1723800000000000 C
   0.7337366666666666    0.0745100000000000    0.1057900000000000 C
   0.7128633333333333    0.9819800000000000    0.0915800000000000 C
   0.7307500000000000    0.9005800000000000    0.1461800000000000 C
   0.7686100000000000    0.9106700000000000    0.2137300000000000 C
   0.4533233333333333    0.9285700000000000    0.5924600000000000 N
   0.5049866666666667    0.9884900000000000    0.7055100000000000 N
   0.6588866666666666    0.0375100000000000    0.9751800000000000 N
   0.8804399999999999    0.0709600000000000    0.4072700000000000 N
   0.8285533333333333    0.0112000000000000    0.2944900000000000 N
   0.6744766666666666    0.9625100000000000    0.0248800000000000 N
