H2 O2
1.0
  31.6319459329918509    0.0000000000000000   -8.7223937507017091
  -0.0067970773843596   13.4629918537073205   -0.0131585238279604
   0.0000000000000000    0.0000000000000000   15.1300000000000008
H O
2 2
direct
   0.8528559151223030    0.0858210883553953    0.3652715922245691 H
   0.4809070527631448    0.9138685036096386    0.6345316169247218 H
   0.8804399999999999    0.0709600000000000    0.4072700000000000 O
   0.4533233333333333    0.9285700000000000    0.5924600000000000 O
