H4 C9 O6
1.0
  33.7244532212568799    0.0000000000000000    5.0973337321835395
   2.1490496353520196    8.3114708881023294    3.6102029197706895
   0.0000000000000000    0.0000000000000000   30.5459999999999994
H C O
4 9 6
direct
   0.1499960000000000    0.7270000000000000    0.8512599999999999 H
   0.1512160000000000    0.0873000000000000    0.9200233333333333 H
   0.1449780000000000    0.1071900000000000    0.7776533333333333 H
   0.1555780000000000    0.5226300000000000    0.8005399999999999 H
   0.1525880000000000    0.3141400000000000    0.8636533333333333 C
   0.1499420000000000    0.3244500000000000    0.7835566666666667 C
   0.1508160000000000    0.1530300000000000    0.8817699999999999 C
   0.1484760000000000    0.9046000000000000    0.8700333333333332 C
   0.1474120000000000    0.1645400000000000    0.8017799999999999 C
   0.1540680000000000    0.3941800000000000    0.8973366666666667 C
   0.1492140000000000    0.4120000000000000    0.7309566666666666 C
   0.1531540000000000    0.3986500000000000    0.8144466666666667 C
   0.1488140000000000    0.0772200000000000    0.8508533333333332 C
   0.1551080000000000    0.5432100000000000    0.8804233333333333 O
   0.1226040000000000    0.4002600000000000    0.7080166666666666 O
   0.1487460000000000    0.8464900000000000    0.8365966666666667 O
   0.1753960000000000    0.4937000000000000    0.7094233333333333 O
   0.1482300000000000    0.8231400000000000    0.9134000000000000 O
   0.1539740000000000    0.3150300000000000    0.9416499999999999 O
