Ca30 H116 C261 O174
1.0
  33.7244532212568799    0.0000000000000000    5.0973337321835395
   2.1490496353520196    8.3114708881023294    3.6102029197706895
   0.0000000000000000    0.0000000000000000   30.5459999999999994
Ca H C O
30 116 261 174
direct
   0.1510720000000000    0.5448200000000000    0.2940266666666667 Ca
   0.0489500000000000    0.4551100000000000    0.0393066666666667 Ca
   0.3510720000000001    0.5448200000000000    0.2940266666666667 Ca
   0.2489500000000000    0.4551100000000000    0.0393066666666667 Ca
   0.5510720000000000    0.5448200000000000    0.2940266666666667 Ca
   0.4489500000000000    0.4551100000000000    0.0393066666666667 Ca
   0.7510720000000001    0.5448200000000000    0.2940266666666667 Ca
   0.6489500000000001    0.4551100000000000    0.0393066666666667 Ca
   0.9510720000000000    0.5448200000000000    0.2940266666666667 Ca
   0.8489500000000001    0.4551100000000000    0.0393066666666667 Ca
   0.1510720000000000    0.5448200000000000    0.6273599999999999 Ca
   0.0489500000000000    0.4551100000000000    0.3726400000000000 Ca
   0.3510720000000001    0.5448200000000000    0.6273599999999999 Ca
   0.2489500000000000    0.4551100000000000    0.3726400000000000 Ca
   0.5510720000000000    0.5448200000000000    0.6273599999999999 Ca
   0.4489500000000000    0.4551100000000000    0.3726400000000000 Ca
   0.7510720000000001    0.5448200000000000    0.6273599999999999 Ca
   0.6489500000000001    0.4551100000000000    0.3726400000000000 Ca
   0.9510720000000000    0.5448200000000000    0.6273599999999999 Ca
   0.8489500000000001    0.4551100000000000    0.3726400000000000 Ca
   0.1510720000000000    0.5448200000000000    0.9606933333333333 Ca
   0.0489500000000000    0.4551100000000000    0.7059733333333333 Ca
   0.3510720000000001    0.5448200000000000    0.9606933333333333 Ca
   0.2489500000000000    0.4551100000000000    0.7059733333333333 Ca
   0.5510720000000000    0.5448200000000000    0.9606933333333333 Ca
   0.4489500000000000    0.4551100000000000    0.7059733333333333 Ca
   0.7510720000000001    0.5448200000000000    0.9606933333333333 Ca
   0.6489500000000001    0.4551100000000000    0.7059733333333333 Ca
   0.9510720000000000    0.5448200000000000    0.9606933333333333 Ca
   0.8489500000000001    0.4551100000000000    0.7059733333333333 Ca
   0.0500280000000000    0.2729300000000000    0.1487400000000000 H
   0.0488100000000000    0.9126100000000000    0.0799766666666667 H
   0.0550500000000000    0.8927400000000000    0.2223433333333333 H
   0.0444440000000000    0.4772900000000000    0.1994633333333333 H
   0.1499960000000000    0.7270000000000000    0.1845933333333333 H
   0.1512160000000000    0.0873000000000000    0.2533566666666667 H
   0.1449780000000000    0.1071900000000000    0.1109866666666667 H
   0.1555780000000000    0.5226300000000000    0.1338733333333333 H
   0.2500280000000000    0.2729300000000000    0.1487400000000000 H
   0.2488100000000000    0.9126100000000000    0.0799766666666667 H
   0.2550500000000000    0.8927400000000000    0.2223433333333333 H
   0.2444440000000000    0.4772900000000000    0.1994633333333333 H
   0.3499960000000000    0.7270000000000000    0.1845933333333333 H
   0.3512160000000000    0.0873000000000000    0.2533566666666667 H
   0.3449780000000000    0.1071900000000000    0.1109866666666667 H
   0.3555780000000000    0.5226300000000000    0.1338733333333333 H
   0.4500280000000000    0.2729300000000000    0.1487400000000000 H
   0.4488100000000000    0.9126100000000000    0.0799766666666667 H
   0.4550500000000000    0.8927400000000000    0.2223433333333333 H
   0.4444440000000000    0.4772900000000000    0.1994633333333333 H
   0.5499960000000000    0.7270000000000000    0.1845933333333333 H
   0.5512160000000000    0.0873000000000000    0.2533566666666667 H
   0.5449780000000001    0.1071900000000000    0.1109866666666667 H
   0.5555780000000000    0.5226300000000000    0.1338733333333333 H
   0.6500280000000001    0.2729300000000000    0.1487400000000000 H
   0.6488100000000001    0.9126100000000000    0.0799766666666667 H
   0.6550500000000001    0.8927400000000000    0.2223433333333333 H
   0.6444440000000001    0.4772900000000000    0.1994633333333333 H
   0.7499960000000001    0.7270000000000000    0.1845933333333333 H
   0.7512160000000001    0.0873000000000000    0.2533566666666667 H
   0.7449780000000001    0.1071900000000000    0.1109866666666667 H
   0.7555780000000001    0.5226300000000000    0.1338733333333333 H
   0.8500280000000000    0.2729300000000000    0.1487400000000000 H
   0.8488100000000001    0.9126100000000000    0.0799766666666667 H
   0.8550500000000001    0.8927400000000000    0.2223433333333333 H
   0.8444440000000001    0.4772900000000000    0.1994633333333333 H
   0.9499960000000001    0.7270000000000000    0.1845933333333333 H
   0.9512160000000001    0.0873000000000000    0.2533566666666667 H
   0.9449780000000001    0.1071900000000000    0.1109866666666667 H
   0.9555780000000000    0.5226300000000000    0.1338733333333333 H
   0.0500280000000000    0.2729300000000000    0.4820733333333333 H
   0.0488100000000000    0.9126100000000000    0.4133100000000000 H
   0.0550500000000000    0.8927400000000000    0.5556766666666666 H
   0.0444440000000000    0.4772900000000000    0.5327966666666666 H
   0.1499960000000000    0.7270000000000000    0.5179266666666666 H
   0.1512160000000000    0.0873000000000000    0.5866899999999999 H
   0.1449780000000000    0.1071900000000000    0.4443199999999999 H
   0.1555780000000000    0.5226300000000000    0.4672066666666667 H
   0.2500280000000000    0.2729300000000000    0.4820733333333333 H
   0.2488100000000000    0.9126100000000000    0.4133100000000000 H
   0.2550500000000000    0.8927400000000000    0.5556766666666666 H
   0.2444440000000000    0.4772900000000000    0.5327966666666666 H
   0.3499960000000000    0.7270000000000000    0.5179266666666666 H
   0.3512160000000000    0.0873000000000000    0.5866899999999999 H
   0.3449780000000000    0.1071900000000000    0.4443199999999999 H
   0.3555780000000000    0.5226300000000000    0.4672066666666667 H
   0.4500280000000000    0.2729300000000000    0.4820733333333333 H
   0.4488100000000000    0.9126100000000000    0.4133100000000000 H
   0.4550500000000000    0.8927400000000000    0.5556766666666666 H
   0.4444440000000000    0.4772900000000000    0.5327966666666666 H
   0.5499960000000000    0.7270000000000000    0.5179266666666666 H
   0.5512160000000000    0.0873000000000000    0.5866899999999999 H
   0.5449780000000001    0.1071900000000000    0.4443199999999999 H
   0.5555780000000000    0.5226300000000000    0.4672066666666667 H
   0.6500280000000001    0.2729300000000000    0.4820733333333333 H
   0.6488100000000001    0.9126100000000000    0.4133100000000000 H
   0.6550500000000001    0.8927400000000000    0.5556766666666666 H
   0.6444440000000001    0.4772900000000000    0.5327966666666666 H
   0.7499960000000001    0.7270000000000000    0.5179266666666666 H
   0.7512160000000001    0.0873000000000000    0.5866899999999999 H
   0.7449780000000001    0.1071900000000000    0.4443199999999999 H
   0.7555780000000001    0.5226300000000000    0.4672066666666667 H
   0.8500280000000000    0.2729300000000000    0.4820733333333333 H
   0.8488100000000001    0.9126100000000000    0.4133100000000000 H
   0.8550500000000001    0.8927400000000000    0.5556766666666666 H
   0.8444440000000001    0.4772900000000000    0.5327966666666666 H
   0.9499960000000001    0.7270000000000000    0.5179266666666666 H
   0.9512160000000001    0.0873000000000000    0.5866899999999999 H
   0.9449780000000001    0.1071900000000000    0.4443199999999999 H
   0.9555780000000000    0.5226300000000000    0.4672066666666667 H
   0.0500280000000000    0.2729300000000000    0.8154066666666666 H
   0.0488100000000000    0.9126100000000000    0.7466433333333333 H
   0.0550500000000000    0.8927400000000000    0.8890100000000000 H
   0.0444440000000000    0.4772900000000000    0.8661300000000000 H
   0.2500280000000000    0.2729300000000000    0.8154066666666666 H
   0.2488100000000000    0.9126100000000000    0.7466433333333333 H
   0.2550500000000000    0.8927400000000000    0.8890100000000000 H
   0.2444440000000000    0.4772900000000000    0.8661300000000000 H
   0.3499960000000000    0.7270000000000000    0.8512599999999999 H
   0.3512160000000000    0.0873000000000000    0.9200233333333333 H
   0.3449780000000000    0.1071900000000000    0.7776533333333333 H
   0.3555780000000000    0.5226300000000000    0.8005399999999999 H
   0.4500280000000000    0.2729300000000000    0.8154066666666666 H
   0.4488100000000000    0.9126100000000000    0.7466433333333333 H
   0.4550500000000000    0.8927400000000000    0.8890100000000000 H
   0.4444440000000000    0.4772900000000000    0.8661300000000000 H
   0.5499960000000000    0.7270000000000000    0.8512599999999999 H
   0.5512160000000000    0.0873000000000000    0.9200233333333333 H
   0.5449780000000001    0.1071900000000000    0.7776533333333333 H
   0.5555780000000000    0.5226300000000000    0.8005399999999999 H
   0.6500280000000001    0.2729300000000000    0.8154066666666666 H
   0.6488100000000001    0.9126100000000000    0.7466433333333333 H
   0.6550500000000001    0.8927400000000000    0.8890100000000000 H
   0.6444440000000001    0.4772900000000000    0.8661300000000000 H
   0.7499960000000001    0.7270000000000000    0.8512599999999999 H
   0.7512160000000001    0.0873000000000000    0.9200233333333333 H
   0.7449780000000001    0.1071900000000000    0.7776533333333333 H
   0.7555780000000001    0.5226300000000000    0.8005399999999999 H
   0.8500280000000000    0.2729300000000000    0.8154066666666666 H
   0.8488100000000001    0.9126100000000000    0.7466433333333333 H
   0.8550500000000001    0.8927400000000000    0.8890100000000000 H
   0.8444440000000001    0.4772900000000000    0.8661300000000000 H
   0.9499960000000001    0.7270000000000000    0.8512599999999999 H
   0.9512160000000001    0.0873000000000000    0.9200233333333333 H
   0.9449780000000001    0.1071900000000000    0.7776533333333333 H
   0.9555780000000000    0.5226300000000000    0.8005399999999999 H
   0.0474400000000000    0.6857700000000000    0.1363500000000000 C
   0.0500900000000000    0.6754599999999999    0.2164433333333333 C
   0.0492120000000000    0.8468900000000000    0.1182300000000000 C
   0.0515560000000000    0.0953100000000000    0.1299633333333333 C
   0.0526180000000000    0.8353800000000000    0.1982200000000000 C
   0.0459500000000000    0.6057500000000000    0.1026666666666667 C
   0.0508140000000000    0.5879200000000000    0.2690466666666667 C
   0.0468720000000000    0.6012700000000000    0.1855566666666666 C
   0.0512160000000000    0.9227000000000000    0.1491433333333333 C
   0.1525880000000000    0.3141400000000000    0.1969866666666667 C
   0.1499420000000000    0.3244500000000000    0.1168900000000000 C
   0.1508160000000000    0.1530300000000000    0.2151033333333333 C
   0.1484760000000000    0.9046000000000000    0.2033666666666666 C
   0.1474120000000000    0.1645400000000000    0.1351133333333333 C
   0.1540680000000000    0.3941800000000000    0.2306700000000000 C
   0.1492140000000000    0.4120000000000000    0.0642900000000000 C
   0.1531540000000000    0.3986500000000000    0.1477800000000000 C
   0.1488140000000000    0.0772200000000000    0.1841866666666667 C
   0.2474400000000000    0.6857700000000000    0.1363500000000000 C
   0.2500900000000000    0.6754599999999999    0.2164433333333333 C
   0.2492120000000000    0.8468900000000000    0.1182300000000000 C
   0.2515560000000000    0.0953100000000000    0.1299633333333333 C
   0.2526180000000000    0.8353800000000000    0.1982200000000000 C
   0.2459500000000000    0.6057500000000000    0.1026666666666667 C
   0.2508140000000000    0.5879200000000000    0.2690466666666667 C
   0.2468720000000000    0.6012700000000000    0.1855566666666666 C
   0.2512160000000000    0.9227000000000000    0.1491433333333333 C
   0.3525880000000000    0.3141400000000000    0.1969866666666667 C
   0.3499420000000000    0.3244500000000000    0.1168900000000000 C
   0.3508160000000000    0.1530300000000000    0.2151033333333333 C
   0.3484760000000000    0.9046000000000000    0.2033666666666666 C
   0.3474120000000001    0.1645400000000000    0.1351133333333333 C
   0.3540680000000000    0.3941800000000000    0.2306700000000000 C
   0.3492140000000000    0.4120000000000000    0.0642900000000000 C
   0.3531540000000000    0.3986500000000000    0.1477800000000000 C
   0.3488140000000000    0.0772200000000000    0.1841866666666667 C
   0.4474400000000000    0.6857700000000000    0.1363500000000000 C
   0.4500900000000000    0.6754599999999999    0.2164433333333333 C
   0.4492120000000001    0.8468900000000000    0.1182300000000000 C
   0.4515560000000000    0.0953100000000000    0.1299633333333333 C
   0.4526180000000000    0.8353800000000000    0.1982200000000000 C
   0.4459500000000000    0.6057500000000000    0.1026666666666667 C
   0.4508140000000000    0.5879200000000000    0.2690466666666667 C
   0.4468720000000000    0.6012700000000000    0.1855566666666666 C
   0.4512160000000000    0.9227000000000000    0.1491433333333333 C
   0.5525880000000001    0.3141400000000000    0.1969866666666667 C
   0.5499420000000000    0.3244500000000000    0.1168900000000000 C
   0.5508160000000000    0.1530300000000000    0.2151033333333333 C
   0.5484760000000001    0.9046000000000000    0.2033666666666666 C
   0.5474120000000000    0.1645400000000000    0.1351133333333333 C
   0.5540680000000000    0.3941800000000000    0.2306700000000000 C
   0.5492140000000001    0.4120000000000000    0.0642900000000000 C
   0.5531540000000000    0.3986500000000000    0.1477800000000000 C
   0.5488140000000000    0.0772200000000000    0.1841866666666667 C
   0.6474400000000001    0.6857700000000000    0.1363500000000000 C
   0.6500900000000001    0.6754599999999999    0.2164433333333333 C
   0.6492120000000001    0.8468900000000000    0.1182300000000000 C
   0.6515560000000001    0.0953100000000000    0.1299633333333333 C
   0.6526180000000001    0.8353800000000000    0.1982200000000000 C
   0.6459500000000001    0.6057500000000000    0.1026666666666667 C
   0.6508140000000001    0.5879200000000000    0.2690466666666667 C
   0.6468720000000001    0.6012700000000000    0.1855566666666666 C
   0.6512160000000001    0.9227000000000000    0.1491433333333333 C
   0.7525880000000000    0.3141400000000000    0.1969866666666667 C
   0.7499420000000001    0.3244500000000000    0.1168900000000000 C
   0.7508160000000001    0.1530300000000000    0.2151033333333333 C
   0.7484760000000001    0.9046000000000000    0.2033666666666666 C
   0.7474120000000001    0.1645400000000000    0.1351133333333333 C
   0.7540680000000001    0.3941800000000000    0.2306700000000000 C
   0.7492140000000000    0.4120000000000000    0.0642900000000000 C
   0.7531540000000001    0.3986500000000000    0.1477800000000000 C
   0.7488140000000001    0.0772200000000000    0.1841866666666667 C
   0.8474400000000001    0.6857700000000000    0.1363500000000000 C
   0.8500900000000000    0.6754599999999999    0.2164433333333333 C
   0.8492120000000001    0.8468900000000000    0.1182300000000000 C
   0.8515560000000001    0.0953100000000000    0.1299633333333333 C
   0.8526180000000001    0.8353800000000000    0.1982200000000000 C
   0.8459500000000001    0.6057500000000000    0.1026666666666667 C
   0.8508140000000001    0.5879200000000000    0.2690466666666667 C
   0.8468720000000001    0.6012700000000000    0.1855566666666666 C
   0.8512160000000001    0.9227000000000000    0.1491433333333333 C
   0.9525880000000000    0.3141400000000000    0.1969866666666667 C
   0.9499420000000001    0.3244500000000000    0.1168900000000000 C
   0.9508160000000001    0.1530300000000000    0.2151033333333333 C
   0.9484760000000001    0.9046000000000000    0.2033666666666666 C
   0.9474120000000000    0.1645400000000000    0.1351133333333333 C
   0.9540680000000000    0.3941800000000000    0.2306700000000000 C
   0.9492140000000000    0.4120000000000000    0.0642900000000000 C
   0.9531540000000001    0.3986500000000000    0.1477800000000000 C
   0.9488140000000000    0.0772200000000000    0.1841866666666667 C
   0.0474400000000000    0.6857700000000000    0.4696833333333333 C
   0.0500900000000000    0.6754599999999999    0.5497766666666666 C
   0.0492120000000000    0.8468900000000000    0.4515633333333333 C
   0.0515560000000000    0.0953100000000000    0.4632966666666666 C
   0.0526180000000000    0.8353800000000000    0.5315533333333333 C
   0.0459500000000000    0.6057500000000000    0.4359999999999999 C
   0.0508140000000000    0.5879200000000000    0.6023799999999999 C
   0.0468720000000000    0.6012700000000000    0.5188900000000000 C
   0.0512160000000000    0.9227000000000000    0.4824766666666667 C
   0.1525880000000000    0.3141400000000000    0.5303200000000000 C
   0.1499420000000000    0.3244500000000000    0.4502233333333333 C
   0.1508160000000000    0.1530300000000000    0.5484366666666667 C
   0.1484760000000000    0.9046000000000000    0.5367000000000000 C
   0.1474120000000000    0.1645400000000000    0.4684466666666666 C
   0.1540680000000000    0.3941800000000000    0.5640033333333333 C
   0.1492140000000000    0.4120000000000000    0.3976233333333333 C
   0.1531540000000000    0.3986500000000000    0.4811133333333333 C
   0.1488140000000000    0.0772200000000000    0.5175200000000000 C
   0.2474400000000000    0.6857700000000000    0.4696833333333333 C
   0.2500900000000000    0.6754599999999999    0.5497766666666666 C
   0.2492120000000000    0.8468900000000000    0.4515633333333333 C
   0.2515560000000000    0.0953100000000000    0.4632966666666666 C
   0.2526180000000000    0.8353800000000000    0.5315533333333333 C
   0.2459500000000000    0.6057500000000000    0.4359999999999999 C
   0.2508140000000000    0.5879200000000000    0.6023799999999999 C
   0.2468720000000000    0.6012700000000000    0.5188900000000000 C
   0.2512160000000000    0.9227000000000000    0.4824766666666667 C
   0.3525880000000000    0.3141400000000000    0.5303200000000000 C
   0.3499420000000000    0.3244500000000000    0.4502233333333333 C
   0.3508160000000000    0.1530300000000000    0.5484366666666667 C
   0.3484760000000000    0.9046000000000000    0.5367000000000000 C
   0.3474120000000001    0.1645400000000000    0.4684466666666666 C
   0.3540680000000000    0.3941800000000000    0.5640033333333333 C
   0.3492140000000000    0.4120000000000000    0.3976233333333333 C
   0.3531540000000000    0.3986500000000000    0.4811133333333333 C
   0.3488140000000000    0.0772200000000000    0.5175200000000000 C
   0.4474400000000000    0.6857700000000000    0.4696833333333333 C
   0.4500900000000000    0.6754599999999999    0.5497766666666666 C
   0.4492120000000001    0.8468900000000000    0.4515633333333333 C
   0.4515560000000000    0.0953100000000000    0.4632966666666666 C
   0.4526180000000000    0.8353800000000000    0.5315533333333333 C
   0.4459500000000000    0.6057500000000000    0.4359999999999999 C
   0.4508140000000000    0.5879200000000000    0.6023799999999999 C
   0.4468720000000000    0.6012700000000000    0.5188900000000000 C
   0.4512160000000000    0.9227000000000000    0.4824766666666667 C
   0.5525880000000001    0.3141400000000000    0.5303200000000000 C
   0.5499420000000000    0.3244500000000000    0.4502233333333333 C
   0.5508160000000000    0.1530300000000000    0.5484366666666667 C
   0.5484760000000001    0.9046000000000000    0.5367000000000000 C
   0.5474120000000000    0.1645400000000000    0.4684466666666666 C
   0.5540680000000000    0.3941800000000000    0.5640033333333333 C
   0.5492140000000001    0.4120000000000000    0.3976233333333333 C
   0.5531540000000000    0.3986500000000000    0.4811133333333333 C
   0.5488140000000000    0.0772200000000000    0.5175200000000000 C
   0.6474400000000001    0.6857700000000000    0.4696833333333333 C
   0.6500900000000001    0.6754599999999999    0.5497766666666666 C
   0.6492120000000001    0.8468900000000000    0.4515633333333333 C
   0.6515560000000001    0.0953100000000000    0.4632966666666666 C
   0.6526180000000001    0.8353800000000000    0.5315533333333333 C
   0.6459500000000001    0.6057500000000000    0.4359999999999999 C
   0.6508140000000001    0.5879200000000000    0.6023799999999999 C
   0.6468720000000001    0.6012700000000000    0.5188900000000000 C
   0.6512160000000001    0.9227000000000000    0.4824766666666667 C
   0.7525880000000000    0.3141400000000000    0.5303200000000000 C
   0.7499420000000001    0.3244500000000000    0.4502233333333333 C
   0.7508160000000001    0.1530300000000000    0.5484366666666667 C
   0.7484760000000001    0.9046000000000000    0.5367000000000000 C
   0.7474120000000001    0.1645400000000000    0.4684466666666666 C
   0.7540680000000001    0.3941800000000000    0.5640033333333333 C
   0.7492140000000000    0.4120000000000000    0.3976233333333333 C
   0.7531540000000001    0.3986500000000000    0.4811133333333333 C
   0.7488140000000001    0.0772200000000000    0.5175200000000000 C
   0.8474400000000001    0.6857700000000000    0.4696833333333333 C
   0.8500900000000000    0.6754599999999999    0.5497766666666666 C
   0.8492120000000001    0.8468900000000000    0.4515633333333333 C
   0.8515560000000001    0.0953100000000000    0.4632966666666666 C
   0.8526180000000001    0.8353800000000000    0.5315533333333333 C
   0.8459500000000001    0.6057500000000000    0.4359999999999999 C
   0.8508140000000001    0.5879200000000000    0.6023799999999999 C
   0.8468720000000001    0.6012700000000000    0.5188900000000000 C
   0.8512160000000001    0.9227000000000000    0.4824766666666667 C
   0.9525880000000000    0.3141400000000000    0.5303200000000000 C
   0.9499420000000001    0.3244500000000000    0.4502233333333333 C
   0.9508160000000001    0.1530300000000000    0.5484366666666667 C
   0.9484760000000001    0.9046000000000000    0.5367000000000000 C
   0.9474120000000000    0.1645400000000000    0.4684466666666666 C
   0.9540680000000000    0.3941800000000000    0.5640033333333333 C
   0.9492140000000000    0.4120000000000000    0.3976233333333333 C
   0.9531540000000001    0.3986500000000000    0.4811133333333333 C
   0.9488140000000000    0.0772200000000000    0.5175200000000000 C
   0.0474400000000000    0.6857700000000000    0.8030166666666666 C
   0.0500900000000000    0.6754599999999999    0.8831100000000000 C
   0.0492120000000000    0.8468900000000000    0.7848966666666666 C
   0.0515560000000000    0.0953100000000000    0.7966299999999999 C
   0.0526180000000000    0.8353800000000000    0.8648866666666666 C
   0.0459500000000000    0.6057500000000000    0.7693333333333333 C
   0.0508140000000000    0.5879200000000000    0.9357133333333333 C
   0.0468720000000000    0.6012700000000000    0.8522233333333333 C
   0.0512160000000000    0.9227000000000000    0.8158099999999999 C
   0.2474400000000000    0.6857700000000000    0.8030166666666666 C
   0.2500900000000000    0.6754599999999999    0.8831100000000000 C
   0.2492120000000000    0.8468900000000000    0.7848966666666666 C
   0.2515560000000000    0.0953100000000000    0.7966299999999999 C
   0.2526180000000000    0.8353800000000000    0.8648866666666666 C
   0.2459500000000000    0.6057500000000000    0.7693333333333333 C
   0.2508140000000000    0.5879200000000000    0.9357133333333333 C
   0.2468720000000000    0.6012700000000000    0.8522233333333333 C
   0.2512160000000000    0.9227000000000000    0.8158099999999999 C
   0.3525880000000000    0.3141400000000000    0.8636533333333333 C
   0.3499420000000000    0.3244500000000000    0.7835566666666667 C
   0.3508160000000000    0.1530300000000000    0.8817699999999999 C
   0.3484760000000000    0.9046000000000000    0.8700333333333332 C
   0.3474120000000001    0.1645400000000000    0.8017799999999999 C
   0.3540680000000000    0.3941800000000000    0.8973366666666667 C
   0.3492140000000000    0.4120000000000000    0.7309566666666666 C
   0.3531540000000000    0.3986500000000000    0.8144466666666667 C
   0.3488140000000000    0.0772200000000000    0.8508533333333332 C
   0.4474400000000000    0.6857700000000000    0.8030166666666666 C
   0.4500900000000000    0.6754599999999999    0.8831100000000000 C
   0.4492120000000001    0.8468900000000000    0.7848966666666666 C
   0.4515560000000000    0.0953100000000000    0.7966299999999999 C
   0.4526180000000000    0.8353800000000000    0.8648866666666666 C
   0.4459500000000000    0.6057500000000000    0.7693333333333333 C
   0.4508140000000000    0.5879200000000000    0.9357133333333333 C
   0.4468720000000000    0.6012700000000000    0.8522233333333333 C
   0.4512160000000000    0.9227000000000000    0.8158099999999999 C
   0.5525880000000001    0.3141400000000000    0.8636533333333333 C
   0.5499420000000000    0.3244500000000000    0.7835566666666667 C
   0.5508160000000000    0.1530300000000000    0.8817699999999999 C
   0.5484760000000001    0.9046000000000000    0.8700333333333332 C
   0.5474120000000000    0.1645400000000000    0.8017799999999999 C
   0.5540680000000000    0.3941800000000000    0.8973366666666667 C
   0.5492140000000001    0.4120000000000000    0.7309566666666666 C
   0.5531540000000000    0.3986500000000000    0.8144466666666667 C
   0.5488140000000000    0.0772200000000000    0.8508533333333332 C
   0.6474400000000001    0.6857700000000000    0.8030166666666666 C
   0.6500900000000001    0.6754599999999999    0.8831100000000000 C
   0.6492120000000001    0.8468900000000000    0.7848966666666666 C
   0.6515560000000001    0.0953100000000000    0.7966299999999999 C
   0.6526180000000001    0.8353800000000000    0.8648866666666666 C
   0.6459500000000001    0.6057500000000000    0.7693333333333333 C
   0.6508140000000001    0.5879200000000000    0.9357133333333333 C
   0.6468720000000001    0.6012700000000000    0.8522233333333333 C
   0.6512160000000001    0.9227000000000000    0.8158099999999999 C
   0.7525880000000000    0.3141400000000000    0.8636533333333333 C
   0.7499420000000001    0.3244500000000000    0.7835566666666667 C
   0.7508160000000001    0.1530300000000000    0.8817699999999999 C
   0.7484760000000001    0.9046000000000000    0.8700333333333332 C
   0.7474120000000001    0.1645400000000000    0.8017799999999999 C
   0.7540680000000001    0.3941800000000000    0.8973366666666667 C
   0.7492140000000000    0.4120000000000000    0.7309566666666666 C
   0.7531540000000001    0.3986500000000000    0.8144466666666667 C
   0.7488140000000001    0.0772200000000000    0.8508533333333332 C
   0.8474400000000001    0.6857700000000000    0.8030166666666666 C
   0.8500900000000000    0.6754599999999999    0.8831100000000000 C
   0.8492120000000001    0.8468900000000000    0.7848966666666666 C
   0.8515560000000001    0.0953100000000000    0.7966299999999999 C
   0.8526180000000001    0.8353800000000000    0.8648866666666666 C
   0.8459500000000001    0.6057500000000000    0.7693333333333333 C
   0.8508140000000001    0.5879200000000000    0.9357133333333333 C
   0.8468720000000001    0.6012700000000000    0.8522233333333333 C
   0.8512160000000001    0.9227000000000000    0.8158099999999999 C
   0.9525880000000000    0.3141400000000000    0.8636533333333333 C
   0.9499420000000001    0.3244500000000000    0.7835566666666667 C
   0.9508160000000001    0.1530300000000000    0.8817699999999999 C
   0.9484760000000001    0.9046000000000000    0.8700333333333332 C
   0.9474120000000000    0.1645400000000000    0.8017799999999999 C
   0.9540680000000000    0.3941800000000000    0.8973366666666667 C
   0.9492140000000000    0.4120000000000000    0.7309566666666666 C
   0.9531540000000001    0.3986500000000000    0.8144466666666667 C
   0.9488140000000000    0.0772200000000000    0.8508533333333332 C
   0.0449080000000000    0.4567200000000000    0.1195800000000000 O
   0.0774200000000000    0.5996800000000000    0.2919866666666666 O
   0.0512800000000000    0.1534300000000000    0.1634033333333333 O
   0.0246240000000000    0.5062500000000000    0.2905799999999999 O
   0.0517920000000000    0.1767800000000000    0.0865966666666667 O
   0.0460400000000000    0.6849000000000000    0.0583533333333333 O
   0.1551080000000000    0.5432100000000000    0.2137566666666667 O
   0.1226040000000000    0.4002600000000000    0.0413500000000000 O
   0.1487460000000000    0.8464900000000000    0.1699300000000000 O
   0.1753960000000000    0.4937000000000000    0.0427566666666667 O
   0.1482300000000000    0.8231400000000000    0.2467333333333333 O
   0.1539740000000000    0.3150300000000000    0.2749833333333333 O
   0.2449080000000000    0.4567200000000000    0.1195800000000000 O
   0.2774200000000000    0.5996800000000000    0.2919866666666666 O
   0.2512800000000000    0.1534300000000000    0.1634033333333333 O
   0.2246240000000000    0.5062500000000000    0.2905799999999999 O
   0.2517920000000000    0.1767800000000000    0.0865966666666667 O
   0.2460400000000000    0.6849000000000000    0.0583533333333333 O
   0.3551080000000000    0.5432100000000000    0.2137566666666667 O
   0.3226040000000000    0.4002600000000000    0.0413500000000000 O
   0.3487460000000000    0.8464900000000000    0.1699300000000000 O
   0.3753960000000000    0.4937000000000000    0.0427566666666667 O
   0.3482300000000000    0.8231400000000000    0.2467333333333333 O
   0.3539740000000000    0.3150300000000000    0.2749833333333333 O
   0.4449080000000000    0.4567200000000000    0.1195800000000000 O
   0.4774200000000000    0.5996800000000000    0.2919866666666666 O
   0.4512800000000000    0.1534300000000000    0.1634033333333333 O
   0.4246240000000000    0.5062500000000000    0.2905799999999999 O
   0.4517920000000000    0.1767800000000000    0.0865966666666667 O
   0.4460400000000000    0.6849000000000000    0.0583533333333333 O