H8 C10 N2
1.0
  13.8392662198618019    0.0000000000000000   -1.5518332693276238
  -2.5225593408022822   13.1525560820598404   -6.8753093661595965
   0.0000000000000000    0.0000000000000000   15.0410000000000004
H C N
8 10 2
direct
   0.9942200000000000    0.4008700000000000    0.5418900000000000 H
   0.0211600000000000    0.3434500000000000    0.7868000000000001 H
   0.1692200000000000    0.3893100000000000    0.5252000000000000 H
   0.1979700000000000    0.3294200000000000    0.7812000000000000 H
   0.5068000000000000    0.4580600000000000    0.5997600000000000 H
   0.4776700000000000    0.2128400000000000    0.6566400000000000 H
   0.3318900000000000    0.4751300000000000    0.6113499999999999 H
   0.3008500000000000    0.2187500000000000    0.6706100000000000 H
   0.0424700000000000    0.3852700000000000    0.5930299999999999 C
   0.1981800000000000    0.3568700000000000    0.6513000000000000 C
   0.0572700000000000    0.3518100000000000    0.7297300000000000 C
   0.1398200000000000    0.3789400000000000    0.5846400000000000 C
   0.1551000000000000    0.3435600000000000    0.7255100000000000 C
   0.4580700000000000    0.4069500000000000    0.6152300000000001 C
   0.3017800000000000    0.3488300000000000    0.6434500000000000 C
   0.4420600000000000    0.2701100000000000    0.6483800000000000 C
   0.3607800000000000    0.4155600000000000    0.6215800000000000 C
   0.3442200000000000    0.2745100000000000    0.6565900000000000 C
   0.0015400000000000    0.3718300000000000    0.6641800000000000 N
   0.4984100000000000    0.3356500000000000    0.6285500000000001 N
