H4 C6 N5
1.0
  34.2929997440669894    0.0000000000000000   -0.0041896803122844
  -0.5371199749708176   10.6029040525770064   -0.0001852928800298
   0.0000000000000000    0.0000000000000000   32.3900000000000006
H C N
4 6 5
direct
   0.5684083333333333    0.6964800000000000    0.7140050000000000 H
   0.5367816666666667    0.8290900000000000    0.6612100000000000 H
   0.6230500000000000    0.7137300000000000    0.5738000000000000 H
   0.6504850000000000    0.5828400000000000    0.6296550000000000 H
   0.5796600000000000    0.7030800000000000    0.6825400000000000 C
   0.5622466666666667    0.7769300000000000    0.6532200000000000 C
   0.5772816666666667    0.7822700000000000    0.6128100000000000 C
   0.6100283333333334    0.7124900000000000    0.6044150000000000 C
   0.6255016666666666    0.6399100000000000    0.6354950000000000 C
   0.5573933333333333    0.8516600000000000    0.5809050000000000 C
   0.6107233333333333    0.6332500000000000    0.6742049999999999 N
   0.5725133333333333    0.8915100000000000    0.5440700000000001 N
   0.5421783333333333    0.9401100000000000    0.5237600000000000 N
   0.5103533333333333    0.9304900000000000    0.5481650000000000 N
   0.5193733333333334    0.8767700000000000    0.5841499999999999 N
