H7 O4
1.0
  34.2929997440669894    0.0000000000000000   -0.0041896803122844
  -0.5371199749708176   10.6029040525770064   -0.0001852928800298
   0.0000000000000000    0.0000000000000000   32.3900000000000006
H O
7 4
direct
   0.5334675550117352    0.9374769226251760    0.5304398600137817 H
   0.5190641116549315    0.9331230773748240    0.5414851399862183 H
   0.5640900939523599    0.9050049541425849    0.5384304420033766 H
   0.5540442177729363    0.8623978945136507    0.5227476162551951 H
   0.5616330616227018    0.8628341516092151    0.5705762704008673 H
   0.5169373400772516    0.8912779332280171    0.5744316832239353 H
   0.6214123207764299    0.6380670964049412    0.6462065312559646 H
   0.5421783333333333    0.9401100000000000    0.5237600000000000 O
   0.5103533333333333    0.9304900000000000    0.5481650000000000 O
   0.5725133333333333    0.8915100000000000    0.5440700000000001 O
   0.6107233333333333    0.6332500000000000    0.6742049999999999 O
