Al96 P95 H3 O382
1.0
  19.0456390124803470    0.0000000000000000    5.4022998441669872
   1.1586078474277088   19.0120282164979635    5.4074403326309755
   0.0000000000000000    0.0000000000000000   30.8359999999999985
Al P H O
96 95 3 382
direct
   0.4019700000000000    0.5167900000000000    0.8334800000000000 Al
   0.3167800000000000    0.4404100000000000    0.0406900000000000 Al
   0.4682600000000000    0.1587700000000000    0.0628550000000000 Al
   0.5980500000000000    0.9832000000000000    0.1665200000000000 Al
   0.6832300000000000    0.0595900000000000    0.9593149999999999 Al
   0.5317499999999999    0.3412200000000000    0.9371499999999999 Al
   0.4019700000000000    0.5167900000000000    0.3334800000000000 Al
   0.3167800000000000    0.4404100000000000    0.5406900000000000 Al
   0.4682600000000000    0.1587700000000000    0.5628550000000000 Al
   0.5980500000000000    0.9832000000000000    0.6665200000000000 Al
   0.6832300000000000    0.0595900000000000    0.4593150000000000 Al
   0.5317499999999999    0.3412200000000000    0.4371500000000000 Al
   0.4832300000000000    0.0980500000000000    0.9165050000000000 Al
   0.5596000000000000    0.1832300000000000    0.7092900000000000 Al
   0.8412300000000000    0.0317300000000000    0.6871300000000000 Al
   0.5167800000000000    0.4019500000000000    0.0835000000000000 Al
   0.4404200000000000    0.3167700000000000    0.2907000000000000 Al
   0.1587800000000000    0.4682600000000000    0.3128700000000000 Al
   0.9832400000000000    0.5980500000000000    0.4165050000000000 Al
   0.0596000000000000    0.6832300000000000    0.2092900000000000 Al
   0.3412300000000000    0.5317300000000000    0.1871300000000000 Al
   0.0167800000000000    0.9019400000000000    0.5835000000000000 Al
   0.9404200000000000    0.8167600000000000    0.7907000000000000 Al
   0.6587800000000000    0.9682600000000000    0.8128700000000000 Al
   0.9019700000000000    0.0167900000000000    0.3334800000000000 Al
   0.8167800000000000    0.9404000000000000    0.5406900000000000 Al
   0.9682700000000000    0.6587700000000000    0.5628550000000000 Al
   0.0980500000000000    0.4832000000000000    0.6665200000000000 Al
   0.1832300000000000    0.5595800000000000    0.4593150000000000 Al
   0.0317500000000000    0.8412200000000000    0.4371500000000000 Al
   0.4832300000000000    0.0980500000000000    0.4165050000000000 Al
   0.5596000000000000    0.1832300000000000    0.2092900000000000 Al
   0.8412300000000000    0.0317300000000000    0.1871300000000000 Al
   0.5167800000000000    0.4019500000000000    0.5835000000000000 Al
   0.4404200000000000    0.3167700000000000    0.7907000000000000 Al
   0.1587800000000000    0.4682600000000000    0.8128700000000000 Al
   0.9832400000000000    0.5980500000000000    0.9165050000000000 Al
   0.0596000000000000    0.6832300000000000    0.7092900000000000 Al
   0.3412300000000000    0.5317300000000000    0.6871300000000000 Al
   0.0167800000000000    0.9019400000000000    0.0835000000000000 Al
   0.9404200000000000    0.8167600000000000    0.2907000000000000 Al
   0.6587800000000000    0.9682600000000000    0.3128700000000000 Al
   0.9019700000000000    0.0167900000000000    0.8334800000000000 Al
   0.8167800000000000    0.9404000000000000    0.0406900000000000 Al
   0.9682700000000000    0.6587700000000000    0.0628550000000000 Al
   0.0980500000000000    0.4832000000000000    0.1665200000000000 Al
   0.1832300000000000    0.5595800000000000    0.9593149999999999 Al
   0.0317500000000000    0.8412200000000000    0.9371499999999999 Al
   0.3412300000000000    0.0317300000000000    0.1871300000000000 Al
   0.0595900000000000    0.1832300000000000    0.2092900000000000 Al
   0.0167700000000000    0.4019500000000000    0.5835000000000000 Al
   0.9404200000000000    0.3167700000000000    0.7907000000000000 Al
   0.6587800000000000    0.4682600000000000    0.8128700000000000 Al
   0.4832400000000000    0.5980500000000000    0.9165050000000000 Al
   0.5596000000000000    0.6832300000000000    0.7092900000000000 Al
   0.8412400000000000    0.5317300000000000    0.6871300000000000 Al
   0.5167800000000000    0.9019400000000000    0.0835000000000000 Al
   0.4404200000000000    0.8167600000000000    0.2907000000000000 Al
   0.1587800000000000    0.9682600000000000    0.3128700000000000 Al
   0.5980500000000000    0.4832000000000000    0.1665200000000000 Al
   0.6832400000000000    0.5595800000000000    0.9593149999999999 Al
   0.5317499999999999    0.8412200000000000    0.9371499999999999 Al
   0.4019600000000000    0.0167900000000000    0.8334800000000000 Al
   0.3167800000000000    0.9404000000000000    0.0406900000000000 Al
   0.4682600000000000    0.6587700000000000    0.0628550000000000 Al
   0.0980500000000000    0.9832000000000000    0.6665200000000000 Al
   0.0317500000000000    0.3412200000000000    0.4371500000000000 Al
   0.1832300000000000    0.0595900000000000    0.4593150000000000 Al
   0.9019700000000000    0.5167900000000000    0.3334800000000000 Al
   0.8167800000000000    0.4404100000000000    0.5406900000000000 Al
   0.9682700000000000    0.1587700000000000    0.5628550000000000 Al
   0.9832400000000000    0.0980500000000000    0.4165050000000000 Al
   0.0167700000000000    0.4019500000000000    0.0835000000000000 Al
   0.9404200000000000    0.3167700000000000    0.2907000000000000 Al
   0.6587800000000000    0.4682600000000000    0.3128700000000000 Al
   0.4832400000000000    0.5980500000000000    0.4165050000000000 Al
   0.5596000000000000    0.6832300000000000    0.2092900000000000 Al
   0.8412400000000000    0.5317300000000000    0.1871300000000000 Al
   0.5167800000000000    0.9019400000000000    0.5835000000000000 Al
   0.4404200000000000    0.8167600000000000    0.7907000000000000 Al
   0.1587800000000000    0.9682600000000000    0.8128700000000000 Al
   0.5980500000000000    0.4832000000000000    0.6665200000000000 Al
   0.6832400000000000    0.5595800000000000    0.4593150000000000 Al
   0.5317499999999999    0.8412200000000000    0.4371500000000000 Al
   0.4019600000000000    0.0167900000000000    0.3334800000000000 Al
   0.3167800000000000    0.9404000000000000    0.5406900000000000 Al
   0.4682600000000000    0.6587700000000000    0.5628550000000000 Al
   0.0980500000000000    0.9832000000000000    0.1665200000000000 Al
   0.0317500000000000    0.3412200000000000    0.9371499999999999 Al
   0.1832300000000000    0.0595900000000000    0.9593149999999999 Al
   0.9019700000000000    0.5167900000000000    0.8334800000000000 Al
   0.8167800000000000    0.4404100000000000    0.0406900000000000 Al
   0.9682700000000000    0.1587700000000000    0.0628550000000000 Al
   0.9832400000000000    0.0980500000000000    0.9165050000000000 Al
   0.3412300000000000    0.0317300000000000    0.6871300000000000 Al
   0.0595900000000000    0.1832300000000000    0.7092900000000000 Al
   0.5209300000000000    0.3943100000000000    0.3344950000000000 P
   0.5209300000000000    0.3943100000000000    0.8344950000000000 P
   0.0209300000000000    0.8943100000000000    0.8344950000000000 P
   0.0209300000000000    0.8943100000000000    0.3344950000000000 P
   0.3943100000000000    0.5209300000000000    0.5844750000000000 P
   0.3943100000000000    0.5209300000000000    0.0844750000000000 P
   0.8943100000000000    0.0209400000000000    0.5844750000000000 P
   0.8943100000000000    0.0209400000000000    0.0844750000000000 P
   0.6057000000000000    0.4790600000000000    0.9155300000000000 P
   0.6057000000000000    0.4790600000000000    0.4155300000000000 P
   0.1057000000000000    0.9790600000000000    0.9155300000000000 P
   0.1057000000000000    0.9790600000000000    0.4155300000000000 P
   0.4790800000000000    0.1056800000000000    0.6655050000000000 P
   0.4790800000000000    0.1056800000000000    0.1655050000000000 P
   0.9790900000000000    0.6056800000000000    0.6655050000000000 P
   0.9790900000000000    0.6056800000000000    0.1655050000000000 P
   0.3424400000000000    0.5315800000000001    0.9371499999999999 P
   0.4381600000000000    0.3221500000000000    0.0395000000000000 P
   0.6575700000000000    0.9684100000000000    0.0628550000000000 P
   0.5618600000000000    0.1778500000000000    0.9605049999999999 P
   0.3424400000000000    0.5315800000000001    0.4371500000000000 P
   0.4381600000000000    0.3221500000000000    0.5395000000000000 P
   0.6575700000000000    0.9684100000000000    0.5628550000000000 P
   0.5618600000000000    0.1778500000000000    0.4605050000000000 P
   0.4684400000000000    0.1575700000000000    0.8128350000000000 P
   0.6778200000000000    0.0618400000000000    0.7105250000000000 P
   0.5315700000000000    0.3424300000000000    0.1871650000000000 P
   0.3221900000000000    0.4381600000000000    0.2894800000000000 P
   0.9684500000000000    0.6575700000000000    0.3128350000000000 P
   0.1778200000000000    0.5618300000000001    0.2105250000000000 P
   0.0315700000000000    0.8424199999999999    0.6871650000000000 P
   0.8222000000000000    0.9381500000000000    0.7894800000000000 P
   0.8424400000000000    0.0315800000000000    0.4371500000000000 P
   0.9381600000000000    0.8221400000000000    0.5395000000000000 P
   0.1575700000000000    0.4684200000000000    0.5628550000000000 P
   0.0618600000000000    0.6778500000000000    0.4605050000000000 P
   0.4684400000000000    0.1575700000000000    0.3128350000000000 P
   0.6778200000000000    0.0618400000000000    0.2105250000000000 P
   0.5315700000000000    0.3424300000000000    0.6871650000000000 P
   0.3221900000000000    0.4381600000000000    0.7894800000000000 P
   0.9684500000000000    0.6575700000000000    0.8128350000000000 P
   0.1778200000000000    0.5618300000000001    0.7105250000000000 P
   0.0315700000000000    0.8424199999999999    0.1871650000000000 P
   0.8222000000000000    0.9381500000000000    0.2894800000000000 P
   0.8424400000000000    0.0315800000000000    0.9371499999999999 P
   0.9381600000000000    0.8221400000000000    0.0395000000000000 P
   0.1575700000000000    0.4684200000000000    0.0628550000000000 P
   0.0618600000000000    0.6778500000000000    0.9605049999999999 P
   0.0209300000000000    0.3943100000000000    0.3344950000000000 P
   0.0209300000000000    0.3943100000000000    0.8344950000000000 P
   0.5209300000000000    0.8943100000000000    0.8344950000000000 P
   0.5209300000000000    0.8943100000000000    0.3344950000000000 P
   0.3943100000000000    0.0209400000000000    0.0844750000000000 P
   0.3943100000000000    0.0209400000000000    0.5844750000000000 P
   0.8943100000000000    0.5209300000000000    0.5844750000000000 P
   0.8943100000000000    0.5209300000000000    0.0844750000000000 P
   0.6057100000000000    0.9790600000000000    0.9155300000000000 P
   0.6057100000000000    0.9790600000000000    0.4155300000000000 P
   0.1057000000000000    0.4790600000000000    0.9155300000000000 P
   0.1057000000000000    0.4790600000000000    0.4155300000000000 P
   0.4790800000000000    0.6056800000000000    0.6655050000000000 P
   0.4790800000000000    0.6056800000000000    0.1655050000000000 P
   0.9790800000000000    0.1056800000000000    0.6655050000000000 P
   0.9790800000000000    0.1056800000000000    0.1655050000000000 P
   0.1778200000000000    0.0618400000000000    0.2105250000000000 P
   0.0315700000000000    0.3424300000000000    0.6871650000000000 P
   0.8221900000000000    0.4381600000000000    0.7894800000000000 P
   0.4684400000000000    0.6575700000000000    0.8128350000000000 P
   0.6778200000000000    0.5618300000000001    0.7105250000000000 P
   0.5315700000000000    0.8424199999999999    0.1871650000000000 P
   0.3221900000000000    0.9381500000000000    0.2894800000000000 P
   0.6575700000000000    0.4684200000000000    0.0628550000000000 P
   0.5618600000000000    0.6778500000000000    0.9605049999999999 P
   0.3424400000000000    0.0315800000000000    0.9371499999999999 P
   0.4381600000000000    0.8221400000000000    0.0395000000000000 P
   0.1575700000000000    0.9684100000000000    0.5628550000000000 P
   0.0618500000000000    0.1778500000000000    0.4605050000000000 P
   0.8424500000000000    0.5315800000000001    0.4371500000000000 P
   0.9381600000000000    0.3221500000000000    0.5395000000000000 P
   0.0315700000000000    0.3424300000000000    0.1871650000000000 P
   0.8221900000000000    0.4381600000000000    0.2894800000000000 P
   0.4684400000000000    0.6575700000000000    0.3128350000000000 P
   0.6778200000000000    0.5618300000000001    0.2105250000000000 P
   0.5315700000000000    0.8424199999999999    0.6871650000000000 P
   0.3221900000000000    0.9381500000000000    0.7894800000000000 P
   0.6575700000000000    0.4684200000000000    0.5628550000000000 P
   0.5618600000000000    0.6778500000000000    0.4605050000000000 P
   0.3424400000000000    0.0315800000000000    0.4371500000000000 P
   0.4381600000000000    0.8221400000000000    0.5395000000000000 P
   0.1575700000000000    0.9684100000000000    0.0628550000000000 P
   0.0618500000000000    0.1778500000000000    0.9605049999999999 P
   0.8424500000000000    0.5315800000000001    0.9371499999999999 P
   0.9381600000000000    0.3221500000000000    0.0395000000000000 P
   0.9684400000000000    0.1575700000000000    0.8128350000000000 P
   0.1778200000000000    0.0618400000000000    0.7105250000000000 P
   0.8852167380741294    0.1202783776546769    0.3345503012564749 H
   0.0520477578624735    0.2094191517908806    0.2736377756415128 H
  -0.0327277010969222    0.1971069848007707    0.3176651698415361 H
   0.9195100000000000    0.1058700000000000    0.3090550000000000 O
   0.5062500000000000    0.3400500000000000    0.3114000000000000 O
   0.6005600000000000    0.4045600000000000    0.3186000000000000 O
   0.4971300000000000    0.3670300000000000    0.3879100000000000 O
   0.4806300000000000    0.4655300000000000    0.3192400000000000 O
   0.5062500000000000    0.3400500000000000    0.8114000000000000 O
   0.6005600000000000    0.4045600000000000    0.8186000000000000 O
   0.4971300000000000    0.3670300000000000    0.8879100000000000 O
   0.4806300000000000    0.4655300000000000    0.8192400000000000 O
   0.0062500000000000    0.8400400000000000    0.8114000000000000 O
   0.1005600000000000    0.9045600000000000    0.8186000000000000 O
   0.9971400000000000    0.8670200000000000    0.8879100000000000 O
   0.9806300000000000    0.9655200000000000    0.8192400000000000 O
   0.0062500000000000    0.8400400000000000    0.3114000000000000 O
   0.1005600000000000    0.9045600000000000    0.3186000000000000 O
   0.9971400000000000    0.8670200000000000    0.3879100000000000 O
   0.9806300000000000    0.9655200000000000    0.3192400000000000 O
   0.3400600000000000    0.5062400000000000    0.5613600000000000 O
   0.4045700000000000    0.6005500000000000    0.5685550000000000 O
   0.3669800000000000    0.4971600000000000    0.6378850000000000 O
   0.4655200000000000    0.4806100000000000    0.5692500000000000 O
   0.3400600000000000    0.5062400000000000    0.0613600000000000 O
   0.4045700000000000    0.6005500000000000    0.0685550000000000 O
   0.3669800000000000    0.4971600000000000    0.1378850000000000 O
   0.4655200000000000    0.4806100000000000    0.0692500000000000 O
   0.8400600000000000    0.0062500000000000    0.5613600000000000 O
   0.9045700000000000    0.1005500000000000    0.5685550000000000 O
   0.8669800000000000    0.9971600000000000    0.6378850000000000 O
   0.9655300000000000    0.9806100000000000    0.5692500000000000 O
   0.8400600000000000    0.0062500000000000    0.0613600000000000 O
   0.9045700000000000    0.1005500000000000    0.0685550000000000 O
   0.8669800000000000    0.9971600000000000    0.1378850000000000 O
   0.9655300000000000    0.9806100000000000    0.0692500000000000 O
   0.6599600000000000    0.4937500000000000    0.9386399999999999 O
   0.5954500000000000    0.3994400000000000    0.9310000000000000 O
   0.6330400000000000    0.5028300000000000    0.8621200000000000 O
   0.5344900000000000    0.5193800000000000    0.9307500000000000 O
   0.6599600000000000    0.4937500000000000    0.4386400000000000 O
   0.5954500000000000    0.3994400000000000    0.4310000000000000 O
   0.6330400000000000    0.5028300000000000    0.3621200000000000 O
   0.5344900000000000    0.5193800000000000    0.4307500000000000 O
   0.1599600000000000    0.9937500000000000    0.9386399999999999 O
   0.0954400000000000    0.8994400000000000    0.9310000000000000 O
   0.1330300000000000    0.0028400000000000    0.8621200000000000 O
   0.0344900000000000    0.0193800000000000    0.9307500000000000 O
   0.1599600000000000    0.9937500000000000    0.4386400000000000 O
   0.0954400000000000    0.8994400000000000    0.4310000000000000 O
   0.1330300000000000    0.0028400000000000    0.3621200000000000 O
   0.0344900000000000    0.0193800000000000    0.4307500000000000 O
   0.4937700000000000    0.1599500000000000    0.6886000000000000 O
   0.3994600000000000    0.0954400000000000    0.6814050000000000 O
   0.5028800000000000    0.1329700000000000    0.6120500000000000 O
   0.5193900000000000    0.0344700000000000    0.6807650000000001 O
   0.4937700000000000    0.1599500000000000    0.1886000000000000 O
   0.3994600000000000    0.0954400000000000    0.1814050000000000 O
   0.5028800000000000    0.1329700000000000    0.1120500000000000 O
   0.5193900000000000    0.0344700000000000    0.1807650000000000 O
   0.9937700000000000    0.6599400000000000    0.6886000000000000 O
   0.8994600000000000    0.5954300000000000    0.6814050000000000 O
   0.0028800000000000    0.6329600000000000    0.6120500000000000 O
   0.0193900000000000    0.5344600000000000    0.6807650000000001 O
   0.9937700000000000    0.6599400000000000    0.1886000000000000 O
   0.8994600000000000    0.5954300000000000    0.1814050000000000 O
   0.0028800000000000    0.6329600000000000    0.1120500000000000 O
   0.0193900000000000    0.5344600000000000    0.1807650000000000 O
   0.3299000000000000    0.4685100000000000    0.9800550000000000 O
   0.3729800000000000    0.5015700000000000    0.8941700000000000 O
   0.2725600000000000    0.5749400000000000    0.9334700000000000 O
   0.3941500000000000    0.5804900000000000    0.9409300000000000 O
   0.4260300000000000    0.2431700000000000    0.0573650000000000 O
   0.3681000000000000    0.3626700000000000    0.0558200000000000 O
   0.4612800000000000    0.3431400000000000    0.9858750000000001 O
   0.4957600000000000    0.3388000000000000    0.0596900000000000 O
   0.6270400000000000    0.9984100000000000    0.1058000000000000 O
   0.6701100000000000    0.0314800000000000    0.0199500000000000 O
   0.6058700000000000    0.9194900000000000    0.0590700000000000 O
   0.7274600000000000    0.9250500000000000    0.0665350000000000 O
   0.5739800000000000    0.2568300000000000    0.9426399999999999 O
   0.6319100000000000    0.1373300000000000    0.9441850000000001 O
   0.5387300000000000    0.1568500000000000    0.0141300000000000 O
   0.5042500000000000    0.1612000000000000    0.9403150000000000 O
   0.3299000000000000    0.4685100000000000    0.4800550000000000 O
   0.3729800000000000    0.5015700000000000    0.3941700000000000 O
   0.2725600000000000    0.5749400000000000    0.4334700000000000 O
   0.3941500000000000    0.5804900000000000    0.4409300000000000 O
   0.4260300000000000    0.2431700000000000    0.5573650000000000 O
   0.3681000000000000    0.3626700000000000    0.5558200000000000 O
   0.4612800000000000    0.3431400000000000    0.4858750000000000 O
   0.4957600000000000    0.3388000000000000    0.5596900000000000 O
   0.6270400000000000    0.9984100000000000    0.6058000000000000 O
   0.6701100000000000    0.0314800000000000    0.5199500000000000 O
   0.6058700000000000    0.9194900000000000    0.5590700000000000 O
   0.7274600000000000    0.9250500000000000    0.5665350000000000 O
   0.5739800000000000    0.2568300000000000    0.4426400000000000 O
   0.6319100000000000    0.1373300000000000    0.4441850000000000 O
   0.5387300000000000    0.1568500000000000    0.5141300000000000 O
   0.5042500000000000    0.1612000000000000    0.4403150000000000 O
   0.5314800000000000    0.1701300000000000    0.7699300000000000 O
   0.4984800000000000    0.1270100000000000    0.8558100000000000 O
   0.4250800000000000    0.2274400000000000    0.8165000000000000 O
   0.4195100000000000    0.1058700000000000    0.8090550000000001 O
   0.7568100000000000    0.0739300000000000    0.6927000000000000 O
   0.6373300000000000    0.1319000000000000    0.6941500000000000 O
   0.6567499999999999    0.0387600000000000    0.7641600000000000 O
   0.6611900000000001    0.0042300000000000    0.6903400000000000 O
   0.4685300000000000    0.3298700000000000    0.2300750000000000 O
   0.5015300000000000    0.3729800000000000    0.1441950000000000 O
   0.5805000000000000    0.3941200000000000    0.1909500000000000 O
   0.5749300000000001    0.2725600000000000    0.1834650000000000 O
   0.2432000000000000    0.4260600000000000    0.3073050000000000 O
   0.3626800000000000    0.3681000000000000    0.3058400000000000 O
   0.3432700000000000    0.4612400000000000    0.2358450000000000 O
   0.3388200000000000    0.4957700000000000    0.3096600000000000 O
   0.0314800000000000    0.6701200000000000    0.2699300000000000 O
   0.9984900000000000    0.6270100000000000    0.3558100000000000 O
   0.9250800000000000    0.7274300000000000    0.3165000000000000 O
   0.9195200000000000    0.6058700000000000    0.3090550000000000 O
   0.2568100000000000    0.5739300000000001    0.1927000000000000 O
   0.1373300000000000    0.6319000000000000    0.1941500000000000 O
   0.1567400000000000    0.5387500000000000    0.2641600000000000 O
   0.1611900000000000    0.5042300000000000    0.1903400000000000 O
   0.9685300000000000    0.8298700000000000    0.7300750000000000 O
   0.0015300000000000    0.8729800000000000    0.6441950000000000 O
   0.0749300000000000    0.7725500000000000    0.6834650000000000 O
   0.0805000000000000    0.8941200000000000    0.6909500000000000 O
   0.7432100000000000    0.9260600000000000    0.8073049999999999 O
   0.8626900000000000    0.8680900000000000    0.8058400000000000 O
   0.8432700000000000    0.9612300000000000    0.7358450000000000 O
   0.8388300000000000    0.9957600000000000    0.8096600000000000 O
   0.8299100000000000    0.9685100000000000    0.4800550000000000 O
   0.8729700000000000    0.0015800000000000    0.3941700000000000 O
   0.7725600000000000    0.0749400000000000    0.4334700000000000 O
   0.8941500000000000    0.0805000000000000    0.4409300000000000 O
   0.9260400000000000    0.7431700000000000    0.5573650000000000 O
   0.8681100000000000    0.8626600000000000    0.5558200000000000 O
   0.9612900000000000    0.8431400000000000    0.4858750000000000 O
   0.9957700000000000    0.8388000000000000    0.5596900000000000 O
   0.1701100000000000    0.5314800000000000    0.5199500000000000 O
   0.1270400000000000    0.4984200000000000    0.6058350000000000 O
   0.2274500000000000    0.4250600000000000    0.5665350000000000 O
   0.1058600000000000    0.4195000000000000    0.5590700000000000 O
   0.0739800000000000    0.7568200000000000    0.4426400000000000 O
   0.1319100000000000    0.6373200000000000    0.4441850000000000 O
   0.0387300000000000    0.6568500000000000    0.5141300000000000 O
   0.0042500000000000    0.6611900000000001    0.4403150000000000 O
   0.5314800000000000    0.1701300000000000    0.2699300000000000 O
   0.4984800000000000    0.1270100000000000    0.3558100000000000 O
   0.4250800000000000    0.2274400000000000    0.3165000000000000 O
   0.4195100000000000    0.1058700000000000    0.3090550000000000 O
   0.7568100000000000    0.0739300000000000    0.1927000000000000 O
   0.6373300000000000    0.1319000000000000    0.1941500000000000 O
   0.6567499999999999    0.0387600000000000    0.2641600000000000 O
   0.6611900000000001    0.0042300000000000    0.1903400000000000 O
   0.4685300000000000    0.3298700000000000    0.7300750000000000 O
   0.5015300000000000    0.3729800000000000    0.6441950000000000 O
   0.5805000000000000    0.3941200000000000    0.6909500000000000 O
   0.5749300000000001    0.2725600000000000    0.6834650000000000 O
   0.2432000000000000    0.4260600000000000    0.8073049999999999 O
   0.3626800000000000    0.3681000000000000    0.8058400000000000 O
   0.3432700000000000    0.4612400000000000    0.7358450000000000 O
   0.3388200000000000    0.4957700000000000    0.8096600000000000 O
   0.0314800000000000    0.6701200000000000    0.7699300000000000 O
   0.9984900000000000    0.6270100000000000    0.8558100000000000 O
   0.9250800000000000    0.7274300000000000    0.8165000000000000 O
   0.9195200000000000    0.6058700000000000    0.8090550000000001 O
   0.2568100000000000    0.5739300000000001    0.6927000000000000 O
   0.1373300000000000    0.6319000000000000    0.6941500000000000 O
   0.1567400000000000    0.5387500000000000    0.7641600000000000 O
   0.1611900000000000    0.5042300000000000    0.6903400000000000 O
   0.9685300000000000    0.8298700000000000    0.2300750000000000 O
   0.0015300000000000    0.8729800000000000    0.1441950000000000 O
   0.0749300000000000    0.7725500000000000    0.1834650000000000 O
   0.0805000000000000    0.8941200000000000    0.1909500000000000 O
   0.7432100000000000    0.9260600000000000    0.3073050000000000 O
   0.8626900000000000    0.8680900000000000    0.3058400000000000 O
   0.8432700000000000    0.9612300000000000    0.2358450000000000 O
   0.8388300000000000    0.9957600000000000    0.3096600000000000 O
   0.8299100000000000    0.9685100000000000    0.9800550000000000 O
   0.8729700000000000    0.0015800000000000    0.8941700000000000 O
   0.7725600000000000    0.0749400000000000    0.9334700000000000 O
   0.8941500000000000    0.0805000000000000    0.9409300000000000 O
   0.9260400000000000    0.7431700000000000    0.0573650000000000 O
   0.8681100000000000    0.8626600000000000    0.0558200000000000 O
   0.9612900000000000    0.8431400000000000    0.9858750000000001 O
   0.9957700000000000    0.8388000000000000    0.0596900000000000 O
   0.1701100000000000    0.5314800000000000    0.0199500000000000 O
   0.1270400000000000    0.4984200000000000    0.1058350000000000 O
   0.2274500000000000    0.4250600000000000    0.0665350000000000 O
   0.1058600000000000    0.4195000000000000    0.0590700000000000 O
   0.0739800000000000    0.7568200000000000    0.9426399999999999 O
   0.1319100000000000    0.6373200000000000    0.9441850000000001 O
   0.0387300000000000    0.6568500000000000    0.0141300000000000 O
   0.0042500000000000    0.6611900000000001    0.9403150000000000 O
   0.0062400000000000    0.3400500000000000    0.3114000000000000 O
   0.1005500000000000    0.4045600000000000    0.3186000000000000 O
   0.9971400000000000    0.3670300000000000    0.3879100000000000 O
   0.9806300000000000    0.4655300000000000    0.3192400000000000 O
   0.0062400000000000    0.3400500000000000    0.8114000000000000 O
   0.1005500000000000    0.4045600000000000    0.8186000000000000 O
   0.9971400000000000    0.3670300000000000    0.8879100000000000 O
   0.9806300000000000    0.4655300000000000    0.8192400000000000 O
   0.5062500000000000    0.8400500000000000    0.8114000000000000 O
   0.6005600000000000    0.9045600000000000    0.8186000000000000 O
   0.4971400000000000    0.8670200000000000    0.8879100000000000 O
   0.4806300000000000    0.9655200000000000    0.8192400000000000 O
   0.5062500000000000    0.8400500000000000    0.3114000000000000 O
   0.6005600000000000    0.9045600000000000    0.3186000000000000 O
   0.4971400000000000    0.8670200000000000    0.3879100000000000 O
   0.4806300000000000    0.9655200000000000    0.3192400000000000 O
   0.3400600000000000    0.0062400000000000    0.0613600000000000 O
   0.4045700000000000    0.1005500000000000    0.0685550000000000 O
   0.3669800000000000    0.9971600000000000    0.1378850000000000 O
   0.4655300000000000    0.9806100000000000    0.0692500000000000 O
   0.3400600000000000    0.0062400000000000    0.5613600000000000 O
   0.4045700000000000    0.1005500000000000    0.5685550000000000 O
   0.3669800000000000    0.9971600000000000    0.6378850000000000 O
   0.4655300000000000    0.9806100000000000    0.5692500000000000 O
   0.8400600000000000    0.5062400000000000    0.5613600000000000 O
   0.9045700000000000    0.6005500000000000    0.5685550000000000 O
   0.8669800000000000    0.4971600000000000    0.6378850000000000 O
   0.9655300000000000    0.4806100000000000    0.5692500000000000 O
   0.8400600000000000    0.5062400000000000    0.0613600000000000 O
   0.9045700000000000    0.6005500000000000    0.0685550000000000 O
   0.8669800000000000    0.4971600000000000    0.1378850000000000 O
   0.9655300000000000    0.4806100000000000    0.0692500000000000 O
   0.6599600000000000    0.9937500000000000    0.9386000000000000 O
   0.5954500000000000    0.8994400000000000    0.9310000000000000 O
   0.6330300000000000    0.0028400000000000    0.8621200000000000 O
   0.5344900000000000    0.0193800000000000    0.9307500000000000 O
   0.6599600000000000    0.9937500000000000    0.4386000000000000 O
   0.5954500000000000    0.8994400000000000    0.4310000000000000 O
   0.6330300000000000    0.0028400000000000    0.3621200000000000 O
   0.5344900000000000    0.0193800000000000    0.4307500000000000 O
   0.1599500000000000    0.4937500000000000    0.9386000000000000 O
   0.0954400000000000    0.3994400000000000    0.9310000000000000 O
   0.1330300000000000    0.5028300000000000    0.8621200000000000 O
   0.0344900000000000    0.5193800000000000    0.9307500000000000 O
   0.1599500000000000    0.4937500000000000    0.4386000000000000 O
   0.0954400000000000    0.3994400000000000    0.4310000000000000 O
   0.1330300000000000    0.5028300000000000    0.3621200000000000 O
   0.0344900000000000    0.5193800000000000    0.4307500000000000 O
   0.4937700000000000    0.6599400000000000    0.6886000000000000 O