H3 O2
1.0
  19.0456390124803470    0.0000000000000000    5.4022998441669872
   1.1586078474277088   19.0120282164979635    5.4074403326309755
   0.0000000000000000    0.0000000000000000   30.8359999999999985
H O
3 2
direct
   0.8852167380741294    0.1202783776546769    0.3345503012564749 H
   0.0520477578624735    0.2094191517908806    0.2736377756415128 H
  -0.0327277010969222    0.1971069848007707    0.3176651698415361 H
   0.9195100000000000    0.1058700000000000    0.3090550000000000 O
   0.0314800000000000    0.1701300000000000    0.2699300000000000 O
