H8 O5
1.0
  18.9854776070125055    0.0000000000000000   -0.0291596232277010
  -1.3653142299862207   13.5328009312392687   -0.0042730371774916
   0.0000000000000000    0.0000000000000000   29.3320000000000007
H O
8 5
direct
   0.9526047796733962    1.0933670404680067    0.1444766107625133 H
   0.7822590437548977    1.1215617823067625    0.2278478177522620 H
   0.8649313108341710    1.1112112183122977    0.1861664023984531 H
   0.8303816721441059    0.3109195793700394    0.0823373418055438 H
   0.7482105770431356    0.2574792723044365    0.0914345769868790 H
   0.8738075166078376    0.4204639993274513    0.0414152030267561 H
   0.8220595027534764    0.4572216493977703    0.0183575024186345 H
   0.9772226587653743    0.3456277028732291    0.0884476563133684 H
   0.9168766666666666    1.0826600000000000    0.1680450000000000 O
   0.8236166666666667    1.0988300000000000    0.2134200000000000 O
   0.7798966666666667    0.3061900000000000    0.0748850000000000 O
   0.8673233333333332    0.4388400000000000    0.0290050000000000 O
   0.9636966666666666    0.3839600000000000    0.0625600000000000 O
