H3 O2
1.0
  39.9449999939160278    0.0000000000000000   -0.0006971717696783
  -0.0081188151943818   29.0739970951348496    0.0101487403283989
   0.0000000000000000    0.0000000000000000   29.0740000000000016
H O
3 2
direct
   0.9776596186822866    0.3227532132161465    0.4626286254909067 H
   0.8770608381960154    0.4582709413163059    0.3112945603860358 H
   0.8358237134749891    0.4619322984195839    0.2979904980215389 H
   0.9675600000000000    0.2980800000000000    0.4808500000000000 O
   0.8573299999999999    0.4776850000000000    0.3067300000000000 O
