Zn48 H760 C950 N285 O190
1.0
  39.9449999939160278    0.0000000000000000   -0.0006971717696783
  -0.0081188151943818   29.0739970951348496    0.0101487403283989
   0.0000000000000000    0.0000000000000000   29.0740000000000016
Zn H C N O
48 760 950 285 190
direct
   0.1665466666666666    0.0000000000000000    0.2500200000000000 Zn
   0.3332533333333333    0.0000000000000000    0.2500200000000000 Zn
   0.1665833333333333    0.2500050000000000    0.4999850000000000 Zn
   0.3332866666666666    0.2500000000000000    0.4999850000000000 Zn
   0.4998800000000000    0.0000000000000000    0.2500200000000000 Zn
   0.6665866666666667    0.0000000000000000    0.2500200000000000 Zn
   0.4999166666666667    0.2500050000000000    0.4999850000000000 Zn
   0.6666200000000000    0.2500000000000000    0.4999850000000000 Zn
   0.8332133333333333    0.0000000000000000    0.2500200000000000 Zn
   0.9999199999999999    0.0000000000000000    0.2500200000000000 Zn
   0.8332499999999999    0.2500050000000000    0.4999850000000000 Zn
   0.9999533333333332    0.2500000000000000    0.4999850000000000 Zn
   0.1665466666666666    0.5000000000000000    0.2500200000000000 Zn
   0.3332533333333333    0.5000000000000000    0.2500200000000000 Zn
   0.1665833333333333    0.7500050000000000    0.4999850000000000 Zn
   0.3332866666666666    0.7500000000000000    0.4999850000000000 Zn
   0.4998800000000000    0.5000000000000000    0.2500200000000000 Zn
   0.6665866666666667    0.5000000000000000    0.2500200000000000 Zn
   0.4999166666666667    0.7500050000000000    0.4999850000000000 Zn
   0.6666200000000000    0.7500000000000000    0.4999850000000000 Zn
   0.8332133333333333    0.5000000000000000    0.2500200000000000 Zn
   0.9999199999999999    0.5000000000000000    0.2500200000000000 Zn
   0.8332499999999999    0.7500050000000000    0.4999850000000000 Zn
   0.9999533333333332    0.7500000000000000    0.4999850000000000 Zn
   0.1665466666666666    0.0000000000000000    0.7500200000000000 Zn
   0.3332533333333333    0.0000000000000000    0.7500200000000000 Zn
   0.1665833333333333    0.2500050000000000    0.9999850000000000 Zn
   0.3332866666666666    0.2500000000000000    0.9999850000000000 Zn
   0.4998800000000000    0.0000000000000000    0.7500200000000000 Zn
   0.6665866666666667    0.0000000000000000    0.7500200000000000 Zn
   0.4999166666666667    0.2500050000000000    0.9999850000000000 Zn
   0.6666200000000000    0.2500000000000000    0.9999850000000000 Zn
   0.8332133333333333    0.0000000000000000    0.7500200000000000 Zn
   0.9999199999999999    0.0000000000000000    0.7500200000000000 Zn
   0.8332499999999999    0.2500050000000000    0.9999850000000000 Zn
   0.9999533333333332    0.2500000000000000    0.9999850000000000 Zn
   0.1665466666666666    0.5000000000000000    0.7500200000000000 Zn
   0.3332533333333333    0.5000000000000000    0.7500200000000000 Zn
   0.1665833333333333    0.7500050000000000    0.9999850000000000 Zn
   0.3332866666666666    0.7500000000000000    0.9999850000000000 Zn
   0.4998800000000000    0.5000000000000000    0.7500200000000000 Zn
   0.6665866666666667    0.5000000000000000    0.7500200000000000 Zn
   0.4999166666666667    0.7500050000000000    0.9999850000000000 Zn
   0.6666200000000000    0.7500000000000000    0.9999850000000000 Zn
   0.8332133333333333    0.5000000000000000    0.7500200000000000 Zn
   0.9999199999999999    0.5000000000000000    0.7500200000000000 Zn
   0.8332499999999999    0.7500050000000000    0.9999850000000000 Zn
   0.9999533333333332    0.7500000000000000    0.9999850000000000 Zn
   0.3278033333333333    0.0958100000000000    0.0978500000000000 H
   0.2869833333333333    0.0467800000000000    0.1418350000000000 H
   0.2058266666666667    0.1296300000000000    0.0883550000000000 H
   0.2465900000000000    0.1763450000000000    0.0446250000000000 H
   0.1889833333333333    0.0353000000000000    0.0838400000000000 H
   0.2590800000000000    0.0421000000000000    0.2329500000000000 H
   0.2525766666666667    0.0983450000000000    0.2114200000000000 H
   0.2244400000000000    0.0754600000000000    0.2536100000000000 H
   0.3278033333333333    0.4041600000000000    0.4021600000000000 H
   0.2870100000000000    0.4532000000000000    0.3581800000000000 H
   0.2058100000000000    0.3703700000000000    0.4116550000000000 H
   0.2465466666666666    0.3236350000000000    0.4553700000000000 H
   0.1890200000000000    0.4646950000000000    0.4161950000000000 H
   0.2590833333333333    0.4579400000000000    0.2670500000000000 H
   0.2525666666666667    0.4016850000000000    0.2885750000000000 H
   0.2244300000000000    0.4245750000000000    0.2464050000000000 H
   0.1611933333333333    0.3457500000000000    0.1524600000000000 H
   0.1204733333333333    0.2965700000000000    0.1084850000000000 H
   0.0391833333333333    0.3794900000000000    0.1613900000000000 H
   0.0798400000000000    0.4263950000000000    0.2050700000000000 H
   0.0225866666666667    0.2847450000000000    0.1662200000000000 H
   0.0924366666666667    0.2922450000000000    0.0169000000000000 H
   0.0859566666666667    0.3483750000000000    0.0387150000000000 H
   0.0577566666666667    0.3256900000000000    0.4965050000000000 H
   0.1611966666666667    0.1542300000000000    0.3475550000000000 H
   0.1205033333333333    0.2034200000000000    0.3915250000000000 H
   0.0391700000000000    0.1205200000000000    0.3386150000000000 H
   0.0798000000000000    0.0736000000000000    0.2949500000000000 H
   0.0226366666666667    0.2152650000000000    0.3337650000000000 H
   0.0924400000000000    0.2077700000000000    0.4831000000000000 H
   0.0859433333333333    0.1516400000000000    0.4613050000000000 H
   0.0577433333333333    0.1743250000000000    0.0000000000000000 H
   0.3278000000000000    0.4022200000000000    0.0958850000000000 H
   0.2870166666666666    0.3582300000000000    0.0468400000000000 H
   0.2058033333333333    0.4115900000000000    0.1296350000000000 H
   0.2465300000000000    0.4553250000000000    0.1763700000000000 H
   0.1890066666666667    0.4161600000000000    0.0353200000000000 H
   0.2591333333333333    0.2671050000000000    0.0420650000000000 H
   0.2526133333333333    0.2885650000000000    0.0983200000000000 H
   0.2244933333333333    0.2463750000000000    0.0754250000000000 H
   0.3277833333333333    0.0978350000000000    0.4040950000000000 H
   0.2870200000000000    0.1418350000000000    0.4531250000000000 H
   0.2057866666666667    0.0884250000000000    0.3703600000000000 H
   0.2464966666666666    0.0446800000000000    0.3236400000000000 H
   0.1890066666666667    0.0838600000000000    0.4646850000000000 H
   0.2591233333333333    0.2329900000000000    0.4578600000000000 H
   0.2526100000000000    0.2114750000000000    0.4016250000000000 H
   0.2244833333333333    0.2536500000000000    0.4244900000000000 H
   0.1612200000000000    0.1524300000000000    0.1543200000000000 H
   0.1204733333333333    0.1084800000000000    0.2035100000000000 H
   0.0392133333333333    0.1614550000000000    0.1205250000000000 H
   0.0798966666666667    0.2051100000000000    0.0736150000000000 H
   0.0226200000000000    0.1662650000000000    0.2152850000000000 H
   0.0923933333333333    0.0169300000000000    0.2078200000000000 H
   0.0859100000000000    0.0387500000000000    0.1516800000000000 H
   0.0576966666666667    0.4965450000000000    0.1743500000000000 H
   0.1612066666666667    0.3476100000000000    0.3457100000000000 H
   0.1204733333333333    0.3915750000000000    0.2965350000000000 H
   0.0391966666666667    0.3385650000000000    0.3795000000000000 H
   0.0798666666666667    0.2949000000000000    0.4264000000000000 H
   0.0226100000000000    0.3337600000000000    0.2847000000000000 H
   0.0923866666666667    0.4831550000000000    0.2922500000000000 H
   0.0859166666666667    0.4612900000000000    0.3483800000000000 H
   0.0576966666666667    0.0000000000000000    0.3257150000000000 H
   0.6611366666666667    0.0958100000000000    0.0978500000000000 H
   0.6203166666666666    0.0467800000000000    0.1418350000000000 H
   0.5391600000000000    0.1296300000000000    0.0883550000000000 H
   0.5799233333333333    0.1763450000000000    0.0446250000000000 H
   0.5223166666666667    0.0353000000000000    0.0838400000000000 H
   0.5924133333333332    0.0421000000000000    0.2329500000000000 H
   0.5859099999999999    0.0983450000000000    0.2114200000000000 H
   0.5577733333333333    0.0754600000000000    0.2536100000000000 H
   0.6611366666666667    0.4041600000000000    0.4021600000000000 H
   0.6203433333333332    0.4532000000000000    0.3581800000000000 H
   0.5391433333333333    0.3703700000000000    0.4116550000000000 H
   0.5798800000000000    0.3236350000000000    0.4553700000000000 H
   0.5223533333333333    0.4646950000000000    0.4161950000000000 H
   0.5924166666666666    0.4579400000000000    0.2670500000000000 H
   0.5859000000000000    0.4016850000000000    0.2885750000000000 H
   0.5577633333333334    0.4245750000000000    0.2464050000000000 H
   0.4945266666666667    0.3457500000000000    0.1524600000000000 H
   0.4538066666666666    0.2965700000000000    0.1084850000000000 H
   0.3725166666666667    0.3794900000000000    0.1613900000000000 H
   0.4131733333333333    0.4263950000000000    0.2050700000000000 H
   0.3559200000000000    0.2847450000000000    0.1662200000000000 H
   0.4257700000000000    0.2922450000000000    0.0169000000000000 H
   0.4192899999999999    0.3483750000000000    0.0387150000000000 H
   0.3910900000000000    0.3256900000000000    0.4965050000000000 H
   0.4945300000000000    0.1542300000000000    0.3475550000000000 H
   0.4538366666666667    0.2034200000000000    0.3915250000000000 H
   0.3725033333333333    0.1205200000000000    0.3386150000000000 H
   0.4131333333333333    0.0736000000000000    0.2949500000000000 H
   0.3559700000000000    0.2152650000000000    0.3337650000000000 H
   0.4257733333333333    0.2077700000000000    0.4831000000000000 H
   0.4192766666666666    0.1516400000000000    0.4613050000000000 H
   0.3910766666666666    0.1743250000000000    0.0000000000000000 H
   0.6611333333333334    0.4022200000000000    0.0958850000000000 H
   0.6203500000000000    0.3582300000000000    0.0468400000000000 H
   0.5391366666666666    0.4115900000000000    0.1296350000000000 H
   0.5798633333333333    0.4553250000000000    0.1763700000000000 H
   0.5223400000000000    0.4161600000000000    0.0353200000000000 H
   0.5924666666666667    0.2671050000000000    0.0420650000000000 H
   0.5859466666666666    0.2885650000000000    0.0983200000000000 H
   0.5578266666666667    0.2463750000000000    0.0754250000000000 H
   0.6611166666666666    0.0978350000000000    0.4040950000000000 H
   0.6203533333333333    0.1418350000000000    0.4531250000000000 H
   0.5391200000000000    0.0884250000000000    0.3703600000000000 H
   0.5798300000000000    0.0446800000000000    0.3236400000000000 H
   0.5223400000000000    0.0838600000000000    0.4646850000000000 H
   0.5924566666666666    0.2329900000000000    0.4578600000000000 H
   0.5859433333333333    0.2114750000000000    0.4016250000000000 H
   0.5578166666666666    0.2536500000000000    0.4244900000000000 H
   0.4945533333333333    0.1524300000000000    0.1543200000000000 H
   0.4538066666666666    0.1084800000000000    0.2035100000000000 H
   0.3725466666666666    0.1614550000000000    0.1205250000000000 H
   0.4132300000000000    0.2051100000000000    0.0736150000000000 H
   0.3559533333333333    0.1662650000000000    0.2152850000000000 H
   0.4257266666666666    0.0169300000000000    0.2078200000000000 H
   0.4192433333333333    0.0387500000000000    0.1516800000000000 H
   0.3910300000000000    0.4965450000000000    0.1743500000000000 H
   0.4945400000000000    0.3476100000000000    0.3457100000000000 H
   0.4538066666666666    0.3915750000000000    0.2965350000000000 H
   0.3725300000000000    0.3385650000000000    0.3795000000000000 H
   0.4132000000000000    0.2949000000000000    0.4264000000000000 H
   0.3559433333333333    0.3337600000000000    0.2847000000000000 H
   0.4257200000000000    0.4831550000000000    0.2922500000000000 H
   0.4192500000000000    0.4612900000000000    0.3483800000000000 H
   0.3910300000000000    0.0000000000000000    0.3257150000000000 H
   0.9944700000000000    0.0958100000000000    0.0978500000000000 H
   0.9536499999999999    0.0467800000000000    0.1418350000000000 H
   0.8724933333333333    0.1296300000000000    0.0883550000000000 H
   0.9132566666666666    0.1763450000000000    0.0446250000000000 H
   0.8556499999999999    0.0353000000000000    0.0838400000000000 H
   0.9257466666666666    0.0421000000000000    0.2329500000000000 H
   0.9192433333333333    0.0983450000000000    0.2114200000000000 H
   0.8911066666666666    0.0754600000000000    0.2536100000000000 H
   0.8278599999999999    0.3457500000000000    0.1524600000000000 H
   0.7871400000000000    0.2965700000000000    0.1084850000000000 H
   0.7058500000000000    0.3794900000000000    0.1613900000000000 H
   0.7465066666666667    0.4263950000000000    0.2050700000000000 H
   0.6892533333333333    0.2847450000000000    0.1662200000000000 H
   0.7591033333333332    0.2922450000000000    0.0169000000000000 H
   0.7526233333333333    0.3483750000000000    0.0387150000000000 H
   0.7244233333333333    0.3256900000000000    0.4965050000000000 H
   0.8278633333333333    0.1542300000000000    0.3475550000000000 H
   0.7871699999999999    0.2034200000000000    0.3915250000000000 H
   0.7058366666666667    0.1205200000000000    0.3386150000000000 H
   0.7464666666666666    0.0736000000000000    0.2949500000000000 H
   0.6893033333333333    0.2152650000000000    0.3337650000000000 H
   0.7591066666666666    0.2077700000000000    0.4831000000000000 H
   0.7526100000000000    0.1516400000000000    0.4613050000000000 H
   0.7244100000000000    0.1743250000000000    0.0000000000000000 H
   0.9944666666666666    0.4022200000000000    0.0958850000000000 H
   0.9536833333333332    0.3582300000000000    0.0468400000000000 H
   0.8724700000000000    0.4115900000000000    0.1296350000000000 H
   0.9131966666666667    0.4553250000000000    0.1763700000000000 H
   0.8556733333333333    0.4161600000000000    0.0353200000000000 H
   0.9258000000000000    0.2671050000000000    0.0420650000000000 H
   0.9192799999999999    0.2885650000000000    0.0983200000000000 H
   0.8911600000000000    0.2463750000000000    0.0754250000000000 H
   0.9944499999999999    0.0978350000000000    0.4040950000000000 H
   0.9536866666666666    0.1418350000000000    0.4531250000000000 H
   0.8724533333333333    0.0884250000000000    0.3703600000000000 H
   0.9131633333333333    0.0446800000000000    0.3236400000000000 H
   0.8556733333333333    0.0838600000000000    0.4646850000000000 H
   0.9257899999999999    0.2329900000000000    0.4578600000000000 H
   0.9192766666666666    0.2114750000000000    0.4016250000000000 H
   0.8911499999999999    0.2536500000000000    0.4244900000000000 H
   0.8278866666666667    0.1524300000000000    0.1543200000000000 H
   0.7871400000000000    0.1084800000000000    0.2035100000000000 H
   0.7058800000000000    0.1614550000000000    0.1205250000000000 H
   0.7465633333333332    0.2051100000000000    0.0736150000000000 H
   0.6892866666666666    0.1662650000000000    0.2152850000000000 H
   0.7590600000000000    0.0169300000000000    0.2078200000000000 H
   0.7525766666666667    0.0387500000000000    0.1516800000000000 H
   0.7243633333333332    0.4965450000000000    0.1743500000000000 H
   0.8278733333333332    0.3476100000000000    0.3457100000000000 H
   0.7871400000000000    0.3915750000000000    0.2965350000000000 H
   0.7058633333333333    0.3385650000000000    0.3795000000000000 H
   0.7465333333333333    0.2949000000000000    0.4264000000000000 H
   0.6892766666666666    0.3337600000000000    0.2847000000000000 H
   0.7590533333333334    0.4831550000000000    0.2922500000000000 H
   0.7525833333333333    0.4612900000000000    0.3483800000000000 H
   0.7243633333333332    0.0000000000000000    0.3257150000000000 H
   0.3278033333333333    0.5958100000000000    0.0978500000000000 H
   0.2869833333333333    0.5467800000000000    0.1418350000000000 H
   0.2058266666666667    0.6296300000000000    0.0883550000000000 H
   0.2465900000000000    0.6763450000000000    0.0446250000000000 H
   0.1889833333333333    0.5353000000000000    0.0838400000000000 H
   0.2590800000000000    0.5421000000000000    0.2329500000000000 H
   0.2525766666666667    0.5983450000000000    0.2114200000000000 H
   0.2244400000000000    0.5754600000000000    0.2536100000000000 H
   0.3278033333333333    0.9041600000000001    0.4021600000000000 H
   0.2870100000000000    0.9532000000000000    0.3581800000000000 H
   0.2058100000000000    0.8703700000000000    0.4116550000000000 H
   0.2465466666666666    0.8236350000000000    0.4553700000000000 H
   0.1890200000000000    0.9646950000000001    0.4161950000000000 H
   0.2590833333333333    0.9579400000000000    0.2670500000000000 H
   0.2525666666666667    0.9016850000000001    0.2885750000000000 H
   0.2244300000000000    0.9245749999999999    0.2464050000000000 H
   0.1611933333333333    0.8457500000000000    0.1524600000000000 H
   0.1204733333333333    0.7965700000000000    0.1084850000000000 H
   0.0391833333333333    0.8794900000000000    0.1613900000000000 H
   0.0798400000000000    0.9263950000000001    0.2050700000000000 H
   0.0225866666666667    0.7847450000000000    0.1662200000000000 H
   0.0924366666666667    0.7922450000000000    0.0169000000000000 H
   0.0859566666666667    0.8483750000000000    0.0387150000000000 H
   0.0577566666666667    0.8256900000000000    0.4965050000000000 H
   0.1611966666666667    0.6542300000000000    0.3475550000000000 H
   0.1205033333333333    0.7034199999999999    0.3915250000000000 H
   0.0391700000000000    0.6205200000000000    0.3386150000000000 H
   0.0798000000000000    0.5736000000000000    0.2949500000000000 H
   0.0226366666666667    0.7152650000000000    0.3337650000000000 H
   0.0924400000000000    0.7077700000000000    0.4831000000000000 H
   0.0859433333333333    0.6516400000000000    0.4613050000000000 H
   0.0577433333333333    0.6743250000000001    0.0000000000000000 H
   0.3278000000000000    0.9022200000000000    0.0958850000000000 H
   0.2870166666666666    0.8582300000000000    0.0468400000000000 H
   0.2058033333333333    0.9115900000000000    0.1296350000000000 H
   0.2465300000000000    0.9553250000000000    0.1763700000000000 H
   0.1890066666666667    0.9161600000000000    0.0353200000000000 H
   0.2591333333333333    0.7671049999999999    0.0420650000000000 H
   0.2526133333333333    0.7885650000000000    0.0983200000000000 H
   0.2244933333333333    0.7463750000000000    0.0754250000000000 H
   0.3277833333333333    0.5978350000000000    0.4040950000000000 H
   0.2870200000000000    0.6418349999999999    0.4531250000000000 H
   0.2057866666666667    0.5884250000000000    0.3703600000000000 H
   0.2464966666666666    0.5446800000000001    0.3236400000000000 H
   0.1890066666666667    0.5838600000000000    0.4646850000000000 H
   0.2591233333333333    0.7329900000000000    0.4578600000000000 H
   0.2526100000000000    0.7114750000000000    0.4016250000000000 H
   0.2244833333333333    0.7536499999999999    0.4244900000000000 H
   0.1612200000000000    0.6524300000000001    0.1543200000000000 H
   0.1204733333333333    0.6084800000000000    0.2035100000000000 H
   0.0392133333333333    0.6614550000000000    0.1205250000000000 H
   0.0798966666666667    0.7051100000000000    0.0736150000000000 H
   0.0226200000000000    0.6662650000000000    0.2152850000000000 H
   0.0923933333333333    0.5169300000000000    0.2078200000000000 H
   0.0859100000000000    0.5387500000000000    0.1516800000000000 H
   0.0576966666666667    0.9965450000000000    0.1743500000000000 H
   0.1612066666666667    0.8476100000000000    0.3457100000000000 H
   0.1204733333333333    0.8915750000000000    0.2965350000000000 H
   0.0391966666666667    0.8385650000000000    0.3795000000000000 H
   0.0798666666666667    0.7948999999999999    0.4264000000000000 H
   0.0226100000000000    0.8337600000000001    0.2847000000000000 H
   0.0923866666666667    0.9831550000000000    0.2922500000000000 H
   0.0859166666666667    0.9612900000000000    0.3483800000000000 H
   0.0576966666666667    0.5000000000000000    0.3257150000000000 H
   0.6611366666666667    0.5958100000000000    0.0978500000000000 H
   0.6203166666666666    0.5467800000000000    0.1418350000000000 H
   0.5391600000000000    0.6296300000000000    0.0883550000000000 H
   0.5799233333333333    0.6763450000000000    0.0446250000000000 H
   0.5223166666666667    0.5353000000000000    0.0838400000000000 H
   0.5924133333333332    0.5421000000000000    0.2329500000000000 H
   0.5859099999999999    0.5983450000000000    0.2114200000000000 H
   0.5577733333333333    0.5754600000000000    0.2536100000000000 H
   0.6611366666666667    0.9041600000000001    0.4021600000000000 H
   0.6203433333333332    0.9532000000000000    0.3581800000000000 H
   0.5391433333333333    0.8703700000000000    0.4116550000000000 H
   0.5798800000000000    0.8236350000000000    0.4553700000000000 H
   0.5223533333333333    0.9646950000000001    0.4161950000000000 H
   0.5924166666666666    0.9579400000000000    0.2670500000000000 H
   0.5859000000000000    0.9016850000000001    0.2885750000000000 H
   0.5577633333333334    0.9245749999999999    0.2464050000000000 H
   0.4945266666666667    0.8457500000000000    0.1524600000000000 H
   0.4538066666666666    0.7965700000000000    0.1084850000000000 H
   0.3725166666666667    0.8794900000000000    0.1613900000000000 H
   0.4131733333333333    0.9263950000000001    0.2050700000000000 H
   0.3559200000000000    0.7847450000000000    0.1662200000000000 H
   0.4257700000000000    0.7922450000000000    0.0169000000000000 H
   0.4192899999999999    0.8483750000000000    0.0387150000000000 H
   0.3910900000000000    0.8256900000000000    0.4965050000000000 H
   0.4945300000000000    0.6542300000000000    0.3475550000000000 H
   0.4538366666666667    0.7034199999999999    0.3915250000000000 H
   0.3725033333333333    0.6205200000000000    0.3386150000000000 H
   0.4131333333333333    0.5736000000000000    0.2949500000000000 H
   0.3559700000000000    0.7152650000000000    0.3337650000000000 H
   0.4257733333333333    0.7077700000000000    0.4831000000000000 H
   0.4192766666666666    0.6516400000000000    0.4613050000000000 H
   0.3910766666666666    0.6743250000000001    0.0000000000000000 H
   0.6611333333333334    0.9022200000000000    0.0958850000000000 H
   0.6203500000000000    0.8582300000000000    0.0468400000000000 H
   0.5391366666666666    0.9115900000000000    0.1296350000000000 H
   0.5798633333333333    0.9553250000000000    0.1763700000000000 H
   0.5223400000000000    0.9161600000000000    0.0353200000000000 H
   0.5924666666666667    0.7671049999999999    0.0420650000000000 H
   0.5859466666666666    0.7885650000000000    0.0983200000000000 H
   0.5578266666666667    0.7463750000000000    0.0754250000000000 H
   0.6611166666666666    0.5978350000000000    0.4040950000000000 H
   0.6203533333333333    0.6418349999999999    0.4531250000000000 H
   0.5391200000000000    0.5884250000000000    0.3703600000000000 H
   0.5798300000000000    0.5446800000000001    0.3236400000000000 H
   0.5223400000000000    0.5838600000000000    0.4646850000000000 H
   0.5924566666666666    0.7329900000000000    0.4578600000000000 H
   0.5859433333333333    0.7114750000000000    0.4016250000000000 H
   0.5578166666666666    0.7536499999999999    0.4244900000000000 H
   0.4945533333333333    0.6524300000000001    0.1543200000000000 H
   0.4538066666666666    0.6084800000000000    0.2035100000000000 H
   0.3725466666666666    0.6614550000000000    0.1205250000000000 H
   0.4132300000000000    0.7051100000000000    0.0736150000000000 H
   0.3559533333333333    0.6662650000000000    0.2152850000000000 H
   0.4257266666666666    0.5169300000000000    0.2078200000000000 H
   0.4192433333333333    0.5387500000000000    0.1516800000000000 H
   0.3910300000000000    0.9965450000000000    0.1743500000000000 H
   0.4945400000000000    0.8476100000000000    0.3457100000000000 H
   0.4538066666666666    0.8915750000000000    0.2965350000000000 H
   0.3725300000000000    0.8385650000000000    0.3795000000000000 H
   0.4132000000000000    0.7948999999999999    0.4264000000000000 H
   0.3559433333333333    0.8337600000000001    0.2847000000000000 H
   0.4257200000000000    0.9831550000000000    0.2922500000000000 H
   0.4192500000000000    0.9612900000000000    0.3483800000000000 H
   0.3910300000000000    0.5000000000000000    0.3257150000000000 H
   0.9944700000000000    0.5958100000000000    0.0978500000000000 H
   0.9536499999999999    0.5467800000000000    0.1418350000000000 H
   0.8724933333333333    0.6296300000000000    0.0883550000000000 H
   0.9132566666666666    0.6763450000000000    0.0446250000000000 H
   0.8556499999999999    0.5353000000000000    0.0838400000000000 H
   0.9257466666666666    0.5421000000000000    0.2329500000000000 H
   0.9192433333333333    0.5983450000000000    0.2114200000000000 H
   0.8911066666666666    0.5754600000000000    0.2536100000000000 H
   0.9944700000000000    0.9041600000000001    0.4021600000000000 H
   0.9536766666666666    0.9532000000000000    0.3581800000000000 H
   0.8724766666666666    0.8703700000000000    0.4116550000000000 H
   0.9132133333333332    0.8236350000000000    0.4553700000000000 H
   0.8556866666666666    0.9646950000000001    0.4161950000000000 H
   0.9257500000000000    0.9579400000000000    0.2670500000000000 H
   0.9192333333333333    0.9016850000000001    0.2885750000000000 H
   0.8910966666666666    0.9245749999999999    0.2464050000000000 H
   0.8278599999999999    0.8457500000000000    0.1524600000000000 H
   0.7871400000000000    0.7965700000000000    0.1084850000000000 H
   0.7058500000000000    0.8794900000000000    0.1613900000000000 H
   0.7465066666666667    0.9263950000000001    0.2050700000000000 H
   0.6892533333333333    0.7847450000000000    0.1662200000000000 H
   0.7591033333333332    0.7922450000000000    0.0169000000000000 H
   0.7526233333333333    0.8483750000000000    0.0387150000000000 H
   0.7244233333333333    0.8256900000000000    0.4965050000000000 H
   0.8278633333333333    0.6542300000000000    0.3475550000000000 H
   0.7871699999999999    0.7034199999999999    0.3915250000000000 H
   0.7058366666666667    0.6205200000000000    0.3386150000000000 H
   0.7464666666666666    0.5736000000000000    0.2949500000000000 H
   0.6893033333333333    0.7152650000000000    0.3337650000000000 H
   0.7591066666666666    0.7077700000000000    0.4831000000000000 H
   0.7526100000000000    0.6516400000000000    0.4613050000000000 H
   0.7244100000000000    0.6743250000000001    0.0000000000000000 H
   0.9944666666666666    0.9022200000000000    0.0958850000000000 H
   0.9536833333333332    0.8582300000000000    0.0468400000000000 H
   0.8724700000000000    0.9115900000000000    0.1296350000000000 H
   0.9131966666666667    0.9553250000000000    0.1763700000000000 H
   0.8556733333333333    0.9161600000000000    0.0353200000000000 H
   0.9258000000000000    0.7671049999999999    0.0420650000000000 H
   0.9192799999999999    0.7885650000000000    0.0983200000000000 H
   0.8911600000000000    0.7463750000000000    0.0754250000000000 H
   0.9944499999999999    0.5978350000000000    0.4040950000000000 H
   0.9536866666666666    0.6418349999999999    0.4531250000000000 H
   0.8724533333333333    0.5884250000000000    0.3703600000000000 H
   0.9131633333333333    0.5446800000000001    0.3236400000000000 H
   0.8556733333333333    0.5838600000000000    0.4646850000000000 H
   0.9257899999999999    0.7329900000000000    0.4578600000000000 H
   0.9192766666666666    0.7114750000000000    0.4016250000000000 H
   0.8911499999999999    0.7536499999999999    0.4244900000000000 H
   0.8278866666666667    0.6524300000000001    0.1543200000000000 H
   0.7871400000000000    0.6084800000000000    0.2035100000000000 H
   0.7058800000000000    0.6614550000000000    0.1205250000000000 H
   0.7465633333333332    0.7051100000000000    0.0736150000000000 H
   0.6892866666666666    0.6662650000000000    0.2152850000000000 H
   0.7590600000000000    0.5169300000000000    0.2078200000000000 H
   0.7525766666666667    0.5387500000000000    0.1516800000000000 H
   0.7243633333333332    0.9965450000000000    0.1743500000000000 H
   0.8278733333333332    0.8476100000000000    0.3457100000000000 H
   0.7871400000000000    0.8915750000000000    0.2965350000000000 H
   0.7058633333333333    0.8385650000000000    0.3795000000000000 H
   0.7465333333333333    0.7948999999999999    0.4264000000000000 H
   0.6892766666666666    0.8337600000000001    0.2847000000000000 H
   0.7590533333333334    0.9831550000000000    0.2922500000000000 H
   0.7525833333333333    0.9612900000000000    0.3483800000000000 H
   0.7243633333333332    0.5000000000000000    0.3257150000000000 H
   0.3278033333333333    0.0958100000000000    0.5978500000000000 H
   0.2869833333333333    0.0467800000000000    0.6418349999999999 H
   0.2058266666666667    0.1296300000000000    0.5883550000000000 H
   0.2465900000000000    0.1763450000000000    0.5446250000000000 H
   0.1889833333333333    0.0353000000000000    0.5838400000000000 H
   0.2590800000000000    0.0421000000000000    0.7329500000000000 H
   0.2525766666666667    0.0983450000000000    0.7114199999999999 H
   0.2244400000000000    0.0754600000000000    0.7536100000000000 H
   0.3278033333333333    0.4041600000000000    0.9021600000000001 H
   0.2870100000000000    0.4532000000000000    0.8581799999999999 H
   0.2058100000000000    0.3703700000000000    0.9116550000000000 H
   0.2465466666666666    0.3236350000000000    0.9553700000000001 H