H6 O4
1.0
   8.8982928972953541    0.0000000000000000    0.1982013217489531
   0.5976162034968390    9.8567065055917062    1.2767304868076752
   0.0000000000000000    0.0000000000000000   10.1730000000000000
H O
6 4
direct
   0.6448133647869464   -0.0617978208139212    0.8980393977811489 H
   0.7244200797385008    0.8616069184120452    0.9114623416612810 H
   0.4724477058088681    0.0716498790304796    0.7788406895760461 H
   0.3551921162278538    1.0617874235924250    0.1019425025017238 H
   0.2755897165249448    0.1383880302335593    0.0885164972919485 H
   0.5275559501682138    0.9283404407119359    0.2211550412292691 H
   0.6647300000000000    0.8948500000000000    0.8341000000000000 O
   0.4955700000000000    0.0213200000000000    0.7046100000000000 O
   0.3352800000000000    0.1051500000000000    0.1658800000000000 O
   0.5044400000000000    0.9786800000000000    0.2953800000000000 O
