H8 C10 N2
1.0
  26.7632268291288042    0.0000000000000000   -7.9393164499596667
  -9.4959062999128321   26.8240336423638048   -2.5130337635237709
   0.0000000000000000    0.0000000000000000   28.5839999999999996
H C N
8 10 2
direct
   0.6080250000000000    0.4068050000000000    0.1449650000000000 H
   0.5222599999999999    0.4151500000000000    0.1485650000000000 H
   0.5000000000000000    0.4611800000000000    0.0131300000000000 H
   0.5773400000000000    0.4575750000000000    0.0045500000000000 H
   0.6404500000000000    0.3549200000000000    0.0937300000000000 H
   0.7262200000000000    0.3510300000000000    0.0855600000000000 H
   0.7579000000000000    0.4863550000000000    0.0385500000000000 H
   0.6730000000000000    0.4952000000000000    0.0419550000000000 H
   0.5835100000000000    0.4188450000000000    0.1147400000000000 C
   0.5360950000000000    0.4235000000000000    0.1172400000000000 C
   0.5198400000000000    0.4502600000000000    0.0417850000000000 C
   0.5671500000000000    0.4476500000000000    0.0372000000000000 C
   0.5997950000000000    0.4307900000000000    0.0738350000000000 C
   0.6653700000000000    0.3850600000000000    0.0815000000000000 C
   0.7127850000000000    0.3824000000000000    0.0769400000000000 C
   0.7300500000000000    0.4577800000000000    0.0496300000000000 C
   0.6827799999999999    0.4625250000000000    0.0521300000000000 C
   0.6496150000000001    0.4260050000000000    0.0692050000000000 C
   0.5042600000000000    0.4384050000000000    0.0809900000000000 N
   0.7451200000000000    0.4185350000000000    0.0618100000000000 N
