H4 O2
1.0
  26.7632268291288042    0.0000000000000000   -7.9393164499596667
  -9.4959062999128321   26.8240336423638048   -2.5130337635237709
   0.0000000000000000    0.0000000000000000   28.5839999999999996
H O
4 2
direct
   0.7341809649820157    0.4470222215846578    0.0529687626729231 H
   0.7216698949278859    0.3923290452518681    0.0727826330521443 H
   0.5155698621561421    0.4470108033286948    0.0525302345422623 H
   0.5273465323713455    0.4275959921471680    0.1072782612992390 H
   0.7451200000000000    0.4185350000000000    0.0618100000000000 O
   0.5042600000000000    0.4384050000000000    0.0809900000000000 O
