Zn32 H252 C470 S64 N30 O130
1.0
  26.7632268291288042    0.0000000000000000   -7.9393164499596667
  -9.4959062999128321   26.8240336423638048   -2.5130337635237709
   0.0000000000000000    0.0000000000000000   28.5839999999999996
Zn H C S N O
32 252 470 64 30 130
direct
   0.9296650000000000    0.9363800000000000    0.0803850000000000 Zn
   0.3196300000000000    0.9190100000000000    0.0638250000000000 Zn
   0.4296650000000000    0.9363800000000000    0.0803850000000000 Zn
   0.8196300000000001    0.9190100000000000    0.0638250000000000 Zn
   0.9296650000000000    0.9363800000000000    0.5803850000000000 Zn
   0.3196300000000000    0.9190100000000000    0.5638250000000000 Zn
   0.4296650000000000    0.9363800000000000    0.5803850000000000 Zn
   0.8196300000000001    0.9190100000000000    0.5638250000000000 Zn
   0.9296650000000000    0.4363800000000000    0.5803850000000000 Zn
   0.3196300000000000    0.4190100000000000    0.5638250000000000 Zn
   0.4296650000000000    0.4363800000000000    0.5803850000000000 Zn
   0.8196300000000001    0.4190100000000000    0.5638250000000000 Zn
   0.4296650000000000    0.4363800000000000    0.0803850000000000 Zn
   0.8196300000000001    0.4190100000000000    0.0638250000000000 Zn
   0.9296650000000000    0.4363800000000000    0.0803850000000000 Zn
   0.3196300000000000    0.4190100000000000    0.0638250000000000 Zn
   0.5703350000000000    0.5636150000000000    0.9196150000000001 Zn
   0.1803700000000000    0.5809900000000000    0.9361750000000000 Zn
   0.0703350000000000    0.5636150000000000    0.9196150000000001 Zn
   0.6803700000000000    0.5809900000000000    0.9361750000000000 Zn
   0.0703350000000000    0.5636150000000000    0.4196150000000000 Zn
   0.6803700000000000    0.5809900000000000    0.4361750000000000 Zn
   0.5703350000000000    0.5636150000000000    0.4196150000000000 Zn
   0.1803700000000000    0.5809900000000000    0.4361750000000000 Zn
   0.0703350000000000    0.0636150000000000    0.9196150000000001 Zn
   0.6803700000000000    0.0809900000000000    0.9361750000000000 Zn
   0.5703350000000000    0.0636150000000000    0.9196150000000001 Zn
   0.1803700000000000    0.0809900000000000    0.9361750000000000 Zn
   0.0703350000000000    0.0636150000000000    0.4196150000000000 Zn
   0.6803700000000000    0.0809900000000000    0.4361750000000000 Zn
   0.5703350000000000    0.0636150000000000    0.4196150000000000 Zn
   0.1803700000000000    0.0809900000000000    0.4361750000000000 Zn
   0.7667900000000001    0.9193100000000001    0.3895950000000000 H
   0.7856550000000000    0.9277450000000000    0.3048750000000000 H
   0.9908150000000000    0.9570300000000000    0.2564650000000000 H
   0.9755100000000000    0.9548650000000001    0.3428300000000000 H
   0.1080250000000000    0.9068050000000001    0.1449650000000000 H
   0.0773400000000000    0.9575750000000001    0.0045500000000000 H
   0.0222600000000000    0.9151500000000000    0.1485650000000000 H
   0.0000000000000000    0.9611799999999999    0.0131300000000000 H
   0.1404500000000000    0.8549200000000000    0.0937300000000000 H
   0.1730000000000000    0.9952000000000000    0.0419550000000000 H
   0.2262200000000000    0.8510300000000000    0.0855600000000000 H
   0.2579000000000000    0.9863550000000000    0.0385500000000000 H
   0.4829100000000000    0.6115100000000000    0.0799850000000000 H
   0.4635650000000000    0.6958450000000000    0.0709150000000000 H
   0.2580300000000000    0.7419350000000000    0.0426300000000000 H
   0.2736150000000000    0.6557900000000000    0.0449350000000000 H
   0.2667900000000000    0.9193100000000001    0.3895950000000000 H
   0.2856550000000000    0.9277450000000000    0.3048750000000000 H
   0.4908150000000000    0.9570300000000000    0.2564650000000000 H
   0.4755100000000000    0.9548650000000001    0.3428300000000000 H
   0.6080250000000000    0.9068050000000001    0.1449650000000000 H
   0.5773400000000000    0.9575750000000001    0.0045500000000000 H
   0.5222599999999999    0.9151500000000000    0.1485650000000000 H
   0.5000000000000000    0.9611799999999999    0.0131300000000000 H
   0.6404500000000000    0.8549200000000000    0.0937300000000000 H
   0.6730000000000000    0.9952000000000000    0.0419550000000000 H
   0.7262200000000000    0.8510300000000000    0.0855600000000000 H
   0.7579000000000000    0.9863550000000000    0.0385500000000000 H
   0.9829100000000000    0.6115100000000000    0.0799850000000000 H
   0.9635650000000000    0.6958450000000000    0.0709150000000000 H
   0.7580300000000000    0.7419350000000000    0.0426300000000000 H
   0.7736149999999999    0.6557900000000000    0.0449350000000000 H
   0.7667900000000001    0.9193100000000001    0.8895950000000000 H
   0.7856550000000000    0.9277450000000000    0.8048750000000000 H
   0.9908150000000000    0.9570300000000000    0.7564649999999999 H
   0.9755100000000000    0.9548650000000001    0.8428300000000000 H
   0.1080250000000000    0.9068050000000001    0.6449650000000000 H
   0.0773400000000000    0.9575750000000001    0.5045500000000001 H
   0.0222600000000000    0.9151500000000000    0.6485650000000001 H
   0.0000000000000000    0.9611799999999999    0.5131300000000000 H
   0.1404500000000000    0.8549200000000000    0.5937300000000000 H
   0.1730000000000000    0.9952000000000000    0.5419550000000000 H
   0.2262200000000000    0.8510300000000000    0.5855600000000000 H
   0.2579000000000000    0.9863550000000000    0.5385500000000000 H
   0.4829100000000000    0.6115100000000000    0.5799850000000000 H
   0.4635650000000000    0.6958450000000000    0.5709150000000001 H
   0.2580300000000000    0.7419350000000000    0.5426299999999999 H
   0.2736150000000000    0.6557900000000000    0.5449349999999999 H
   0.2667900000000000    0.9193100000000001    0.8895950000000000 H
   0.2856550000000000    0.9277450000000000    0.8048750000000000 H
   0.4908150000000000    0.9570300000000000    0.7564649999999999 H
   0.4755100000000000    0.9548650000000001    0.8428300000000000 H
   0.6080250000000000    0.9068050000000001    0.6449650000000000 H
   0.5773400000000000    0.9575750000000001    0.5045500000000001 H
   0.5222599999999999    0.9151500000000000    0.6485650000000001 H
   0.5000000000000000    0.9611799999999999    0.5131300000000000 H
   0.6404500000000000    0.8549200000000000    0.5937300000000000 H
   0.6730000000000000    0.9952000000000000    0.5419550000000000 H
   0.7262200000000000    0.8510300000000000    0.5855600000000000 H
   0.7579000000000000    0.9863550000000000    0.5385500000000000 H
   0.9829100000000000    0.6115100000000000    0.5799850000000000 H
   0.9635650000000000    0.6958450000000000    0.5709150000000001 H
   0.7580300000000000    0.7419350000000000    0.5426299999999999 H
   0.7736149999999999    0.6557900000000000    0.5449349999999999 H
   0.7667900000000001    0.4193100000000000    0.8895950000000000 H
   0.7856550000000000    0.4277450000000000    0.8048750000000000 H
   0.9908150000000000    0.4570300000000000    0.7564649999999999 H
   0.9755100000000000    0.4548650000000000    0.8428300000000000 H
   0.1080250000000000    0.4068050000000000    0.6449650000000000 H
   0.0773400000000000    0.4575750000000000    0.5045500000000001 H
   0.0222600000000000    0.4151500000000000    0.6485650000000001 H
   0.0000000000000000    0.4611800000000000    0.5131300000000000 H
   0.1404500000000000    0.3549200000000000    0.5937300000000000 H
   0.1730000000000000    0.4952000000000000    0.5419550000000000 H
   0.2262200000000000    0.3510300000000000    0.5855600000000000 H
   0.2579000000000000    0.4863550000000000    0.5385500000000000 H
   0.4829100000000000    0.1115100000000000    0.5799850000000000 H
   0.4635650000000000    0.1958450000000000    0.5709150000000001 H
   0.2580300000000000    0.2419350000000000    0.5426299999999999 H
   0.2736150000000000    0.1557900000000000    0.5449349999999999 H
   0.2667900000000000    0.4193100000000000    0.8895950000000000 H
   0.2856550000000000    0.4277450000000000    0.8048750000000000 H
   0.4908150000000000    0.4570300000000000    0.7564649999999999 H
   0.4755100000000000    0.4548650000000000    0.8428300000000000 H
   0.6080250000000000    0.4068050000000000    0.6449650000000000 H
   0.5773400000000000    0.4575750000000000    0.5045500000000001 H
   0.5222599999999999    0.4151500000000000    0.6485650000000001 H
   0.5000000000000000    0.4611800000000000    0.5131300000000000 H
   0.6404500000000000    0.3549200000000000    0.5937300000000000 H
   0.6730000000000000    0.4952000000000000    0.5419550000000000 H
   0.7262200000000000    0.3510300000000000    0.5855600000000000 H
   0.7579000000000000    0.4863550000000000    0.5385500000000000 H
   0.9829100000000000    0.1115100000000000    0.5799850000000000 H
   0.9635650000000000    0.1958450000000000    0.5709150000000001 H
   0.7580300000000000    0.2419350000000000    0.5426299999999999 H
   0.7736149999999999    0.1557900000000000    0.5449349999999999 H
   0.5155698621561421    0.4470108033286948    0.0525302345422623 H
   0.5273465323713455    0.4275959921471680    0.1072782612992390 H
   0.2667900000000000    0.4193100000000000    0.3895950000000000 H
   0.2856550000000000    0.4277450000000000    0.3048750000000000 H
   0.4908150000000000    0.4570300000000000    0.2564650000000000 H
   0.4755100000000000    0.4548650000000000    0.3428300000000000 H
   0.7341809649820157    0.4470222215846578    0.0529687626729231 H
   0.7216698949278859    0.3923290452518681    0.0727826330521443 H
   0.9829100000000000    0.1115100000000000    0.0799850000000000 H
   0.9635650000000000    0.1958450000000000    0.0709150000000000 H
   0.7580300000000000    0.2419350000000000    0.0426300000000000 H
   0.7736149999999999    0.1557900000000000    0.0449350000000000 H
   0.7667900000000001    0.4193100000000000    0.3895950000000000 H
   0.7856550000000000    0.4277450000000000    0.3048750000000000 H
   0.9908150000000000    0.4570300000000000    0.2564650000000000 H
   0.9755100000000000    0.4548650000000000    0.3428300000000000 H
   0.1080250000000000    0.4068050000000000    0.1449650000000000 H
   0.0773400000000000    0.4575750000000000    0.0045500000000000 H
   0.0222600000000000    0.4151500000000000    0.1485650000000000 H
   0.0000000000000000    0.4611800000000000    0.0131300000000000 H
   0.1404500000000000    0.3549200000000000    0.0937300000000000 H
   0.1730000000000000    0.4952000000000000    0.0419550000000000 H
   0.2262200000000000    0.3510300000000000    0.0855600000000000 H
   0.2579000000000000    0.4863550000000000    0.0385500000000000 H
   0.4829100000000000    0.1115100000000000    0.0799850000000000 H
   0.4635650000000000    0.1958450000000000    0.0709150000000000 H
   0.2580300000000000    0.2419350000000000    0.0426300000000000 H
   0.2736150000000000    0.1557900000000000    0.0449350000000000 H
   0.7332100000000000    0.5806850000000000    0.6104000000000001 H
   0.7143450000000000    0.5722500000000000    0.6951250000000000 H
   0.5091850000000000    0.5429650000000000    0.7435300000000000 H
   0.5244900000000000    0.5451300000000000    0.6571700000000000 H
   0.3595500000000000    0.6450800000000000    0.9062700000000000 H
   0.3269950000000000    0.5047950000000000    0.9580400000000000 H
   0.2737800000000000    0.6489650000000000    0.9144399999999999 H
   0.2421000000000000    0.5136350000000000    0.9614400000000001 H
   0.3919800000000000    0.5931999999999999    0.8550350000000000 H
   0.4226600000000000    0.5424200000000000    0.9954450000000000 H
   0.4777400000000000    0.5848500000000000    0.8514349999999999 H
   0.5076050000000000    0.5388100000000000    0.9868650000000000 H
   0.0170900000000000    0.8884850000000000    0.9200150000000000 H
   0.0364400000000000    0.8041550000000000    0.9290849999999999 H
   0.2419700000000000    0.7580600000000000    0.9573650000000000 H
   0.2263850000000000    0.8442050000000000    0.9550600000000000 H
   0.2332100000000000    0.5806850000000000    0.6104000000000001 H
   0.2143450000000000    0.5722500000000000    0.6951250000000000 H
   0.0091850000000000    0.5429650000000000    0.7435300000000000 H
   0.0244900000000000    0.5451300000000000    0.6571700000000000 H
   0.8595500000000000    0.6450800000000000    0.9062700000000000 H
   0.8269949999999999    0.5047950000000000    0.9580400000000000 H
   0.7737800000000000    0.6489650000000000    0.9144399999999999 H
   0.7421000000000000    0.5136350000000000    0.9614400000000001 H
   0.8919800000000000    0.5931999999999999    0.8550350000000000 H
   0.9226600000000000    0.5424200000000000    0.9954450000000000 H
   0.9777400000000001    0.5848500000000000    0.8514349999999999 H
   0.0076050000000000    0.5388100000000000    0.9868650000000000 H
   0.5170900000000000    0.8884850000000000    0.9200150000000000 H
   0.5364400000000000    0.8041550000000000    0.9290849999999999 H
   0.7419700000000000    0.7580600000000000    0.9573650000000000 H
   0.7263850000000001    0.8442050000000000    0.9550600000000000 H
   0.2332100000000000    0.5806850000000000    0.1104000000000000 H
   0.2143450000000000    0.5722500000000000    0.1951250000000000 H
   0.0091850000000000    0.5429650000000000    0.2435300000000000 H
   0.0244900000000000    0.5451300000000000    0.1571700000000000 H
   0.8595500000000000    0.6450800000000000    0.4062700000000000 H
   0.8269949999999999    0.5047950000000000    0.4580400000000000 H
   0.7737800000000000    0.6489650000000000    0.4144400000000000 H
   0.7421000000000000    0.5136350000000000    0.4614400000000000 H
   0.8919800000000000    0.5931999999999999    0.3550350000000000 H
   0.9226600000000000    0.5424200000000000    0.4954450000000000 H
   0.9777400000000001    0.5848500000000000    0.3514350000000000 H
   0.0076050000000000    0.5388100000000000    0.4868650000000000 H
   0.5170900000000000    0.8884850000000000    0.4200150000000000 H
   0.5364400000000000    0.8041550000000000    0.4290850000000000 H
   0.7419700000000000    0.7580600000000000    0.4573650000000000 H
   0.7263850000000001    0.8442050000000000    0.4550600000000000 H
   0.7332100000000000    0.5806850000000000    0.1104000000000000 H
   0.7143450000000000    0.5722500000000000    0.1951250000000000 H
   0.5091850000000000    0.5429650000000000    0.2435300000000000 H
   0.5244900000000000    0.5451300000000000    0.1571700000000000 H
   0.3595500000000000    0.6450800000000000    0.4062700000000000 H
   0.3269950000000000    0.5047950000000000    0.4580400000000000 H
   0.2737800000000000    0.6489650000000000    0.4144400000000000 H
   0.2421000000000000    0.5136350000000000    0.4614400000000000 H
   0.3919800000000000    0.5931999999999999    0.3550350000000000 H
   0.4226600000000000    0.5424200000000000    0.4954450000000000 H
   0.4777400000000000    0.5848500000000000    0.3514350000000000 H
   0.5076050000000000    0.5388100000000000    0.4868650000000000 H
   0.0170900000000000    0.8884850000000000    0.4200150000000000 H
   0.0364400000000000    0.8041550000000000    0.4290850000000000 H
   0.2419700000000000    0.7580600000000000    0.4573650000000000 H
   0.2263850000000000    0.8442050000000000    0.4550600000000000 H
   0.2332100000000000    0.0806850000000000    0.6104000000000001 H
   0.2143450000000000    0.0722500000000000    0.6951250000000000 H
   0.0091850000000000    0.0429650000000000    0.7435300000000000 H
   0.0244900000000000    0.0451300000000000    0.6571700000000000 H
   0.8595500000000000    0.1450800000000000    0.9062700000000000 H
   0.8269949999999999    0.0047950000000000    0.9580400000000000 H
   0.7737800000000000    0.1489650000000000    0.9144399999999999 H
   0.7421000000000000    0.0136350000000000    0.9614400000000001 H
   0.8919800000000000    0.0932000000000000    0.8550350000000000 H
   0.9226600000000000    0.0424200000000000    0.9954450000000000 H
   0.9777400000000001    0.0848500000000000    0.8514349999999999 H
   0.0076050000000000    0.0388100000000000    0.9868650000000000 H
   0.5170900000000000    0.3884850000000000    0.9200150000000000 H
   0.5364400000000000    0.3041550000000000    0.9290849999999999 H
   0.7419700000000000    0.2580600000000000    0.9573650000000000 H
   0.7263850000000001    0.3442050000000000    0.9550600000000000 H
   0.7332100000000000    0.0806850000000000    0.6104000000000001 H
   0.7143450000000000    0.0722500000000000    0.6951250000000000 H
   0.5091850000000000    0.0429650000000000    0.7435300000000000 H
   0.5244900000000000    0.0451300000000000    0.6571700000000000 H
   0.3595500000000000    0.1450800000000000    0.9062700000000000 H
   0.3269950000000000    0.0047950000000000    0.9580400000000000 H
   0.2737800000000000    0.1489650000000000    0.9144399999999999 H
   0.2421000000000000    0.0136350000000000    0.9614400000000001 H
   0.3919800000000000    0.0932000000000000    0.8550350000000000 H
   0.4226600000000000    0.0424200000000000    0.9954450000000000 H
   0.4777400000000000    0.0848500000000000    0.8514349999999999 H
   0.5076050000000000    0.0388100000000000    0.9868650000000000 H
   0.0170900000000000    0.3884850000000000    0.9200150000000000 H
   0.0364400000000000    0.3041550000000000    0.9290849999999999 H
   0.2419700000000000    0.2580600000000000    0.9573650000000000 H
   0.2263850000000000    0.3442050000000000    0.9550600000000000 H
   0.2332100000000000    0.0806850000000000    0.1104000000000000 H
   0.2143450000000000    0.0722500000000000    0.1951250000000000 H
   0.0091850000000000    0.0429650000000000    0.2435300000000000 H
   0.0244900000000000    0.0451300000000000    0.1571700000000000 H
   0.8595500000000000    0.1450800000000000    0.4062700000000000 H
   0.8269949999999999    0.0047950000000000    0.4580400000000000 H
   0.7737800000000000    0.1489650000000000    0.4144400000000000 H
   0.7421000000000000    0.0136350000000000    0.4614400000000000 H
   0.8919800000000000    0.0932000000000000    0.3550350000000000 H
   0.9226600000000000    0.0424200000000000    0.4954450000000000 H
   0.9777400000000001    0.0848500000000000    0.3514350000000000 H
   0.0076050000000000    0.0388100000000000    0.4868650000000000 H
   0.5170900000000000    0.3884850000000000    0.4200150000000000 H
   0.5364400000000000    0.3041550000000000    0.4290850000000000 H
   0.7419700000000000    0.2580600000000000    0.4573650000000000 H
   0.7263850000000001    0.3442050000000000    0.4550600000000000 H
   0.7332100000000000    0.0806850000000000    0.1104000000000000 H
   0.7143450000000000    0.0722500000000000    0.1951250000000000 H
   0.5091850000000000    0.0429650000000000    0.2435300000000000 H
   0.5244900000000000    0.0451300000000000    0.1571700000000000 H
   0.3595500000000000    0.1450800000000000    0.4062700000000000 H
   0.3269950000000000    0.0047950000000000    0.4580400000000000 H
   0.2737800000000000    0.1489650000000000    0.4144400000000000 H
   0.2421000000000000    0.0136350000000000    0.4614400000000000 H
   0.3919800000000000    0.0932000000000000    0.3550350000000000 H
   0.4226600000000000    0.0424200000000000    0.4954450000000000 H
   0.4777400000000000    0.0848500000000000    0.3514350000000000 H
   0.5076050000000000    0.0388100000000000    0.4868650000000000 H
   0.0170900000000000    0.3884850000000000    0.4200150000000000 H
   0.0364400000000000    0.3041550000000000    0.4290850000000000 H
   0.2419700000000000    0.2580600000000000    0.4573650000000000 H
   0.2263850000000000    0.3442050000000000    0.4550600000000000 H
   0.8976900000000000    0.9351050000000001    0.1682950000000000 C
   0.8542250000000000    0.9216299999999999    0.4751850000000000 C
   0.8043549999999999    0.9216299999999999    0.3841050000000000 C
   0.8479550000000000    0.9214800000000001    0.4222400000000000 C
   0.8145800000000001    0.9260750000000000    0.3389300000000000 C
   0.8662500000000000    0.9291800000000000    0.3421050000000000 C
   0.9520999999999999    0.9479450000000000    0.2613050000000000 C
   0.9056949999999999    0.9371600000000000    0.2218500000000000 C
   0.9436000000000000    0.9464300000000000    0.3075600000000000 C
   0.8902300000000001    0.9341900000000001    0.3034300000000000 C
   0.0835100000000000    0.9188450000000000    0.1147400000000000 C
   0.0671500000000000    0.9476500000000000    0.0372000000000000 C
   0.0360950000000000    0.9235000000000000    0.1172400000000000 C
   0.0198400000000000    0.9502600000000000    0.0417850000000000 C
   0.0997950000000000    0.9307900000000000    0.0738350000000000 C
   0.1653700000000000    0.8850600000000000    0.0815000000000000 C
   0.1827800000000000    0.9625250000000001    0.0521300000000000 C
   0.2127850000000000    0.8824000000000001    0.0769400000000000 C
   0.2300500000000000    0.9577800000000001    0.0496300000000000 C
   0.1496150000000000    0.9260050000000000    0.0692050000000000 C
   0.3510250000000000    0.8311050000000000    0.0640300000000000 C
   0.3958700000000000    0.5251000000000000    0.0788750000000000 C
   0.4452750000000000    0.6165900000000000    0.0778550000000000 C
   0.4018250000000000    0.5780400000000000    0.0786100000000000 C
   0.4347900000000000    0.6615400000000000    0.0730700000000000 C
   0.3830650000000000    0.6577900000000000    0.0703050000000000 C
   0.2968100000000000    0.7375350000000001    0.0516000000000000 C
   0.3431500000000000    0.7774900000000000    0.0620950000000000 C
   0.3054650000000000    0.6914000000000000    0.0531950000000000 C
   0.3588950000000000    0.6961349999999999    0.0652100000000000 C
   0.3976900000000000    0.9351050000000001    0.1682950000000000 C
   0.3542250000000000    0.9216299999999999    0.4751850000000000 C
   0.3043550000000000    0.9216299999999999    0.3841050000000000 C
   0.3479550000000000    0.9214800000000001    0.4222400000000000 C
   0.3145800000000000    0.9260750000000000    0.3389300000000000 C
   0.3662500000000000    0.9291800000000000    0.3421050000000000 C
   0.4521000000000000    0.9479450000000000    0.2613050000000000 C
   0.4056950000000000    0.9371600000000000    0.2218500000000000 C
   0.4436000000000000    0.9464300000000000    0.3075600000000000 C
   0.3902300000000000    0.9341900000000001    0.3034300000000000 C
   0.5835100000000000    0.9188450000000000    0.1147400000000000 C
   0.5671500000000000    0.9476500000000000    0.0372000000000000 C
   0.5360950000000000    0.9235000000000000    0.1172400000000000 C
   0.5198400000000000    0.9502600000000000    0.0417850000000000 C
   0.5997950000000000    0.9307900000000000    0.0738350000000000 C
   0.6653700000000000    0.8850600000000000    0.0815000000000000 C
   0.6827799999999999    0.9625250000000001    0.0521300000000000 C
   0.7127850000000000    0.8824000000000001    0.0769400000000000 C
   0.7300500000000000    0.9577800000000001    0.0496300000000000 C
   0.6496150000000001    0.9260050000000000    0.0692050000000000 C
   0.8510249999999999    0.8311050000000000    0.0640300000000000 C
   0.8958699999999999    0.5251000000000000    0.0788750000000000 C
   0.9452750000000000    0.6165900000000000    0.0778550000000000 C
   0.9018250000000000    0.5780400000000000    0.0786100000000000 C
   0.9347900000000000    0.6615400000000000    0.0730700000000000 C
   0.8830650000000000    0.6577900000000000    0.0703050000000000 C
   0.7968100000000000    0.7375350000000001    0.0516000000000000 C
   0.8431500000000001    0.7774900000000000    0.0620950000000000 C
   0.8054650000000000    0.6914000000000000    0.0531950000000000 C
   0.8588950000000000    0.6961349999999999    0.0652100000000000 C
   0.8976900000000000    0.9351050000000001    0.6682950000000000 C
   0.8542250000000000    0.9216299999999999    0.9751850000000000 C
   0.8043549999999999    0.9216299999999999    0.8841049999999999 C
   0.8479550000000000    0.9214800000000001    0.9222399999999999 C
   0.8145800000000001    0.9260750000000000    0.8389300000000000 C
   0.8662500000000000    0.9291800000000000    0.8421050000000000 C
   0.9520999999999999    0.9479450000000000    0.7613050000000000 C
   0.9056949999999999    0.9371600000000000    0.7218500000000000 C
   0.9436000000000000    0.9464300000000000    0.8075600000000001 C
   0.8902300000000001    0.9341900000000001    0.8034300000000000 C
   0.0835100000000000    0.9188450000000000    0.6147400000000000 C
   0.0671500000000000    0.9476500000000000    0.5372000000000000 C
   0.0360950000000000    0.9235000000000000    0.6172400000000000 C
   0.0198400000000000    0.9502600000000000    0.5417850000000000 C
   0.0997950000000000    0.9307900000000000    0.5738350000000000 C
   0.1653700000000000    0.8850600000000000    0.5815000000000000 C
   0.1827800000000000    0.9625250000000001    0.5521300000000000 C
   0.2127850000000000    0.8824000000000001    0.5769400000000000 C
   0.2300500000000000    0.9577800000000001    0.5496300000000000 C
   0.1496150000000000    0.9260050000000000    0.5692050000000000 C
   0.3510250000000000    0.8311050000000000    0.5640300000000000 C
   0.3958700000000000    0.5251000000000000    0.5788750000000000 C
   0.4452750000000000    0.6165900000000000    0.5778550000000000 C
   0.4018250000000000    0.5780400000000000    0.5786100000000000 C
   0.4347900000000000    0.6615400000000000    0.5730700000000000 C
   0.3830650000000000    0.6577900000000000    0.5703050000000001 C
   0.2968100000000000    0.7375350000000001    0.5516000000000000 C
   0.3431500000000000    0.7774900000000000    0.5620950000000000 C
   0.3054650000000000    0.6914000000000000    0.5531950000000000 C
   0.3588950000000000    0.6961349999999999    0.5652100000000000 C
   0.3976900000000000    0.9351050000000001    0.6682950000000000 C
   0.3542250000000000    0.9216299999999999    0.9751850000000000 C
   0.3043550000000000    0.9216299999999999    0.8841049999999999 C
   0.3479550000000000    0.9214800000000001    0.9222399999999999 C
   0.3145800000000000    0.9260750000000000    0.8389300000000000 C
   0.3662500000000000    0.9291800000000000    0.8421050000000000 C
   0.4521000000000000    0.9479450000000000    0.7613050000000000 C
   0.4056950000000000    0.9371600000000000    0.7218500000000000 C
   0.4436000000000000    0.9464300000000000    0.8075600000000001 C
   0.3902300000000000    0.9341900000000001    0.8034300000000000 C
   0.5835100000000000    0.9188450000000000    0.6147400000000000 C
   0.5671500000000000    0.9476500000000000    0.5372000000000000 C
   0.5360950000000000    0.9235000000000000    0.6172400000000000 C
   0.5198400000000000    0.9502600000000000    0.5417850000000000 C
   0.5997950000000000    0.9307900000000000    0.5738350000000000 C
   0.6653700000000000    0.8850600000000000    0.5815000000000000 C
   0.6827799999999999    0.9625250000000001    0.5521300000000000 C
   0.7127850000000000    0.8824000000000001    0.5769400000000000 C
   0.7300500000000000    0.9577800000000001    0.5496300000000000 C
   0.6496150000000001    0.9260050000000000    0.5692050000000000 C
   0.8510249999999999    0.8311050000000000    0.5640300000000000 C
   0.8958699999999999    0.5251000000000000    0.5788750000000000 C
   0.9452750000000000    0.6165900000000000    0.5778550000000000 C
   0.9018250000000000    0.5780400000000000    0.5786100000000000 C
   0.9347900000000000    0.6615400000000000    0.5730700000000000 C
   0.8830650000000000    0.6577900000000000    0.5703050000000001 C
   0.7968100000000000    0.7375350000000001    0.5516000000000000 C
   0.8431500000000001    0.7774900000000000    0.5620950000000000 C
   0.8054650000000000    0.6914000000000000    0.5531950000000000 C
   0.8588950000000000    0.6961349999999999    0.5652100000000000 C
   0.8976900000000000    0.4351050000000000    0.6682950000000000 C
   0.8542250000000000    0.4216300000000000    0.9751850000000000 C
   0.8043549999999999    0.4216300000000000    0.8841049999999999 C
   0.8479550000000000    0.4214800000000000    0.9222399999999999 C
   0.8145800000000001    0.4260750000000000    0.8389300000000000 C
   0.8662500000000000    0.4291800000000000    0.8421050000000000 C
   0.9520999999999999    0.4479450000000000    0.7613050000000000 C
   0.9056949999999999    0.4371600000000000    0.7218500000000000 C
   0.9436000000000000    0.4464300000000000    0.8075600000000001 C
   0.8902300000000001    0.4341900000000000    0.8034300000000000 C
   0.0835100000000000    0.4188450000000000    0.6147400000000000 C
   0.0671500000000000    0.4476500000000000    0.5372000000000000 C
   0.0360950000000000    0.4235000000000000    0.6172400000000000 C
   0.0198400000000000    0.4502600000000000    0.5417850000000000 C
   0.0997950000000000    0.4307900000000000    0.5738350000000000 C
   0.1653700000000000    0.3850600000000000    0.5815000000000000 C
   0.1827800000000000    0.4625250000000000    0.5521300000000000 C
   0.2127850000000000    0.3824000000000000    0.5769400000000000 C
   0.2300500000000000    0.4577800000000000    0.5496300000000000 C
   0.1496150000000000    0.4260050000000000    0.5692050000000000 C
   0.3510250000000000    0.3311050000000000    0.5640300000000000 C
   0.3958700000000000    0.0251000000000000    0.5788750000000000 C
   0.4452750000000000    0.1165900000000000    0.5778550000000000 C
   0.4018250000000000    0.0780400000000000    0.5786100000000000 C
   0.4347900000000000    0.1615400000000000    0.5730700000000000 C
   0.3830650000000000    0.1577900000000000    0.5703050000000001 C
   0.2968100000000000    0.2375350000000000    0.5516000000000000 C
   0.3431500000000000    0.2774900000000000    0.5620950000000000 C
   0.3054650000000000    0.1914000000000000    0.5531950000000000 C
   0.3588950000000000    0.1961350000000000    0.5652100000000000 C
   0.3976900000000000    0.4351050000000000    0.6682950000000000 C
   0.3542250000000000    0.4216300000000000    0.9751850000000000 C