H4 C10 S2 O4
1.0
  26.7632268291288042    0.0000000000000000   -7.9393164499596667
  -9.4959062999128321   26.8240336423638048   -2.5130337635237709
   0.0000000000000000    0.0000000000000000   28.5839999999999996
H C S O
4 10 2 4
direct
   0.4755100000000000    0.4548650000000000    0.3428300000000000 H
   0.4908150000000000    0.4570300000000000    0.2564650000000000 H
   0.2667900000000000    0.4193100000000000    0.3895950000000000 H
   0.2856550000000000    0.4277450000000000    0.3048750000000000 H
   0.3542250000000000    0.4216300000000000    0.4751850000000000 C
   0.3976900000000000    0.4351050000000000    0.1682950000000000 C
   0.4056950000000000    0.4371600000000000    0.2218500000000000 C
   0.3902300000000000    0.4341900000000000    0.3034300000000000 C
   0.3479550000000000    0.4214800000000000    0.4222400000000000 C
   0.4436000000000000    0.4464300000000000    0.3075600000000000 C
   0.4521000000000000    0.4479450000000000    0.2613050000000000 C
   0.3662500000000000    0.4291800000000000    0.3421050000000000 C
   0.3043550000000000    0.4216300000000000    0.3841050000000000 C
   0.3145800000000000    0.4260750000000000    0.3389300000000000 C
   0.4016550000000000    0.4258700000000000    0.4017450000000000 S
   0.3509400000000000    0.4244850000000000    0.2417600000000000 S
   0.3141650000000000    0.4197100000000000    0.4890850000000000 O
   0.4388800000000000    0.4463950000000000    0.1547750000000000 O
   0.3496700000000000    0.4221550000000000    0.1399050000000000 O
   0.4003250000000000    0.4251550000000000    0.5032650000000000 O
