H6 O4
1.0
  12.7162460331284262    0.0000000000000000   -3.4768629286967205
  -5.3141524813956567   37.6969802763030728  -10.6041889106377702
   0.0000000000000000    0.0000000000000000   13.9800000000000004
H O
6 4
direct
   0.2133530587622271    0.8943365474296897    0.8796079094770318 H
   0.0733639987173642    0.8714328321881433    0.5771720264713314 H
   0.1418785363404124    0.8786678051658372    0.7257546670801704 H
   0.1631063839728422    0.6991232301229652    0.8959688889392265 H
   0.1635457677717273    0.6790505795637325    0.6556605561397049 H
   0.1615979925553676    0.7159581447366148    0.7666046900860110 H
   0.1856500000000000    0.9017366666666666    0.8180700000000000 O
   0.1055200000000000    0.8883799999999999    0.6449900000000000 O
   0.1645600000000000    0.6742899999999999    0.8628500000000000 O
   0.1647500000000000    0.6621100000000000    0.6947900000000000 O
