Zn12 H136 C204 N10 O50
1.0
  12.7162460331284262    0.0000000000000000   -3.4768629286967205
  -5.3141524813956567   37.6969802763030728  -10.6041889106377702
   0.0000000000000000    0.0000000000000000   13.9800000000000004
Zn H C N O
12 136 204 10 50
direct
   0.1816400000000000    0.2889666666666666    0.8624000000000001 Zn
   0.1332500000000000    0.2727100000000000    0.6376200000000000 Zn
   0.1816400000000000    0.6223000000000000    0.8624000000000001 Zn
   0.1332500000000000    0.6060433333333333    0.6376200000000000 Zn
   0.1816400000000000    0.9556333333333333    0.8624000000000001 Zn
   0.1332500000000000    0.9393766666666666    0.6376200000000000 Zn
   0.8183800000000000    0.7110400000000000    0.1376200000000000 Zn
   0.8667800000000000    0.7272966666666666    0.3624000000000000 Zn
   0.8183800000000000    0.3777066666666666    0.1376200000000000 Zn
   0.8667800000000000    0.3939633333333333    0.3624000000000000 Zn
   0.8183800000000000    0.0443733333333333    0.1376200000000000 Zn
   0.8667800000000000    0.0606300000000000    0.3624000000000000 Zn
   0.2171200000000000    0.1946133333333333    0.3923700000000000 H
   0.2458200000000000    0.2192300000000000    0.5265600000000000 H
   0.1152400000000000    0.1984600000000000    0.4554800000000000 H
   0.4153000000000000    0.2610100000000000    0.1064000000000000 H
   0.4035300000000000    0.2950066666666666    0.0436900000000000 H
   0.3418100000000000    0.2513333333333333    0.9723000000000001 H
   0.3135100000000000    0.2672733333333333    0.2236100000000000 H
   0.0083100000000000    0.3042766666666666    0.1504000000000000 H
   0.0384300000000000    0.3072233333333333    0.9849400000000000 H
   0.1975500000000000    0.2284733333333333    0.2752300000000000 H
   0.0862300000000000    0.3303400000000000    0.3499200000000000 H
   0.0778600000000000    0.3203666666666666    0.5156700000000000 H
   0.2171200000000000    0.8612799999999999    0.3923700000000000 H
   0.2458200000000000    0.8858966666666666    0.5265600000000000 H
   0.1152400000000000    0.8651266666666666    0.4554800000000000 H
   0.4153000000000000    0.9276766666666666    0.1064000000000000 H
   0.4035300000000000    0.9616733333333333    0.0436900000000000 H
   0.3418100000000000    0.9179999999999999    0.9723000000000001 H
   0.3135100000000000    0.9339400000000000    0.2236100000000000 H
   0.0083100000000000    0.9709433333333333    0.1504000000000000 H
   0.0384300000000000    0.9738899999999999    0.9849400000000000 H
   0.1975500000000000    0.8951399999999999    0.2752300000000000 H
   0.0862300000000000    0.9970066666666666    0.3499200000000000 H
   0.0778600000000000    0.9870333333333332    0.5156700000000000 H
   0.2171200000000000    0.5279466666666667    0.3923700000000000 H
   0.2458200000000000    0.5525633333333333    0.5265600000000000 H
   0.1152400000000000    0.5317933333333333    0.4554800000000000 H
   0.4153000000000000    0.5943433333333332    0.1064000000000000 H
   0.4035300000000000    0.6283399999999999    0.0436900000000000 H
   0.3418100000000000    0.5846666666666667    0.9723000000000001 H
   0.3135100000000000    0.6006066666666666    0.2236100000000000 H
   0.0083100000000000    0.6376100000000000    0.1504000000000000 H
   0.0384300000000000    0.6405566666666667    0.9849400000000000 H
   0.1975500000000000    0.5618066666666667    0.2752300000000000 H
   0.0862300000000000    0.6636733333333333    0.3499200000000000 H
   0.0778600000000000    0.6536999999999999    0.5156700000000000 H
   0.0982000000000000    0.1574533333333333    0.5516300000000000 H
   0.1013400000000000    0.0937966666666667    0.5379000000000000 H
   0.1760900000000000    0.1841166666666667    0.8837400000000000 H
   0.1959800000000000    0.0719933333333333    0.9560000000000000 H
   0.1934400000000000    0.1358300000000000    0.9694199999999999 H
   0.1355500000000000    0.0462133333333333    0.6256600000000000 H
   0.7857800000000000    0.2681033333333333    0.5447500000000000 H
   0.5943500000000000    0.2688199999999999    0.5306900000000000 H
   0.8602500000000000    0.2881266666666666    0.8748700000000000 H
   0.5256700000000000    0.3003000000000000    0.9475300000000000 H
   0.7166300000000000    0.2993066666666667    0.9619700000000000 H
   0.4486600000000000    0.2744900000000000    0.6156500000000000 H
   0.0982000000000000    0.4907866666666666    0.5516300000000000 H
   0.1013400000000000    0.4271300000000000    0.5379000000000000 H
   0.1760900000000000    0.5174500000000000    0.8837400000000000 H
   0.1959800000000000    0.4053266666666666    0.9560000000000000 H
   0.1934400000000000    0.4691633333333333    0.9694199999999999 H
   0.1355500000000000    0.3795466666666666    0.6256600000000000 H
   0.7857800000000000    0.6014366666666666    0.5447500000000000 H
   0.5943500000000000    0.6021533333333333    0.5306900000000000 H
   0.8602500000000000    0.6214599999999999    0.8748700000000000 H
   0.5256700000000000    0.6336333333333333    0.9475300000000000 H
   0.7166300000000000    0.6326400000000000    0.9619700000000000 H
   0.4486600000000000    0.6078233333333334    0.6156500000000000 H
   0.0982000000000000    0.8241200000000000    0.5516300000000000 H
   0.1013400000000000    0.7604633333333333    0.5379000000000000 H
   0.1760900000000000    0.8507833333333332    0.8837400000000000 H
   0.1959800000000000    0.7386600000000000    0.9560000000000000 H
   0.1934400000000000    0.8024966666666666    0.9694199999999999 H
   0.1355500000000000    0.7128800000000000    0.6256600000000000 H
   0.7857800000000000    0.9347699999999999    0.5447500000000000 H
   0.5943500000000000    0.9354866666666666    0.5306900000000000 H
   0.8602500000000000    0.9547933333333333    0.8748700000000000 H
   0.5256700000000000    0.9669666666666666    0.9475300000000000 H
   0.7166300000000000    0.9659733333333334    0.9619700000000000 H
   0.4486600000000000    0.9411566666666666    0.6156500000000000 H
   0.8777616518051284    0.3699170060398831    0.9662187235606465 H
   0.7583949402252821    0.3841552564997028    0.9392529951468700 H
   0.7829199999999999    0.8053966666666666    0.6076500000000000 H
   0.7542100000000000    0.7807799999999999    0.4734700000000000 H
   0.8847900000000000    0.8015500000000000    0.5445500000000000 H
   0.5847200000000000    0.7389933333333333    0.8936200000000000 H
   0.6582200000000000    0.7486733333333333    0.0276500000000000 H
   0.5965000000000000    0.7050000000000000    0.9563300000000000 H
   0.6865200000000000    0.7327333333333332    0.7764100000000000 H
   0.9917200000000000    0.6957300000000000    0.8495600000000000 H
   0.9616000000000000    0.6927833333333333    0.0150900000000000 H
   0.8024900000000000    0.7715333333333333    0.7247900000000000 H
   0.9137999999999999    0.6696666666666666    0.6501000000000000 H
   0.9221700000000000    0.6796433333333333    0.4843500000000000 H
   0.7829199999999999    0.1387300000000000    0.6076500000000000 H
   0.7542100000000000    0.1141133333333333    0.4734700000000000 H
   0.8847900000000000    0.1348833333333333    0.5445500000000000 H
   0.5847200000000000    0.0723266666666667    0.8936200000000000 H
   0.6582200000000000    0.0820066666666667    0.0276500000000000 H
   0.5965000000000000    0.0383333333333333    0.9563300000000000 H
   0.6865200000000000    0.0660666666666667    0.7764100000000000 H
   0.9917200000000000    0.0290633333333333    0.8495600000000000 H
   0.9616000000000000    0.0261166666666667    0.0150900000000000 H
   0.8024900000000000    0.1048666666666667    0.7247900000000000 H
   0.9137999999999999    0.0030000000000000    0.6501000000000000 H
   0.9221700000000000    0.0129766666666667    0.4843500000000000 H
   0.8907060193142430    0.3742932701289194    0.5337116010497245 H
   0.8478628102813154    0.4141327616695376    0.5612869328897164 H
   0.9018200000000000    0.8425566666666666    0.4483900000000000 H
   0.8986900000000000    0.9062133333333333    0.4621200000000000 H
   0.8239500000000000    0.8158900000000000    0.1162800000000000 H
   0.8040600000000000    0.9280166666666666    0.0439500000000000 H
   0.8066000000000000    0.8641799999999999    0.0306000000000000 H
   0.8644800000000000    0.9537933333333333    0.3743600000000000 H
   0.1397800000000000    0.7118800000000000    0.1251600000000000 H
   0.2142500000000000    0.7319033333333334    0.4552800000000000 H
   0.4056800000000000    0.7311866666666667    0.4693300000000000 H
   0.4743600000000000    0.6997099999999999    0.0525000000000000 H
   0.2834000000000000    0.7007000000000000    0.0380600000000000 H
   0.5513700000000000    0.7255166666666666    0.3843800000000000 H
   0.9018200000000000    0.5092233333333334    0.4483900000000000 H
   0.8986900000000000    0.5728799999999999    0.4621200000000000 H
   0.8239500000000000    0.4825566666666666    0.1162800000000000 H
   0.8040600000000000    0.5946833333333332    0.0439500000000000 H
   0.8066000000000000    0.5308466666666667    0.0306000000000000 H
   0.8644800000000000    0.6204600000000000    0.3743600000000000 H
   0.1397800000000000    0.3785466666666666    0.1251600000000000 H
   0.2142500000000000    0.3985700000000000    0.4552800000000000 H
   0.4056800000000000    0.3978533333333333    0.4693300000000000 H
   0.4743600000000000    0.3663766666666666    0.0525000000000000 H
   0.2834000000000000    0.3673666666666666    0.0380600000000000 H
   0.5513700000000000    0.3921833333333333    0.3843800000000000 H
   0.9018200000000000    0.1758900000000000    0.4483900000000000 H
   0.8986900000000000    0.2395466666666666    0.4621200000000000 H
   0.8239500000000000    0.1492233333333333    0.1162800000000000 H
   0.8040600000000000    0.2613500000000000    0.0439500000000000 H
   0.8066000000000000    0.1975133333333333    0.0306000000000000 H
   0.8644800000000000    0.2871266666666666    0.3743600000000000 H
   0.1397800000000000    0.0452133333333333    0.1251600000000000 H
   0.2142500000000000    0.0652366666666667    0.4552800000000000 H
   0.4056800000000000    0.0645200000000000    0.4693300000000000 H
   0.4743600000000000    0.0330433333333333    0.0525000000000000 H
   0.2834000000000000    0.0340333333333333    0.0380600000000000 H
   0.5513700000000000    0.0588500000000000    0.3843800000000000 H
   0.1869100000000000    0.2124866666666667    0.4498800000000000 C
   0.3617300000000000    0.2710266666666666    0.0491400000000000 C
   0.2501800000000000    0.2761133333333333    0.1722000000000000 C
   0.0815800000000000    0.2970833333333333    0.1337800000000000 C
   0.0980900000000000    0.2991166666666666    0.0414600000000000 C
   0.2633000000000000    0.2794000000000000    0.0791200000000000 C
   0.1586900000000000    0.2846233333333333    0.2009300000000000 C
   0.1710500000000000    0.2496300000000000    0.3269700000000000 C
   0.1079800000000000    0.3059066666666667    0.3663400000000000 C
   0.1021600000000000    0.3004433333333333    0.4587400000000000 C
   0.1615000000000000    0.2453000000000000    0.4202300000000000 C
   0.1453100000000000    0.2801466666666667    0.2986000000000000 C
   0.1869100000000000    0.8791533333333332    0.4498800000000000 C
   0.3617300000000000    0.9376933333333333    0.0491400000000000 C
   0.2501800000000000    0.9427800000000000    0.1722000000000000 C
   0.0815800000000000    0.9637499999999999    0.1337800000000000 C
   0.0980900000000000    0.9657833333333332    0.0414600000000000 C
   0.2633000000000000    0.9460666666666666    0.0791200000000000 C
   0.1586900000000000    0.9512900000000000    0.2009300000000000 C
   0.1710500000000000    0.9162966666666665    0.3269700000000000 C
   0.1079800000000000    0.9725733333333333    0.3663400000000000 C
   0.1021600000000000    0.9671099999999999    0.4587400000000000 C
   0.1615000000000000    0.9119666666666666    0.4202300000000000 C
   0.1453100000000000    0.9468133333333333    0.2986000000000000 C
   0.1869100000000000    0.5458200000000000    0.4498800000000000 C
   0.3617300000000000    0.6043600000000000    0.0491400000000000 C
   0.2501800000000000    0.6094466666666667    0.1722000000000000 C
   0.0815800000000000    0.6304166666666666    0.1337800000000000 C
   0.0980900000000000    0.6324500000000000    0.0414600000000000 C
   0.2633000000000000    0.6127333333333334    0.0791200000000000 C
   0.1586900000000000    0.6179566666666667    0.2009300000000000 C
   0.1710500000000000    0.5829633333333333    0.3269700000000000 C
   0.1079800000000000    0.6392400000000000    0.3663400000000000 C
   0.1021600000000000    0.6337766666666667    0.4587400000000000 C
   0.1615000000000000    0.5786333333333333    0.4202300000000000 C
   0.1453100000000000    0.6134800000000000    0.2986000000000000 C
   0.1658800000000000    0.0165633333333333    0.7815700000000000 C
   0.1433000000000000    0.2133900000000000    0.7281000000000000 C
   0.1165100000000000    0.1488033333333333    0.6211800000000000 C
   0.1186500000000000    0.1134166666666667    0.6138500000000000 C
   0.1595300000000000    0.1640233333333333    0.8087900000000000 C
   0.1391200000000000    0.1746366666666667    0.7196000000000000 C
   0.1601700000000000    0.1278300000000000    0.8038900000000000 C
   0.1816900000000000    0.0808200000000000    0.8869400000000000 C
   0.1797900000000000    0.1161733333333333    0.8940100000000000 C
   0.1470300000000000    0.0659566666666667    0.7002800000000000 C
   0.1658800000000000    0.0551833333333333    0.7891899999999999 C
   0.1417300000000000    0.1019533333333333    0.7044500000000000 C
   0.9505300000000000    0.2781100000000000    0.7191300000000000 C
   0.3594300000000000    0.2854266666666667    0.7710200000000000 C
   0.7586600000000000    0.2728133333333333    0.6136500000000000 C
   0.6526200000000000    0.2733633333333333    0.6062100000000000 C
   0.8016900000000000    0.2842900000000000    0.8001400000000000 C
   0.8347599999999999    0.2780666666666667    0.7114600000000000 C
   0.6936600000000001    0.2859633333333333    0.7955900000000000 C
   0.5522899999999999    0.2942500000000000    0.8782000000000000 C
   0.6584300000000000    0.2935766666666667    0.8859200000000000 C
   0.5082400000000000    0.2799866666666667    0.6907000000000000 C
   0.4756100000000000    0.2867700000000000    0.7796500000000000 C
   0.6168400000000001    0.2798333333333333    0.6960499999999999 C
   0.1658800000000000    0.3498966666666666    0.7815700000000000 C
   0.1433000000000000    0.5467233333333333    0.7281000000000000 C
   0.1165100000000000    0.4821366666666667    0.6211800000000000 C
   0.1186500000000000    0.4467500000000000    0.6138500000000000 C
   0.1595300000000000    0.4973566666666667    0.8087900000000000 C
   0.1391200000000000    0.5079700000000000    0.7196000000000000 C
   0.1601700000000000    0.4611633333333333    0.8038900000000000 C
   0.1816900000000000    0.4141533333333333    0.8869400000000000 C
   0.1797900000000000    0.4495066666666666    0.8940100000000000 C
   0.1470300000000000    0.3992900000000000    0.7002800000000000 C
   0.1658800000000000    0.3885166666666666    0.7891899999999999 C
   0.1417300000000000    0.4352866666666667    0.7044500000000000 C
   0.9505300000000000    0.6114433333333333    0.7191300000000000 C
   0.3594300000000000    0.6187600000000000    0.7710200000000000 C
   0.7586600000000000    0.6061466666666666    0.6136500000000000 C
   0.6526200000000000    0.6066966666666667    0.6062100000000000 C
   0.8016900000000000    0.6176233333333333    0.8001400000000000 C
   0.8347599999999999    0.6113999999999999    0.7114600000000000 C
   0.6936600000000001    0.6192966666666666    0.7955900000000000 C
   0.5522899999999999    0.6275833333333334    0.8782000000000000 C
   0.6584300000000000    0.6269100000000000    0.8859200000000000 C
   0.5082400000000000    0.6133200000000000    0.6907000000000000 C
   0.4756100000000000    0.6201033333333332    0.7796500000000000 C
   0.6168400000000001    0.6131666666666666    0.6960499999999999 C
   0.1658800000000000    0.6832300000000000    0.7815700000000000 C
   0.1433000000000000    0.8800566666666666    0.7281000000000000 C
   0.1165100000000000    0.8154699999999999    0.6211800000000000 C
   0.1186500000000000    0.7800833333333332    0.6138500000000000 C
   0.1595300000000000    0.8306899999999999    0.8087900000000000 C
   0.1391200000000000    0.8413033333333333    0.7196000000000000 C
   0.1601700000000000    0.7944966666666666    0.8038900000000000 C
   0.1816900000000000    0.7474866666666666    0.8869400000000000 C
   0.1797900000000000    0.7828400000000000    0.8940100000000000 C
   0.1470300000000000    0.7326233333333333    0.7002800000000000 C
   0.1658800000000000    0.7218500000000000    0.7891899999999999 C
   0.1417300000000000    0.7686200000000000    0.7044500000000000 C
   0.9505300000000000    0.9447766666666666    0.7191300000000000 C
   0.3594300000000000    0.9520933333333332    0.7710200000000000 C
   0.7586600000000000    0.9394799999999999    0.6136500000000000 C
   0.6526200000000000    0.9400299999999999    0.6062100000000000 C
   0.8016900000000000    0.9509566666666667    0.8001400000000000 C
   0.8347599999999999    0.9447333333333333    0.7114600000000000 C
   0.6936600000000001    0.9526300000000000    0.7955900000000000 C
   0.5522899999999999    0.9609166666666666    0.8782000000000000 C
   0.6584300000000000    0.9602433333333333    0.8859200000000000 C
   0.5082400000000000    0.9466533333333333    0.6907000000000000 C
   0.4756100000000000    0.9534366666666666    0.7796500000000000 C
   0.6168400000000001    0.9464999999999999    0.6960499999999999 C
   0.8131200000000000    0.7875233333333334    0.5501400000000000 C
   0.6383000000000000    0.7289800000000000    0.9508799999999999 C
   0.7498500000000000    0.7238933333333333    0.8277000000000000 C
   0.9184500000000000    0.7029233333333333    0.8662400000000000 C
   0.9019400000000000    0.7008900000000000    0.9585600000000000 C
   0.7367300000000000    0.7206100000000000    0.9209000000000001 C
   0.8413500000000000    0.7153833333333333    0.7991000000000000 C
   0.8289800000000001    0.7503766666666667    0.6730500000000000 C
   0.8920600000000000    0.6940999999999999    0.6336900000000000 C
   0.8978699999999999    0.6995666666666667    0.5412800000000000 C
   0.8385300000000000    0.7547100000000000    0.5797900000000000 C
   0.8547200000000000    0.7198599999999999    0.7013400000000000 C
   0.8131200000000000    0.1208566666666667    0.5501400000000000 C
   0.6383000000000000    0.0623133333333333    0.9508799999999999 C
   0.7498500000000000    0.0572266666666667    0.8277000000000000 C
   0.9184500000000000    0.0362566666666667    0.8662400000000000 C
   0.9019400000000000    0.0342233333333333    0.9585600000000000 C
   0.7367300000000000    0.0539433333333333    0.9209000000000001 C
   0.8413500000000000    0.0487166666666667    0.7991000000000000 C
   0.8289800000000001    0.0837100000000000    0.6730500000000000 C
   0.8920600000000000    0.0274333333333333    0.6336900000000000 C
   0.8978699999999999    0.0329000000000000    0.5412800000000000 C
   0.8385300000000000    0.0880433333333333    0.5797900000000000 C
   0.8547200000000000    0.0531933333333333    0.7013400000000000 C
   0.8341499999999999    0.9834433333333332    0.2184600000000000 C
   0.8567200000000000    0.7866166666666666    0.2719200000000000 C
   0.8835200000000000    0.8512033333333333    0.3788400000000000 C
   0.8813800000000001    0.8865933333333333    0.3861700000000000 C
   0.8405000000000000    0.8359833333333333    0.1912000000000000 C
   0.8609200000000000    0.8253699999999999    0.2804000000000000 C
   0.8398600000000001    0.8721766666666666    0.1961300000000000 C
   0.8183500000000000    0.9191900000000000    0.1130800000000000 C
   0.8202400000000000    0.8838333333333332    0.1060200000000000 C
   0.8530000000000000    0.9340499999999999    0.2997400000000000 C
   0.8341499999999999    0.9448233333333333    0.2108300000000000 C
   0.8583000000000000    0.8980533333333333    0.2955700000000000 C
   0.6405999999999999    0.7145833333333333    0.2290000000000000 C
   0.0495000000000000    0.7218966666666666    0.2800000000000000 C
   0.1983400000000000    0.7157166666666667    0.1998800000000000 C
   0.1652600000000000    0.7219399999999999    0.2885000000000000 C
   0.3063600000000000    0.7140433333333333    0.2044400000000000 C
   0.2413600000000000    0.7271933333333332    0.3863700000000000 C
   0.3474000000000000    0.7266433333333333    0.3938100000000000 C
   0.4477300000000000    0.7057599999999999    0.1218200000000000 C
   0.3416000000000000    0.7064333333333332    0.1141100000000000 C
   0.4917900000000000    0.7200200000000000    0.3092900000000000 C
   0.5244200000000000    0.7132366666666666    0.2203700000000000 C
   0.3831800000000000    0.7201766666666667    0.3039800000000000 C
   0.8341499999999999    0.6501100000000000    0.2184600000000000 C
   0.8567200000000000    0.4532833333333333    0.2719200000000000 C
   0.8835200000000000    0.5178700000000001    0.3788400000000000 C
   0.8813800000000001    0.5532600000000000    0.3861700000000000 C
   0.8405000000000000    0.5026500000000000    0.1912000000000000 C
   0.8609200000000000    0.4920366666666666    0.2804000000000000 C
   0.8398600000000001    0.5388433333333333    0.1961300000000000 C
   0.8183500000000000    0.5858566666666667    0.1130800000000000 C
   0.8202400000000000    0.5505000000000000    0.1060200000000000 C
   0.8530000000000000    0.6007166666666666    0.2997400000000000 C
   0.8341499999999999    0.6114900000000000    0.2108300000000000 C
   0.8583000000000000    0.5647200000000000    0.2955700000000000 C
   0.6405999999999999    0.3812500000000000    0.2290000000000000 C
   0.0495000000000000    0.3885633333333333    0.2800000000000000 C
   0.1983400000000000    0.3823833333333333    0.1998800000000000 C
   0.1652600000000000    0.3886066666666667    0.2885000000000000 C
   0.3063600000000000    0.3807100000000000    0.2044400000000000 C
   0.2413600000000000    0.3938600000000000    0.3863700000000000 C
   0.3474000000000000    0.3933100000000000    0.3938100000000000 C
   0.4477300000000000    0.3724266666666666    0.1218200000000000 C
   0.3416000000000000    0.3731000000000000    0.1141100000000000 C
   0.4917900000000000    0.3866866666666666    0.3092900000000000 C
   0.5244200000000000    0.3799033333333333    0.2203700000000000 C
   0.3831800000000000    0.3868433333333333    0.3039800000000000 C
   0.8341499999999999    0.3167766666666667    0.2184600000000000 C
   0.8567200000000000    0.1199500000000000    0.2719200000000000 C
   0.8835200000000000    0.1845366666666667    0.3788400000000000 C
   0.8813800000000001    0.2199266666666667    0.3861700000000000 C
   0.8405000000000000    0.1693166666666667    0.1912000000000000 C
   0.8609200000000000    0.1587033333333333    0.2804000000000000 C
   0.8398600000000001    0.2055100000000000    0.1961300000000000 C
   0.8183500000000000    0.2525233333333333    0.1130800000000000 C
   0.8202400000000000    0.2171666666666666    0.1060200000000000 C
   0.8530000000000000    0.2673833333333333    0.2997400000000000 C
   0.8341499999999999    0.2781566666666667    0.2108300000000000 C
   0.8583000000000000    0.2313866666666667    0.2955700000000000 C
   0.6405999999999999    0.0479166666666667    0.2290000000000000 C
   0.0495000000000000    0.0552300000000000    0.2800000000000000 C
   0.1983400000000000    0.0490500000000000    0.1998800000000000 C
   0.1652600000000000    0.0552733333333333    0.2885000000000000 C
   0.3063600000000000    0.0473766666666667    0.2044400000000000 C
   0.2413600000000000    0.0605266666666667    0.3863700000000000 C
   0.3474000000000000    0.0599766666666667    0.3938100000000000 C
   0.4477300000000000    0.0390933333333333    0.1218200000000000 C
   0.3416000000000000    0.0397666666666667    0.1141100000000000 C
   0.4917900000000000    0.0533533333333333    0.3092900000000000 C
   0.5244200000000000    0.0465700000000000    0.2203700000000000 C
   0.3831800000000000    0.0535100000000000    0.3039800000000000 C
   0.1859800000000000    0.2905366666666667    0.0136100000000000 N
   0.1282000000000000    0.2711433333333333    0.4862500000000000 N
   0.1859800000000000    0.9572033333333333    0.0136100000000000 N
   0.1282000000000000    0.9378099999999999    0.4862500000000000 N
   0.1859800000000000    0.6238699999999999    0.0136100000000000 N
   0.1282000000000000    0.6044766666666666    0.4862500000000000 N
   0.8140500000000001    0.7094699999999999    0.9864000000000001 N
   0.8718300000000000    0.7288633333333333    0.5137699999999999 N
   0.8140500000000001    0.0428033333333333    0.9864000000000001 N
   0.8718300000000000    0.0621966666666667    0.5137699999999999 N
   0.1647500000000000    0.9954433333333332    0.6947900000000000 O
   0.1645600000000000    0.0076233333333333    0.8628500000000000 O
   0.1856500000000000    0.2350700000000000    0.8180700000000000 O
   0.1055200000000000    0.2217133333333333    0.6449900000000000 O
   0.0135300000000000    0.2784933333333333    0.8057400000000000 O
   0.9775600000000000    0.2785133333333333    0.6378100000000000 O
   0.2947800000000000    0.2713400000000000    0.6809800000000000 O
   0.3342000000000000    0.2980900000000000    0.8542400000000000 O
   0.1647500000000000    0.3287766666666667    0.6947900000000000 O
   0.1645600000000000    0.3409566666666666    0.8628500000000000 O
   0.1856500000000000    0.5684033333333334    0.8180700000000000 O
   0.1055200000000000    0.5550466666666667    0.6449900000000000 O
   0.0135300000000000    0.6118266666666666    0.8057400000000000 O
   0.9775600000000000    0.6118466666666666    0.6378100000000000 O
   0.2947800000000000    0.6046733333333333    0.6809800000000000 O
   0.3342000000000000    0.6314233333333332    0.8542400000000000 O
   0.1647500000000000    0.6621100000000000    0.6947900000000000 O
   0.1645600000000000    0.6742899999999999    0.8628500000000000 O
   0.1856500000000000    0.9017366666666666    0.8180700000000000 O
   0.1055200000000000    0.8883799999999999    0.6449900000000000 O
   0.0135300000000000    0.9451600000000000    0.8057400000000000 O
   0.9775600000000000    0.9451799999999999    0.6378100000000000 O
   0.2947800000000000    0.9380066666666667    0.6809800000000000 O
   0.3342000000000000    0.9647566666666666    0.8542400000000000 O
   0.8140500000000001    0.3761366666666667    0.9864000000000001 O
   0.8718300000000000    0.3955300000000000    0.5137699999999999 O
   0.8352700000000000    0.0045633333333333    0.3052300000000000 O
   0.8354700000000000    0.9923833333333333    0.1371700000000000 O
   0.8143800000000000    0.7649400000000000    0.1819500000000000 O
   0.8945100000000000    0.7782933333333333    0.3550000000000000 O
   0.7052400000000000    0.7286699999999999    0.3190400000000000 O
   0.6658300000000000    0.7019200000000000    0.1457900000000000 O
   0.9865000000000000    0.7215166666666666    0.1942900000000000 O
   0.0224700000000000    0.7214966666666667    0.3622100000000000 O
   0.8352700000000000    0.6712300000000000    0.3052300000000000 O
   0.8354700000000000    0.6590499999999999    0.1371700000000000 O
   0.8143800000000000    0.4316066666666666    0.1819500000000000 O
   0.8945100000000000    0.4449600000000000    0.3550000000000000 O
   0.7052400000000000    0.3953366666666667    0.3190400000000000 O
   0.6658300000000000    0.3685866666666666    0.1457900000000000 O
   0.9865000000000000    0.3881833333333333    0.1942900000000000 O
   0.0224700000000000    0.3881633333333333    0.3622100000000000 O
   0.8352700000000000    0.3378966666666666    0.3052300000000000 O
   0.8354700000000000    0.3257166666666667    0.1371700000000000 O
   0.8143800000000000    0.0982733333333333    0.1819500000000000 O
   0.8945100000000000    0.1116266666666667    0.3550000000000000 O
   0.7052400000000000    0.0620033333333333    0.3190400000000000 O
   0.6658300000000000    0.0352533333333333    0.1457900000000000 O
   0.9865000000000000    0.0548500000000000    0.1942900000000000 O
   0.0224700000000000    0.0548300000000000    0.3622100000000000 O
