Ga48 P46 H98 C46 O142 F33
1.0
  10.5142639654645649    0.0000000000000000   -1.0135197405740834
  -7.1758459789832125   32.9536879825606945   -5.0030698410021435
   0.0000000000000000    0.0000000000000000   16.8159999999999989
Ga P H C O F
48 46 98 46 142 33
direct
   0.9992100000000000    0.0787166666666667    0.4993900000000000 Ga
   0.2780600000000000    0.9848733333333333    0.5114900000000000 Ga
   0.7606700000000000    0.6538900000000000    0.5127900000000000 Ga
   0.7462200000000000    0.6749366666666666    0.9787200000000000 Ga
   0.7606700000000000    0.9872233333333333    0.5127900000000000 Ga
   0.7462200000000000    0.0082700000000000    0.9787200000000000 Ga
   0.7606700000000000    0.3205566666666667    0.5127900000000000 Ga
   0.7462200000000000    0.3416033333333333    0.9787200000000000 Ga
   0.9784200000000000    0.9195966666666666    0.5072500000000000 Ga
   0.5341300000000000    0.9117899999999999    0.9807500000000000 Ga
   0.5163500000000000    0.9065299999999999    0.4918500000000000 Ga
   0.9630400000000000    0.9134866666666666    0.0173600000000000 Ga
   0.0353600000000000    0.0782733333333333    0.0000000000000000 Ga
   0.2197700000000000    0.1733866666666666    0.4864800000000000 Ga
   0.4625800000000000    0.0799266666666667    0.0138700000000000 Ga
   0.7335700000000001    0.1716100000000000    0.4841000000000000 Ga
   0.7510900000000000    0.1501566666666667    0.0184000000000000 Ga
   0.2514600000000000    0.9849466666666666    0.0236600000000000 Ga
   0.9784200000000000    0.2529300000000000    0.5072500000000000 Ga
   0.5341300000000000    0.2451233333333333    0.9807500000000000 Ga
   0.5163500000000000    0.2398633333333333    0.4918500000000000 Ga
   0.9630400000000000    0.2468200000000000    0.0173600000000000 Ga
   0.0353600000000000    0.4116066666666667    0.0000000000000000 Ga
   0.2197700000000000    0.5067199999999999    0.4864800000000000 Ga
   0.4625800000000000    0.4132600000000000    0.0138700000000000 Ga
   0.7335700000000001    0.5049433333333333    0.4841000000000000 Ga
   0.2780600000000000    0.3182066666666666    0.5114900000000000 Ga
   0.7510900000000000    0.4834900000000000    0.0184000000000000 Ga
   0.2514600000000000    0.3182800000000000    0.0236600000000000 Ga
   0.2477900000000000    0.5068633333333333    0.9750300000000000 Ga
   0.9784200000000000    0.5862633333333334    0.5072500000000000 Ga
   0.5341300000000000    0.5784566666666666    0.9807500000000000 Ga
   0.5163500000000000    0.5731966666666666    0.4918500000000000 Ga
   0.9630400000000000    0.5801533333333333    0.0173600000000000 Ga
   0.0353600000000000    0.7449399999999999    0.0000000000000000 Ga
   0.2197700000000000    0.8400533333333333    0.4864800000000000 Ga
   0.4625800000000000    0.7465933333333333    0.0138700000000000 Ga
   0.7335700000000001    0.8382766666666666    0.4841000000000000 Ga
   0.2780600000000000    0.6515400000000000    0.5114900000000000 Ga
   0.7510900000000000    0.8168233333333332    0.0184000000000000 Ga
   0.2514600000000000    0.6516133333333334    0.0236600000000000 Ga
   0.2477900000000000    0.8401966666666666    0.9750300000000000 Ga
   0.2477900000000000    0.1735300000000000    0.9750300000000000 Ga
   0.4977900000000000    0.0797433333333333    0.4974700000000000 Ga
   0.4977900000000000    0.7464100000000000    0.4974700000000000 Ga
   0.4977900000000000    0.4130766666666666    0.4974700000000000 Ga
   0.9992100000000000    0.4120500000000000    0.4993900000000000 Ga
   0.9992100000000000    0.7453833333333333    0.4993900000000000 Ga
   0.7566100000000000    0.7369500000000000    0.6132800000000000 P
   0.7628300000000000    0.7472766666666666    0.8828300000000000 P
   0.7566100000000000    0.0702833333333333    0.6132800000000000 P
   0.7628300000000000    0.0806100000000000    0.8828300000000000 P
   0.7566100000000000    0.4036166666666666    0.6132800000000000 P
   0.7628300000000000    0.4139433333333333    0.8828300000000000 P
   0.2610500000000000    0.9155766666666666    0.8849600000000000 P
   0.2279700000000000    0.9151666666666667    0.6170800000000000 P
   0.7651600000000000    0.9220433333333333    0.8801099999999999 P
   0.7505100000000000    0.9122833333333333    0.6154400000000000 P
   0.2361100000000000    0.9093700000000000    0.1133900000000000 P
   0.2681100000000000    0.9093899999999999    0.3807500000000000 P
   0.7317500000000000    0.9032399999999999    0.1177200000000000 P
   0.7444499999999999    0.9135033333333333    0.3826700000000000 P
   0.2375000000000000    0.0889200000000000    0.3871000000000000 P
   0.2376600000000000    0.0726800000000000    0.1192700000000000 P
   0.7398500000000000    0.0883833333333333    0.3839300000000000 P
   0.7355300000000000    0.0778666666666667    0.1142400000000000 P
   0.2610500000000000    0.2489100000000000    0.8849600000000000 P
   0.2279700000000000    0.2485000000000000    0.6170800000000000 P
   0.7651600000000000    0.2553766666666666    0.8801099999999999 P
   0.7505100000000000    0.2456166666666666    0.6154400000000000 P
   0.2361100000000000    0.2427033333333333    0.1133900000000000 P
   0.2681100000000000    0.2427233333333333    0.3807500000000000 P
   0.7317500000000000    0.2365733333333333    0.1177200000000000 P
   0.7444499999999999    0.2468366666666666    0.3826700000000000 P
   0.2375000000000000    0.4222533333333333    0.3871000000000000 P
   0.2376600000000000    0.4060133333333333    0.1192700000000000 P
   0.7398500000000000    0.4217166666666666    0.3839300000000000 P
   0.7355300000000000    0.4112000000000000    0.1142400000000000 P
   0.2599500000000000    0.4028100000000000    0.6099599999999999 P
   0.2612700000000000    0.4194000000000000    0.8779600000000000 P
   0.2610500000000000    0.5822433333333333    0.8849600000000000 P
   0.2279700000000000    0.5818333333333333    0.6170800000000000 P
   0.7651600000000000    0.5887100000000000    0.8801099999999999 P
   0.7505100000000000    0.5789500000000000    0.6154400000000000 P
   0.2361100000000000    0.5760366666666666    0.1133900000000000 P
   0.2681100000000000    0.5760566666666667    0.3807500000000000 P
   0.7317500000000000    0.5699066666666667    0.1177200000000000 P
   0.7444499999999999    0.5801700000000000    0.3826700000000000 P
   0.2375000000000000    0.7555866666666666    0.3871000000000000 P
   0.2376600000000000    0.7393466666666666    0.1192700000000000 P
   0.7398500000000000    0.7550500000000000    0.3839300000000000 P
   0.7355300000000000    0.7445333333333333    0.1142400000000000 P
   0.2599500000000000    0.7361433333333333    0.6099599999999999 P
   0.2612700000000000    0.7527333333333333    0.8779600000000000 P
   0.4375942500264764    0.1020517144731806    0.6061996093748385 H
   1.0619896148076864    0.0749871858122799    0.6347390020716520 H
   1.2343548523769134    0.0899683950362075    0.6556587562719984 H
   0.0833027745157939    0.0487109829223779   -0.1147066983752973 H
   0.9040700000000000    0.7535600000000000    0.7354100000000000 H
   0.7981000000000000    0.7876566666666667    0.7311500000000000 H
   0.6136600000000000    0.7343966666666666    0.7626200000000000 H
   0.7168500000000000    0.6994333333333334    0.7622400000000000 H
   0.9040700000000000    0.0868933333333333    0.7354100000000000 H
   0.7981000000000000    0.1209900000000000    0.7311500000000000 H
   0.6136600000000000    0.0677300000000000    0.7626200000000000 H
   0.7168500000000000    0.0327666666666667    0.7622400000000000 H
   0.9040700000000000    0.4202266666666666    0.7354100000000000 H
   0.7981000000000000    0.4543233333333333    0.7311500000000000 H
   0.6136600000000000    0.4010633333333333    0.7626200000000000 H
   0.7168500000000000    0.3661000000000000    0.7622400000000000 H
   0.2692300000000000    0.9618099999999999    0.7408800000000000 H
   0.3875500000000000    0.9316666666666666    0.7326600000000000 H
   0.1056000000000000    0.9004399999999999    0.7680900000000001 H
   0.2253500000000000    0.8710433333333333    0.7592600000000000 H
   0.9128500000000001    0.9302699999999999    0.7294800000000000 H
   0.7968100000000000    0.9615633333333333    0.7346400000000000 H
   0.7489700000000000    0.8720800000000000    0.7626800000000000 H
   0.6257800000000000    0.9004300000000000    0.7572200000000000 H
   0.3906200000000000    0.9247066666666666    0.2306200000000000 H
   0.2699700000000000    0.9537633333333333    0.2391700000000000 H
   0.2274600000000000    0.8629333333333333    0.2568200000000000 H
   0.1085800000000000    0.8928733333333333    0.2651500000000000 H
   0.7504400000000000    0.9530433333333332    0.2355800000000000 H
   0.8718300000000000    0.9240200000000000    0.2406300000000000 H
   0.5840200000000000    0.8948099999999999    0.2676800000000000 H
   0.7004400000000000    0.8636299999999999    0.2642700000000000 H
   0.4697750349861588    0.0820972795979078   -0.1294192307987320 H
   0.3002171447222923    0.0648301422552600   -0.1438108944328341 H
   0.0873400000000000    0.0745800000000000    0.2666100000000000 H
   0.1862400000000000    0.0383800000000000    0.2694000000000000 H
   0.2746300000000000    0.1253000000000000    0.2328400000000000 H
   0.3786300000000000    0.0909000000000000    0.2421600000000000 H
   0.5928900000000000    0.0717800000000000    0.2614000000000000 H
   0.6984300000000000    0.0375866666666667    0.2662400000000000 H
   0.8837200000000000    0.0905800000000000    0.2349600000000000 H
   0.7811200000000000    0.1257033333333333    0.2348000000000000 H
   0.2692300000000000    0.2951433333333333    0.7408800000000000 H
   0.3875500000000000    0.2650000000000000    0.7326600000000000 H
   0.1056000000000000    0.2337733333333333    0.7680900000000001 H
   0.2253500000000000    0.2043766666666667    0.7592600000000000 H
   0.9128500000000001    0.2636033333333333    0.7294800000000000 H
   0.7968100000000000    0.2948966666666666    0.7346400000000000 H
   0.7489700000000000    0.2054133333333333    0.7626800000000000 H
   0.6257800000000000    0.2337633333333333    0.7572200000000000 H
   0.3906200000000000    0.2580400000000000    0.2306200000000000 H
   0.2699700000000000    0.2870966666666667    0.2391700000000000 H
   0.2274600000000000    0.1962666666666666    0.2568200000000000 H
   0.1085800000000000    0.2262066666666667    0.2651500000000000 H
   0.7504400000000000    0.2863766666666666    0.2355800000000000 H
   0.8718300000000000    0.2573533333333333    0.2406300000000000 H
   0.5840200000000000    0.2281433333333333    0.2676800000000000 H
   0.7004400000000000    0.1969633333333333    0.2642700000000000 H
   0.0873400000000000    0.4079133333333333    0.2666100000000000 H
   0.1862400000000000    0.3717133333333333    0.2694000000000000 H
   0.2746300000000000    0.4586333333333333    0.2328400000000000 H
   0.3786300000000000    0.4242333333333333    0.2421600000000000 H
   0.5928900000000000    0.4051133333333333    0.2614000000000000 H
   0.6984300000000000    0.3709200000000000    0.2662400000000000 H
   0.8837200000000000    0.4239133333333333    0.2349600000000000 H
   0.7811200000000000    0.4590366666666666    0.2348000000000000 H
   0.4103600000000000    0.4180133333333333    0.7303300000000000 H
   0.3104300000000000    0.4539166666666666    0.7269400000000000 H
   0.2230000000000000    0.3670466666666666    0.7639899999999999 H
   0.1193500000000000    0.4015966666666667    0.7554900000000000 H
   0.2692300000000000    0.6284766666666666    0.7408800000000000 H
   0.3875500000000000    0.5983333333333334    0.7326600000000000 H
   0.1056000000000000    0.5671066666666666    0.7680900000000001 H
   0.2253500000000000    0.5377099999999999    0.7592600000000000 H
   0.9128500000000001    0.5969366666666667    0.7294800000000000 H
   0.7968100000000000    0.6282300000000000    0.7346400000000000 H
   0.7489700000000000    0.5387466666666667    0.7626800000000000 H
   0.6257800000000000    0.5670966666666666    0.7572200000000000 H
   0.3906200000000000    0.5913733333333333    0.2306200000000000 H
   0.2699700000000000    0.6204300000000000    0.2391700000000000 H
   0.2274600000000000    0.5296000000000000    0.2568200000000000 H
   0.1085800000000000    0.5595399999999999    0.2651500000000000 H
   0.7504400000000000    0.6197100000000000    0.2355800000000000 H
   0.8718300000000000    0.5906866666666666    0.2406300000000000 H
   0.5840200000000000    0.5614766666666666    0.2676800000000000 H
   0.7004400000000000    0.5302966666666666    0.2642700000000000 H
   0.0873400000000000    0.7412466666666666    0.2666100000000000 H
   0.1862400000000000    0.7050466666666666    0.2694000000000000 H
   0.2746300000000000    0.7919666666666666    0.2328400000000000 H
   0.3786300000000000    0.7575666666666666    0.2421600000000000 H
   0.5928900000000000    0.7384466666666666    0.2614000000000000 H
   0.6984300000000000    0.7042533333333333    0.2662400000000000 H
   0.8837200000000000    0.7572466666666666    0.2349600000000000 H
   0.7811200000000000    0.7923700000000000    0.2348000000000000 H
   0.4103600000000000    0.7513466666666666    0.7303300000000000 H
   0.3104300000000000    0.7872500000000000    0.7269400000000000 H
   0.2230000000000000    0.7003800000000000    0.7639899999999999 H
   0.1193500000000000    0.7349300000000000    0.7554900000000000 H
   0.8018000000000000    0.7553200000000000    0.7213600000000000 C
   0.7156700000000000    0.7319366666666667    0.7747600000000000 C
   0.8018000000000000    0.0886533333333333    0.7213600000000000 C
   0.7156700000000000    0.0652700000000000    0.7747600000000000 C
   0.8018000000000000    0.4219866666666666    0.7213600000000000 C
   0.7156700000000000    0.3986033333333333    0.7747600000000000 C
   0.2822600000000000    0.9305433333333333    0.7245600000000000 C
   0.2111800000000000    0.9021199999999999    0.7766000000000000 C
   0.8082100000000000    0.9300033333333333    0.7206700000000000 C
   0.7309600000000001    0.9029833333333332    0.7726499999999999 C
   0.2849300000000000    0.9227866666666666    0.2217500000000000 C
   0.2139400000000000    0.8941333333333332    0.2733300000000000 C
   0.7668900000000000    0.9219633333333332    0.2253200000000000 C
   0.6886800000000000    0.8951899999999999    0.2773400000000000 C
   0.1880800000000000    0.0711000000000000    0.2795900000000000 C
   0.2770300000000000    0.0928966666666667    0.2257900000000000 C
   0.6950300000000000    0.0699533333333333    0.2757700000000000 C
   0.7819100000000000    0.0931700000000000    0.2224500000000000 C
   0.2822600000000000    0.2638766666666666    0.7245600000000000 C
   0.2111800000000000    0.2354533333333333    0.7766000000000000 C
   0.8082100000000000    0.2633366666666667    0.7206700000000000 C
   0.7309600000000001    0.2363166666666666    0.7726499999999999 C
   0.2849300000000000    0.2561200000000000    0.2217500000000000 C
   0.2139400000000000    0.2274666666666667    0.2733300000000000 C
   0.7668900000000000    0.2552966666666666    0.2253200000000000 C
   0.6886800000000000    0.2285233333333333    0.2773400000000000 C
   0.1880800000000000    0.4044333333333333    0.2795900000000000 C
   0.2770300000000000    0.4262300000000000    0.2257900000000000 C
   0.6950300000000000    0.4032866666666666    0.2757700000000000 C
   0.7819100000000000    0.4265033333333333    0.2224500000000000 C
   0.3093600000000000    0.4212500000000000    0.7172800000000000 C
   0.2209700000000000    0.3994833333333333    0.7713700000000000 C
   0.2822600000000000    0.5972100000000000    0.7245600000000000 C
   0.2111800000000000    0.5687866666666667    0.7766000000000000 C
   0.8082100000000000    0.5966700000000000    0.7206700000000000 C
   0.7309600000000001    0.5696500000000000    0.7726499999999999 C
   0.2849300000000000    0.5894533333333334    0.2217500000000000 C
   0.2139400000000000    0.5608000000000000    0.2733300000000000 C
   0.7668900000000000    0.5886300000000000    0.2253200000000000 C
   0.6886800000000000    0.5618566666666667    0.2773400000000000 C
   0.1880800000000000    0.7377666666666667    0.2795900000000000 C
   0.2770300000000000    0.7595633333333333    0.2257900000000000 C
   0.6950300000000000    0.7366199999999999    0.2757700000000000 C
   0.7819100000000000    0.7598366666666666    0.2224500000000000 C
   0.3093600000000000    0.7545833333333333    0.7172800000000000 C
   0.2209700000000000    0.7328166666666667    0.7713700000000000 C
   0.3622200000000000    0.0931000000000000    0.5651700000000000 O
   1.1202200000000000    0.0764133333333333    0.5935300000000000 O
   0.1615000000000000    0.0605733333333333   -0.0770400000000000 O
   0.8620200000000000    0.7586400000000000    0.5682300000000000 O
   0.6188200000000000    0.7442166666666666    0.5931300000000000 O
   0.7554200000000000    0.6899533333333333    0.6049000000000000 O
   0.7262800000000000    0.7885266666666666    0.9086400000000000 O
   0.9113300000000000    0.7502700000000000    0.8986200000000000 O
   0.6834700000000000    0.7138500000000000    0.9242600000000000 O
   0.8620200000000000    0.0919733333333333    0.5682300000000000 O
   0.6188200000000000    0.0775500000000000    0.5931300000000000 O
   0.7554200000000000    0.0232866666666667    0.6049000000000000 O
   0.7262800000000000    0.1218600000000000    0.9086400000000000 O
   0.9113300000000000    0.0836033333333333    0.8986200000000000 O
   0.6834700000000000    0.0471833333333333    0.9242600000000000 O
   0.8620200000000000    0.4253066666666666    0.5682300000000000 O
   0.6188200000000000    0.4108833333333333    0.5931300000000000 O
   0.7554200000000000    0.3566200000000000    0.6049000000000000 O
   0.7262800000000000    0.4551933333333333    0.9086400000000000 O
   0.9113300000000000    0.4169366666666666    0.8986200000000000 O
   0.6834700000000000    0.3805166666666667    0.9242600000000000 O
   0.2202200000000000    0.9558333333333333    0.9137800000000000 O
   0.4104900000000000    0.9199233333333332    0.8990500000000000 O
   0.1855700000000000    0.8803200000000000    0.9232100000000000 O
   0.2376600000000000    0.8705766666666666    0.5944800000000000 O
   0.0844600000000000    0.9205366666666666    0.6045900000000000 O
   0.3184800000000000    0.9427533333333333    0.5694000000000000 O
   0.7502799999999999    0.9665933333333333    0.8893600000000000 O
   0.9035700000000000    0.9167233333333333    0.9083200000000000 O
   0.6623900000000000    0.8953066666666666    0.9207500000000000 O
   0.6067000000000000    0.9144166666666667    0.6005600000000000 O
   0.7734000000000000    0.8691500000000000    0.5929100000000000 O
   0.8337800000000000    0.9416966666666666    0.5621800000000000 O
   0.2779800000000000    0.8692500000000000    0.0848200000000000 O
   0.0866200000000000    0.9047099999999999    0.0985300000000000 O
   0.3121500000000000    0.9447933333333333    0.0758300000000000 O
   0.2597000000000000    0.9540700000000000    0.4035100000000000 O
   0.4113700000000000    0.9037400000000000    0.3931700000000000 O
   0.1776600000000000    0.8817566666666666    0.4281800000000000 O
   0.7449300000000000    0.8585400000000000    0.1075600000000000 O
   0.5940800000000001    0.9094099999999999    0.0902100000000000 O
   0.8343400000000000    0.9299133333333333    0.0768400000000000 O
   0.8892300000000000    0.9127433333333332    0.3984900000000000 O
   0.7182900000000000    0.9563166666666666    0.4042200000000000 O
   0.6619500000000000    0.8841300000000000    0.4362600000000000 O
   0.3999100000000000    0.0799533333333333   -0.0957900000000001 O
   0.1339300000000000    0.0652833333333333    0.4311100000000000 O
   0.3768100000000000    0.0815966666666667    0.4030000000000000 O
   0.2384200000000000    0.1354666666666667    0.3989400000000000 O
   0.2496400000000000    0.0277300000000000    0.1101500000000000 O
   0.0987700000000000    0.0783800000000000    0.0925300000000000 O
   0.3374000000000000    0.0980766666666667    0.0740700000000000 O
   0.8778700000000000    0.0813433333333333    0.4040900000000000 O
   0.6349300000000000    0.0664366666666667    0.4290700000000000 O
   0.7397700000000000    0.1353166666666666    0.3923100000000000 O
   0.7728600000000000    0.0367000000000000    0.0884500000000000 O
   0.5870400000000000    0.0747333333333333    0.0981400000000000 O
   0.8149400000000000    0.1113900000000000    0.0729400000000000 O
   0.2202200000000000    0.2891666666666667    0.9137800000000000 O
   0.4104900000000000    0.2532566666666666    0.8990500000000000 O
   0.1855700000000000    0.2136533333333333    0.9232100000000000 O
   0.2376600000000000    0.2039100000000000    0.5944800000000000 O
   0.0844600000000000    0.2538700000000000    0.6045900000000000 O
   0.3184800000000000    0.2760866666666666    0.5694000000000000 O
   0.7502799999999999    0.2999266666666667    0.8893600000000000 O
   0.9035700000000000    0.2500566666666666    0.9083200000000000 O
   0.6623900000000000    0.2286400000000000    0.9207500000000000 O
   0.6067000000000000    0.2477500000000000    0.6005600000000000 O
   0.7734000000000000    0.2024833333333333    0.5929100000000000 O
   0.8337800000000000    0.2750300000000000    0.5621800000000000 O
   0.2779800000000000    0.2025833333333333    0.0848200000000000 O
   0.0866200000000000    0.2380433333333333    0.0985300000000000 O
   0.3121500000000000    0.2781266666666666    0.0758300000000000 O
   0.2597000000000000    0.2874033333333333    0.4035100000000000 O
   0.4113700000000000    0.2370733333333333    0.3931700000000000 O
   0.1776600000000000    0.2150900000000000    0.4281800000000000 O
   0.7449300000000000    0.1918733333333333    0.1075600000000000 O
   0.5940800000000001    0.2427433333333333    0.0902100000000000 O
   0.8343400000000000    0.2632466666666666    0.0768400000000000 O
   0.8892300000000000    0.2460766666666667    0.3984900000000000 O
   0.7182900000000000    0.2896500000000000    0.4042200000000000 O
   0.6619500000000000    0.2174633333333333    0.4362600000000000 O
   0.1339300000000000    0.3986166666666666    0.4311100000000000 O
   0.3768100000000000    0.4149300000000000    0.4030000000000000 O
   0.2384200000000000    0.4688000000000000    0.3989400000000000 O
   0.2496400000000000    0.3610633333333333    0.1101500000000000 O
   0.0987700000000000    0.4117133333333333    0.0925300000000000 O
   0.3374000000000000    0.4314100000000000    0.0740700000000000 O
   0.8778700000000000    0.4146766666666666    0.4040900000000000 O
   0.6349300000000000    0.3997700000000000    0.4290700000000000 O
   0.7397700000000000    0.4686500000000000    0.3923100000000000 O
   0.7728600000000000    0.3700333333333333    0.0884500000000000 O
   0.5870400000000000    0.4080666666666666    0.0981400000000000 O
   0.8149400000000000    0.4447233333333333    0.0729400000000000 O
   0.3622200000000000    0.4264333333333333    0.5651700000000000 O
   0.1202200000000000    0.4097466666666666    0.5935300000000000 O
   0.2610900000000000    0.3564066666666666    0.5994900000000000 O
   0.2506500000000000    0.4644633333333333    0.8880000000000000 O
   0.3999100000000000    0.4132866666666666    0.9042100000000000 O
   0.1615000000000000    0.3939066666666666    0.9229600000000000 O
   0.2202200000000000    0.6225000000000001    0.9137800000000000 O
   0.4104900000000000    0.5865899999999999    0.8990500000000000 O
   0.1855700000000000    0.5469866666666666    0.9232100000000000 O
   0.2376600000000000    0.5372433333333333    0.5944800000000000 O
   0.0844600000000000    0.5872033333333333    0.6045900000000000 O
   0.3184800000000000    0.6094200000000000    0.5694000000000000 O
   0.7502799999999999    0.6332599999999999    0.8893600000000000 O
   0.9035700000000000    0.5833900000000000    0.9083200000000000 O
   0.6623900000000000    0.5619733333333333    0.9207500000000000 O
   0.6067000000000000    0.5810833333333333    0.6005600000000000 O
   0.7734000000000000    0.5358166666666666    0.5929100000000000 O
   0.8337800000000000    0.6083633333333334    0.5621800000000000 O
   0.2779800000000000    0.5359166666666666    0.0848200000000000 O
   0.0866200000000000    0.5713766666666666    0.0985300000000000 O
   0.3121500000000000    0.6114599999999999    0.0758300000000000 O
   0.2597000000000000    0.6207366666666667    0.4035100000000000 O
   0.4113700000000000    0.5704066666666666    0.3931700000000000 O
   0.1776600000000000    0.5484233333333333    0.4281800000000000 O
   0.7449300000000000    0.5252066666666666    0.1075600000000000 O
   0.5940800000000001    0.5760766666666667    0.0902100000000000 O
   0.8343400000000000    0.5965799999999999    0.0768400000000000 O
   0.8892300000000000    0.5794100000000000    0.3984900000000000 O
   0.7182900000000000    0.6229833333333332    0.4042200000000000 O
   0.6619500000000000    0.5507966666666666    0.4362600000000000 O
   0.1339300000000000    0.7319500000000000    0.4311100000000000 O
   0.3768100000000000    0.7482633333333333    0.4030000000000000 O
   0.2384200000000000    0.8021333333333333    0.3989400000000000 O
   0.2496400000000000    0.6943966666666667    0.1101500000000000 O
   0.0987700000000000    0.7450466666666666    0.0925300000000000 O
   0.3374000000000000    0.7647433333333333    0.0740700000000000 O
   0.8778700000000000    0.7480100000000000    0.4040900000000000 O
   0.6349300000000000    0.7331033333333333    0.4290700000000000 O
   0.7397700000000000    0.8019833333333333    0.3923100000000000 O
   0.7728600000000000    0.7033666666666666    0.0884500000000000 O
   0.5870400000000000    0.7413999999999999    0.0981400000000000 O
   0.8149400000000000    0.7780566666666666    0.0729400000000000 O
   0.3622200000000000    0.7597666666666666    0.5651700000000000 O
   0.1202200000000000    0.7430800000000000    0.5935300000000000 O
   0.2610900000000000    0.6897400000000000    0.5994900000000000 O
   0.2506500000000000    0.7977966666666666    0.8880000000000000 O
   0.3999100000000000    0.7466200000000000    0.9042100000000000 O
   0.1615000000000000    0.7272400000000000    0.9229600000000000 O
   0.4227000000000000    0.0199666666666667    0.4827900000000000 F
   0.9111600000000000    0.6849099999999999    0.4828400000000000 F
   0.9111600000000000    0.0182433333333333    0.4828400000000000 F
   0.9111600000000000    0.3515766666666666    0.4828400000000000 F
   0.0831400000000000    0.9685066666666666    0.4928400000000000 F
   0.4162200000000000    0.8567933333333333    0.5069600000000000 F
   0.5835600000000000    0.1401100000000000    0.5137000000000000 F
   0.0722500000000000    0.1384600000000000    0.5137200000000000 F
   0.0831400000000000    0.3018400000000000    0.4928400000000000 F
   0.4162200000000000    0.1901266666666667    0.5069600000000000 F
   0.5835600000000000    0.4734433333333333    0.5137000000000000 F
   0.4227000000000000    0.3533000000000000    0.4827900000000000 F
   0.0722500000000000    0.4717933333333333    0.5137200000000000 F
   0.0831400000000000    0.6351733333333334    0.4928400000000000 F
   0.4162200000000000    0.5234600000000000    0.5069600000000000 F
   0.5835600000000000    0.8067766666666666    0.5137000000000000 F
   0.4227000000000000    0.6866333333333333    0.4827900000000000 F
   0.0722500000000000    0.8051266666666667    0.5137200000000000 F
   0.5661000000000000    0.1347300000000000    0.0173000000000000 F
   0.5661000000000000    0.4680633333333333    0.0173000000000000 F
   0.5661000000000000    0.8013966666666666    0.0173000000000000 F
   0.9222800000000000    0.1947566666666666    0.4865000000000000 F
   0.9222800000000000    0.5280899999999999    0.4865000000000000 F
   0.9222800000000000    0.8614233333333332    0.4865000000000000 F
   0.0991700000000000    0.1382000000000000    0.0036300000000000 F
   0.0991700000000000    0.8048666666666666    0.0036300000000000 F
   0.0991700000000000    0.4715333333333333    0.0036300000000000 F
   0.5716800000000000    0.2981933333333333    0.5103000000000000 F
   0.5716800000000000    0.6315266666666666    0.5103000000000000 F
   0.5716800000000000    0.9648599999999999    0.5103000000000000 F
   0.9327500000000000    0.0234866666666667    0.9792900000000000 F
   0.9327500000000000    0.3568200000000000    0.9792900000000000 F
   0.9327500000000000    0.6901533333333333    0.9792900000000000 F
