P2 H4 C2 O6
1.0
  10.5142639654645649    0.0000000000000000   -1.0135197405740834
  -7.1758459789832125   32.9536879825606945   -5.0030698410021435
   0.0000000000000000    0.0000000000000000   16.8159999999999989
P H C O
2 4 2 6
direct
   0.2599500000000000    0.0694766666666667    0.6099599999999999 P
   0.2612700000000000    0.0860666666666667    0.8779600000000000 P
   0.4103600000000000    0.0846800000000000    0.7303300000000000 H
   0.3104300000000000    0.1205833333333333    0.7269400000000000 H
   0.1193500000000000    0.0682633333333333    0.7554900000000000 H
   0.2230000000000000    0.0337133333333333    0.7639899999999999 H
   0.3093600000000000    0.0879166666666667    0.7172800000000000 C
   0.2209700000000000    0.0661500000000000    0.7713700000000000 C
   0.3622200000000000    0.0931000000000000    0.5651700000000000 O
   0.2610900000000000    0.0230733333333333    0.5994900000000000 O
   1.1202200000000000    0.0764133333333333    0.5935300000000000 O
   0.1615000000000000    0.0605733333333333   -0.0770400000000000 O
   0.2506500000000000    0.1311300000000000    0.8880000000000000 O
   0.3999100000000000    0.0799533333333333   -0.0957900000000001 O
