H6 O4
1.0
  10.5142639654645649    0.0000000000000000   -1.0135197405740834
  -7.1758459789832125   32.9536879825606945   -5.0030698410021435
   0.0000000000000000    0.0000000000000000   16.8159999999999989
H O
6 4
direct
   0.0833027745157939    0.0487109829223779   -0.1147066983752973 H
   0.4697750349861588    0.0820972795979078   -0.1294192307987320 H
   0.3002171447222923    0.0648301422552600   -0.1438108944328341 H
   0.4375942500264764    0.1020517144731806    0.6061996093748385 H
   1.0619896148076864    0.0749871858122799    0.6347390020716520 H
   1.2343548523769134    0.0899683950362075    0.6556587562719984 H
   0.1615000000000000    0.0605733333333333   -0.0770400000000000 O
   0.3999100000000000    0.0799533333333333   -0.0957900000000001 O
   0.3622200000000000    0.0931000000000000    0.5651700000000000 O
   1.1202200000000000    0.0764133333333333    0.5935300000000000 O
