H6 O4
1.0
  12.7071984934518980    0.0000000000000000   -0.0061877309114564
   6.3344720344469820   11.0972571821188914   -0.0512940417573711
   0.0000000000000000    0.0000000000000000   36.8920000000000030
H O
6 4
direct
   0.8388950421949849    0.9037493407976456    0.7316527183755512 H
   0.7254259866902887    0.6817799993588705    0.7620251740824708 H
   0.7698672613622083    0.8005374168619285    0.7468108115555115 H
   0.5126532388329520    1.0560377707789257    0.6317145554456077 H
   0.3082620644412247    0.9175076530390422    0.6697410177878265 H
   0.4074968680426359    0.9834984067109898    0.6536246440914644 H
   0.8539000000000000    0.8246700000000000    0.7389450000000000 O
   0.7889400000000000    0.7000200000000000    0.7560800000000000 O
   0.4572900000000000    1.0243899999999999    0.6311400000000000 O
   0.3453800000000000    0.9479900000000000    0.6529800000000000 O
