H12 C15 N6
1.0
  12.7645181064589650    0.0000000000000000   -4.2199779039565231
  -0.9462934635760799   14.1681378330932031   -0.1918333215743450
   0.0000000000000000    0.0000000000000000   38.0900000000000034
H C N
12 15 6
direct
   0.1752200000000000    0.4342600000000000    0.0855500000000000 H
   0.8759100000000000    0.3972900000000000    0.0056250000000000 H
   0.4798800000000000    0.2220700000000000    0.0286550000000000 H
   0.2764300000000000    0.3072600000000000    0.0890150000000000 H
   0.3499300000000000    0.1631900000000000    0.1208900000000000 H
   0.6069400000000000    0.2812700000000000    0.0895500000000000 H
   0.6795000000000000    0.2046000000000000    0.1592200000000000 H
   0.0216800000000000    0.3219600000000000    0.9765950000000000 H
   0.1917900000000000    0.3505100000000000    0.9715100000000000 H
   0.2044500000000000    0.2800000000000000    0.9220400000000000 H
   0.4975200000000000    0.2438500000000000    0.9067600000000000 H
   0.5284400000000000    0.2621100000000000    0.9815350000000000 H
   0.1124000000000000    0.4130900000000000    0.0604500000000000 C
   0.9599000000000000    0.3931000000000000    0.0178450000000000 C
   0.0305000000000000    0.3554900000000000    0.0032700000000000 C
   0.2227800000000000    0.3296500000000000    0.0299300000000000 C
   0.4083800000000000    0.2537700000000000    0.0288000000000000 C
   0.3854600000000000    0.2629100000000000    0.0618750000000000 C
   0.2927800000000000    0.3003900000000000    0.0629200000000000 C
   0.4298900000000000    0.1855500000000000    0.1227050000000000 C
   0.5658200000000000    0.2445500000000000    0.1063150000000000 C
   0.6001100000000000    0.2065800000000000    0.1405750000000000 C
   0.2442700000000000    0.3226900000000000    0.9964999999999999 C
   0.3372500000000000    0.2837300000000000    0.9961050000000000 C
   0.2877200000000000    0.2725300000000000    0.9270900000000000 C
   0.4399200000000000    0.2523700000000000    0.9209000000000001 C
   0.4571300000000000    0.2604300000000000    0.9582150000000000 C
   0.0115800000000000    0.4287100000000000    0.0534200000000000 N
   0.1276600000000000    0.3675700000000000    0.0307750000000000 N
   0.4567500000000000    0.2315400000000000    0.0952000000000000 N
   0.5152700000000000    0.1695100000000000    0.1503700000000000 N
   0.3593900000000000    0.2739400000000000    0.9623400000000000 N
   0.3341800000000000    0.2593400000000000    0.9016900000000000 N
