H2 O2
1.0
  12.7645181064589650    0.0000000000000000   -4.2199779039565231
  -0.9462934635760799   14.1681378330932031   -0.1918333215743450
   0.0000000000000000    0.0000000000000000   38.0900000000000034
H O
2 2
direct
   0.2790350840167778    0.5511985971971652    0.4524165796912804 H
   0.7209249159832221    0.4488014028028346    0.5475634203087196 H
   0.2209700000000000    0.5026700000000000    0.4467450000000000 O
   0.7789900000000000    0.4973300000000000    0.5532350000000000 O
