C8 O4
1.0
  12.7645181064589650    0.0000000000000000   -4.2199779039565231
  -0.9462934635760799   14.1681378330932031   -0.1918333215743450
   0.0000000000000000    0.0000000000000000   38.0900000000000034
C O
8 4
direct
   0.2971400000000000    0.5663300000000000    0.4541850000000000 C
   0.4017500000000000    0.5315700000000000    0.4780200000000000 C
   0.4759800000000000    0.5034999999999999    0.4617500000000000 C
   0.5725400000000000    0.4727900000000000    0.4834400000000000 C
   0.7028200000000000    0.4336700000000000    0.5457950000000000 C
   0.5982100000000000    0.4684200000000000    0.5219650000000000 C
   0.5239800000000000    0.4964900000000000    0.5382350000000000 C
   0.4274200000000000    0.5272000000000000    0.5165400000000000 C
   0.2209700000000000    0.5026700000000000    0.4467450000000000 O
   0.2952800000000000    0.6497400000000000    0.4444000000000000 O
   0.7789900000000000    0.4973300000000000    0.5532350000000000 O
   0.7046900000000000    0.3502600000000000    0.5555500000000000 O
