H8 O4
1.0
  31.9346276053038594    0.0000000000000000   -8.8040579115862609
  -5.7802402534578947   14.8780474168912562   -4.4457045193130398
   0.0000000000000000    0.0000000000000000   33.1420000000000030
H O
8 4
direct
   0.4970313737582450    0.4781241075965947    0.9379824929332593 H
   0.5562043033800079    0.4929634731316644    0.9301338877773924 H
   0.5697564079079636    0.5073842915173187    0.9438284214225381 H
   0.5620182181530381    0.5220660863024167    1.0029751742626862 H
   0.5029785551144706    0.5219269335798090    0.0620221992445360 H
   0.4438056806857797    0.5070864560547753    0.0698723694475151 H
   0.4302656263635758    0.4926647104568724    0.0561748101786950 H
   0.4379867175142646    0.4779987347875085   -0.0029694282437202 H
   0.5265150000000000    0.4866900000000000    0.9354500000000000 O
   0.5645600000000000    0.5136300000000000    0.9735000000000000 O
   0.4734950000000000    0.5133600000000000    0.0645550000000000 O
   0.4354450000000000    0.4864200000000000    0.0265050000000000 O
