Cu48 H460 C368 I48 N92
1.0
  31.9346276053038594    0.0000000000000000   -8.8040579115862609
  -5.7802402534578947   14.8780474168912562   -4.4457045193130398
   0.0000000000000000    0.0000000000000000   33.1420000000000030
Cu H C I N
48 460 368 48 92
direct
   0.3746950000000000    0.4362900000000000    0.0310050000000000 Cu
   0.4690000000000000    0.5634600000000000    0.1253850000000000 Cu
   0.0309950000000000    0.7491700000000000    0.2182200000000000 Cu
   0.1253200000000000    0.9378900000000000    0.2817900000000000 Cu
   0.2181400000000000    0.0617400000000000    0.3747100000000000 Cu
   0.2181850000000000    0.7495700000000000    0.0309150000000000 Cu
   0.1253150000000000    0.5637600000000000    0.4690050000000000 Cu
   0.0310100000000000    0.4365900000000000    0.3746150000000000 Cu
   0.4690100000000000    0.2508800000000000    0.2817800000000000 Cu
   0.3746950000000000    0.0622100000000000    0.2182250000000000 Cu
   0.2818650000000000    0.9383200000000000    0.1252950000000000 Cu
   0.2818250000000000    0.2505000000000000    0.4690900000000000 Cu
   0.8746950000000000    0.4362900000000000    0.0310050000000000 Cu
   0.9690000000000000    0.5634600000000000    0.1253850000000000 Cu
   0.5309950000000000    0.7491700000000000    0.2182200000000000 Cu
   0.6253200000000000    0.9378900000000000    0.2817900000000000 Cu
   0.7181400000000000    0.0617400000000000    0.3747100000000000 Cu
   0.7181850000000000    0.7495700000000000    0.0309150000000000 Cu
   0.6253150000000001    0.5637600000000000    0.4690050000000000 Cu
   0.5310100000000000    0.4365900000000000    0.3746150000000000 Cu
   0.9690099999999999    0.2508800000000000    0.2817800000000000 Cu
   0.8746950000000000    0.0622100000000000    0.2182250000000000 Cu
   0.7818650000000000    0.9383200000000000    0.1252950000000000 Cu
   0.7818250000000000    0.2505000000000000    0.4690900000000000 Cu
   0.3746950000000000    0.4362900000000000    0.5310049999999999 Cu
   0.4690000000000000    0.5634600000000000    0.6253850000000000 Cu
   0.0309950000000000    0.7491700000000000    0.7182200000000000 Cu
   0.1253200000000000    0.9378900000000000    0.7817900000000000 Cu
   0.2181400000000000    0.0617400000000000    0.8747100000000000 Cu
   0.2181850000000000    0.7495700000000000    0.5309150000000000 Cu
   0.1253150000000000    0.5637600000000000    0.9690050000000000 Cu
   0.0310100000000000    0.4365900000000000    0.8746149999999999 Cu
   0.4690100000000000    0.2508800000000000    0.7817799999999999 Cu
   0.3746950000000000    0.0622100000000000    0.7182250000000000 Cu
   0.2818650000000000    0.9383200000000000    0.6252949999999999 Cu
   0.2818250000000000    0.2505000000000000    0.9690900000000000 Cu
   0.8746950000000000    0.4362900000000000    0.5310049999999999 Cu
   0.9690000000000000    0.5634600000000000    0.6253850000000000 Cu
   0.5309950000000000    0.7491700000000000    0.7182200000000000 Cu
   0.6253200000000000    0.9378900000000000    0.7817900000000000 Cu
   0.7181400000000000    0.0617400000000000    0.8747100000000000 Cu
   0.7181850000000000    0.7495700000000000    0.5309150000000000 Cu
   0.6253150000000001    0.5637600000000000    0.9690050000000000 Cu
   0.5310100000000000    0.4365900000000000    0.8746149999999999 Cu
   0.9690099999999999    0.2508800000000000    0.7817799999999999 Cu
   0.8746950000000000    0.0622100000000000    0.7182250000000000 Cu
   0.7818650000000000    0.9383200000000000    0.6252949999999999 Cu
   0.7818250000000000    0.2505000000000000    0.9690900000000000 Cu
   0.2340100000000000    0.9093200000000000    0.3721500000000000 H
   0.1851250000000000    0.8668800000000000    0.3826650000000000 H
   0.3148900000000000    0.2346400000000000    0.0665800000000000 H
   0.2660100000000000    0.2557400000000000    0.0453200000000000 H
   0.2988450000000000    0.7879100000000000    0.4276450000000000 H
   0.3065000000000000    0.9029700000000001    0.4515550000000000 H
   0.2988550000000000    0.8552500000000000    0.3940200000000000 H
   0.2233800000000000    0.7411600000000000    0.3368550000000000 H
   0.1771000000000000    0.7078000000000000    0.3538450000000000 H
   0.2233250000000000    0.6736500000000000    0.3706200000000000 H
   0.1981650000000000    0.2931300000000000    0.0151500000000000 H
   0.2008500000000000    0.2374800000000000    0.4628000000000000 H
   0.3812750000000000    0.5980900000000000    0.0370950000000000 H
   0.3534550000000000    0.6032900000000000    0.4847700000000000 H
   0.1471650000000000    0.2262600000000000    0.3917700000000000 H
   0.1720850000000000    0.3440100000000000    0.4064050000000000 H
   0.1132050000000000    0.2945100000000000    0.3918000000000000 H
   0.1168950000000000    0.2342600000000000    0.4938050000000000 H
   0.1146000000000000    0.1619300000000000    0.4418300000000000 H
   0.0808850000000000    0.2294300000000000    0.4417900000000000 H
   0.3722400000000000    0.4681800000000000    0.4548500000000000 H
   0.3827450000000000    0.3703300000000000    0.4334500000000000 H
   0.0664100000000000    0.6297400000000000    0.1173000000000000 H
   0.0451750000000000    0.5319700000000001    0.1277500000000000 H
   0.4277600000000000    0.5977600000000000    0.3942050000000000 H
   0.4515950000000000    0.6131700000000000    0.4517100000000000 H
   0.3940900000000000    0.5978700000000000    0.4279100000000000 H
   0.3370100000000000    0.4468100000000000    0.3707950000000000 H
   0.3540450000000000    0.3542100000000000    0.3539900000000000 H
   0.3708200000000000    0.4466300000000000    0.3369950000000000 H
   0.0150650000000000    0.3959200000000000    0.1463550000000000 H
   0.4627650000000000    0.4013500000000000    0.1186600000000000 H
   0.0371850000000000    0.7627000000000000    0.2992300000000000 H
   0.4849100000000000    0.7073199999999999    0.3019400000000000 H
   0.3917650000000000    0.2942000000000000    0.1131550000000000 H
   0.4064200000000000    0.3442100000000000    0.1720650000000000 H
   0.3918000000000000    0.2263600000000000    0.1472200000000000 H
   0.4936950000000000    0.2332500000000000    0.1167500000000000 H
   0.4417500000000000    0.2287300000000000    0.0807500000000000 H
   0.4416950000000000    0.1613800000000000    0.1144400000000000 H
   0.4548650000000000    0.7445500000000000    0.2340700000000000 H
   0.4335900000000000    0.7654100000000000    0.1851650000000000 H
   0.1172550000000000    0.1329800000000000    0.3148450000000000 H
   0.1277550000000000    0.0901600000000000    0.2659250000000000 H
   0.3941050000000000    0.8559600000000001    0.2989100000000000 H
   0.4516050000000000    0.9036100000000000    0.3065950000000000 H
   0.4278300000000000    0.7886100000000000    0.2989000000000000 H
   0.3708300000000000    0.6742200000000000    0.2233700000000000 H
   0.3541050000000000    0.7080900000000000    0.1770900000000000 H
   0.3370200000000000    0.7418600000000000    0.2233250000000000 H
   0.1465050000000000    0.0304000000000000    0.1982600000000000 H
   0.1187200000000000    0.9257800000000000    0.2008400000000000 H
   0.2991200000000000    0.0744100000000000    0.3812900000000000 H
   0.3018600000000000    0.9697500000000000    0.3534900000000000 H
   0.1132250000000000    0.7836500000000000    0.1470800000000000 H
   0.1721000000000000    0.8128600000000000    0.1719950000000000 H
   0.1473100000000000    0.7836100000000000    0.1130000000000000 H
   0.1169350000000000    0.9876000000000000    0.1169250000000000 H
   0.0808950000000000    0.8837200000000000    0.1145500000000000 H
   0.1146000000000000    0.8835100000000000    0.0808450000000000 H
   0.2660000000000000    0.0907300000000000    0.1278500000000000 H
   0.3148850000000000    0.1331700000000000    0.1173350000000000 H
   0.1851250000000000    0.7654200000000000    0.4334200000000000 H
   0.2340050000000000    0.7443200000000000    0.4546800000000000 H
   0.2011650000000000    0.2121500000000000    0.0723550000000000 H
   0.1935150000000000    0.0970900000000000    0.0484450000000000 H
   0.2011550000000000    0.1448000000000000    0.1059750000000000 H
   0.2766300000000000    0.2589000000000000    0.1631450000000000 H
   0.3229100000000000    0.2922500000000000    0.1461550000000000 H
   0.2766850000000000    0.3264100000000000    0.1293800000000000 H
   0.3018450000000000    0.7069200000000000    0.4848450000000000 H
   0.2991600000000000    0.7625800000000000    0.0372050000000000 H
   0.1187400000000000    0.4019700000000000    0.4629000000000000 H
   0.1465500000000000    0.3967600000000000    0.0152300000000000 H
   0.3528450000000000    0.7737900000000000    0.1082300000000000 H
   0.3279250000000000    0.6560400000000000    0.0935950000000000 H
   0.3868050000000000    0.7055399999999999    0.1081650000000000 H
   0.3831200000000000    0.7658000000000000    0.0061950000000000 H
   0.3854100000000000    0.8381200000000000    0.0581750000000000 H
   0.4191250000000000    0.7706200000000000    0.0582100000000000 H
   0.1277700000000000    0.5318700000000000    0.0451500000000000 H
   0.1172600000000000    0.6297199999999999    0.0665000000000000 H
   0.4336000000000000    0.3703100000000000    0.3826750000000000 H
   0.4548300000000000    0.4680800000000000    0.3722200000000000 H
   0.0722500000000000    0.4022900000000000    0.1057950000000000 H
   0.0484150000000000    0.3868800000000000    0.0482900000000000 H
   0.1059200000000000    0.4021900000000000    0.0720900000000000 H
   0.1629950000000000    0.5532400000000000    0.1292050000000000 H
   0.1459600000000000    0.6458400000000000    0.1460100000000000 H
   0.1291950000000000    0.5534200000000000    0.1630050000000000 H
   0.4849450000000000    0.6041299999999999    0.3536450000000000 H
   0.0372450000000000    0.5987000000000000    0.3813400000000000 H
   0.4628200000000000    0.2373500000000000    0.2007650000000000 H
   0.0151000000000000    0.2927300000000000    0.1980600000000000 H
   0.1082450000000000    0.7058500000000000    0.3868400000000000 H
   0.0935850000000000    0.6558400000000000    0.3279300000000000 H
   0.1082050000000000    0.7736800000000000    0.3527800000000000 H
   0.0063150000000000    0.7668000000000000    0.3832250000000000 H
   0.0582600000000000    0.7713200000000000    0.4192500000000000 H
   0.0583150000000000    0.8386700000000000    0.3855600000000000 H
   0.0451450000000000    0.2555100000000000    0.2659250000000000 H
   0.0664150000000000    0.2346500000000000    0.3148350000000000 H
   0.3827550000000000    0.8670900000000000    0.1851500000000000 H
   0.3722500000000000    0.9098900000000000    0.2340700000000000 H
   0.1059050000000000    0.1441000000000000    0.2010900000000000 H
   0.0484050000000000    0.0964400000000000    0.1934000000000000 H
   0.0721800000000000    0.2114400000000000    0.2010950000000000 H
   0.1291800000000000    0.3258300000000000    0.2766250000000000 H
   0.1459050000000000    0.2919700000000000    0.3229050000000000 H
   0.1629900000000000    0.2581900000000000    0.2766750000000000 H
   0.3535050000000000    0.9696500000000000    0.3017000000000000 H
   0.3812850000000000    0.0742800000000000    0.2991600000000000 H
   0.2008900000000000    0.9256400000000000    0.1187100000000000 H
   0.1981500000000000    0.0303000000000000    0.1465100000000000 H
   0.3867850000000000    0.2164000000000000    0.3529250000000000 H
   0.3279100000000000    0.1872000000000000    0.3280100000000000 H
   0.3527000000000000    0.2164400000000000    0.3869050000000000 H
   0.3830700000000000    0.0124500000000000    0.3830700000000000 H
   0.4191100000000000    0.1163300000000000    0.3854000000000000 H
   0.3854100000000000    0.1165400000000000    0.4191550000000000 H
   0.7340100000000001    0.9093200000000000    0.3721500000000000 H
   0.6851250000000000    0.8668800000000000    0.3826650000000000 H
   0.8148900000000000    0.2346400000000000    0.0665800000000000 H
   0.7660100000000001    0.2557400000000000    0.0453200000000000 H
   0.7988450000000000    0.7879100000000000    0.4276450000000000 H
   0.8065000000000000    0.9029700000000001    0.4515550000000000 H
   0.7988550000000000    0.8552500000000000    0.3940200000000000 H
   0.7233800000000000    0.7411600000000000    0.3368550000000000 H
   0.6771000000000000    0.7078000000000000    0.3538450000000000 H
   0.7233250000000000    0.6736500000000000    0.3706200000000000 H
   0.6981650000000000    0.2931300000000000    0.0151500000000000 H
   0.7008500000000000    0.2374800000000000    0.4628000000000000 H
   0.8812750000000000    0.5980900000000000    0.0370950000000000 H
   0.8534550000000001    0.6032900000000000    0.4847700000000000 H
   0.6471650000000000    0.2262600000000000    0.3917700000000000 H
   0.6720850000000000    0.3440100000000000    0.4064050000000000 H
   0.6132050000000000    0.2945100000000000    0.3918000000000000 H
   0.6168950000000000    0.2342600000000000    0.4938050000000000 H
   0.6146000000000000    0.1619300000000000    0.4418300000000000 H
   0.5808850000000000    0.2294300000000000    0.4417900000000000 H
   0.8722400000000000    0.4681800000000000    0.4548500000000000 H
   0.8827450000000000    0.3703300000000000    0.4334500000000000 H
   0.9277599999999999    0.5977600000000000    0.3942050000000000 H
   0.9515950000000000    0.6131700000000000    0.4517100000000000 H
   0.8940900000000001    0.5978700000000000    0.4279100000000000 H
   0.8370100000000000    0.4468100000000000    0.3707950000000000 H
   0.8540449999999999    0.3542100000000000    0.3539900000000000 H
   0.8708199999999999    0.4466300000000000    0.3369950000000000 H
   0.5150650000000000    0.3959200000000000    0.1463550000000000 H
   0.9627650000000000    0.4013500000000000    0.1186600000000000 H
   0.5371850000000000    0.7627000000000000    0.2992300000000000 H
   0.9849100000000000    0.7073199999999999    0.3019400000000000 H
   0.8917649999999999    0.2942000000000000    0.1131550000000000 H
   0.9064200000000000    0.3442100000000000    0.1720650000000000 H
   0.8917999999999999    0.2263600000000000    0.1472200000000000 H
   0.9936950000000000    0.2332500000000000    0.1167500000000000 H
   0.9417500000000000    0.2287300000000000    0.0807500000000000 H
   0.9416949999999999    0.1613800000000000    0.1144400000000000 H
   0.9548650000000001    0.7445500000000000    0.2340700000000000 H
   0.9335899999999999    0.7654100000000000    0.1851650000000000 H
   0.6172550000000000    0.1329800000000000    0.3148450000000000 H
   0.6277550000000001    0.0901600000000000    0.2659250000000000 H
   0.8941049999999999    0.8559600000000001    0.2989100000000000 H
   0.9516050000000000    0.9036100000000000    0.3065950000000000 H
   0.9278299999999999    0.7886100000000000    0.2989000000000000 H
   0.8708300000000000    0.6742200000000000    0.2233700000000000 H
   0.8541050000000000    0.7080900000000000    0.1770900000000000 H
   0.8370200000000000    0.7418600000000000    0.2233250000000000 H
   0.6465050000000000    0.0304000000000000    0.1982600000000000 H
   0.6187200000000000    0.9257800000000000    0.2008400000000000 H
   0.7991200000000001    0.0744100000000000    0.3812900000000000 H
   0.8018600000000000    0.9697500000000000    0.3534900000000000 H
   0.6132250000000000    0.7836500000000000    0.1470800000000000 H
   0.6721000000000000    0.8128600000000000    0.1719950000000000 H
   0.6473100000000001    0.7836100000000000    0.1130000000000000 H
   0.6169350000000000    0.9876000000000000    0.1169250000000000 H
   0.5808949999999999    0.8837200000000000    0.1145500000000000 H
   0.6146000000000000    0.8835100000000000    0.0808450000000000 H
   0.7660000000000000    0.0907300000000000    0.1278500000000000 H
   0.8148850000000001    0.1331700000000000    0.1173350000000000 H
   0.6851250000000000    0.7654200000000000    0.4334200000000000 H
   0.7340050000000000    0.7443200000000000    0.4546800000000000 H
   0.7011650000000000    0.2121500000000000    0.0723550000000000 H
   0.6935150000000000    0.0970900000000000    0.0484450000000000 H
   0.7011550000000000    0.1448000000000000    0.1059750000000000 H
   0.7766299999999999    0.2589000000000000    0.1631450000000000 H
   0.8229100000000000    0.2922500000000000    0.1461550000000000 H
   0.7766850000000001    0.3264100000000000    0.1293800000000000 H
   0.8018449999999999    0.7069200000000000    0.4848450000000000 H
   0.7991600000000000    0.7625800000000000    0.0372050000000000 H
   0.6187400000000000    0.4019700000000000    0.4629000000000000 H
   0.6465500000000000    0.3967600000000000    0.0152300000000000 H
   0.8528450000000001    0.7737900000000000    0.1082300000000000 H
   0.8279250000000000    0.6560400000000000    0.0935950000000000 H
   0.8868050000000001    0.7055399999999999    0.1081650000000000 H
   0.8831200000000000    0.7658000000000000    0.0061950000000000 H
   0.8854100000000000    0.8381200000000000    0.0581750000000000 H
   0.9191250000000000    0.7706200000000000    0.0582100000000000 H
   0.9336000000000000    0.3703100000000000    0.3826750000000000 H
   0.9548300000000001    0.4680800000000000    0.3722200000000000 H
   0.9849450000000000    0.6041299999999999    0.3536450000000000 H
   0.5372450000000000    0.5987000000000000    0.3813400000000000 H
   0.9628200000000000    0.2373500000000000    0.2007650000000000 H
   0.5151000000000000    0.2927300000000000    0.1980600000000000 H
   0.6082450000000000    0.7058500000000000    0.3868400000000000 H
   0.5935850000000000    0.6558400000000000    0.3279300000000000 H
   0.6082050000000000    0.7736800000000000    0.3527800000000000 H
   0.5063150000000000    0.7668000000000000    0.3832250000000000 H
   0.5582600000000000    0.7713200000000000    0.4192500000000000 H
   0.5583150000000000    0.8386700000000000    0.3855600000000000 H
   0.5451450000000000    0.2555100000000000    0.2659250000000000 H
   0.5664150000000000    0.2346500000000000    0.3148350000000000 H
   0.8827550000000000    0.8670900000000000    0.1851500000000000 H
   0.8722500000000000    0.9098900000000000    0.2340700000000000 H
   0.6059050000000000    0.1441000000000000    0.2010900000000000 H
   0.5484050000000000    0.0964400000000000    0.1934000000000000 H
   0.5721800000000000    0.2114400000000000    0.2010950000000000 H
   0.6291800000000000    0.3258300000000000    0.2766250000000000 H
   0.6459050000000000    0.2919700000000000    0.3229050000000000 H
   0.6629900000000000    0.2581900000000000    0.2766750000000000 H
   0.8535050000000000    0.9696500000000000    0.3017000000000000 H
   0.8812850000000000    0.0742800000000000    0.2991600000000000 H
   0.7008900000000000    0.9256400000000000    0.1187100000000000 H
   0.6981500000000000    0.0303000000000000    0.1465100000000000 H
   0.8867849999999999    0.2164000000000000    0.3529250000000000 H
   0.8279099999999999    0.1872000000000000    0.3280100000000000 H
   0.8527000000000000    0.2164400000000000    0.3869050000000000 H
   0.8830700000000000    0.0124500000000000    0.3830700000000000 H
   0.9191100000000000    0.1163300000000000    0.3854000000000000 H
   0.8854100000000000    0.1165400000000000    0.4191550000000000 H
   0.2340100000000000    0.9093200000000000    0.8721500000000000 H
   0.1851250000000000    0.8668800000000000    0.8826650000000000 H
   0.3148900000000000    0.2346400000000000    0.5665800000000000 H
   0.2660100000000000    0.2557400000000000    0.5453200000000000 H
   0.2988450000000000    0.7879100000000000    0.9276450000000001 H
   0.3065000000000000    0.9029700000000001    0.9515549999999999 H
   0.2988550000000000    0.8552500000000000    0.8940200000000000 H
   0.2233800000000000    0.7411600000000000    0.8368550000000000 H
   0.1771000000000000    0.7078000000000000    0.8538450000000000 H
   0.2233250000000000    0.6736500000000000    0.8706199999999999 H
   0.1981650000000000    0.2931300000000000    0.5151500000000000 H
   0.2008500000000000    0.2374800000000000    0.9628000000000000 H
   0.3812750000000000    0.5980900000000000    0.5370950000000000 H
   0.3534550000000000    0.6032900000000000    0.9847699999999999 H
   0.1471650000000000    0.2262600000000000    0.8917700000000000 H
   0.1720850000000000    0.3440100000000000    0.9064050000000000 H
   0.1132050000000000    0.2945100000000000    0.8917999999999999 H
   0.1168950000000000    0.2342600000000000    0.9938050000000000 H
   0.1146000000000000    0.1619300000000000    0.9418299999999999 H
   0.0808850000000000    0.2294300000000000    0.9417900000000000 H
   0.0664100000000000    0.6297400000000000    0.6173000000000000 H
   0.0451750000000000    0.5319700000000001    0.6277500000000000 H
   0.0150650000000000    0.3959200000000000    0.6463550000000000 H
   0.4627650000000000    0.4013500000000000    0.6186600000000000 H
   0.0371850000000000    0.7627000000000000    0.7992300000000000 H
   0.4849100000000000    0.7073199999999999    0.8019400000000000 H
   0.3917650000000000    0.2942000000000000    0.6131550000000000 H
   0.4064200000000000    0.3442100000000000    0.6720650000000000 H
   0.3918000000000000    0.2263600000000000    0.6472200000000000 H
   0.4936950000000000    0.2332500000000000    0.6167500000000000 H
   0.4417500000000000    0.2287300000000000    0.5807500000000000 H
   0.4416950000000000    0.1613800000000000    0.6144400000000000 H
   0.4548650000000000    0.7445500000000000    0.7340700000000000 H
   0.4335900000000000    0.7654100000000000    0.6851650000000000 H
   0.1172550000000000    0.1329800000000000    0.8148450000000000 H
   0.1277550000000000    0.0901600000000000    0.7659250000000000 H
   0.3941050000000000    0.8559600000000001    0.7989100000000000 H
   0.4516050000000000    0.9036100000000000    0.8065950000000000 H
   0.4278300000000000    0.7886100000000000    0.7988999999999999 H
   0.3708300000000000    0.6742200000000000    0.7233700000000001 H
   0.3541050000000000    0.7080900000000000    0.6770900000000000 H
   0.3370200000000000    0.7418600000000000    0.7233250000000000 H
   0.1465050000000000    0.0304000000000000    0.6982600000000000 H
   0.1187200000000000    0.9257800000000000    0.7008400000000000 H
   0.2991200000000000    0.0744100000000000    0.8812900000000000 H
   0.3018600000000000    0.9697500000000000    0.8534900000000001 H
   0.1132250000000000    0.7836500000000000    0.6470800000000000 H
   0.1721000000000000    0.8128600000000000    0.6719950000000000 H
   0.1473100000000000    0.7836100000000000    0.6130000000000000 H
   0.1169350000000000    0.9876000000000000    0.6169249999999999 H
   0.0808950000000000    0.8837200000000000    0.6145500000000000 H
   0.1146000000000000    0.8835100000000000    0.5808450000000001 H
   0.2660000000000000    0.0907300000000000    0.6278500000000000 H
   0.3148850000000000    0.1331700000000000    0.6173350000000000 H
   0.1851250000000000    0.7654200000000000    0.9334200000000000 H
   0.2340050000000000    0.7443200000000000    0.9546800000000000 H
   0.2011650000000000    0.2121500000000000    0.5723549999999999 H
   0.1935150000000000    0.0970900000000000    0.5484450000000000 H
   0.2011550000000000    0.1448000000000000    0.6059750000000000 H
   0.2766300000000000    0.2589000000000000    0.6631450000000000 H
   0.3229100000000000    0.2922500000000000    0.6461550000000000 H
   0.2766850000000000    0.3264100000000000    0.6293800000000001 H
   0.3018450000000000    0.7069200000000000    0.9848450000000000 H
   0.2991600000000000    0.7625800000000000    0.5372050000000000 H
   0.1187400000000000    0.4019700000000000    0.9629000000000000 H
   0.1465500000000000    0.3967600000000000    0.5152300000000000 H
   0.3528450000000000    0.7737900000000000    0.6082300000000000 H
   0.3279250000000000    0.6560400000000000    0.5935950000000000 H
   0.3868050000000000    0.7055399999999999    0.6081650000000000 H
   0.3831200000000000    0.7658000000000000    0.5061950000000000 H
   0.3854100000000000    0.8381200000000000    0.5581750000000000 H
   0.4191250000000000    0.7706200000000000    0.5582100000000000 H
   0.1277700000000000    0.5318700000000000    0.5451500000000000 H
   0.1172600000000000    0.6297199999999999    0.5665000000000000 H
   0.0722500000000000    0.4022900000000000    0.6057950000000000 H
   0.0484150000000000    0.3868800000000000    0.5482899999999999 H
   0.1059200000000000    0.4021900000000000    0.5720900000000000 H
   0.1629950000000000    0.5532400000000000    0.6292050000000000 H
   0.1459600000000000    0.6458400000000000    0.6460100000000000 H
   0.1291950000000000    0.5534200000000000    0.6630050000000001 H
   0.4849450000000000    0.6041299999999999    0.8536450000000000 H
   0.0372450000000000    0.5987000000000000    0.8813400000000000 H
   0.4628200000000000    0.2373500000000000    0.7007650000000000 H
   0.0151000000000000    0.2927300000000000    0.6980600000000000 H
   0.1082450000000000    0.7058500000000000    0.8868400000000001 H
   0.0935850000000000    0.6558400000000000    0.8279300000000001 H
   0.1082050000000000    0.7736800000000000    0.8527800000000000 H
   0.0063150000000000    0.7668000000000000    0.8832249999999999 H
   0.0582600000000000    0.7713200000000000    0.9192500000000000 H
   0.0583150000000000    0.8386700000000000    0.8855600000000000 H
   0.0451450000000000    0.2555100000000000    0.7659250000000000 H
   0.0664150000000000    0.2346500000000000    0.8148350000000000 H
   0.3827550000000000    0.8670900000000000    0.6851500000000000 H
   0.3722500000000000    0.9098900000000000    0.7340700000000000 H
   0.1059050000000000    0.1441000000000000    0.7010900000000000 H
   0.0484050000000000    0.0964400000000000    0.6934000000000000 H
   0.0721800000000000    0.2114400000000000    0.7010950000000000 H
   0.1291800000000000    0.3258300000000000    0.7766250000000000 H
   0.1459050000000000    0.2919700000000000    0.8229050000000000 H
   0.1629900000000000    0.2581900000000000    0.7766750000000000 H
   0.3535050000000000    0.9696500000000000    0.8017000000000001 H
   0.3812850000000000    0.0742800000000000    0.7991600000000000 H
   0.2008900000000000    0.9256400000000000    0.6187100000000000 H
   0.1981500000000000    0.0303000000000000    0.6465100000000000 H
   0.3867850000000000    0.2164000000000000    0.8529249999999999 H
   0.3279100000000000    0.1872000000000000    0.8280100000000000 H
   0.3527000000000000    0.2164400000000000    0.8869050000000001 H
   0.3830700000000000    0.0124500000000000    0.8830700000000000 H
   0.4191100000000000    0.1163300000000000    0.8854000000000000 H
   0.3854100000000000    0.1165400000000000    0.9191549999999999 H
   0.7340100000000001    0.9093200000000000    0.8721500000000000 H
   0.6851250000000000    0.8668800000000000    0.8826650000000000 H
   0.8148900000000000    0.2346400000000000    0.5665800000000000 H
   0.7660100000000001    0.2557400000000000    0.5453200000000000 H
   0.7988450000000000    0.7879100000000000    0.9276450000000001 H
   0.8065000000000000    0.9029700000000001    0.9515549999999999 H
   0.7988550000000000    0.8552500000000000    0.8940200000000000 H
   0.7233800000000000    0.7411600000000000    0.8368550000000000 H
   0.6771000000000000    0.7078000000000000    0.8538450000000000 H
   0.7233250000000000    0.6736500000000000    0.8706199999999999 H
   0.6981650000000000    0.2931300000000000    0.5151500000000000 H
   0.7008500000000000    0.2374800000000000    0.9628000000000000 H
   0.8812750000000000    0.5980900000000000    0.5370950000000000 H
   0.8534550000000001    0.6032900000000000    0.9847699999999999 H
   0.6471650000000000    0.2262600000000000    0.8917700000000000 H
   0.6720850000000000    0.3440100000000000    0.9064050000000000 H
   0.6132050000000000    0.2945100000000000    0.8917999999999999 H
   0.6168950000000000    0.2342600000000000    0.9938050000000000 H
   0.6146000000000000    0.1619300000000000    0.9418299999999999 H
   0.5808850000000000    0.2294300000000000    0.9417900000000000 H
   0.8722400000000000    0.4681800000000000    0.9548500000000000 H
   0.8827450000000000    0.3703300000000000    0.9334500000000000 H
   0.5664100000000000    0.6297400000000000    0.6173000000000000 H
   0.5451750000000000    0.5319700000000001    0.6277500000000000 H
   0.9277599999999999    0.5977600000000000    0.8942050000000000 H
   0.9515950000000000    0.6131700000000000    0.9517100000000001 H
   0.8940900000000001    0.5978700000000000    0.9279100000000000 H
   0.8370100000000000    0.4468100000000000    0.8707950000000000 H
   0.8540449999999999    0.3542100000000000    0.8539900000000000 H
   0.8708199999999999    0.4466300000000000    0.8369949999999999 H
   0.5150650000000000    0.3959200000000000    0.6463550000000000 H
   0.9627650000000000    0.4013500000000000    0.6186600000000000 H
   0.5371850000000000    0.7627000000000000    0.7992300000000000 H
   0.9849100000000000    0.7073199999999999    0.8019400000000000 H
   0.8917649999999999    0.2942000000000000    0.6131550000000000 H
   0.9064200000000000    0.3442100000000000    0.6720650000000000 H
   0.8917999999999999    0.2263600000000000    0.6472200000000000 H
   0.9936950000000000    0.2332500000000000    0.6167500000000000 H
   0.9417500000000000    0.2287300000000000    0.5807500000000000 H
   0.9416949999999999    0.1613800000000000    0.6144400000000000 H
   0.9548650000000001    0.7445500000000000    0.7340700000000000 H
   0.9335899999999999    0.7654100000000000    0.6851650000000000 H
   0.6172550000000000    0.1329800000000000    0.8148450000000000 H
   0.6277550000000001    0.0901600000000000    0.7659250000000000 H
   0.8941049999999999    0.8559600000000001    0.7989100000000000 H
   0.9516050000000000    0.9036100000000000    0.8065950000000000 H
   0.9278299999999999    0.7886100000000000    0.7988999999999999 H
   0.8708300000000000    0.6742200000000000    0.7233700000000001 H