H4 C10 N3 O4
1.0
  37.7147447269847547    0.0000000000000000    0.8795767040887195
   2.6013181250701307   38.5022217977186969    0.9215539330159020
   0.0000000000000000    0.0000000000000000   14.5139999999999993
H C N O
4 10 3 4
direct
   0.1978433333333333    0.5197066666666667    0.6417400000000000 H
   0.2469733333333333    0.4738200000000000    0.6407500000000000 H
   0.1450933333333333    0.4703600000000000    0.8574200000000000 H
   0.1901800000000000    0.4207133333333333    0.8591900000000000 H
   0.3033966666666666    0.3886833333333333    0.7547300000000000 C
   0.1976133333333333    0.4979700000000000    0.6908600000000000 C
   0.2250366666666667    0.4721133333333333    0.6903100000000000 C
   0.2783266666666667    0.3641533333333333    0.7463600000000000 C
   0.2821566666666666    0.3333333333333333    0.7341500000000000 C
   0.1674433333333333    0.4697433333333333    0.8085599999999999 C
   0.1928500000000000    0.4419766666666666    0.8094600000000000 C
   0.2507733333333333    0.4152833333333333    0.7503800000000000 C
   0.2225933333333333    0.4432333333333333    0.7500100000000000 C
   0.3423233333333333    0.3846933333333333    0.7661200000000000 C
   0.2857800000000000    0.4208066666666667    0.7558700000000000 N
   0.2451933333333333    0.3811733333333333    0.7449600000000000 N
   0.1693900000000000    0.4972633333333333    0.7497800000000000 N
   0.2547199999999999    0.3106466666666666    0.7187400000000000 O
   0.3136433333333333    0.3108733333333333    0.7380200000000000 O
   0.3580366666666667    0.4123300000000000    0.7812900000000000 O
   0.3577700000000000    0.3544066666666666    0.7615900000000000 O
