H6 O4
1.0
  37.7147447269847547    0.0000000000000000    0.8795767040887195
   2.6013181250701307   38.5022217977186969    0.9215539330159020
   0.0000000000000000    0.0000000000000000   14.5139999999999993
H O
6 4
direct
   0.1898279669088133    0.4977750670034252    0.7071129983370515 H
   0.1679803373723428    0.4773349520765902    0.7923450526988138 H
   0.2735567614313371    0.3262222951810246    0.7293198017369786 H
   0.2605248913724366    0.4168219289980443    0.7519093102352318 H
   0.2983929793563119    0.3978073701563964    0.7550537958486550 H
   0.3460339155155073    0.3912195184993080    0.7697022782161803 H
   0.1693900000000000    0.4972633333333333    0.7497800000000000 O
   0.2547199999999999    0.3106466666666666    0.7187400000000000 O
   0.2857800000000000    0.4208066666666667    0.7558700000000000 O
   0.3580366666666667    0.4123300000000000    0.7812900000000000 O
