H6 O4
1.0
  37.7147447269847547    0.0000000000000000    0.8795767040887195
   2.6013181250701307   38.5022217977186969    0.9215539330159020
   0.0000000000000000    0.0000000000000000   14.5139999999999993
H O
6 4
direct
   0.1429376339556699    0.6167381758194669    0.4305191139307131 H
   0.1252924067512623    0.6559588035609510    0.4613784652075916 H
   0.1509265914580543    0.5629945976963693    0.9080114065237858 H
   0.1937614714901932    0.6525059452522323    0.8945704193714192 H
   0.1726978714441569    0.6303643692300563    0.8060055058434997 H
   0.1593678164924308    0.6225235717199460    0.7082682490606182 H
   0.1324800000000000    0.6397299999999999    0.4125400000000000 O
   0.1387566666666666    0.5421633333333333    0.8945200000000000 O
   0.2036366666666666    0.6743566666666666    0.8749500000000000 O
   0.1706933333333333    0.6399566666666666    0.7431800000000000 O
