H6 O4
1.0
  20.6618056724889527    0.0000000000000000   -2.5453703762524382
  -1.9043609072758569   13.5490847585778305   -3.7391934611241209
   0.0000000000000000    0.0000000000000000   28.4239999999999995
H O
6 4
direct
   0.5527632154225760    0.6819341932536637    0.0307229212239373 H
   0.7447970747635476    0.7270178825160600    0.0776982588079857 H
   0.6508175410505820    0.7036279777223721    0.0490420290323192 H
   0.6806376955125293    0.8043595110068872    0.7503508981564858 H
   0.5047646518396993    0.6452457710954876    0.6927430097770777 H
   0.5894617063465009    0.7237297000184036    0.7255584774928283 H
   0.5899000000000000    0.6946300000000000    0.0568000000000000 O
   0.6997900000000000    0.7203700000000000    0.0834300000000000 O
   0.6472599999999999    0.7681000000000000    0.7228650000000000 O
   0.5472100000000000    0.6778300000000000    0.6907650000000000 O
