Zn16 H136 C244 S32 N14 O66
1.0
  20.6618056724889527    0.0000000000000000   -2.5453703762524382
  -1.9043609072758569   13.5490847585778305   -3.7391934611241209
   0.0000000000000000    0.0000000000000000   28.4239999999999995
Zn H C S N O
16 136 244 32 14 66
direct
   0.1944900000000000    0.7578900000000000    0.6589650000000000 Zn
   0.8055099999999999    0.2421300000000000    0.3410200000000000 Zn
   0.1944900000000000    0.7578900000000000    0.1589650000000000 Zn
   0.8055099999999999    0.2421300000000000    0.8410200000000000 Zn
   0.4440100000000000    0.3174900000000000    0.8803550000000000 Zn
   0.0559900000000000    0.6825200000000000    0.1196250000000000 Zn
   0.4440100000000000    0.3174900000000000    0.3803550000000000 Zn
   0.0559900000000000    0.6825200000000000    0.6196250000000000 Zn
   0.6944900000000001    0.7578900000000000    0.1589500000000000 Zn
   0.3055100000000000    0.2421300000000000    0.3410150000000000 Zn
   0.6944900000000001    0.7578900000000000    0.6589500000000000 Zn
   0.3055100000000000    0.2421300000000000    0.8410150000000001 Zn
   0.9440100000000000    0.3174900000000000    0.3803550000000000 Zn
   0.5559900000000000    0.6825300000000000    0.6196250000000000 Zn
   0.9440100000000000    0.3174900000000000    0.8803550000000000 Zn
   0.5559900000000000    0.6825300000000000    0.1196250000000000 Zn
   0.3005730728825594    0.8953569026268378    0.6990905110819644 H
   0.2520400000000000    0.4785700000000000    0.7042650000000000 H
   0.2250300000000000    0.2979000000000000    0.7117599999999999 H
   0.9840100000000001    0.9924300000000000    0.6299250000000001 H
   0.0024800000000000    0.1834700000000000    0.6366250000000000 H
   0.7479700000000000    0.5214400000000000    0.2957000000000000 H
   0.7749800000000000    0.7021100000000000    0.2882150000000000 H
   0.0159900000000000    0.0000000000000000    0.3700600000000000 H
   0.9975200000000000    0.8165500000000000    0.3633550000000000 H
   0.5638900000000000    0.2373900000000000    0.2749150000000000 H
   0.6215800000000000    0.9511800000000000    0.2719500000000000 H
   0.7340300000000000    0.0356900000000000    0.3056600000000000 H
   0.6812400000000000    0.3094000000000000    0.3062200000000000 H
   0.4806900000000000    0.1025200000000000    0.2508950000000000 H
   0.5193200000000000    0.8975000000000000    0.2490850000000000 H
   0.4361100000000000    0.7626200000000000    0.2250650000000000 H
   0.3784300000000000    0.0488400000000000    0.2280350000000000 H
   0.2659800000000000    0.9643200000000000    0.1943250000000000 H
   0.3187600000000000    0.6906099999999999    0.1937550000000000 H
   0.2520400000000000    0.4785700000000000    0.2042650000000000 H
   0.2250300000000000    0.2979000000000000    0.2117600000000000 H
   0.9840100000000001    0.9924300000000000    0.1299250000000000 H
   0.0024800000000000    0.1834700000000000    0.1366250000000000 H
   0.6994326481637381    0.1046517309641975    0.8008936225479217 H
   0.7479700000000000    0.5214400000000000    0.7957000000000001 H
   0.7749800000000000    0.7021100000000000    0.7882150000000000 H
   0.0159900000000000    0.0000000000000000    0.8700600000000001 H
   0.9975200000000000    0.8165500000000000    0.8633550000000000 H
   0.4999700000000000    0.4068600000000000    0.2418050000000000 H
   0.4745900000000000    0.4214200000000000    0.1509600000000000 H
   0.2347500000000000    0.2607700000000000    0.9943649999999999 H
   0.2529600000000000    0.2729900000000000    0.0898550000000000 H
   0.8168700000000000    0.5532600000000000    0.1187750000000000 H
   0.8698200000000000    0.5417100000000000    0.9748049999999999 H
   0.9827200000000000    0.6094600000000000    0.0165500000000000 H
   0.9346200000000000    0.6160200000000000    0.1542500000000000 H
   0.7322500000000000    0.5035300000000000    0.0514900000000000 H
   0.7677500000000000    0.4964900000000000    0.9484900000000001 H
   0.6831400000000000    0.4467500000000000    0.8812050000000000 H
   0.6301900000000000    0.4583100000000000    0.0251750000000000 H
   0.5172800000000000    0.3905500000000000    0.9834149999999999 H
   0.5653899999999999    0.3839900000000000    0.8457300000000000 H
   0.2652500000000000    0.7392200000000000    0.0000000000000000 H
   0.2470400000000000    0.7269800000000000    0.9101200000000000 H
   0.0000200000000000    0.5931400000000000    0.7581750000000000 H
   0.0254000000000000    0.5785900000000000    0.8490200000000000 H
   0.4999700000000000    0.4068600000000000    0.7418050000000000 H
   0.4745900000000000    0.4214200000000000    0.6509600000000000 H
   0.2347500000000000    0.2607700000000000    0.4943650000000000 H
   0.2529600000000000    0.2729900000000000    0.5898550000000000 H
   0.8168700000000000    0.5532600000000000    0.6187750000000000 H
   0.8698200000000000    0.5417100000000000    0.4748050000000000 H
   0.9827200000000000    0.6094600000000000    0.5165500000000000 H
   0.9346200000000000    0.6160200000000000    0.6542500000000000 H
   0.7322500000000000    0.5035300000000000    0.5514900000000000 H
   0.7677500000000000    0.4964900000000000    0.4484900000000000 H
   0.6831400000000000    0.4467500000000000    0.3812050000000000 H
   0.6301900000000000    0.4583100000000000    0.5251749999999999 H
   0.5172800000000000    0.3905500000000000    0.4834150000000000 H
   0.5653899999999999    0.3839900000000000    0.3457300000000000 H
   0.2652500000000000    0.7392200000000000    0.5000000000000000 H
   0.2470400000000000    0.7269800000000000    0.4101200000000000 H
   0.0000200000000000    0.5931400000000000    0.2581750000000000 H
   0.0254000000000000    0.5785900000000000    0.3490200000000000 H
   0.7520400000000000    0.4785700000000000    0.2042650000000000 H
   0.7250300000000000    0.2979100000000000    0.2117600000000000 H
   0.4840100000000000    0.9924300000000000    0.1299200000000000 H
   0.5024800000000000    0.1834700000000000    0.1366250000000000 H
   0.9361100000000000    0.7626200000000000    0.2250650000000000 H
   0.8784300000000000    0.0488400000000000    0.2280350000000000 H
   0.7659800000000000    0.9643200000000000    0.1943250000000000 H
   0.8187600000000000    0.6906099999999999    0.1937550000000000 H
   0.0193100000000000    0.8975000000000000    0.2490850000000000 H
   0.9806900000000000    0.1025200000000000    0.2508950000000000 H
   0.0638900000000000    0.2373900000000000    0.2749100000000000 H
   0.1215700000000000    0.9511800000000000    0.2719550000000000 H
   0.2340200000000000    0.0356900000000000    0.3056500000000000 H
   0.1812400000000000    0.3094000000000000    0.3062200000000000 H
   0.2479700000000000    0.5214500000000000    0.2957000000000000 H
   0.2749800000000000    0.7021100000000000    0.2882150000000000 H
   0.5159899999999999    0.0000000000000000    0.3700600000000000 H
   0.4975200000000000    0.8165500000000000    0.3633500000000000 H
   0.7520400000000000    0.4785700000000000    0.7042650000000000 H
   0.7250300000000000    0.2979100000000000    0.7117599999999999 H
   0.4840100000000000    0.9924300000000000    0.6299200000000000 H
   0.5024800000000000    0.1834700000000000    0.6366250000000000 H
   0.9361100000000000    0.7626200000000000    0.7250650000000000 H
   0.8784300000000000    0.0488400000000000    0.7280350000000000 H
   0.7659800000000000    0.9643200000000000    0.6943250000000000 H
   0.8187600000000000    0.6906099999999999    0.6937550000000000 H
   0.0193100000000000    0.8975000000000000    0.7490850000000000 H
   0.9806900000000000    0.1025200000000000    0.7508950000000000 H
   0.0638900000000000    0.2373900000000000    0.7749100000000000 H
   0.1215700000000000    0.9511800000000000    0.7719549999999999 H
   0.2340200000000000    0.0356900000000000    0.8056500000000000 H
   0.1812400000000000    0.3094000000000000    0.8062199999999999 H
   0.2479700000000000    0.5214500000000000    0.7957000000000001 H
   0.2749800000000000    0.7021100000000000    0.7882150000000000 H
   0.5159899999999999    0.0000000000000000    0.8700600000000001 H
   0.4975200000000000    0.8165500000000000    0.8633500000000001 H
   0.9999700000000000    0.4068600000000000    0.7418050000000000 H
   0.9745900000000000    0.4214200000000000    0.6509600000000000 H
   0.7347600000000000    0.2607700000000000    0.4943650000000000 H
   0.7529600000000000    0.2730000000000000    0.5898550000000000 H
   0.3168600000000000    0.5532600000000000    0.6187750000000000 H
   0.3698100000000000    0.5417100000000000    0.4748050000000000 H
   0.4827200000000000    0.6094600000000000    0.5165600000000000 H
   0.4346200000000000    0.6160200000000000    0.6542500000000000 H
   0.2677500000000000    0.4964900000000000    0.4484900000000000 H
   0.2322500000000000    0.5035100000000000    0.5514900000000000 H
   0.1831400000000000    0.4467500000000000    0.3812050000000000 H
   0.1301900000000000    0.4583000000000000    0.5251749999999999 H
   0.0172800000000000    0.3905500000000000    0.4834000000000000 H
   0.0653900000000000    0.3839900000000000    0.3457300000000000 H
   0.5000300000000000    0.5931500000000000    0.2581750000000000 H
   0.5254100000000000    0.5785900000000000    0.3490200000000000 H
   0.7652500000000000    0.7392300000000001    0.5000000000000000 H
   0.7470400000000000    0.7269900000000000    0.4101200000000000 H
   0.9999700000000000    0.4068600000000000    0.2418050000000000 H
   0.9745900000000000    0.4214200000000000    0.1509600000000000 H
   0.7347600000000000    0.2607700000000000    0.9943649999999999 H
   0.7529600000000000    0.2730000000000000    0.0898550000000000 H
   0.3168600000000000    0.5532600000000000    0.1187750000000000 H
   0.3698100000000000    0.5417100000000000    0.9748049999999999 H
   0.4827200000000000    0.6094600000000000    0.0165600000000000 H
   0.4346200000000000    0.6160200000000000    0.1542500000000000 H
   0.2322500000000000    0.5035100000000000    0.0514900000000000 H
   0.2677500000000000    0.4964900000000000    0.9484900000000001 H
   0.1831400000000000    0.4467500000000000    0.8812050000000000 H
   0.1301900000000000    0.4583000000000000    0.0251750000000000 H
   0.0172800000000000    0.3905500000000000    0.9834000000000001 H
   0.0653900000000000    0.3839900000000000    0.8457300000000000 H
   0.5000300000000000    0.5931500000000000    0.7581750000000000 H
   0.5254100000000000    0.5785900000000000    0.8490200000000000 H
   0.7652500000000000    0.7392300000000001    0.0000000000000000 H
   0.7470400000000000    0.7269900000000000    0.9101200000000000 H
   0.0995500000000000    0.8982599999999999    0.6457400000000000 C
   0.1573000000000000    0.5475500000000000    0.6421800000000000 C
   0.2095000000000000    0.4265900000000000    0.6837600000000000 C
   0.1625000000000000    0.4511500000000000    0.6518550000000000 C
   0.1950100000000000    0.3298400000000000    0.6875850000000000 C
   0.1367800000000000    0.2795000000000000    0.6581500000000000 C
   0.0314800000000000    0.0378900000000000    0.6378750000000000 C
   0.0891700000000000    0.9999600000000000    0.6462749999999999 C
   0.0415500000000000    0.1394800000000000    0.6411700000000000 C
   0.1073800000000000    0.1794500000000000    0.6523250000000000 C
   0.9004500000000000    0.1017600000000000    0.3542450000000000 C
   0.8427000000000000    0.4524600000000000    0.3577950000000000 C
   0.7905000000000000    0.5734200000000000    0.3162150000000000 C
   0.8375000000000000    0.5488600000000000    0.3481000000000000 C
   0.8049900000000000    0.6701700000000000    0.3123900000000000 C
   0.8632300000000001    0.7205100000000000    0.3418100000000000 C
   0.9685200000000000    0.9621300000000000    0.3621050000000000 C
   0.9108300000000000    0.0000000000000000    0.3537100000000000 C
   0.9584500000000000    0.8605300000000000    0.3588100000000000 C
   0.8926200000000000    0.8205700000000000    0.3476550000000000 C
   0.6003100000000000    0.1901300000000000    0.2811400000000000 C
   0.6312100000000000    0.0311400000000000    0.2798950000000000 C
   0.6946400000000000    0.0772100000000000    0.2981250000000000 C
   0.6649900000000000    0.2307500000000000    0.2987800000000000 C
   0.5813600000000000    0.0879700000000000    0.2718000000000000 C
   0.5127699999999999    0.0478900000000000    0.2548700000000000 C
   0.4872300000000000    0.9521200000000000    0.2451100000000000 C
   0.3996900000000000    0.8098800000000000    0.2188400000000000 C
   0.3688000000000000    0.9688700000000000    0.2200500000000000 C
   0.3053700000000000    0.9228100000000000    0.2018600000000000 C
   0.3350200000000000    0.7692700000000000    0.2012000000000000 C
   0.4186500000000000    0.9120500000000000    0.2281800000000000 C
   0.0995500000000000    0.8982599999999999    0.1457400000000000 C
   0.1573000000000000    0.5475500000000000    0.1421800000000000 C
   0.2095000000000000    0.4265900000000000    0.1837600000000000 C
   0.1625000000000000    0.4511500000000000    0.1518550000000000 C
   0.1950100000000000    0.3298400000000000    0.1875850000000000 C
   0.1367800000000000    0.2795000000000000    0.1581500000000000 C
   0.0314800000000000    0.0378900000000000    0.1378750000000000 C
   0.0891700000000000    0.9999600000000000    0.1462750000000000 C
   0.0415500000000000    0.1394800000000000    0.1411700000000000 C
   0.1073800000000000    0.1794500000000000    0.1523250000000000 C
   0.9004500000000000    0.1017600000000000    0.8542449999999999 C
   0.8427000000000000    0.4524600000000000    0.8577950000000000 C
   0.7905000000000000    0.5734200000000000    0.8162150000000000 C
   0.8375000000000000    0.5488600000000000    0.8481000000000001 C
   0.8049900000000000    0.6701700000000000    0.8123899999999999 C
   0.8632300000000001    0.7205100000000000    0.8418099999999999 C
   0.9685200000000000    0.9621300000000000    0.8621050000000000 C
   0.9108300000000000    0.0000000000000000    0.8537100000000000 C
   0.9584500000000000    0.8605300000000000    0.8588100000000001 C
   0.8926200000000000    0.8205700000000000    0.8476550000000000 C
   0.3501900000000000    0.2925000000000000    0.9492849999999999 C
   0.4050800000000000    0.2836100000000000    0.2741500000000000 C
   0.4581000000000000    0.3658800000000000    0.2148950000000000 C
   0.4110700000000000    0.3024400000000000    0.2261350000000000 C
   0.4444500000000000    0.3734000000000000    0.1662850000000000 C
   0.3868000000000000    0.3148900000000000    0.1399100000000000 C
   0.2821400000000000    0.2759900000000000    0.0177700000000000 C
   0.3398500000000000    0.2926200000000000    0.9997900000000000 C
   0.2920800000000000    0.2819700000000000    0.0685400000000000 C
   0.3578300000000000    0.3036400000000000    0.0894950000000000 C
   0.8523500000000001    0.5644500000000000    0.0948800000000000 C
   0.8806000000000000    0.5588700000000000    0.0148750000000000 C
   0.9442500000000000    0.5954400000000000    0.0376050000000000 C
   0.9171600000000000    0.5997400000000001    0.1148750000000000 C
   0.8320300000000000    0.5442000000000000    0.0437150000000000 C
   0.7633400000000000    0.5103400000000000    0.0239700000000000 C
   0.7366600000000000    0.4896700000000000    0.9760100000000000 C
   0.6476600000000000    0.4355600000000000    0.9051000000000000 C
   0.6194100000000000    0.4411300000000000    0.9851050000000000 C
   0.5557500000000000    0.4045800000000000    0.9623750000000000 C
   0.5828400000000000    0.4002700000000000    0.8851050000000000 C
   0.6679800000000000    0.4558200000000000    0.9562649999999999 C
   0.1498100000000000    0.7075200000000000    0.0506950000000000 C
   0.0949200000000000    0.7163800000000000    0.7257950000000000 C
   0.2178600000000000    0.7240100000000000    0.9822000000000000 C
   0.1601500000000000    0.7073900000000000    0.0000000000000000 C
   0.2079200000000000    0.7180200000000000    0.9314350000000000 C
   0.1421600000000000    0.6963500000000000    0.9104850000000000 C
   0.0419000000000000    0.6341100000000000    0.7850500000000000 C
   0.0889300000000000    0.6975400000000000    0.7738450000000000 C
   0.0555400000000000    0.6266000000000000    0.8336950000000001 C
   0.1132000000000000    0.6851000000000000    0.8600650000000001 C
   0.3501900000000000    0.2925000000000000    0.4492850000000000 C
   0.4050800000000000    0.2836100000000000    0.7741500000000000 C
   0.4581000000000000    0.3658800000000000    0.7148950000000001 C
   0.4110700000000000    0.3024400000000000    0.7261350000000000 C
   0.4444500000000000    0.3734000000000000    0.6662850000000000 C
   0.3868000000000000    0.3148900000000000    0.6399100000000000 C
   0.2821400000000000    0.2759900000000000    0.5177700000000000 C
   0.3398500000000000    0.2926200000000000    0.4997900000000000 C
   0.2920800000000000    0.2819700000000000    0.5685400000000000 C
   0.3578300000000000    0.3036400000000000    0.5894950000000000 C
   0.8523500000000001    0.5644500000000000    0.5948800000000000 C
   0.8806000000000000    0.5588700000000000    0.5148750000000000 C
   0.9442500000000000    0.5954400000000000    0.5376050000000000 C
   0.9171600000000000    0.5997400000000001    0.6148750000000001 C
   0.8320300000000000    0.5442000000000000    0.5437149999999999 C
   0.7633400000000000    0.5103400000000000    0.5239700000000000 C
   0.7366600000000000    0.4896700000000000    0.4760100000000000 C
   0.6476600000000000    0.4355600000000000    0.4051000000000000 C
   0.6194100000000000    0.4411300000000000    0.4851050000000000 C
   0.5557500000000000    0.4045800000000000    0.4623750000000000 C
   0.5828400000000000    0.4002700000000000    0.3851050000000000 C
   0.6679800000000000    0.4558200000000000    0.4562650000000000 C
   0.1498100000000000    0.7075200000000000    0.5506950000000000 C
   0.0949200000000000    0.7163800000000000    0.2257950000000000 C
   0.2178600000000000    0.7240100000000000    0.4822000000000000 C
   0.1601500000000000    0.7073900000000000    0.5000000000000000 C
   0.2079200000000000    0.7180200000000000    0.4314350000000000 C
   0.1421600000000000    0.6963500000000000    0.4104850000000000 C
   0.0419000000000000    0.6341100000000000    0.2850500000000000 C
   0.0889300000000000    0.6975400000000000    0.2738450000000000 C
   0.0555400000000000    0.6266000000000000    0.3336950000000000 C
   0.1132000000000000    0.6851000000000000    0.3600650000000000 C
   0.5995500000000000    0.8982599999999999    0.1457400000000000 C
   0.6573000000000000    0.5475500000000000    0.1421800000000000 C
   0.7095000000000000    0.4266000000000000    0.1837500000000000 C
   0.6625000000000000    0.4511600000000000    0.1518550000000000 C
   0.6950200000000000    0.3298500000000000    0.1875850000000000 C
   0.6367699999999999    0.2795000000000000    0.1581650000000000 C
   0.5314800000000000    0.0378900000000000    0.1378750000000000 C
   0.5891700000000000    0.9999600000000000    0.1462700000000000 C
   0.5415500000000000    0.1394900000000000    0.1411700000000000 C
   0.6073800000000000    0.1794500000000000    0.1523250000000000 C
   0.8996900000000000    0.8098900000000000    0.2188400000000000 C
   0.8688000000000000    0.9688700000000000    0.2200900000000000 C
   0.8053700000000000    0.9228100000000000    0.2018600000000000 C
   0.8350200000000000    0.7692700000000000    0.2011950000000000 C
   0.9186500000000000    0.9120500000000000    0.2281800000000000 C
   0.9872400000000000    0.9521200000000000    0.2451100000000000 C
   0.0127700000000000    0.0478900000000000    0.2548500000000000 C
   0.1003100000000000    0.1901300000000000    0.2811400000000000 C
   0.1312100000000000    0.0311400000000000    0.2798950000000000 C
   0.1946400000000000    0.0772100000000000    0.2981250000000000 C
   0.1649800000000000    0.2307500000000000    0.2987800000000000 C
   0.0813500000000000    0.0879700000000000    0.2718000000000000 C
   0.4004500000000000    0.1017600000000000    0.3542450000000000 C
   0.3427000000000000    0.4524600000000000    0.3577950000000000 C
   0.2905000000000000    0.5734200000000000    0.3162000000000000 C
   0.3375000000000000    0.5488600000000000    0.3481200000000000 C
   0.3049900000000000    0.6701700000000000    0.3123900000000000 C
   0.3632300000000000    0.7205100000000000    0.3418100000000000 C
   0.4685200000000000    0.9621300000000000    0.3621050000000000 C
   0.4108300000000000    0.0000000000000000    0.3537100000000000 C
   0.4584500000000000    0.8605300000000000    0.3588100000000000 C
   0.3926200000000000    0.8205700000000000    0.3476550000000000 C
   0.5995500000000000    0.8982599999999999    0.6457400000000000 C
   0.6573000000000000    0.5475500000000000    0.6421800000000000 C
   0.7095000000000000    0.4266000000000000    0.6837500000000000 C
   0.6625000000000000    0.4511600000000000    0.6518550000000000 C
   0.6950200000000000    0.3298500000000000    0.6875850000000000 C
   0.6367699999999999    0.2795000000000000    0.6581650000000000 C
   0.5314800000000000    0.0378900000000000    0.6378750000000000 C
   0.5891700000000000    0.9999600000000000    0.6462700000000000 C
   0.5415500000000000    0.1394900000000000    0.6411700000000000 C
   0.6073800000000000    0.1794500000000000    0.6523250000000000 C
   0.8996900000000000    0.8098900000000000    0.7188400000000000 C
   0.8688000000000000    0.9688700000000000    0.7200900000000000 C
   0.8053700000000000    0.9228100000000000    0.7018600000000000 C
   0.8350200000000000    0.7692700000000000    0.7011950000000000 C
   0.9186500000000000    0.9120500000000000    0.7281800000000000 C
   0.9872400000000000    0.9521200000000000    0.7451099999999999 C
   0.0127700000000000    0.0478900000000000    0.7548500000000000 C
   0.1003100000000000    0.1901300000000000    0.7811399999999999 C
   0.1312100000000000    0.0311400000000000    0.7798950000000000 C
   0.1946400000000000    0.0772100000000000    0.7981250000000000 C
   0.1649800000000000    0.2307500000000000    0.7987800000000000 C
   0.0813500000000000    0.0879700000000000    0.7718000000000000 C
   0.4004500000000000    0.1017600000000000    0.8542449999999999 C
   0.3427000000000000    0.4524600000000000    0.8577950000000000 C
   0.2905000000000000    0.5734200000000000    0.8162000000000000 C
   0.3375000000000000    0.5488600000000000    0.8481200000000000 C
   0.3049900000000000    0.6701700000000000    0.8123899999999999 C
   0.3632300000000000    0.7205100000000000    0.8418099999999999 C
   0.4685200000000000    0.9621300000000000    0.8621050000000000 C
   0.4108300000000000    0.0000000000000000    0.8537100000000000 C
   0.4584500000000000    0.8605300000000000    0.8588100000000001 C
   0.3926200000000000    0.8205700000000000    0.8476550000000000 C
   0.8501900000000000    0.2925000000000000    0.4492850000000000 C
   0.9050800000000000    0.2836100000000000    0.7741850000000000 C
   0.9581000000000000    0.3658800000000000    0.7145000000000000 C
   0.9110700000000000    0.3024400000000000    0.7261350000000000 C
   0.9444600000000000    0.3734000000000000    0.6662850000000000 C
   0.8868000000000000    0.3149000000000000    0.6399000000000000 C
   0.7821399999999999    0.2759900000000000    0.5177700000000000 C
   0.8398500000000000    0.2926300000000000    0.4997900000000000 C
   0.7920800000000000    0.2819700000000000    0.5685400000000000 C
   0.8578400000000000    0.3036400000000000    0.5894950000000000 C
   0.3523500000000000    0.5644400000000001    0.5948500000000000 C
   0.3806000000000000    0.5588700000000000    0.5148750000000000 C
   0.4442500000000000    0.5954400000000000    0.5376050000000000 C
   0.4171600000000000    0.5997500000000000    0.6148750000000001 C
   0.3320300000000000    0.5441900000000000    0.5437149999999999 C
   0.2366600000000000    0.4896700000000000    0.4760100000000000 C
   0.2633400000000000    0.5103300000000000    0.5239700000000000 C
   0.1476600000000000    0.4355600000000000    0.4051000000000000 C
   0.1194100000000000    0.4411300000000000    0.4851050000000000 C
   0.0557500000000000    0.4045700000000000    0.4623750000000000 C
   0.0828400000000000    0.4002700000000000    0.3851050000000000 C
   0.1679800000000000    0.4558100000000000    0.4562650000000000 C
   0.6498100000000000    0.7075200000000000    0.5506950000000000 C
   0.5949200000000000    0.7163900000000000    0.2257950000000000 C
   0.5419000000000000    0.6341200000000000    0.2850800000000000 C
   0.5889300000000000    0.6975600000000000    0.2738450000000000 C
   0.5555400000000000    0.6266100000000000    0.3336950000000000 C
   0.6132000000000000    0.6851100000000000    0.3600650000000000 C
   0.7178600000000001    0.7240100000000000    0.4822050000000000 C
   0.6601500000000000    0.7073900000000000    0.5000000000000000 C
   0.7079200000000000    0.7180299999999999    0.4314350000000000 C
   0.6421700000000000    0.6963600000000000    0.4104850000000000 C
   0.8501900000000000    0.2925000000000000    0.9492849999999999 C
   0.9050800000000000    0.2836100000000000    0.2741850000000000 C
   0.9581000000000000    0.3658800000000000    0.2145000000000000 C
   0.9110700000000000    0.3024400000000000    0.2261350000000000 C
   0.9444600000000000    0.3734000000000000    0.1662850000000000 C
   0.8868000000000000    0.3149000000000000    0.1399000000000000 C
   0.7821399999999999    0.2759900000000000    0.0177700000000000 C
   0.8398500000000000    0.2926300000000000    0.9997900000000000 C
   0.7920800000000000    0.2819700000000000    0.0685400000000000 C
   0.8578400000000000    0.3036400000000000    0.0894950000000000 C
   0.3523500000000000    0.5644400000000001    0.0948500000000000 C
   0.3806000000000000    0.5588700000000000    0.0148750000000000 C
   0.4442500000000000    0.5954400000000000    0.0376050000000000 C
   0.4171600000000000    0.5997500000000000    0.1148750000000000 C
   0.3320300000000000    0.5441900000000000    0.0437150000000000 C
   0.2633400000000000    0.5103300000000000    0.0239700000000000 C
   0.2366600000000000    0.4896700000000000    0.9760100000000000 C
   0.1476600000000000    0.4355600000000000    0.9051000000000000 C
   0.1194100000000000    0.4411300000000000    0.9851050000000000 C
   0.0557500000000000    0.4045700000000000    0.9623750000000000 C
   0.0828400000000000    0.4002700000000000    0.8851050000000000 C
   0.1679800000000000    0.4558100000000000    0.9562649999999999 C
   0.6498100000000000    0.7075200000000000    0.0506950000000000 C
   0.5949200000000000    0.7163900000000000    0.7257950000000000 C
   0.5419000000000000    0.6341200000000000    0.7850800000000000 C
   0.5889300000000000    0.6975600000000000    0.7738450000000000 C
   0.5555400000000000    0.6266100000000000    0.8336950000000001 C
   0.6132000000000000    0.6851100000000000    0.8600650000000001 C
   0.7178600000000001    0.7240100000000000    0.9822050000000000 C
   0.6601500000000000    0.7073900000000000    0.0000000000000000 C
   0.7079200000000000    0.7180299999999999    0.9314350000000000 C
   0.6421700000000000    0.6963600000000000    0.9104850000000000 C
   0.1563700000000000    0.0897900000000000    0.6579800000000000 S
   0.1005700000000000    0.3532700000000000    0.6255850000000001 S
   0.8436300000000000    0.9102300000000000    0.3420000000000000 S
   0.8994300000000000    0.6467500000000000    0.3743950000000000 S
   0.1563700000000000    0.0897900000000000    0.1579800000000000 S
   0.1005700000000000    0.3532700000000000    0.1255850000000000 S
   0.8436300000000000    0.9102300000000000    0.8420000000000001 S
   0.8994300000000000    0.6467500000000000    0.8743950000000000 S
   0.4069500000000000    0.3150000000000000    0.0456000000000000 S
   0.3502100000000000    0.2501200000000000    0.1759400000000000 S
   0.0930500000000000    0.6850100000000000    0.9543800000000000 S
   0.1498000000000000    0.7498600000000000    0.8240350000000001 S
   0.4069500000000000    0.3150000000000000    0.5456000000000000 S
   0.3502100000000000    0.2501200000000000    0.6759400000000000 S
   0.0930500000000000    0.6850100000000000    0.4543800000000000 S
   0.1498000000000000    0.7498600000000000    0.3240350000000000 S
   0.6563700000000000    0.0897900000000000    0.1579800000000000 S
   0.6005700000000000    0.3532800000000000    0.1255850000000000 S
   0.3436300000000000    0.9102300000000000    0.3420000000000000 S
   0.3994300000000000    0.6467500000000000    0.3743950000000000 S
   0.6563700000000000    0.0897900000000000    0.6579800000000000 S
   0.6005700000000000    0.3532800000000000    0.6255850000000001 S
   0.3436300000000000    0.9102300000000000    0.8420000000000001 S
   0.3994300000000000    0.6467500000000000    0.8743950000000000 S
   0.9069500000000000    0.3150000000000000    0.5456000000000000 S
   0.8502100000000000    0.2501200000000000    0.6759400000000000 S
   0.5930600000000000    0.6850200000000000    0.4543800000000000 S
   0.6498000000000000    0.7498700000000000    0.3240350000000000 S
   0.9069500000000000    0.3150000000000000    0.0456000000000000 S
   0.8502100000000000    0.2501200000000000    0.1759400000000000 S
   0.5930600000000000    0.6850200000000000    0.9543800000000000 S
   0.6498000000000000    0.7498700000000000    0.8240350000000001 S
   0.7118900000000000    0.1759800000000000    0.3080900000000000 N
   0.2881100000000000    0.8240300000000000    0.1918950000000000 N
   0.9628000000000000    0.6167899999999999    0.0870500000000000 N
   0.5372000000000000    0.3832300000000000    0.9129300000000000 N
   0.9628000000000000    0.6167899999999999    0.5870500000000000 N
   0.5372000000000000    0.3832300000000000    0.4129300000000000 N
   0.7881100000000000    0.8240300000000000    0.1918900000000000 N
   0.2118900000000000    0.1759800000000000    0.3080900000000000 N