H12 C15 N4 O4
1.0
  17.6739996123658045    0.0000000000000000   -0.0037016338769088
  -0.0399497923069582   15.6769461727753612   -0.0095765337436380
   0.0000000000000000    0.0000000000000000   38.8879999999999981
H C N O
12 15 4 4
direct
   0.3633650000000000    0.1341500000000000    0.2478450000000000 H
   0.0723000000000000    0.9866100000000000    0.1562900000000000 H
   0.3849150000000000    0.2909300000000000    0.2470750000000000 H
   0.4190100000000000    0.8882700000000000    0.2089250000000000 H
   0.3919600000000000    0.9888000000000000    0.1923800000000000 H
   0.0705250000000000    0.9652900000000000    0.0925000000000000 H
   0.1839150000000000    0.1740200000000000    0.1735650000000000 H
   0.2131900000000000    0.3278600000000000    0.1760050000000000 H
   0.3019700000000000    0.0061600000000000    0.0852450000000000 H
   0.3132550000000000    0.0328400000000000    0.1480000000000000 H
   0.1433350000000000    0.0265800000000000    0.2060800000000000 H
   0.3491300000000000    0.9197500000000000    0.2650300000000000 H
   0.3420450000000000    0.9557000000000000    0.2412300000000000 C
   0.1934500000000000    0.0098900000000000    0.1577200000000000 C
   0.2775300000000000    0.0001300000000000    0.2389450000000000 C
   0.2713550000000000    0.1396600000000000    0.2105800000000000 C
   0.3287650000000000    0.1748000000000000    0.2315300000000000 C
   0.1242000000000000    0.9899500000000000    0.1412150000000000 C
   0.3408900000000000    0.2619900000000000    0.2312550000000000 C
   0.4054950000000000    0.9545700000000000    0.2161900000000000 C
   0.4793300000000000    0.9923300000000000    0.2309800000000000 C
   0.1232800000000000    0.9771100000000000    0.1062050000000000 C
   0.2291600000000000    0.1967000000000000    0.1901650000000000 C
   0.2453450000000000    0.2829300000000000    0.1916050000000000 C
   0.2525650000000000    0.0011700000000000    0.1019550000000000 C
   0.2587700000000000    0.0159400000000000    0.1369050000000000 C
   0.2201900000000000    0.0007800000000000    0.2677550000000000 C
   0.1934600000000000    0.0247500000000000    0.1922300000000000 N
   0.2589650000000000    0.0521000000000000    0.2093650000000000 N
   0.3001650000000000    0.3167700000000000    0.2117100000000000 N
   0.1863350000000000    0.9815700000000001    0.0862150000000000 N
   0.4802000000000000    0.0003900000000000    0.2641850000000000 O
   0.2284150000000000    0.9565200000000000    0.2937950000000000 O
   0.1640900000000000    0.0529300000000000    0.2613100000000000 O
   0.5313350000000000    0.0116800000000000    0.2108500000000000 O
