H6 O4
1.0
  17.6739996123658045    0.0000000000000000   -0.0037016338769088
  -0.0399497923069582   15.6769461727753612   -0.0095765337436380
   0.0000000000000000    0.0000000000000000   38.8879999999999981
H O
6 4
direct
   0.1409845621468361    0.9783622773320894    0.1005922143792680 H
   0.2341538951047057    0.9957214471395476    0.0975794784681877 H
   0.4795438308614445   -0.0056889922491464    0.2391412112117983 H
   0.2604882678847095    0.2922778326380622    0.1971587285812128 H
   0.3295681066078350    0.2772193019035677    0.2258213251970567 H
   0.2059659470497235    0.0140025376355957    0.2661208819738943 H
   0.1863350000000000    0.9815700000000001    0.0862150000000000 O
   0.4802000000000000    0.0003900000000000    0.2641850000000000 O
   0.3001650000000000    0.3167700000000000    0.2117100000000000 O
   0.1640900000000000    0.0529300000000000    0.2613100000000000 O
