H21 C19 N2 O4
1.0
  27.9419998936047520    0.0000000000000000   -0.0024383994948645
  -0.0076530267002436   31.3219987597337521    0.0043733762122646
   0.0000000000000000    0.0000000000000000   39.2120000000000033
H C N O
21 19 2 4
direct
   0.1972400000000000    0.0407150000000000    0.8543200000000000 H
   0.1494750000000000    0.0090850000000000    0.8372100000000000 H
   0.0787300000000000    0.7935850000000000    0.8519399999999999 H
   0.0272500000000000    0.8655200000000001    0.8189200000000000 H
   0.1032850000000000    0.9003150000000000    0.8129250000000000 H
   0.0788250000000000    0.7798250000000000    0.9147449999999999 H
   0.1553100000000000    0.9749749999999999    0.9487500000000000 H
   0.1384500000000000    0.9385800000000000    0.8439000000000000 H
   0.1241750000000000    0.9043500000000000    0.9676250000000000 H
   0.2073500000000000    0.9854450000000000    0.8442250000000000 H
   0.1319200000000000    0.8070300000000000    0.8065100000000001 H
   0.1123350000000000    0.8733450000000000    0.7523350000000000 H
   0.1074400000000000    0.8174049999999999    0.7501800000000001 H
   0.2547700000000000    0.8254600000000001    0.8025200000000000 H
   0.2094400000000000    0.7879900000000000    0.8131500000000000 H
   0.1767600000000000    0.9166050000000000    0.7968400000000000 H
   0.2368700000000000    0.9004250000000000    0.8015500000000000 H
   0.2429950000000000    0.8835100000000000    0.7427600000000000 H
   0.1879350000000000    0.9105300000000001    0.7377199999999999 H
   0.1778400000000000    0.8374150000000000    0.7153849999999999 H
   0.2452100000000000    0.8051500000000000    0.7457150000000000 H
   0.1811600000000000    0.0088450000000000    0.8538000000000000 C
   0.0895600000000000    0.8188050000000000    0.8694400000000000 C
   0.1028000000000000    0.8583400000000000    0.8567050000000000 C
   0.1152450000000000    0.8799500000000000    0.9163049999999999 C
   0.0988600000000000    0.8659200000000000    0.8184100000000001 C
   0.1177900000000000    0.8901399999999999    0.8805750000000000 C
   0.0894550000000000    0.8108350000000000    0.9046000000000001 C
   0.1446600000000000    0.9507450000000000    0.9303350000000000 C
   0.1354400000000000    0.9309250000000000    0.8708000000000000 C
   0.1279950000000000    0.9115800000000001    0.9405600000000001 C
   0.1495100000000000    0.9603699999999999    0.8951450000000001 C
   0.1368650000000000    0.8404450000000000    0.7986200000000000 C
   0.1303650000000000    0.8433300000000000    0.7594350000000001 C
   0.2174750000000000    0.8161450000000000    0.7974500000000000 C
   0.2021650000000000    0.8909350000000000    0.7906900000000000 C
   0.2056100000000000    0.8842650000000001    0.7500000000000000 C
   0.1803550000000000    0.8420000000000001    0.7430450000000000 C
   0.2104300000000000    0.8053399999999999    0.7550000000000000 C
   0.1886050000000000    0.7614850000000000    0.7515000000000001 C
   0.1012400000000000    0.8403900000000000    0.9277050000000000 N
   0.1863950000000000    0.8517250000000001    0.8085249999999999 N
   0.0538150000000000    0.8516550000000001    0.8055850000000000 O
   0.1687000000000000    0.9995499999999999    0.8884799999999999 O
   0.1751400000000000    0.7371200000000000    0.7761000000000000 O
   0.1851900000000000    0.7497900000000000    0.7206200000000000 O
