Zn12 H92 C132 O47
1.0
  21.5109999868947490    0.0000000000000000    0.0007508755506399
   0.0023972271507106   12.4395971896668946   -0.2444995135649787
   0.0000000000000000    0.0000000000000000   26.0910000000000011
Zn H C O
12 92 132 47
direct
   0.1175700000000000    0.4260200000000000    0.4401200000000000 Zn
   0.8824400000000000    0.5740000000000000    0.5598500000000000 Zn
   0.6164900000000000    0.0740200000000000    0.0598100000000000 Zn
   0.3835300000000000    0.9260000000000000    0.9401600000000000 Zn
   0.7494600000000000    0.0001100000000000    0.0000000000000000 Zn
   0.2505500000000000    0.9999000000000000    0.9999800000000000 Zn
   0.6165500000000000    0.4259400000000000    0.4401000000000000 Zn
   0.3834700000000000    0.5740900000000000    0.5598700000000000 Zn
   0.8824400000000000    0.9260600000000000    0.9401100000000000 Zn
   0.1175700000000000    0.0739700000000000    0.0598000000000000 Zn
   0.7494400000000000    0.4999100000000000    0.4999800000000000 Zn
   0.2505700000000000    0.5001200000000000    0.4999900000000000 Zn
   0.8490835122561917    0.6456332684475177    0.4720152320435722 H
   0.3131800000000000    0.5159200000000000    0.3379400000000000 H
   0.1823100000000000    0.5441300000000000    0.2926800000000000 H
   0.2688000000000000    0.8058800000000000    0.0743000000000000 H
   0.3960800000000000    0.7296500000000000    0.1140200000000000 H
   0.3575000000000000    0.5508200000000000    0.2659800000000000 H
   0.4027400000000000    0.6337500000000000    0.1896500000000000 H
   0.2196200000000000    0.7200100000000000    0.1373900000000000 H
   0.1742600000000000    0.6360700000000000    0.2137700000000000 H
   0.8488599999999999    0.1817400000000000    0.5079600000000000 H
   0.9802600000000000    0.2707800000000000    0.5298100000000000 H
   0.1511600000000000    0.8182900000000000    0.4920100000000000 H
   0.0197600000000000    0.7292600000000000    0.4701600000000000 H
   0.1142600000000000    0.9794700000000000    0.5106100000000000 H
   0.0646200000000000    0.1560700000000000    0.5273000000000000 H
   0.8857600000000000    0.0205700000000000    0.4893000000000000 H
   0.9354000000000000    0.8439700000000000    0.4726700000000000 H
   0.6868300000000001    0.4841200000000000    0.6620000000000000 H
   0.8177100000000000    0.4559300000000000    0.7072900000000000 H
   0.7312200000000000    0.1941700000000000    0.9256700000000000 H
   0.6039400000000000    0.2704000000000000    0.8859500000000000 H
   0.6425200000000000    0.4492300000000000    0.7339800000000000 H
   0.5972800000000000    0.3663000000000000    0.8103200000000000 H
   0.7804000000000000    0.2800400000000000    0.8625800000000000 H
   0.8257600000000000    0.3639900000000000    0.7862000000000000 H
   0.8075712588077144    0.0453732247063984    0.0827491491033572 H
   0.6445686835134047    0.0219409619895969    0.1510091307221342 H
   0.7273963248422756    0.0331369501921664    0.1240973435909316 H
   0.5190500000000000    0.7711700000000000    0.0291500000000000 H
   0.6506600000000000    0.6822900000000000    0.0070000000000000 H
   0.3493600000000000    0.3177500000000000    0.9920700000000000 H
   0.4809800000000000    0.2288800000000000    0.9708200000000000 H
   0.5649900000000000    0.3443100000000000    0.9727800000000000 H
   0.6141700000000000    0.5214700000000000    0.9891300000000000 H
   0.4350300000000000    0.6557300000000000    0.0271900000000000 H
   0.3858500000000000    0.4785800000000000    0.0108400000000000 H
   0.1878800000000000    0.0157600000000000    0.8380000000000000 H
   0.3185900000000000    0.0442700000000000    0.7925800000000000 H
   0.2320000000000000    0.3058900000000000    0.5743900000000000 H
   0.1046600000000000    0.2297700000000000    0.6140099999999999 H
   0.1432700000000000    0.0512400000000000    0.7661500000000000 H
   0.0979800000000000    0.1341300000000000    0.6898200000000000 H
   0.2810800000000000    0.2198700000000000    0.6373500000000000 H
   0.3264900000000000    0.1359200000000000    0.7137100000000000 H
   0.8122900000000000    0.5156700000000000    0.3381000000000000 H
   0.6815700000000000    0.5443800000000000    0.2926500000000000 H
   0.7680600000000000    0.8059100000000000    0.0744000000000000 H
   0.8954100000000000    0.7296500000000000    0.1139800000000000 H
   0.8568500000000000    0.5508100000000000    0.2660000000000000 H
   0.9021100000000000    0.6336600000000000    0.1896900000000000 H
   0.6736500000000000    0.6363799999999999    0.2138700000000000 H
   0.7190200000000000    0.7202700000000000    0.1370000000000000 H
   0.3493700000000000    0.1822800000000000    0.5081300000000000 H
   0.4809300000000000    0.2708300000000000    0.5298500000000000 H
   0.6506500000000000    0.8177600000000000    0.4918400000000000 H
   0.5190900000000001    0.7292200000000000    0.4701000000000000 H
   0.4350200000000000    0.8445000000000000    0.4726200000000000 H
   0.3858100000000000    0.0215100000000000    0.4894200000000000 H
   0.5649999999999999    0.1555400000000000    0.5273000000000000 H
   0.6142100000000000    0.9785300000000000    0.5105600000000000 H
   0.1877200000000000    0.4843800000000000    0.6618400000000000 H
   0.3184400000000000    0.4556700000000000    0.7073199999999999 H
   0.2319500000000000    0.1941300000000000    0.9255500000000000 H
   0.1046100000000000    0.2704000000000000    0.8859800000000000 H
   0.1431700000000000    0.4492400000000000    0.7339200000000000 H
   0.0979100000000000    0.3663900000000000    0.8102800000000000 H
   0.2810000000000000    0.2797800000000000    0.8624700000000000 H
   0.3263700000000000    0.3636700000000000    0.7860900000000000 H
   0.6867100000000000    0.0161000000000000    0.8380700000000000 H
   0.8174800000000000    0.0440500000000000    0.7925000000000000 H
   0.7309200000000000    0.3059700000000000    0.5744300000000000 H
   0.6035800000000000    0.2300400000000000    0.6141100000000000 H
   0.6421900000000000    0.0514200000000000    0.7662000000000000 H
   0.5969000000000000    0.1344400000000000    0.6899000000000000 H
   0.7800200000000000    0.2198100000000000    0.6373400000000000 H
   0.8254300000000000    0.1357400000000000    0.7136700000000000 H
   0.1511200000000000    0.6817299999999999    0.0079400000000000 H
   0.0197100000000000    0.7707800000000000    0.0298400000000000 H
   0.8489100000000001    0.3183100000000000    0.9920300000000000 H
   0.9803200000000000    0.2292600000000000    0.9701300000000000 H
   0.8857500000000000    0.4795100000000000    0.0105500000000000 H
   0.9353600000000000    0.6561000000000000    0.0272600000000000 H
   0.0646600000000000    0.3439400000000000    0.9727100000000000 H
   0.1142700000000000    0.5205300000000000    0.9894200000000000 H
   0.3133100000000000    0.9839500000000000    0.1618900000000000 H
   0.1825400000000000    0.9560000000000000    0.2073800000000000 H
   0.2691000000000000    0.6940800000000000    0.4255400000000000 H
   0.3964400000000000    0.7700100000000000    0.3858600000000000 H
   0.3578300000000000    0.9486400000000000    0.2337700000000000 H
   0.4031200000000000    0.8656100000000000    0.3100600000000000 H
   0.2200000000000000    0.7802500000000000    0.3626000000000000 H
   0.1745900000000000    0.8643100000000000    0.2863000000000000 H
   0.2296700000000000    0.4791200000000000    0.3816500000000000 C
   0.3576600000000000    0.8409300000000000    0.0370500000000000 C
   0.2626700000000000    0.5136500000000001    0.3347000000000000 C
   0.2331600000000000    0.5461800000000000    0.2920700000000000 C
   0.3187700000000000    0.7933500000000000    0.0776200000000000 C
   0.3453300000000000    0.7360800000000000    0.1152100000000000 C
   0.3269100000000000    0.5874000000000000    0.2379600000000000 C
   0.3523800000000000    0.6338000000000000    0.1949100000000000 C
   0.2621100000000000    0.5880700000000000    0.2460900000000000 C
   0.2500200000000000    0.6821400000000000    0.1651900000000000 C
   0.2245600000000000    0.6350500000000000    0.2081000000000000 C
   0.3149700000000000    0.6838000000000000    0.1578100000000000 C
   0.8655500000000000    0.3515900000000000    0.5252400000000000 C
   0.1344700000000000    0.6484500000000000    0.4747300000000000 C
   0.8859700000000000    0.2383500000000000    0.5177200000000000 C
   0.9462200000000000    0.2083500000000000    0.5202500000000000 C
   0.1140500000000000    0.7616900000000000    0.4822500000000000 C
   0.0538000000000000    0.7917000000000000    0.4797200000000000 C
   0.0641400000000000    0.9877600000000000    0.5058200000000000 C
   0.0366000000000000    0.0868100000000000    0.5155600000000000 C
   0.0282300000000000    0.8984200000000000    0.4899200000000000 C
   0.9358800000000000    0.0122800000000000    0.4941500000000000 C
   0.9634200000000001    0.9132300000000000    0.4844200000000000 C
   0.9717900000000000    0.1016200000000000    0.5100600000000000 C
   0.7703500000000000    0.5209200000000000    0.6183200000000000 C
   0.6423600000000000    0.1591100000000000    0.9629200000000000 C
   0.7373400000000000    0.4863900000000000    0.6652700000000000 C
   0.7668600000000000    0.4538700000000000    0.7079000000000000 C
   0.6812500000000000    0.2067000000000000    0.9223500000000000 C
   0.6546999999999999    0.2639700000000000    0.8847600000000000 C
   0.6731100000000000    0.4126500000000000    0.7620100000000000 C
   0.6476400000000000    0.3662500000000000    0.8050600000000000 C
   0.7379100000000000    0.4119800000000000    0.7538800000000000 C
   0.7500100000000000    0.3179200000000000    0.8347800000000000 C
   0.7754600000000000    0.3650000000000000    0.7917900000000000 C
   0.6850500000000000    0.3162500000000000    0.8421600000000000 C
   0.3664000000000000    0.1478600000000000    0.9753100000000000 C
   0.6336200000000000    0.8521800000000000    0.0246500000000000 C
   0.5532100000000000    0.7087800000000000    0.0198200000000000 C
   0.6134100000000000    0.7388900000000000    0.0173400000000000 C
   0.3866000000000000    0.2611600000000000    0.9826300000000000 C
   0.4468100000000000    0.2912600000000000    0.9801500000000000 C
   0.5368400000000000    0.4134400000000000    0.9844000000000001 C
   0.5640900000000000    0.5127500000000000    0.9940200000000000 C
   0.5279300000000000    0.6018500000000000    0.0098000000000000 C
   0.4631800000000000    0.5866100000000000    0.0154800000000000 C
   0.4359300000000000    0.4872900000000000    0.0059500000000000 C
   0.4720900000000000    0.3982000000000000    0.9901100000000000 C
   0.2715000000000000    0.9791200000000000    0.8816700000000000 C
   0.1432100000000000    0.3409500000000000    0.5370300000000000 C
   0.2383800000000000    0.0136200000000000    0.8347500000000000 C
   0.2677400000000000    0.0462500000000000    0.7920700000000001 C
   0.1820200000000000    0.2933500000000000    0.5776500000000000 C
   0.1554100000000000    0.2361600000000000    0.6152300000000001 C
   0.1738500000000000    0.0876700000000000    0.7380700000000000 C
   0.1483500000000000    0.1340700000000000    0.6950200000000000 C
   0.2386700000000000    0.0881700000000000    0.7461400000000000 C
   0.2507000000000000    0.1821100000000000    0.6651899999999999 C
   0.2761800000000000    0.1350200000000000    0.7081700000000000 C
   0.1857400000000000    0.1839000000000000    0.6578600000000000 C
   0.7286300000000000    0.4789900000000000    0.3816600000000000 C
   0.8568400000000000    0.8409600000000000    0.0370000000000000 C
   0.7617900000000000    0.5135700000000000    0.3347800000000000 C
   0.7324200000000000    0.5462900000000001    0.2921100000000000 C
   0.8180400000000000    0.7933600000000000    0.0776600000000000 C
   0.8446700000000000    0.7361100000000000    0.1152300000000000 C
   0.8262699999999999    0.5874500000000000    0.2380000000000000 C
   0.8517500000000000    0.6338100000000000    0.1949600000000000 C
   0.7614700000000000    0.5881999999999999    0.2461700000000000 C
   0.7239400000000000    0.6352700000000000    0.2082700000000000 C
   0.7494000000000000    0.6823200000000000    0.1652800000000000 C
   0.8143500000000000    0.6838700000000000    0.1578700000000000 C
   0.6335800000000000    0.6480500000000000    0.4746700000000000 C
   0.3664400000000000    0.3519900000000000    0.5252900000000000 C
   0.3865900000000000    0.2387000000000000    0.5178400000000000 C
   0.4467900000000000    0.2085400000000000    0.5203300000000000 C
   0.6134300000000000    0.7613400000000000    0.4821300000000000 C
   0.5532300000000000    0.7915000000000000    0.4796400000000000 C
   0.4631700000000000    0.9135600000000000    0.4843900000000000 C
   0.4359100000000000    0.0127600000000000    0.4941800000000000 C
   0.4720800000000000    0.1017200000000000    0.5101100000000000 C
   0.5368500000000000    0.0864800000000000    0.5155800000000000 C
   0.5641100000000000    0.9872800000000000    0.5057900000000000 C
   0.5279400000000000    0.8983100000000001    0.4898700000000000 C
   0.2713900000000000    0.5210399999999999    0.6183000000000000 C
   0.1431700000000000    0.1590800000000000    0.9629200000000000 C
   0.2382300000000000    0.4864700000000000    0.6651899999999999 C
   0.2675900000000000    0.4537600000000000    0.7078000000000000 C
   0.1819800000000000    0.2066900000000000    0.9223000000000000 C
   0.1553500000000000    0.2639400000000000    0.8847400000000000 C
   0.1737500000000000    0.4126000000000000    0.7619400000000000 C
   0.1482700000000000    0.3662400000000000    0.8050100000000000 C
   0.2385500000000000    0.4118500000000000    0.7538000000000000 C
   0.2506200000000000    0.3177300000000000    0.8346900000000000 C
   0.2760800000000000    0.3647800000000000    0.7917000000000000 C
   0.1856700000000000    0.3161800000000000    0.8421000000000000 C
   0.7703000000000000    0.9791800000000001    0.8816600000000000 C
   0.6421200000000000    0.3410900000000000    0.5371000000000000 C
   0.7372100000000000    0.0137400000000000    0.8347500000000000 C
   0.7666300000000000    0.0462100000000000    0.7920700000000001 C
   0.6809400000000000    0.2935100000000000    0.5777099999999999 C
   0.6543300000000000    0.2363600000000000    0.6153100000000000 C
   0.6727700000000000    0.0878100000000000    0.7381100000000000 C
   0.6472700000000000    0.1342700000000000    0.6950800000000000 C
   0.7375900000000000    0.0881800000000000    0.7461400000000000 C
   0.7496300000000000    0.1821000000000000    0.6652000000000000 C
   0.7751200000000000    0.1349500000000000    0.7081600000000000 C
   0.6846700000000000    0.1840400000000000    0.6579100000000000 C
   0.1344300000000000    0.8515800000000000    0.0252400000000000 C
   0.8655900000000000    0.1484600000000000    0.9747300000000000 C
   0.1140000000000000    0.7383400000000000    0.0177200000000000 C
   0.0537600000000000    0.7083500000000000    0.0202700000000000 C
   0.8860200000000000    0.2616900000000000    0.9822500000000000 C
   0.9462600000000000    0.2916900000000000    0.9797000000000000 C
   0.9358800000000000    0.4877800000000000    0.0057900000000000 C
   0.9634000000000000    0.5868300000000000    0.0155400000000000 C
   0.9718100000000000    0.3984200000000000    0.9899000000000000 C
   0.0366300000000000    0.4132100000000000    0.9844000000000001 C
   0.0641400000000000    0.5122600000000000    0.9941800000000000 C
   0.0282100000000000    0.6016200000000000    0.0100700000000000 C
   0.2297200000000000    0.0208600000000000    0.1183100000000000 C
   0.3579000000000000    0.6589500000000000    0.4628700000000000 C
   0.2628100000000000    0.9863100000000000    0.1652200000000000 C
   0.2333900000000000    0.9538500000000000    0.2079000000000000 C
   0.3190800000000000    0.7065300000000000    0.4222600000000000 C
   0.3456900000000000    0.7636900000000000    0.3846600000000000 C
   0.3272500000000000    0.9122400000000001    0.2618600000000000 C
   0.3527500000000000    0.8657800000000000    0.3048000000000000 C
   0.2624300000000000    0.9118700000000000    0.2538300000000000 C
   0.2503800000000000    0.8179500000000000    0.3347700000000000 C
   0.2249000000000000    0.8651000000000000    0.2918100000000000 C
   0.3153500000000000    0.8160100000000000    0.3420600000000000 C
   0.8266200000000000    0.6065100000000000    0.4984000000000000 O
   0.2638900000000000    0.4594300000000000    0.4203000000000000 O
   0.1703600000000000    0.4723200000000000    0.3799300000000000 O
   0.4152900000000000    0.8292000000000000    0.0355300000000000 O
   0.3275300000000000    0.8933100000000000    0.0015100000000000 O
   0.8077500000000000    0.3691500000000000    0.5179900000000000 O
   0.9067000000000000    0.4217300000000000    0.5375799999999999 O
   0.1922600000000000    0.6308900000000000    0.4819800000000000 O
   0.0933100000000000    0.5783100000000000    0.4623900000000000 O
   0.7361300000000000    0.5406100000000000    0.5796200000000000 O
   0.8296600000000000    0.5277100000000000    0.6200400000000000 O
   0.5847300000000000    0.1708400000000000    0.9644400000000000 O
   0.6724800000000000    0.1067300000000000    0.9984600000000000 O
   0.7627100000000000    0.0409300000000000    0.0796000000000000 O
   0.6691700000000000    0.0273700000000000    0.1200100000000000 O
   0.3084700000000000    0.1304800000000000    0.9818900000000000 O
   0.4077700000000000    0.0774800000000000    0.9638099999999999 O
   0.6915500000000000    0.8695500000000000    0.0180800000000000 O
   0.5922400000000000    0.9225500000000000    0.0361500000000000 O
   0.2373000000000000    0.9591100000000000    0.9203200000000000 O
   0.3308500000000000    0.9726600000000000    0.8799600000000000 O
   0.0855900000000000    0.3291200000000000    0.5354300000000000 O
   0.1733900000000000    0.3935200000000000    0.5015700000000000 O
   0.7627699999999999    0.4590500000000000    0.4203700000000000 O
   0.6693000000000000    0.4724000000000000    0.3799000000000000 O
   0.9144600000000001    0.8291200000000000    0.0354400000000000 O
   0.8266500000000000    0.8935500000000000    0.0015900000000000 O
   0.6913500000000000    0.6303100000000000    0.4819000000000000 O
   0.5922700000000000    0.5780999999999999    0.4624300000000000 O
   0.3086600000000000    0.3697200000000000    0.5180700000000000 O
   0.4077500000000000    0.4219400000000000    0.5375400000000000 O
   0.2372400000000000    0.5409800000000000    0.5796000000000000 O
   0.3307100000000000    0.5276300000000000    0.6200700000000000 O
   0.0855500000000000    0.1709100000000000    0.9645200000000000 O
   0.1733600000000000    0.1064800000000000    0.9983800000000000 O
   0.7361200000000000    0.9594900000000000    0.9203000000000000 O
   0.8296100000000000    0.9723600000000000    0.8799100000000000 O
   0.5845100000000000    0.3292800000000000    0.5355000000000000 O
   0.6722900000000001    0.3935600000000000    0.5016100000000000 O
   0.1922100000000000    0.8691200000000000    0.0179700000000000 O
   0.0932800000000000    0.9217400000000000    0.0376100000000000 O
   0.8078000000000000    0.1309300000000000    0.9820000000000000 O
   0.9067300000000000    0.0782900000000000    0.9623600000000000 O
   0.2639000000000000    0.0405600000000000    0.0795900000000000 O
   0.1704100000000000    0.0276600000000000    0.1200600000000000 O
   0.4155100000000000    0.6707500000000000    0.4644700000000000 O
   0.3277300000000000    0.6064700000000000    0.4983600000000000 O
