H4 O3
1.0
  21.5109999868947490    0.0000000000000000    0.0007508755506399
   0.0023972271507106   12.4395971896668946   -0.2444995135649787
   0.0000000000000000    0.0000000000000000   26.0910000000000011
H O
4 3
direct
   0.8490835122561917    0.6456332684475177    0.4720152320435722 H
   0.8075712588077144    0.0453732247063984    0.0827491491033572 H
   0.6445686835134047    0.0219409619895969    0.1510091307221342 H
   0.7273963248422756    0.0331369501921664    0.1240973435909316 H
   0.8266200000000000    0.6065100000000000    0.4984000000000000 O
   0.7627100000000000    0.0409300000000000    0.0796000000000000 O
   0.6691700000000000    0.0273700000000000    0.1200100000000000 O
