H8 C12 O4
1.0
  21.5109999868947490    0.0000000000000000    0.0007508755506399
   0.0023972271507106   12.4395971896668946   -0.2444995135649787
   0.0000000000000000    0.0000000000000000   26.0910000000000011
H C O
8 12 4
direct
   0.8121400000000000    0.9842900000000000    0.1618700000000000 H
   0.6814300000000000    0.9557800000000000    0.2073900000000000 H
   0.6735300000000000    0.8641300000000000    0.2862600000000000 H
   0.7189400000000000    0.7801800000000000    0.3626000000000000 H
   0.9020400000000000    0.8659300000000000    0.3101500000000000 H
   0.8567399999999999    0.9488200000000000    0.2338200000000000 H
   0.7680200000000000    0.6941600000000000    0.4255800000000000 H
   0.8953600000000000    0.7702800000000000    0.3859600000000000 H
   0.7285199999999999    0.0209100000000000    0.1183000000000000 C
   0.7616400000000000    0.9864200000000000    0.1652200000000000 C
   0.7322800000000000    0.9538000000000000    0.2079000000000000 C
   0.7613500000000000    0.9118800000000000    0.2538300000000000 C
   0.7238400000000000    0.8650300000000000    0.2918000000000000 C
   0.7493200000000000    0.8179400000000000    0.3347700000000000 C
   0.8142800000000000    0.8161500000000000    0.3421100000000000 C
   0.8516700000000000    0.8659900000000000    0.3049400000000000 C
   0.8261700000000000    0.9123800000000000    0.2610000000000000 C
   0.8568100000000000    0.6590900000000000    0.4629400000000000 C
   0.8179999999999999    0.7066900000000000    0.4223200000000000 C
   0.8446100000000000    0.7638900000000000    0.3847000000000000 C
   0.8266200000000000    0.6065100000000000    0.4984000000000000 O
   0.9144300000000000    0.6709100000000000    0.4645400000000000 O
   0.7627100000000000    0.0409300000000000    0.0796000000000000 O
   0.6691700000000000    0.0273700000000000    0.1200100000000000 O
