H6 C12 O4
1.0
  20.0483865237542780    0.0000000000000000   -5.4692009283027545
   2.8799882533249024   11.7064968233298448   -1.4712663885506232
   0.0000000000000000    0.0000000000000000   24.2880000000000003
H C O
6 12 4
direct
   0.9500500000000000    0.1913900000000000    0.9144900000000000 H
   0.8695800000000000    0.2181300000000000    0.8194850000000000 H
   0.1223900000000000    0.0899200000000000    0.8376600000000001 H
   0.1024900000000000    0.1012100000000000    0.7314950000000000 H
   0.8965300000000000    0.1411000000000000    0.6275550000000000 H
   0.8495800000000000    0.1906400000000000    0.7134350000000000 H
   0.0877300000000000    0.1080500000000000    0.9390600000000000 C
   0.0413900000000000    0.1367100000000000    0.8817999999999999 C
   0.9694900000000000    0.1766400000000000    0.8762449999999999 C
   0.9248600000000000    0.1909500000000000    0.8232850000000000 C
   0.9495700000000000    0.1679800000000000    0.7729200000000001 C
   0.0225900000000000    0.1368000000000000    0.7782650000000000 C
   0.0672200000000000    0.1201100000000000    0.8334500000000000 C
   0.0473700000000000    0.1199000000000000    0.7279850000000000 C
   0.0276900000000000    0.1082500000000000    0.6210950000000000 C
   0.0023700000000000    0.1246600000000000    0.6743650000000000 C
   0.9307000000000000    0.1454900000000000    0.6697100000000000 C
   0.9049100000000000    0.1707900000000000    0.7175850000000000 C
   0.0585500000000000    0.1197200000000000    0.9818800000000000 O
   0.0883400000000000    0.1207200000000000    0.6258450000000000 O
   0.9866200000000001    0.0861800000000000    0.5743350000000000 O
   0.1516100000000000    0.0756900000000000    0.9444000000000000 O
