H2 O2
1.0
  12.9255823267389793    0.0000000000000000   -1.8897858383142137
  -6.5197625184273669   11.1317845134105422   -1.8743975699682338
   0.0000000000000000    0.0000000000000000   17.8359999999999985
H O
2 2
direct
   0.3986408955006808    0.2852119339789758    0.3437235461075253 H
   0.7156177389386076    0.6015666267400092    0.1564849238360501 H
   0.4341400000000000    0.2970800000000000    0.3987100000000000 O
   0.7039500000000000    0.5657300000000000    0.1016000000000000 O
