H5 O4
1.0
  12.9255823267389793    0.0000000000000000   -1.8897858383142137
  -6.5197625184273669   11.1317845134105422   -1.8743975699682338
   0.0000000000000000    0.0000000000000000   17.8359999999999985
H O
5 4
direct
   0.9369559833308587    0.4798848046183736    0.2756381387439629 H
   0.8660073884097153    0.4907993926911248    0.3371199638632063 H
   0.8364539960468735    0.7574452513839151    0.4931757976601806 H
   0.1871429854860953   -0.0394061879755453    0.4530457022778852 H
   0.1548050589367599    0.7569405260260516    0.6094947069020783 H
   0.8592200000000000    0.4396200000000000    0.2886000000000000 O
   0.7679900000000000    0.7271000000000000    0.5169000000000000 O
   0.2039300000000000    0.0213000000000000    0.4228100000000000 O
   0.2291500000000000    0.7683000000000000    0.6406400000000000 O
