Zn6 B3 H57 C68 N24 O20
1.0
  12.9255823267389793    0.0000000000000000   -1.8897858383142137
  -6.5197625184273669   11.1317845134105422   -1.8743975699682338
   0.0000000000000000    0.0000000000000000   17.8359999999999985
Zn B H C N O
6 3 57 68 24 20
direct
   0.1935100000000000    0.3330500000000000    0.9588800000000000 Zn
   0.6669000000000000    0.8058900000000000    0.5409500000000000 Zn
   0.2608800000000000    0.7395100000000000    0.7500900000000000 Zn
   0.8064800000000000    0.6669700000000000    0.0411400000000000 Zn
   0.3330900000000000    0.1941300000000000    0.4590800000000000 Zn
   0.7391100000000000    0.2605100000000000    0.2499400000000000 Zn
   0.7168200000000000    0.0228200000000000    0.9524600000000000 B
   0.9773200000000000    0.2831800000000000    0.5473100000000000 B
   0.2831600000000000    0.9772000000000000    0.0475700000000000 B
   0.8364539960468735    0.7574452513839151    0.4931757976601806 H
   0.1548050589367599    0.7569405260260516    0.6094947069020783 H
   0.7602100000000001    0.0586800000000000    0.1213300000000000 H
   0.7067400000000000    0.2444100000000000    0.9574900000000000 H
   0.7555700000000000    0.3772300000000000    0.1055300000000000 H
   0.4903700000000000    0.7971600000000000    0.8844600000000000 H
   0.6719300000000000    0.1349600000000000    0.8303500000000000 H
   0.4589400000000000    0.9886900000000000    0.7190400000000000 H
   0.8461200000000000    0.8925000000000000    0.9598100000000001 H
   0.5417100000000000    0.8709000000000000    0.0300000000000000 H
   0.5770800000000000    0.6893300000000000    0.0687100000000000 H
   0.9560800000000000    0.2375000000000000    0.0208900000000000 H
   0.0192100000000000    0.1133900000000000    0.8117000000000000 H
   0.7837400000000000    0.9531300000000000    0.8124500000000000 H
   0.9409500000000000    0.2392800000000000    0.3783700000000000 H
   0.7564200000000000    0.2936000000000000    0.5424400000000000 H
   0.6231600000000000    0.2439200000000000    0.3944000000000000 H
   0.2028500000000000    0.5096900000000000    0.6154500000000001 H
   0.8655600000000000    0.3283000000000000    0.6694099999999999 H
   0.0120700000000000    0.5412500000000000    0.7809800000000000 H
   0.1078600000000000    0.1540300000000000    0.5402500000000000 H
   0.1284100000000000    0.4584100000000000    0.4693600000000000 H
   0.3100200000000000    0.4234900000000000    0.4310300000000000 H
   0.7629700000000000    0.0436500000000000    0.4788000000000000 H
   0.8858700000000000    0.9803100000000000    0.6883700000000000 H
   0.0465900000000000    0.2159100000000000    0.6874000000000000 H
   0.4117400000000000    0.5024800000000000    0.6051200000000000 H
   0.2724000000000000    0.3565800000000000    0.6713300000000000 H
   0.4969400000000000    0.5876600000000000    0.8947500000000000 H
   0.6430100000000000    0.7267300000000000    0.8285300000000000 H
   0.3949000000000000    0.6580700000000000    0.1176700000000000 H
   0.5474100000000000    0.8137900000000000    0.2378300000000000 H
   0.3415000000000000    0.6052700000000000    0.3819600000000000 H
   0.1852600000000000    0.4533500000000000    0.2618100000000000 H
   0.2397800000000000    0.9413500000000000    0.8787000000000000 H
   0.2932400000000000    0.7556100000000000    0.0425300000000000 H
   0.2444100000000000    0.6227900000000000    0.8944900000000000 H
   0.5096100000000000    0.2028700000000000    0.1155800000000000 H
   0.3280700000000000    0.8650500000000000    0.1696700000000000 H
   0.5410500000000000    0.0112900000000000    0.2809800000000000 H
   0.1538700000000000    0.1075200000000000    0.0402100000000000 H
   0.4582800000000000    0.1291300000000000    0.9699000000000000 H
   0.4229100000000000    0.3107000000000000    0.9313000000000000 H
   0.0439100000000000    0.7625300000000000    0.9791299999999999 H
   0.9807800000000000    0.8866200000000000    0.1883300000000000 H
   0.2162500000000000    0.0468800000000000    0.1875800000000000 H
   0.1871429854860953   -0.0394061879755453    0.4530457022778852 H
   0.5030400000000000    0.4123700000000000    0.1052800000000000 H
   0.3569700000000000    0.2732900000000000    0.1715000000000000 H
   0.5882500000000001    0.4975400000000000    0.3949100000000000 H
   0.7275900000000000    0.6434400000000000    0.3286900000000000 H
   0.6051000000000000    0.3419400000000000    0.8823500000000000 H
   0.4526000000000000    0.1862200000000000    0.7621900000000000 H
   0.6584800000000000    0.3947600000000000    0.6180700000000000 H
   0.8147200000000000    0.5466800000000001    0.7382200000000000 H
   0.9369559833308587    0.4798848046183736    0.2756381387439629 H
   0.8660073884097153    0.4907993926911248    0.3371199638632063 H
   0.7523600000000000    0.1274000000000000    0.0977900000000000 C
   0.7233300000000000    0.2243600000000000    0.0132500000000000 C
   0.7495500000000000    0.2909600000000000    0.0874000000000000 C
   0.5097600000000000    0.8687100000000000    0.8548900000000000 C
   0.6019000000000000    0.0441100000000000    0.8260400000000000 C
   0.4970000000000000    0.9702900000000000    0.7701000000000000 C
   0.7686200000000000    0.8613499999999999    0.9844900000000000 C
   0.6096400000000000    0.8482700000000000    0.0214200000000000 C
   0.6277000000000000    0.7588800000000000    0.0403700000000000 C
   0.9382400000000000    0.1812300000000000    0.9638000000000000 C
   0.9685200000000000    0.1125900000000000    0.8548000000000000 C
   0.8524900000000000    0.0346900000000000    0.8551900000000000 C
   0.8724800000000000    0.2472600000000000    0.4019700000000000 C
   0.7761400000000001    0.2767000000000000    0.4866100000000000 C
   0.7093300000000000    0.2500600000000000    0.4124800000000000 C
   0.1314800000000000    0.4903500000000000    0.6450100000000000 C
   0.9563199999999999    0.3983100000000000    0.6737800000000000 C
   0.0303000000000000    0.5031900000000000    0.7298400000000000 C
   0.1387300000000000    0.2315800000000000    0.5154500000000000 C
   0.1512700000000000    0.3905500000000000    0.4781800000000000 C
   0.2406700000000000    0.3727200000000000    0.4593900000000000 C
   0.8189400000000000    0.0614700000000000    0.5360000000000000 C
   0.8869800000000000    0.0310400000000000    0.6451700000000000 C
   0.9650800000000000    0.1471700000000000    0.6447000000000001 C
   0.6131400000000000    0.7187500000000000    0.6745000000000000 C
   0.2805000000000000    0.3865500000000000    0.8252800000000000 C
   0.4297400000000000    0.5204200000000000    0.6685500000000000 C
   0.3518300000000000    0.4401200000000000    0.7051800000000000 C
   0.3726600000000000    0.4665900000000000    0.7867600000000000 C
   0.4789900000000000    0.5696500000000000    0.8313000000000000 C
   0.5593900000000001    0.6474200000000000    0.7946800000000001 C
   0.5329600000000000    0.6266300000000000    0.7131000000000000 C
   0.1930800000000000    0.4508100000000000    0.1115000000000000 C
   0.5496600000000000    0.8062100000000000    0.3879900000000000 C
   0.3820400000000000    0.6501400000000001    0.1760000000000000 C
   0.4665000000000000    0.7356800000000000    0.2422800000000000 C
   0.4518700000000000    0.7196700000000000    0.3168200000000000 C
   0.3496000000000000    0.6180600000000001    0.3236100000000000 C
   0.2637600000000000    0.5339000000000000    0.2573400000000000 C
   0.2798900000000000    0.5483900000000000    0.1828000000000000 C
   0.2476300000000000    0.8726200000000000    0.9022300000000000 C
   0.2766500000000000    0.7756600000000000    0.9867700000000000 C
   0.2504300000000000    0.7090600000000000    0.9126100000000000 C
   0.4902300000000000    0.1313100000000000    0.1451400000000000 C
   0.3980900000000000    0.9559100000000000    0.1739000000000000 C
   0.5030000000000000    0.0297300000000000    0.2299200000000000 C
   0.2313600000000000    0.1386800000000000    0.0155400000000000 C
   0.3903500000000000    0.1517500000000000    0.9786100000000000 C
   0.3722900000000000    0.2411400000000000    0.9596600000000000 C
   0.0617500000000000    0.8187900000000000    0.0362300000000000 C
   0.0314700000000000    0.8874300000000001    0.1452000000000000 C
   0.1475000000000000    0.9653200000000000    0.1448400000000000 C
   0.7194900000000000    0.6134600000000000    0.1747000000000000 C
   0.3868500000000000    0.2812700000000000    0.3254600000000000 C
   0.5210000000000000    0.4303700000000000    0.1687100000000000 C
   0.4405900000000000    0.3526000000000000    0.2053500000000000 C
   0.4670400000000000    0.3733800000000000    0.2869300000000000 C
   0.5702500000000000    0.4796100000000000    0.3314800000000000 C
   0.6481600000000000    0.5599000000000000    0.2948500000000000 C
   0.6273300000000001    0.5334400000000000    0.2132600000000000 C
   0.8069000000000000    0.5492200000000000    0.8884500000000000 C
   0.4503400000000000    0.1938000000000000    0.6120300000000000 C
   0.6179600000000000    0.3498800000000000    0.8240100000000000 C
   0.5335000000000000    0.2643200000000000    0.7577000000000000 C
   0.5481300000000000    0.2803500000000000    0.6832000000000000 C
   0.6504000000000000    0.3819600000000000    0.6764100000000000 C
   0.7362200000000000    0.4661400000000000    0.7426800000000000 C
   0.7201000000000000    0.4516300000000000    0.8172199999999999 C
   0.7676600000000000    0.2290700000000000    0.1404400000000000 N
   0.7243100000000000    0.1197000000000000    0.0197700000000000 N
   0.4397200000000000    0.8596300000000000    0.7886600000000000 N
   0.6096100000000000    0.9795100000000000    0.8803200000000000 N
   0.7275100000000000    0.7678900000000000    0.0168900000000000 N
   0.6998600000000000    0.9138100000000000    0.9856400000000000 N
   0.0209300000000000    0.2037600000000000    0.9227100000000000 N
   0.8335000000000000    0.0790100000000000    0.9247400000000000 N
   0.7708400000000000    0.2317200000000000    0.3593800000000000 N
   0.8805500000000001    0.2757300000000000    0.4800100000000000 N
   0.1407700000000000    0.5604000000000000    0.7113400000000000 N
   0.0207200000000000    0.3905600000000000    0.6194700000000000 N
   0.2320000000000000    0.2729300000000000    0.4830600000000000 N
   0.0860600000000000    0.3001900000000000    0.5140900000000000 N
   0.7960600000000000    0.9787300000000000    0.5772200000000000 N
   0.9211600000000000    0.1662400000000000    0.5750400000000000 N
   0.2323300000000000    0.7709500000000000    0.8595800000000000 N
   0.2756800000000000    0.8803200000000000    0.9802500000000000 N
   0.5602700000000000    0.1403800000000000    0.2113000000000000 N
   0.3903800000000000    0.0205100000000000    0.1197000000000000 N
   0.2724800000000000    0.2321300000000000    0.9831400000000000 N
   0.3001200000000000    0.0862100000000000    0.0143900000000000 N
   0.9790600000000000    0.7962600000000000    0.0773200000000000 N
   0.1664900000000000    0.9210100000000000    0.0752900000000000 N
   0.7679900000000000    0.7271000000000000    0.5169000000000000 O
   0.2291500000000000    0.7683000000000000    0.6406400000000000 O
   0.7147400000000000    0.8025099999999999    0.7120900000000000 O
   0.5658600000000000    0.7029500000000000    0.6013200000000000 O
   0.1970000000000000    0.2846500000000000    0.7877999999999999 O
   0.2960300000000000    0.4342900000000000    0.8984000000000000 O
   0.0944500000000000    0.3695700000000000    0.1168100000000000 O
   0.2335600000000000    0.4612600000000000    0.0489200000000000 O
   0.6312200000000000    0.9046900000000000    0.3826500000000000 O
   0.5390900000000000    0.7656200000000000    0.4506500000000000 O
   0.2039300000000000    0.0213000000000000    0.4228100000000000 O
   0.8030000000000000    0.7153700000000000    0.2121400000000000 O
   0.7039500000000000    0.5657300000000000    0.1016000000000000 O
   0.2852500000000000    0.1975200000000000    0.2879400000000000 O
   0.4341400000000000    0.2970800000000000    0.3987100000000000 O
   0.9055100000000000    0.6304900000000000    0.8832000000000000 O
   0.7664200000000000    0.5387600000000000    0.9511100000000000 O
   0.3688000000000000    0.0953100000000000    0.6173700000000000 O
   0.4609100000000000    0.2344000000000000    0.5493700000000000 O
   0.8592200000000000    0.4396200000000000    0.2886000000000000 O
