H4 C6 N1 O2
1.0
  12.4889997698358002    0.0000000000000000   -0.0023977158583664
   0.0236748037069338   13.5796210252461425   -7.8433702140318697
   0.0000000000000000    0.0000000000000000   15.6869999999999994
H C N O
4 6 1 2
direct
   0.5939800000000000    0.7251800000000000    0.6038200000000000 H
   0.7095200000000000    0.5890800000000000    0.5924000000000000 H
   0.9549100000000000    0.6606500000000000    0.4600400000000000 H
   0.8508500000000000    0.8017500000000000    0.4712600000000000 H
   0.6440600000000000    0.8531600000000000    0.5387200000000000 C
   0.7130800000000000    0.7730600000000000    0.5360000000000000 C
   0.6738300000000000    0.7127400000000000    0.5719000000000000 C
   0.7374700000000000    0.6369500000000000    0.5653000000000000 C
   0.8746900000000000    0.6772700000000000    0.4913600000000000 C
   0.8162900000000000    0.7552300000000000    0.4971300000000000 C
   0.8361900000000000    0.6184800000000000    0.5242900000000000 N
   0.6946099999999999    0.9134000000000000    0.5184400000000000 O
   0.5463600000000000    0.8553400000000000    0.5553100000000000 O
