Zn4 H36 C45 N12 O12
1.0
   8.8369998061829023    0.0000000000000000   -0.0018508169384544
  -0.0399497923069582   15.6769461727753612   -0.0095765337436380
   0.0000000000000000    0.0000000000000000   19.4439999999999991
Zn H C N O
4 36 45 12 12
direct
   0.1382500000000000    0.0527000000000000    0.5725100000000000 Zn
   0.6432099999999999    0.4471100000000000    0.4246100000000000 Zn
   0.8611000000000000    0.5530000000000000    0.9248200000000000 Zn
   0.3613100000000000    0.9473300000000000    0.0725000000000000 Zn
   0.7267300000000000    0.1341500000000000    0.4956900000000000 H
   0.1446000000000000    0.9866100000000000    0.3125800000000000 H
   0.7698300000000000    0.2909300000000000    0.4941500000000000 H
   0.8380200000000000    0.8882700000000000    0.4178500000000000 H
   0.7839200000000000    0.9888000000000000    0.3847600000000000 H
   0.1410500000000000    0.9652900000000000    0.1850000000000000 H
   0.3678300000000000    0.1740200000000000    0.3471300000000000 H
   0.4263800000000000    0.3278600000000000    0.3520100000000000 H
   0.6039400000000000    0.0061600000000000    0.1704900000000000 H
   0.6265100000000000    0.0328400000000000    0.2960000000000000 H
   0.2866700000000000    0.0265800000000000    0.4121600000000000 H
   0.6982600000000000    0.9197500000000000    0.5300600000000000 H
   0.2730100000000000    0.6341900000000000    0.0022000000000000 H
   0.8559200000000000    0.4880500000000000    0.1839700000000000 H
   0.2320600000000000    0.7910000000000000    0.0034600000000000 H
   0.1583000000000000    0.3886200000000000    0.0790100000000000 H
   0.2147700000000000    0.4885300000000000    0.1130400000000000 H
   0.8616800000000000    0.4665700000000000    0.3115100000000000 H
   0.6330500000000000    0.6742000000000000    0.1503800000000000 H
   0.5766900000000000    0.8280999999999999    0.1451600000000000 H
   0.3988700000000000    0.5054400000000000    0.3276400000000000 H
   0.3740600000000000    0.5321100000000000    0.2022400000000000 H
   0.7124600000000000    0.5274200000000000    0.0850600000000000 H
   0.2986700000000000    0.4206800000000000    0.9671800000000000 H
   0.2290800000000000    0.3654800000000000    0.5023400000000000 H
   0.6471200000000000    0.5121400000000000    0.6842900000000000 H
   0.2685200000000000    0.2085400000000000    0.5034999999999999 H
   0.3450500000000000    0.6112400000000000    0.5788500000000000 H
   0.2886100000000000    0.5113400000000000    0.6127899999999999 H
   0.6418800000000000    0.5333000000000000    0.8119100000000000 H
   0.8685700000000000    0.3266500000000000    0.6503800000000000 H
   0.9234400000000000    0.1725900000000000    0.6450900000000001 H
   0.1049000000000000    0.4949200000000000    0.8275700000000000 H
   0.1291800000000000    0.4685500000000000    0.7020900000000000 H
   0.7904099999999999    0.4729500000000000    0.5852100000000000 H
   0.2044100000000000    0.5790700000000000    0.4669700000000000 H
   0.6840900000000000    0.9557000000000000    0.4824600000000000 C
   0.3869000000000000    0.0098900000000000    0.3154400000000000 C
   0.5550600000000000    0.0001300000000000    0.4778900000000000 C
   0.5427100000000000    0.1396600000000000    0.4211600000000000 C
   0.6575299999999999    0.1748000000000000    0.4630600000000000 C
   0.2484000000000000    0.9899500000000000    0.2824300000000000 C
   0.6817800000000001    0.2619900000000000    0.4625100000000000 C
   0.8109900000000000    0.9545700000000000    0.4323800000000000 C
   0.9586600000000000    0.9923300000000000    0.4619600000000000 C
   0.2465600000000000    0.9771100000000000    0.2124100000000000 C
   0.4583200000000000    0.1967000000000000    0.3803300000000000 C
   0.4906900000000000    0.2829300000000000    0.3832100000000000 C
   0.5051300000000000    0.0011700000000000    0.2039100000000000 C
   0.5175400000000000    0.0159400000000000    0.2738100000000000 C
   0.4403800000000000    0.0007800000000000    0.5355100000000000 C
   0.3137500000000000    0.4561800000000000    0.0149700000000000 C
   0.6134300000000000    0.5101100000000000    0.1819200000000000 C
   0.4432800000000000    0.5005500000000001    0.0195400000000000 C
   0.4574900000000000    0.6397600000000000    0.0765200000000000 C
   0.3429200000000000    0.6748700000000000    0.0346800000000000 C
   0.7525600000000000    0.4908000000000000    0.2144500000000000 C
   0.3199000000000000    0.7621000000000000    0.0350300000000000 C
   0.1869900000000000    0.4549700000000000    0.0651300000000000 C
   0.0403700000000000    0.4937500000000000    0.0356500000000000 C
   0.7556700000000000    0.4778900000000000    0.2844400000000000 C
   0.5427700000000000    0.6968500000000000    0.1171900000000000 C
   0.5116400000000000    0.7831300000000000    0.1141200000000000 C
   0.4971300000000000    0.5008500000000000    0.2938700000000000 C
   0.4834800000000000    0.5156200000000000    0.2240200000000000 C
   0.5569000000000000    0.5019200000000000    0.9614800000000000 C
   0.1893900000000000    0.5437200000000000    0.5148300000000000 C
   0.8896900000000000    0.4903800000000000    0.6820200000000000 C
   0.0596900000000000    0.4995600000000000    0.5195700000000000 C
   0.0445400000000000    0.3605300000000000    0.5766000000000000 C
   0.1587700000000000    0.3250400000000000    0.5347800000000000 C
   0.7506400000000000    0.5094600000000000    0.7146900000000000 C
   0.1809400000000000    0.2377400000000000    0.5350800000000000 C
   0.3163100000000000    0.5449000000000001    0.5649100000000000 C
   0.4629400000000000    0.5061300000000000    0.5354100000000001 C
   0.7478100000000000    0.5222000000000000    0.7847200000000000 C
   0.9586800000000000    0.3037300000000000    0.6172100000000000 C
   0.9889600000000000    0.2173500000000000    0.6141000000000000 C
   0.0064700000000000    0.4994800000000000    0.7938900000000000 C
   0.0198300000000000    0.4848800000000000    0.7240000000000000 C
   0.9457300000000000    0.4981100000000000    0.4616600000000000 C
   0.3869200000000000    0.0247500000000000    0.3844600000000000 N
   0.5179300000000000    0.0521000000000000    0.4187300000000000 N
   0.6003300000000000    0.3167700000000000    0.4234200000000000 N
   0.3726700000000000    0.9815700000000001    0.1724300000000000 N
   0.6124300000000000    0.5247900000000000    0.1128800000000000 N
   0.4813000000000000    0.5521700000000000    0.0789100000000000 N
   0.4024000000000000    0.8169500000000000    0.0738700000000000 N
   0.6302000000000000    0.4817400000000000    0.3248600000000000 N
   0.8905999999999999    0.4759600000000000    0.6129300000000000 N
   0.0215900000000000    0.4482100000000000    0.5790200000000000 N
   0.0978800000000000    0.1831700000000000    0.5738600000000000 N
   0.8735000000000001    0.5183900000000000    0.8250200000000000 N
   0.9604000000000000    0.0003900000000000    0.5283700000000000 O
   0.0626700000000000    0.0116800000000000    0.4217000000000000 O
   0.4568300000000000    0.9565200000000000    0.5875899999999999 O
   0.3281800000000000    0.0529300000000000    0.5226200000000000 O
   0.0378400000000000    0.5002900000000000    0.9691700000000000 O
   0.9378700000000000    0.5151400000000000    0.0759700000000000 O
   0.5375200000000000    0.4594900000000000    0.9085500000000000 O
   0.6712800000000000    0.5526300000000000    0.9749200000000000 O
   0.4657500000000000    0.4996300000000000    0.4689100000000000 O
   0.5652600000000000    0.4847400000000000    0.5758400000000000 O
   0.9639799999999999    0.5407000000000000    0.4087900000000000 O
   0.8319400000000000    0.4470300000000000    0.4751500000000000 O
