H12 O8
1.0
  23.4159154178677511    0.0000000000000000    0.0629376140574667
  -0.0074996674275633   31.4591346660213560    0.7468693460851616
   0.0000000000000000    0.0000000000000000   36.0919999999999987
H O
12 8
direct
   0.5741220620990387    0.3214091429786501    0.3784191367891250 H
   0.5360304178190651    0.2957259280271122    0.4840414081604896 H
   0.5503985141941928    0.3118155451843764    0.4317727801156097 H
   0.1863459777727419    0.3191086688253654    0.4803867244589037 H
   0.2214287015338157    0.2988837619781008    0.3744224974792992 H
   0.2086326862210092    0.3123347103168857    0.4265714040052085 H
   0.5742461246736290    0.6819601902266350    0.4817574391578960 H
   0.5389224008921621    0.7086214464313437    0.3759187920782098 H
   0.5520755702226203    0.6919938030256683    0.4283097195842868 H
   0.1862316827153400    0.6868846868924233    0.3781739592539636 H
   0.2230956492231483    0.7051809416754037    0.4842682090281645 H
   0.2092681635910705    0.6928444602328863    0.4319329813588490 H
   0.5797600000000001    0.3053300000000000    0.4013800000000000 O
   0.5577200000000000    0.2909350000000000    0.4615900000000000 O
   0.1800800000000000    0.3039750000000000    0.4576500000000000 O
   0.2005300000000000    0.2927650000000000    0.3971700000000000 O
   0.5801200000000000    0.6983699999999999    0.4589750000000000 O
   0.5597200000000000    0.7133500000000000    0.3986600000000000 O
   0.1805200000000000    0.7013350000000000    0.4013350000000000 O
   0.2019200000000000    0.7114350000000000    0.4617300000000000 O
