H8 C12 N6
1.0
  23.4159154178677511    0.0000000000000000    0.0629376140574667
  -0.0074996674275633   31.4591346660213560    0.7468693460851616
   0.0000000000000000    0.0000000000000000   36.0919999999999987
H C N
8 12 6
direct
   0.7878500000000001    0.2554850000000000    0.9024400000000000 H
   0.9728100000000000    0.2497200000000000    0.9026000000000001 H
   0.7911600000000000    0.2533500000000000    0.9713499999999999 H
   0.9686900000000001    0.2482350000000000    0.9714800000000000 H
   0.7893700000000000    0.2638000000000000    0.7377150000000000 H
   0.9697000000000000    0.2345550000000000    0.7378250000000000 H
   0.7923000000000000    0.2612900000000000    0.6685700000000000 H
   0.9648400000000000    0.2315300000000000    0.6687700000000000 H
   0.8287600000000001    0.2538300000000000    0.9166550000000000 C
   0.9317299999999999    0.2505750000000000    0.9167500000000000 C
   0.8304100000000000    0.2529000000000000    0.9551450000000000 C
   0.9296200000000000    0.2494700000000000    0.9552250000000000 C
   0.8803600000000000    0.2525900000000000    0.8969199999999999 C
   0.8806500000000000    0.2531150000000000    0.8561250000000000 C
   0.8802800000000000    0.2515050000000000    0.7843750000000000 C
   0.8796200000000000    0.2494750000000000    0.7435499999999999 C
   0.8291500000000001    0.2568600000000000    0.7235850000000000 C
   0.9294800000000000    0.2402550000000000    0.7236700000000000 C
   0.8303500000000000    0.2551700000000000    0.6851700000000001 C
   0.9272100000000000    0.2388250000000000    0.6852700000000000 C
   0.8799000000000000    0.2505700000000000    0.9741949999999999 N
   0.9293100000000000    0.2411050000000000    0.8387800000000001 N
   0.8326700000000000    0.2662200000000000    0.8382400000000000 N
   0.9291700000000001    0.2405150000000000    0.8020950000000000 N
   0.8324300000000000    0.2651000000000000    0.8015550000000000 N
   0.8785300000000000    0.2462900000000000    0.6663150000000000 N
