H4 O2
1.0
  23.4159154178677511    0.0000000000000000    0.0629376140574667
  -0.0074996674275633   31.4591346660213560    0.7468693460851616
   0.0000000000000000    0.0000000000000000   36.0919999999999987
H O
4 2
direct
   0.8440313971135516    0.2522587016513523    0.9603882332797162 H
   0.9159421609111135    0.2497726070594886    0.9604435962895450 H
   0.9138479856676444    0.2408740434879013    0.6800671039098233 H
   0.8435726093759824    0.2527329561797692    0.6799953985100842 H
   0.8799000000000000    0.2505700000000000    0.9741949999999999 O
   0.8785300000000000    0.2462900000000000    0.6663150000000000 O
