Zn32 H398 C702 N96 O120
1.0
  23.4159154178677511    0.0000000000000000    0.0629376140574667
  -0.0074996674275633   31.4591346660213560    0.7468693460851616
   0.0000000000000000    0.0000000000000000   36.0919999999999987
Zn H C N O
32 398 702 96 120
direct
   0.6299300000000000    0.2535600000000000    0.3918700000000000 Zn
   0.1299200000000000    0.2511850000000000    0.4689450000000000 Zn
   0.6299200000000000    0.2514150000000000    0.4691800000000000 Zn
   0.3784400000000000    0.2462950000000000    0.1091500000000000 Zn
   0.8784400000000000    0.2462800000000000    0.1091300000000000 Zn
   0.3798600000000000    0.2483800000000000    0.0313500000000000 Zn
   0.8797600000000000    0.2483900000000000    0.0313050000000000 Zn
   0.1299400000000000    0.2535500000000000    0.3914000000000000 Zn
   0.6299300000000000    0.7535600000000000    0.3918700000000000 Zn
   0.1299200000000000    0.7511850000000000    0.4689450000000000 Zn
   0.6299200000000000    0.7514149999999999    0.4691800000000000 Zn
   0.3784400000000000    0.7462949999999999    0.1091500000000000 Zn
   0.8784400000000000    0.7462800000000001    0.1091300000000000 Zn
   0.3798600000000000    0.7483800000000000    0.0313500000000000 Zn
   0.8797600000000000    0.7483900000000000    0.0313050000000000 Zn
   0.1299400000000000    0.7535499999999999    0.3914000000000000 Zn
   0.6299300000000000    0.2535600000000000    0.8918699999999999 Zn
   0.1299200000000000    0.2511850000000000    0.9689449999999999 Zn
   0.6299200000000000    0.2514150000000000    0.9691799999999999 Zn
   0.3784400000000000    0.2462950000000000    0.6091500000000000 Zn
   0.8784400000000000    0.2462800000000000    0.6091299999999999 Zn
   0.3798600000000000    0.2483800000000000    0.5313500000000000 Zn
   0.8797600000000000    0.2483900000000000    0.5313050000000000 Zn
   0.1299400000000000    0.2535500000000000    0.8914000000000000 Zn
   0.6299300000000000    0.7535600000000000    0.8918699999999999 Zn
   0.1299200000000000    0.7511850000000000    0.9689449999999999 Zn
   0.6299200000000000    0.7514149999999999    0.9691799999999999 Zn
   0.3784400000000000    0.7462949999999999    0.6091500000000000 Zn
   0.8784400000000000    0.7462800000000001    0.6091299999999999 Zn
   0.3798600000000000    0.7483800000000000    0.5313500000000000 Zn
   0.8797600000000000    0.7483900000000000    0.5313050000000000 Zn
   0.1299400000000000    0.7535499999999999    0.8914000000000000 Zn
   0.0370400000000000    0.2441500000000000    0.0978500000000000 H
   0.5370300000000000    0.2443250000000000    0.0981250000000000 H
   0.2220200000000000    0.2509350000000000    0.0975650000000000 H
   0.7220299999999999    0.2508400000000000    0.0978000000000000 H
   0.4850600000000000    0.0007550000000000    0.4264850000000000 H
   0.9850800000000000    0.0009550000000000    0.4261850000000000 H
   0.2746900000000000    0.0038900000000000    0.4251800000000000 H
   0.7747000000000001    0.0040500000000000    0.4252650000000000 H
   0.7013200000000001    0.3797450000000000    0.4734600000000000 H
   0.0571200000000000    0.1227950000000000    0.4747450000000000 H
   0.5569499999999999    0.1226750000000000    0.4751550000000000 H
   0.7614600000000000    0.4452150000000000    0.4710800000000000 H
   0.4966900000000000    0.0574450000000000    0.4725700000000000 H
   0.9968300000000000    0.0575500000000000    0.4722300000000000 H
   0.7907300000000000    0.3330200000000000    0.3787250000000000 H
   0.4709000000000000    0.1739300000000000    0.3791950000000000 H
   0.9706600000000000    0.1741100000000000    0.3789550000000000 H
   0.8553200000000000    0.3958450000000000    0.3790800000000000 H
   0.4061300000000000    0.1111950000000000    0.3792200000000000 H
   0.9058800000000000    0.1113500000000000    0.3790650000000000 H
   0.0408800000000000    0.2460750000000000    0.0290300000000000 H
   0.5408500000000001    0.2463050000000000    0.0292950000000000 H
   0.2183400000000000    0.2522650000000000    0.0287450000000000 H
   0.7183300000000000    0.2522450000000000    0.0289950000000000 H
   0.0540900000000000    0.3766750000000000    0.3811350000000000 H
   0.2071100000000000    0.1313500000000000    0.3804700000000000 H
   0.7070200000000000    0.1316650000000000    0.3807750000000000 H
   0.9658099999999999    0.3326050000000000    0.4793650000000000 H
   0.2930100000000000    0.1687100000000000    0.4796900000000000 H
   0.7933800000000000    0.1689150000000000    0.4798600000000000 H
   0.9929100000000000    0.4415600000000000    0.3788850000000000 H
   0.2682100000000000    0.0665100000000000    0.3780500000000000 H
   0.7679800000000000    0.0667800000000000    0.3782250000000000 H
   0.9025200000000000    0.3954600000000000    0.4758850000000000 H
   0.3562700000000000    0.1060400000000000    0.4760500000000000 H
   0.8565300000000000    0.1062150000000000    0.4760850000000000 H
   0.0496000000000000    0.2161600000000000    0.2642200000000000 H
   0.5496000000000000    0.2162350000000000    0.2645300000000000 H
   0.2085900000000000    0.2859150000000000    0.2606900000000000 H
   0.7087900000000000    0.2857450000000000    0.2610300000000000 H
   0.0523100000000000    0.2207850000000000    0.3334750000000000 H
   0.5522899999999999    0.2208700000000000    0.3337700000000000 H
   0.2060200000000000    0.2858700000000000    0.3301950000000000 H
   0.7061500000000001    0.2857700000000000    0.3305100000000000 H
   0.2878900000000000    0.2551850000000000    0.4025300000000000 H
   0.7878500000000001    0.2554850000000000    0.4024400000000000 H
   0.4728400000000000    0.2494850000000000    0.4027050000000000 H
   0.9728100000000000    0.2497200000000000    0.4026000000000000 H
   0.2342900000000000    0.4989200000000000    0.0734350000000000 H
   0.7343499999999999    0.4988800000000000    0.0734350000000000 H
   0.0239000000000000    0.4957800000000000    0.0746400000000000 H
   0.5239600000000000    0.4957800000000000    0.0749300000000000 H
   0.4508700000000000    0.1202400000000000    0.0269550000000000 H
   0.9506400000000000    0.1200500000000000    0.0265650000000000 H
   0.3063400000000000    0.3766300000000000    0.0250750000000000 H
   0.8062200000000000    0.3765250000000000    0.0250750000000000 H
   0.0109500000000000    0.0546900000000000    0.0287200000000000 H
   0.5109500000000000    0.0547750000000000    0.0290500000000000 H
   0.2459300000000000    0.4418250000000000    0.0272950000000000 H
   0.7458500000000000    0.4417450000000000    0.0273200000000000 H
   0.0392500000000000    0.1666400000000000    0.1213200000000000 H
   0.5397000000000000    0.1666450000000000    0.1216950000000000 H
   0.2204300000000000    0.3263200000000000    0.1217100000000000 H
   0.7204600000000000    0.3263000000000000    0.1218050000000000 H
   0.1041900000000000    0.1039950000000000    0.1207000000000000 H
   0.6044700000000000    0.1038950000000000    0.1210000000000000 H
   0.1553400000000000    0.3889650000000000    0.1213150000000000 H
   0.6554300000000000    0.3889800000000000    0.1214400000000000 H
   0.2912100000000000    0.2531700000000000    0.4714500000000000 H
   0.7911600000000000    0.2533500000000000    0.4713500000000000 H
   0.4687300000000000    0.2480550000000000    0.4715750000000000 H
   0.9686900000000001    0.2482350000000000    0.4714800000000000 H
   0.3026600000000000    0.1230600000000000    0.1190550000000000 H
   0.8027500000000000    0.1230950000000000    0.1190400000000000 H
   0.4563100000000000    0.3682700000000000    0.1201700000000000 H
   0.9562400000000000    0.3682800000000000    0.1200050000000000 H
   0.2152100000000000    0.1676900000000000    0.0210000000000000 H
   0.7150600000000000    0.1676850000000000    0.0210700000000000 H
   0.0429500000000000    0.3304550000000000    0.0209250000000000 H
   0.5429100000000000    0.3305000000000000    0.0210400000000000 H
   0.2417200000000000    0.0580200000000000    0.1208600000000000 H
   0.7418800000000000    0.0580100000000000    0.1209000000000000 H
   0.0170600000000000    0.4332950000000000    0.1220000000000000 H
   0.5171300000000000    0.4332800000000000    0.1222050000000000 H
   0.1520600000000000    0.1047200000000000    0.0241000000000000 H
   0.6519600000000000    0.1046650000000000    0.0242300000000000 H
   0.1058800000000000    0.3933350000000000    0.0241500000000000 H
   0.6058900000000000    0.3933550000000000    0.0243000000000000 H
   0.2894400000000000    0.2639950000000000    0.2378000000000000 H
   0.7893700000000000    0.2638000000000000    0.2377150000000000 H
   0.4696000000000000    0.2341800000000000    0.2379000000000000 H
   0.9697000000000000    0.2345550000000000    0.2378250000000000 H
   0.2923400000000000    0.2615650000000000    0.1686750000000000 H
   0.7923000000000000    0.2612900000000000    0.1685700000000000 H
   0.4647100000000000    0.2312700000000000    0.1688350000000000 H
   0.9648400000000000    0.2315300000000000    0.1687700000000000 H
   0.0370400000000000    0.7441500000000000    0.0978500000000000 H
   0.5370300000000000    0.7443250000000000    0.0981250000000000 H
   0.2220200000000000    0.7509350000000000    0.0975650000000000 H
   0.7220299999999999    0.7508400000000000    0.0978000000000000 H
   0.9850800000000000    0.5009550000000000    0.4261850000000000 H
   0.7747000000000001    0.5040500000000000    0.4252650000000000 H
   0.2013300000000000    0.8793400000000000    0.4733100000000000 H
   0.7013200000000001    0.8797450000000000    0.4734600000000000 H
   0.0571200000000000    0.6227950000000000    0.4747450000000000 H
   0.2612800000000000    0.9449000000000001    0.4710150000000000 H
   0.7614600000000000    0.9452150000000000    0.4710800000000000 H
   0.9968300000000000    0.5575500000000000    0.4722300000000000 H
   0.2911400000000000    0.8327599999999999    0.3786500000000000 H
   0.7907300000000000    0.8330200000000000    0.3787250000000000 H
   0.9706600000000000    0.6741100000000000    0.3789550000000000 H
   0.3556000000000000    0.8956500000000001    0.3791550000000000 H
   0.8553200000000000    0.8958450000000000    0.3790800000000000 H
   0.9058800000000000    0.6113500000000001    0.3790650000000000 H
   0.0408800000000000    0.7460750000000000    0.0290300000000000 H
   0.5408500000000001    0.7463050000000000    0.0292950000000000 H
   0.2183400000000000    0.7522650000000000    0.0287450000000000 H
   0.7183300000000000    0.7522450000000001    0.0289950000000000 H
   0.0540900000000000    0.8766750000000000    0.3811350000000000 H
   0.5540700000000000    0.8765350000000001    0.3813800000000000 H
   0.7070200000000000    0.6316650000000000    0.3807750000000000 H
   0.4655800000000000    0.8324450000000000    0.4795250000000000 H
   0.9658099999999999    0.8326050000000000    0.4793650000000000 H
   0.7933800000000000    0.6689150000000000    0.4798600000000000 H
   0.4929000000000000    0.9414350000000000    0.3790800000000000 H
   0.9929100000000000    0.9415600000000000    0.3788850000000000 H
   0.7679800000000000    0.5667800000000001    0.3782250000000000 H
   0.4022500000000000    0.8952850000000000    0.4759600000000000 H
   0.9025200000000000    0.8954599999999999    0.4758850000000000 H
   0.8565300000000000    0.6062149999999999    0.4760850000000000 H
   0.0496000000000000    0.7161600000000000    0.2642200000000000 H
   0.5496000000000000    0.7162350000000000    0.2645300000000000 H
   0.2085900000000000    0.7859149999999999    0.2606900000000000 H
   0.7087900000000000    0.7857450000000000    0.2610300000000000 H
   0.0523100000000000    0.7207850000000000    0.3334750000000000 H
   0.5522899999999999    0.7208700000000000    0.3337700000000000 H
   0.2060200000000000    0.7858700000000001    0.3301950000000000 H
   0.7061500000000001    0.7857700000000001    0.3305100000000000 H
   0.2878900000000000    0.7551850000000000    0.4025300000000000 H
   0.7878500000000001    0.7554850000000000    0.4024400000000000 H
   0.4728400000000000    0.7494850000000000    0.4027050000000000 H
   0.9728100000000000    0.7497199999999999    0.4026000000000000 H
   0.2342900000000000    0.9989200000000000    0.0734350000000000 H
   0.7343499999999999    0.9988800000000000    0.0734350000000000 H
   0.0239000000000000    0.9957800000000000    0.0746400000000000 H
   0.5239600000000000    0.9957800000000000    0.0749300000000000 H
   0.4508700000000000    0.6202400000000000    0.0269550000000000 H
   0.9506400000000000    0.6200500000000000    0.0265650000000000 H
   0.3063400000000000    0.8766300000000000    0.0250750000000000 H
   0.8062200000000000    0.8765250000000000    0.0250750000000000 H
   0.0109500000000000    0.5546900000000000    0.0287200000000000 H
   0.5109500000000000    0.5547750000000000    0.0290500000000000 H
   0.2459300000000000    0.9418250000000000    0.0272950000000000 H
   0.7458500000000000    0.9417450000000001    0.0273200000000000 H
   0.0392500000000000    0.6666400000000000    0.1213200000000000 H
   0.5397000000000000    0.6666449999999999    0.1216950000000000 H
   0.2204300000000000    0.8263199999999999    0.1217100000000000 H
   0.7204600000000000    0.8263000000000000    0.1218050000000000 H
   0.1041900000000000    0.6039950000000001    0.1207000000000000 H
   0.6044700000000000    0.6038950000000000    0.1210000000000000 H
   0.1553400000000000    0.8889650000000000    0.1213150000000000 H
   0.6554300000000000    0.8889800000000000    0.1214400000000000 H
   0.2912100000000000    0.7531700000000000    0.4714500000000000 H
   0.7911600000000000    0.7533500000000000    0.4713500000000000 H
   0.4687300000000000    0.7480550000000000    0.4715750000000000 H
   0.9686900000000001    0.7482350000000000    0.4714800000000000 H
   0.3026600000000000    0.6230599999999999    0.1190550000000000 H
   0.8027500000000000    0.6230950000000000    0.1190400000000000 H
   0.4563100000000000    0.8682700000000000    0.1201700000000000 H
   0.9562400000000000    0.8682799999999999    0.1200050000000000 H
   0.2152100000000000    0.6676900000000000    0.0210000000000000 H
   0.7150600000000000    0.6676850000000000    0.0210700000000000 H
   0.0429500000000000    0.8304549999999999    0.0209250000000000 H
   0.5429100000000000    0.8305000000000000    0.0210400000000000 H
   0.2417200000000000    0.5580200000000000    0.1208600000000000 H
   0.7418800000000000    0.5580100000000000    0.1209000000000000 H
   0.0170600000000000    0.9332950000000000    0.1220000000000000 H
   0.5171300000000000    0.9332800000000000    0.1222050000000000 H
   0.1520600000000000    0.6047200000000000    0.0241000000000000 H
   0.6519600000000000    0.6046650000000000    0.0242300000000000 H
   0.1058800000000000    0.8933350000000000    0.0241500000000000 H
   0.6058900000000000    0.8933550000000000    0.0243000000000000 H
   0.2894400000000000    0.7639950000000000    0.2378000000000000 H
   0.7893700000000000    0.7638000000000000    0.2377150000000000 H
   0.4696000000000000    0.7341800000000001    0.2379000000000000 H
   0.9697000000000000    0.7345550000000001    0.2378250000000000 H
   0.2923400000000000    0.7615650000000000    0.1686750000000000 H
   0.7923000000000000    0.7612900000000000    0.1685700000000000 H
   0.4647100000000000    0.7312700000000000    0.1688350000000000 H
   0.9648400000000000    0.7315300000000000    0.1687700000000000 H
   0.0370400000000000    0.2441500000000000    0.5978500000000000 H
   0.5370300000000000    0.2443250000000000    0.5981250000000000 H
   0.2220200000000000    0.2509350000000000    0.5975650000000000 H
   0.7220299999999999    0.2508400000000000    0.5978000000000000 H
   0.4850600000000000    0.0007550000000000    0.9264850000000000 H
   0.9850800000000000    0.0009550000000000    0.9261850000000000 H
   0.2746900000000000    0.0038900000000000    0.9251800000000000 H
   0.7747000000000001    0.0040500000000000    0.9252650000000000 H
   0.2013300000000000    0.3793400000000000    0.9733100000000000 H
   0.7013200000000001    0.3797450000000000    0.9734600000000000 H
   0.0571200000000000    0.1227950000000000    0.9747450000000000 H
   0.5569499999999999    0.1226750000000000    0.9751550000000000 H
   0.2612800000000000    0.4449000000000000    0.9710150000000000 H
   0.7614600000000000    0.4452150000000000    0.9710799999999999 H
   0.4966900000000000    0.0574450000000000    0.9725699999999999 H
   0.9968300000000000    0.0575500000000000    0.9722299999999999 H
   0.2911400000000000    0.3327600000000000    0.8786499999999999 H
   0.7907300000000000    0.3330200000000000    0.8787250000000000 H
   0.4709000000000000    0.1739300000000000    0.8791949999999999 H
   0.9706600000000000    0.1741100000000000    0.8789549999999999 H
   0.3556000000000000    0.3956500000000000    0.8791550000000000 H
   0.8553200000000000    0.3958450000000000    0.8790800000000000 H
   0.4061300000000000    0.1111950000000000    0.8792200000000000 H
   0.9058800000000000    0.1113500000000000    0.8790650000000000 H
   0.0408800000000000    0.2460750000000000    0.5290300000000000 H
   0.5408500000000001    0.2463050000000000    0.5292950000000000 H
   0.2183400000000000    0.2522650000000000    0.5287450000000000 H
   0.7183300000000000    0.2522450000000000    0.5289950000000000 H
   0.0540900000000000    0.3766750000000000    0.8811350000000000 H
   0.5540700000000000    0.3765350000000000    0.8813800000000001 H
   0.2071100000000000    0.1313500000000000    0.8804700000000000 H
   0.7070200000000000    0.1316650000000000    0.8807750000000000 H
   0.4655800000000000    0.3324450000000000    0.9795250000000000 H
   0.9658099999999999    0.3326050000000000    0.9793650000000000 H
   0.2930100000000000    0.1687100000000000    0.9796899999999999 H
   0.7933800000000000    0.1689150000000000    0.9798600000000000 H
   0.4929000000000000    0.4414350000000000    0.8790800000000000 H
   0.9929100000000000    0.4415600000000000    0.8788850000000000 H
   0.2682100000000000    0.0665100000000000    0.8780500000000000 H
   0.7679800000000000    0.0667800000000000    0.8782250000000000 H
   0.4022500000000000    0.3952850000000000    0.9759599999999999 H
   0.9025200000000000    0.3954600000000000    0.9758850000000000 H
   0.3562700000000000    0.1060400000000000    0.9760500000000000 H
   0.8565300000000000    0.1062150000000000    0.9760850000000000 H
   0.0496000000000000    0.2161600000000000    0.7642200000000000 H
   0.5496000000000000    0.2162350000000000    0.7645299999999999 H
   0.2085900000000000    0.2859150000000000    0.7606900000000000 H
   0.7087900000000000    0.2857450000000000    0.7610300000000000 H
   0.0523100000000000    0.2207850000000000    0.8334750000000000 H
   0.5522899999999999    0.2208700000000000    0.8337700000000000 H
   0.2060200000000000    0.2858700000000000    0.8301950000000000 H
   0.7061500000000001    0.2857700000000000    0.8305100000000001 H
   0.2878900000000000    0.2551850000000000    0.9025300000000001 H
   0.7878500000000001    0.2554850000000000    0.9024400000000000 H
   0.4728400000000000    0.2494850000000000    0.9027050000000000 H
   0.9728100000000000    0.2497200000000000    0.9026000000000001 H
   0.2342900000000000    0.4989200000000000    0.5734350000000000 H
   0.7343499999999999    0.4988800000000000    0.5734350000000000 H
   0.0239000000000000    0.4957800000000000    0.5746400000000000 H
   0.5239600000000000    0.4957800000000000    0.5749299999999999 H
   0.4508700000000000    0.1202400000000000    0.5269550000000000 H
   0.9506400000000000    0.1200500000000000    0.5265649999999999 H
   0.3063400000000000    0.3766300000000000    0.5250750000000000 H
   0.8062200000000000    0.3765250000000000    0.5250750000000000 H
   0.0109500000000000    0.0546900000000000    0.5287200000000000 H
   0.5109500000000000    0.0547750000000000    0.5290500000000000 H
   0.2459300000000000    0.4418250000000000    0.5272950000000000 H
   0.7458500000000000    0.4417450000000000    0.5273200000000000 H
   0.0392500000000000    0.1666400000000000    0.6213200000000000 H
   0.5397000000000000    0.1666450000000000    0.6216950000000000 H
   0.2204300000000000    0.3263200000000000    0.6217100000000000 H
   0.7204600000000000    0.3263000000000000    0.6218049999999999 H
   0.1041900000000000    0.1039950000000000    0.6207000000000000 H
   0.6044700000000000    0.1038950000000000    0.6210000000000000 H
   0.1553400000000000    0.3889650000000000    0.6213150000000001 H
   0.6554300000000000    0.3889800000000000    0.6214400000000000 H
   0.2912100000000000    0.2531700000000000    0.9714499999999999 H
   0.7911600000000000    0.2533500000000000    0.9713499999999999 H
   0.4687300000000000    0.2480550000000000    0.9715750000000001 H
   0.9686900000000001    0.2482350000000000    0.9714800000000000 H
   0.3026600000000000    0.1230600000000000    0.6190550000000000 H
   0.8027500000000000    0.1230950000000000    0.6190400000000000 H
   0.4563100000000000    0.3682700000000000    0.6201700000000000 H
   0.9562400000000000    0.3682800000000000    0.6200050000000000 H
   0.2152100000000000    0.1676900000000000    0.5210000000000000 H
   0.7150600000000000    0.1676850000000000    0.5210700000000000 H
   0.0429500000000000    0.3304550000000000    0.5209250000000000 H
   0.5429100000000000    0.3305000000000000    0.5210399999999999 H
   0.2417200000000000    0.0580200000000000    0.6208600000000000 H
   0.7418800000000000    0.0580100000000000    0.6209000000000000 H
   0.0170600000000000    0.4332950000000000    0.6220000000000000 H
   0.5171300000000000    0.4332800000000000    0.6222050000000000 H
   0.1520600000000000    0.1047200000000000    0.5241000000000000 H
   0.6519600000000000    0.1046650000000000    0.5242300000000000 H
   0.1058800000000000    0.3933350000000000    0.5241500000000000 H
   0.6058900000000000    0.3933550000000000    0.5243000000000000 H
   0.2894400000000000    0.2639950000000000    0.7378000000000000 H
   0.7893700000000000    0.2638000000000000    0.7377150000000000 H
   0.4696000000000000    0.2341800000000000    0.7379000000000000 H
   0.9697000000000000    0.2345550000000000    0.7378250000000000 H
   0.2923400000000000    0.2615650000000000    0.6686750000000000 H
   0.7923000000000000    0.2612900000000000    0.6685700000000000 H
   0.4647100000000000    0.2312700000000000    0.6688350000000001 H
   0.9648400000000000    0.2315300000000000    0.6687700000000000 H
   0.0370400000000000    0.7441500000000000    0.5978500000000000 H
   0.5370300000000000    0.7443250000000000    0.5981250000000000 H
   0.2220200000000000    0.7509350000000000    0.5975650000000000 H
   0.7220299999999999    0.7508400000000000    0.5978000000000000 H
   0.4850600000000000    0.5007550000000000    0.9264850000000000 H
   0.9850800000000000    0.5009550000000000    0.9261850000000000 H
   0.2746900000000000    0.5038899999999999    0.9251800000000000 H
   0.7747000000000001    0.5040500000000000    0.9252650000000000 H
   0.2013300000000000    0.8793400000000000    0.9733100000000000 H
   0.7013200000000001    0.8797450000000000    0.9734600000000000 H
   0.0571200000000000    0.6227950000000000    0.9747450000000000 H
   0.5569499999999999    0.6226750000000000    0.9751550000000000 H
   0.2612800000000000    0.9449000000000001    0.9710150000000000 H
   0.7614600000000000    0.9452150000000000    0.9710799999999999 H
   0.4966900000000000    0.5574450000000000    0.9725699999999999 H
   0.9968300000000000    0.5575500000000000    0.9722299999999999 H
   0.2911400000000000    0.8327599999999999    0.8786499999999999 H
   0.7907300000000000    0.8330200000000000    0.8787250000000000 H
   0.4709000000000000    0.6739300000000000    0.8791949999999999 H
   0.9706600000000000    0.6741100000000000    0.8789549999999999 H
   0.3556000000000000    0.8956500000000001    0.8791550000000000 H
   0.8553200000000000    0.8958450000000000    0.8790800000000000 H
   0.4061300000000000    0.6111950000000000    0.8792200000000000 H
   0.9058800000000000    0.6113500000000001    0.8790650000000000 H
   0.0408800000000000    0.7460750000000000    0.5290300000000000 H
   0.5408500000000001    0.7463050000000000    0.5292950000000000 H
   0.2183400000000000    0.7522650000000000    0.5287450000000000 H
   0.7183300000000000    0.7522450000000001    0.5289950000000000 H
   0.0540900000000000    0.8766750000000000    0.8811350000000000 H
   0.5540700000000000    0.8765350000000001    0.8813800000000001 H
   0.2071100000000000    0.6313500000000000    0.8804700000000000 H
   0.7070200000000000    0.6316650000000000    0.8807750000000000 H
   0.4655800000000000    0.8324450000000000    0.9795250000000000 H
   0.9658099999999999    0.8326050000000000    0.9793650000000000 H
   0.2930100000000000    0.6687100000000000    0.9796899999999999 H
   0.7933800000000000    0.6689150000000000    0.9798600000000000 H
   0.4929000000000000    0.9414350000000000    0.8790800000000000 H
   0.9929100000000000    0.9415600000000000    0.8788850000000000 H
   0.2682100000000000    0.5665100000000000    0.8780500000000000 H
   0.7679800000000000    0.5667800000000001    0.8782250000000000 H
   0.4022500000000000    0.8952850000000000    0.9759599999999999 H
   0.9025200000000000    0.8954599999999999    0.9758850000000000 H
   0.3562700000000000    0.6060400000000000    0.9760500000000000 H
   0.8565300000000000    0.6062149999999999    0.9760850000000000 H
   0.0496000000000000    0.7161600000000000    0.7642200000000000 H
   0.5496000000000000    0.7162350000000000    0.7645299999999999 H
   0.2085900000000000    0.7859149999999999    0.7606900000000000 H
   0.7087900000000000    0.7857450000000000    0.7610300000000000 H
   0.0523100000000000    0.7207850000000000    0.8334750000000000 H
   0.5522899999999999    0.7208700000000000    0.8337700000000000 H
   0.2060200000000000    0.7858700000000001    0.8301950000000000 H
   0.7061500000000001    0.7857700000000001    0.8305100000000001 H
   0.2878900000000000    0.7551850000000000    0.9025300000000001 H
   0.7878500000000001    0.7554850000000000    0.9024400000000000 H
   0.4728400000000000    0.7494850000000000    0.9027050000000000 H
   0.9728100000000000    0.7497199999999999    0.9026000000000001 H
   0.2342900000000000    0.9989200000000000    0.5734350000000000 H
   0.7343499999999999    0.9988800000000000    0.5734350000000000 H
   0.0239000000000000    0.9957800000000000    0.5746400000000000 H
   0.5239600000000000    0.9957800000000000    0.5749299999999999 H
   0.4508700000000000    0.6202400000000000    0.5269550000000000 H
   0.9506400000000000    0.6200500000000000    0.5265649999999999 H
   0.3063400000000000    0.8766300000000000    0.5250750000000000 H
   0.8062200000000000    0.8765250000000000    0.5250750000000000 H
   0.0109500000000000    0.5546900000000000    0.5287200000000000 H
   0.5109500000000000    0.5547750000000000    0.5290500000000000 H
   0.2459300000000000    0.9418250000000000    0.5272950000000000 H
   0.7458500000000000    0.9417450000000001    0.5273200000000000 H
   0.0392500000000000    0.6666400000000000    0.6213200000000000 H
   0.5397000000000000    0.6666449999999999    0.6216950000000000 H
   0.2204300000000000    0.8263199999999999    0.6217100000000000 H
   0.7204600000000000    0.8263000000000000    0.6218049999999999 H
   0.1041900000000000    0.6039950000000001    0.6207000000000000 H
   0.6044700000000000    0.6038950000000000    0.6210000000000000 H
   0.1553400000000000    0.8889650000000000    0.6213150000000001 H
   0.6554300000000000    0.8889800000000000    0.6214400000000000 H
   0.2912100000000000    0.7531700000000000    0.9714499999999999 H
   0.7911600000000000    0.7533500000000000    0.9713499999999999 H
   0.4687300000000000    0.7480550000000000    0.9715750000000001 H
   0.9686900000000001    0.7482350000000000    0.9714800000000000 H
   0.3026600000000000    0.6230599999999999    0.6190550000000000 H
   0.8027500000000000    0.6230950000000000    0.6190400000000000 H
   0.4563100000000000    0.8682700000000000    0.6201700000000000 H
   0.9562400000000000    0.8682799999999999    0.6200050000000000 H
   0.2152100000000000    0.6676900000000000    0.5210000000000000 H
   0.7150600000000000    0.6676850000000000    0.5210700000000000 H
   0.0429500000000000    0.8304549999999999    0.5209250000000000 H
   0.5429100000000000    0.8305000000000000    0.5210399999999999 H
   0.2417200000000000    0.5580200000000000    0.6208600000000000 H
   0.7418800000000000    0.5580100000000000    0.6209000000000000 H
   0.0170600000000000    0.9332950000000000    0.6220000000000000 H
   0.5171300000000000    0.9332800000000000    0.6222050000000000 H
   0.1520600000000000    0.6047200000000000    0.5241000000000000 H
   0.6519600000000000    0.6046650000000000    0.5242300000000000 H
   0.1058800000000000    0.8933350000000000    0.5241500000000000 H
   0.6058900000000000    0.8933550000000000    0.5243000000000000 H
   0.2894400000000000    0.7639950000000000    0.7378000000000000 H
   0.7893700000000000    0.7638000000000000    0.7377150000000000 H
   0.4696000000000000    0.7341800000000001    0.7379000000000000 H
   0.9697000000000000    0.7345550000000001    0.7378250000000000 H
   0.2923400000000000    0.7615650000000000    0.6686750000000000 H
   0.7923000000000000    0.7612900000000000    0.6685700000000000 H
   0.4647100000000000    0.7312700000000000    0.6688350000000001 H
   0.9648400000000000    0.7315300000000000    0.6687700000000000 H
   0.6736700000000000    0.2706500000000000    0.2760000000000000 C
   0.0859700000000000    0.2344700000000000    0.3160300000000000 C
   0.5860000000000000    0.2345200000000000    0.3163400000000000 C
   0.1722300000000000    0.2711750000000000    0.3141950000000000 C
   0.7423500000000000    0.3522100000000000    0.4263650000000000 C
   0.0176300000000000    0.1525400000000000    0.4270850000000000 C