H3 O2
1.0
  39.6967911187149056    0.0000000000000000    3.0001458093095157
   0.3888015827411651   28.6601319221748412    0.2656455021126183
   0.0000000000000000    0.0000000000000000   29.1419999999999995
H O
3 2
direct
   0.2103385220834986    0.6163482932640291    0.0759655815788011 H
   0.2263887093261688    0.5843829880134984    0.1176859643757840 H
   0.1786871427629714    0.6957826774299940    0.1823884318445098 H
   0.2229780000000000    0.5886500000000000    0.0850000000000000 O
   0.1687220000000000    0.7243400000000000    0.1703200000000000 O
