H8 O5
1.0
  14.0738729271785381    0.0000000000000000   -3.9363811844930647
  -7.0099171690729367   15.3676560418971828   -7.0026733509908583
   0.0000000000000000    0.0000000000000000   18.3610000000000007
H O
8 5
direct
   0.9385356119899112    0.4789495408335951    0.2100315526502072 H
   0.0486338757679506    0.5279198363092005    0.3166047718099658 H
   0.1675364014446193    0.6061430450455412    0.3926261133901091 H
   0.3669893598288964    0.4420159627773941    0.5810211655818852 H
   0.4190919429929269    0.4774918158689960    0.5846555168517241 H
   0.2614463789085677    0.3378506406631944    0.5859735791397616 H
   0.1909449187941920    0.3728846917167622    0.5543387450154619 H
   0.0626257292808358    0.3412586421686629    0.5305917216761052 H
   0.9525600000000000    0.5007400000000000    0.1713300000000000 O
   0.1082400000000000    0.5820300000000000    0.3372600000000000 O
   0.3972200000000000    0.4293900000000000    0.5957900000000000 O
   0.3103400000000000    0.3174300000000000    0.6098600000000000 O
   0.1285300000000000    0.3379900000000000    0.5558600000000000 O
