H9 O6
1.0
  16.2454728800349208    0.0000000000000000    9.3479762464423182
   5.3871015228105126   15.3286198684251698    9.3881720857818625
   0.0000000000000000    0.0000000000000000   37.5240000000000009
H O
9 6
direct
   0.4757816711783661    0.6179576224029691    0.4147232503199764 H
   0.6182294352496863    0.4756128039870250    0.4148593932014314 H
  -0.1578740747298937    0.6717110845106975    0.2302635309595966 H
   0.8419393786494122    0.4609376749466707    0.3357872395328195 H
   0.8307615207441518    0.5710551958005393    0.2853925536596565 H
   0.4610105714305454    0.8415706970713644    0.3355983569268234 H
   0.6716704219838631   -0.1577900800196347    0.2302145467886068 H
   0.5711359734561297   -0.1694146256965972    0.2852337940610546 H
   0.5172841680440055    0.5171944561985861    0.3106071021313454 H
   0.4925200000000000    0.6136500000000000    0.4365550000000000 O
   0.6139400000000000    0.4923200000000000    0.4366750000000000 O
  -0.1266000000000001    0.6139000000000000    0.2460500000000000 O
   0.8732900000000000    0.4924400000000000    0.3068600000000000 O
   0.4925000000000000    0.8730900000000000    0.3067250000000000 O
   0.6139300000000000   -0.1265800000000000    0.2459950000000000 O
