H3 C9 O6
1.0
  16.2454728800349208    0.0000000000000000    9.3479762464423182
   5.3871015228105126   15.3286198684251698    9.3881720857818625
   0.0000000000000000    0.0000000000000000   37.5240000000000009
H C O
3 9 6
direct
   0.7341299999999999    0.7341600000000000    0.2521200000000000 H
   0.5047600000000000    0.7338200000000000    0.3668250000000000 H
   0.7342600000000000    0.5047400000000000    0.3670250000000000 H
   0.6142600000000000    0.6140300000000000    0.3715400000000000 C
   0.6142200000000000    0.7432000000000000    0.3068600000000000 C
   0.7433700000000000    0.6141799999999999    0.3069400000000000 C
   0.5700100000000000    0.5697700000000000    0.4183600000000000 C
   0.8368800000000000    0.5699600000000000    0.2848000000000000 C
   0.5699800000000000    0.8367700000000000    0.2847400000000000 C
   0.7003200000000001    0.5711100000000000    0.3500250000000000 C
   0.5712000000000000    0.7000300000000000    0.3499200000000000 C
   0.7002699999999999    0.7002200000000000    0.2853500000000000 C
   0.6139400000000000    0.4923200000000000    0.4366750000000000 O
  -0.1266000000000001    0.6139000000000000    0.2460500000000000 O
   0.4925000000000000    0.8730900000000000    0.3067250000000000 O
   0.4925200000000000    0.6136500000000000    0.4365550000000000 O
   0.6139300000000000   -0.1265800000000000    0.2459950000000000 O
   0.8732900000000000    0.4924400000000000    0.3068600000000000 O
