H4 O4
1.0
  18.3430000000000000    0.0000000000000000    0.0000000000000011
   0.0003448247003013   19.7569999969908388    0.0000000000000012
   0.0000000000000000    0.0000000000000000   19.7570000000000014
H O
4 4
direct
   0.7225995414820582    0.6695854935948432    0.2848509815211678 H
   0.8143175426290378    0.7946101764917839    0.4769753359048279 H
   0.5451569446887076    0.8017848512114037    0.5524214307232219 H
   0.4614916374469056    0.7023634178183755    0.3422136625063777 H
   0.7465100000000000    0.6505400000000000    0.2448800000000000 O
   0.8500700000000000    0.8081800000000000    0.5111400000000000 O
   0.5221400000000000    0.8169000000000000    0.5944700000000001 O
   0.4273300000000000    0.6774200000000000    0.3134900000000000 O
