H12 C10 N2 O8
1.0
  18.3430000000000000    0.0000000000000000    0.0000000000000011
   0.0003448247003013   19.7569999969908388    0.0000000000000012
   0.0000000000000000    0.0000000000000000   19.7570000000000014
H C N O
12 10 2 8
direct
   0.5818500000000000    0.6161400000000000    0.5069800000000000 H
   0.6288899999999999    0.6905000000000000    0.5315000000000000 H
   0.4864200000000000    0.7068500000000000    0.5374000000000000 H
   0.4661900000000000    0.7669200000000000    0.4739600000000000 H
   0.4724000000000000    0.6344200000000000    0.4295600000000000 H
   0.5482300000000000    0.6335000000000000    0.3739100000000000 H
   0.7066500000000000    0.6027800000000000    0.4725600000000000 H
   0.6544000000000000    0.6154100000000000    0.3984100000000000 H
   0.8040500000000000    0.7164100000000000    0.3524500000000000 H
   0.7901500000000000    0.6299600000000000    0.3678300000000000 H
   0.7372800000000000    0.7246100000000000    0.5244400000000000 H
   0.8129700000000000    0.6837900000000000    0.4869500000000000 H
   0.6093900000000000    0.6622000000000000    0.4872000000000000 C
   0.5115000000000000    0.7419200000000000    0.5003900000000000 C
   0.5522300000000000    0.7971400000000000    0.5395000000000000 C
   0.5125800000000000    0.6671300000000000    0.4032700000000000 C
   0.4714300000000000    0.7096200000000000    0.3505700000000000 C
   0.6741500000000000    0.6408400000000000    0.4442300000000000 C
   0.7612000000000000    0.6788100000000000    0.3616600000000000 C
   0.7153500000000000    0.6753600000000000    0.2969700000000000 C
   0.7686100000000000    0.7207200000000000    0.4771900000000000 C
   0.8039100000000000    0.7906600000000000    0.4670300000000000 C
   0.5572500000000000    0.7059900000000000    0.4511400000000000 N
   0.7201300000000000    0.6979600000000000    0.4224000000000000 N
   0.6119300000000000    0.8201300000000000    0.5169100000000000 O
   0.5221400000000000    0.8169000000000000    0.5944700000000001 O
   0.4845100000000000    0.7730900000000001    0.3477500000000000 O
   0.4273300000000000    0.6774200000000000    0.3134900000000000 O
   0.6501300000000000    0.6973000000000000    0.2971300000000000 O
   0.7465100000000000    0.6505400000000000    0.2448800000000000 O
   0.8500700000000000    0.8081800000000000    0.5111400000000000 O
   0.7848200000000000    0.8254600000000000    0.4154100000000000 O
