H9 C9 O6
1.0
  24.1649998675005619    0.0000000000000000   -0.0025305528778388
  -0.4640754549176737   15.3739775274723733    0.0246973058741599
   0.0000000000000000    0.0000000000000000   17.0429999999999993
H C O
9 9 6
direct
   0.4130400000000000    0.0985500000000000    0.3194600000000000 H
   0.4531500000000000    0.0668400000000000    0.4494900000000000 H
   0.4636500000000000    0.9571400000000000    0.4215300000000000 H
   0.4368800000000000    0.9097100000000000    0.2769900000000000 H
   0.4098200000000000    0.9883999999999999    0.2133600000000000 H
   0.3248800000000000    0.9971400000000000    0.2957300000000000 H
   0.3758500000000000    0.8555100000000000    0.3975300000000000 H
   0.3093200000000000    0.8992500000000000    0.4086600000000000 H
   0.3521400000000000    0.0449900000000000    0.4391300000000000 H
   0.4967000000000000    0.0600000000000000    0.3036700000000000 C
   0.4367900000000000    0.0392400000000000    0.3261300000000000 C
   0.4365400000000000    0.0127700000000000    0.4135800000000000 C
   0.4107900000000000    0.9669400000000000    0.2749100000000000 C
   0.3522500000000000    0.9415400000000000    0.3026200000000000 C
   0.3258900000000000    0.8666500000000000    0.2552800000000000 C
   0.3520000000000000    0.9148200000000000    0.3898800000000000 C
   0.3776500000000000    0.9869200000000000    0.4410000000000000 C
   0.3810100000000000    0.9595900000000001    0.5276700000000000 C
   0.5136900000000000    0.1402900000000000    0.2997400000000000 O
   0.5278200000000000    0.9962900000000000    0.2933900000000000 O
   0.3588300000000000    0.8170900000000000    0.2194000000000000 O
   0.2733300000000000    0.8590400000000000    0.2589000000000000 O
   0.3958700000000000    0.8818400000000000    0.5405000000000000 O
   0.3707300000000000    0.0176600000000000    0.5782100000000000 O
