Cd24 H144 C135 O96
1.0
  24.1649998675005619    0.0000000000000000   -0.0025305528778388
  -0.4640754549176737   15.3739775274723733    0.0246973058741599
   0.0000000000000000    0.0000000000000000   17.0429999999999993
Cd H C O
24 144 135 96
direct
   0.5934199999999999    0.2023800000000000    0.3555000000000000 Cd
   0.6564600000000000    0.2977900000000000    0.8558300000000000 Cd
   0.4634600000000000    0.2734700000000000    0.3051800000000000 Cd
   0.7865500000000000    0.2268600000000000    0.8050300000000000 Cd
   0.6208399999999999    0.9919200000000000    0.2913800000000000 Cd
   0.6293700000000000    0.5075200000000000    0.7905000000000000 Cd
   0.3435500000000000    0.7022300000000000    0.1441800000000000 Cd
   0.4065800000000000    0.7976300000000000    0.6444900000000000 Cd
   0.2134600000000000    0.7731400000000000    0.1949700000000000 Cd
   0.5365500000000000    0.7265300000000000    0.6948100000000000 Cd
   0.3706400000000000    0.4924600000000000    0.2094600000000000 Cd
   0.3791600000000000    0.0000000000000000    0.7086000000000000 Cd
   0.8435400000000000    0.7022600000000000    0.1441800000000000 Cd
   0.9065800000000001    0.7976300000000000    0.6444800000000001 Cd
   0.0365600000000000    0.7265500000000000    0.6948100000000000 Cd
   0.7134400000000000    0.7731400000000000    0.1949800000000000 Cd
   0.8707600000000000    0.4923300000000000    0.2093600000000000 Cd
   0.1564600000000000    0.2977600000000000    0.8558200000000000 Cd
   0.0934200000000000    0.2023800000000000    0.3555200000000000 Cd
   0.9634400000000000    0.2734500000000000    0.3051900000000000 Cd
   0.2865700000000000    0.2268700000000000    0.8050200000000000 Cd
   0.1208400000000000    0.9919500000000000    0.2914000000000000 Cd
   0.1292600000000000    0.5076500000000000    0.7906200000000000 Cd
   0.8791500000000000    0.0000000000000000    0.7086000000000000 Cd
   0.9855400000000000    0.2810800000000000    0.7840000000000000 H
   0.9578800000000000    0.3565500000000000    0.7168700000000000 H
   0.9620800000000000    0.1595000000000000    0.6925000000000000 H
   0.0695200000000000    0.3212000000000000    0.5623899999999999 H
   0.0107400000000000    0.3824700000000000    0.5824100000000000 H
   0.0579000000000000    0.2420800000000000    0.6899999999999999 H
   0.9105600000000000    0.1849000000000000    0.5686800000000000 H
   0.9124700000000000    0.2983000000000000    0.5860300000000001 H
   0.0134400000000000    0.1849500000000000    0.5599000000000000 H
   0.4749509708723491    0.1218563391783188    0.3005731684957452 H
   0.7353100000000000    0.7808900000000000    0.7158500000000000 H
   0.7075200000000000    0.8563800000000000    0.7826300000000000 H
   0.7120500000000000    0.6594100000000001    0.8079100000000000 H
   0.8192500000000000    0.8221100000000000    0.9372700000000000 H
   0.7602700000000000    0.8829200000000000    0.9169300000000000 H
   0.8077800000000001    0.7424700000000000    0.8100400000000000 H
   0.6605600000000000    0.6848700000000000    0.9316300000000000 H
   0.6622700000000000    0.7982399999999999    0.9137700000000000 H
   0.7635100000000000    0.6854700000000000    0.9402100000000000 H
   0.6632400000000001    0.5990200000000000    0.1795200000000000 H
   0.6865800000000000    0.4102200000000000    0.2232200000000000 H
   0.6597600000000000    0.4894100000000000    0.2863000000000000 H
   0.5748900000000000    0.4984400000000000    0.2039500000000000 H
   0.7034800000000000    0.5664600000000000    0.0498100000000000 H
   0.7135700000000000    0.4568000000000000    0.0785200000000000 H
   0.5590200000000000    0.4003700000000000    0.0915000000000000 H
   0.6253600000000000    0.3559800000000000    0.1029600000000000 H
   0.6023800000000000    0.5455200000000000    0.0600700000000000 H
   0.5869600000000000    0.9014600000000000    0.6805000000000000 H
   0.5631200000000000    0.0903000000000000    0.7230100000000000 H
   0.5901800000000000    0.0000000000000000    0.7866400000000000 H
   0.6751100000000000    0.0000000000000000    0.7042000000000000 H
   0.5468400000000000    0.9331700000000001    0.5505100000000001 H
   0.5363400000000000    0.0428700000000000    0.5784800000000000 H
   0.6906700000000000    0.1007700000000000    0.5913000000000000 H
   0.6241400000000000    0.1445100000000000    0.6024800000000000 H
   0.6478500000000000    0.9550300000000000    0.5608800000000000 H
   0.2646800000000000    0.2191200000000000    0.2841500000000000 H
   0.2924700000000000    0.1436200000000000    0.2173800000000000 H
   0.2879500000000000    0.3405900000000000    0.1920000000000000 H
   0.1807400000000000    0.1779100000000000    0.0627200000000000 H
   0.2397200000000000    0.1170900000000000    0.0830600000000000 H
   0.1922100000000000    0.2575300000000000    0.1899600000000000 H
   0.3394300000000000    0.3151300000000000    0.0683700000000000 H
   0.3377300000000000    0.2017600000000000    0.0862300000000000 H
   0.2364800000000000    0.3145400000000000    0.0597900000000000 H
   0.4043689890334806    0.8357853394324873    0.5040120053268926 H
   0.3596373564167453    0.0774599999860782    0.5728184128688991 H
   0.3811770662414389   -0.0389509789976685    0.5333584893243697 H
   0.4856600000000000    0.2810600000000000    0.7839900000000000 H
   0.4580500000000000    0.3565600000000000    0.7168500000000000 H
   0.4621000000000000    0.1594900000000000    0.6925100000000000 H
   0.5696000000000000    0.3209700000000000    0.5623200000000000 H
   0.5108800000000000    0.3823600000000000    0.5823800000000000 H
   0.5579300000000000    0.2418100000000000    0.6899000000000000 H
   0.4105500000000000    0.1849300000000000    0.5687200000000000 H
   0.4125300000000000    0.2983400000000000    0.5860600000000000 H
   0.5134200000000000    0.1848300000000000    0.5598000000000000 H
   0.3989513145585769    0.8194134948622244    0.2169675932683700 H
   0.2471294041857665    0.8939035717470349    0.2871073042638700 H
   0.3250527643593316    0.8620353549272044    0.2557642403273585 H
   0.4910199089414907    0.9787789675333823    0.2941814673444570 H
   0.5191269889541876    0.9343574217130745    0.2912585402873578 H
   0.5143500000000000    0.7189300000000000    0.2160000000000000 H
   0.5419700000000000    0.6434400000000000    0.2831400000000000 H
   0.5379000000000000    0.8405100000000000    0.3074800000000000 H
   0.4304000000000000    0.6790000000000000    0.4376700000000000 H
   0.4891400000000000    0.6176300000000000    0.4176200000000000 H
   0.4420600000000000    0.7581500000000000    0.3100200000000000 H
   0.5894300000000000    0.8150900000000000    0.4312700000000000 H
   0.5874800000000000    0.7016900000000000    0.4139400000000000 H
   0.4865700000000000    0.8151600000000000    0.4401100000000000 H
   0.3367700000000000    0.4009900000000000    0.8204800000000000 H
   0.3134100000000000    0.5897900000000000    0.7767700000000000 H
   0.3402400000000000    0.5106000000000001    0.7136500000000000 H
   0.4251200000000000    0.5015800000000000    0.7960500000000000 H
   0.2965200000000000    0.4335500000000000    0.9501800000000000 H
   0.2864300000000000    0.5432100000000000    0.9214000000000000 H
   0.4409800000000000    0.5996600000000000    0.9085000000000000 H
   0.3746300000000000    0.6440399999999999    0.8970300000000000 H
   0.3976200000000000    0.4545000000000000    0.9399100000000000 H
   0.7646800000000000    0.2190500000000000    0.2841300000000000 H
   0.7924500000000000    0.1435600000000000    0.2173400000000000 H
   0.6807299999999999    0.1779100000000000    0.0627100000000000 H
   0.7396900000000000    0.1170800000000000    0.0830400000000000 H
   0.6922100000000000    0.2575200000000000    0.1899000000000000 H
   0.7364700000000000    0.3145300000000000    0.0597000000000000 H
   0.8394100000000000    0.3151200000000000    0.0683700000000000 H
   0.8377100000000000    0.2017400000000000    0.0861900000000000 H
   0.7879600000000000    0.3405400000000000    0.1921100000000000 H
   0.9130500000000000    0.0985400000000000    0.3194400000000000 H
   0.9368800000000000    0.9096900000000000    0.2770000000000000 H
   0.9098500000000000    0.9883800000000000    0.2133500000000000 H
   0.8249000000000000    0.9971700000000000    0.2957000000000000 H
   0.9531400000000000    0.0668400000000000    0.4494800000000000 H
   0.9636500000000000    0.9571400000000000    0.4215300000000000 H
   0.8093200000000000    0.8992300000000000    0.4086200000000000 H
   0.8758500000000000    0.8555000000000000    0.3974800000000000 H
   0.8521300000000001    0.0449700000000000    0.4391000000000000 H
   0.8368100000000001    0.4009500000000000    0.8204700000000000 H
   0.8134400000000001    0.5897300000000000    0.7766999999999999 H
   0.8403000000000000    0.5105499999999999    0.7136200000000000 H
   0.9251700000000000    0.5016300000000000    0.7960500000000000 H
   0.7965600000000000    0.4335500000000000    0.9501500000000001 H
   0.7864500000000000    0.5432000000000000    0.9214100000000000 H
   0.9409700000000000    0.5997400000000001    0.9084800000000000 H
   0.8746200000000000    0.6440600000000000    0.8969900000000000 H
   0.8976499999999999    0.4545300000000000    0.9398700000000000 H
   0.0144800000000000    0.7189300000000000    0.2159900000000000 H
   0.0421400000000000    0.6434700000000000    0.2831200000000000 H
   0.0379300000000000    0.8405100000000000    0.3074900000000000 H
   0.9304900000000000    0.6787900000000000    0.4375800000000000 H
   0.9892800000000000    0.6175300000000000    0.4175800000000000 H
   0.9421000000000000    0.7578900000000000    0.3099100000000000 H
   0.0894300000000000    0.8151300000000000    0.4313200000000000 H
   0.0875400000000000    0.7017300000000000    0.4139700000000000 H
   0.9865500000000000    0.8150500000000001    0.4400500000000000 H
   0.2353200000000000    0.7809600000000000    0.7158700000000000 H
   0.2075400000000000    0.8564400000000000    0.7826700000000000 H
   0.2120400000000000    0.6594600000000000    0.8078900000000000 H
   0.3192700000000000    0.8221100000000000    0.9372900000000000 H
   0.2603000000000000    0.8829300000000000    0.9169600000000000 H
   0.3077800000000000    0.7424800000000000    0.8100500000000000 H
   0.1605800000000000    0.6848800000000000    0.9316300000000000 H
   0.1622800000000000    0.7982600000000000    0.9138100000000000 H
   0.2635300000000000    0.6854800000000000    0.9402100000000000 H
   0.0869600000000000    0.9014700000000000    0.6805600000000001 H
   0.0631100000000000    0.0903200000000000    0.7230000000000000 H
   0.0901500000000000    0.0000000000000000    0.7866500000000000 H
   0.1751000000000000    0.0000000000000000    0.7040000000000000 H
   0.0468600000000000    0.9331700000000001    0.5505200000000000 H
   0.0363400000000000    0.0428700000000000    0.5784700000000000 H
   0.1906700000000000    0.1007900000000000    0.5913800000000000 H
   0.1241400000000000    0.1445200000000000    0.6025199999999999 H
   0.1478600000000000    0.9550500000000000    0.5609000000000000 H
   0.1632000000000000    0.5990600000000000    0.1795300000000000 H
   0.1865600000000000    0.4102700000000000    0.2232000000000000 H
   0.1597000000000000    0.4894600000000000    0.2863800000000000 H
   0.0748300000000000    0.4983900000000000    0.2039500000000000 H
   0.2034500000000000    0.5664600000000000    0.0498400000000000 H
   0.2135500000000000    0.4568100000000000    0.0785800000000000 H
   0.0590200000000000    0.4002900000000000    0.0915200000000000 H
   0.1253700000000000    0.3559600000000000    0.1030000000000000 H
   0.1023500000000000    0.5454800000000000    0.0601200000000000 H
   0.9792800000000000    0.2945200000000000    0.7213500000000000 C
   0.9425400000000000    0.2225700000000000    0.6838400000000000 C
   0.8863900000000000    0.2185800000000000    0.7238300000000000 C
   0.0291000000000000    0.3186000000000000    0.5917100000000000 C
   0.0358900000000000    0.3029800000000000    0.6798400000000000 C
   0.0704500000000000    0.3739100000000000    0.7200200000000000 C
   0.9353800000000000    0.2382800000000000    0.5949700000000000 C
   0.9918500000000000    0.2471300000000000    0.5542200000000000 C
   0.9868600000000000    0.2610400000000000    0.4659300000000000 C
   0.7290400000000000    0.7944600000000001    0.7784400000000000 C
   0.6924300000000000    0.7224300000000000    0.8163000000000000 C
   0.6363100000000000    0.7182800000000000    0.7762200000000000 C
   0.7788200000000000    0.8191600000000000    0.9079700000000001 C
   0.7856500000000000    0.8033000000000000    0.8199100000000000 C
   0.8200600000000000    0.8742000000000000    0.7792100000000000 C
   0.6852800000000000    0.7383100000000000    0.9051000000000000 C
   0.7417600000000000    0.7475100000000000    0.9457000000000000 C
   0.7368100000000000    0.7613500000000000    0.0340700000000000 C
   0.6868800000000000    0.5395600000000000    0.1733100000000000 C
   0.7467400000000000    0.5600500000000000    0.1960400000000000 C
   0.6606900000000000    0.4676700000000000    0.2249300000000000 C
   0.6020900000000000    0.4426200000000000    0.1973500000000000 C
   0.5756500000000000    0.3680800000000000    0.2452400000000000 C
   0.6866400000000000    0.5126900000000000    0.0860000000000000 C
   0.6017500000000000    0.4155700000000000    0.1102100000000000 C
   0.6277000000000000    0.4872300000000000    0.0581200000000000 C
   0.6310100000000000    0.4595200000000000    0.9720600000000000 C
   0.5632100000000000    0.9607700000000000    0.6738700000000000 C
   0.5033100000000000    0.9399999999999999    0.6963300000000000 C
   0.5891999999999999    0.0330700000000000    0.7250900000000000 C
   0.6477500000000000    0.0584800000000000    0.6973800000000000 C
   0.6741100000000000    0.1333600000000000    0.7447000000000000 C
   0.5634600000000000    0.9872400000000000    0.5864200000000001 C
   0.6479900000000000    0.0851900000000000    0.6101200000000000 C
   0.6223500000000000    0.0131000000000000    0.5585100000000000 C
   0.6189900000000000    0.0404200000000000    0.4723300000000000 C
   0.2709500000000000    0.2055500000000000    0.2215600000000000 C
   0.3075600000000000    0.2775700000000000    0.1837000000000000 C
   0.3636800000000000    0.2817100000000000    0.2237000000000000 C
   0.2211700000000000    0.1808500000000000    0.0920300000000000 C
   0.2143400000000000    0.1967000000000000    0.1800900000000000 C
   0.1799400000000000    0.1258000000000000    0.2207800000000000 C
   0.3147100000000000    0.2617000000000000    0.0949000000000000 C
   0.2582300000000000    0.2525000000000000    0.0542100000000000 C
   0.2631800000000000    0.2386600000000000    0.9659300000000000 C
   0.4793900000000000    0.2944800000000000    0.7213400000000000 C
   0.4425900000000000    0.2225800000000000    0.6838500000000000 C
   0.3864400000000000    0.2186200000000000    0.7238000000000000 C
   0.5291900000000000    0.3184400000000000    0.5916700000000000 C
   0.5360000000000000    0.3028000000000000    0.6797900000000000 C
   0.5707500000000000    0.3735700000000000    0.7199100000000000 C
   0.4354100000000000    0.2382900000000000    0.5949000000000000 C
   0.4918700000000000    0.2470600000000000    0.5541900000000000 C
   0.4868500000000000    0.2610100000000000    0.4659200000000000 C
   0.5206200000000000    0.7055100000000000    0.2786000000000000 C
   0.5574100000000000    0.7774300000000000    0.3161400000000000 C
   0.6135699999999999    0.7813900000000000    0.2761500000000000 C
   0.4708200000000000    0.6815400000000000    0.4083200000000000 C
   0.4640100000000000    0.6971700000000000    0.3202000000000000 C
   0.4292800000000000    0.6263800000000000    0.2800800000000000 C
   0.5645800000000000    0.7617300000000000    0.4050100000000000 C
   0.5081300000000000    0.7529300000000000    0.4458000000000000 C
   0.5131400000000000    0.7389800000000000    0.5340800000000000 C
   0.3131300000000000    0.4604500000000000    0.8266800000000000 C
   0.2532700000000000    0.4399500000000000    0.8039500000000001 C
   0.3393200000000000    0.5323400000000000    0.7750600000000000 C
   0.3979100000000000    0.5574000000000000    0.8026400000000000 C
   0.4243500000000000    0.6319300000000000    0.7547500000000000 C
   0.3133700000000000    0.4873200000000000    0.9139000000000000 C
   0.3982400000000000    0.5844500000000000    0.8897800000000000 C
   0.3723000000000000    0.5127900000000000    0.9418000000000000 C
   0.3690000000000000    0.5404900000000000    0.0279300000000000 C
   0.7709400000000000    0.2054900000000000    0.2215400000000000 C
   0.7211600000000000    0.1808400000000000    0.0920200000000000 C
   0.7143300000000000    0.1966800000000000    0.1800800000000000 C
   0.6799200000000000    0.1257800000000000    0.2207700000000000 C
   0.7582200000000000    0.2524800000000000    0.0542000000000000 C
   0.7631700000000000    0.2386600000000000    0.9659200000000000 C
   0.8147000000000000    0.2616700000000000    0.0948800000000000 C
   0.8075599999999999    0.2775100000000000    0.1830000000000000 C
   0.8636800000000000    0.2816000000000000    0.2237700000000000 C
   0.9368000000000000    0.0392300000000000    0.3261200000000000 C
   0.9967000000000000    0.0600000000000000    0.3036800000000000 C
   0.9108100000000000    0.9669300000000000    0.2749000000000000 C
   0.8522500000000000    0.9415400000000000    0.3025900000000000 C
   0.8258900000000000    0.8666800000000000    0.2552300000000000 C
   0.9365300000000000    0.0127600000000000    0.4135700000000000 C
   0.8520000000000000    0.9148100000000000    0.3898500000000000 C
   0.8776400000000000    0.9869000000000000    0.4414700000000000 C
   0.8810000000000000    0.9595700000000000    0.5276500000000000 C
   0.8131699999999999    0.4604200000000000    0.8266600000000000 C
   0.7533100000000000    0.4399400000000000    0.8039400000000000 C
   0.8393600000000000    0.5323099999999999    0.7750200000000000 C
   0.8979400000000000    0.5574200000000000    0.8026200000000000 C
   0.9243600000000000    0.6319700000000000    0.7547400000000000 C
   0.8134000000000000    0.4873200000000000    0.9139200000000000 C
   0.8982500000000000    0.5844900000000000    0.8897500000000000 C
   0.8723200000000000    0.5128100000000000    0.9418400000000000 C
   0.8690099999999999    0.5404800000000000    0.0279000000000000 C
   0.0207400000000000    0.7054900000000000    0.2786400000000000 C
   0.0574700000000000    0.7774500000000000    0.3161600000000000 C
   0.1136200000000000    0.7814400000000000    0.2761700000000000 C
   0.9709200000000000    0.6814000000000000    0.4082700000000000 C
   0.9641300000000000    0.6970100000000000    0.3201400000000000 C
   0.9296100000000000    0.6260300000000000    0.2799600000000000 C
   0.0646200000000000    0.7617400000000000    0.4050300000000000 C
   0.0081500000000000    0.7528700000000000    0.4457700000000000 C
   0.0131400000000000    0.7389600000000000    0.5340600000000000 C
   0.2290600000000000    0.7945100000000000    0.7784600000000000 C
   0.1924300000000000    0.7224800000000000    0.8163100000000000 C
   0.1363100000000000    0.7183800000000000    0.7762400000000000 C
   0.2788400000000000    0.8191700000000000    0.9079800000000000 C
   0.2856600000000000    0.8033200000000000    0.8199200000000000 C
   0.3200700000000000    0.8742200000000000    0.7792200000000000 C
   0.1853000000000000    0.7383300000000000    0.9051200000000000 C
   0.2417800000000000    0.7475200000000000    0.9458000000000000 C
   0.2368300000000000    0.7613500000000000    0.0340800000000000 C
   0.0000000000000000    0.9399999999999999    0.6963200000000001 C
   0.0632000000000000    0.9607800000000000    0.6738800000000000 C
   0.0891900000000000    0.0330800000000000    0.7251000000000000 C
   0.1477400000000000    0.0584700000000000    0.6974100000000000 C
   0.1741100000000000    0.1333400000000000    0.7447700000000000 C
   0.0634700000000000    0.9872500000000000    0.5864300000000000 C
   0.1479900000000000    0.0852000000000000    0.6101500000000000 C
   0.1223500000000000    0.0131100000000000    0.5585300000000000 C
   0.1190000000000000    0.0404400000000000    0.4723500000000000 C
   0.1868300000000000    0.5395900000000000    0.1733400000000000 C
   0.2466900000000000    0.5600600000000000    0.1960600000000000 C
   0.1606400000000000    0.4677000000000000    0.2249700000000000 C
   0.1020600000000000    0.4426000000000000    0.1973700000000000 C
   0.0756500000000000    0.3680400000000000    0.2452000000000000 C
   0.1866100000000000    0.5126900000000000    0.0860700000000000 C
   0.1017500000000000    0.4155300000000000    0.1102400000000000 C
   0.1276800000000000    0.4872000000000000    0.0581500000000000 C
   0.1309900000000000    0.4595300000000000    0.9720900000000000 C
   0.8613700000000000    0.2882400000000000    0.7367000000000000 O
   0.8637600000000000    0.1450900000000000    0.7460800000000000 O
   0.0843000000000000    0.4434500000000000    0.6843700000000000 O
   0.0835200000000000    0.3631900000000000    0.7931500000000000 O
   0.9396300000000000    0.2519200000000000    0.4332700000000000 O
   0.0305100000000000    0.2818700000000000    0.4265100000000000 O
   0.5136900000000000    0.1402900000000000    0.2997400000000000 O
   0.6111700000000000    0.7878800000000000    0.7634100000000000 O
   0.6138000000000000    0.6448300000000000    0.7538400000000000 O
   0.8333700000000001    0.9443400000000000    0.8141100000000000 O
   0.8335300000000000    0.8629200000000000    0.7063900000000000 O
   0.6896200000000000    0.7520500000000000    0.0660000000000000 O
   0.7804800000000000    0.7821600000000000    0.0734000000000000 O
   0.7777700000000000    0.4962100000000000    0.2065000000000000 O
   0.7638000000000000    0.6402700000000000    0.2001400000000000 O
   0.5230000000000000    0.3620100000000000    0.2432700000000000 O
   0.6085800000000000    0.3173600000000000    0.2799500000000000 O
   0.6207000000000000    0.5172800000000000    0.9210900000000000 O
   0.6458300000000000    0.3816600000000000    0.9597300000000000 O
   0.4721700000000000    0.0000000000000000    0.7066100000000000 O
   0.4863100000000000    0.8597100000000000    0.7002600000000000 O
   0.7266700000000000    0.1409500000000000    0.7411000000000000 O
   0.6411700000000000    0.1829400000000000    0.7805900000000000 O
   0.6292700000000000    0.9823400000000000    0.4217900000000000 O
   0.6041299999999999    0.1181700000000000    0.4590000000000000 O
   0.3888300000000000    0.2121000000000000    0.2365800000000000 O
   0.3862000000000000    0.3551500000000000    0.2461600000000000 O
   0.1666300000000000    0.0556600000000000    0.1858900000000000 O
   0.1664700000000000    0.1370700000000000    0.2936000000000000 O
   0.3103800000000000    0.2479500000000000    0.9332100000000000 O
   0.2195200000000000    0.2178500000000000    0.9265600000000001 O
   0.3958700000000000    0.8818400000000000    0.5405000000000000 O
   0.3707300000000000    0.0176600000000000    0.5782100000000000 O
   0.3614100000000000    0.2882800000000000    0.7367000000000000 O
   0.3637900000000000    0.1451300000000000    0.7460800000000000 O
   0.5851700000000000    0.4426800000000000    0.6840000000000001 O
   0.5834300000000000    0.3631400000000000    0.7932200000000000 O
   0.4396200000000000    0.2519200000000000    0.4332700000000000 O
   0.5305000000000000    0.2818600000000000    0.4264800000000000 O
   0.3588300000000000    0.8170900000000000    0.2194000000000000 O
   0.2733300000000000    0.8590400000000000    0.2589000000000000 O
   0.5278200000000000    0.9962900000000000    0.2933900000000000 O
   0.6385900000000000    0.7117300000000000    0.2632800000000000 O
   0.6362200000000000    0.8548700000000000    0.2539200000000000 O
   0.4149100000000000    0.5572300000000000    0.3159600000000000 O
   0.4165600000000000    0.6368500000000000    0.2067800000000000 O
   0.5603700000000000    0.7480800000000000    0.5667200000000000 O
   0.4695000000000000    0.7181400000000000    0.5735100000000000 O
   0.2222400000000000    0.5037900000000000    0.7935000000000000 O
   0.2362100000000000    0.3597300000000000    0.7998600000000000 O
   0.4770000000000000    0.6380000000000000    0.7567300000000000 O
   0.3914200000000000    0.6826600000000000    0.7200500000000000 O
   0.3793000000000000    0.4827200000000000    0.0788900000000000 O
   0.3541700000000000    0.6183400000000000    0.0402700000000000 O
   0.6666666666666666    0.0556400000000000    0.1858800000000000 O
   0.6664600000000001    0.1370600000000000    0.2930000000000000 O
   0.8103700000000000    0.2479500000000000    0.9332100000000000 O
   0.7195100000000000    0.2178400000000000    0.9265500000000000 O
   0.8888200000000001    0.2119900000000000    0.2365700000000000 O
   0.8862000000000000    0.3550400000000000    0.2461600000000000 O
   0.0278300000000000    0.9962800000000001    0.2933900000000000 O
   0.0136900000000000    0.1402900000000000    0.2997000000000000 O
   0.7733300000000000    0.8590300000000000    0.2589100000000000 O
   0.8588400000000000    0.8171600000000000    0.2193200000000000 O
   0.8707200000000000    0.0176500000000000    0.5781900000000000 O
   0.8958600000000000    0.8818200000000000    0.5404000000000000 O
   0.7223000000000001    0.5038100000000000    0.7935100000000000 O
   0.7362200000000000    0.3597400000000000    0.7998600000000000 O
   0.9770000000000000    0.6381000000000000    0.7567500000000000 O
   0.8914200000000000    0.6826700000000000    0.7200299999999999 O
   0.8793200000000000    0.4826600000000000    0.0788200000000000 O
   0.8541800000000001    0.6183200000000000    0.0402800000000000 O
   0.1386400000000000    0.7117700000000000    0.2633000000000000 O
   0.1362500000000000    0.8549200000000000    0.2539000000000000 O
   0.9158900000000000    0.5564000000000000    0.3155500000000000 O
   0.9164600000000001    0.6368000000000000    0.2068600000000000 O
   0.0603700000000000    0.7480700000000000    0.5667200000000000 O
   0.9694900000000000    0.7181300000000000    0.5734800000000000 O
   0.1111800000000000    0.7880000000000000    0.7634200000000000 O
   0.1138000000000000    0.6449400000000000    0.7538400000000000 O
   0.3333800000000000    0.9443500000000000    0.8141100000000000 O
   0.3335400000000000    0.8629300000000000    0.7064000000000000 O
   0.1896300000000000    0.7520500000000000    0.0668000000000000 O
   0.2804900000000000    0.7821600000000000    0.0734500000000000 O
   0.9721700000000000    0.0000000000000000    0.7066100000000000 O
   0.9863200000000000    0.8597100000000000    0.7002500000000000 O
   0.2266700000000000    0.1409500000000000    0.7411200000000000 O
   0.1411600000000000    0.1828800000000000    0.7806600000000000 O
   0.1292800000000000    0.9823499999999999    0.4218200000000000 O
   0.1041400000000000    0.1181900000000000    0.4595100000000000 O
   0.2777000000000000    0.4961900000000000    0.2064900000000000 O
   0.2637900000000000    0.6402600000000001    0.2001300000000000 O
   0.0230000000000000    0.3619000000000000    0.2432400000000000 O
   0.1085900000000000    0.3173500000000000    0.2799800000000000 O
   0.1206900000000000    0.5173400000000000    0.9211000000000000 O
   0.1458200000000000    0.3816800000000000    0.9597200000000000 O
