H9 O6
1.0
  24.1649998675005619    0.0000000000000000   -0.0025305528778388
  -0.4640754549176737   15.3739775274723733    0.0246973058741599
   0.0000000000000000    0.0000000000000000   17.0429999999999993
H O
9 6
direct
   0.4043689890334806    0.8357853394324873    0.5040120053268926 H
   0.3596373564167453    0.0774599999860782    0.5728184128688991 H
   0.3811770662414389   -0.0389509789976685    0.5333584893243697 H
   0.3989513145585769    0.8194134948622244    0.2169675932683700 H
   0.2471294041857665    0.8939035717470349    0.2871073042638700 H
   0.3250527643593316    0.8620353549272044    0.2557642403273585 H
   0.4910199089414907    0.9787789675333823    0.2941814673444570 H
   0.5191269889541876    0.9343574217130745    0.2912585402873578 H
   0.4749509708723491    0.1218563391783188    0.3005731684957452 H
   0.3958700000000000    0.8818400000000000    0.5405000000000000 O
   0.3707300000000000    0.0176600000000000    0.5782100000000000 O
   0.3588300000000000    0.8170900000000000    0.2194000000000000 O
   0.2733300000000000    0.8590400000000000    0.2589000000000000 O
   0.5278200000000000    0.9962900000000000    0.2933900000000000 O
   0.5136900000000000    0.1402900000000000    0.2997400000000000 O
