H3 C8 S1 O7
1.0
  20.6208562319002020    0.0000000000000000    1.1337514115989660
   2.4092232036434060   12.7062177624399659    2.4195707736045446
   0.0000000000000000    0.0000000000000000   17.9939999999999998
H C S O
3 8 1 7
direct
   0.7899600000000000    0.1979300000000000    0.6943900000000000 H
   0.7233300000000000    0.9141300000000000    0.8006100000000000 H
   0.5824900000000000    0.1859700000000000    0.7048900000000000 H
   0.6848000000000000    0.2032200000000000    0.6948400000000000 C
   0.7499700000000000    0.1551000000000000    0.7115300000000000 C
   0.7642300000000000    0.0504300000000000    0.7496900000000000 C
   0.8343000000000000    0.9967500000000000    0.7666300000000000 C
   0.7126400000000001    0.9953800000000000    0.7712200000000000 C
   0.6471100000000000    0.0438400000000000    0.7554500000000000 C
   0.5923900000000000    0.9824100000000000    0.7779800000000000 C
   0.6333600000000000    0.1483300000000000    0.7172700000000000 C
   0.6654200000000000    0.3355200000000000    0.6428000000000000 S
   0.7277000000000000    0.3515900000000000    0.5998500000000000 O
   0.6470100000000000    0.4058800000000000    0.6983500000000000 O
   0.6114300000000000    0.3336700000000000    0.5924800000000000 O
   0.8793400000000000    1.0531199999999998    0.7562900000000000 O
   0.8468599999999999    0.8978699999999999    0.7904000000000000 O
   0.6051700000000000    0.8905000000000000    0.8154700000000000 O
   0.5339000000000000    0.0299800000000000    0.7562200000000000 O
