H6 O4
1.0
  34.4480000000000004    0.0000000000000000    0.0000000000000021
   0.0000000000000028   17.2332117415511057   -0.1648304306403815
   0.0000000000000000    0.0000000000000000   34.5840000000000032
H O
6 4
direct
   0.2550743630813674    0.9042646102155066    0.7491161551372373 H
   0.1965820155076611    0.8964450005978768    0.6519453393048241 H
   0.2278096740560961    0.9109888075342283    0.6988978445313410 H
   0.1896797291931733    0.0723908626824963    0.6056631065481333 H
   0.2676181906498025    0.2169526605627615    0.6440438072298752 H
   0.2283987217446439    0.1423620850698901    0.6310550636661277 H
   0.2374750000000000    0.8753800000000000    0.7324800000000000 O
   0.2034750000000000    0.8710500000000000    0.6758950000000000 O
   0.2084600000000000    0.1119100000000000    0.5988550000000000 O
   0.2538600000000000    0.1959400000000000    0.6218250000000000 O
