H5 C9 S1 N2 O2
1.0
  30.3199933316081243    0.0000000000000000   -0.0201089840355624
  -0.0187342310598726   10.5224830086756640   -0.0025711317619902
   0.0000000000000000    0.0000000000000000   26.5199999999999996
H C S N O
5 9 1 2 2
direct
   0.7412425000000000    0.1027500000000000    0.0671600000000000 H
   0.7439425000000000    0.5603500000000000    0.0115450000000000 H
   0.6944325000000000    0.8443700000000000    0.9068149999999999 H
   0.6913250000000000    0.6747200000000000    0.8419650000000001 H
   0.7351250000000000    0.4019000000000000    0.9432900000000000 H
   0.7231550000000000    0.8958900000000000    0.1394850000000000 C
   0.7241000000000000    0.9008600000000000    0.0822800000000000 C
   0.7334525000000001    0.0073900000000000    0.0538650000000000 C
   0.7220850000000000    0.8142200000000001    0.0045850000000000 C
   0.7194400000000000    0.7174000000000000    0.9651300000000000 C
   0.7056775000000000    0.7485800000000000    0.9160400000000000 C
   0.7030450000000000    0.6534799999999999    0.8798699999999999 C
   0.7271775000000000    0.5014000000000000    0.9364700000000000 C
   0.7312600000000000    0.5904600000000000    0.9748550000000000 C
   0.7339925000000000    0.9722700000000000    0.9910099999999999 S
   0.7174625000000000    0.7929000000000000    0.0537000000000000 N
   0.7127650000000000    0.5302900000000000    0.8894599999999999 N
   0.7151050000000000    0.7896700000000000    0.1600300000000000 O
   0.7313800000000000    0.9998700000000000    0.1621250000000000 O
