H8 O4
1.0
  21.6439964100356761    0.0000000000000000    0.0124660483997333
  -0.1302088103027204   27.6586943562283736   -0.2351003497668128
   0.0000000000000000    0.0000000000000000   27.3799999999999990
H O
8 4
direct
   0.0893221271366263    0.6991708292015195    0.4926155149196008 H
   0.0373038165304027    0.6540125065224570    0.4955006173851192 H
   0.0879179992885868    0.5509990382530450    0.7557392045847136 H
   0.0372043200095032    0.5967173907234523    0.7531458617798481 H
   0.6583948789739633    0.7588845064065317    0.6997081418329748 H
   0.7108758404314015    0.7557683750971821    0.6545723710174399 H
   0.7102877829482206    0.4959364625787597    0.5953872085826608 H
   0.6591412560174840    0.4910735845720068    0.5494648291591380 H
   0.0731000000000000    0.6686650000000001    0.4794400000000000 O
   0.0726300000000000    0.5816400000000000    0.7690350000000000 O
   0.6751800000000000    0.7718650000000000    0.6693000000000000 O
   0.6753500000000000    0.4788900000000000    0.5803400000000000 O
