H24 C25 N4 O4
1.0
  21.6439964100356761    0.0000000000000000    0.0124660483997333
  -0.1302088103027204   27.6586943562283736   -0.2351003497668128
   0.0000000000000000    0.0000000000000000   27.3799999999999990
H C N O
24 25 4 4
direct
   0.0061900000000000    0.6146700000000000    0.4862400000000000 H
   0.1358900000000000    0.7257400000000001    0.4791550000000000 H
   0.6584600000000000    0.5481950000000000    0.4802100000000000 H
   0.0848900000000000    0.4822750000000000    0.6970800000000000 H
   0.7410900000000000    0.4881500000000000    0.6352599999999999 H
   0.6135400000000000    0.4761400000000000    0.5223250000000000 H
   0.9968500000000000    0.7321000000000000    0.5915950000000000 H
   0.0885400000000000    0.7680750000000001    0.5511000000000000 H
   0.9461000000000001    0.6787750000000000    0.6303900000000000 H
   0.8865900000000000    0.6960550000000000    0.5888000000000000 H
   0.0073100000000000    0.6363650000000000    0.7625850000000001 H
   0.9940400000000000    0.5193000000000000    0.6570549999999999 H
   0.1337300000000000    0.5238800000000000    0.7689900000000001 H
   0.9447000000000000    0.5732900000000000    0.6186050000000000 H
   0.8849600000000000    0.5564500000000000    0.6603500000000000 H
   0.7425700000000000    0.7647649999999999    0.6153250000000000 H
   0.7485900000000000    0.6601250000000000    0.7319800000000000 H
   0.6573099999999999    0.7008700000000000    0.7681800000000000 H
   0.6117400000000000    0.7724650000000000    0.7262950000000000 H
   0.7988300000000000    0.6215800000000000    0.6775850000000000 H
   0.8598100000000000    0.6616050000000000    0.6960000000000000 H
   0.7478399999999999    0.5914200000000001    0.5173449999999999 H
   0.7984500000000000    0.6318300000000000    0.5722150000000000 H
   0.8579599999999999    0.5909200000000000    0.5536650000000000 H
   0.0955700000000000    0.7109200000000000    0.4976900000000000 C
   0.6528600000000000    0.4957950000000000    0.5375000000000000 C
   0.0239100000000000    0.6485300000000001    0.5015100000000000 C
   0.9954600000000000    0.6694850000000000    0.5426050000000000 C
   0.0179400000000000    0.7136000000000000    0.5606600000000000 C
   0.0691600000000000    0.7340750000000000    0.5376550000000000 C
   0.9139400000000000    0.6654949999999999    0.6021450000000000 C
   0.0239700000000000    0.6023499999999999    0.7472100000000000 C
   0.9947300000000000    0.5817950000000001    0.7061850000000001 C
   0.0158500000000000    0.5374900000000000    0.6879400000000000 C
   0.0665700000000000    0.5164250000000000    0.7107000000000000 C
   0.0938100000000000    0.5391900000000001    0.7506150000000000 C
   0.9130300000000000    0.5867900000000000    0.6470100000000000 C
   0.7242000000000000    0.7497600000000000    0.6490750000000001 C
   0.7516600000000000    0.7088400000000000    0.6697200000000000 C
   0.7283600000000000    0.6909800000000000    0.7136850000000000 C
   0.6773400000000001    0.7140900000000000    0.7342900000000000 C
   0.6519300000000000    0.7538850000000000    0.7114199999999999 C
   0.8318600000000000    0.6490950000000000    0.6648450000000000 C
   0.7233200000000000    0.5022950000000000    0.6010000000000000 C
   0.7504400000000000    0.5434950000000000    0.5801499999999999 C
   0.7278800000000000    0.5603050000000001    0.5356450000000000 C
   0.6779400000000000    0.5358250000000000    0.5145750000000000 C
   0.8306800000000000    0.6039700000000000    0.5849400000000000 C
   0.8723700000000000    0.6263600000000000    0.6247050000000000 C
   0.0731000000000000    0.6686650000000001    0.4794400000000000 N
   0.6753500000000000    0.4788900000000000    0.5803400000000000 N
   0.0726300000000000    0.5816400000000000    0.7690350000000000 N
   0.6751800000000000    0.7718650000000000    0.6693000000000000 N
   0.9474000000000000    0.6438650000000000    0.5620849999999999 O
   0.9473200000000001    0.6079800000000000    0.6870000000000001 O
   0.7996900000000000    0.6894450000000000    0.6439000000000000 O
   0.7973900000000000    0.5642199999999999    0.6064250000000000 O
