H1 O1
1.0
  21.6439964100356761    0.0000000000000000    0.0124660483997333
  -0.1302088103027204   27.6586943562283736   -0.2351003497668128
   0.0000000000000000    0.0000000000000000   27.3799999999999990
H O
1 1
direct
   0.5037029001294825    0.1837445745608925    0.3536751126457888 H
   0.4585500000000000    0.1820750000000000    0.3547000000000000 O
