Cu64 H385 C463 S63 N127 O65
1.0
  21.6439964100356761    0.0000000000000000    0.0124660483997333
  -0.1302088103027204   27.6586943562283736   -0.2351003497668128
   0.0000000000000000    0.0000000000000000   27.3799999999999990
Cu H C S N O
64 385 463 63 127 65
direct
   0.3706200000000000    0.5790150000000001    0.8897649999999999 Cu
   0.8798100000000000    0.3604250000000000    0.0789200000000000 Cu
   0.3708100000000000    0.1707050000000000    0.8602099999999999 Cu
   0.8797600000000000    0.3896800000000000    0.6727350000000000 Cu
   0.6294100000000000    0.4209950000000000    0.6102150000000000 Cu
   0.1202200000000000    0.6395850000000000    0.4210650000000000 Cu
   0.1202700000000000    0.6103300000000000    0.8272450000000000 Cu
   0.6292200000000000    0.8293050000000000    0.6397650000000000 Cu
   0.3706200000000000    0.0790150000000000    0.3897650000000000 Cu
   0.8798100000000000    0.8604250000000000    0.5789200000000000 Cu
   0.3708100000000000    0.6707050000000000    0.3602100000000000 Cu
   0.8797600000000000    0.8896800000000000    0.1727350000000000 Cu
   0.6294100000000000    0.9209950000000000    0.1102150000000000 Cu
   0.1202200000000000    0.1395850000000000    0.9210650000000000 Cu
   0.1202700000000000    0.1103300000000000    0.3272450000000000 Cu
   0.6292200000000000    0.3293050000000000    0.1397650000000000 Cu
   0.6210000000000000    0.6396150000000000    0.9210149999999999 Cu
   0.1301700000000000    0.4210300000000000    0.1101650000000000 Cu
   0.1287100000000000    0.8291900000000000    0.1398000000000000 Cu
   0.6211100000000001    0.6103900000000000    0.3272300000000000 Cu
   0.3790300000000000    0.3603950000000000    0.5789600000000000 Cu
   0.8698600000000000    0.5789800000000001    0.3898100000000000 Cu
   0.8713600000000000    0.1708200000000000    0.3601350000000000 Cu
   0.3789300000000000    0.3896200000000000    0.1727500000000000 Cu
   0.6210000000000000    0.1396150000000000    0.4210150000000000 Cu
   0.1301700000000000    0.9210300000000000    0.6101650000000000 Cu
   0.1287100000000000    0.3291900000000000    0.6398000000000000 Cu
   0.6211100000000001    0.1103900000000000    0.8272300000000000 Cu
   0.3790300000000000    0.8603950000000000    0.0789600000000000 Cu
   0.8698600000000000    0.0789800000000000    0.8898100000000000 Cu
   0.8713600000000000    0.6708200000000000    0.8601350000000000 Cu
   0.3789300000000000    0.8896200000000001    0.6727500000000000 Cu
   0.3706200000000000    0.5790150000000001    0.3897650000000000 Cu
   0.8798100000000000    0.3604250000000000    0.5789200000000000 Cu
   0.3708100000000000    0.1707050000000000    0.3602100000000000 Cu
   0.8797600000000000    0.3896800000000000    0.1727350000000000 Cu
   0.6294100000000000    0.4209950000000000    0.1102150000000000 Cu
   0.1202200000000000    0.6395850000000000    0.9210650000000000 Cu
   0.1202700000000000    0.6103300000000000    0.3272450000000000 Cu
   0.6292200000000000    0.8293050000000000    0.1397650000000000 Cu
   0.3706200000000000    0.0790150000000000    0.8897649999999999 Cu
   0.8798100000000000    0.8604250000000000    0.0789200000000000 Cu
   0.3708100000000000    0.6707050000000000    0.8602099999999999 Cu
   0.8797600000000000    0.8896800000000000    0.6727350000000000 Cu
   0.6294100000000000    0.9209950000000000    0.6102150000000000 Cu
   0.1202200000000000    0.1395850000000000    0.4210650000000000 Cu
   0.1202700000000000    0.1103300000000000    0.8272450000000000 Cu
   0.6292200000000000    0.3293050000000000    0.6397650000000000 Cu
   0.6210000000000000    0.6396150000000000    0.4210150000000000 Cu
   0.1301700000000000    0.4210300000000000    0.6101650000000000 Cu
   0.1287100000000000    0.8291900000000000    0.6398000000000000 Cu
   0.6211100000000001    0.6103900000000000    0.8272300000000000 Cu
   0.3790300000000000    0.3603950000000000    0.0789600000000000 Cu
   0.8698600000000000    0.5789800000000001    0.8898100000000000 Cu
   0.8713600000000000    0.1708200000000000    0.8601350000000000 Cu
   0.3789300000000000    0.3896200000000000    0.6727500000000000 Cu
   0.6210000000000000    0.1396150000000000    0.9210149999999999 Cu
   0.1301700000000000    0.9210300000000000    0.1101650000000000 Cu
   0.1287100000000000    0.3291900000000000    0.1398000000000000 Cu
   0.6211100000000001    0.1103900000000000    0.3272300000000000 Cu
   0.3790300000000000    0.8603950000000000    0.5789600000000000 Cu
   0.8698600000000000    0.0789800000000000    0.3898100000000000 Cu
   0.8713600000000000    0.6708200000000000    0.3601350000000000 Cu
   0.3789300000000000    0.8896200000000001    0.1727500000000000 Cu
   0.1420700000000000    0.4090900000000000    0.9463150000000000 H
   0.2015800000000000    0.3681850000000000    0.9277599999999999 H
   0.2521800000000000    0.4085950000000000    0.9826349999999999 H
   0.3415700000000000    0.4518150000000000    0.0197500000000000 H
   0.3864900000000000    0.5238699999999999    0.9776500000000000 H
   0.2589300000000000    0.5118650000000000    0.8647199999999999 H
   0.9151400000000000    0.5177450000000000    0.8028950000000000 H
   0.0000000000000000    0.4807150000000000    0.8429249999999999 H
   0.8663000000000000    0.4761400000000000    0.7309850000000000 H
   0.9927100000000000    0.3636450000000000    0.7374050000000000 H
   0.1150700000000000    0.4435600000000000    0.8395900000000001 H
   0.0553300000000000    0.4267250000000000    0.8813800000000001 H
   0.9115000000000000    0.2319350000000000    0.9488850000000000 H
   0.0000000000000000    0.2679050000000000    0.9083900000000000 H
   0.8641400000000000    0.2742700000000000    0.0208300000000000 H
   0.9938399999999999    0.3853400000000000    0.0137400000000000 H
   0.1134400000000000    0.3039600000000000    0.9111500000000000 H
   0.0539300000000000    0.3212300000000000    0.8695950000000000 H
   0.1402200000000000    0.3384150000000000    0.8039600000000000 H
   0.2012000000000000    0.3784300000000000    0.8224000000000000 H
   0.2514600000000000    0.3399000000000000    0.7680050000000000 H
   0.3427400000000000    0.2991650000000000    0.7318150000000000 H
   0.3883000000000000    0.2275600000000000    0.7736950000000000 H
   0.2574500000000000    0.2352400000000000    0.8846499999999999 H
   0.8579599999999999    0.5909200000000000    0.5536650000000000 H
   0.7984500000000000    0.6318300000000000    0.5722150000000000 H
   0.7478399999999999    0.5914200000000001    0.5173449999999999 H
   0.6584600000000000    0.5481950000000000    0.4802100000000000 H
   0.6135400000000000    0.4761400000000000    0.5223250000000000 H
   0.7410900000000000    0.4881500000000000    0.6352599999999999 H
   0.8849600000000000    0.5564500000000000    0.6603500000000000 H
   0.9447000000000000    0.5732900000000000    0.6186050000000000 H
   0.9940400000000000    0.5193000000000000    0.6570549999999999 H
   0.0848900000000000    0.4822750000000000    0.6970800000000000 H
   0.1337300000000000    0.5238800000000000    0.7689900000000001 H
   0.0073100000000000    0.6363650000000000    0.7625850000000001 H
   0.8598100000000000    0.6616050000000000    0.6960000000000000 H
   0.7988300000000000    0.6215800000000000    0.6775850000000000 H
   0.7485900000000000    0.6601250000000000    0.7319800000000000 H
   0.6573099999999999    0.7008700000000000    0.7681800000000000 H
   0.6117400000000000    0.7724650000000000    0.7262950000000000 H
   0.7425700000000000    0.7647649999999999    0.6153250000000000 H
   0.8865900000000000    0.6960550000000000    0.5888000000000000 H
   0.9461000000000001    0.6787750000000000    0.6303900000000000 H
   0.9968500000000000    0.7321000000000000    0.5915950000000000 H
   0.0885400000000000    0.7680750000000001    0.5511000000000000 H
   0.1358900000000000    0.7257400000000001    0.4791550000000000 H
   0.0061900000000000    0.6146700000000000    0.4862400000000000 H
   0.1420700000000000    0.9090900000000000    0.4463150000000000 H
   0.2015800000000000    0.8681850000000000    0.4277600000000000 H
   0.2521800000000000    0.9085950000000000    0.4826350000000000 H
   0.3415700000000000    0.9518150000000001    0.5197500000000000 H
   0.3864900000000000    0.0238700000000000    0.4776500000000000 H
   0.2589300000000000    0.0118650000000000    0.3647200000000000 H
   0.9151400000000000    0.0177450000000000    0.3028950000000000 H
   0.0000000000000000    0.9807150000000000    0.3429250000000000 H
   0.8663000000000000    0.9761400000000000    0.2309850000000000 H
   0.9927100000000000    0.8636450000000000    0.2374050000000000 H
   0.1150700000000000    0.9435600000000000    0.3395900000000000 H
   0.0553300000000000    0.9267250000000000    0.3813800000000000 H
   0.9115000000000000    0.7319350000000000    0.4488850000000000 H
   0.0000000000000000    0.7679050000000001    0.4083900000000000 H
   0.8641400000000000    0.7742700000000000    0.5208300000000000 H
   0.9938399999999999    0.8853400000000000    0.5137400000000000 H
   0.1134400000000000    0.8039600000000000    0.4111500000000000 H
   0.0539300000000000    0.8212300000000000    0.3695950000000000 H
   0.1402200000000000    0.8384150000000000    0.3039600000000000 H
   0.2012000000000000    0.8784300000000000    0.3224000000000000 H
   0.2514600000000000    0.8399000000000000    0.2680050000000000 H
   0.3427400000000000    0.7991650000000000    0.2318150000000000 H
   0.3883000000000000    0.7275600000000000    0.2736950000000000 H
   0.2574500000000000    0.7352400000000000    0.3846500000000000 H
   0.8579599999999999    0.0909200000000000    0.0536650000000000 H
   0.7984500000000000    0.1318300000000000    0.0722150000000000 H
   0.7478399999999999    0.0914200000000000    0.0173450000000000 H
   0.6584600000000000    0.0481950000000000    0.9802100000000000 H
   0.6135400000000000    0.9761400000000000    0.0223250000000000 H
   0.7410900000000000    0.9881500000000000    0.1352600000000000 H
   0.8849600000000000    0.0564500000000000    0.1603500000000000 H
   0.9447000000000000    0.0732900000000000    0.1186050000000000 H
   0.9940400000000000    0.0193000000000000    0.1570550000000000 H
   0.0848900000000000    0.9822750000000000    0.1970800000000000 H
   0.1337300000000000    0.0238800000000000    0.2689900000000000 H
   0.0073100000000000    0.1363650000000000    0.2625850000000000 H
   0.8598100000000000    0.1616050000000000    0.1960000000000000 H
   0.7988300000000000    0.1215800000000000    0.1775850000000000 H
   0.7485900000000000    0.1601250000000000    0.2319800000000000 H
   0.6573099999999999    0.2008700000000000    0.2681800000000000 H
   0.6117400000000000    0.2724650000000000    0.2262950000000000 H
   0.7425700000000000    0.2647650000000000    0.1153250000000000 H
   0.8865900000000000    0.1960550000000000    0.0888000000000000 H
   0.9461000000000001    0.1787750000000000    0.1303900000000000 H
   0.9968500000000000    0.2321000000000000    0.0915950000000000 H
   0.0885400000000000    0.2680750000000000    0.0511000000000000 H
   0.1358900000000000    0.2257400000000000    0.9791550000000000 H
   0.0061900000000000    0.1146700000000000    0.9862400000000000 H
   0.3587900000000000    0.5911600000000000    0.0536500000000000 H
   0.2989800000000000    0.6317650000000000    0.0723000000000000 H
   0.2486900000000000    0.5914250000000000    0.0174050000000000 H
   0.1591700000000000    0.5483350000000000    0.9803350000000000 H
   0.1142700000000000    0.4762300000000000    0.0224050000000000 H
   0.2421600000000000    0.4879500000000000    0.1351400000000000 H
   0.3855000000000000    0.5567100000000000    0.1606000000000000 H
   0.4451600000000000    0.5733800000000000    0.1187000000000000 H
   0.4944100000000000    0.5193050000000000    0.1572100000000000 H
   0.5850300000000000    0.4820550000000000    0.1973300000000000 H
   0.6340700000000000    0.5236250000000000    0.2691750000000000 H
   0.5083100000000000    0.6365350000000000    0.2624950000000000 H
   0.3601500000000000    0.6621400000000000    0.1958900000000000 H
   0.2996000000000000    0.6215750000000000    0.1778150000000000 H
   0.2489900000000000    0.6602300000000000    0.2321150000000000 H
   0.1580000000000000    0.7011700000000000    0.2685950000000000 H
   0.1122600000000000    0.7726850000000001    0.2267350000000000 H
   0.2423300000000000    0.7645900000000000    0.1152300000000000 H
   0.3871600000000000    0.6961150000000000    0.0886700000000000 H
   0.4465400000000000    0.6790900000000000    0.1304650000000000 H
   0.4974400000000000    0.7323300000000000    0.0914500000000000 H
   0.5889100000000000    0.7683949999999999    0.0507500000000000 H
   0.6362700000000000    0.7259550000000000    0.9788749999999999 H
   0.5070200000000000    0.6146050000000000    0.9864750000000000 H
   0.6399000000000000    0.3378550000000000    0.3040900000000000 H
   0.7004500000000000    0.3784350000000000    0.3221650000000000 H
   0.7510599999999999    0.3397800000000000    0.2678650000000000 H
   0.8420600000000000    0.2988500000000000    0.2313850000000000 H
   0.8878100000000000    0.2273350000000000    0.2732450000000000 H
   0.7577500000000000    0.2354300000000000    0.3847600000000000 H
   0.6412500000000000    0.4088400000000000    0.4463000000000000 H
   0.7010700000000000    0.3682450000000000    0.4276750000000000 H
   0.7513400000000000    0.4085900000000000    0.4825750000000000 H
   0.8408600000000001    0.4516850000000000    0.5196450000000000 H
   0.8857600000000000    0.5237849999999999    0.4775700000000000 H
   0.7578700000000000    0.5120650000000000    0.3648400000000000 H
   0.6145500000000000    0.4432900000000000    0.3393250000000000 H
   0.5548999999999999    0.4266250000000000    0.3812600000000000 H
   0.5056300000000000    0.4807000000000000    0.3427750000000000 H
   0.4150100000000000    0.5179549999999999    0.3026550000000000 H
   0.3659700000000000    0.4763850000000000    0.2308050000000000 H
   0.4917200000000000    0.3634650000000000    0.2374900000000000 H
   0.6128800000000000    0.3038900000000000    0.4113000000000000 H
   0.5535200000000000    0.3209050000000000    0.3695150000000000 H
   0.5026000000000000    0.2676700000000000    0.4084950000000000 H
   0.4111400000000000    0.2316050000000000    0.4492400000000000 H
   0.3637900000000000    0.2740450000000000    0.5211150000000000 H
   0.4930100000000000    0.3854050000000000    0.5134950000000000 H
   0.3587900000000000    0.0911600000000000    0.5536500000000000 H
   0.2989800000000000    0.1317650000000000    0.5723000000000000 H
   0.2486900000000000    0.0914250000000000    0.5174050000000000 H
   0.1591700000000000    0.0483350000000000    0.4803350000000000 H
   0.1142700000000000    0.9762299999999999    0.5224050000000000 H
   0.2421600000000000    0.9879500000000000    0.6351400000000000 H
   0.3855000000000000    0.0567100000000000    0.6606000000000000 H
   0.4451600000000000    0.0733800000000000    0.6187000000000000 H
   0.4944100000000000    0.0193050000000000    0.6572100000000000 H
   0.5850300000000000    0.9820550000000000    0.6973300000000000 H
   0.6340700000000000    0.0236250000000000    0.7691749999999999 H
   0.5083100000000000    0.1365350000000000    0.7624949999999999 H
   0.3601500000000000    0.1621400000000000    0.6958900000000000 H
   0.2996000000000000    0.1215750000000000    0.6778150000000001 H
   0.2489900000000000    0.1602300000000000    0.7321150000000000 H
   0.1580000000000000    0.2011700000000000    0.7685949999999999 H
   0.1122600000000000    0.2726850000000000    0.7267350000000000 H
   0.2423300000000000    0.2645900000000000    0.6152299999999999 H
   0.3871600000000000    0.1961150000000000    0.5886700000000000 H
   0.4465400000000000    0.1790900000000000    0.6304650000000001 H
   0.4974400000000000    0.2323300000000000    0.5914500000000000 H
   0.5889100000000000    0.2683950000000000    0.5507500000000000 H
   0.6362700000000000    0.2259550000000000    0.4788750000000000 H
   0.5070200000000000    0.1146050000000000    0.4864750000000000 H
   0.6399000000000000    0.8378550000000000    0.8040900000000000 H
   0.7004500000000000    0.8784350000000001    0.8221650000000000 H
   0.7510599999999999    0.8397800000000000    0.7678650000000000 H
   0.8420600000000000    0.7988500000000001    0.7313850000000000 H
   0.8878100000000000    0.7273350000000001    0.7732450000000000 H
   0.7577500000000000    0.7354300000000000    0.8847600000000000 H
   0.6412500000000000    0.9088400000000000    0.9462999999999999 H
   0.7010700000000000    0.8682449999999999    0.9276750000000000 H
   0.7513400000000000    0.9085900000000000    0.9825750000000000 H
   0.8408600000000001    0.9516850000000000    0.0196450000000000 H
   0.8857600000000000    0.0237850000000000    0.9775700000000001 H
   0.7578700000000000    0.0120650000000000    0.8648400000000001 H
   0.6145500000000000    0.9432900000000000    0.8393250000000000 H
   0.5548999999999999    0.9266250000000000    0.8812599999999999 H
   0.5056300000000000    0.9807000000000000    0.8427750000000001 H
   0.4150100000000000    0.0179550000000000    0.8026550000000000 H
   0.3659700000000000    0.9763850000000001    0.7308050000000000 H
   0.4917200000000000    0.8634649999999999    0.7374900000000000 H
   0.6128800000000000    0.8038900000000000    0.9113000000000000 H
   0.5535200000000000    0.8209050000000000    0.8695150000000000 H
   0.5026000000000000    0.7676700000000001    0.9084950000000001 H
   0.4111400000000000    0.7316050000000001    0.9492400000000000 H
   0.3637900000000000    0.7740450000000000    0.0211150000000000 H
   0.4930100000000000    0.8854050000000000    0.0134950000000000 H
   0.5037029001294825    0.1837445745608925    0.3536751126457888 H
   0.1420700000000000    0.4090900000000000    0.4463150000000000 H
   0.2015800000000000    0.3681850000000000    0.4277600000000000 H
   0.2521800000000000    0.4085950000000000    0.4826350000000000 H
   0.3415700000000000    0.4518150000000000    0.5197500000000000 H
   0.3864900000000000    0.5238699999999999    0.4776500000000000 H
   0.2589300000000000    0.5118650000000000    0.3647200000000000 H
   0.9151400000000000    0.5177450000000000    0.3028950000000000 H
   0.0000000000000000    0.4807150000000000    0.3429250000000000 H
   0.8663000000000000    0.4761400000000000    0.2309850000000000 H
   0.9927100000000000    0.3636450000000000    0.2374050000000000 H
   0.1150700000000000    0.4435600000000000    0.3395900000000000 H
   0.0553300000000000    0.4267250000000000    0.3813800000000000 H
   0.9115000000000000    0.2319350000000000    0.4488850000000000 H
   0.0000000000000000    0.2679050000000000    0.4083900000000000 H
   0.8641400000000000    0.2742700000000000    0.5208300000000000 H
   0.9938399999999999    0.3853400000000000    0.5137400000000000 H
   0.1134400000000000    0.3039600000000000    0.4111500000000000 H
   0.0539300000000000    0.3212300000000000    0.3695950000000000 H
   0.1402200000000000    0.3384150000000000    0.3039600000000000 H
   0.2012000000000000    0.3784300000000000    0.3224000000000000 H
   0.2514600000000000    0.3399000000000000    0.2680050000000000 H
   0.3427400000000000    0.2991650000000000    0.2318150000000000 H
   0.3883000000000000    0.2275600000000000    0.2736950000000000 H
   0.2574500000000000    0.2352400000000000    0.3846500000000000 H
   0.8579599999999999    0.5909200000000000    0.0536650000000000 H
   0.7984500000000000    0.6318300000000000    0.0722150000000000 H
   0.7478399999999999    0.5914200000000001    0.0173450000000000 H
   0.6584600000000000    0.5481950000000000    0.9802100000000000 H
   0.6135400000000000    0.4761400000000000    0.0223250000000000 H
   0.7410900000000000    0.4881500000000000    0.1352600000000000 H
   0.8849600000000000    0.5564500000000000    0.1603500000000000 H
   0.9447000000000000    0.5732900000000000    0.1186050000000000 H
   0.9940400000000000    0.5193000000000000    0.1570550000000000 H
   0.0848900000000000    0.4822750000000000    0.1970800000000000 H
   0.1337300000000000    0.5238800000000000    0.2689900000000000 H
   0.0073100000000000    0.6363650000000000    0.2625850000000000 H
   0.8598100000000000    0.6616050000000000    0.1960000000000000 H
   0.7988300000000000    0.6215800000000000    0.1775850000000000 H
   0.7485900000000000    0.6601250000000000    0.2319800000000000 H
   0.6573099999999999    0.7008700000000000    0.2681800000000000 H
   0.6117400000000000    0.7724650000000000    0.2262950000000000 H
   0.7425700000000000    0.7647649999999999    0.1153250000000000 H
   0.8865900000000000    0.6960550000000000    0.0888000000000000 H
   0.9461000000000001    0.6787750000000000    0.1303900000000000 H
   0.9968500000000000    0.7321000000000000    0.0915950000000000 H
   0.0885400000000000    0.7680750000000001    0.0511000000000000 H
   0.1358900000000000    0.7257400000000001    0.9791550000000000 H
   0.0061900000000000    0.6146700000000000    0.9862400000000000 H
   0.1420700000000000    0.9090900000000000    0.9463150000000000 H
   0.2015800000000000    0.8681850000000000    0.9277599999999999 H
   0.2521800000000000    0.9085950000000000    0.9826349999999999 H
   0.3415700000000000    0.9518150000000001    0.0197500000000000 H
   0.3864900000000000    0.0238700000000000    0.9776500000000000 H
   0.2589300000000000    0.0118650000000000    0.8647199999999999 H
   0.9151400000000000    0.0177450000000000    0.8028950000000000 H
   0.0000000000000000    0.9807150000000000    0.8429249999999999 H
   0.8663000000000000    0.9761400000000000    0.7309850000000000 H
   0.9927100000000000    0.8636450000000000    0.7374050000000000 H
   0.1150700000000000    0.9435600000000000    0.8395900000000001 H
   0.0553300000000000    0.9267250000000000    0.8813800000000001 H
   0.9115000000000000    0.7319350000000000    0.9488850000000000 H
   0.0000000000000000    0.7679050000000001    0.9083900000000000 H
   0.8641400000000000    0.7742700000000000    0.0208300000000000 H
   0.9938399999999999    0.8853400000000000    0.0137400000000000 H
   0.1134400000000000    0.8039600000000000    0.9111500000000000 H
   0.0539300000000000    0.8212300000000000    0.8695950000000000 H
   0.1402200000000000    0.8384150000000000    0.8039600000000000 H
   0.2012000000000000    0.8784300000000000    0.8224000000000000 H
   0.2514600000000000    0.8399000000000000    0.7680050000000000 H
   0.3427400000000000    0.7991650000000000    0.7318150000000000 H
   0.3883000000000000    0.7275600000000000    0.7736950000000000 H
   0.2574500000000000    0.7352400000000000    0.8846499999999999 H
   0.8579599999999999    0.0909200000000000    0.5536650000000000 H
   0.7984500000000000    0.1318300000000000    0.5722150000000000 H
   0.7478399999999999    0.0914200000000000    0.5173449999999999 H
   0.6584600000000000    0.0481950000000000    0.4802100000000000 H
   0.6135400000000000    0.9761400000000000    0.5223250000000000 H
   0.7410900000000000    0.9881500000000000    0.6352599999999999 H
   0.8849600000000000    0.0564500000000000    0.6603500000000000 H
   0.9447000000000000    0.0732900000000000    0.6186050000000000 H
   0.9940400000000000    0.0193000000000000    0.6570549999999999 H
   0.0848900000000000    0.9822750000000000    0.6970800000000000 H
   0.1337300000000000    0.0238800000000000    0.7689900000000001 H
   0.0073100000000000    0.1363650000000000    0.7625850000000001 H
   0.8598100000000000    0.1616050000000000    0.6960000000000000 H
   0.7988300000000000    0.1215800000000000    0.6775850000000000 H
   0.7485900000000000    0.1601250000000000    0.7319800000000000 H
   0.6573099999999999    0.2008700000000000    0.7681800000000000 H
   0.6117400000000000    0.2724650000000000    0.7262950000000000 H
   0.7425700000000000    0.2647650000000000    0.6153250000000000 H
   0.8865900000000000    0.1960550000000000    0.5888000000000000 H
   0.9461000000000001    0.1787750000000000    0.6303900000000000 H
   0.9968500000000000    0.2321000000000000    0.5915950000000000 H
   0.0885400000000000    0.2680750000000000    0.5511000000000000 H
   0.1358900000000000    0.2257400000000000    0.4791550000000000 H
   0.0061900000000000    0.1146700000000000    0.4862400000000000 H
   0.3587900000000000    0.5911600000000000    0.5536500000000000 H
   0.2989800000000000    0.6317650000000000    0.5723000000000000 H
   0.2486900000000000    0.5914250000000000    0.5174050000000000 H
   0.1591700000000000    0.5483350000000000    0.4803350000000000 H
   0.1142700000000000    0.4762300000000000    0.5224050000000000 H
   0.2421600000000000    0.4879500000000000    0.6351400000000000 H
   0.3855000000000000    0.5567100000000000    0.6606000000000000 H
   0.4451600000000000    0.5733800000000000    0.6187000000000000 H
   0.4944100000000000    0.5193050000000000    0.6572100000000000 H
   0.5850300000000000    0.4820550000000000    0.6973300000000000 H
   0.6340700000000000    0.5236250000000000    0.7691749999999999 H
   0.5083100000000000    0.6365350000000000    0.7624949999999999 H
   0.3601500000000000    0.6621400000000000    0.6958900000000000 H
   0.2996000000000000    0.6215750000000000    0.6778150000000001 H
   0.2489900000000000    0.6602300000000000    0.7321150000000000 H
   0.1580000000000000    0.7011700000000000    0.7685949999999999 H
   0.1122600000000000    0.7726850000000001    0.7267350000000000 H
   0.2423300000000000    0.7645900000000000    0.6152299999999999 H
   0.3871600000000000    0.6961150000000000    0.5886700000000000 H
   0.4465400000000000    0.6790900000000000    0.6304650000000001 H
   0.4974400000000000    0.7323300000000000    0.5914500000000000 H
   0.5889100000000000    0.7683949999999999    0.5507500000000000 H
   0.6362700000000000    0.7259550000000000    0.4788750000000000 H
   0.5070200000000000    0.6146050000000000    0.4864750000000000 H
   0.6399000000000000    0.3378550000000000    0.8040900000000000 H
   0.7004500000000000    0.3784350000000000    0.8221650000000000 H
   0.7510599999999999    0.3397800000000000    0.7678650000000000 H
   0.8420600000000000    0.2988500000000000    0.7313850000000000 H
   0.8878100000000000    0.2273350000000000    0.7732450000000000 H
   0.7577500000000000    0.2354300000000000    0.8847600000000000 H
   0.6412500000000000    0.4088400000000000    0.9462999999999999 H
   0.7010700000000000    0.3682450000000000    0.9276750000000000 H
   0.7513400000000000    0.4085900000000000    0.9825750000000000 H
   0.8408600000000001    0.4516850000000000    0.0196450000000000 H
   0.8857600000000000    0.5237849999999999    0.9775700000000001 H
   0.7578700000000000    0.5120650000000000    0.8648400000000001 H
   0.6145500000000000    0.4432900000000000    0.8393250000000000 H
   0.5548999999999999    0.4266250000000000    0.8812599999999999 H
   0.5056300000000000    0.4807000000000000    0.8427750000000001 H
   0.4150100000000000    0.5179549999999999    0.8026550000000000 H
   0.3659700000000000    0.4763850000000000    0.7308050000000000 H
   0.4917200000000000    0.3634650000000000    0.7374900000000000 H
   0.6128800000000000    0.3038900000000000    0.9113000000000000 H
   0.5535200000000000    0.3209050000000000    0.8695150000000000 H
   0.5026000000000000    0.2676700000000000    0.9084950000000001 H
   0.4111400000000000    0.2316050000000000    0.9492400000000000 H
   0.3637900000000000    0.2740450000000000    0.0211150000000000 H
   0.4930100000000000    0.3854050000000000    0.0134950000000000 H
   0.3587900000000000    0.0911600000000000    0.0536500000000000 H
   0.2989800000000000    0.1317650000000000    0.0723000000000000 H
   0.2486900000000000    0.0914250000000000    0.0174050000000000 H
   0.1591700000000000    0.0483350000000000    0.9803350000000000 H
   0.1142700000000000    0.9762299999999999    0.0224050000000000 H
   0.2421600000000000    0.9879500000000000    0.1351400000000000 H
   0.3855000000000000    0.0567100000000000    0.1606000000000000 H
   0.4451600000000000    0.0733800000000000    0.1187000000000000 H
   0.4944100000000000    0.0193050000000000    0.1572100000000000 H
   0.5850300000000000    0.9820550000000000    0.1973300000000000 H
   0.6340700000000000    0.0236250000000000    0.2691750000000000 H
   0.5083100000000000    0.1365350000000000    0.2624950000000000 H
   0.3601500000000000    0.1621400000000000    0.1958900000000000 H
   0.2996000000000000    0.1215750000000000    0.1778150000000000 H
   0.2489900000000000    0.1602300000000000    0.2321150000000000 H
   0.1580000000000000    0.2011700000000000    0.2685950000000000 H
   0.1122600000000000    0.2726850000000000    0.2267350000000000 H
   0.2423300000000000    0.2645900000000000    0.1152300000000000 H
   0.3871600000000000    0.1961150000000000    0.0886700000000000 H
   0.4465400000000000    0.1790900000000000    0.1304650000000000 H
   0.4974400000000000    0.2323300000000000    0.0914500000000000 H
   0.5889100000000000    0.2683950000000000    0.0507500000000000 H
   0.6362700000000000    0.2259550000000000    0.9788749999999999 H
   0.5070200000000000    0.1146050000000000    0.9864750000000000 H
   0.6399000000000000    0.8378550000000000    0.3040900000000000 H
   0.7004500000000000    0.8784350000000001    0.3221650000000000 H
   0.7510599999999999    0.8397800000000000    0.2678650000000000 H
   0.8420600000000000    0.7988500000000001    0.2313850000000000 H
   0.8878100000000000    0.7273350000000001    0.2732450000000000 H
   0.7577500000000000    0.7354300000000000    0.3847600000000000 H
   0.6412500000000000    0.9088400000000000    0.4463000000000000 H
   0.7010700000000000    0.8682449999999999    0.4276750000000000 H
   0.7513400000000000    0.9085900000000000    0.4825750000000000 H
   0.8408600000000001    0.9516850000000000    0.5196450000000000 H
   0.8857600000000000    0.0237850000000000    0.4775700000000000 H