H5 C4 N2
1.0
  10.4238962343311421    0.0000000000000000   -5.1515840336635330
  -1.7044085306903451   11.4622764985619732   -1.0743616853852616
   0.0000000000000000    0.0000000000000000   34.9521000000000015
H C N
5 4 2
direct
   0.7427100000000000    0.7914099999999999    0.4340833333333333 H
   0.6273300000000001    0.8427900000000000    0.3504466666666666 H
   0.0868300000000000    0.7032100000000000    0.3964366666666667 H
   0.1155800000000000    0.8571200000000000    0.3987100000000000 H
   0.0246000000000000    0.7666200000000000    0.3480233333333333 H
   0.9212900000000001    0.7885200000000000    0.3850900000000000 C
   0.7808300000000000    0.7962600000000000    0.4109666666666666 C
   0.7237200000000000    0.8220700000000000    0.3695566666666666 C
   0.0436600000000000    0.7783000000000000    0.3819633333333333 C
   0.9052800000000000    0.7744500000000000    0.4205866666666667 N
   0.8126300000000000    0.8169300000000000    0.3532600000000000 N
