Zn240 H484 C764 O864
1.0
  35.5931715891814164    0.0000000000000000    0.7928052869958124
   2.3904648139873559   39.4268260223668250    5.1069219472307008
   0.0000000000000000    0.0000000000000000   30.5189999999999984
Zn H C O
240 484 764 864
direct
   0.9389400000000000    0.7095325000000000    0.8904266666666666 Zn
   0.8110625000000000    0.7904700000000000    0.1095666666666667 Zn
   0.1889400000000000    0.4595325000000000    0.5570933333333333 Zn
   0.0610625000000000    0.5404700000000000    0.7762333333333333 Zn
   0.4389400000000000    0.2095325000000000    0.2237600000000000 Zn
   0.3110625000000000    0.2904700000000000    0.4429000000000000 Zn
   0.6889400000000000    0.9595325000000000    0.8904266666666666 Zn
   0.5610625000000000    0.0404700000000000    0.1095666666666667 Zn
   0.9389400000000000    0.7095325000000000    0.5570933333333333 Zn
   0.8110625000000000    0.7904700000000000    0.7762333333333333 Zn
   0.6889400000000000    0.9595325000000000    0.2237600000000000 Zn
   0.5610625000000000    0.0404700000000000    0.4429000000000000 Zn
   0.1889400000000000    0.4595325000000000    0.2237600000000000 Zn
   0.0610625000000000    0.5404700000000000    0.4429000000000000 Zn
   0.4389400000000000    0.2095325000000000    0.8904266666666666 Zn
   0.3110625000000000    0.2904700000000000    0.1095666666666667 Zn
   0.6889400000000000    0.9595325000000000    0.5570933333333333 Zn
   0.5610625000000000    0.0404700000000000    0.7762333333333333 Zn
   0.9389400000000000    0.7095325000000000    0.2237600000000000 Zn
   0.8110625000000000    0.7904700000000000    0.4429000000000000 Zn
   0.4389400000000000    0.2095325000000000    0.5570933333333333 Zn
   0.3110625000000000    0.2904700000000000    0.7762333333333333 Zn
   0.1889400000000000    0.4595325000000000    0.8904266666666666 Zn
   0.0610625000000000    0.5404700000000000    0.1095666666666667 Zn
   0.5737025000000000    0.2779450000000000    0.8830199999999999 Zn
   0.4263000000000000    0.2220575000000000    0.1169733333333333 Zn
   0.3237025000000000    0.0279450000000000    0.2163533333333333 Zn
   0.1763000000000000    0.9720575000000000    0.4503066666666666 Zn
   0.0737025000000000    0.7779450000000000    0.5496866666666667 Zn
   0.9263000000000000    0.7220575000000000    0.7836400000000000 Zn
   0.8237025000000000    0.5279450000000000    0.8830199999999999 Zn
   0.6763000000000000    0.4720575000000000    0.1169733333333333 Zn
   0.8237025000000000    0.5279450000000000    0.5496866666666667 Zn
   0.6763000000000000    0.4720575000000000    0.7836400000000000 Zn
   0.5737025000000000    0.2779450000000000    0.5496866666666667 Zn
   0.4263000000000000    0.2220575000000000    0.7836400000000000 Zn
   0.3237025000000000    0.0279450000000000    0.8830199999999999 Zn
   0.1763000000000000    0.9720575000000000    0.1169733333333333 Zn
   0.0737025000000000    0.7779450000000000    0.2163533333333333 Zn
   0.9263000000000000    0.7220575000000000    0.4503066666666666 Zn
   0.5737025000000000    0.2779450000000000    0.2163533333333333 Zn
   0.4263000000000000    0.2220575000000000    0.4503066666666666 Zn
   0.8237025000000000    0.5279450000000000    0.2163533333333333 Zn
   0.6763000000000000    0.4720575000000000    0.4503066666666666 Zn
   0.3237025000000000    0.0279450000000000    0.5496866666666667 Zn
   0.1763000000000000    0.9720575000000000    0.7836400000000000 Zn
   0.0737025000000000    0.7779450000000000    0.8830199999999999 Zn
   0.9263000000000000    0.7220575000000000    0.1169733333333333 Zn
   0.6889400000000000    0.4595325000000000    0.5570933333333333 Zn
   0.5610625000000000    0.5404700000000000    0.7762333333333333 Zn
   0.9389400000000000    0.2095325000000000    0.2237600000000000 Zn
   0.8110625000000000    0.2904700000000000    0.4429000000000000 Zn
   0.1889400000000000    0.9595325000000000    0.8904266666666666 Zn
   0.0610625000000000    0.0404700000000000    0.1095666666666667 Zn
   0.4389400000000000    0.7095325000000000    0.5570933333333333 Zn
   0.3110625000000000    0.7904700000000000    0.7762333333333333 Zn
   0.6889400000000000    0.4595325000000000    0.2237600000000000 Zn
   0.5610625000000000    0.5404700000000000    0.4429000000000000 Zn
   0.9389400000000000    0.2095325000000000    0.8904266666666666 Zn
   0.8110625000000000    0.2904700000000000    0.1095666666666667 Zn
   0.1889400000000000    0.9595325000000000    0.5570933333333333 Zn
   0.0610625000000000    0.0404700000000000    0.7762333333333333 Zn
   0.4389400000000000    0.7095325000000000    0.2237600000000000 Zn
   0.3110625000000000    0.7904700000000000    0.4429000000000000 Zn
   0.1889400000000000    0.9595325000000000    0.2237600000000000 Zn
   0.0610625000000000    0.0404700000000000    0.4429000000000000 Zn
   0.4389400000000000    0.7095325000000000    0.8904266666666666 Zn
   0.3110625000000000    0.7904700000000000    0.1095666666666667 Zn
   0.6889400000000000    0.4595325000000000    0.8904266666666666 Zn
   0.5610625000000000    0.5404700000000000    0.1095666666666667 Zn
   0.9389400000000000    0.2095325000000000    0.5570933333333333 Zn
   0.8110625000000000    0.2904700000000000    0.7762333333333333 Zn
   0.3237025000000000    0.5279450000000000    0.2163533333333333 Zn
   0.1763000000000000    0.4720575000000000    0.4503066666666666 Zn
   0.5737025000000000    0.7779450000000000    0.2163533333333333 Zn
   0.4263000000000000    0.7220575000000000    0.4503066666666666 Zn
   0.8237025000000000    0.0279450000000000    0.8830199999999999 Zn
   0.6763000000000000    0.9720575000000000    0.1169733333333333 Zn
   0.0737025000000000    0.2779450000000000    0.5496866666666667 Zn
   0.9263000000000000    0.2220575000000000    0.7836400000000000 Zn
   0.3237025000000000    0.5279450000000000    0.5496866666666667 Zn
   0.1763000000000000    0.4720575000000000    0.7836400000000000 Zn
   0.5737025000000000    0.7779450000000000    0.5496866666666667 Zn
   0.4263000000000000    0.7220575000000000    0.7836400000000000 Zn
   0.8237025000000000    0.0279450000000000    0.2163533333333333 Zn
   0.6763000000000000    0.9720575000000000    0.4503066666666666 Zn
   0.0737025000000000    0.2779450000000000    0.8830199999999999 Zn
   0.9263000000000000    0.2220575000000000    0.1169733333333333 Zn
   0.3237025000000000    0.5279450000000000    0.8830199999999999 Zn
   0.1763000000000000    0.4720575000000000    0.1169733333333333 Zn
   0.5737025000000000    0.7779450000000000    0.8830199999999999 Zn
   0.4263000000000000    0.7220575000000000    0.1169733333333333 Zn
   0.8237025000000000    0.0279450000000000    0.5496866666666667 Zn
   0.6763000000000000    0.9720575000000000    0.7836400000000000 Zn
   0.0737025000000000    0.2779450000000000    0.2163533333333333 Zn
   0.9263000000000000    0.2220575000000000    0.4503066666666666 Zn
   0.4389400000000000    0.4595325000000000    0.5570933333333333 Zn
   0.3110625000000000    0.5404700000000000    0.7762333333333333 Zn
   0.9389400000000000    0.9595325000000000    0.2237600000000000 Zn
   0.8110625000000000    0.0404700000000000    0.4429000000000000 Zn
   0.1889400000000000    0.7095325000000000    0.8904266666666666 Zn
   0.0610625000000000    0.7904700000000000    0.1095666666666667 Zn
   0.6889400000000000    0.2095325000000000    0.5570933333333333 Zn
   0.5610625000000000    0.2904700000000000    0.7762333333333333 Zn
   0.6889400000000000    0.2095325000000000    0.2237600000000000 Zn
   0.5610625000000000    0.2904700000000000    0.4429000000000000 Zn
   0.9389400000000000    0.9595325000000000    0.8904266666666666 Zn
   0.8110625000000000    0.0404700000000000    0.1095666666666667 Zn
   0.1889400000000000    0.7095325000000000    0.5570933333333333 Zn
   0.0610625000000000    0.7904700000000000    0.7762333333333333 Zn
   0.4389400000000000    0.4595325000000000    0.2237600000000000 Zn
   0.3110625000000000    0.5404700000000000    0.4429000000000000 Zn
   0.4389400000000000    0.4595325000000000    0.8904266666666666 Zn
   0.3110625000000000    0.5404700000000000    0.1095666666666667 Zn
   0.6889400000000000    0.2095325000000000    0.8904266666666666 Zn
   0.5610625000000000    0.2904700000000000    0.1095666666666667 Zn
   0.9389400000000000    0.9595325000000000    0.5570933333333333 Zn
   0.8110625000000000    0.0404700000000000    0.7762333333333333 Zn
   0.1889400000000000    0.7095325000000000    0.2237600000000000 Zn
   0.0610625000000000    0.7904700000000000    0.4429000000000000 Zn
   0.7500000000000000    0.7500000000000000    0.1666633333333333 Zn
   0.5737025000000000    0.5279450000000000    0.8830199999999999 Zn
   0.4263000000000000    0.4720575000000000    0.1169733333333333 Zn
   0.3237025000000000    0.2779450000000000    0.8830199999999999 Zn
   0.1763000000000000    0.2220575000000000    0.1169733333333333 Zn
   0.0737025000000000    0.0279450000000000    0.2163533333333333 Zn
   0.9263000000000000    0.9720575000000000    0.4503066666666666 Zn
   0.8237025000000000    0.7779450000000000    0.5496866666666667 Zn
   0.6763000000000000    0.7220575000000000    0.7836400000000000 Zn
   0.5737025000000000    0.5279450000000000    0.5496866666666667 Zn
   0.4263000000000000    0.4720575000000000    0.7836400000000000 Zn
   0.3237025000000000    0.2779450000000000    0.5496866666666667 Zn
   0.1763000000000000    0.2220575000000000    0.7836400000000000 Zn
   0.0737025000000000    0.0279450000000000    0.8830199999999999 Zn
   0.9263000000000000    0.9720575000000000    0.1169733333333333 Zn
   0.8237025000000000    0.7779450000000000    0.2163533333333333 Zn
   0.6763000000000000    0.7220575000000000    0.4503066666666666 Zn
   0.5737025000000000    0.5279450000000000    0.2163533333333333 Zn
   0.4263000000000000    0.4720575000000000    0.4503066666666666 Zn
   0.3237025000000000    0.2779450000000000    0.2163533333333333 Zn
   0.1763000000000000    0.2220575000000000    0.4503066666666666 Zn
   0.0737025000000000    0.0279450000000000    0.5496866666666667 Zn
   0.9263000000000000    0.9720575000000000    0.7836400000000000 Zn
   0.8237025000000000    0.7779450000000000    0.8830199999999999 Zn
   0.6763000000000000    0.7220575000000000    0.1169733333333333 Zn
   0.9389400000000000    0.4595325000000000    0.2237600000000000 Zn
   0.8110625000000000    0.5404700000000000    0.4429000000000000 Zn
   0.1889400000000000    0.2095325000000000    0.8904266666666666 Zn
   0.0610625000000000    0.2904700000000000    0.1095666666666667 Zn
   0.4389400000000000    0.9595325000000000    0.5570933333333333 Zn
   0.3110625000000000    0.0404700000000000    0.7762333333333333 Zn
   0.6889400000000000    0.7095325000000000    0.2237600000000000 Zn
   0.5610625000000000    0.7904700000000000    0.4429000000000000 Zn
   0.9389400000000000    0.4595325000000000    0.8904266666666666 Zn
   0.8110625000000000    0.5404700000000000    0.1095666666666667 Zn
   0.1889400000000000    0.2095325000000000    0.5570933333333333 Zn
   0.0610625000000000    0.2904700000000000    0.7762333333333333 Zn
   0.4389400000000000    0.9595325000000000    0.2237600000000000 Zn
   0.3110625000000000    0.0404700000000000    0.4429000000000000 Zn
   0.6889400000000000    0.7095325000000000    0.8904266666666666 Zn
   0.5610625000000000    0.7904700000000000    0.1095666666666667 Zn
   0.9389400000000000    0.4595325000000000    0.5570933333333333 Zn
   0.8110625000000000    0.5404700000000000    0.7762333333333333 Zn
   0.1889400000000000    0.2095325000000000    0.2237600000000000 Zn
   0.0610625000000000    0.2904700000000000    0.4429000000000000 Zn
   0.4389400000000000    0.9595325000000000    0.8904266666666666 Zn
   0.3110625000000000    0.0404700000000000    0.1095666666666667 Zn
   0.6889400000000000    0.7095325000000000    0.5570933333333333 Zn
   0.5610625000000000    0.7904700000000000    0.7762333333333333 Zn
   0.0737025000000000    0.5279450000000000    0.2163533333333333 Zn
   0.9263000000000000    0.4720575000000000    0.4503066666666666 Zn
   0.8237025000000000    0.2779450000000000    0.2163533333333333 Zn
   0.6763000000000000    0.2220575000000000    0.4503066666666666 Zn
   0.5737025000000000    0.0279450000000000    0.5496866666666667 Zn
   0.4263000000000000    0.9720575000000000    0.7836400000000000 Zn
   0.3237025000000000    0.7779450000000000    0.8830199999999999 Zn
   0.1763000000000000    0.7220575000000000    0.1169733333333333 Zn
   0.0737025000000000    0.5279450000000000    0.8830199999999999 Zn
   0.9263000000000000    0.4720575000000000    0.1169733333333333 Zn
   0.8237025000000000    0.2779450000000000    0.5496866666666667 Zn
   0.6763000000000000    0.2220575000000000    0.7836400000000000 Zn
   0.5737025000000000    0.0279450000000000    0.8830199999999999 Zn
   0.4263000000000000    0.9720575000000000    0.1169733333333333 Zn
   0.3237025000000000    0.7779450000000000    0.2163533333333333 Zn
   0.1763000000000000    0.7220575000000000    0.4503066666666666 Zn
   0.0737025000000000    0.5279450000000000    0.5496866666666667 Zn
   0.9263000000000000    0.4720575000000000    0.7836400000000000 Zn
   0.8237025000000000    0.2779450000000000    0.8830199999999999 Zn
   0.6763000000000000    0.2220575000000000    0.1169733333333333 Zn
   0.5737025000000000    0.0279450000000000    0.2163533333333333 Zn
   0.4263000000000000    0.9720575000000000    0.4503066666666666 Zn
   0.3237025000000000    0.7779450000000000    0.5496866666666667 Zn
   0.1763000000000000    0.7220575000000000    0.7836400000000000 Zn
   0.0000000000000000    0.0000000000000000    0.1666633333333333 Zn
   0.0000000000000000    0.5000000000000000    0.1666633333333333 Zn
   0.0000000000000000    0.7500000000000000    0.1666633333333333 Zn
   0.5000000000000000    0.7500000000000000    0.1666633333333333 Zn
   0.5000000000000000    0.7500000000000000    0.4999966666666666 Zn
   0.7500000000000000    0.7500000000000000    0.4999966666666666 Zn
   0.0000000000000000    0.0000000000000000    0.8333299999999999 Zn
   0.0000000000000000    0.5000000000000000    0.8333299999999999 Zn
   0.0000000000000000    0.7500000000000000    0.8333299999999999 Zn
   0.7500000000000000    0.7500000000000000    0.8333299999999999 Zn
   0.5000000000000000    0.2500000000000000    0.1666633333333333 Zn
   0.7500000000000000    0.2500000000000000    0.1666633333333333 Zn
   0.0000000000000000    0.0000000000000000    0.4999966666666666 Zn
   0.5000000000000000    0.2500000000000000    0.4999966666666666 Zn
   0.7500000000000000    0.2500000000000000    0.4999966666666666 Zn
   0.0000000000000000    0.5000000000000000    0.4999966666666666 Zn
   0.0000000000000000    0.7500000000000000    0.4999966666666666 Zn
   0.5000000000000000    0.2500000000000000    0.8333299999999999 Zn
   0.7500000000000000    0.2500000000000000    0.8333299999999999 Zn
   0.5000000000000000    0.7500000000000000    0.8333299999999999 Zn
   0.2500000000000000    0.5000000000000000    0.1666633333333333 Zn
   0.2500000000000000    0.0000000000000000    0.1666633333333333 Zn
   0.5000000000000000    0.0000000000000000    0.1666633333333333 Zn
   0.7500000000000000    0.0000000000000000    0.1666633333333333 Zn
   0.2500000000000000    0.2500000000000000    0.1666633333333333 Zn
   0.5000000000000000    0.0000000000000000    0.4999966666666666 Zn
   0.7500000000000000    0.0000000000000000    0.4999966666666666 Zn
   0.2500000000000000    0.2500000000000000    0.4999966666666666 Zn
   0.2500000000000000    0.5000000000000000    0.4999966666666666 Zn
   0.7500000000000000    0.0000000000000000    0.8333299999999999 Zn
   0.2500000000000000    0.2500000000000000    0.8333299999999999 Zn
   0.2500000000000000    0.5000000000000000    0.8333299999999999 Zn
   0.2500000000000000    0.0000000000000000    0.4999966666666666 Zn
   0.2500000000000000    0.0000000000000000    0.8333299999999999 Zn
   0.5000000000000000    0.0000000000000000    0.8333299999999999 Zn
   0.5000000000000000    0.5000000000000000    0.1666633333333333 Zn
   0.7500000000000000    0.5000000000000000    0.1666633333333333 Zn
   0.2500000000000000    0.7500000000000000    0.1666633333333333 Zn
   0.5000000000000000    0.5000000000000000    0.4999966666666666 Zn
   0.7500000000000000    0.5000000000000000    0.4999966666666666 Zn
   0.7500000000000000    0.5000000000000000    0.8333299999999999 Zn
   0.2500000000000000    0.7500000000000000    0.4999966666666666 Zn
   0.5000000000000000    0.5000000000000000    0.8333299999999999 Zn
   0.2500000000000000    0.7500000000000000    0.8333299999999999 Zn
   0.0000000000000000    0.2500000000000000    0.1666633333333333 Zn
   0.0000000000000000    0.2500000000000000    0.4999966666666666 Zn
   0.0000000000000000    0.2500000000000000    0.8333299999999999 Zn
   0.7606944114922041    0.8272786287619771    0.0973309344370317 H
   0.9071899999999999    0.7283375000000000    0.0247866666666667 H
   0.8428100000000001    0.7716575000000000    0.9752066666666666 H
   0.0324225000000000    0.6409825000000000    0.8051999999999999 H
   0.9675800000000000    0.6090200000000000    0.8614599999999999 H
   0.1571900000000000    0.4783375000000000    0.6914533333333333 H
   0.0928100000000000    0.5216575000000000    0.6418733333333333 H
   0.2824225000000000    0.3909825000000000    0.4718666666666667 H
   0.2175800000000000    0.3590200000000000    0.5281266666666666 H
   0.4071900000000000    0.2283375000000000    0.3581200000000000 H
   0.3428100000000000    0.2716575000000000    0.3085400000000000 H
   0.5324225000000000    0.1409825000000000    0.1385333333333333 H
   0.4675800000000000    0.1090200000000000    0.1947933333333333 H
   0.6571899999999999    0.9783375000000000    0.0247866666666667 H
   0.5928100000000001    0.0216575000000000    0.9752066666666666 H
   0.7824225000000000    0.8909825000000000    0.8051999999999999 H
   0.7175800000000000    0.8590200000000000    0.8614599999999999 H
   0.9071899999999999    0.7283375000000000    0.6914533333333333 H
   0.8428100000000001    0.7716575000000000    0.6418733333333333 H
   0.7744681388852154    0.9468162693080410    0.1325912998949242 H
   0.7367615537297103    0.9187257369159869    0.1874253176096044 H
   0.7092526066945416    0.9024961314651496    0.2288787916581208 H
   0.5324225000000000    0.1409825000000000    0.4718666666666667 H
   0.4675800000000000    0.1090200000000000    0.5281266666666666 H
   0.6571899999999999    0.9783375000000000    0.3581200000000000 H
   0.5928100000000001    0.0216575000000000    0.3085400000000000 H
   0.0324225000000000    0.6409825000000000    0.4718666666666667 H
   0.9675800000000000    0.6090200000000000    0.5281266666666666 H
   0.1571900000000000    0.4783375000000000    0.3581200000000000 H
   0.0928100000000000    0.5216575000000000    0.3085400000000000 H
   0.2824225000000000    0.3909825000000000    0.1385333333333333 H
   0.2175800000000000    0.3590200000000000    0.1947933333333333 H
   0.4071900000000000    0.2283375000000000    0.0247866666666667 H
   0.3428100000000000    0.2716575000000000    0.9752066666666666 H
   0.5324225000000000    0.1409825000000000    0.8051999999999999 H
   0.4675800000000000    0.1090200000000000    0.8614599999999999 H
   0.6571899999999999    0.9783375000000000    0.6914533333333333 H
   0.5928100000000001    0.0216575000000000    0.6418733333333333 H
   0.7824225000000000    0.8909825000000000    0.4718666666666667 H
   0.7175800000000000    0.8590200000000000    0.5281266666666666 H
   0.9071899999999999    0.7283375000000000    0.3581200000000000 H
   0.8428100000000001    0.7716575000000000    0.3085400000000000 H
   0.2824225000000000    0.3909825000000000    0.8051999999999999 H
   0.2175800000000000    0.3590200000000000    0.8614599999999999 H
   0.4071900000000000    0.2283375000000000    0.6914533333333333 H
   0.3428100000000000    0.2716575000000000    0.6418733333333333 H
   0.0324225000000000    0.6409825000000000    0.1385333333333333 H
   0.9675800000000000    0.6090200000000000    0.1947933333333333 H
   0.1571900000000000    0.4783375000000000    0.0247866666666667 H
   0.0928100000000000    0.5216575000000000    0.9752066666666666 H
   0.9266900000000000    0.7647300000000000    0.1723366666666666 H
   0.1766900000000000    0.0147300000000000    0.5056700000000000 H
   0.9266900000000000    0.7647300000000000    0.8390033333333333 H
   0.9266900000000000    0.7647300000000000    0.5056700000000000 H
   0.5733150000000000    0.2352700000000000    0.4943266666666666 H
   0.8233150000000000    0.4852700000000000    0.4943266666666666 H
   0.3233150000000000    0.9852700000000000    0.4943266666666666 H
   0.1766900000000000    0.0147300000000000    0.1723366666666666 H
   0.6766900000000000    0.5147300000000000    0.1723366666666666 H
   0.0733150000000000    0.7352700000000000    0.1609933333333333 H
   0.3233150000000000    0.9852700000000000    0.1609933333333333 H
   0.1766900000000000    0.0147300000000000    0.8390033333333333 H
   0.6766900000000000    0.5147300000000000    0.8390033333333333 H
   0.4266900000000000    0.2647300000000000    0.8390033333333333 H
   0.6766900000000000    0.5147300000000000    0.5056700000000000 H
   0.4266900000000000    0.2647300000000000    0.5056700000000000 H
   0.4266900000000000    0.2647300000000000    0.1723366666666666 H
   0.5733150000000000    0.2352700000000000    0.8276600000000000 H
   0.0733150000000000    0.7352700000000000    0.4943266666666666 H
   0.5733150000000000    0.2352700000000000    0.1609933333333333 H
   0.8233150000000000    0.4852700000000000    0.8276600000000000 H
   0.8233150000000000    0.4852700000000000    0.1609933333333333 H
   0.3233150000000000    0.9852700000000000    0.8276600000000000 H
   0.0733150000000000    0.7352700000000000    0.8276600000000000 H
   0.6084725000000000    0.3821400000000000    0.8786533333333333 H
   0.6415350000000000    0.3678600000000000    0.7880066666666666 H
   0.4691125000000000    0.2286975000000000    0.9846766666666666 H
   0.5308900000000000    0.2713050000000000    0.0153166666666667 H
   0.3584725000000000    0.1321400000000000    0.2119866666666667 H
   0.3915350000000000    0.1178600000000000    0.1213400000000000 H
   0.2808900000000000    0.0213050000000000    0.3486500000000000 H
   0.2191125000000000    0.9786975000000000    0.3180100000000000 H
   0.1084725000000000    0.8821400000000000    0.5453200000000000 H
   0.1415350000000000    0.8678600000000000    0.4546733333333333 H
   0.9691125000000000    0.7286975000000000    0.6513433333333334 H
   0.0308900000000000    0.7713050000000000    0.6819833333333333 H
   0.8584725000000000    0.6321400000000000    0.8786533333333333 H
   0.8915350000000000    0.6178600000000000    0.7880066666666666 H
   0.7808900000000000    0.5213050000000000    0.0153166666666667 H
   0.7191125000000000    0.4786975000000000    0.9846766666666666 H
   0.8584725000000000    0.6321400000000000    0.5453200000000000 H
   0.8915350000000000    0.6178600000000000    0.4546733333333333 H
   0.7808900000000000    0.5213050000000000    0.6819833333333333 H
   0.7191125000000000    0.4786975000000000    0.6513433333333334 H
   0.6084725000000000    0.3821400000000000    0.5453200000000000 H
   0.6415350000000000    0.3678600000000000    0.4546733333333333 H
   0.4691125000000000    0.2286975000000000    0.6513433333333334 H
   0.5308900000000000    0.2713050000000000    0.6819833333333333 H
   0.3584725000000000    0.1321400000000000    0.8786533333333333 H
   0.3915350000000000    0.1178600000000000    0.7880066666666666 H
   0.2808900000000000    0.0213050000000000    0.0153166666666667 H
   0.2191125000000000    0.9786975000000000    0.9846766666666666 H
   0.1084725000000000    0.8821400000000000    0.2119866666666667 H
   0.1415350000000000    0.8678600000000000    0.1213400000000000 H
   0.9691125000000000    0.7286975000000000    0.3180100000000000 H
   0.0308900000000000    0.7713050000000000    0.3486500000000000 H
   0.6084725000000000    0.3821400000000000    0.2119866666666667 H
   0.6415350000000000    0.3678600000000000    0.1213400000000000 H
   0.4691125000000000    0.2286975000000000    0.3180100000000000 H
   0.5308900000000000    0.2713050000000000    0.3486500000000000 H
   0.8584725000000000    0.6321400000000000    0.2119866666666667 H
   0.8915350000000000    0.6178600000000000    0.1213400000000000 H
   0.7808900000000000    0.5213050000000000    0.3486500000000000 H
   0.7191125000000000    0.4786975000000000    0.3180100000000000 H
   0.3584725000000000    0.1321400000000000    0.5453200000000000 H
   0.3915350000000000    0.1178600000000000    0.4546733333333333 H
   0.2808900000000000    0.0213050000000000    0.6819833333333333 H
   0.2191125000000000    0.9786975000000000    0.6513433333333334 H
   0.1084725000000000    0.8821400000000000    0.8786533333333333 H
   0.1415350000000000    0.8678600000000000    0.7880066666666666 H
   0.9691125000000000    0.7286975000000000    0.9846766666666666 H
   0.0308900000000000    0.7713050000000000    0.0153166666666667 H
   0.5324225000000000    0.6409825000000000    0.8051999999999999 H
   0.4675800000000000    0.6090200000000000    0.8614599999999999 H
   0.6571899999999999    0.4783375000000000    0.6914533333333333 H
   0.5928100000000001    0.5216575000000000    0.6418733333333333 H
   0.7824225000000000    0.3909825000000000    0.4718666666666667 H
   0.7175800000000000    0.3590200000000000    0.5281266666666666 H
   0.9071899999999999    0.2283375000000000    0.3581200000000000 H
   0.8428100000000001    0.2716575000000000    0.3085400000000000 H
   0.0324225000000000    0.1409825000000000    0.1385333333333333 H
   0.9675800000000000    0.1090200000000000    0.1947933333333333 H
   0.1571900000000000    0.9783375000000000    0.0247866666666667 H
   0.0928100000000000    0.0216575000000000    0.9752066666666666 H
   0.2824225000000000    0.8909825000000000    0.8051999999999999 H
   0.2175800000000000    0.8590200000000000    0.8614599999999999 H
   0.4071900000000000    0.7283375000000000    0.6914533333333333 H
   0.3428100000000000    0.7716575000000000    0.6418733333333333 H
   0.5324225000000000    0.6409825000000000    0.4718666666666667 H
   0.4675800000000000    0.6090200000000000    0.5281266666666666 H
   0.6571899999999999    0.4783375000000000    0.3581200000000000 H
   0.5928100000000001    0.5216575000000000    0.3085400000000000 H
   0.7824225000000000    0.3909825000000000    0.1385333333333333 H
   0.7175800000000000    0.3590200000000000    0.1947933333333333 H
   0.9071899999999999    0.2283375000000000    0.0247866666666667 H
   0.8428100000000001    0.2716575000000000    0.9752066666666666 H
   0.0324225000000000    0.1409825000000000    0.8051999999999999 H
   0.9675800000000000    0.1090200000000000    0.8614599999999999 H
   0.1571900000000000    0.9783375000000000    0.6914533333333333 H
   0.0928100000000000    0.0216575000000000    0.6418733333333333 H
   0.2824225000000000    0.8909825000000000    0.4718666666666667 H
   0.2175800000000000    0.8590200000000000    0.5281266666666666 H
   0.4071900000000000    0.7283375000000000    0.3581200000000000 H
   0.3428100000000000    0.7716575000000000    0.3085400000000000 H
   0.0324225000000000    0.1409825000000000    0.4718666666666667 H
   0.9675800000000000    0.1090200000000000    0.5281266666666666 H
   0.1571900000000000    0.9783375000000000    0.3581200000000000 H
   0.0928100000000000    0.0216575000000000    0.3085400000000000 H
   0.2824225000000000    0.8909825000000000    0.1385333333333333 H
   0.2175800000000000    0.8590200000000000    0.1947933333333333 H
   0.4071900000000000    0.7283375000000000    0.0247866666666667 H
   0.3428100000000000    0.7716575000000000    0.9752066666666666 H
   0.5324225000000000    0.6409825000000000    0.1385333333333333 H
   0.4675800000000000    0.6090200000000000    0.1947933333333333 H
   0.6571899999999999    0.4783375000000000    0.0247866666666667 H
   0.5928100000000001    0.5216575000000000    0.9752066666666666 H
   0.7824225000000000    0.3909825000000000    0.8051999999999999 H
   0.7175800000000000    0.3590200000000000    0.8614599999999999 H
   0.9071899999999999    0.2283375000000000    0.6914533333333333 H
   0.8428100000000001    0.2716575000000000    0.6418733333333333 H
   0.6766900000000000    0.0147300000000000    0.5056700000000000 H
   0.3233150000000000    0.4852700000000000    0.4943266666666666 H
   0.4266900000000000    0.7647300000000000    0.1723366666666666 H
   0.5733150000000000    0.7352700000000000    0.4943266666666666 H
   0.6766900000000000    0.0147300000000000    0.1723366666666666 H
   0.0733150000000000    0.2352700000000000    0.1609933333333333 H
   0.1766900000000000    0.5147300000000000    0.1723366666666666 H
   0.4266900000000000    0.7647300000000000    0.8390033333333333 H
   0.4266900000000000    0.7647300000000000    0.5056700000000000 H
   0.1766900000000000    0.5147300000000000    0.5056700000000000 H
   0.6766900000000000    0.0147300000000000    0.8390033333333333 H
   0.0733150000000000    0.2352700000000000    0.4943266666666666 H
   0.8233150000000000    0.9852700000000000    0.4943266666666666 H
   0.9266900000000000    0.2647300000000000    0.1723366666666666 H
   0.3233150000000000    0.4852700000000000    0.1609933333333333 H
   0.8233150000000000    0.9852700000000000    0.1609933333333333 H
   0.9266900000000000    0.2647300000000000    0.8390033333333333 H
   0.5733150000000000    0.7352700000000000    0.8276600000000000 H
   0.8233150000000000    0.9852700000000000    0.8276600000000000 H
   0.5733150000000000    0.7352700000000000    0.1609933333333333 H
   0.9266900000000000    0.2647300000000000    0.5056700000000000 H
   0.1766900000000000    0.5147300000000000    0.8390033333333333 H
   0.0733150000000000    0.2352700000000000    0.8276600000000000 H