H6 O4
1.0
  35.5931715891814164    0.0000000000000000    0.7928052869958124
   2.3904648139873559   39.4268260223668250    5.1069219472307008
   0.0000000000000000    0.0000000000000000   30.5189999999999984
H O
6 4
direct
   0.7744681388852154    0.9468162693080410    0.1325912998949242 H
   0.7367615537297103    0.9187257369159869    0.1874253176096044 H
   0.7092526066945416    0.9024961314651496    0.2288787916581208 H
   0.7606944114922041    0.8272786287619771    0.0973309344370317 H
   0.7184237602330561    0.7893004470852015    0.1830899442733004 H
   0.7199856050945748    0.7984624969083084    0.1441591695221954 H
   0.7592975000000000    0.9485700000000000    0.1590900000000000 O
   0.7227325000000000    0.9203475000000000    0.2119300000000000 O
   0.7772725000000000    0.8296550000000000    0.1213966666666667 O
   0.7407049999999999    0.8014325000000000    0.1742366666666667 O
