H3 C7 N1 O4
1.0
  12.6569850713416692    0.0000000000000000   -0.0194397488184673
  -1.3653142299862207   13.5328009312392687   -0.0042730371774916
   0.0000000000000000    0.0000000000000000   29.3320000000000007
H C N O
3 7 1 4
direct
   0.1650500000000000    0.3739100000000000    0.8995550000000000 H
   0.2245500000000000    0.2658700000000000    0.8376100000000000 H
   0.8465250000000000    0.2377000000000000    0.8760500000000000 H
   0.1076900000000000    0.3219800000000000    0.8819650000000000 C
   0.1415100000000000    0.2616100000000000    0.8476250000000001 C
   0.9714650000000000    0.1878100000000000    0.8351500000000001 C
   0.9566749999999999    0.3817900000000000    0.9273199999999999 C
   0.9309499999999999    0.2461300000000000    0.8686499999999999 C
   0.9995950000000000    0.3144600000000000    0.8927000000000000 C
   0.8988900000000000    0.1161500000000000    0.8070100000000000 C
   0.0761000000000000    0.1945100000000000    0.8248300000000000 N
   0.0108800000000000    0.4021100000000000    0.9634050000000001 O
   0.9447800000000000    1.0618300000000001    0.7788700000000000 O
   0.8704250000000000    0.4174300000000000    0.9180800000000000 O
   0.8003600000000000    0.1162300000000000    0.8125750000000000 O
