C2 O4
1.0
  39.5159984592304809    0.0000000000000000   -0.0110349487720718
  -0.0598890943069678   13.9478661142352944   -0.0121719246584983
   0.0000000000000000    0.0000000000000000   16.9909999999999997
C O
2 4
direct
   0.8444699999999999    0.0849200000000000    0.7558900000000000 C
   0.8593333333333333    0.9867400000000000    0.7796800000000000 C
   0.8415933333333333    0.1046400000000000    0.6832900000000000 O
   0.8683900000000000   -0.0670600000000000    0.7238700000000000 O
   0.8355333333333332    0.1416100000000000    0.8102000000000000 O
   0.8607366666666666   -0.0295299999999999    0.8531000000000000 O
