H3 C2 N4
1.0
  39.5159984592304809    0.0000000000000000   -0.0110349487720718
  -0.0598890943069678   13.9478661142352944   -0.0121719246584983
   0.0000000000000000    0.0000000000000000   16.9909999999999997
H C N
3 2 4
direct
   0.2469966666666667    0.1397200000000000    0.4920000000000000 H
   0.2823633333333333    0.8500799999999999    0.6657500000000000 H
   0.2415033333333333    0.8890600000000000    0.6820600000000000 H
   0.2661966666666666    0.9534600000000000    0.5922200000000000 C
   0.2586066666666667    0.0782300000000000    0.5200200000000000 C
   0.2422833333333333    0.0198900000000000    0.5719700000000000 N
   0.2903233333333333    0.0515500000000000    0.5079100000000000 N
   0.2954366666666667    0.9703500000000000    0.5538600000000000 N
   0.2608133333333333    0.8786800000000000    0.6422400000000000 N
