Zn16 H54 C46 N64 O32
1.0
  13.1719994864101597    0.0000000000000000   -0.0036783162573573
  -0.0598890943069678   13.9478661142352944   -0.0121719246584983
   0.0000000000000000    0.0000000000000000   16.9909999999999997
Zn H C N O
16 54 46 64 32
direct
   0.5740600000000000    0.5200900000000001    0.9066600000000000 Zn
   0.9776700000000000    0.5915300000000000    0.0731800000000000 Zn
   0.4259600000000000    0.4798900000000000    0.0933300000000000 Zn
   0.0223600000000000    0.4084500000000000    0.9268100000000000 Zn
   0.0748500000000000    0.9798900000000000    0.9063500000000000 Zn
   0.9249900000000000    0.5198400000000000    0.4064500000000000 Zn
   0.5239800000000000    0.5915899999999999    0.5731000000000001 Zn
   0.4761900000000000    0.9084200000000000    0.0732200000000000 Zn
   0.5238400000000000    0.0915600000000000    0.9267700000000000 Zn
   0.5739100000000000    0.0203700000000000    0.5935100000000000 Zn
   0.9777900000000000    0.0914800000000000    0.4267100000000000 Zn
   0.4261200000000000    0.9796100000000000    0.4064800000000000 Zn
   0.9251800000000000    0.0200900000000000    0.0936400000000000 Zn
   0.0750400000000000    0.4801400000000000    0.5935400000000000 Zn
   0.0222300000000000    0.9085000000000000    0.5732800000000000 Zn
   0.4760400000000000    0.4083900000000000    0.4268900000000000 Zn
   0.5583100000000000    0.3010900000000000    0.8485400000000000 H
   0.4383500000000000    0.2702700000000000    0.1385800000000000 H
   0.4343400000000000    0.1608600000000000    0.0911000000000000 H
   0.1523800000000000    0.6500700000000000    0.1659600000000000 H
   0.2752600000000000    0.6114700000000000    0.1822100000000000 H
   0.2593500000000000    0.3610700000000000    0.9912600000000000 H
   0.4417100000000000    0.6988799999999999    0.1514500000000000 H
   0.5616700000000000    0.7297100000000000    0.8614100000000000 H
   0.5656800000000000    0.8391200000000000    0.9088900000000000 H
   0.7406800000000000    0.6389000000000000    0.0087300000000000 H
   0.8476399999999999    0.3499100000000000    0.8340400000000000 H
   0.7247600000000000    0.3885000000000000    0.8177900000000000 H
   0.6510100000000000    0.8493700000000000    0.1655400000000000 H
   0.7738300000000000    0.8884800000000000    0.1822400000000000 H
   0.7598400000000000    0.1401800000000000    0.9931200000000000 H
   0.0588700000000000    0.1991100000000000    0.8484000000000000 H
   0.9388400000000000    0.2286800000000000    0.1379800000000000 H
   0.9331000000000000    0.3377100000000000    0.0910000000000000 H
   0.2401800000000000    0.8598100000000000    0.0068800000000000 H
   0.1328390008981394    1.1198918585195936    0.8069694330663383 H
   0.3490200000000000    0.1506200000000000    0.8344600000000000 H
   0.2261900000000000    0.1115100000000000    0.8177600000000000 H
   0.0896625123402660    1.0585429676380242    0.5955584477862438 H
   0.9416200000000000    0.3009000000000000    0.3482200000000000 H
   0.0657900000000000    0.1617400000000000    0.5906800000000000 H
   0.0610000000000000    0.2708500000000000    0.6382400000000000 H
   0.1210037228760405    1.1118976787280079    0.6944899516951329 H
   0.2397300000000000    0.3606400000000000    0.4921300000000000 H
   0.3497500000000000    0.6506300000000000    0.6656000000000000 H
   0.2267300000000000    0.6118000000000000    0.6823600000000000 H
   0.5584200000000000    0.8011500000000000    0.6515800000000000 H
   0.4381000000000000    0.7707100000000000    0.3618500000000000 H
   0.4328500000000000    0.6614300000000000    0.4087600000000000 H
   0.1529400000000000    0.1499000000000000    0.3342400000000000 H
   0.2755200000000000    0.1109200000000000    0.3179300000000000 H
   0.2590400000000000    0.8602600000000000    0.5080000000000000 H
   0.4416000000000000    0.1988300000000000    0.3484100000000000 H
   0.5619100000000000    0.2292700000000000    0.6381500000000000 H
   0.5671600000000000    0.3385500000000000    0.5912400000000000 H
   0.7602800000000000    0.6393400000000000    0.5078500000000000 H
   0.6502700000000000    0.3493500000000000    0.3343400000000000 H
   0.7732900000000000    0.3881800000000000    0.3176300000000000 H
   0.0016799120008196    0.8542003519688357    0.8597683954778301 H
   0.9411500000000000    0.8008700000000000    0.1515900000000000 H
   0.0611800000000000    0.7713000000000000    0.8620100000000001 H
   0.0669200000000000    0.6622600000000000    0.9089900000000000 H
   0.0583900000000000    0.6990800000000000    0.6517700000000000 H
   0.9342200000000001    0.8382400000000000    0.4093100000000000 H
   0.9389999999999999    0.7291299999999999    0.3617500000000000 H
  -0.0255477140869138    0.8004927004488069    0.6684674834481131 H
   0.7409900000000000    0.1397200000000000    0.4920000000000000 H
   0.8470900000000000    0.8500799999999999    0.6657500000000000 H
   0.7245100000000000    0.8890600000000000    0.6820600000000000 H
  -0.0374415023268010    0.7780555914919147    0.7734830516013631 H
   0.5298000000000000    0.3094500000000000    0.9078400000000000 C
   0.4702300000000000    0.2795700000000000    0.0230900000000000 C
   0.2011300000000000    0.5467100000000000    0.0922700000000000 C
   0.2243300000000000    0.4223400000000000    0.0195000000000000 C
   0.4214600000000000    0.5159000000000000    0.2799900000000000 C
   0.4633700000000000    0.4164100000000000    0.2560000000000000 C
   0.4702300000000000    0.6905300000000000    0.0921000000000000 C
   0.5297900000000000    0.7204000000000000    0.9769000000000000 C
   0.7756900000000000    0.5776400000000000    0.9804500000000000 C
   0.7989000000000001    0.4532700000000000    0.9077200000000000 C
   0.5785600000000000    0.4840800000000000    0.7200000000000000 C
   0.5366700000000000    0.5835700000000000    0.7436000000000000 C
   0.7003600000000000    0.9533700000000001    0.0926200000000000 C
   0.7244000000000000    0.0785600000000000    0.0208900000000000 C
   0.9224800000000000    0.9866600000000000    0.2794800000000000 C
   0.9681900000000000    0.0847800000000000    0.2556800000000000 C
   0.0298700000000000    0.1904500000000000    0.9075400000000000 C
   0.9693000000000001    0.2196700000000000    0.0225100000000000 C
   0.2756200000000000    0.9214300000000000    0.9791100000000000 C
   0.2996700000000000    0.0466100000000000    0.9073800000000000 C
   0.9702100000000000    0.3094700000000000    0.4075200000000000 C
   0.0300100000000000    0.2801100000000000    0.5227000000000001 C
   0.2754200000000000    0.4219800000000000    0.5202300000000000 C
   0.3000300000000000    0.5466900000000000    0.5925500000000000 C
   0.0782000000000000    0.5152300000000000    0.7797200000000000 C
   0.0348500000000000    0.4160100000000000    0.7561400000000000 C
   0.5295100000000000    0.8095800000000000    0.5924000000000000 C
   0.4692400000000000    0.7798100000000000    0.4772900000000000 C
   0.2014300000000000    0.0465200000000000    0.4077000000000000 C
   0.2242100000000000    0.9217600000000000    0.4799800000000000 C
   0.4666200000000000    0.9150600000000000    0.2441000000000000 C
   0.4220100000000000    0.0132400000000000    0.2203100000000000 C
   0.4705100000000000    0.1904000000000000    0.4075900000000000 C
   0.5307700000000000    0.2201700000000000    0.5227000000000001 C
   0.7246000000000000    0.5780000000000000    0.4797000000000000 C
   0.6999900000000000    0.4532900000000000    0.4074400000000000 C
   0.9651800000000000    0.5839700000000000    0.2438500000000000 C
   0.9218200000000000    0.4847500000000000    0.2202700000000000 C
   0.9701500000000000    0.8095300000000000    0.0924500000000000 C
   0.0307200000000000    0.7803099999999999    0.9774000000000000 C
   0.5334100000000001    0.0849200000000000    0.7558900000000000 C
   0.5780000000000000    0.9867400000000000    0.7796800000000000 C
   0.0298100000000000    0.6905100000000000    0.5924700000000001 C
   0.9700000000000000    0.7198700000000000    0.4772900000000000 C
   0.7758200000000000    0.0782300000000000    0.5200200000000000 C
   0.7985900000000000    0.9534600000000000    0.5922200000000000 C
   0.5151100000000000    0.3941700000000000    0.9413899999999999 N
   0.5035700000000000    0.2357400000000000    0.9558000000000000 N
   0.4302900000000000    0.2339500000000000    0.0865300000000000 N
   0.4761000000000000    0.3761700000000000    0.0163700000000000 N
   0.2170000000000000    0.6213600000000000    0.1425600000000000 N
   0.1134500000000000    0.5296600000000000    0.0538800000000000 N
   0.1290900000000000    0.4487700000000000    0.0075600000000000 N
   0.2731100000000000    0.4806300000000000    0.0717200000000000 N
   0.4849100000000000    0.6058100000000000    0.0586000000000000 N
   0.4964500000000000    0.7642400000000000    0.0441600000000000 N
   0.5697300000000000    0.7660300000000000    0.9134600000000000 N
   0.5239200000000001    0.6238100000000000    0.9836200000000000 N
   0.8709400000000000    0.5512100000000000    0.9924300000000000 N
   0.7269200000000000    0.5193400000000000    0.9282700000000000 N
   0.7830200000000000    0.3786200000000000    0.8574400000000000 N
   0.8865700000000000    0.4703200000000000    0.9461100000000000 N
   0.7159000000000000    0.8782600000000000    0.1422000000000000 N
   0.6127899999999999    0.9706100000000000    0.0543600000000000 N
   0.6290100000000000    0.0520200000000000    0.0087000000000000 N
   0.7727300000000000    0.0198800000000000    0.0726300000000000 N
   0.0156300000000000    0.1056000000000000    0.9410800000000000 N
   0.0026200000000000    0.2639300000000000    0.9553900000000000 N
   0.9286300000000000    0.2645900000000000    0.0860300000000000 N
   0.9758599999999999    0.1232200000000000    0.0157900000000000 N
   0.3710100000000000    0.9479600000000000    0.9912900000000000 N
   0.2272900000000000    0.9801100000000000    0.9273700000000000 N
   0.2841200000000000    0.1217300000000000    0.8577000000000000 N
   0.3872300000000000    0.0293700000000000    0.9456400000000000 N
   0.9844800000000000    0.3943100000000000    0.4412100000000000 N
   0.9969200000000000    0.2359600000000000    0.4554000000000000 N
   0.0701900000000000    0.2348600000000000    0.5861700000000000 N
   0.0237400000000000    0.3766200000000000    0.5161000000000000 N
   0.3709300000000000    0.4482100000000000    0.5082300000000000 N
   0.2273700000000000    0.4806200000000000    0.5721900000000000 N
   0.2848400000000000    0.6216500000000000    0.6425200000000000 N
   0.3875200000000000    0.5292700000000000    0.5543000000000000 N
   0.5150100000000000    0.8943000000000000    0.5589300000000000 N
   0.5027000000000000    0.7358700000000000    0.5444400000000000 N
   0.4287200000000000    0.7345400000000000    0.4137000000000000 N
   0.4755500000000000    0.8763500000000000    0.4840900000000000 N
   0.2175900000000000    0.1213000000000000    0.3577600000000000 N
   0.1137200000000000    0.0296400000000000    0.4461300000000000 N
   0.1290600000000000    0.9484300000000000    0.4920800000000000 N
   0.2731800000000000    0.9800900000000000    0.4280200000000000 N
   0.4850200000000000    0.1056800000000000    0.4410000000000000 N
   0.4973200000000000    0.2641100000000000    0.4555600000000000 N
   0.5712900000000000    0.2654400000000000    0.5862100000000000 N
   0.5244700000000000    0.1236300000000000    0.5159000000000000 N
   0.6290900000000000    0.5517700000000000    0.4917000000000000 N
   0.7726499999999999    0.5193700000000000    0.4277900000000000 N
   0.7151800000000000    0.3783300000000000    0.3574700000000000 N
   0.6125000000000000    0.4707100000000000    0.4456900000000000 N
   0.9843900000000000    0.8943800000000000    0.0589100000000000 N
   0.9974000000000000    0.7360500000000000    0.0446000000000000 N
   0.0713900000000000    0.7353900000000000    0.9139600000000000 N
   0.0241600000000000    0.8767600000000000    0.9842000000000000 N
   0.0155400000000000    0.6056700000000000    0.5587800000000001 N
   0.0030900000000000    0.7640100000000000    0.5445900000000000 N
   0.9298100000000000    0.7651200000000000    0.4138200000000000 N
   0.9762700000000000    0.6233600000000000    0.4838800000000000 N
   0.8709700000000000    0.0515500000000000    0.5079100000000000 N
   0.7268500000000000    0.0198900000000000    0.5719700000000000 N
   0.7824400000000000    0.8786800000000000    0.6422400000000000 N
   0.8863100000000000    0.9703500000000000    0.5538600000000000 N
   0.3951500000000000    0.5698600000000000    0.2240000000000000 O
   0.4183400000000000    0.5327700000000000    0.3533100000000000 O
   0.4710100000000000    0.3956600000000000    0.1838900000000000 O
   0.4890600000000000    0.3592500000000000    0.3107100000000000 O
   0.6048900000000000    0.4301200000000000    0.7759000000000000 O
   0.5816900000000000    0.4672100000000000    0.6466800000000000 O
   0.5109600000000000    0.6407300000000000    0.6892800000000000 O
   0.5290200000000000    0.6043100000000000    0.8161000000000000 O
   0.8934800000000001    0.9332900000000000    0.2237500000000000 O
   0.9194900000000000    0.9699700000000000    0.3528000000000000 O
   0.9956199999999999    0.1414400000000000    0.3100500000000000 O
   0.9768800000000000    0.1045100000000000    0.1830700000000000 O
   0.1065500000000000    1.0666899999999999    0.7762000000000000 O
   0.0805400000000000    1.0300099999999999    0.6471300000000000 O
   0.1067800000000000    0.5682800000000000    0.7237100000000000 O
   0.0800200000000000    0.5329000000000000    0.8529400000000000 O
   0.0084500000000000    0.3589800000000000    0.8104900000000000 O
   0.0269200000000000    0.3955100000000000    0.6836000000000000 O
   0.4934200000000000    0.8583600000000000    0.1897600000000000 O
   0.4752400000000000    0.8953300000000000    0.3167000000000000 O
   0.3948600000000000    0.0670400000000000    0.2761200000000000 O
   0.4178200000000000    0.0295100000000000    0.1468900000000000 O
   0.9731000000000000    0.6044800000000000    0.3160000000000000 O
   0.9915800000000000    0.6410000000000000    0.1895000000000000 O
   0.8932500000000000    0.4317000000000000    0.2762800000000000 O
   0.9200000000000000    0.4670800000000000    0.1470500000000000 O
   0.0231400000000000    0.8954800000000001    0.8169200000000000 O
   0.5066000000000001    0.1416100000000000    0.8102000000000000 O
   0.5247800000000000    0.1046400000000000    0.6832900000000000 O
   0.6051700000000000    0.9329400000000000    0.7238700000000000 O
   0.5822100000000000    0.9704700000000001    0.8531000000000000 O
   0.0044000000000000    0.8585400000000000    0.6899400000000000 O
