H3 C2 N4
1.0
  13.1719994864101597    0.0000000000000000   -0.0036783162573573
  -0.0598890943069678   13.9478661142352944   -0.0121719246584983
   0.0000000000000000    0.0000000000000000   16.9909999999999997
H C N
3 2 4
direct
   0.7409900000000000    0.1397200000000000    0.4920000000000000 H
   0.8470900000000000    0.8500799999999999    0.6657500000000000 H
   0.7245100000000000    0.8890600000000000    0.6820600000000000 H
   0.7985900000000000    0.9534600000000000    0.5922200000000000 C
   0.7758200000000000    0.0782300000000000    0.5200200000000000 C
   0.7268500000000000    0.0198900000000000    0.5719700000000000 N
   0.8709700000000000    0.0515500000000000    0.5079100000000000 N
   0.8863100000000000    0.9703500000000000    0.5538600000000000 N
   0.7824400000000000    0.8786800000000000    0.6422400000000000 N
