H1 O1
1.0
  13.1719994864101597    0.0000000000000000   -0.0036783162573573
  -0.0598890943069678   13.9478661142352944   -0.0121719246584983
   0.0000000000000000    0.0000000000000000   16.9909999999999997
H O
1 1
direct
   0.7780806887253364   -0.0275487322557025    0.5864308509435191 H
   0.7268500000000000    0.0198900000000000    0.5719700000000000 O
