C2 O4
1.0
  23.0469976270650676    0.0000000000000000    0.0104583964914506
  -0.0201017102491703   15.5619858699361409    0.0059753788934707
   0.0000000000000000    0.0000000000000000   32.4380000000000024
C O
2 4
direct
   0.1223600000000000    0.1717500000000000    0.3753300000000000 C
   0.1201900000000000    0.2703000000000000    0.3711700000000000 C
   0.1179800000000000    0.1383700000000000    0.4104450000000000 O
   0.1270300000000000    0.1294100000000000    0.3417900000000000 O
   0.1199700000000000    0.2993300000000000    0.3348650000000000 O
   0.1175400000000000    0.3118800000000000    0.4049500000000000 O
