Y32 P30 H210 C216 N30 O282
1.0
  23.0469976270650676    0.0000000000000000    0.0104583964914506
  -0.0201017102491703   15.5619858699361409    0.0059753788934707
   0.0000000000000000    0.0000000000000000   32.4380000000000024
Y P H C N O
32 30 210 216 30 282
direct
   0.6317000000000000    0.7674000000000000    0.2168500000000000 Y
   0.1256300000000000    0.7995900000000000    0.0253500000000000 Y
   0.6256400000000000    0.7994900000000000    0.0254250000000000 Y
   0.1182900000000000    0.2327000000000000    0.4668200000000000 Y
   0.6183000000000000    0.2325400000000000    0.4668650000000000 Y
   0.1246000000000000    0.2007800000000000    0.2753400000000000 Y
   0.6245100000000000    0.2004900000000000    0.2754000000000000 Y
   0.3681000000000000    0.2682500000000000    0.0331800000000000 Y
   0.8681400000000000    0.2682100000000000    0.0330000000000000 Y
   0.3747700000000000    0.2997800000000000    0.2246000000000000 Y
   0.8745500000000000    0.2991000000000000    0.2247150000000000 Y
   0.3817200000000000    0.7327200000000000    0.2831300000000000 Y
   0.8817300000000000    0.7316900000000000    0.2831400000000000 Y
   0.3756200000000000    0.7008100000000000    0.4745850000000000 Y
   0.8756300000000000    0.7008100000000000    0.4746400000000000 Y
   0.1318900000000000    0.7682200000000000    0.2168300000000000 Y
   0.6317000000000000    0.7674000000000000    0.7168500000000000 Y
   0.1256300000000000    0.7995900000000000    0.5253500000000000 Y
   0.6256400000000000    0.7994900000000000    0.5254250000000000 Y
   0.1182900000000000    0.2327000000000000    0.9668200000000000 Y
   0.6183000000000000    0.2325400000000000    0.9668650000000000 Y
   0.1246000000000000    0.2007800000000000    0.7753399999999999 Y
   0.6245100000000000    0.2004900000000000    0.7754000000000000 Y
   0.3681000000000000    0.2682500000000000    0.5331800000000000 Y
   0.8681400000000000    0.2682100000000000    0.5330000000000000 Y
   0.3747700000000000    0.2997800000000000    0.7246000000000000 Y
   0.8745500000000000    0.2991000000000000    0.7247150000000000 Y
   0.3817200000000000    0.7327200000000000    0.7831300000000000 Y
   0.8817300000000000    0.7316900000000000    0.7831399999999999 Y
   0.3756200000000000    0.7008100000000000    0.9745850000000000 Y
   0.8756300000000000    0.7008100000000000    0.9746400000000000 Y
   0.1318900000000000    0.7682200000000000    0.7168300000000000 Y
   0.1273200000000000    0.8182300000000000    0.4100450000000000 P
   0.6272500000000000    0.8181500000000000    0.4101050000000000 P
   0.1552900000000000    0.9678300000000000    0.2716250000000000 P
   0.6542200000000000    0.9668600000000001    0.2716400000000000 P
   0.1227200000000000    0.1818200000000000    0.1600800000000000 P
   0.6227500000000000    0.1818500000000000    0.1600950000000000 P
   0.0957700000000000    0.0331100000000000    0.0216000000000000 P
   0.5957500000000000    0.0329100000000000    0.0216550000000000 P
   0.3727200000000000    0.3182300000000000    0.3399350000000000 P
   0.8727300000000000    0.3181700000000000    0.3399800000000000 P
   0.3445700000000000    0.4678700000000000    0.4783300000000000 P
   0.8446200000000000    0.4678400000000000    0.4783700000000000 P
   0.3772300000000000    0.6819100000000000    0.0898850000000000 P
   0.8773100000000000    0.6818100000000000    0.0899600000000000 P
   0.4044500000000000    0.5334100000000001    0.2283450000000000 P
   0.9054600000000000    0.5321000000000000    0.2283800000000000 P
   0.1273200000000000    0.8182300000000000    0.9100450000000000 P
   0.6272500000000000    0.8181500000000000    0.9101049999999999 P
   0.1552900000000000    0.9678300000000000    0.7716250000000000 P
   0.6542200000000000    0.9668600000000001    0.7716400000000000 P
   0.1227200000000000    0.1818200000000000    0.6600800000000000 P
   0.6227500000000000    0.1818500000000000    0.6600950000000000 P
   0.0957700000000000    0.0331100000000000    0.5216000000000000 P
   0.5957500000000000    0.0329100000000000    0.5216550000000000 P
   0.8727300000000000    0.3181700000000000    0.8399799999999999 P
   0.8446200000000000    0.4678400000000000    0.9783700000000000 P
   0.3772300000000000    0.6819100000000000    0.5898850000000000 P
   0.8773100000000000    0.6818100000000000    0.5899600000000000 P
   0.4044500000000000    0.5334100000000001    0.7283450000000000 P
   0.9054600000000000    0.5321000000000000    0.7283800000000000 P
   0.1945700000000000    0.7580500000000000    0.3713950000000000 H
   0.6945700000000000    0.7581300000000000    0.3714400000000000 H
   0.2310200000000000    0.0482500000000000    0.2673050000000000 H
   0.7304100000000000    0.0460400000000000    0.2667700000000000 H
   0.1159300000000000    0.0266900000000000    0.3509150000000000 H
   0.6155200000000000    0.0265200000000000    0.3509950000000000 H
   0.4356900000000000    0.1721400000000000    0.3725600000000000 H
   0.9359400000000000    0.1719800000000000    0.3725950000000000 H
   0.1644200000000000    0.9643000000000000    0.4057600000000000 H
   0.6640500000000000    0.9644100000000000    0.4058350000000000 H
   0.0900400000000000    0.9629700000000000    0.4167650000000000 H
   0.5896900000000000    0.9626900000000000    0.4169150000000000 H
   0.1975100000000000    0.9309900000000000    0.3383850000000000 H
   0.6970600000000000    0.9314000000000000    0.3383300000000000 H
   0.1468400000000000    0.8517500000000000    0.3215450000000000 H
   0.6466200000000000    0.8514500000000000    0.3219150000000000 H
   0.0437900000000000    0.8681500000000000    0.3409450000000000 H
   0.5433200000000000    0.8679500000000000    0.3412150000000000 H
   0.0462400000000000    0.9605000000000000    0.3073700000000000 H
   0.5457700000000000    0.9600500000000000    0.3075100000000000 H
   0.4897800000000000    0.8770300000000000    0.4076050000000000 H
   0.9901799999999999    0.8767900000000000    0.4073500000000000 H
   0.4184600000000000    0.9560600000000000    0.4508550000000000 H
   0.9188000000000000    0.9555600000000000    0.4506700000000000 H
   0.3950500000000000    0.1115700000000000    0.4318000000000000 H
   0.8953300000000000    0.1111400000000000    0.4317900000000000 H
   0.0019400000000000    0.1008500000000000    0.3285850000000000 H
   0.5016200000000000    0.1007000000000000    0.3285800000000000 H
   0.0554300000000000    0.2418500000000000    0.1214250000000000 H
   0.5554800000000000    0.2418600000000000    0.1214300000000000 H
   0.0196700000000000    0.9537800000000000    0.0167300000000000 H
   0.5197100000000000    0.9534300000000000    0.0168100000000000 H
   0.1345300000000000    0.9735100000000000    0.1009500000000000 H
   0.6345200000000000    0.9734200000000000    0.1010650000000000 H
   0.3143300000000000    0.8282800000000000    0.1224300000000000 H
   0.8142500000000000    0.8280000000000000    0.1224550000000000 H
   0.0858800000000000    0.0355900000000000    0.1558500000000000 H
   0.5858800000000000    0.0356200000000000    0.1559100000000000 H
   0.1602400000000000    0.0372400000000000    0.1668700000000000 H
   0.6602400000000000    0.0372500000000000    0.1669150000000000 H
   0.0527900000000000    0.0679500000000000    0.0883550000000000 H
   0.5527800000000000    0.0678800000000000    0.0883900000000000 H
   0.1029300000000000    0.1483900000000000    0.0719350000000000 H
   0.6029200000000000    0.1482700000000000    0.0719400000000000 H
   0.2064600000000000    0.1323300000000000    0.0911400000000000 H
   0.7064900000000000    0.1321900000000000    0.0911750000000000 H
   0.2041600000000000    0.0402800000000000    0.0574300000000000 H
   0.7041400000000000    0.0401400000000000    0.0574650000000000 H
   0.2602300000000000    0.1233600000000000    0.1574250000000000 H
   0.7602500000000000    0.1231200000000000    0.1574800000000000 H
   0.3317100000000000    0.0443900000000000    0.2005700000000000 H
   0.8316400000000000    0.0440500000000000    0.2006450000000000 H
   0.3551400000000000    0.8889500000000000    0.1815450000000000 H
   0.8549800000000000    0.8885300000000000    0.1816100000000000 H
   0.2482900000000000    0.8996300000000000    0.0785350000000000 H
   0.7482799999999999    0.8994900000000000    0.0785300000000000 H
   0.3053800000000000    0.2577900000000000    0.3785400000000000 H
   0.8054100000000000    0.2577500000000000    0.3785500000000000 H
   0.2689300000000000    0.5481400000000000    0.4827500000000000 H
   0.7689700000000000    0.5481100000000000    0.4827600000000000 H
   0.3842500000000000    0.5266999999999999    0.3990300000000000 H
   0.8841599999999999    0.5266500000000000    0.3990700000000000 H
   0.0642100000000000    0.6720500000000000    0.3774750000000000 H
   0.5643300000000000    0.6717200000000000    0.3775550000000000 H
   0.3358700000000000    0.4642900000000000    0.3440800000000000 H
   0.8358300000000000    0.4642000000000000    0.3441350000000000 H
   0.4103100000000000    0.4629400000000000    0.3333333333333333 H
   0.9102500000000000    0.4629200000000000    0.3333333333333333 H
   0.3022100000000000    0.4320400000000000    0.4114650000000000 H
   0.8022899999999999    0.4317600000000000    0.4115300000000000 H
   0.3521900000000000    0.3520200000000000    0.4283100000000000 H
   0.8524100000000000    0.3519200000000000    0.4283800000000000 H
   0.4558000000000000    0.3679500000000000    0.4093450000000000 H
   0.9559299999999999    0.3681000000000000    0.4093050000000000 H
   0.4534300000000000    0.4603300000000000    0.4428550000000000 H
   0.9535200000000000    0.4604700000000000    0.4428000000000000 H
   0.0099500000000000    0.3765100000000000    0.3431150000000000 H
   0.5099600000000000    0.3762300000000000    0.3432050000000000 H
   0.0815300000000000    0.4552400000000000    0.2997750000000000 H
   0.5817300000000000    0.4547800000000000    0.2999450000000000 H
   0.1049900000000000    0.6109700000000000    0.3184350000000000 H
   0.6052300000000000    0.6104900000000000    0.3185800000000000 H
   0.4980700000000000    0.6007500000000000    0.4215300000000000 H
   0.9980500000000000    0.6009700000000000    0.4214850000000000 H
   0.4445700000000000    0.7422700000000000    0.1284400000000000 H
   0.9446200000000000    0.7421900000000000    0.1285350000000000 H
   0.4807400000000000    0.4546900000000000    0.2333450000000000 H
   0.9811200000000000    0.4518300000000000    0.2327000000000000 H
   0.3655600000000000    0.4736600000000000    0.1490750000000000 H
   0.8658900000000000    0.4733600000000000    0.1491350000000000 H
   0.1854900000000000    0.3281700000000000    0.1273050000000000 H
   0.6857300000000000    0.3282100000000000    0.1274300000000000 H
   0.4139200000000000    0.5357600000000000    0.0941050000000000 H
   0.9142600000000000    0.5358300000000000    0.0941700000000000 H
   0.3395200000000000    0.5372900000000000    0.0832150000000000 H
   0.8398400000000000    0.5370200000000001    0.0833750000000000 H
   0.4472300000000000    0.5686900000000000    0.1615450000000000 H
   0.9477300000000000    0.5685500000000000    0.1615200000000000 H
   0.3970100000000000    0.6487200000000000    0.1780350000000000 H
   0.8974800000000001    0.6481300000000000    0.1784300000000000 H
   0.2935900000000000    0.6321000000000000    0.1591200000000000 H
   0.7941100000000000    0.6318800000000000    0.1594000000000000 H
   0.2959000000000000    0.5397300000000000    0.1926550000000000 H
   0.7964700000000000    0.5393600000000000    0.1928700000000000 H
   0.2397400000000000    0.6237500000000000    0.0929000000000000 H
   0.7402100000000000    0.6237800000000000    0.0931950000000000 H
   0.1681400000000000    0.5451300000000000    0.0496200000000000 H
   0.6685700000000000    0.5453300000000000    0.0498500000000000 H
   0.1446100000000000    0.3894400000000000    0.0683100000000000 H
   0.6449800000000000    0.3896100000000000    0.0684450000000000 H
   0.2516600000000000    0.3991600000000000    0.1712550000000000 H
   0.7519300000000000    0.3990100000000000    0.1714450000000000 H
   0.1945700000000000    0.7580500000000000    0.8713949999999999 H
   0.6945700000000000    0.7581300000000000    0.8714400000000000 H
   0.2310200000000000    0.0482500000000000    0.7673050000000000 H
   0.7304100000000000    0.0460400000000000    0.7667700000000000 H
   0.1159300000000000    0.0266900000000000    0.8509150000000000 H
   0.6155200000000000    0.0265200000000000    0.8509949999999999 H
   0.4356900000000000    0.1721400000000000    0.8725600000000000 H
   0.9359400000000000    0.1719800000000000    0.8725950000000000 H
   0.1644200000000000    0.9643000000000000    0.9057600000000000 H
   0.6640500000000000    0.9644100000000000    0.9058349999999999 H
   0.0900400000000000    0.9629700000000000    0.9167650000000001 H
   0.5896900000000000    0.9626900000000000    0.9169149999999999 H
   0.1975100000000000    0.9309900000000000    0.8383849999999999 H
   0.6970600000000000    0.9314000000000000    0.8383300000000000 H
   0.1468400000000000    0.8517500000000000    0.8215450000000000 H
   0.6466200000000000    0.8514500000000000    0.8219150000000000 H
   0.0437900000000000    0.8681500000000000    0.8409450000000001 H
   0.5433200000000000    0.8679500000000000    0.8412150000000000 H
   0.0462400000000000    0.9605000000000000    0.8073699999999999 H
   0.5457700000000000    0.9600500000000000    0.8075100000000000 H
   0.4897800000000000    0.8770300000000000    0.9076050000000000 H
   0.9901799999999999    0.8767900000000000    0.9073500000000000 H
   0.4184600000000000    0.9560600000000000    0.9508550000000000 H
   0.9188000000000000    0.9555600000000000    0.9506700000000000 H
   0.3950500000000000    0.1115700000000000    0.9318000000000000 H
   0.8953300000000000    0.1111400000000000    0.9317900000000000 H
   0.0019400000000000    0.1008500000000000    0.8285850000000000 H
   0.5016200000000000    0.1007000000000000    0.8285800000000000 H
   0.0554300000000000    0.2418500000000000    0.6214250000000000 H
   0.5554800000000000    0.2418600000000000    0.6214300000000000 H
   0.0196700000000000    0.9537800000000000    0.5167300000000000 H
   0.5197100000000000    0.9534300000000000    0.5168100000000000 H
   0.1345300000000000    0.9735100000000000    0.6009500000000000 H
   0.6345200000000000    0.9734200000000000    0.6010650000000000 H
   0.3143300000000000    0.8282800000000000    0.6224300000000000 H
   0.8142500000000000    0.8280000000000000    0.6224550000000000 H
   0.0858800000000000    0.0355900000000000    0.6558500000000000 H
   0.5858800000000000    0.0356200000000000    0.6559100000000000 H
   0.1602400000000000    0.0372400000000000    0.6668700000000000 H
   0.6602400000000000    0.0372500000000000    0.6669150000000000 H
   0.0527900000000000    0.0679500000000000    0.5883550000000000 H
   0.5527800000000000    0.0678800000000000    0.5883900000000000 H
   0.1029300000000000    0.1483900000000000    0.5719350000000000 H
   0.6029200000000000    0.1482700000000000    0.5719400000000000 H
   0.2064600000000000    0.1323300000000000    0.5911400000000000 H
   0.7064900000000000    0.1321900000000000    0.5911750000000000 H
   0.2041600000000000    0.0402800000000000    0.5574300000000000 H
   0.7041400000000000    0.0401400000000000    0.5574650000000000 H
   0.2602300000000000    0.1233600000000000    0.6574250000000000 H
   0.7602500000000000    0.1231200000000000    0.6574800000000001 H
   0.3317100000000000    0.0443900000000000    0.7005700000000000 H
   0.8316400000000000    0.0440500000000000    0.7006450000000000 H
   0.3551400000000000    0.8889500000000000    0.6815450000000001 H
   0.8549800000000000    0.8885300000000000    0.6816100000000000 H
   0.2482900000000000    0.8996300000000000    0.5785350000000000 H
   0.7482799999999999    0.8994900000000000    0.5785300000000000 H
   0.8054100000000000    0.2577500000000000    0.8785499999999999 H
   0.7689700000000000    0.5481100000000000    0.9827600000000001 H
   0.8841599999999999    0.5266500000000000    0.8990700000000000 H
   0.0642100000000000    0.6720500000000000    0.8774750000000000 H
   0.8358300000000000    0.4642000000000000    0.8441350000000001 H
   0.9102500000000000    0.4629200000000000    0.8333333333333333 H
   0.8022899999999999    0.4317600000000000    0.9115300000000000 H
   0.8524100000000000    0.3519200000000000    0.9283800000000000 H
   0.9559299999999999    0.3681000000000000    0.9093050000000000 H
   0.9535200000000000    0.4604700000000000    0.9428000000000001 H
   0.0099500000000000    0.3765100000000000    0.8431150000000001 H
   0.0815300000000000    0.4552400000000000    0.7997750000000000 H
   0.1049900000000000    0.6109700000000000    0.8184350000000000 H
   0.9980500000000000    0.6009700000000000    0.9214850000000000 H
   0.4445700000000000    0.7422700000000000    0.6284400000000000 H
   0.9446200000000000    0.7421900000000000    0.6285350000000001 H
   0.4807400000000000    0.4546900000000000    0.7333450000000000 H
   0.9811200000000000    0.4518300000000000    0.7327000000000000 H
   0.3655600000000000    0.4736600000000000    0.6490750000000001 H
   0.8658900000000000    0.4733600000000000    0.6491350000000000 H
   0.1854900000000000    0.3281700000000000    0.6273050000000000 H
   0.6857300000000000    0.3282100000000000    0.6274299999999999 H
   0.4139200000000000    0.5357600000000000    0.5941050000000000 H
   0.9142600000000000    0.5358300000000000    0.5941700000000000 H
   0.3395200000000000    0.5372900000000000    0.5832150000000000 H
   0.8398400000000000    0.5370200000000001    0.5833750000000000 H
   0.4472300000000000    0.5686900000000000    0.6615450000000000 H
   0.9477300000000000    0.5685500000000000    0.6615200000000000 H
   0.3970100000000000    0.6487200000000000    0.6780349999999999 H
   0.8974800000000001    0.6481300000000000    0.6784300000000000 H
   0.2935900000000000    0.6321000000000000    0.6591200000000000 H
   0.7941100000000000    0.6318800000000000    0.6594000000000000 H
   0.2959000000000000    0.5397300000000000    0.6926550000000000 H
   0.7964700000000000    0.5393600000000000    0.6928700000000000 H
   0.2397400000000000    0.6237500000000000    0.5929000000000000 H
   0.7402100000000000    0.6237800000000000    0.5931950000000000 H
   0.1681400000000000    0.5451300000000000    0.5496200000000000 H
   0.6685700000000000    0.5453300000000000    0.5498499999999999 H
   0.1446100000000000    0.3894400000000000    0.5683100000000000 H
   0.6449800000000000    0.3896100000000000    0.5684450000000000 H
   0.2516600000000000    0.3991600000000000    0.6712549999999999 H
   0.7519300000000000    0.3990100000000000    0.6714450000000000 H
   0.9897899999999999    0.2090300000000000    0.2560100000000000 C
   0.3768800000000000    0.4334800000000000    0.3527500000000000 C
   0.8768600000000000    0.4334300000000000    0.3527500000000000 C
   0.3447600000000000    0.4214100000000000    0.4256600000000000 C
   0.1233000000000000    0.9335000000000000    0.3972300000000000 C
   0.6229800000000000    0.9334100000000000    0.3973450000000000 C
   0.1548400000000000    0.9210199999999999    0.3242450000000000 C
   0.6543400000000000    0.9208200000000000    0.3243700000000000 C
   0.0488800000000000    0.9381400000000000    0.3393800000000000 C
   0.5484400000000000    0.9379200000000000    0.3395550000000000 C
   0.0043200000000000    0.9830600000000000    0.3656500000000000 C
   0.5039300000000000    0.9830600000000000    0.3657650000000000 C
   0.4784100000000000    0.9431600000000000    0.4000400000000000 C
   0.9788000000000000    0.9429600000000000    0.3998500000000000 C
   0.4383400000000000    0.9872600000000000    0.4243400000000000 C
   0.9387000000000000    0.9869200000000000    0.4242000000000000 C
   0.4241900000000000    0.0710600000000000    0.4139750000000000 C
   0.9245000000000000    0.0707500000000000    0.4139300000000000 C
   0.4864400000000000    0.0663100000000000    0.3559400000000000 C
   0.9867899999999999    0.0663400000000000    0.3559150000000000 C
   0.2440800000000000    0.7337900000000001    0.2723300000000000 C
   0.7439400000000000    0.7334300000000000    0.2723700000000000 C
   0.2681900000000000    0.7660700000000000    0.2305900000000000 C
   0.7681200000000000    0.7647400000000000    0.2305100000000000 C
   0.1277200000000000    0.8285500000000000    0.1252700000000000 C
   0.6278200000000000    0.8283700000000001    0.1253700000000000 C
   0.1298900000000000    0.7299900000000000    0.1212350000000000 C
   0.6299100000000000    0.7298200000000000    0.1212400000000000 C
   0.2383300000000000    0.7004000000000000    0.4943050000000000 C
   0.7383400000000000    0.7003800000000000    0.4943250000000000 C
   0.2603700000000000    0.7910000000000000    0.0057350000000000 C
   0.7603799999999999    0.7909700000000000    0.0057550000000000 C
   0.1269600000000000    0.0665700000000000    0.1473250000000000 C
   0.6269600000000000    0.0665700000000000    0.1473650000000000 C
   0.0954800000000000    0.0789500000000000    0.0743750000000000 C
   0.5954600000000000    0.0788300000000000    0.0744050000000000 C
   0.2014700000000000    0.0623400000000000    0.0894500000000000 C
   0.7014600000000000    0.0622100000000000    0.0895150000000000 C
   0.2460400000000000    0.0172900000000000    0.1156550000000000 C
   0.7460100000000000    0.0171000000000000    0.1156900000000000 C
   0.2716200000000000    0.0572400000000000    0.1498600000000000 C
   0.7716000000000000    0.0569900000000000    0.1499100000000000 C
   0.3117700000000000    0.0131800000000000    0.1741000000000000 C
   0.8116900000000000    0.0128500000000000    0.1741700000000000 C
   0.3259600000000000    0.9294100000000000    0.1637400000000000 C
   0.8258200000000000    0.9290500000000000    0.1638150000000000 C
   0.2635300000000000    0.9340500000000000    0.1058450000000000 C
   0.7634900000000000    0.9338500000000000    0.1058650000000000 C
   0.5059600000000000    0.2666300000000000    0.0223950000000000 C
   0.0000000000000000    0.2666300000000000    0.0223900000000000 C
   0.4818500000000000    0.2352500000000000    0.4805350000000000 C
   0.9818600000000000    0.2352600000000000    0.4805300000000000 C
   0.1223600000000000    0.1717500000000000    0.3753300000000000 C
   0.6222700000000000    0.1715500000000000    0.3753700000000000 C
   0.1201900000000000    0.2703000000000000    0.3711700000000000 C
   0.6201400000000000    0.2701100000000000    0.3712250000000000 C
   0.0117700000000000    0.2995700000000000    0.2443850000000000 C
   0.5119899999999999    0.3007000000000000    0.2445450000000000 C
   0.4899400000000000    0.2098000000000000    0.2556200000000000 C
   0.8448700000000000    0.4212800000000000    0.4257150000000000 C
   0.4509200000000000    0.4379400000000000    0.4108500000000000 C
   0.9509900000000000    0.4380800000000000    0.4108200000000000 C
   0.4957400000000000    0.4827300000000000    0.3846800000000000 C
   0.9957300000000000    0.4829700000000000    0.3846100000000000 C
   0.0213600000000000    0.4427400000000000    0.3505000000000000 C
   0.5214299999999999    0.4424400000000000    0.3506100000000000 C
   0.0615500000000000    0.4866800000000000    0.3261650000000000 C
   0.5617100000000000    0.4862800000000000    0.3263000000000000 C
   0.0757400000000000    0.5706000000000000    0.3363200000000000 C
   0.5759400000000000    0.5701900000000000    0.3364600000000000 C
   0.0132600000000000    0.5663400000000000    0.3942450000000000 C
   0.5133300000000000    0.5660800000000000    0.3943100000000000 C
   0.2558900000000000    0.2338000000000000    0.4776450000000000 C
   0.7559100000000000    0.2337500000000000    0.4776750000000000 C
   0.2318300000000000    0.2660700000000000    0.0193850000000000 C
   0.7318500000000000    0.2660600000000000    0.0194050000000000 C
   0.3725300000000000    0.3286400000000000    0.1246900000000000 C
   0.8725700000000000    0.3284300000000000    0.1247500000000000 C
   0.3702100000000000    0.2300800000000000    0.1287750000000000 C
   0.8702400000000000    0.2298600000000000    0.1287950000000000 C
   0.2618800000000000    0.2004900000000000    0.2556050000000000 C
   0.7617300000000000    0.1995300000000000    0.2555550000000000 C
   0.2399400000000000    0.2909700000000000    0.2439900000000000 C
   0.7399300000000000    0.2904100000000000    0.2444200000000000 C
   0.3729000000000000    0.5666800000000000    0.1026900000000000 C
   0.8732100000000000    0.5665600000000000    0.1028100000000000 C
   0.4045700000000000    0.5793400000000000    0.1755950000000000 C
   0.9051399999999999    0.5788100000000000    0.1757000000000000 C
   0.2985600000000000    0.5621200000000000    0.1606450000000000 C
   0.7990500000000000    0.5618900000000000    0.1608800000000000 C
   0.2539200000000000    0.5172400000000000    0.1344100000000000 C
   0.7543200000000000    0.5171500000000000    0.1346450000000000 C
   0.2283000000000000    0.5575200000000000    0.1003000000000000 C
   0.7287300000000000    0.5575400000000000    0.1005700000000000 C
   0.1880900000000000    0.5136600000000000    0.0760050000000000 C
   0.6885000000000000    0.5137900000000000    0.0762250000000000 C
   0.1738700000000000    0.4297400000000000    0.0861800000000000 C
   0.6742400000000000    0.4298500000000000    0.0863450000000000 C
   0.2363900000000000    0.4338500000000000    0.1440350000000000 C
   0.7367200000000000    0.4337700000000000    0.1442350000000000 C
   0.9940700000000000    0.7666500000000001    0.2276700000000000 C
   0.4941200000000000    0.7661600000000000    0.2276100000000000 C
   0.0181400000000000    0.7352200000000000    0.2695250000000000 C
   0.5181000000000000    0.7338900000000000    0.2693550000000000 C
   0.3777300000000000    0.6717600000000000    0.3746200000000000 C
   0.8770900000000000    0.6715600000000000    0.3747050000000000 C
   0.3798900000000000    0.7703200000000000    0.3787400000000000 C
   0.8797400000000000    0.7701200000000000    0.3787100000000000 C
   0.4884500000000000    0.8001900000000000    0.0055500000000000 C
   0.9884600000000000    0.8003200000000000    0.0055450000000000 C
   0.0102900000000000    0.7094900000000000    0.4943800000000000 C
   0.5102900000000000    0.7093900000000000    0.4943900000000000 C
   0.9897899999999999    0.2090300000000000    0.7560100000000001 C
   0.8768600000000000    0.4334300000000000    0.8527500000000000 C
   0.1233000000000000    0.9335000000000000    0.8972300000000000 C
   0.6229800000000000    0.9334100000000000    0.8973450000000001 C
   0.1548400000000000    0.9210199999999999    0.8242450000000000 C
   0.6543400000000000    0.9208200000000000    0.8243700000000000 C
   0.0488800000000000    0.9381400000000000    0.8393800000000000 C
   0.5484400000000000    0.9379200000000000    0.8395550000000001 C
   0.0043200000000000    0.9830600000000000    0.8656500000000000 C
   0.5039300000000000    0.9830600000000000    0.8657650000000000 C
   0.4784100000000000    0.9431600000000000    0.9000400000000000 C
   0.9788000000000000    0.9429600000000000    0.8998500000000000 C
   0.4383400000000000    0.9872600000000000    0.9243399999999999 C
   0.9387000000000000    0.9869200000000000    0.9242000000000000 C
   0.4241900000000000    0.0710600000000000    0.9139750000000000 C
   0.9245000000000000    0.0707500000000000    0.9139300000000000 C
   0.4864400000000000    0.0663100000000000    0.8559399999999999 C
   0.9867899999999999    0.0663400000000000    0.8559150000000000 C
   0.2440800000000000    0.7337900000000001    0.7723300000000000 C
   0.7439400000000000    0.7334300000000000    0.7723700000000000 C
   0.2681900000000000    0.7660700000000000    0.7305900000000000 C
   0.7681200000000000    0.7647400000000000    0.7305100000000000 C
   0.1277200000000000    0.8285500000000000    0.6252700000000000 C
   0.6278200000000000    0.8283700000000001    0.6253700000000000 C
   0.1298900000000000    0.7299900000000000    0.6212350000000000 C
   0.6299100000000000    0.7298200000000000    0.6212400000000000 C
   0.2383300000000000    0.7004000000000000    0.9943050000000000 C
   0.7383400000000000    0.7003800000000000    0.9943250000000000 C
   0.2603700000000000    0.7910000000000000    0.5057350000000000 C
   0.7603799999999999    0.7909700000000000    0.5057550000000000 C
   0.1269600000000000    0.0665700000000000    0.6473250000000000 C
   0.6269600000000000    0.0665700000000000    0.6473650000000000 C
   0.0954800000000000    0.0789500000000000    0.5743750000000000 C
   0.5954600000000000    0.0788300000000000    0.5744050000000001 C
   0.2014700000000000    0.0623400000000000    0.5894500000000000 C
   0.7014600000000000    0.0622100000000000    0.5895150000000000 C
   0.2460400000000000    0.0172900000000000    0.6156550000000000 C
   0.7460100000000000    0.0171000000000000    0.6156900000000000 C
   0.2716200000000000    0.0572400000000000    0.6498600000000000 C
   0.7716000000000000    0.0569900000000000    0.6499100000000000 C
   0.3117700000000000    0.0131800000000000    0.6741000000000000 C
   0.8116900000000000    0.0128500000000000    0.6741699999999999 C
   0.3259600000000000    0.9294100000000000    0.6637400000000000 C
   0.8258200000000000    0.9290500000000000    0.6638150000000000 C
   0.2635300000000000    0.9340500000000000    0.6058450000000000 C
   0.7634900000000000    0.9338500000000000    0.6058650000000000 C
   0.5059600000000000    0.2666300000000000    0.5223950000000001 C
   0.0000000000000000    0.2666300000000000    0.5223900000000000 C
   0.4818500000000000    0.2352500000000000    0.9805349999999999 C
   0.9818600000000000    0.2352600000000000    0.9805300000000000 C
   0.1223600000000000    0.1717500000000000    0.8753299999999999 C
   0.6222700000000000    0.1715500000000000    0.8753700000000000 C
   0.1201900000000000    0.2703000000000000    0.8711700000000000 C