H10 O7
1.0
  37.1819840922339893    0.0000000000000000    0.0343942561862268
  -9.2525175173748266   26.9579757313583919   -4.5341001376418664
   0.0000000000000000    0.0000000000000000   34.9179999999999993
H O
10 7
direct
   0.9425055905714228    0.7664516537122259    0.8006595773311843 H
   0.9086303575841923    0.6768300184841580    0.8101755685610333 H
   0.0972584572801011    0.7675885909545886    0.7845521668815354 H
   0.1113219622223963    0.7723564030033804    0.7694032435266698 H
   0.0505547601500821    0.7978057206273050    0.8037846635276166 H
   0.0060276071824094    0.7340308108939921    0.8440102799822278 H
   0.0772036838037853    0.6817456537537381    0.7877446017680911 H
   0.0361766262975855    0.6668572211299961    0.8649800529824201 H
   0.0704917626220076    0.7068879805182540    0.8508881534466772 H
   0.7676703295074685    0.7407819408168325    0.8028771171804445 H
   0.9656549999999999    0.7579350000000000    0.8016449999999999 O
   0.9352350000000000    0.6791350000000000    0.8100100000000000 O
   0.0939700000000000    0.7914500000000000    0.7712399999999999 O
   0.0471150000000000    0.8227650000000000    0.7898600000000000 O
   0.0275750000000000    0.7647349999999999    0.8459350000000000 O
   0.1030100000000000    0.6952400000000000    0.7997400000000000 O
   0.0630350000000000    0.6838200000000000    0.8728850000000000 O
