Zn128 H888 C1142 N126 O640
1.0
  37.1819840922339893    0.0000000000000000    0.0343942561862268
  -9.2525175173748266   26.9579757313583919   -4.5341001376418664
   0.0000000000000000    0.0000000000000000   34.9179999999999993
Zn H C N O
128 888 1142 126 640
direct
   0.4938000000000000    0.1739250000000000    0.1696500000000000 Zn
   0.1419600000000000    0.1721800000000000    0.2732300000000000 Zn
   0.3919650000000000    0.1721800000000000    0.2732300000000000 Zn
   0.1565050000000000    0.3257600000000000    0.0801700000000000 Zn
   0.4065100000000000    0.3257650000000000    0.0801700000000000 Zn
   0.0552950000000000    0.3280050000000000    0.4768900000000000 Zn
   0.3052950000000000    0.3280100000000000    0.4768900000000000 Zn
   0.0062050000000000    0.3260800000000000    0.3303100000000000 Zn
   0.2562100000000000    0.3260800000000000    0.3303000000000000 Zn
   0.1080450000000000    0.3278300000000000    0.2267700000000000 Zn
   0.3580500000000000    0.3278300000000000    0.2267700000000000 Zn
   0.0934950000000000    0.1742350000000000    0.4198300000000000 Zn
   0.3435000000000000    0.1742400000000000    0.4198300000000000 Zn
   0.1947100000000000    0.1719950000000000    0.0231000000000000 Zn
   0.4447100000000000    0.1720000000000000    0.0231000000000000 Zn
   0.2438000000000000    0.1739300000000000    0.1696500000000000 Zn
   0.9938000000000000    0.1739250000000000    0.1696500000000000 Zn
   0.6419600000000000    0.1721800000000000    0.2732300000000000 Zn
   0.8919650000000000    0.1721800000000000    0.2732300000000000 Zn
   0.6565050000000000    0.3257600000000000    0.0801700000000000 Zn
   0.9065099999999999    0.3257650000000000    0.0801700000000000 Zn
   0.5552950000000000    0.3280050000000000    0.4768900000000000 Zn
   0.8052950000000000    0.3280100000000000    0.4768900000000000 Zn
   0.5062050000000000    0.3260800000000000    0.3303100000000000 Zn
   0.7562100000000000    0.3260800000000000    0.3303000000000000 Zn
   0.6080449999999999    0.3278300000000000    0.2267700000000000 Zn
   0.8580500000000000    0.3278300000000000    0.2267700000000000 Zn
   0.5934950000000000    0.1742350000000000    0.4198300000000000 Zn
   0.8435000000000000    0.1742400000000000    0.4198300000000000 Zn
   0.6947099999999999    0.1719950000000000    0.0231000000000000 Zn
   0.9447099999999999    0.1720000000000000    0.0231000000000000 Zn
   0.7438000000000000    0.1739300000000000    0.1696500000000000 Zn
   0.4938000000000000    0.6739250000000000    0.1696500000000000 Zn
   0.1419600000000000    0.6721800000000000    0.2732300000000000 Zn
   0.3919650000000000    0.6721800000000000    0.2732300000000000 Zn
   0.1565050000000000    0.8257600000000000    0.0801700000000000 Zn
   0.4065100000000000    0.8257650000000001    0.0801700000000000 Zn
   0.0552950000000000    0.8280050000000000    0.4768900000000000 Zn
   0.3052950000000000    0.8280100000000000    0.4768900000000000 Zn
   0.0062050000000000    0.8260799999999999    0.3303100000000000 Zn
   0.2562100000000000    0.8260799999999999    0.3303000000000000 Zn
   0.1080450000000000    0.8278300000000001    0.2267700000000000 Zn
   0.3580500000000000    0.8278300000000001    0.2267700000000000 Zn
   0.0934950000000000    0.6742350000000000    0.4198300000000000 Zn
   0.3435000000000000    0.6742400000000000    0.4198300000000000 Zn
   0.1947100000000000    0.6719950000000000    0.0231000000000000 Zn
   0.4447100000000000    0.6719999999999999    0.0231000000000000 Zn
   0.2438000000000000    0.6739300000000000    0.1696500000000000 Zn
   0.9938000000000000    0.6739250000000000    0.1696500000000000 Zn
   0.6419600000000000    0.6721800000000000    0.2732300000000000 Zn
   0.8919650000000000    0.6721800000000000    0.2732300000000000 Zn
   0.6565050000000000    0.8257600000000000    0.0801700000000000 Zn
   0.9065099999999999    0.8257650000000001    0.0801700000000000 Zn
   0.5552950000000000    0.8280050000000000    0.4768900000000000 Zn
   0.8052950000000000    0.8280100000000000    0.4768900000000000 Zn
   0.5062050000000000    0.8260799999999999    0.3303100000000000 Zn
   0.7562100000000000    0.8260799999999999    0.3303000000000000 Zn
   0.6080449999999999    0.8278300000000001    0.2267700000000000 Zn
   0.8580500000000000    0.8278300000000001    0.2267700000000000 Zn
   0.5934950000000000    0.6742350000000000    0.4198300000000000 Zn
   0.8435000000000000    0.6742400000000000    0.4198300000000000 Zn
   0.6947099999999999    0.6719950000000000    0.0231000000000000 Zn
   0.9447099999999999    0.6719999999999999    0.0231000000000000 Zn
   0.7438000000000000    0.6739300000000000    0.1696500000000000 Zn
   0.4938000000000000    0.1739250000000000    0.6696500000000000 Zn
   0.1419600000000000    0.1721800000000000    0.7732300000000000 Zn
   0.3919650000000000    0.1721800000000000    0.7732300000000000 Zn
   0.1565050000000000    0.3257600000000000    0.5801700000000000 Zn
   0.4065100000000000    0.3257650000000000    0.5801700000000000 Zn
   0.0552950000000000    0.3280050000000000    0.9768900000000000 Zn
   0.3052950000000000    0.3280100000000000    0.9768900000000000 Zn
   0.0062050000000000    0.3260800000000000    0.8303100000000000 Zn
   0.2562100000000000    0.3260800000000000    0.8303000000000000 Zn
   0.1080450000000000    0.3278300000000000    0.7267700000000000 Zn
   0.3580500000000000    0.3278300000000000    0.7267700000000000 Zn
   0.0934950000000000    0.1742350000000000    0.9198299999999999 Zn
   0.3435000000000000    0.1742400000000000    0.9198299999999999 Zn
   0.1947100000000000    0.1719950000000000    0.5231000000000000 Zn
   0.4447100000000000    0.1720000000000000    0.5231000000000000 Zn
   0.2438000000000000    0.1739300000000000    0.6696500000000000 Zn
   0.9938000000000000    0.1739250000000000    0.6696500000000000 Zn
   0.6419600000000000    0.1721800000000000    0.7732300000000000 Zn
   0.8919650000000000    0.1721800000000000    0.7732300000000000 Zn
   0.6565050000000000    0.3257600000000000    0.5801700000000000 Zn
   0.9065099999999999    0.3257650000000000    0.5801700000000000 Zn
   0.5552950000000000    0.3280050000000000    0.9768900000000000 Zn
   0.8052950000000000    0.3280100000000000    0.9768900000000000 Zn
   0.5062050000000000    0.3260800000000000    0.8303100000000000 Zn
   0.7562100000000000    0.3260800000000000    0.8303000000000000 Zn
   0.6080449999999999    0.3278300000000000    0.7267700000000000 Zn
   0.8580500000000000    0.3278300000000000    0.7267700000000000 Zn
   0.5934950000000000    0.1742350000000000    0.9198299999999999 Zn
   0.8435000000000000    0.1742400000000000    0.9198299999999999 Zn
   0.6947099999999999    0.1719950000000000    0.5231000000000000 Zn
   0.9447099999999999    0.1720000000000000    0.5231000000000000 Zn
   0.7438000000000000    0.1739300000000000    0.6696500000000000 Zn
   0.4938000000000000    0.6739250000000000    0.6696500000000000 Zn
   0.1419600000000000    0.6721800000000000    0.7732300000000000 Zn
   0.3919650000000000    0.6721800000000000    0.7732300000000000 Zn
   0.1565050000000000    0.8257600000000000    0.5801700000000000 Zn
   0.4065100000000000    0.8257650000000001    0.5801700000000000 Zn
   0.0552950000000000    0.8280050000000000    0.9768900000000000 Zn
   0.3052950000000000    0.8280100000000000    0.9768900000000000 Zn
   0.0062050000000000    0.8260799999999999    0.8303100000000000 Zn
   0.2562100000000000    0.8260799999999999    0.8303000000000000 Zn
   0.1080450000000000    0.8278300000000001    0.7267700000000000 Zn
   0.3580500000000000    0.8278300000000001    0.7267700000000000 Zn
   0.0934950000000000    0.6742350000000000    0.9198299999999999 Zn
   0.3435000000000000    0.6742400000000000    0.9198299999999999 Zn
   0.1947100000000000    0.6719950000000000    0.5231000000000000 Zn
   0.4447100000000000    0.6719999999999999    0.5231000000000000 Zn
   0.2438000000000000    0.6739300000000000    0.6696500000000000 Zn
   0.9938000000000000    0.6739250000000000    0.6696500000000000 Zn
   0.6419600000000000    0.6721800000000000    0.7732300000000000 Zn
   0.8919650000000000    0.6721800000000000    0.7732300000000000 Zn
   0.6565050000000000    0.8257600000000000    0.5801700000000000 Zn
   0.9065099999999999    0.8257650000000001    0.5801700000000000 Zn
   0.5552950000000000    0.8280050000000000    0.9768900000000000 Zn
   0.8052950000000000    0.8280100000000000    0.9768900000000000 Zn
   0.5062050000000000    0.8260799999999999    0.8303100000000000 Zn
   0.7562100000000000    0.8260799999999999    0.8303000000000000 Zn
   0.6080449999999999    0.8278300000000001    0.7267700000000000 Zn
   0.8580500000000000    0.8278300000000001    0.7267700000000000 Zn
   0.5934950000000000    0.6742350000000000    0.9198299999999999 Zn
   0.8435000000000000    0.6742400000000000    0.9198299999999999 Zn
   0.6947099999999999    0.6719950000000000    0.5231000000000000 Zn
   0.9447099999999999    0.6719999999999999    0.5231000000000000 Zn
   0.7438000000000000    0.6739300000000000    0.6696500000000000 Zn
   0.1679800000000000    0.2390000000000000    0.1623900000000000 H
   0.4179800000000000    0.2389950000000000    0.1623900000000000 H
   0.2270650000000000    0.2982150000000000    0.2268600000000000 H
   0.4770650000000000    0.2982100000000000    0.2268650000000000 H
   0.0107500000000000    0.3549850000000000    0.1867800000000000 H
   0.2607500000000000    0.3549850000000000    0.1867500000000000 H
   0.0147000000000000    0.2828750000000000    0.1275800000000000 H
   0.2647000000000000    0.2828750000000000    0.1275800000000000 H
   0.1551550000000000    0.1379550000000000    0.1379800000000000 H
   0.4051600000000000    0.1379600000000000    0.1379750000000000 H
   0.1113750000000000    0.0683300000000000    0.0937000000000000 H
   0.3613800000000000    0.0683350000000000    0.0937050000000000 H
   0.2034100000000000    0.0066250000000000    0.0763350000000000 H
   0.4534050000000000    0.0066150000000000    0.0763400000000000 H
   0.2440700000000000    0.0807750000000000    0.1200050000000000 H
   0.4940650000000000    0.0807650000000000    0.1200100000000000 H
   0.0368800000000000    0.4120700000000000    0.0305000000000000 H
   0.2868850000000000    0.4120700000000000    0.0305000000000000 H
   0.0747250000000000    0.4878650000000000    0.0764000000000000 H
   0.3247250000000000    0.4878650000000000    0.0764000000000000 H
   0.1755200000000000    0.4710950000000000    0.0220950000000000 H
   0.4255200000000000    0.4711000000000000    0.0220500000000000 H
   0.1336550000000000    0.3948950000000000    0.4809550000000000 H
   0.3836550000000000    0.3948950000000000    0.4809500000000000 H
   0.0484550000000000    0.2605050000000000    0.0874150000000000 H
   0.2984550000000000    0.2605100000000000    0.0874150000000000 H
   0.0781500000000000    0.2013850000000000    0.0228350000000000 H
   0.3281550000000000    0.2013900000000000    0.0228400000000000 H
   0.0835100000000000    0.1446400000000000    0.0629750000000000 H
   0.3335150000000000    0.1446450000000000    0.0629750000000000 H
   0.1232400000000000    0.2168450000000000    0.1221750000000000 H
   0.3732450000000000    0.2168500000000000    0.1221500000000000 H
   0.0859300000000000    0.3618700000000000    0.1125650000000000 H
   0.3359350000000000    0.3618750000000000    0.1125650000000000 H
   0.0772850000000000    0.4316950000000000    0.1570500000000000 H
   0.3272900000000000    0.4317050000000000    0.1570750000000000 H
   0.2001150000000000    0.4929200000000000    0.1732100000000000 H
   0.4501200000000000    0.4929150000000000    0.1732250000000000 H
   0.2034050000000000    0.4186450000000000    0.1293750000000000 H
   0.4534100000000000    0.4186400000000000    0.1293850000000000 H
   0.0813150000000000    0.0882150000000000    0.2203850000000000 H
   0.3313250000000000    0.0882250000000000    0.2203800000000000 H
   0.0809450000000000    0.0121750000000000    0.1744000000000000 H
   0.3309550000000000    0.0121850000000000    0.1744000000000000 H
   0.1904400000000000    0.0286950000000000    0.2275500000000000 H
   0.4404400000000000    0.0286900000000000    0.2275500000000000 H
   0.1869900000000000    0.1051600000000000    0.2687500000000000 H
   0.4369900000000000    0.1051550000000000    0.2687650000000000 H
   0.0820300000000000    0.2610000000000000    0.3376000000000000 H
   0.3320300000000000    0.2610000000000000    0.3376000000000000 H
   0.0229450000000000    0.2017950000000000    0.2731250000000000 H
   0.2729500000000000    0.2017950000000000    0.2731000000000000 H
   0.2392600000000000    0.1450150000000000    0.3132000000000000 H
   0.4892600000000000    0.1450150000000000    0.3132000000000000 H
   0.2353100000000000    0.2171150000000000    0.3724100000000000 H
   0.4853150000000000    0.2171150000000000    0.3724100000000000 H
   0.0948500000000000    0.3620450000000000    0.3620000000000000 H
   0.3448500000000000    0.3620450000000000    0.3620200000000000 H
   0.1386300000000000    0.4316700000000000    0.4062850000000000 H
   0.3886300000000000    0.4316700000000000    0.4062850000000000 H
   0.0466000000000000    0.4933850000000000    0.4236500000000000 H
   0.2966000000000000    0.4933800000000000    0.4236600000000000 H
   0.0059400000000000    0.4192350000000000    0.3799900000000000 H
   0.2559400000000000    0.4192300000000000    0.3799900000000000 H
   0.2131250000000000    0.0879350000000000    0.4694500000000000 H
   0.4631250000000000    0.0879300000000000    0.4694950000000000 H
   0.1752850000000000    0.0121400000000000    0.4235950000000000 H
   0.4252850000000000    0.0121350000000000    0.4235000000000000 H
   0.0744900000000000    0.0289000000000000    0.4779000000000000 H
   0.3244900000000000    0.0289050000000000    0.4779000000000000 H
   0.1163550000000000    0.1051000000000000    0.0190450000000000 H
   0.3663550000000000    0.1051100000000000    0.0190000000000000 H
   0.2015500000000000    0.2394850000000000    0.4125800000000000 H
   0.4515550000000000    0.2394900000000000    0.4125850000000000 H
   0.1718550000000000    0.2986050000000000    0.4771550000000000 H
   0.4218550000000000    0.2986100000000000    0.4771600000000000 H
   0.1664900000000000    0.3553500000000000    0.4370200000000000 H
   0.4164950000000000    0.3553550000000000    0.4370200000000000 H
   0.1267550000000000    0.2831400000000000    0.3778200000000000 H
   0.3767600000000000    0.2831500000000000    0.3778200000000000 H
   0.1640700000000000    0.1381400000000000    0.3874300000000000 H
   0.4140750000000000    0.1381350000000000    0.3874400000000000 H
   0.1727250000000000    0.0683150000000000    0.3429000000000000 H
   0.4227300000000000    0.0683100000000000    0.3429000000000000 H
   0.0498950000000000    0.0070850000000000    0.3267750000000000 H
   0.2999000000000000    0.0070900000000000    0.3267750000000000 H
   0.0466000000000000    0.0813600000000000    0.3706050000000000 H
   0.2966050000000000    0.0813650000000000    0.3706050000000000 H
   0.1686950000000000    0.4117950000000000    0.2796000000000000 H
   0.4186950000000000    0.4117850000000000    0.2796000000000000 H
   0.1690700000000000    0.4878350000000000    0.3255850000000000 H
   0.4190700000000000    0.4878250000000000    0.3255950000000000 H
   0.0595700000000000    0.4713150000000000    0.2724450000000000 H
   0.3095800000000000    0.4713250000000000    0.2724000000000000 H
   0.0630200000000000    0.3948500000000000    0.2312400000000000 H
   0.3130300000000000    0.3948600000000000    0.2312400000000000 H
   0.0369900000000000    0.1252800000000000    0.1697100000000000 H
   0.2869900000000000    0.1252800000000000    0.1697100000000000 H
   0.0312200000000000    0.1346550000000000    0.2160950000000000 H
   0.2812250000000000    0.1346550000000000    0.2160500000000000 H
   0.2240800000000000    0.3742600000000000    0.0801500000000000 H
   0.4740850000000000    0.3742700000000000    0.0801850000000000 H
   0.2137000000000000    0.3653300000000000    0.0338000000000000 H
   0.4637100000000000    0.3653300000000000    0.0338300000000000 H
   0.2130150000000000    0.3747250000000000    0.3302900000000000 H
   0.4630200000000000    0.3747250000000000    0.3302900000000000 H
   0.2187850000000000    0.3653500000000000    0.2839050000000000 H
   0.4687900000000000    0.3653500000000000    0.2839050000000000 H
   0.0259200000000000    0.1257100000000000    0.4198000000000000 H
   0.2759250000000000    0.1257150000000000    0.4198000000000000 H
   0.0362850000000000    0.1346650000000000    0.4661550000000000 H
   0.2862900000000000    0.1346700000000000    0.4661550000000000 H
   0.6679800000000000    0.2390000000000000    0.1623900000000000 H
   0.9179800000000000    0.2389950000000000    0.1623900000000000 H
   0.7270650000000000    0.2982150000000000    0.2268600000000000 H
   0.9770650000000001    0.2982100000000000    0.2268650000000000 H
   0.5107500000000000    0.3549850000000000    0.1867800000000000 H
   0.7607500000000000    0.3549850000000000    0.1867500000000000 H
   0.5147000000000000    0.2828750000000000    0.1275800000000000 H
   0.7646999999999999    0.2828750000000000    0.1275800000000000 H
   0.6551549999999999    0.1379550000000000    0.1379800000000000 H
   0.9051600000000000    0.1379600000000000    0.1379750000000000 H
   0.6113750000000000    0.0683300000000000    0.0937000000000000 H
   0.8613800000000000    0.0683350000000000    0.0937050000000000 H
   0.7034100000000000    0.0066250000000000    0.0763350000000000 H
   0.9534050000000001    0.0066150000000000    0.0763400000000000 H
   0.7440700000000000    0.0807750000000000    0.1200050000000000 H
   0.9940650000000000    0.0807650000000000    0.1200100000000000 H
   0.5368800000000000    0.4120700000000000    0.0305000000000000 H
   0.7868850000000001    0.4120700000000000    0.0305000000000000 H
   0.5747250000000000    0.4878650000000000    0.0764000000000000 H
   0.8247249999999999    0.4878650000000000    0.0764000000000000 H
   0.6755200000000000    0.4710950000000000    0.0220950000000000 H
   0.9255200000000000    0.4711000000000000    0.0220500000000000 H
   0.6336550000000000    0.3948950000000000    0.4809550000000000 H
   0.8836550000000001    0.3948950000000000    0.4809500000000000 H
   0.5484550000000000    0.2605050000000000    0.0874150000000000 H
   0.7984550000000000    0.2605100000000000    0.0874150000000000 H
   0.5781499999999999    0.2013850000000000    0.0228350000000000 H
   0.8281550000000000    0.2013900000000000    0.0228400000000000 H
   0.5835100000000000    0.1446400000000000    0.0629750000000000 H
   0.8335150000000000    0.1446450000000000    0.0629750000000000 H
   0.6232400000000000    0.2168450000000000    0.1221750000000000 H
   0.8732450000000000    0.2168500000000000    0.1221500000000000 H
   0.5859300000000001    0.3618700000000000    0.1125650000000000 H
   0.8359350000000000    0.3618750000000000    0.1125650000000000 H
   0.5772850000000000    0.4316950000000000    0.1570500000000000 H
   0.8272900000000001    0.4317050000000000    0.1570750000000000 H
   0.7001150000000000    0.4929200000000000    0.1732100000000000 H
   0.9501200000000001    0.4929150000000000    0.1732250000000000 H
   0.7034050000000001    0.4186450000000000    0.1293750000000000 H
   0.9534100000000000    0.4186400000000000    0.1293850000000000 H
   0.5813150000000000    0.0882150000000000    0.2203850000000000 H
   0.8313250000000000    0.0882250000000000    0.2203800000000000 H
   0.5809450000000000    0.0121750000000000    0.1744000000000000 H
   0.8309550000000000    0.0121850000000000    0.1744000000000000 H
   0.6904399999999999    0.0286950000000000    0.2275500000000000 H
   0.9404399999999999    0.0286900000000000    0.2275500000000000 H
   0.6869900000000000    0.1051600000000000    0.2687500000000000 H
   0.9369900000000000    0.1051550000000000    0.2687650000000000 H
   0.5820300000000000    0.2610000000000000    0.3376000000000000 H
   0.8320300000000000    0.2610000000000000    0.3376000000000000 H
   0.5229450000000000    0.2017950000000000    0.2731250000000000 H
   0.7729500000000000    0.2017950000000000    0.2731000000000000 H
   0.7392600000000000    0.1450150000000000    0.3132000000000000 H
   0.9892600000000000    0.1450150000000000    0.3132000000000000 H
   0.7353100000000000    0.2171150000000000    0.3724100000000000 H
   0.9853149999999999    0.2171150000000000    0.3724100000000000 H
   0.5948500000000000    0.3620450000000000    0.3620000000000000 H
   0.8448500000000000    0.3620450000000000    0.3620200000000000 H
   0.6386300000000000    0.4316700000000000    0.4062850000000000 H
   0.8886300000000000    0.4316700000000000    0.4062850000000000 H
   0.5466000000000000    0.4933850000000000    0.4236500000000000 H
   0.7966000000000000    0.4933800000000000    0.4236600000000000 H
   0.5059399999999999    0.4192350000000000    0.3799900000000000 H
   0.7559400000000001    0.4192300000000000    0.3799900000000000 H
   0.7131250000000000    0.0879350000000000    0.4694500000000000 H
   0.9631250000000000    0.0879300000000000    0.4694950000000000 H
   0.6752850000000000    0.0121400000000000    0.4235950000000000 H
   0.9252850000000000    0.0121350000000000    0.4235000000000000 H
   0.5744899999999999    0.0289000000000000    0.4779000000000000 H
   0.8244899999999999    0.0289050000000000    0.4779000000000000 H
   0.8663550000000000    0.1051100000000000    0.0190000000000000 H
   0.7015500000000000    0.2394850000000000    0.4125800000000000 H
   0.9515549999999999    0.2394900000000000    0.4125850000000000 H
   0.6718550000000000    0.2986050000000000    0.4771550000000000 H
   0.9218550000000000    0.2986100000000000    0.4771600000000000 H
   0.6664900000000000    0.3553500000000000    0.4370200000000000 H
   0.9164950000000001    0.3553550000000000    0.4370200000000000 H
   0.6267550000000000    0.2831400000000000    0.3778200000000000 H
   0.8767600000000000    0.2831500000000000    0.3778200000000000 H
   0.6640699999999999    0.1381400000000000    0.3874300000000000 H
   0.9140750000000000    0.1381350000000000    0.3874400000000000 H
   0.6727250000000000    0.0683150000000000    0.3429000000000000 H
   0.9227300000000001    0.0683100000000000    0.3429000000000000 H
   0.5498950000000000    0.0070850000000000    0.3267750000000000 H
   0.7999000000000001    0.0070900000000000    0.3267750000000000 H
   0.5466000000000000    0.0813600000000000    0.3706050000000000 H
   0.7966050000000000    0.0813650000000000    0.3706050000000000 H
   0.6686950000000000    0.4117950000000000    0.2796000000000000 H
   0.9186950000000000    0.4117850000000000    0.2796000000000000 H
   0.6690700000000001    0.4878350000000000    0.3255850000000000 H
   0.9190700000000001    0.4878250000000000    0.3255950000000000 H
   0.5595700000000000    0.4713150000000000    0.2724450000000000 H
   0.8095800000000000    0.4713250000000000    0.2724000000000000 H
   0.5630200000000000    0.3948500000000000    0.2312400000000000 H
   0.8130299999999999    0.3948600000000000    0.2312400000000000 H
   0.5369900000000000    0.1252800000000000    0.1697100000000000 H
   0.7869900000000001    0.1252800000000000    0.1697100000000000 H
   0.5312200000000000    0.1346550000000000    0.2160950000000000 H
   0.7812250000000001    0.1346550000000000    0.2160500000000000 H
   0.7240800000000001    0.3742600000000000    0.0801500000000000 H
   0.9740850000000000    0.3742700000000000    0.0801850000000000 H
   0.7137000000000000    0.3653300000000000    0.0338000000000000 H
   0.9637100000000001    0.3653300000000000    0.0338300000000000 H
   0.7130150000000000    0.3747250000000000    0.3302900000000000 H
   0.9630200000000000    0.3747250000000000    0.3302900000000000 H
   0.7187850000000000    0.3653500000000000    0.2839050000000000 H
   0.9687900000000000    0.3653500000000000    0.2839050000000000 H
   0.5259199999999999    0.1257100000000000    0.4198000000000000 H
   0.7759250000000000    0.1257150000000000    0.4198000000000000 H
   0.5362850000000000    0.1346650000000000    0.4661550000000000 H
   0.7862899999999999    0.1346700000000000    0.4661550000000000 H
   0.1679800000000000    0.7390000000000000    0.1623900000000000 H
   0.4179800000000000    0.7389950000000001    0.1623900000000000 H
   0.2270650000000000    0.7982150000000000    0.2268600000000000 H
   0.4770650000000000    0.7982100000000000    0.2268650000000000 H
   0.0107500000000000    0.8549850000000000    0.1867800000000000 H
   0.2607500000000000    0.8549850000000000    0.1867500000000000 H
   0.0147000000000000    0.7828750000000000    0.1275800000000000 H
   0.2647000000000000    0.7828750000000000    0.1275800000000000 H
   0.1551550000000000    0.6379550000000000    0.1379800000000000 H
   0.4051600000000000    0.6379600000000000    0.1379750000000000 H
   0.1113750000000000    0.5683300000000000    0.0937000000000000 H
   0.3613800000000000    0.5683350000000000    0.0937050000000000 H
   0.2034100000000000    0.5066250000000000    0.0763350000000000 H
   0.4534050000000000    0.5066150000000000    0.0763400000000000 H
   0.2440700000000000    0.5807750000000000    0.1200050000000000 H
   0.4940650000000000    0.5807650000000000    0.1200100000000000 H
   0.0368800000000000    0.9120699999999999    0.0305000000000000 H
   0.2868850000000000    0.9120699999999999    0.0305000000000000 H
   0.0747250000000000    0.9878650000000000    0.0764000000000000 H
   0.3247250000000000    0.9878650000000000    0.0764000000000000 H
   0.1755200000000000    0.9710950000000000    0.0220950000000000 H
   0.4255200000000000    0.9711000000000001    0.0220500000000000 H
   0.1336550000000000    0.8948950000000000    0.4809550000000000 H
   0.3836550000000000    0.8948950000000000    0.4809500000000000 H
   0.0484550000000000    0.7605050000000000    0.0874150000000000 H
   0.2984550000000000    0.7605100000000000    0.0874150000000000 H
   0.0781500000000000    0.7013850000000000    0.0228350000000000 H
   0.3281550000000000    0.7013900000000000    0.0228400000000000 H
   0.0835100000000000    0.6446400000000000    0.0629750000000000 H
   0.3335150000000000    0.6446450000000000    0.0629750000000000 H
   0.1232400000000000    0.7168450000000000    0.1221750000000000 H
   0.3732450000000000    0.7168500000000000    0.1221500000000000 H
   0.0859300000000000    0.8618700000000000    0.1125650000000000 H
   0.3359350000000000    0.8618749999999999    0.1125650000000000 H
   0.0772850000000000    0.9316949999999999    0.1570500000000000 H
   0.3272900000000000    0.9317050000000000    0.1570750000000000 H
   0.2001150000000000    0.9929200000000000    0.1732100000000000 H
   0.4501200000000000    0.9929150000000000    0.1732250000000000 H
   0.2034050000000000    0.9186449999999999    0.1293750000000000 H
   0.4534100000000000    0.9186400000000000    0.1293850000000000 H
   0.0813150000000000    0.5882150000000000    0.2203850000000000 H
   0.3313250000000000    0.5882250000000000    0.2203800000000000 H
   0.0809450000000000    0.5121750000000000    0.1744000000000000 H
   0.3309550000000000    0.5121850000000000    0.1744000000000000 H
   0.1904400000000000    0.5286950000000000    0.2275500000000000 H
   0.4404400000000000    0.5286900000000000    0.2275500000000000 H
   0.1869900000000000    0.6051600000000000    0.2687500000000000 H
   0.4369900000000000    0.6051550000000000    0.2687650000000000 H
   0.0820300000000000    0.7610000000000000    0.3376000000000000 H
   0.3320300000000000    0.7610000000000000    0.3376000000000000 H
   0.0229450000000000    0.7017949999999999    0.2731250000000000 H
   0.2729500000000000    0.7017949999999999    0.2731000000000000 H
   0.2392600000000000    0.6450150000000000    0.3132000000000000 H
   0.4892600000000000    0.6450150000000000    0.3132000000000000 H
   0.2353100000000000    0.7171149999999999    0.3724100000000000 H
   0.4853150000000000    0.7171149999999999    0.3724100000000000 H
   0.0948500000000000    0.8620450000000000    0.3620000000000000 H
   0.3448500000000000    0.8620450000000000    0.3620200000000000 H
   0.1386300000000000    0.9316700000000000    0.4062850000000000 H
   0.3886300000000000    0.9316700000000000    0.4062850000000000 H
   0.0466000000000000    0.9933850000000000    0.4236500000000000 H
   0.2966000000000000    0.9933799999999999    0.4236600000000000 H
   0.0059400000000000    0.9192350000000000    0.3799900000000000 H
   0.2559400000000000    0.9192300000000000    0.3799900000000000 H
   0.2131250000000000    0.5879350000000000    0.4694500000000000 H
   0.4631250000000000    0.5879300000000000    0.4694950000000000 H
   0.1752850000000000    0.5121400000000000    0.4235950000000000 H
   0.4252850000000000    0.5121350000000000    0.4235000000000000 H
   0.0744900000000000    0.5289000000000000    0.4779000000000000 H
   0.3244900000000000    0.5289050000000000    0.4779000000000000 H
   0.1163550000000000    0.6051000000000000    0.0190450000000000 H
   0.3663550000000000    0.6051100000000000    0.0190000000000000 H
   0.2015500000000000    0.7394849999999999    0.4125800000000000 H
   0.4515550000000000    0.7394900000000000    0.4125850000000000 H
   0.1718550000000000    0.7986050000000000    0.4771550000000000 H
   0.4218550000000000    0.7986100000000000    0.4771600000000000 H
   0.1664900000000000    0.8553500000000001    0.4370200000000000 H
   0.4164950000000000    0.8553550000000000    0.4370200000000000 H
   0.1267550000000000    0.7831399999999999    0.3778200000000000 H
   0.3767600000000000    0.7831500000000000    0.3778200000000000 H
   0.1640700000000000    0.6381400000000000    0.3874300000000000 H
   0.4140750000000000    0.6381350000000000    0.3874400000000000 H
   0.1727250000000000    0.5683150000000000    0.3429000000000000 H
   0.4227300000000000    0.5683100000000000    0.3429000000000000 H