H6 O4
1.0
  26.5109994185487068    0.0000000000000000   -0.0055524508153632
  -0.0399497923069582   15.6769461727753612   -0.0095765337436380
   0.0000000000000000    0.0000000000000000   19.4439999999999991
H O
6 4
direct
   0.9068121364000397    0.4789711295495301    0.2957904562057160 H
   0.8447115879281768    0.4955357966790232    0.3024878524812701 H
   0.6799163014133303    0.4953555202650037    1.0193296655630815 H
   0.7809453741263535    0.7773490462120176    0.0458280484024570 H
   0.8271525656933988    0.7924742464733407    0.1029991862639868 H
   0.8619579053098275    0.5147654024723209    0.9648845002805757 H
   0.8767333333333333    0.4817400000000000    0.3248600000000000 O
   0.6792800000000000    0.5002900000000000    0.9691700000000000 O
   0.8008000000000000    0.8169500000000000    0.0738700000000000 O
   0.8904266666666666    0.5526300000000000    0.9749200000000000 O
