H1 O1
1.0
   8.6509999999999998    0.0000000000000000    0.0000000000000005
  -0.0002678207737052   15.3449999976628231    0.0000000000000009
   0.0000000000000000    0.0000000000000000   17.4209999999999994
H O
1 1
direct
   0.5251618640892129    0.7817669796920901    0.7869016906771346 H
   0.6073000000000000    0.8107900000000000    0.8158500000000000 O
