La8 H16 C43 N16 O41
1.0
   8.6509999999999998    0.0000000000000000    0.0000000000000005
  -0.0002678207737052   15.3449999976628231    0.0000000000000009
   0.0000000000000000    0.0000000000000000   17.4209999999999994
La H C N O
8 16 43 16 41
direct
   0.8558000000000000    0.7647600000000000    0.6110800000000000 La
   0.3557900000000000    0.7352400000000000    0.8888900000000000 La
   0.1442100000000000    0.2352600000000000    0.1110900000000000 La
   0.3557900000000000    0.7352400000000000    0.6110800000000000 La
   0.1442000000000000    0.2352600000000000    0.3889000000000000 La
   0.6442099999999999    0.2647800000000000    0.1110900000000000 La
   0.8557900000000001    0.7647600000000000    0.8888900000000000 La
   0.6442099999999999    0.2647800000000000    0.3889000000000000 La
   0.4480700000000000    0.0072600000000000    0.5985100000000000 H
   0.9805800000000000    0.0680600000000000    0.5536300000000000 H
   0.0519400000000000    0.5072500000000000    0.4014600000000000 H
   0.5194200000000000    0.5680600000000000    0.4463600000000000 H
   0.5519400000000000    0.9927600000000000    0.0985300000000000 H
   0.0194400000000000    0.9319600000000000    0.0536400000000000 H
   0.9480700000000000    0.4927700000000000    0.9014500000000000 H
   0.4805800000000000    0.4319700000000000    0.9463400000000000 H
   0.5519400000000000    0.9927700000000000    0.4014800000000000 H
   0.0194300000000000    0.9319700000000000    0.4463500000000000 H
   0.9480700000000000    0.4927700000000000    0.5985200000000001 H
   0.4805900000000000    0.4319600000000000    0.5536300000000000 H
   0.4480600000000000    0.0072600000000000    0.9014600000000000 H
   0.9805700000000001    0.0680600000000000    0.9463400000000000 H
   0.0519400000000000    0.5072500000000000    0.0985300000000000 H
   0.5194200000000000    0.5680500000000001    0.0536300000000000 H
   0.4449900000000000    0.1746300000000000    0.5029100000000000 C
   0.3277900000000000    0.1171700000000000    0.5382300000000000 C
   0.3430200000000000    0.0393400000000000    0.5800700000000000 C
   0.1925900000000000    0.0099900000000000    0.5911200000000000 C
   0.1337600000000000    0.9263300000000000    0.6227300000000000 C
   0.0550100000000000    0.6746100000000000    0.4970800000000000 C
   0.1722100000000000    0.6171500000000000    0.4617600000000000 C
   0.1569800000000000    0.5393300000000000    0.4199100000000000 C
   0.3074200000000000    0.5099900000000001    0.4088700000000000 C
   0.3662600000000000    0.4263500000000000    0.3772600000000000 C
   0.5550100000000000    0.8254000000000000    0.0000000000000000 C
   0.6722200000000000    0.8828500000000000    0.0382400000000000 C
   0.6569900000000000    0.9606800000000000    0.0800800000000000 C
   0.8074200000000000    0.9900300000000000    0.0911200000000000 C
   0.8662500000000000    0.0736900000000000    0.1227300000000000 C
   0.9450000000000000    0.3254100000000000    0.9970900000000000 C
   0.8277900000000000    0.3828700000000000    0.9617400000000000 C
   0.8430200000000000    0.4607000000000000    0.9199000000000001 C
   0.6925900000000000    0.4900400000000000    0.9088500000000000 C
   0.6337500000000000    0.5736700000000000    0.8772500000000000 C
   0.5550200000000000    0.8253900000000000    0.4970700000000000 C
   0.6722200000000000    0.8828600000000000    0.4617600000000000 C
   0.6569900000000000    0.9606900000000000    0.4199200000000000 C
   0.8074200000000000    0.9900300000000000    0.4088700000000000 C
   0.8662500000000000    0.0736900000000000    0.3772600000000000 C
   0.9449900000000000    0.3254100000000000    0.5029000000000000 C
   0.8278000000000000    0.3828600000000000    0.5382300000000000 C
   0.8430299999999999    0.4606900000000000    0.5800800000000000 C
   0.6925900000000000    0.4900300000000000    0.5911200000000000 C
   0.6337500000000000    0.5736700000000000    0.6227200000000001 C
   0.4449900000000000    0.1746200000000000    0.9970900000000000 C
   0.3277800000000000    0.1171700000000000    0.9617400000000000 C
   0.3430100000000000    0.0393400000000000    0.9199000000000001 C
   0.1925800000000000    0.0099900000000000    0.9088600000000000 C
   0.1337600000000000    0.9263300000000000    0.8772500000000000 C
   0.0550000000000000    0.6746100000000000    0.0000000000000000 C
   0.1722100000000000    0.6171600000000000    0.0382400000000000 C
   0.1569800000000000    0.5393300000000000    0.0800800000000000 C
   0.3074200000000000    0.5099900000000001    0.0911300000000000 C
   0.3662600000000000    0.4263500000000000    0.1227300000000000 C
   0.4499300000000000    0.2099900000000000    0.2500000000000000 C
   0.0500300000000000    0.7099400000000000    0.7499800000000000 C
   0.9499600000000000    0.2900700000000000    0.2499900000000000 C
   0.0984300000000000    0.0698700000000000    0.5563399999999999 N
   0.1771900000000000    0.1352800000000000    0.5236000000000000 N
   0.4015700000000000    0.5698700000000000    0.4436400000000000 N
   0.3228000000000000    0.6352700000000000    0.4763900000000000 N
   0.9015800000000000    0.9301500000000000    0.0563600000000000 N
   0.8228200000000000    0.8647400000000000    0.0236100000000000 N
   0.5984300000000000    0.4301500000000000    0.9436300000000000 N
   0.6772000000000000    0.3647500000000000    0.9763800000000000 N
   0.9015800000000000    0.9301500000000000    0.4436500000000000 N
   0.8228100000000000    0.8647400000000000    0.4763900000000000 N
   0.5984400000000000    0.4301500000000000    0.5563500000000000 N
   0.6772100000000000    0.3647500000000000    0.5235900000000000 N
   0.0984200000000000    0.0698700000000000    0.9436300000000000 N
   0.1771900000000000    0.1352800000000000    0.9763800000000000 N
   0.4015700000000000    0.5698700000000000    0.0563500000000000 N
   0.3228000000000000    0.6352700000000000    0.0236000000000000 N
   0.5862000000000001    0.1555700000000000    0.5031800000000000 O
   0.3926800000000000    0.2430600000000000    0.4670800000000000 O
   0.9885699999999999    0.9129000000000000    0.6196700000000001 O
   0.2347600000000000    0.8733100000000000    0.6471100000000000 O
   0.3926900000000000    0.1892400000000000    0.3158600000000000 O
   0.9137999999999999    0.6555600000000000    0.4967900000000000 O
   0.1073100000000000    0.7430500000000000    0.5329000000000000 O
   0.5114500000000000    0.4129300000000000    0.3803100000000000 O
   0.2652600000000000    0.3733200000000000    0.3528700000000000 O
   0.1073000000000000    0.6892300000000000    0.6841200000000000 O
   0.4138100000000000    0.8444500000000000    0.0032000000000000 O
   0.6073100000000000    0.7569600000000000    0.9670700000000000 O
   0.0114300000000000    0.0871300000000000    0.1196800000000000 O
   0.7652400000000000    0.1267100000000000    0.1471200000000000 O
   0.0861900000000000    0.3444600000000000    0.9967900000000000 O
   0.8927000000000000    0.2569700000000000    0.0329100000000000 O
   0.4885600000000000    0.5870900000000000    0.8803000000000000 O
   0.7347399999999999    0.6267000000000000    0.8528600000000000 O
   0.8927000000000000    0.3107900000000000    0.1841300000000000 O
   0.4138000000000000    0.8444500000000000    0.4968000000000000 O
   0.6073200000000000    0.7569600000000000    0.5329000000000000 O
   0.0114300000000000    0.0871300000000000    0.3803100000000000 O
   0.7652400000000000    0.1267100000000000    0.3528700000000000 O
   0.0862000000000000    0.3444600000000000    0.5031900000000000 O
   0.8926900000000000    0.2569700000000000    0.4670800000000000 O
   0.4885600000000000    0.5870800000000000    0.6196700000000001 O
   0.7347399999999999    0.6267000000000000    0.6471100000000000 O
   0.8927000000000000    0.3107900000000000    0.3158600000000000 O
   0.5861900000000000    0.1555800000000000    0.9967800000000000 O
   0.3926900000000000    0.2430600000000000    0.0329100000000000 O
   0.9885699999999999    0.9128900000000000    0.8803000000000000 O
   0.2347600000000000    0.8733100000000000    0.8528600000000000 O
   0.3926900000000000    0.1892400000000000    0.1841300000000000 O
   0.9138100000000000    0.6555600000000000    0.0031900000000000 O
   0.1073000000000000    0.7430500000000000    0.9670700000000000 O
   0.5114500000000000    0.4129300000000000    0.1196800000000000 O
   0.2652600000000000    0.3733200000000000    0.1471200000000000 O
   0.1073000000000000    0.6892300000000000    0.8158500000000000 O
   0.5795900000000000    0.2552800000000000    0.2499900000000000 O
   0.9204200000000000    0.7552700000000000    0.7499800000000000 O
   0.0795800000000000    0.2447600000000000    0.2499900000000000 O
