H4 O3
1.0
  14.5299999911478164    0.0000000000000000    0.0005071926805261
   0.0002768170097412   15.8609999951686316    0.0002768266726450
   0.0000000000000000    0.0000000000000000   32.8220000000000027
H O
4 3
direct
   0.5506836877681881    0.1026720670814689    0.8727143122286771 H
   0.5445257151541687    0.3393704731412828    0.8410051948148296 H
   0.3609924300834592    0.2535195941635319    0.8847229786046292 H
   0.4540679359940410    0.2776725140649601    0.8642048333027983 H
   0.5389400000000000    0.0479700000000000    0.8854850000000001 O
   0.5311300000000000    0.3992000000000000    0.8367850000000000 O
   0.3942500000000000    0.3005800000000000    0.8722750000000000 O
