C3 S3 N3
1.0
  36.9479804106665313    0.0000000000000000    0.0380469841455851
  -0.0334534543353734   32.4038760822429168    0.0831367129423239
   0.0000000000000000    0.0000000000000000   34.2680000000000007
C S N
3 3 3
direct
   0.3124000000000000    0.2195100000000000    0.0437750000000000 C
   0.9794400000000000    0.6554000000000000    0.2941000000000000 C
   0.7362133333333333    0.9060450000000000    0.9614100000000000 C
   0.3393733333333333    0.1985100000000000    0.0765000000000000 S
   0.0064233333333333    0.6763500000000000    0.3267800000000000 S
   0.7417033333333333    0.8681300000000001    0.9303650000000000 S
   0.2936500000000000    0.2353650000000000    0.0203500000000000 N
   0.9606733333333333    0.6395999999999999    0.2707050000000000 N
   0.7315033333333333    0.9330200000000000    0.0000000000000000 N
