H3 O3
1.0
  36.9479804106665313    0.0000000000000000    0.0380469841455851
  -0.0334534543353734   32.4038760822429168    0.0831367129423239
   0.0000000000000000    0.0000000000000000   34.2680000000000007
H O
3 3
direct
   0.3092236310838166    0.2221959375555247    0.0398066564340482 H
   0.7343902632549838    0.9164860436015875   -0.0236532113962832 H
   0.9762600561774162    0.6527227471191746    0.2901358018261448 H
   0.2936500000000000    0.2353650000000000    0.0203500000000000 O
   0.7315033333333333    0.9330200000000000    0.0000000000000000 O
   0.9606733333333333    0.6395999999999999    0.2707050000000000 O
