Cd96 Hg96 C357 S381 N357
1.0
  36.9479804106665313    0.0000000000000000    0.0380469841455851
  -0.0334534543353734   32.4038760822429168    0.0831367129423239
   0.0000000000000000    0.0000000000000000   34.2680000000000007
Cd Hg C S N
96 96 357 381 357
direct
   0.0859633333333333    0.3899400000000000    0.2679000000000000 Cd
   0.2525133333333333    0.1105600000000000    0.2323500000000000 Cd
   0.2525166666666666    0.3605600000000000    0.2323450000000000 Cd
   0.0855266666666667    0.4850750000000000    0.0179000000000000 Cd
   0.0855233333333333    0.2350800000000000    0.0179000000000000 Cd
   0.2522166666666666    0.2647250000000000    0.4820500000000000 Cd
   0.2522200000000000    0.0000000000000000    0.4820500000000000 Cd
   0.0859600000000000    0.1399400000000000    0.2679000000000000 Cd
   0.4192966666666667    0.3899400000000000    0.2679000000000000 Cd
   0.5858466666666666    0.1105600000000000    0.2323500000000000 Cd
   0.5858500000000000    0.3605600000000000    0.2323450000000000 Cd
   0.4188600000000000    0.4850750000000000    0.0179000000000000 Cd
   0.4188566666666667    0.2350800000000000    0.0179000000000000 Cd
   0.5855500000000000    0.2647250000000000    0.4820500000000000 Cd
   0.5855533333333334    0.0000000000000000    0.4820500000000000 Cd
   0.4192933333333333    0.1399400000000000    0.2679000000000000 Cd
   0.7526299999999999    0.3899400000000000    0.2679000000000000 Cd
   0.9191799999999999    0.1105600000000000    0.2323500000000000 Cd
   0.9191833333333332    0.3605600000000000    0.2323450000000000 Cd
   0.7521933333333333    0.4850750000000000    0.0179000000000000 Cd
   0.7521899999999999    0.2350800000000000    0.0179000000000000 Cd
   0.9188833333333333    0.2647250000000000    0.4820500000000000 Cd
   0.9188866666666666    0.0000000000000000    0.4820500000000000 Cd
   0.7526266666666667    0.1399400000000000    0.2679000000000000 Cd
   0.0859633333333333    0.8899400000000000    0.2679000000000000 Cd
   0.2525133333333333    0.6105600000000000    0.2323500000000000 Cd
   0.2525166666666666    0.8605600000000000    0.2323450000000000 Cd
   0.0855266666666667    0.9850749999999999    0.0179000000000000 Cd
   0.0855233333333333    0.7350800000000000    0.0179000000000000 Cd
   0.2522166666666666    0.7647250000000000    0.4820500000000000 Cd
   0.2522200000000000    0.5000000000000000    0.4820500000000000 Cd
   0.0859600000000000    0.6399400000000000    0.2679000000000000 Cd
   0.4192966666666667    0.8899400000000000    0.2679000000000000 Cd
   0.5858466666666666    0.6105600000000000    0.2323500000000000 Cd
   0.5858500000000000    0.8605600000000000    0.2323450000000000 Cd
   0.4188600000000000    0.9850749999999999    0.0179000000000000 Cd
   0.4188566666666667    0.7350800000000000    0.0179000000000000 Cd
   0.5855500000000000    0.7647250000000000    0.4820500000000000 Cd
   0.5855533333333334    0.5000000000000000    0.4820500000000000 Cd
   0.4192933333333333    0.6399400000000000    0.2679000000000000 Cd
   0.7526299999999999    0.8899400000000000    0.2679000000000000 Cd
   0.9191799999999999    0.6105600000000000    0.2323500000000000 Cd
   0.9191833333333332    0.8605600000000000    0.2323450000000000 Cd
   0.7521933333333333    0.9850749999999999    0.0179000000000000 Cd
   0.7521899999999999    0.7350800000000000    0.0179000000000000 Cd
   0.9188833333333333    0.7647250000000000    0.4820500000000000 Cd
   0.9188866666666666    0.5000000000000000    0.4820500000000000 Cd
   0.7526266666666667    0.6399400000000000    0.2679000000000000 Cd
   0.0859633333333333    0.3899400000000000    0.7679000000000000 Cd
   0.2525133333333333    0.1105600000000000    0.7323500000000001 Cd
   0.2525166666666666    0.3605600000000000    0.7323450000000000 Cd
   0.0855266666666667    0.4850750000000000    0.5179000000000000 Cd
   0.0855233333333333    0.2350800000000000    0.5179000000000000 Cd
   0.2522166666666666    0.2647250000000000    0.9820500000000000 Cd
   0.2522200000000000    0.0000000000000000    0.9820500000000000 Cd
   0.0859600000000000    0.1399400000000000    0.7679000000000000 Cd
   0.4192966666666667    0.3899400000000000    0.7679000000000000 Cd
   0.5858466666666666    0.1105600000000000    0.7323500000000001 Cd
   0.5858500000000000    0.3605600000000000    0.7323450000000000 Cd
   0.4188600000000000    0.4850750000000000    0.5179000000000000 Cd
   0.4188566666666667    0.2350800000000000    0.5179000000000000 Cd
   0.5855500000000000    0.2647250000000000    0.9820500000000000 Cd
   0.5855533333333334    0.0000000000000000    0.9820500000000000 Cd
   0.4192933333333333    0.1399400000000000    0.7679000000000000 Cd
   0.7526299999999999    0.3899400000000000    0.7679000000000000 Cd
   0.9191799999999999    0.1105600000000000    0.7323500000000001 Cd
   0.9191833333333332    0.3605600000000000    0.7323450000000000 Cd
   0.7521933333333333    0.4850750000000000    0.5179000000000000 Cd
   0.7521899999999999    0.2350800000000000    0.5179000000000000 Cd
   0.9188833333333333    0.2647250000000000    0.9820500000000000 Cd
   0.9188866666666666    0.0000000000000000    0.9820500000000000 Cd
   0.7526266666666667    0.1399400000000000    0.7679000000000000 Cd
   0.0859633333333333    0.8899400000000000    0.7679000000000000 Cd
   0.2525133333333333    0.6105600000000000    0.7323500000000001 Cd
   0.2525166666666666    0.8605600000000000    0.7323450000000000 Cd
   0.0855266666666667    0.9850749999999999    0.5179000000000000 Cd
   0.0855233333333333    0.7350800000000000    0.5179000000000000 Cd
   0.2522166666666666    0.7647250000000000    0.9820500000000000 Cd
   0.2522200000000000    0.5000000000000000    0.9820500000000000 Cd
   0.0859600000000000    0.6399400000000000    0.7679000000000000 Cd
   0.4192966666666667    0.8899400000000000    0.7679000000000000 Cd
   0.5858466666666666    0.6105600000000000    0.7323500000000001 Cd
   0.5858500000000000    0.8605600000000000    0.7323450000000000 Cd
   0.4188600000000000    0.9850749999999999    0.5179000000000000 Cd
   0.4188566666666667    0.7350800000000000    0.5179000000000000 Cd
   0.5855500000000000    0.7647250000000000    0.9820500000000000 Cd
   0.5855533333333334    0.5000000000000000    0.9820500000000000 Cd
   0.4192933333333333    0.6399400000000000    0.7679000000000000 Cd
   0.7526299999999999    0.8899400000000000    0.7679000000000000 Cd
   0.9191799999999999    0.6105600000000000    0.7323500000000001 Cd
   0.9191833333333332    0.8605600000000000    0.7323450000000000 Cd
   0.7521933333333333    0.9850749999999999    0.5179000000000000 Cd
   0.7521899999999999    0.7350800000000000    0.5179000000000000 Cd
   0.9188833333333333    0.7647250000000000    0.9820500000000000 Cd
   0.9188866666666666    0.5000000000000000    0.9820500000000000 Cd
   0.7526266666666667    0.6399400000000000    0.7679000000000000 Cd
   0.1464733333333333    0.2508950000000000    0.1806100000000000 Hg
   0.1464766666666666    0.0000000000000000    0.1806150000000000 Hg
   0.3129233333333333    0.4996500000000000    0.3193850000000000 Hg
   0.3129233333333333    0.2496550000000000    0.3193850000000000 Hg
   0.1460600000000000    0.1246000000000000    0.4308200000000000 Hg
   0.1460633333333333    0.3746050000000000    0.4308250000000000 Hg
   0.3126566666666666    0.1250950000000000    0.0692100000000000 Hg
   0.3126566666666666    0.3751000000000000    0.0692100000000000 Hg
   0.4798066666666666    0.2508950000000000    0.1806100000000000 Hg
   0.4798100000000000    0.0000000000000000    0.1806150000000000 Hg
   0.6462566666666667    0.4996500000000000    0.3193850000000000 Hg
   0.6462566666666667    0.2496550000000000    0.3193850000000000 Hg
   0.4793933333333333    0.1246000000000000    0.4308200000000000 Hg
   0.4793966666666666    0.3746050000000000    0.4308250000000000 Hg
   0.6459900000000000    0.1250950000000000    0.0692100000000000 Hg
   0.6459900000000000    0.3751000000000000    0.0692100000000000 Hg
   0.8131400000000000    0.2508950000000000    0.1806100000000000 Hg
   0.8131433333333333    0.0000000000000000    0.1806150000000000 Hg
   0.9795900000000000    0.4996500000000000    0.3193850000000000 Hg
   0.9795900000000000    0.2496550000000000    0.3193850000000000 Hg
   0.8127266666666666    0.1246000000000000    0.4308200000000000 Hg
   0.8127300000000000    0.3746050000000000    0.4308250000000000 Hg
   0.9793233333333333    0.1250950000000000    0.0692100000000000 Hg
   0.9793233333333333    0.3751000000000000    0.0692100000000000 Hg
   0.1464733333333333    0.7508950000000000    0.1806100000000000 Hg
   0.1464766666666666    0.5000000000000000    0.1806150000000000 Hg
   0.3129233333333333    0.9996499999999999    0.3193850000000000 Hg
   0.3129233333333333    0.7496550000000000    0.3193850000000000 Hg
   0.1460600000000000    0.6246000000000000    0.4308200000000000 Hg
   0.1460633333333333    0.8746050000000001    0.4308250000000000 Hg
   0.3126566666666666    0.6250950000000000    0.0692100000000000 Hg
   0.3126566666666666    0.8751000000000000    0.0692100000000000 Hg
   0.4798066666666666    0.7508950000000000    0.1806100000000000 Hg
   0.4798100000000000    0.5000000000000000    0.1806150000000000 Hg
   0.6462566666666667    0.9996499999999999    0.3193850000000000 Hg
   0.6462566666666667    0.7496550000000000    0.3193850000000000 Hg
   0.4793933333333333    0.6246000000000000    0.4308200000000000 Hg
   0.4793966666666666    0.8746050000000001    0.4308250000000000 Hg
   0.6459900000000000    0.6250950000000000    0.0692100000000000 Hg
   0.6459900000000000    0.8751000000000000    0.0692100000000000 Hg
   0.8131400000000000    0.7508950000000000    0.1806100000000000 Hg
   0.8131433333333333    0.5000000000000000    0.1806150000000000 Hg
   0.9795900000000000    0.9996499999999999    0.3193850000000000 Hg
   0.9795900000000000    0.7496550000000000    0.3193850000000000 Hg
   0.8127266666666666    0.6246000000000000    0.4308200000000000 Hg
   0.8127300000000000    0.8746050000000001    0.4308250000000000 Hg
   0.9793233333333333    0.6250950000000000    0.0692100000000000 Hg
   0.9793233333333333    0.8751000000000000    0.0692100000000000 Hg
   0.1464733333333333    0.2508950000000000    0.6806099999999999 Hg
   0.1464766666666666    0.0000000000000000    0.6806150000000000 Hg
   0.3129233333333333    0.4996500000000000    0.8193850000000000 Hg
   0.3129233333333333    0.2496550000000000    0.8193850000000000 Hg
   0.1460600000000000    0.1246000000000000    0.9308200000000000 Hg
   0.1460633333333333    0.3746050000000000    0.9308250000000000 Hg
   0.3126566666666666    0.1250950000000000    0.5692100000000000 Hg
   0.3126566666666666    0.3751000000000000    0.5692100000000000 Hg
   0.4798066666666666    0.2508950000000000    0.6806099999999999 Hg
   0.4798100000000000    0.0000000000000000    0.6806150000000000 Hg
   0.6462566666666667    0.4996500000000000    0.8193850000000000 Hg
   0.6462566666666667    0.2496550000000000    0.8193850000000000 Hg
   0.4793933333333333    0.1246000000000000    0.9308200000000000 Hg
   0.4793966666666666    0.3746050000000000    0.9308250000000000 Hg
   0.6459900000000000    0.1250950000000000    0.5692100000000000 Hg
   0.6459900000000000    0.3751000000000000    0.5692100000000000 Hg
   0.8131400000000000    0.2508950000000000    0.6806099999999999 Hg
   0.8131433333333333    0.0000000000000000    0.6806150000000000 Hg
   0.9795900000000000    0.4996500000000000    0.8193850000000000 Hg
   0.9795900000000000    0.2496550000000000    0.8193850000000000 Hg
   0.8127266666666666    0.1246000000000000    0.9308200000000000 Hg
   0.8127300000000000    0.3746050000000000    0.9308250000000000 Hg
   0.9793233333333333    0.1250950000000000    0.5692100000000000 Hg
   0.9793233333333333    0.3751000000000000    0.5692100000000000 Hg
   0.1464733333333333    0.7508950000000000    0.6806099999999999 Hg
   0.1464766666666666    0.5000000000000000    0.6806150000000000 Hg
   0.3129233333333333    0.9996499999999999    0.8193850000000000 Hg
   0.3129233333333333    0.7496550000000000    0.8193850000000000 Hg
   0.1460600000000000    0.6246000000000000    0.9308200000000000 Hg
   0.1460633333333333    0.8746050000000001    0.9308250000000000 Hg
   0.3126566666666666    0.6250950000000000    0.5692100000000000 Hg
   0.3126566666666666    0.8751000000000000    0.5692100000000000 Hg
   0.4798066666666666    0.7508950000000000    0.6806099999999999 Hg
   0.4798100000000000    0.5000000000000000    0.6806150000000000 Hg
   0.6462566666666667    0.9996499999999999    0.8193850000000000 Hg
   0.6462566666666667    0.7496550000000000    0.8193850000000000 Hg
   0.4793933333333333    0.6246000000000000    0.9308200000000000 Hg
   0.4793966666666666    0.8746050000000001    0.9308250000000000 Hg
   0.6459900000000000    0.6250950000000000    0.5692100000000000 Hg
   0.6459900000000000    0.8751000000000000    0.5692100000000000 Hg
   0.8131400000000000    0.7508950000000000    0.6806099999999999 Hg
   0.8131433333333333    0.5000000000000000    0.6806150000000000 Hg
   0.9795900000000000    0.9996499999999999    0.8193850000000000 Hg
   0.9795900000000000    0.7496550000000000    0.8193850000000000 Hg
   0.8127266666666666    0.6246000000000000    0.9308200000000000 Hg
   0.8127300000000000    0.8746050000000001    0.9308250000000000 Hg
   0.9793233333333333    0.6250950000000000    0.5692100000000000 Hg
   0.9793233333333333    0.8751000000000000    0.5692100000000000 Hg
   0.1462566666666666    0.0951250000000000    0.2061250000000000 C
   0.1462566666666666    0.3451300000000000    0.2061250000000000 C
   0.1348133333333333    0.2108100000000000    0.0961750000000000 C
   0.1348166666666666    0.4608150000000000    0.0961800000000000 C
   0.1913900000000000    0.1859700000000000    0.2357000000000000 C
   0.1913900000000000    0.4359700000000000    0.2357000000000000 C
   0.0699566666666667    0.2191150000000000    0.2112200000000000 C
   0.0699600000000000    0.4691200000000000    0.2112200000000000 C
   0.3127733333333333    0.1554000000000000    0.2941000000000000 C
   0.3127733333333333    0.4054050000000000    0.2941000000000000 C
   0.3012600000000000    0.0398550000000000    0.4037000000000000 C
   0.3012566666666666    0.2898600000000000    0.4037050000000000 C
   0.0246600000000000    0.0645850000000000    0.2643800000000000 C
   0.0246600000000000    0.3145900000000000    0.2643800000000000 C
   0.2364133333333333    0.0313750000000000    0.2890500000000000 C
   0.2364133333333333    0.2813750000000000    0.2890450000000000 C
   0.1347800000000000    0.1647950000000000    0.3462950000000000 C
   0.1347866666666667    0.4147950000000000    0.3462950000000000 C
   0.1910166666666666    0.1892700000000000    0.4856900000000000 C
   0.1910200000000000    0.4392750000000000    0.4856900000000000 C
   0.0695433333333333    0.1560400000000000    0.4614100000000000 C
   0.0695466666666667    0.4060450000000000    0.4614100000000000 C
   0.3124033333333333    0.4695150000000000    0.0437750000000000 C
   0.3013733333333333    0.0854550000000000    0.1539650000000000 C
   0.3013733333333333    0.3354550000000000    0.1539650000000000 C
   0.0242800000000000    0.0604100000000000    0.0142550000000000 C
   0.0242800000000000    0.3104150000000000    0.0142500000000000 C
   0.2361133333333333    0.0934150000000000    0.0389150000000000 C
   0.2361100000000000    0.3434200000000000    0.0389200000000000 C
   0.4795900000000000    0.0951250000000000    0.2061250000000000 C
   0.4795900000000000    0.3451300000000000    0.2061250000000000 C
   0.4681466666666667    0.2108100000000000    0.0961750000000000 C
   0.4681500000000000    0.4608150000000000    0.0961800000000000 C
   0.5247233333333333    0.1859700000000000    0.2357000000000000 C
   0.5247233333333333    0.4359700000000000    0.2357000000000000 C
   0.4032900000000000    0.2191150000000000    0.2112200000000000 C
   0.4032933333333333    0.4691200000000000    0.2112200000000000 C
   0.6461066666666666    0.1554000000000000    0.2941000000000000 C
   0.6461066666666666    0.4054050000000000    0.2941000000000000 C
   0.6345933333333333    0.0398550000000000    0.4037000000000000 C
   0.6345900000000000    0.2898600000000000    0.4037050000000000 C
   0.3579933333333333    0.0645850000000000    0.2643800000000000 C
   0.3579933333333333    0.3145900000000000    0.2643800000000000 C
   0.5697466666666666    0.0313750000000000    0.2890500000000000 C
   0.5697466666666666    0.2813750000000000    0.2890450000000000 C
   0.4681133333333333    0.1647950000000000    0.3462950000000000 C
   0.4681200000000000    0.4147950000000000    0.3462950000000000 C
   0.5243500000000000    0.1892700000000000    0.4856900000000000 C
   0.5243533333333333    0.4392750000000000    0.4856900000000000 C
   0.4028766666666667    0.1560400000000000    0.4614100000000000 C
   0.4028800000000000    0.4060450000000000    0.4614100000000000 C
   0.6457333333333333    0.2195100000000000    0.0437750000000000 C
   0.6457366666666666    0.4695150000000000    0.0437750000000000 C
   0.6347066666666666    0.0854550000000000    0.1539650000000000 C
   0.6347066666666666    0.3354550000000000    0.1539650000000000 C
   0.3576133333333333    0.0604100000000000    0.0142550000000000 C
   0.3576133333333333    0.3104150000000000    0.0142500000000000 C
   0.5694466666666667    0.0934150000000000    0.0389150000000000 C
   0.5694433333333333    0.3434200000000000    0.0389200000000000 C
   0.8129233333333332    0.0951250000000000    0.2061250000000000 C
   0.8129233333333332    0.3451300000000000    0.2061250000000000 C
   0.8014800000000000    0.2108100000000000    0.0961750000000000 C
   0.8014833333333333    0.4608150000000000    0.0961800000000000 C
   0.8580566666666666    0.1859700000000000    0.2357000000000000 C
   0.8580566666666666    0.4359700000000000    0.2357000000000000 C
   0.7366233333333333    0.2191150000000000    0.2112200000000000 C
   0.7366266666666667    0.4691200000000000    0.2112200000000000 C
   0.9794400000000000    0.1554000000000000    0.2941000000000000 C
   0.9794400000000000    0.4054050000000000    0.2941000000000000 C
   0.9679266666666666    0.0398550000000000    0.4037000000000000 C
   0.9679233333333332    0.2898600000000000    0.4037050000000000 C
   0.6913266666666666    0.0645850000000000    0.2643800000000000 C
   0.6913266666666666    0.3145900000000000    0.2643800000000000 C
   0.9030799999999999    0.0313750000000000    0.2890500000000000 C
   0.9030799999999999    0.2813750000000000    0.2890450000000000 C
   0.8014466666666666    0.1647950000000000    0.3462950000000000 C
   0.8014533333333334    0.4147950000000000    0.3462950000000000 C
   0.8576833333333332    0.1892700000000000    0.4856900000000000 C
   0.8576866666666666    0.4392750000000000    0.4856900000000000 C
   0.7362099999999999    0.1560400000000000    0.4614100000000000 C
   0.7362133333333333    0.4060450000000000    0.4614100000000000 C
   0.9790666666666666    0.2195100000000000    0.0437750000000000 C
   0.9790699999999999    0.4695150000000000    0.0437750000000000 C
   0.9680400000000000    0.0854550000000000    0.1539650000000000 C
   0.9680400000000000    0.3354550000000000    0.1539650000000000 C
   0.6909466666666666    0.0604100000000000    0.0142550000000000 C
   0.6909466666666666    0.3104150000000000    0.0142500000000000 C
   0.9027799999999999    0.0934150000000000    0.0389150000000000 C
   0.9027766666666666    0.3434200000000000    0.0389200000000000 C
   0.1462566666666666    0.5951250000000000    0.2061250000000000 C
   0.1462566666666666    0.8451299999999999    0.2061250000000000 C
   0.1348133333333333    0.7108099999999999    0.0961750000000000 C
   0.1348166666666666    0.9608150000000000    0.0961800000000000 C
   0.1913900000000000    0.6859700000000000    0.2357000000000000 C
   0.1913900000000000    0.9359700000000000    0.2357000000000000 C
   0.0699566666666667    0.7191149999999999    0.2112200000000000 C
   0.0699600000000000    0.9691200000000000    0.2112200000000000 C
   0.3127733333333333    0.6554000000000000    0.2941000000000000 C
   0.3127733333333333    0.9054050000000000    0.2941000000000000 C
   0.3012600000000000    0.5398550000000000    0.4037000000000000 C
   0.3012566666666666    0.7898600000000000    0.4037050000000000 C
   0.0246600000000000    0.5645850000000000    0.2643800000000000 C
   0.0246600000000000    0.8145899999999999    0.2643800000000000 C
   0.2364133333333333    0.5313750000000000    0.2890500000000000 C
   0.2364133333333333    0.7813749999999999    0.2890450000000000 C
   0.1347800000000000    0.6647950000000000    0.3462950000000000 C
   0.1347866666666667    0.9147950000000000    0.3462950000000000 C
   0.1910166666666666    0.6892700000000000    0.4856900000000000 C
   0.1910200000000000    0.9392750000000001    0.4856900000000000 C
   0.0695433333333333    0.6560400000000000    0.4614100000000000 C
   0.0695466666666667    0.9060450000000000    0.4614100000000000 C
   0.3124000000000000    0.7195100000000000    0.0437750000000000 C
   0.3124033333333333    0.9695150000000000    0.0437750000000000 C
   0.3013733333333333    0.5854550000000001    0.1539650000000000 C
   0.3013733333333333    0.8354550000000001    0.1539650000000000 C
   0.0242800000000000    0.5604100000000000    0.0142550000000000 C
   0.0242800000000000    0.8104150000000000    0.0142500000000000 C
   0.2361133333333333    0.5934150000000000    0.0389150000000000 C
   0.2361100000000000    0.8434200000000001    0.0389200000000000 C
   0.4795900000000000    0.5951250000000000    0.2061250000000000 C
   0.4795900000000000    0.8451299999999999    0.2061250000000000 C
   0.4681466666666667    0.7108099999999999    0.0961750000000000 C
   0.4681500000000000    0.9608150000000000    0.0961800000000000 C
   0.5247233333333333    0.6859700000000000    0.2357000000000000 C
   0.5247233333333333    0.9359700000000000    0.2357000000000000 C
   0.4032900000000000    0.7191149999999999    0.2112200000000000 C
   0.4032933333333333    0.9691200000000000    0.2112200000000000 C
   0.6461066666666666    0.6554000000000000    0.2941000000000000 C
   0.6461066666666666    0.9054050000000000    0.2941000000000000 C
   0.6345933333333333    0.5398550000000000    0.4037000000000000 C
   0.6345900000000000    0.7898600000000000    0.4037050000000000 C
   0.3579933333333333    0.5645850000000000    0.2643800000000000 C
   0.3579933333333333    0.8145899999999999    0.2643800000000000 C
   0.5697466666666666    0.5313750000000000    0.2890500000000000 C
   0.5697466666666666    0.7813749999999999    0.2890450000000000 C
   0.4681133333333333    0.6647950000000000    0.3462950000000000 C
   0.4681200000000000    0.9147950000000000    0.3462950000000000 C
   0.5243500000000000    0.6892700000000000    0.4856900000000000 C
   0.5243533333333333    0.9392750000000001    0.4856900000000000 C
   0.4028766666666667    0.6560400000000000    0.4614100000000000 C
   0.4028800000000000    0.9060450000000000    0.4614100000000000 C
   0.6457333333333333    0.7195100000000000    0.0437750000000000 C
   0.6457366666666666    0.9695150000000000    0.0437750000000000 C
   0.6347066666666666    0.5854550000000001    0.1539650000000000 C
   0.6347066666666666    0.8354550000000001    0.1539650000000000 C
   0.3576133333333333    0.5604100000000000    0.0142550000000000 C
   0.3576133333333333    0.8104150000000000    0.0142500000000000 C
   0.5694466666666667    0.5934150000000000    0.0389150000000000 C
   0.5694433333333333    0.8434200000000001    0.0389200000000000 C
   0.8129233333333332    0.5951250000000000    0.2061250000000000 C
   0.8129233333333332    0.8451299999999999    0.2061250000000000 C
   0.8014800000000000    0.7108099999999999    0.0961750000000000 C
   0.8014833333333333    0.9608150000000000    0.0961800000000000 C
   0.8580566666666666    0.6859700000000000    0.2357000000000000 C
   0.8580566666666666    0.9359700000000000    0.2357000000000000 C
   0.7366233333333333    0.7191149999999999    0.2112200000000000 C
   0.7366266666666667    0.9691200000000000    0.2112200000000000 C
   0.9794400000000000    0.9054050000000000    0.2941000000000000 C
   0.9679266666666666    0.5398550000000000    0.4037000000000000 C
   0.9679233333333332    0.7898600000000000    0.4037050000000000 C
   0.6913266666666666    0.5645850000000000    0.2643800000000000 C
   0.6913266666666666    0.8145899999999999    0.2643800000000000 C
   0.9030799999999999    0.5313750000000000    0.2890500000000000 C
   0.9030799999999999    0.7813749999999999    0.2890450000000000 C
   0.8014466666666666    0.6647950000000000    0.3462950000000000 C
   0.8014533333333334    0.9147950000000000    0.3462950000000000 C
   0.8576833333333332    0.6892700000000000    0.4856900000000000 C
   0.8576866666666666    0.9392750000000001    0.4856900000000000 C
   0.7362099999999999    0.6560400000000000    0.4614100000000000 C
   0.7362133333333333    0.9060450000000000    0.4614100000000000 C
   0.9790666666666666    0.7195100000000000    0.0437750000000000 C
   0.9790699999999999    0.9695150000000000    0.0437750000000000 C
   0.9680400000000000    0.5854550000000001    0.1539650000000000 C
   0.9680400000000000    0.8354550000000001    0.1539650000000000 C
   0.6909466666666666    0.5604100000000000    0.0142550000000000 C
   0.6909466666666666    0.8104150000000000    0.0142500000000000 C
   0.9027799999999999    0.5934150000000000    0.0389150000000000 C
   0.9027766666666666    0.8434200000000001    0.0389200000000000 C
   0.1462566666666666    0.0951250000000000    0.7061250000000000 C
   0.1462566666666666    0.3451300000000000    0.7061250000000000 C
   0.1348133333333333    0.2108100000000000    0.5961750000000000 C
   0.1348166666666666    0.4608150000000000    0.5961800000000000 C
   0.1913900000000000    0.1859700000000000    0.7357000000000000 C
   0.1913900000000000    0.4359700000000000    0.7357000000000000 C
   0.0699566666666667    0.2191150000000000    0.7112200000000000 C
   0.0699600000000000    0.4691200000000000    0.7112200000000000 C
   0.3127733333333333    0.1554000000000000    0.7941000000000000 C
   0.3127733333333333    0.4054050000000000    0.7941000000000000 C
   0.3012600000000000    0.0398550000000000    0.9036999999999999 C
   0.3012566666666666    0.2898600000000000    0.9037050000000000 C
   0.0246600000000000    0.0645850000000000    0.7643800000000001 C
   0.0246600000000000    0.3145900000000000    0.7643800000000001 C
   0.2364133333333333    0.0313750000000000    0.7890500000000000 C
   0.2364133333333333    0.2813750000000000    0.7890450000000000 C
   0.1347800000000000    0.1647950000000000    0.8462950000000000 C
   0.1347866666666667    0.4147950000000000    0.8462950000000000 C
   0.1910166666666666    0.1892700000000000    0.9856900000000000 C
   0.1910200000000000    0.4392750000000000    0.9856900000000000 C
   0.0695433333333333    0.1560400000000000    0.9614100000000000 C
   0.0695466666666667    0.4060450000000000    0.9614100000000000 C
   0.3124000000000000    0.2195100000000000    0.5437750000000000 C
   0.3124033333333333    0.4695150000000000    0.5437750000000000 C
   0.3013733333333333    0.0854550000000000    0.6539650000000000 C
   0.3013733333333333    0.3354550000000000    0.6539650000000000 C
   0.0242800000000000    0.0604100000000000    0.5142550000000000 C
   0.0242800000000000    0.3104150000000000    0.5142500000000000 C
   0.2361133333333333    0.0934150000000000    0.5389150000000000 C
   0.2361100000000000    0.3434200000000000    0.5389200000000000 C
   0.4795900000000000    0.0951250000000000    0.7061250000000000 C
   0.4795900000000000    0.3451300000000000    0.7061250000000000 C
   0.4681466666666667    0.2108100000000000    0.5961750000000000 C
   0.4681500000000000    0.4608150000000000    0.5961800000000000 C
   0.5247233333333333    0.1859700000000000    0.7357000000000000 C
   0.5247233333333333    0.4359700000000000    0.7357000000000000 C
   0.4032900000000000    0.2191150000000000    0.7112200000000000 C
   0.4032933333333333    0.4691200000000000    0.7112200000000000 C
   0.6461066666666666    0.1554000000000000    0.7941000000000000 C
   0.6461066666666666    0.4054050000000000    0.7941000000000000 C
   0.6345933333333333    0.0398550000000000    0.9036999999999999 C
   0.6345900000000000    0.2898600000000000    0.9037050000000000 C
   0.3579933333333333    0.0645850000000000    0.7643800000000001 C
   0.3579933333333333    0.3145900000000000    0.7643800000000001 C
   0.5697466666666666    0.0313750000000000    0.7890500000000000 C
   0.5697466666666666    0.2813750000000000    0.7890450000000000 C
   0.4681133333333333    0.1647950000000000    0.8462950000000000 C
   0.4681200000000000    0.4147950000000000    0.8462950000000000 C
   0.5243500000000000    0.1892700000000000    0.9856900000000000 C
   0.5243533333333333    0.4392750000000000    0.9856900000000000 C
   0.4028766666666667    0.1560400000000000    0.9614100000000000 C
   0.4028800000000000    0.4060450000000000    0.9614100000000000 C
   0.6457333333333333    0.2195100000000000    0.5437750000000000 C
   0.6457366666666666    0.4695150000000000    0.5437750000000000 C
   0.6347066666666666    0.0854550000000000    0.6539650000000000 C
   0.6347066666666666    0.3354550000000000    0.6539650000000000 C
   0.3576133333333333    0.0604100000000000    0.5142550000000000 C
   0.3576133333333333    0.3104150000000000    0.5142500000000000 C
   0.5694466666666667    0.0934150000000000    0.5389150000000000 C
   0.5694433333333333    0.3434200000000000    0.5389200000000000 C
   0.8129233333333332    0.0951250000000000    0.7061250000000000 C
   0.8129233333333332    0.3451300000000000    0.7061250000000000 C
   0.8014800000000000    0.2108100000000000    0.5961750000000000 C
   0.8014833333333333    0.4608150000000000    0.5961800000000000 C