H3 O2
1.0
  10.1354996526618937    0.0000000000000000   -0.0026534676647265
  -0.0016777501544457   11.5635095531572976   -0.2399999983215475
   0.0000000000000000    0.0000000000000000   29.6020000000000003
H O
3 2
direct
  -0.0182619331666625    0.6842405312390255    0.5433005806394402 H
  -0.1097910184226128    0.8642874098826517    0.5146453879735233 H
  -0.0064003790102228    0.8334761145497084    0.8688674061233367 H
  -0.0271400000000001    0.6857100000000000    0.5106900000000000 O
  -0.1116700000000000    0.8509000000000000    0.4821950000000000 O
