Zn24 H47 C47 O94
1.0
  10.1354996526618937    0.0000000000000000   -0.0026534676647265
  -0.0016777501544457   11.5635095531572976   -0.2399999983215475
   0.0000000000000000    0.0000000000000000   29.6020000000000003
Zn H C O
24 47 47 94
direct
   0.8824700000000000    0.7410700000000000    0.1546450000000000 Zn
   0.5720300000000000    0.7451500000000000    0.1841950000000000 Zn
   0.3825000000000000    0.7588800000000000    0.0953950000000000 Zn
   0.9281000000000000    0.2451000000000000    0.4342150000000000 Zn
   0.1174700000000000    0.2588000000000000    0.3454350000000000 Zn
   0.4280900000000000    0.2550100000000000    0.3162050000000000 Zn
   0.6171600000000000    0.2410900000000000    0.4056550000000000 Zn
   0.0000700000000000    0.5000200000000000    0.0000250000000000 Zn
   0.4999300000000000    0.0000200000000000    0.2503000000000000 Zn
   0.0000000000000000    0.9998600000000000    0.0000750000000000 Zn
   0.5000200000000000    0.4999000000000000    0.2500550000000000 Zn
   0.0720300000000000    0.7548400000000000    0.0658900000000000 Zn
   0.8824700000000000    0.7410700000000000    0.6546450000000000 Zn
   0.5720300000000000    0.7451500000000000    0.6841950000000000 Zn
   0.3825000000000000    0.7588800000000000    0.5953950000000000 Zn
   0.9281000000000000    0.2451000000000000    0.9342150000000000 Zn
   0.1174700000000000    0.2588000000000000    0.8454349999999999 Zn
   0.4280900000000000    0.2550100000000000    0.8162050000000001 Zn
   0.6171600000000000    0.2410900000000000    0.9056550000000000 Zn
   0.0000700000000000    0.5000200000000000    0.5000250000000001 Zn
   0.4999300000000000    0.0000200000000000    0.7503000000000000 Zn
   0.0000000000000000    0.9998600000000000    0.5000750000000000 Zn
   0.5000200000000000    0.4999000000000000    0.7500550000000000 Zn
   0.0720300000000000    0.7548400000000000    0.5658900000000000 Zn
   0.2422000000000000    0.8568000000000000    0.1865000000000000 H
   0.9484100000000000    0.4745300000000000    0.1358100000000000 H
   0.3892500000000000    0.5625100000000000    0.0215800000000000 H
   0.7952399999999999    0.9822900000000000    0.1171700000000000 H
   0.2909800000000000    0.9996100000000000    0.0048300000000000 H
   0.7421200000000000    0.6431900000000000    0.0635550000000000 H
   0.4499900000000000    0.0255500000000000    0.1148750000000000 H
   0.8892900000000000    0.9377100000000000    0.2283900000000000 H
   0.2952500000000000    0.5176500000000001    0.1328300000000000 H
   0.3372600000000000    0.8095900000000000    0.2894800000000000 H
   0.7909400000000000    0.5004300000000000    0.2452850000000000 H
   0.7574200000000000    0.1434100000000000    0.3138600000000000 H
   0.0514400000000000    0.5254100000000000    0.3642450000000000 H
   0.6106900000000000    0.4376200000000000    0.4787100000000000 H
   0.2049900000000000    0.0177800000000000    0.3829350000000000 H
   0.1624800000000000    0.3097700000000000    0.0395650000000000 H
   0.7095600000000000    0.9999800000000000    0.4955350000000000 H
   0.2572700000000000    0.3572500000000000    0.4366150000000000 H
   0.5517000000000000    0.9743400000000000    0.3858900000000000 H
   0.1106400000000000    0.0625800000000000    0.2716200000000000 H
   0.7048300000000000    0.4828400000000000    0.3674450000000000 H
   0.6629699999999999    0.1899200000000000    0.2110750000000000 H
   0.2090600000000000    0.4995100000000000    0.2549100000000000 H
   0.2422000000000000    0.8568000000000000    0.6865000000000000 H
   0.9484100000000000    0.4745300000000000    0.6358100000000000 H
   0.3892500000000000    0.5625100000000000    0.5215800000000000 H
   0.7952399999999999    0.9822900000000000    0.6171700000000000 H
   0.8374300000000000    0.6902199999999999    0.9605399999999999 H
   0.2909800000000000    0.9996100000000000    0.5048300000000000 H
   0.7421200000000000    0.6431900000000000    0.5635550000000000 H
   0.4499900000000000    0.0255500000000000    0.6148750000000001 H
   0.8892900000000000    0.9377100000000000    0.7283900000000000 H
   0.2952500000000000    0.5176500000000001    0.6328300000000000 H
   0.3372600000000000    0.8095900000000000    0.7894800000000000 H
   0.7909400000000000    0.5004300000000000    0.7452850000000000 H
   0.7574200000000000    0.1434100000000000    0.8138600000000000 H
   0.0514400000000000    0.5254100000000000    0.8642449999999999 H
   0.6106900000000000    0.4376200000000000    0.9787100000000000 H
   0.2049900000000000    0.0177800000000000    0.8829350000000000 H
   0.1624800000000000    0.3097700000000000    0.5395650000000000 H
   0.7095600000000000    0.9999800000000000    0.9955350000000001 H
   0.2572700000000000    0.3572500000000000    0.9366150000000000 H
   0.5517000000000000    0.9743400000000000    0.8858900000000001 H
   0.1106400000000000    0.0625800000000000    0.7716200000000000 H
   0.7048300000000000    0.4828400000000000    0.8674450000000000 H
   0.6629699999999999    0.1899200000000000    0.7110750000000000 H
   0.2090600000000000    0.4995100000000000    0.7549100000000000 H
   0.1607800000000000    0.8244000000000000    0.1649800000000000 C
   0.9752500000000000    0.5192600000000001    0.1044600000000000 C
   0.2818900000000000    0.5765500000000000    0.0254450000000000 C
   0.8666500000000000    0.9527900000000000    0.0910850000000000 C
   0.2729000000000000    0.9275600000000001    0.0278300000000000 C
   0.6607200000000000    0.6755800000000000    0.0850700000000000 C
   0.4752100000000000    0.9807700000000000    0.1456550000000000 C
   0.7819400000000000    0.9235000000000000    0.2245650000000000 C
   0.3666400000000000    0.5471600000000000    0.1589350000000000 C
   0.3982800000000000    0.7563600000000000    0.2662750000000000 C
   0.7728500000000000    0.5724200000000000    0.2222600000000000 C
   0.8389600000000000    0.1757200000000000    0.3353500000000000 C
   0.0246500000000000    0.4807000000000000    0.3956000000000000 C
   0.7180500000000000    0.4235800000000000    0.4748250000000000 C
   0.1334700000000000    0.0471900000000000    0.4090000000000000 C
   0.1016200000000000    0.2565200000000000    0.0163050000000000 C
   0.7272200000000000    0.0721400000000000    0.4725600000000000 C
   0.3387100000000000    0.3245100000000000    0.4151950000000000 C
   0.5248100000000000    0.0195500000000000    0.3547300000000000 C
   0.2180100000000000    0.0765900000000000    0.2755250000000000 C
   0.6330000000000000    0.4529200000000000    0.3415450000000000 C
   0.6019600000000001    0.2434300000000000    0.2341850000000000 C
   0.2272100000000000    0.4275700000000000    0.2779550000000000 C
   0.1607800000000000    0.8244000000000000    0.6649800000000000 C
   0.9752500000000000    0.5192600000000001    0.6044600000000000 C
   0.2818900000000000    0.5765500000000000    0.5254450000000001 C
   0.8666500000000000    0.9527900000000000    0.5910850000000000 C
   0.8983200000000000    0.7435100000000000    0.9837850000000000 C
   0.2729000000000000    0.9275600000000001    0.5278300000000000 C
   0.6607200000000000    0.6755800000000000    0.5850700000000000 C
   0.4752100000000000    0.9807700000000000    0.6456550000000000 C
   0.7819400000000000    0.9235000000000000    0.7245650000000000 C
   0.3666400000000000    0.5471600000000000    0.6589350000000000 C
   0.3982800000000000    0.7563600000000000    0.7662750000000000 C
   0.7728500000000000    0.5724200000000000    0.7222600000000000 C
   0.8389600000000000    0.1757200000000000    0.8353500000000000 C
   0.0246500000000000    0.4807000000000000    0.8956000000000000 C
   0.7180500000000000    0.4235800000000000    0.9748250000000001 C
   0.1334700000000000    0.0471900000000000    0.9090000000000000 C
   0.1016200000000000    0.2565200000000000    0.5163050000000000 C
   0.7272200000000000    0.0721400000000000    0.9725600000000000 C
   0.3387100000000000    0.3245100000000000    0.9151950000000000 C
   0.5248100000000000    0.0195500000000000    0.8547300000000000 C
   0.2180100000000000    0.0765900000000000    0.7755250000000000 C
   0.6330000000000000    0.4529200000000000    0.8415450000000000 C
   0.6019600000000001    0.2434300000000000    0.7341850000000000 C
   0.2272100000000000    0.4275700000000000    0.7779550000000000 C
   0.1894200000000000    0.8007600000000000    0.1235400000000000 O
   0.0492800000000000    0.8149800000000000    0.1832350000000000 O
   0.9783300000000000    0.6304400000000000    0.1074500000000000 O
   0.0000400000000000    0.4594600000000000    0.0698450000000000 O
   0.2481500000000000    0.6506700000000000    0.0564350000000000 O
   0.2059800000000000    0.5196100000000000    0.0000000000000000 O
   0.9121100000000000    0.8500500000000000    0.0959700000000000 O
   0.8939800000000000    0.0204400000000000    0.0604950000000000 O
   0.9728599999999999    0.6857100000000000    0.0106900000000000 O
   0.1515900000000000    0.8956400000000000    0.0314350000000000 O
   0.3708500000000000    0.8857600000000000    0.0476300000000000 O
   0.6893600000000000    0.6992200000000000    0.1265100000000000 O
   0.5492200000000000    0.6850000000000001    0.0667950000000000 O
   0.4784000000000000    0.8696000000000000    0.1426050000000000 O
   0.5003100000000000    0.0403800000000000    0.1809600000000000 O
   0.7481900000000000    0.8492800000000000    0.1935900000000000 O
   0.7060300000000000    0.9803400000000000    0.2499850000000000 O
   0.4121300000000000    0.6499200000000001    0.1540550000000000 O
   0.3938800000000000    0.4786500000000000    0.1897300000000000 O
   0.4728500000000000    0.8142500000000000    0.2394100000000000 O
   0.3883700000000000    0.6489600000000000    0.2678500000000000 O
   0.6515200000000000    0.6042800000000000    0.2186250000000000 O
   0.8707900000000000    0.6142600000000000    0.2024750000000000 O
   0.8104600000000000    0.1993600000000000    0.3767900000000000 O
   0.9504100000000000    0.1850400000000000    0.3170250000000000 O
   0.0215100000000000    0.3695200000000000    0.3926050000000000 O
   0.9999100000000000    0.5405200000000000    0.4302300000000000 O
   0.7517900000000000    0.3491800000000000    0.4439300000000000 O
   0.7940400000000000    0.4807700000000000    0.0000950000000000 O
   0.0877900000000000    0.1498500000000000    0.4040850000000000 O
   0.1061200000000000    0.9785600000000000    0.4397400000000000 O
   0.0271000000000000    0.3143500000000000    0.4894050000000000 O
   0.1116100000000000    0.1491300000000000    0.0178500000000000 O
   0.8484000000000000    0.1041300000000000    0.4687000000000000 O
   0.6288200000000000    0.1140200000000000    0.4530150000000000 O
   0.3103000000000000    0.3006700000000000    0.3737650000000000 O
   0.4500300000000000    0.3149500000000000    0.4335950000000000 O
   0.5218200000000000    0.1306900000000000    0.3577550000000000 O
   0.4999800000000000    0.9595700000000000    0.3199300000000000 O
   0.2517900000000000    0.1507100000000000    0.3065200000000000 O
   0.2939100000000000    0.0196000000000000    0.2501350000000000 O
   0.5866700000000000    0.3507200000000000    0.3470250000000000 O
   0.6061200000000000    0.5206499999999999    0.3104300000000000 O
   0.5278000000000000    0.1858200000000000    0.2612800000000000 O
   0.6115600000000000    0.3507900000000000    0.2322750000000000 O
   0.3484800000000000    0.3955300000000000    0.2814900000000000 O
   0.1293300000000000    0.3859900000000000    0.2978650000000000 O
   0.1894200000000000    0.8007600000000000    0.6235400000000000 O
   0.0492800000000000    0.8149800000000000    0.6832350000000000 O
   0.9783300000000000    0.6304400000000000    0.6074500000000000 O
   0.0000400000000000    0.4594600000000000    0.5698450000000000 O
   0.2481500000000000    0.6506700000000000    0.5564350000000000 O
   0.2059800000000000    0.5196100000000000    0.5000000000000000 O
   0.9121100000000000    0.8500500000000000    0.5959700000000000 O
   0.8939800000000000    0.0204400000000000    0.5604950000000000 O
   0.8883300000000000    0.8509000000000000    0.9821949999999999 O
   0.1515900000000000    0.8956400000000000    0.5314350000000000 O
   0.3708500000000000    0.8857600000000000    0.5476300000000000 O
   0.6893600000000000    0.6992200000000000    0.6265100000000000 O
   0.5492200000000000    0.6850000000000001    0.5667949999999999 O
   0.4784000000000000    0.8696000000000000    0.6426050000000000 O
   0.5003100000000000    0.0403800000000000    0.6809600000000000 O
   0.7481900000000000    0.8492800000000000    0.6935900000000000 O
   0.7060300000000000    0.9803400000000000    0.7499850000000000 O
   0.4121300000000000    0.6499200000000001    0.6540550000000001 O
   0.3938800000000000    0.4786500000000000    0.6897300000000000 O
   0.4728500000000000    0.8142500000000000    0.7394100000000000 O
   0.3883700000000000    0.6489600000000000    0.7678499999999999 O
   0.6515200000000000    0.6042800000000000    0.7186250000000001 O
   0.8707900000000000    0.6142600000000000    0.7024750000000000 O
   0.8104600000000000    0.1993600000000000    0.8767900000000000 O
   0.9504100000000000    0.1850400000000000    0.8170250000000000 O
   0.0215100000000000    0.3695200000000000    0.8926050000000000 O
   0.9999100000000000    0.5405200000000000    0.9302300000000000 O
   0.7517900000000000    0.3491800000000000    0.9439299999999999 O
   0.7940400000000000    0.4807700000000000    0.5000950000000000 O
   0.0877900000000000    0.1498500000000000    0.9040850000000000 O
   0.1061200000000000    0.9785600000000000    0.9397400000000000 O
   0.0271000000000000    0.3143500000000000    0.9894050000000000 O
   0.1116100000000000    0.1491300000000000    0.5178500000000000 O
   0.8484000000000000    0.1041300000000000    0.9687000000000000 O
   0.6288200000000000    0.1140200000000000    0.9530149999999999 O
   0.3103000000000000    0.3006700000000000    0.8737650000000000 O
   0.4500300000000000    0.3149500000000000    0.9335950000000000 O
   0.5218200000000000    0.1306900000000000    0.8577550000000000 O
   0.4999800000000000    0.9595700000000000    0.8199300000000000 O
   0.2517900000000000    0.1507100000000000    0.8065200000000000 O
   0.2939100000000000    0.0196000000000000    0.7501350000000000 O
   0.5866700000000000    0.3507200000000000    0.8470249999999999 O
   0.6061200000000000    0.5206499999999999    0.8104300000000000 O
   0.5278000000000000    0.1858200000000000    0.7612800000000000 O
   0.6115600000000000    0.3507900000000000    0.7322750000000000 O
   0.3484800000000000    0.3955300000000000    0.7814900000000000 O
   0.1293300000000000    0.3859900000000000    0.7978650000000000 O
