H4 C8 O4
1.0
  15.9822268746663134    0.0000000000000000    9.1275653449698115
   5.2994425605699620   15.0871384294507429    9.1387573858709139
   0.0000000000000000    0.0000000000000000   36.8359999999999985
H C O
4 8 4
direct
   0.1643400000000000    0.4516900000000000    0.4660100000000000 H
   0.0681400000000000    0.5481600000000000    0.4178800000000000 H
   0.9318800000000000    0.4518000000000000    0.5821100000000000 H
   0.8356800000000000    0.5482700000000000    0.5339800000000000 H
   0.0923600000000000    0.4732200000000000    0.4805050000000000 C
   0.0390800000000000    0.5266800000000000    0.4538500000000000 C
   0.8891100000000000    0.6112900000000000    0.4445250000000000 C
   0.9464200000000000    0.5537400000000000    0.4731800000000000 C
   0.9609300000000000    0.4732800000000000    0.5461400000000000 C
   0.9076600000000000    0.5267400000000000    0.5194900000000000 C
   0.1109100000000000    0.3886700000000000    0.5554700000000000 C
   0.0536000000000000    0.4462200000000000    0.5268150000000000 C
   0.9286799999999999    0.6335000000000000    0.4026650000000000 O
   0.8053500000000000    0.6334500000000000    0.4642900000000000 O
   0.0713400000000000    0.3664600000000000    0.5973300000000000 O
   0.1946700000000000    0.3665000000000000    0.5357050000000000 O
