Cu48 H284 C276 Br48 N92 O4
1.0
  34.3851296611040880    0.0000000000000000   17.1685278107664061
   5.6944163912569525   12.7826637298226000    2.8452644750992726
   0.0000000000000000    0.0000000000000000   28.3799999999999990
Cu H C Br N O
48 284 276 48 92 4
direct
   0.2152666666666667    0.9987400000000000    0.7684350000000000 Cu
   0.2981100000000000    0.5003200000000000    0.0189600000000000 Cu
   0.0606400000000000    0.9985400000000000    0.2311650000000000 Cu
   0.2982100000000000    0.0370900000000000    0.2501500000000000 Cu
   0.0606033333333333    0.4621800000000000    0.4995250000000000 Cu
   0.2152533333333333    0.5355799999999999    0.9998600000000000 Cu
   0.2152666666666667    0.9987400000000000    0.2684350000000000 Cu
   0.2981100000000000    0.5003200000000000    0.5189600000000000 Cu
   0.0606400000000000    0.9985400000000000    0.7311650000000001 Cu
   0.2982100000000000    0.0370900000000000    0.7501500000000000 Cu
   0.0606033333333333    0.4621800000000000    0.9995250000000000 Cu
   0.2152533333333333    0.5355799999999999    0.4998600000000000 Cu
   0.1434933333333333    0.5004600000000000    0.9816450000000000 Cu
   0.1434933333333333    0.5004600000000000    0.4816450000000000 Cu
   0.1434466666666667    0.9636800000000000    0.2503500000000000 Cu
   0.1434466666666667    0.9636800000000000    0.7503500000000001 Cu
   0.8819333333333332    0.9987400000000000    0.7684350000000000 Cu
   0.9647766666666666    0.5003200000000000    0.0189600000000000 Cu
   0.7273066666666667    0.9985400000000000    0.2311650000000000 Cu
   0.9648766666666666    0.0370900000000000    0.2501500000000000 Cu
   0.7272700000000000    0.4621800000000000    0.4995250000000000 Cu
   0.8819199999999999    0.5355799999999999    0.9998600000000000 Cu
   0.8819333333333332    0.9987400000000000    0.2684350000000000 Cu
   0.9647766666666666    0.5003200000000000    0.5189600000000000 Cu
   0.7273066666666667    0.9985400000000000    0.7311650000000001 Cu
   0.9648766666666666    0.0370900000000000    0.7501500000000000 Cu
   0.7272700000000000    0.4621800000000000    0.9995250000000000 Cu
   0.8819199999999999    0.5355799999999999    0.4998600000000000 Cu
   0.8101600000000000    0.5004600000000000    0.4816450000000000 Cu
   0.8101600000000000    0.5004600000000000    0.9816450000000000 Cu
   0.8101133333333332    0.9636800000000000    0.2503500000000000 Cu
   0.8101133333333332    0.9636800000000000    0.7503500000000001 Cu
   0.3939366666666667    0.4621800000000000    0.9995250000000000 Cu
   0.4768266666666666    0.5004600000000000    0.9816450000000000 Cu
   0.5486000000000000    0.9987400000000000    0.7684350000000000 Cu
   0.6314433333333334    0.5003200000000000    0.0189600000000000 Cu
   0.3939733333333333    0.9985400000000000    0.2311650000000000 Cu
   0.6315433333333333    0.0370900000000000    0.2501500000000000 Cu
   0.3939366666666667    0.4621800000000000    0.4995250000000000 Cu
   0.5485866666666667    0.5355799999999999    0.9998600000000000 Cu
   0.5486000000000000    0.9987400000000000    0.2684350000000000 Cu
   0.6314433333333334    0.5003200000000000    0.5189600000000000 Cu
   0.3939733333333333    0.9985400000000000    0.7311650000000001 Cu
   0.6315433333333333    0.0370900000000000    0.7501500000000000 Cu
   0.5485866666666667    0.5355799999999999    0.4998600000000000 Cu
   0.4768266666666666    0.5004600000000000    0.4816450000000000 Cu
   0.4767800000000000    0.9636800000000000    0.2503500000000000 Cu
   0.4767800000000000    0.9636800000000000    0.7503500000000001 Cu
   0.2967066666666667    0.7545100000000000    0.8781399999999999 H
   0.2922100000000000    0.6800300000000000    0.8402700000000001 H
   0.0610666666666667    0.7475300000000000    0.8735450000000000 H
   0.0660333333333333    0.8212500000000000    0.9112800000000000 H
   0.2664366666666667    0.8641600000000000    0.8122750000000001 H
   0.2320700000000000    0.9067700000000000    0.8777100000000000 H
   0.0915666666666667    0.8783300000000001    0.8187350000000000 H
   0.1256800000000000    0.7486000000000000    0.7967649999999999 H
   0.2663233333333333    0.6235000000000001    0.9328099999999999 H
   0.2319233333333333    0.7532900000000000    0.9545000000000000 H
   0.0917700000000000    0.6366100000000000    0.9387850000000000 H
   0.1258766666666667    0.5947200000000000    0.8731949999999999 H
   0.2234866666666666    0.2606600000000000    0.1299550000000000 H
   0.2772666666666667    0.1850700000000000    0.0912400000000000 H
   0.4692433333333333    0.2364700000000000    0.1189050000000000 H
   0.4155300000000000    0.3124000000000000    0.1577000000000000 H
   0.2617200000000000    0.1267100000000000    0.1834400000000000 H
   0.2397033333333333    0.2558400000000000    0.2056200000000000 H
   0.4309766666666667    0.3705700000000000    0.0655000000000000 H
   0.4527666666666667    0.2414400000000000    0.0434000000000000 H
   0.4314000000000000    0.1283200000000000    0.1851600000000000 H
   0.4528833333333333    0.0870500000000000    0.1197000000000000 H
   0.2611800000000000    0.3693500000000000    0.0639700000000000 H
   0.2395533333333333    0.4104100000000000    0.1294850000000000 H
   0.2975900000000000    0.7434900000000000    0.1307700000000000 H
   0.2687666666666667    0.8190900000000000    0.0926500000000000 H
   0.0610400000000000    0.7533500000000000    0.1207050000000000 H
   0.0899066666666667    0.6787300000000001    0.1589000000000000 H
   0.3042899999999999    0.6356900000000000    0.0634500000000000 H
   0.2839466666666667    0.5914500000000000    0.1285100000000000 H
   0.0543400000000000    0.8629400000000000    0.1871700000000000 H
   0.0750066666666667    0.9056800000000000    0.1218450000000000 H
   0.2236766666666667    0.8733900000000000    0.1853500000000000 H
   0.2320900000000000    0.7431300000000000    0.2062050000000000 H
   0.1349966666666667    0.6228700000000000    0.0663700000000000 H
   0.1264566666666667    0.7528200000000000    0.0449100000000000 H
   0.0611400000000000    0.2394800000000000    0.3774250000000000 H
   0.0902833333333333    0.3144500000000000    0.3391000000000000 H
   0.2975833333333333    0.2627900000000000    0.3709950000000000 H
   0.2686466666666666    0.1875900000000000    0.4096900000000000 H
   0.3043066666666666    0.1273100000000000    0.3177250000000000 H
   0.2840866666666667    0.2559400000000000    0.2947550000000000 H
   0.0544333333333333    0.3738400000000000    0.4313000000000000 H
   0.0746133333333333    0.2449000000000000    0.4539600000000000 H
   0.1351133333333333    0.1298000000000000    0.3125650000000000 H
   0.1263333333333333    0.0895400000000000    0.3783250000000000 H
   0.2236533333333333    0.3722000000000000    0.4359800000000000 H
   0.2321700000000000    0.4120000000000000    0.3702050000000000 H
   0.2967066666666667    0.7545100000000000    0.3781400000000000 H
   0.2922100000000000    0.6800300000000000    0.3402700000000000 H
   0.0610666666666667    0.7475300000000000    0.3735450000000000 H
   0.0660333333333333    0.8212500000000000    0.4112800000000000 H
   0.2664366666666667    0.8641600000000000    0.3122750000000000 H
   0.2320700000000000    0.9067700000000000    0.3777100000000000 H
   0.0915666666666667    0.8783300000000001    0.3187350000000000 H
   0.1256800000000000    0.7486000000000000    0.2967650000000000 H
   0.2663233333333333    0.6235000000000001    0.4328100000000000 H
   0.2319233333333333    0.7532900000000000    0.4545000000000000 H
   0.0917700000000000    0.6366100000000000    0.4387850000000000 H
   0.1258766666666667    0.5947200000000000    0.3731950000000000 H
   0.2234866666666666    0.2606600000000000    0.6299550000000000 H
   0.2772666666666667    0.1850700000000000    0.5912400000000000 H
   0.4692433333333333    0.2364700000000000    0.6189050000000000 H
   0.4155300000000000    0.3124000000000000    0.6577000000000000 H
   0.2617200000000000    0.1267100000000000    0.6834400000000000 H
   0.2397033333333333    0.2558400000000000    0.7056200000000000 H
   0.4309766666666667    0.3705700000000000    0.5655000000000000 H
   0.4527666666666667    0.2414400000000000    0.5434000000000000 H
   0.4314000000000000    0.1283200000000000    0.6851600000000000 H
   0.4528833333333333    0.0870500000000000    0.6197000000000000 H
   0.2611800000000000    0.3693500000000000    0.5639700000000000 H
   0.2395533333333333    0.4104100000000000    0.6294850000000000 H
   0.2975900000000000    0.7434900000000000    0.6307700000000001 H
   0.2687666666666667    0.8190900000000000    0.5926500000000000 H
   0.0610400000000000    0.7533500000000000    0.6207050000000001 H
   0.0899066666666667    0.6787300000000001    0.6589000000000000 H
   0.3042899999999999    0.6356900000000000    0.5634500000000000 H
   0.2839466666666667    0.5914500000000000    0.6285100000000000 H
   0.0543400000000000    0.8629400000000000    0.6871700000000001 H
   0.0750066666666667    0.9056800000000000    0.6218450000000000 H
   0.2236766666666667    0.8733900000000000    0.6853500000000000 H
   0.2320900000000000    0.7431300000000000    0.7062050000000000 H
   0.1349966666666667    0.6228700000000000    0.5663700000000000 H
   0.1264566666666667    0.7528200000000000    0.5449100000000000 H
   0.0611400000000000    0.2394800000000000    0.8774250000000000 H
   0.0902833333333333    0.3144500000000000    0.8391000000000000 H
   0.2975833333333333    0.2627900000000000    0.8709950000000000 H
   0.2686466666666666    0.1875900000000000    0.9096900000000000 H
   0.3043066666666666    0.1273100000000000    0.8177250000000000 H
   0.2840866666666667    0.2559400000000000    0.7947550000000000 H
   0.0544333333333333    0.3738400000000000    0.9313000000000000 H
   0.0746133333333333    0.2449000000000000    0.9539599999999999 H
   0.1351133333333333    0.1298000000000000    0.8125650000000000 H
   0.1263333333333333    0.0895400000000000    0.8783250000000000 H
   0.2236533333333333    0.3722000000000000    0.9359800000000000 H
   0.2321700000000000    0.4120000000000000    0.8702050000000000 H
   0.9633733333333333    0.7545100000000000    0.8781399999999999 H
   0.9588766666666666    0.6800300000000000    0.8402700000000001 H
   0.7277333333333333    0.7475300000000000    0.8735450000000000 H
   0.7326999999999999    0.8212500000000000    0.9112800000000000 H
   0.9331033333333333    0.8641600000000000    0.8122750000000001 H
   0.8987366666666666    0.9067700000000000    0.8777100000000000 H
   0.7582333333333333    0.8783300000000001    0.8187350000000000 H
   0.7923466666666666    0.7486000000000000    0.7967649999999999 H
   0.9329900000000000    0.6235000000000001    0.9328099999999999 H
   0.8985900000000000    0.7532900000000000    0.9545000000000000 H
   0.7584366666666666    0.6366100000000000    0.9387850000000000 H
   0.7925433333333333    0.5947200000000000    0.8731949999999999 H
   0.8901533333333332    0.2606600000000000    0.1299550000000000 H
   0.9439333333333333    0.1850700000000000    0.0912400000000000 H
   0.1359100000000000    0.2364700000000000    0.1189050000000000 H
   0.0821966666666667    0.3124000000000000    0.1577000000000000 H
   0.9283866666666666    0.1267100000000000    0.1834400000000000 H
   0.9063699999999999    0.2558400000000000    0.2056200000000000 H
   0.0976433333333333    0.3705700000000000    0.0655000000000000 H
   0.1194333333333333    0.2414400000000000    0.0434000000000000 H
   0.0980666666666667    0.1283200000000000    0.1851600000000000 H
   0.1195500000000000    0.0870500000000000    0.1197000000000000 H
   0.9278466666666666    0.3693500000000000    0.0639700000000000 H
   0.9062199999999999    0.4104100000000000    0.1294850000000000 H
   0.9642566666666665    0.7434900000000000    0.1307700000000000 H
   0.9354333333333333    0.8190900000000000    0.0926500000000000 H
   0.7277066666666666    0.7533500000000000    0.1207050000000000 H
   0.7565733333333333    0.6787300000000001    0.1589000000000000 H
   0.9709566666666666    0.6356900000000000    0.0634500000000000 H
   0.9506133333333333    0.5914500000000000    0.1285100000000000 H
   0.7210066666666666    0.8629400000000000    0.1871700000000000 H
   0.7416733333333333    0.9056800000000000    0.1218450000000000 H
   0.8903433333333333    0.8733900000000000    0.1853500000000000 H
   0.8987566666666666    0.7431300000000000    0.2062050000000000 H
   0.8016633333333333    0.6228700000000000    0.0663700000000000 H
   0.7931233333333333    0.7528200000000000    0.0449100000000000 H
   0.7278066666666666    0.2394800000000000    0.3774250000000000 H
   0.7569500000000000    0.3144500000000000    0.3391000000000000 H
   0.9642499999999999    0.2627900000000000    0.3709950000000000 H
   0.9353133333333332    0.1875900000000000    0.4096900000000000 H
   0.9709733333333332    0.1273100000000000    0.3177250000000000 H
   0.9507533333333333    0.2559400000000000    0.2947550000000000 H
   0.7211000000000000    0.3738400000000000    0.4313000000000000 H
   0.7412799999999999    0.2449000000000000    0.4539600000000000 H
   0.8017799999999999    0.1298000000000000    0.3125650000000000 H
   0.7929999999999999    0.0895400000000000    0.3783250000000000 H
   0.8903200000000000    0.3722000000000000    0.4359800000000000 H
   0.8988366666666666    0.4120000000000000    0.3702050000000000 H
   0.9633733333333333    0.7545100000000000    0.3781400000000000 H
   0.9588766666666666    0.6800300000000000    0.3402700000000000 H
   0.7277333333333333    0.7475300000000000    0.3735450000000000 H
   0.7326999999999999    0.8212500000000000    0.4112800000000000 H
   0.9331033333333333    0.8641600000000000    0.3122750000000000 H
   0.8987366666666666    0.9067700000000000    0.3777100000000000 H
   0.7582333333333333    0.8783300000000001    0.3187350000000000 H
   0.7923466666666666    0.7486000000000000    0.2967650000000000 H
   0.9329900000000000    0.6235000000000001    0.4328100000000000 H
   0.8985900000000000    0.7532900000000000    0.4545000000000000 H
   0.7584366666666666    0.6366100000000000    0.4387850000000000 H
   0.7925433333333333    0.5947200000000000    0.3731950000000000 H
   0.8901533333333332    0.2606600000000000    0.6299550000000000 H
   0.9439333333333333    0.1850700000000000    0.5912400000000000 H
   0.1359100000000000    0.2364700000000000    0.6189050000000000 H
   0.0821966666666667    0.3124000000000000    0.6577000000000000 H
   0.9283866666666666    0.1267100000000000    0.6834400000000000 H
   0.9063699999999999    0.2558400000000000    0.7056200000000000 H
   0.0976433333333333    0.3705700000000000    0.5655000000000000 H
   0.1194333333333333    0.2414400000000000    0.5434000000000000 H
   0.0980666666666667    0.1283200000000000    0.6851600000000000 H
   0.1195500000000000    0.0870500000000000    0.6197000000000000 H
   0.9278466666666666    0.3693500000000000    0.5639700000000000 H
   0.9062199999999999    0.4104100000000000    0.6294850000000000 H
   0.9642566666666665    0.7434900000000000    0.6307700000000001 H
   0.9354333333333333    0.8190900000000000    0.5926500000000000 H
   0.7277066666666666    0.7533500000000000    0.6207050000000001 H
   0.7565733333333333    0.6787300000000001    0.6589000000000000 H
   0.9709566666666666    0.6356900000000000    0.5634500000000000 H
   0.9506133333333333    0.5914500000000000    0.6285100000000000 H
   0.7210066666666666    0.8629400000000000    0.6871700000000001 H
   0.7416733333333333    0.9056800000000000    0.6218450000000000 H
   0.8903433333333333    0.8733900000000000    0.6853500000000000 H
   0.8987566666666666    0.7431300000000000    0.7062050000000000 H
   0.8016633333333333    0.6228700000000000    0.5663700000000000 H
   0.7931233333333333    0.7528200000000000    0.5449100000000000 H
   0.7278066666666666    0.2394800000000000    0.8774250000000000 H
   0.7569500000000000    0.3144500000000000    0.8391000000000000 H
   0.9642499999999999    0.2627900000000000    0.8709950000000000 H
   0.9353133333333332    0.1875900000000000    0.9096900000000000 H
   0.9709733333333332    0.1273100000000000    0.8177250000000000 H
   0.9507533333333333    0.2559400000000000    0.7947550000000000 H
   0.7211000000000000    0.3738400000000000    0.9313000000000000 H
   0.7412799999999999    0.2449000000000000    0.9539599999999999 H
   0.8017799999999999    0.1298000000000000    0.8125650000000000 H
   0.7929999999999999    0.0895400000000000    0.8783250000000000 H
   0.8903200000000000    0.3722000000000000    0.9359800000000000 H
   0.8988366666666666    0.4120000000000000    0.8702050000000000 H
   0.5142663111915424    0.3475173629778412    0.9130268454624002 H
   0.4948304933657074    0.3581542376829871    0.9182079262999163 H
   0.4652262778501698    0.3383295002152338    0.9261404024207468 H
   0.4531207339080627    0.3276523671563383    0.9219817723588742 H
   0.6300399999999999    0.7545100000000000    0.8781399999999999 H
   0.6255433333333333    0.6800300000000000    0.8402700000000001 H
   0.3944000000000000    0.7475300000000000    0.8735450000000000 H
   0.3993666666666666    0.8212500000000000    0.9112800000000000 H
   0.5997699999999999    0.8641600000000000    0.8122750000000001 H
   0.5654033333333333    0.9067700000000000    0.8777100000000000 H
   0.4248999999999999    0.8783300000000001    0.8187350000000000 H
   0.4590133333333333    0.7486000000000000    0.7967649999999999 H
   0.5996566666666666    0.6235000000000001    0.9328099999999999 H
   0.5652566666666666    0.7532900000000000    0.9545000000000000 H
   0.4251033333333333    0.6366100000000000    0.9387850000000000 H
   0.4592100000000000    0.5947200000000000    0.8731949999999999 H
   0.5568200000000000    0.2606600000000000    0.1299550000000000 H
   0.6106000000000000    0.1850700000000000    0.0912400000000000 H
   0.8025766666666666    0.2364700000000000    0.1189050000000000 H
   0.7488633333333333    0.3124000000000000    0.1577000000000000 H
   0.5950533333333332    0.1267100000000000    0.1834400000000000 H
   0.5730366666666666    0.2558400000000000    0.2056200000000000 H
   0.7643099999999999    0.3705700000000000    0.0655000000000000 H
   0.7861000000000000    0.2414400000000000    0.0434000000000000 H
   0.7647333333333333    0.1283200000000000    0.1851600000000000 H
   0.7862166666666667    0.0870500000000000    0.1197000000000000 H
   0.5945133333333332    0.3693500000000000    0.0639700000000000 H
   0.5728866666666667    0.4104100000000000    0.1294850000000000 H
   0.6309233333333333    0.7434900000000000    0.1307700000000000 H
   0.6021000000000000    0.8190900000000000    0.0926500000000000 H
   0.3943733333333333    0.7533500000000000    0.1207050000000000 H
   0.4232399999999999    0.6787300000000001    0.1589000000000000 H
   0.6376233333333332    0.6356900000000000    0.0634500000000000 H
   0.6172800000000001    0.5914500000000000    0.1285100000000000 H
   0.3876733333333333    0.8629400000000000    0.1871700000000000 H
   0.4083400000000000    0.9056800000000000    0.1218450000000000 H
   0.5570100000000000    0.8733900000000000    0.1853500000000000 H
   0.5654233333333333    0.7431300000000000    0.2062050000000000 H
   0.4683300000000000    0.6228700000000000    0.0663700000000000 H
   0.4597900000000000    0.7528200000000000    0.0449100000000000 H
   0.3944733333333333    0.2394800000000000    0.3774250000000000 H
   0.4236166666666666    0.3144500000000000    0.3391000000000000 H
   0.6309166666666666    0.2627900000000000    0.3709950000000000 H
   0.6019800000000000    0.1875900000000000    0.4096900000000000 H
   0.6376400000000000    0.1273100000000000    0.3177250000000000 H
   0.6174200000000000    0.2559400000000000    0.2947550000000000 H
   0.3877666666666666    0.3738400000000000    0.4313000000000000 H
   0.4079466666666667    0.2449000000000000    0.4539600000000000 H
   0.4684466666666666    0.1298000000000000    0.3125650000000000 H
   0.4596666666666667    0.0895400000000000    0.3783250000000000 H
   0.5569866666666666    0.3722000000000000    0.4359800000000000 H
   0.5655033333333332    0.4120000000000000    0.3702050000000000 H
   0.6300399999999999    0.7545100000000000    0.3781400000000000 H
   0.6255433333333333    0.6800300000000000    0.3402700000000000 H
   0.3944000000000000    0.7475300000000000    0.3735450000000000 H
   0.3993666666666666    0.8212500000000000    0.4112800000000000 H
   0.5997699999999999    0.8641600000000000    0.3122750000000000 H
   0.5654033333333333    0.9067700000000000    0.3777100000000000 H
   0.4248999999999999    0.8783300000000001    0.3187350000000000 H
   0.4590133333333333    0.7486000000000000    0.2967650000000000 H
   0.5996566666666666    0.6235000000000001    0.4328100000000000 H
   0.5652566666666666    0.7532900000000000    0.4545000000000000 H
   0.4251033333333333    0.6366100000000000    0.4387850000000000 H
   0.4592100000000000    0.5947200000000000    0.3731950000000000 H
   0.5305288985928296    0.1430035439202935    0.8309599833786563 H
   0.5111171919157992    0.1534423098703632    0.8360230795568730 H
   0.5688089569180556    0.1502660388638205    0.7820302077118310 H
   0.5722830652070114    0.1731665210255203    0.8271126485546443 H
   0.5568200000000000    0.2606600000000000    0.6299550000000000 H
   0.6106000000000000    0.1850700000000000    0.5912400000000000 H
   0.8025766666666666    0.2364700000000000    0.6189050000000000 H
   0.7488633333333333    0.3124000000000000    0.6577000000000000 H
   0.5950533333333332    0.1267100000000000    0.6834400000000000 H
   0.5730366666666666    0.2558400000000000    0.7056200000000000 H
   0.7643099999999999    0.3705700000000000    0.5655000000000000 H
   0.7861000000000000    0.2414400000000000    0.5434000000000000 H
   0.7647333333333333    0.1283200000000000    0.6851600000000000 H
   0.7862166666666667    0.0870500000000000    0.6197000000000000 H
   0.5945133333333332    0.3693500000000000    0.5639700000000000 H
   0.5728866666666667    0.4104100000000000    0.6294850000000000 H
   0.6309233333333333    0.7434900000000000    0.6307700000000001 H
   0.6021000000000000    0.8190900000000000    0.5926500000000000 H
   0.3943733333333333    0.7533500000000000    0.6207050000000001 H
   0.4232399999999999    0.6787300000000001    0.6589000000000000 H
   0.6376233333333332    0.6356900000000000    0.5634500000000000 H
   0.6172800000000001    0.5914500000000000    0.6285100000000000 H
   0.3876733333333333    0.8629400000000000    0.6871700000000001 H
   0.4083400000000000    0.9056800000000000    0.6218450000000000 H
   0.5570100000000000    0.8733900000000000    0.6853500000000000 H
   0.5654233333333333    0.7431300000000000    0.7062050000000000 H
   0.4683300000000000    0.6228700000000000    0.5663700000000000 H
   0.4597900000000000    0.7528200000000000    0.5449100000000000 H
   0.2735800000000000    0.7406800000000000    0.8709800000000000 C
   0.0844100000000000    0.7608600000000000    0.8804650000000001 C
   0.2465866666666666    0.8411300000000000    0.8505350000000000 C
   0.1113766666666667    0.8019200000000000    0.8300100000000000 C
   0.2465100000000000    0.6996500000000000    0.9213400000000000 C
   0.1115033333333333    0.6599699999999999    0.9005400000000000 C
   0.1466033333333333    0.6719400000000000    0.9052899999999999 C
   0.2115866666666666    0.6902100000000000    0.9148750000000000 C
   0.1465433333333333    0.8107400000000000    0.8361650000000000 C
   0.2115833333333333    0.8288700000000000    0.8456699999999999 C
   0.1623800000000000    0.7460900000000000    0.8732000000000000 C
   0.1957933333333333    0.7547700000000001    0.8777699999999999 C
   0.2562066666666666    0.2452700000000000    0.1222300000000000 C
   0.4364733333333333    0.2521100000000000    0.1267500000000000 C
   0.2642533333333333    0.2024700000000000    0.1721000000000000 C
   0.4283366666666666    0.2949500000000000    0.0769450000000000 C
   0.4285233333333333    0.1526200000000000    0.1473050000000000 C
   0.2640166666666667    0.3449800000000000    0.1018500000000000 C
   0.3069266666666667    0.3300100000000000    0.0958500000000000 C
   0.3854400000000000    0.3068400000000000    0.0843650000000000 C
   0.3855666666666667    0.1677600000000000    0.1533650000000000 C
   0.3070633333333333    0.1909300000000000    0.1648450000000000 C
   0.3262966666666667    0.2545200000000000    0.1274100000000000 C
   0.3662000000000000    0.2432800000000000    0.1218300000000000 C
   0.2701033333333333    0.7576600000000000    0.1230350000000000 C
   0.0885600000000000    0.7396000000000000    0.1282700000000000 C
   0.2767066666666667    0.6577900000000000    0.1016650000000000 C
   0.0820200000000000    0.8399900000000000    0.1490800000000000 C
   0.2292000000000000    0.7977400000000000    0.1732100000000000 C
   0.1294300000000000    0.6989400000000000    0.0781150000000000 C
   0.1672366666666666    0.6892900000000000    0.0852400000000000 C
   0.2378466666666667    0.6703200000000000    0.0961650000000000 C
   0.1914233333333333    0.8081400000000000    0.1657500000000000 C
   0.1208600000000000    0.8275700000000000    0.1545900000000000 C
   0.1613133333333333    0.7534500000000000    0.1227750000000000 C
   0.1973733333333333    0.7441700000000000    0.1281250000000000 C
   0.0886866666666667    0.2546500000000000    0.3702750000000000 C
   0.2700800000000000    0.2471800000000000    0.3784000000000000 C
   0.2767533333333333    0.2033000000000000    0.3284900000000000 C
   0.0819733333333333    0.2978500000000000    0.4204000000000000 C
   0.1294666666666667    0.1546100000000000    0.3505500000000000 C
   0.2292100000000000    0.3470200000000000    0.3981200000000000 C
   0.1914300000000000    0.3317300000000000    0.4037150000000000 C
   0.1208500000000000    0.3089200000000000    0.4139650000000000 C
   0.1672800000000000    0.1693600000000000    0.3452650000000000 C
   0.2378800000000000    0.1920300000000000    0.3350600000000000 C
   0.1613333333333333    0.2450000000000000    0.3769750000000000 C
   0.1973966666666667    0.2559900000000000    0.3720450000000000 C
   0.2735800000000000    0.7406800000000000    0.3709800000000000 C
   0.0844100000000000    0.7608600000000000    0.3804650000000000 C
   0.2465866666666666    0.8411300000000000    0.3505350000000000 C
   0.1113766666666667    0.8019200000000000    0.3300100000000000 C
   0.2465100000000000    0.6996500000000000    0.4213400000000000 C
   0.1115033333333333    0.6599699999999999    0.4005400000000000 C
   0.1466033333333333    0.6719400000000000    0.4052900000000000 C
   0.2115866666666666    0.6902100000000000    0.4148750000000000 C
   0.1465433333333333    0.8107400000000000    0.3361650000000000 C
   0.2115833333333333    0.8288700000000000    0.3456700000000000 C
   0.1623800000000000    0.7460900000000000    0.3732000000000000 C
   0.1957933333333333    0.7547700000000001    0.3777700000000000 C
   0.2562066666666666    0.2452700000000000    0.6222300000000001 C
   0.4364733333333333    0.2521100000000000    0.6267500000000000 C
   0.2642533333333333    0.2024700000000000    0.6721000000000000 C
   0.4283366666666666    0.2949500000000000    0.5769450000000000 C
   0.4285233333333333    0.1526200000000000    0.6473050000000000 C
   0.2640166666666667    0.3449800000000000    0.6018500000000000 C
   0.3069266666666667    0.3300100000000000    0.5958500000000000 C
   0.3854400000000000    0.3068400000000000    0.5843650000000000 C
   0.3855666666666667    0.1677600000000000    0.6533650000000000 C
   0.3070633333333333    0.1909300000000000    0.6648450000000000 C
   0.3262966666666667    0.2545200000000000    0.6274100000000000 C
   0.3662000000000000    0.2432800000000000    0.6218300000000000 C
   0.2701033333333333    0.7576600000000000    0.6230350000000000 C
   0.0885600000000000    0.7396000000000000    0.6282700000000000 C
   0.2767066666666667    0.6577900000000000    0.6016650000000000 C
   0.0820200000000000    0.8399900000000000    0.6490800000000000 C
   0.2292000000000000    0.7977400000000000    0.6732100000000000 C
   0.1294300000000000    0.6989400000000000    0.5781150000000000 C
   0.1672366666666666    0.6892900000000000    0.5852400000000000 C
   0.2378466666666667    0.6703200000000000    0.5961650000000001 C
   0.1914233333333333    0.8081400000000000    0.6657500000000001 C
   0.1208600000000000    0.8275700000000000    0.6545900000000000 C
   0.1613133333333333    0.7534500000000000    0.6227750000000000 C
   0.1973733333333333    0.7441700000000000    0.6281250000000000 C
   0.0886866666666667    0.2546500000000000    0.8702750000000000 C
   0.2700800000000000    0.2471800000000000    0.8784000000000001 C
   0.2767533333333333    0.2033000000000000    0.8284899999999999 C
   0.0819733333333333    0.2978500000000000    0.9204000000000000 C
   0.1294666666666667    0.1546100000000000    0.8505499999999999 C
   0.2292100000000000    0.3470200000000000    0.8981200000000000 C
   0.1914300000000000    0.3317300000000000    0.9037150000000000 C
   0.1208500000000000    0.3089200000000000    0.9139650000000000 C
   0.1672800000000000    0.1693600000000000    0.8452649999999999 C
   0.2378800000000000    0.1920300000000000    0.8350600000000000 C
   0.1613333333333333    0.2450000000000000    0.8769750000000001 C
   0.1973966666666667    0.2559900000000000    0.8720450000000000 C
   0.9402466666666667    0.7406800000000000    0.8709800000000000 C
   0.7510766666666666    0.7608600000000000    0.8804650000000001 C
   0.9132533333333333    0.8411300000000000    0.8505350000000000 C
   0.7780433333333333    0.8019200000000000    0.8300100000000000 C
   0.9131766666666666    0.6996500000000000    0.9213400000000000 C
   0.7781699999999999    0.6599699999999999    0.9005400000000000 C
   0.8132699999999999    0.6719400000000000    0.9052899999999999 C
   0.8782533333333333    0.6902100000000000    0.9148750000000000 C