H6 O4
1.0
  14.0589723447047223    0.0000000000000000   -3.2065084766499208
  -1.6316453436159739   14.6994119244394419   -7.1629959896892217
   0.0000000000000000    0.0000000000000000   37.9819999999999993
H O
6 4
direct
   0.5456728419968484    0.2503478744904821    0.5872892992162874 H
   0.6312299816352487    0.3775936086764194    0.7077394622302169 H
   0.5813223541108403    0.3106386218085633    0.6487880524281537 H
   0.2793724179390079    0.9772598573121130    0.5889617778212186 H
   0.3718975513730940    1.0743797338189152    0.7089502035167015 H
   0.3319390623773699    1.0341912668850575    0.6508034185867320 H
   0.5895200000000000    0.2920200000000000    0.6124000000000001 O
   0.6372900000000000    0.3638300000000000    0.6808400000000000 O
   0.2825200000000000    0.9746899999999999    0.6142300000000001 O
   0.3358600000000000    1.0309900000000001    0.6822800000000000 O
