H5 O3
1.0
  18.6649949852268122    0.0000000000000000    0.0136821583798217
  -0.0325794021461510   16.5179556268652874  -10.4087778577249512
   0.0000000000000000    0.0000000000000000   19.4759999999999991
H O
5 3
direct
   0.7807388593634701    0.5866339334922696    0.0104015120850487 H
   0.8176852164701218    0.5484582286676759    0.0694237912049246 H
   0.7115483660795200    0.2559740586098365    0.0560925228726095 H
   0.6727967645864363    0.2351465411528902    0.7384824537370236 H
   0.7325067212656534    0.1958613796855979    0.7620768638874732 H
   0.7977300000000001    0.5811200000000000    0.0496200000000000 O
   0.7603500000000000    0.2495500000000000    0.0701300000000000 O
   0.7202200000000000    0.2101900000000000    0.7224400000000000 O
