H12 C9 N4 O3
1.0
  18.6649949852268122    0.0000000000000000    0.0136821583798217
  -0.0325794021461510   16.5179556268652874  -10.4087778577249512
   0.0000000000000000    0.0000000000000000   19.4759999999999991
H C N O
12 9 4 3
direct
   0.6261500000000000    0.2642900000000000    0.7097000000000000 H
   0.7195300000000000    0.1589100000000000    0.8957700000000000 H
   0.6257500000000000    0.1785000000000000    0.9063099999999999 H
   0.8020200000000000    0.2962200000000000    0.9734200000000000 H
   0.7875000000000000    0.1605200000000000    0.7764000000000000 H
   0.7973900000000000    0.5445800000000000    0.1335400000000000 H
   0.8833800000000001    0.5520200000000000    0.0983000000000000 H
   0.6440000000000000    0.3218400000000000    0.0031700000000000 H
   0.8428600000000001    0.4294400000000000    0.9566000000000000 H
   0.8661900000000000    0.4092100000000000    0.0313200000000000 H
   0.8320200000000000    0.5747600000000000    0.0049800000000000 H
   0.7489500000000000    0.5560400000000000    0.0237500000000000 H
   0.6548900000000000    0.2445700000000000    0.7445400000000000 C
   0.6782100000000000    0.2029100000000000    0.9041000000000000 C
   0.7376100000000000    0.1899100000000000    0.7785400000000000 C
   0.6824000000000000    0.2126900000000000    0.8333600000000000 C
   0.8280400000000000    0.5315100000000000    0.0797000000000000 C
   0.6959300000000000    0.2580300000000000    0.0516000000000000 C
   0.6904700000000000    0.2820700000000000    0.9880800000000000 C
   0.8265300000000000    0.4406200000000000    0.0161500000000000 C
   0.7525400000000000    0.4037700000000000    0.0088100000000000 C
   0.7977300000000001    0.5811200000000000    0.0496200000000000 N
   0.7533800000000000    0.3261500000000000    0.9889700000000000 N
   0.7202200000000000    0.2101900000000000    0.7224400000000000 N
   0.6297000000000000    0.2477800000000000    0.8113300000000000 N
   0.7603500000000000    0.2495500000000000    0.0701300000000000 O
   0.6397200000000000    0.2446100000000000    0.0775000000000000 O
   0.6968600000000000    0.4449500000000000    0.0226000000000000 O
