H6 O4
1.0
  15.9818866309929373    0.0000000000000000    9.1503199787815745
   5.3116501377556897   15.0850786945719459    9.1451463953646730
   0.0000000000000000    0.0000000000000000   36.8440000000000012
H O
6 4
direct
   0.4929726637360038    0.1135437650487882    0.6404636017039055 H
   0.2808533949201624    0.1132741742908218    0.7464404497538952 H
   0.3946864763949787    0.1056278676493548    0.6973463941531559 H
   0.5070366336635516    0.8864371044809536    0.8595349635931905 H
   0.7191404376497254    0.8867084049647801    0.7535641146531773 H
   0.6053048197219338    0.8943627271628071    0.8026530231397817 H
   0.4287100000000000    0.1333900000000000    0.6526750000000000 O
   0.3053100000000000    0.1332300000000000    0.7143300000000000 O
   0.5713000000000000    0.8665800000000000    0.8473300000000000 O
   0.6947000000000000    0.8667400000000000    0.7856750000000000 O
