H9 O6
1.0
  20.4508716396449337    0.0000000000000000    0.0724581173266220
  -2.8859097221531398   24.6484118731742967    0.1039529025192587
   0.0000000000000000    0.0000000000000000   31.6920000000000002
H O
9 6
direct
   0.8347576544921635    0.6938400077545532    0.6156246555785656 H
   1.0270157462812382    0.7105055445518451    0.6020808165252050 H
   0.9318482800807617    0.6983080532651424    0.6120279623113685 H
   0.1168373266787411    0.6204507015208098    0.6511897644729622 H
   0.0297198839097726    0.5242415884073518    0.7384132645612848 H
   0.0676468653025228    0.5752938380379937    0.6947347388442255 H
   0.8740525724508877    0.5357363037229174    0.7542162508348685 H
   0.7633415157697022    0.6032472282380741    0.6833481956418632 H
   0.8225806761422267    0.5808807710422538    0.7119935858422388 H
   0.8748400000000000    0.7103300000000000    0.6021100000000000 O
   0.9837000000000000    0.7196399999999999    0.5945450000000000 O
   0.1161200000000000    0.5898900000000000    0.6704350000000000 O
   0.0667100000000000    0.5353800000000000    0.7198700000000000 O
   0.8276000000000000    0.5302300000000000    0.7472900000000000 O
   0.7662200000000000    0.5742000000000000    0.7035899999999999 O
