H9 O6
1.0
  36.0619999121190915    0.0000000000000000   -0.0025176025373709
 -13.0936736727743952   33.6095313190074236   -0.0037772415602584
   0.0000000000000000    0.0000000000000000   39.0439999999999969
H O
9 6
direct
   0.9463231196148815    0.8018234401925630    0.3963168859077738 H
   0.8827175905223198    0.7065099519385475    0.3702020893180631 H
   0.8837910669998418    0.7547074914371488    0.3806362099456145 H
   0.7088873870634915    0.0984510228041596    0.1607691195509175 H
   0.6571911518296316    0.1276594466115458    0.1804533423420082 H
   0.6660877957103351    0.1524882297725329    0.1908364420868147 H
   0.2243104159254016    0.2830633764057575    0.0451073155393848 H
   0.1393020749665897    0.2039099559851046    0.0621960155851067 H
   0.1527190348150125    0.2407499927050754    0.0572158866510612 H
   0.9598450000000001    0.7831650000000000    0.3935200000000000 O
   0.9110400000000000    0.7171075000000000    0.3750000000000000 O
   0.7362075000000000    0.1155000000000000    0.1653500000000000 O
   0.6908675000000000    0.1486750000000000    0.1861000000000000 O
   0.2349675000000000    0.2619525000000000    0.0458750000000000 O
   0.1676300000000000    0.2112125000000000    0.0582900000000000 O
