H9 Cl3 O6
1.0
  36.0619999121190915    0.0000000000000000   -0.0025176025373709
 -13.0936736727743952   33.6095313190074236   -0.0037772415602584
   0.0000000000000000    0.0000000000000000   39.0439999999999969
H Cl O
9 3 6
direct
   0.0508569576334183    0.3522085837810019    0.0285372801704666 H
   0.0680900636533335    0.3742620618887059    0.0718707665068925 H
   0.0707772631355395    0.3765634230697628    0.1303402093397381 H
   0.3008569576334182    0.1022085837810020    0.5285372801704665 H
   0.3180900636533334    0.1242620618887059    0.5718707665068925 H
   0.3207772631355394    0.1265634230697627    0.6303402093397381 H
   0.4491169882865294    0.3978423701325678    0.4728364889895276 H
   0.4318872891818156    0.3757936537567392    0.4295047618948526 H
   0.4292103464871628    0.3734980085575925    0.3710346690281955 H
   0.0175000000000000    0.3175525000000000    0.1208150000000000 Cl
   0.2675000000000000    0.0675525000000000    0.6208150000000000 Cl
   0.4825000000000000    0.4325000000000000    0.3805650000000000 Cl
   0.0436100000000000    0.3420275000000000    0.0515500000000000 O
   0.0540500000000000    0.3545375000000000    0.1164550000000000 O
   0.2936100000000000    0.0920275000000000    0.5515500000000000 O
   0.3040500000000000    0.1045375000000000    0.6164550000000000 O
   0.4563700000000000    0.4080250000000000    0.4498250000000000 O
   0.4459400000000000    0.3955225000000000    0.3849200000000000 O
