P3 O15
1.0
  36.0619999121190915    0.0000000000000000   -0.0025176025373709
 -13.0936736727743952   33.6095313190074236   -0.0037772415602584
   0.0000000000000000    0.0000000000000000   39.0439999999999969
P O
3 15
direct
   0.0502925000000000    0.3732125000000000    0.0795500000000000 P
   0.4497050000000000    0.3768450000000000    0.4218250000000000 P
   0.3002925000000000    0.1232125000000000    0.5795500000000000 P
   0.0175000000000000    0.3175525000000000    0.1208150000000000 O
   0.0540500000000000    0.3545375000000000    0.1164550000000000 O
   0.0909400000000000    0.4063725000000000    0.0761950000000000 O
   0.0158500000000000    0.3884325000000000    0.0791700000000000 O
   0.0436100000000000    0.3420275000000000    0.0515500000000000 O
   0.4825000000000000    0.4325000000000000    0.3805650000000000 O
   0.4459400000000000    0.3955225000000000    0.3849200000000000 O
   0.4090700000000000    0.3436650000000000    0.4251800000000000 O
   0.4841700000000000    0.3616550000000000    0.4222050000000000 O
   0.4563700000000000    0.4080250000000000    0.4498250000000000 O
   0.2675000000000000    0.0675525000000000    0.6208150000000000 O
   0.3040500000000000    0.1045375000000000    0.6164550000000000 O
   0.3409400000000000    0.1563725000000000    0.5761950000000000 O
   0.2658500000000000    0.1384325000000000    0.5791700000000000 O
   0.2936100000000000    0.0920275000000000    0.5515500000000000 O
