P3 O12
1.0
  36.0619999121190915    0.0000000000000000   -0.0025176025373709
 -13.0936736727743952   33.6095313190074236   -0.0037772415602584
   0.0000000000000000    0.0000000000000000   39.0439999999999969
P O
3 12
direct
   0.2077400000000000    0.2178775000000000    0.0412350000000000 P
   0.7013725000000000    0.1283850000000000    0.1550050000000000 P
   0.9236100000000000    0.7466699999999999    0.4050100000000000 P
   0.1676300000000000    0.2112125000000000    0.0582900000000000 O
   0.2276625000000000    0.1904700000000000    0.0570350000000000 O
   0.2002050000000000    0.2076100000000000    0.0031150000000000 O
   0.7362075000000000    0.1155000000000000    0.1653500000000000 O
   0.7139525000000000    0.1579400000000000    0.1250000000000000 O
   0.6651100000000000    0.0919150000000000    0.1435100000000000 O
   0.6908675000000000    0.1486750000000000    0.1861000000000000 O
   0.2349675000000000    0.2619525000000000    0.0458750000000000 O
   0.9110400000000000    0.7171075000000000    0.3750000000000000 O
   0.9341475000000000    0.7263925000000000    0.4361000000000000 O
   0.8887550000000000    0.7595200000000000    0.4153600000000000 O
   0.9598450000000001    0.7831650000000000    0.3935200000000000 O
