Zn8 H56 C81 N12 O40
1.0
  15.3770006257444862    0.0000000000000000   -8.7151291875596257
 -10.1774077368776528   14.4322566502633478   -0.2031273941946776
   0.0000000000000000    0.0000000000000000   17.6840000000000011
Zn H C N O
8 56 81 12 40
direct
   0.1881600000000000    0.4365500000000000    0.4683600000000000 Zn
   0.9683700000000000    0.5312400000000000    0.2201900000000000 Zn
   0.3121400000000000    0.7803500000000000    0.2484300000000000 Zn
   0.5320300000000000    0.7520100000000000    0.5630200000000000 Zn
   0.8118700000000000    0.5634200000000000    0.5316200000000000 Zn
   0.0316600000000000    0.4687100000000000    0.7798000000000000 Zn
   0.6878900000000000    0.2196100000000000    0.7515600000000000 Zn
   0.4680000000000000    0.2479500000000000    0.4369000000000000 Zn
   0.5778400000000000    0.7914000000000000    0.0547500000000000 H
   0.6428300000000000    0.9139800000000000    0.0972100000000000 H
   0.4691400000000000    0.8252600000000000    0.0642200000000000 H
   0.6705500000000000    0.8467900000000000    0.3479900000000000 H
   0.5310200000000000    0.8243700000000000    0.3673800000000000 H
   0.3438600000000000    0.8077000000000000    0.0971800000000000 H
   0.9213500000000000    0.9767500000000000    0.2129300000000000 H
   0.8564200000000000    0.9541300000000000    0.2704400000000000 H
   0.0302000000000000    0.0947400000000000    0.3555100000000000 H
   0.8293400000000000    0.1780100000000000    0.1763700000000000 H
   0.9692800000000000    0.3369700000000000    0.2936800000000000 H
   0.1559200000000000    0.2530600000000000    0.4634000000000000 H
   0.7627100000000000    0.7851800000000000    0.2065600000000000 H
   0.6827200000000000    0.7275199999999999    0.0843400000000000 H
   0.7385900000000000    0.6429200000000000    0.1738500000000000 H
   0.0015000000000000    0.8230499999999999    0.1521000000000000 H
   0.0437500000000000    0.7062900000000000    0.1759100000000000 H
   0.7896700000000000    0.5355700000000000    0.1928300000000000 H
   0.7365300000000000    0.9440000000000000    0.0220600000000000 H
   0.8164900000000000    0.9016800000000000    0.0443300000000000 H
   0.7612500000000000    0.9354000000000000    0.9043000000000000 H
   0.4978200000000000    0.6505300000000001    0.8208299999999999 H
   0.4560800000000000    0.6321500000000000    0.6621500000000000 H
   0.7106900000000000    0.9033500000000000    0.7461900000000000 H
   0.5148200000000001    0.5015700000000000    0.3245600000000000 H
   0.6635400000000000    0.6682100000000000    0.4027100000000000 H
   0.3670700000000000    0.4380500000000000    0.3487200000000000 H
   0.1776900000000000    0.6759800000000000    0.6901000000000000 H
   0.2657300000000000    0.5977700000000000    0.7602700000000000 H
   0.0899700000000000    0.6516000000000000    0.5185400000000000 H
   0.9846100000000000    0.3093100000000000    0.9866900000000000 H
   0.8362300000000000    0.2388400000000000    0.0048600000000000 H
   0.1324900000000000    0.4813800000000000    0.0708000000000000 H
   0.3218600000000000    0.0123700000000000    0.4977900000000000 H
   0.2336500000000000    0.9942600000000000    0.3316100000000000 H
   0.4100600000000000    0.9287200000000000    0.5612600000000000 H
   0.0403893661216158    0.3271442496476986    0.8242544092128840 H
   0.1424999328817228    0.3962560068838143    0.8169032463612960 H
   0.9215972896605075    0.7470098050549222    0.6044816585393812 H
   0.9976502360593630    0.7138029678518049    0.6732251825280251 H
   0.5023462842254409    0.1756004565977123    0.7164865627129368 H
   0.5786106104933104    0.1828371329366933    0.8256088054145296 H
   0.3574609904878563    0.1742824121895234    0.2538001641591462 H
   0.4597699628128642    0.2838052856495853    0.2870532985140224 H
   0.4852300000000000    0.4984000000000000    0.6754300000000000 H
   0.3365000000000000    0.3317600000000000    0.5972000000000000 H
   0.6329700000000000    0.5619100000000000    0.6512700000000000 H
   0.8223400000000000    0.3239700000000000    0.3098300000000000 H
   0.7342900000000000    0.4021800000000000    0.2397200000000000 H
   0.9100600000000000    0.3483600000000000    0.4814500000000000 H
   0.0154300000000000    0.6906500000000000    0.0133000000000000 H
   0.1638000000000000    0.7611100000000000    0.9951300000000000 H
   0.8675400000000000    0.5185700000000000    0.9291000000000000 H
   0.5899600000000000    0.0712400000000000    0.4387300000000000 H
   0.7664000000000000    0.0057100000000000    0.6683800000000000 H
   0.6781900000000000    0.9875900000000000    0.5022000000000000 H
   0.6492800000000000    0.8563000000000000    0.1119300000000000 C
   0.5825900000000001    0.8392400000000000    0.2048300000000000 C
   0.4893500000000000    0.8279300000000001    0.1335500000000000 C
   0.5994000000000000    0.8389600000000000    0.2911000000000000 C
   0.5228900000000000    0.8272699999999999    0.3025400000000000 C
   0.4172000000000000    0.8172300000000000    0.1516800000000000 C
   0.8499600000000000    0.9625300000000000    0.2064100000000000 C
   0.0000000000000000    0.1440800000000000    0.3381700000000000 C
   0.9170000000000000    0.1223500000000000    0.2563900000000000 C
   0.9004600000000000    0.1920800000000000    0.2395800000000000 C
   0.9771900000000000    0.2800600000000000    0.3045100000000000 C
   0.0825900000000000    0.2344100000000000    0.3997600000000000 C
   0.7551700000000000    0.7918100000000000    0.1418200000000000 C
   0.8654600000000000    0.7424300000000000    0.1595600000000000 C
   0.8055000000000000    0.6605700000000000    0.1714000000000000 C
   0.9523600000000000    0.7597200000000000    0.1602100000000000 C
   0.9757800000000000    0.6951000000000001    0.1727100000000000 C
   0.8346500000000000    0.5993400000000000    0.1829000000000000 C
   0.7440300000000000    0.8866900000000000    0.0361100000000000 C
   0.6340600000000000    0.7941400000000000    0.8765700000000000 C
   0.6943200000000000    0.8660099999999999    0.8549500000000000 C
   0.5471900000000000    0.7078600000000000    0.8068700000000000 C
   0.5240600000000000    0.6969700000000000    0.7190299999999999 C
   0.6654600000000001    0.8483900000000000    0.7647500000000000 C
   0.7496000000000000    0.8743300000000001    0.1240000000000000 C
   0.6866600000000000    0.8003100000000000    0.5209000000000000 C
   0.3602700000000000    0.5446500000000000    0.4615500000000000 C
   0.5154300000000001    0.5462000000000000    0.3682400000000000 C
   0.5995600000000000    0.6400600000000000    0.4120700000000000 C
   0.4341000000000000    0.5107200000000000    0.3813900000000000 C
   0.6006400000000000    0.6965700000000000    0.4689900000000000 C
   0.4401500000000000    0.5712000000000000    0.4390400000000000 C
   0.2788400000000000    0.4790300000000000    0.6648500000000001 C
   0.0830800000000000    0.5382900000000000    0.3987100000000000 C
   0.1783700000000000    0.6321300000000000    0.6470000000000000 C
   0.2281900000000000    0.5882900000000000    0.6870500000000000 C
   0.1297700000000000    0.6188900000000001    0.5527000000000000 C
   0.1322000000000000    0.5609700000000000    0.5009700000000000 C
   0.2273800000000000    0.5310900000000000    0.6311000000000000 C
   0.8135599999999999    0.3342800000000000    0.1139700000000000 C
   0.1398000000000000    0.6013200000000000    0.1844800000000000 C
   0.9842200000000000    0.3525100000000000    0.0307800000000000 C
   0.9002700000000000    0.3122500000000000    0.0406600000000000 C
   0.0656000000000000    0.4470600000000000    0.0766300000000000 C
   0.0597800000000000    0.4988000000000000    0.1311400000000000 C
   0.8993900000000000    0.3682300000000000    0.0961400000000000 C
   0.2209600000000000    0.8859100000000000    0.2000400000000000 C
   0.4173500000000000    0.8159200000000000    0.4551000000000000 C
   0.3213400000000000    0.9685700000000000    0.4533600000000000 C
   0.2714400000000000    0.9587200000000000    0.3597500000000000 C
   0.3702100000000000    0.9230200000000000    0.4887900000000000 C
   0.3679900000000000    0.8689500000000000    0.4285600000000000 C
   0.2724900000000000    0.9037100000000000    0.3034900000000000 C
   0.3133700000000000    0.1996500000000000    0.4790200000000000 C
   0.6397699999999999    0.4553100000000000    0.5384500000000000 C
   0.4846100000000000    0.4537700000000000    0.6317000000000000 C
   0.4004900000000000    0.3599000000000000    0.5879300000000000 C
   0.5659400000000000    0.4892500000000000    0.6186199999999999 C
   0.5598800000000000    0.4287700000000000    0.5609499999999999 C
   0.3993900000000000    0.3034000000000000    0.5310000000000000 C
   0.7212000000000000    0.5209300000000000    0.3351300000000000 C
   0.9169600000000000    0.4616800000000000    0.6012800000000000 C
   0.8216500000000000    0.3678200000000000    0.3529900000000000 C
   0.7718500000000000    0.4116800000000000    0.3129400000000000 C
   0.8702800000000001    0.3810800000000000    0.4473000000000000 C
   0.8678200000000000    0.4389900000000000    0.4990200000000000 C
   0.7726499999999999    0.4688700000000000    0.3688800000000000 C
   0.1864700000000000    0.6656800000000000    0.8860100000000000 C
   0.8602400000000000    0.3986300000000000    0.8155100000000000 C
   0.0158200000000000    0.6474500000000000    0.9692200000000000 C
   0.0997500000000000    0.6877100000000000    0.9593300000000000 C
   0.9344300000000000    0.5528900000000000    0.9233600000000000 C
   0.9402600000000000    0.5011500000000000    0.8688600000000000 C
   0.1006300000000000    0.6317300000000000    0.9038400000000000 C
   0.7790800000000000    0.1140500000000000    0.7999400000000000 C
   0.5826600000000000    0.1840100000000000    0.5448000000000000 C
   0.6298000000000000    0.0769200000000000    0.5111900000000000 C
   0.7275600000000000    0.0962600000000000    0.6965000000000000 C
   0.6320400000000000    0.1310000000000000    0.5714000000000000 C
   0.7285900000000000    0.0412300000000000    0.6402000000000000 C
   0.6787100000000000    0.0314000000000000    0.5466299999999999 C
   0.4325600000000000    0.8168400000000000    0.2343200000000000 N
   0.0674800000000000    0.3019500000000000    0.3842800000000000 N
   0.9179700000000000    0.6152300000000001    0.1835800000000000 N
   0.5821400000000000    0.7657300000000000    0.6972300000000000 N
   0.5220700000000000    0.6610000000000000    0.4810000000000000 N
   0.1796700000000000    0.5188500000000000    0.5406000000000000 N
   0.9780400000000000    0.4589700000000000    0.1391300000000000 N
   0.3204800000000000    0.8610700000000000    0.3390300000000000 N
   0.4779600000000000    0.3389600000000000    0.5189200000000000 N
   0.8203500000000000    0.4811100000000000    0.4593900000000000 N
   0.0219900000000000    0.5409900000000000    0.8608500000000000 N
   0.6795700000000000    0.1389000000000000    0.6609600000000000 N
   0.6598600000000000    0.8501300000000001    0.1973000000000000 O
   0.8395200000000000    0.0375300000000000    0.1899000000000000 O
   0.8467100000000000    0.8085900000000000    0.1478200000000000 O
   0.6524900000000000    0.8011400000000000    0.9612800000000000 O
   0.7608800000000000    0.8382300000000000    0.5111599999999999 O
   0.6727600000000000    0.8397200000000000    0.5702700000000001 O
   0.3756100000000000    0.6078300000000000    0.5133200000000000 O
   0.2829000000000000    0.4589600000000000    0.4274300000000000 O
   0.3266600000000000    0.4890200000000000    0.7487400000000000 O
   0.2686100000000000    0.4294800000000000    0.6016000000000000 O
   0.0942300000000000    0.4863600000000000    0.3621700000000000 O
   0.0317200000000000    0.5724100000000000    0.3556800000000000 O
   0.7392500000000000    0.2501800000000000    0.0776100000000000 O
   0.8276900000000000    0.3975800000000000    0.1674000000000000 O
   0.1245400000000000    0.6379100000000000    0.2322300000000000 O
   0.2171600000000000    0.6444800000000001    0.1762300000000000 O
   0.1727700000000000    0.9217300000000000    0.1621300000000000 O
   0.2315100000000000    0.8330800000000000    0.1608500000000000 O
   0.4064300000000000    0.7683400000000000    0.3921400000000000 O
   0.4686200000000000    0.8242200000000000    0.5405200000000000 O
   0.0820700000000000    0.3847300000000000    0.8164100000000000 O
   0.9325500000000000    0.6980200000000000    0.6157100000000000 O
   0.5674700000000000    0.1831200000000000    0.7656700000000000 O
   0.4178900000000000    0.2342400000000000    0.3027700000000000 O
   0.2391600000000000    0.1617400000000000    0.4888300000000000 O
   0.3272700000000000    0.1602500000000000    0.4297300000000000 O
   0.6244300000000000    0.3921300000000000    0.4866800000000000 O
   0.7171300000000000    0.5410000000000000    0.5725500000000000 O
   0.6733600000000000    0.5109300000000000    0.2512400000000000 O
   0.7314200000000000    0.5704800000000000    0.3983000000000000 O
   0.9058100000000000    0.5136100000000000    0.6378200000000001 O
   0.9683100000000000    0.4275500000000000    0.6443100000000000 O
   0.2607900000000000    0.7497700000000000    0.9223800000000000 O
   0.1723500000000000    0.6023700000000000    0.8326100000000000 O
   0.8754900000000000    0.3620400000000000    0.7677500000000000 O
   0.7828600000000000    0.3554800000000000    0.8237500000000000 O
   0.8272699999999999    0.0782300000000000    0.8378000000000000 O
   0.7685200000000000    0.1668800000000000    0.8391000000000000 O
   0.5935900000000000    0.2316000000000000    0.6078400000000000 O
   0.5314100000000000    0.1757300000000000    0.4594700000000000 O
