H8 O4
1.0
  15.3770006257444862    0.0000000000000000   -8.7151291875596257
 -10.1774077368776528   14.4322566502633478   -0.2031273941946776
   0.0000000000000000    0.0000000000000000   17.6840000000000011
H O
8 4
direct
   0.5023462842254409    0.1756004565977123    0.7164865627129368 H
   0.5786106104933104    0.1828371329366933    0.8256088054145296 H
   0.3574609904878563    0.1742824121895234    0.2538001641591462 H
   0.4597699628128642    0.2838052856495853    0.2870532985140224 H
   0.9215972896605075    0.7470098050549222    0.6044816585393812 H
   0.9976502360593630    0.7138029678518049    0.6732251825280251 H
   0.0403893661216158    0.3271442496476986    0.8242544092128840 H
   0.1424999328817228    0.3962560068838143    0.8169032463612960 H
   0.5674700000000000    0.1831200000000000    0.7656700000000000 O
   0.4178900000000000    0.2342400000000000    0.3027700000000000 O
   0.9325500000000000    0.6980200000000000    0.6157100000000000 O
   0.0820700000000000    0.3847300000000000    0.8164100000000000 O
