H6 O4
1.0
  15.3770006257444862    0.0000000000000000   -8.7151291875596257
 -10.1774077368776528   14.4322566502633478   -0.2031273941946776
   0.0000000000000000    0.0000000000000000   17.6840000000000011
H O
6 4
direct
   0.2763547521760079    0.4669924604419541    0.6494842204430595 H
   1.0391794028526764    0.6001804031544637    0.3817245747683644 H
   1.0120395303728178    0.6131005483920615    0.3626707182618085 H
   0.1066231262096714    0.5324980244483299    0.4054407159750398 H
   0.1450402061005602    0.5495769205612893    0.5116895569362798 H
   0.2144727005133170    0.5277786324519598    0.6066164409233954 H
   0.2686100000000000    0.4294800000000000    0.6016000000000000 O
   1.0317200000000000    0.5724100000000000    0.3556800000000000 O
   0.0942300000000000    0.4863600000000000    0.3621700000000000 O
   0.1796700000000000    0.5188500000000000    0.5406000000000000 O
