H24 C25 N4 O4
1.0
  15.3770006257444862    0.0000000000000000   -8.7151291875596257
 -10.1774077368776528   14.4322566502633478   -0.2031273941946776
   0.0000000000000000    0.0000000000000000   17.6840000000000011
H C N O
24 25 4 4
direct
   0.2103500000000000    0.4643800000000000    0.8071500000000000 H
   0.2614400000000000    0.3570300000000000    0.8261500000000001 H
   0.9985400000000000    0.1769200000000000    0.8479100000000001 H
   0.9562800000000000    0.2936700000000000    0.8240900000000000 H
   0.3173200000000000    0.2724400000000000    0.9156600000000000 H
   0.2373200000000000    0.2147800000000000    0.7934400000000000 H
   0.2893500000000000    0.0966200000000000    0.2538100000000000 H
   0.2387900000000000    0.0645600000000000    0.0957000000000000 H
   0.5022100000000000    0.3494300000000000    0.1791000000000000 H
   0.5439500000000000    0.3678100000000000    0.3378500000000000 H
   0.1835600000000000    0.0982700000000000    0.9556700000000000 H
   0.2635100000000000    0.0559600000000000    0.9779400000000000 H
   0.6561700000000000    0.1922500000000000    0.9028100000000000 H
   0.5309000000000000    0.1747100000000000    0.9357799999999999 H
   0.3294900000000000    0.1531900000000000    0.6520100000000000 H
   0.4690100000000000    0.1755900000000000    0.6326200000000000 H
   0.3572000000000000    0.0859900000000000    0.9027700000000000 H
   0.4222000000000000    0.2085600000000000    0.9452600000000000 H
   0.8441100000000000    0.7469100000000000    0.5365300000000000 H
   0.9698500000000000    0.9052300000000000    0.6444900000000000 H
   0.1706900000000000    0.8219400000000000    0.8236200000000000 H
   0.0307500000000000    0.6629900000000000    0.7063000000000000 H
   0.1436100000000000    0.0458400000000000    0.7295600000000000 H
   0.0786900000000000    0.0232100000000000    0.7870700000000000 H
   0.1653800000000000    0.4006200000000000    0.8170900000000000 C
   0.1945400000000000    0.3393900000000000    0.8286000000000000 C
   0.1345800000000000    0.2575300000000000    0.8404500000000000 C
   0.0476800000000000    0.2402400000000000    0.8398000000000000 C
   0.0242600000000000    0.3048600000000000    0.8272900000000000 C
   0.2448700000000000    0.2081500000000000    0.8581800000000001 C
   0.3345700000000000    0.1515700000000000    0.2352500000000000 C
   0.3057200000000000    0.1339600000000000    0.1450500000000000 C
   0.3659800000000000    0.2058200000000000    0.1234300000000000 C
   0.4528500000000000    0.2921100000000000    0.1931300000000000 C
   0.4759800000000000    0.3029900000000000    0.2809700000000000 C
   0.2560100000000000    0.1132600000000000    0.9638900000000000 C
   0.5828300000000000    0.1827300000000000    0.8483100000000000 C
   0.5106800000000000    0.1720400000000000    0.8664500000000001 C
   0.4174500000000000    0.1607400000000000    0.7951700000000000 C
   0.4006400000000000    0.1610100000000000    0.7089000000000000 C
   0.4771400000000000    0.1726900000000000    0.6974500000000000 C
   0.3507600000000000    0.1436700000000000    0.8880700000000000 C
   0.9174500000000000    0.7655600000000000    0.6002300000000000 C
   0.9898200000000000    0.8558900000000000    0.6618300000000000 C
   0.0830400000000000    0.8776100000000000    0.7436100000000000 C
   0.0995800000000000    0.8078800000000000    0.7604100000000000 C
   0.0228400000000000    0.7199100000000000    0.6954800000000000 C
   0.1500800000000000    0.0374300000000000    0.7930000000000000 C
   0.2504400000000000    0.1256300000000000    0.8759500000000000 C
   0.0820700000000000    0.3847300000000000    0.8164100000000000 N
   0.4178900000000000    0.2342400000000000    0.3027700000000000 N
   0.5674700000000000    0.1831200000000000    0.7656700000000000 N
   0.9325500000000000    0.6980200000000000    0.6157100000000000 N
   0.1533400000000000    0.1913700000000000    0.8521900000000000 O
   0.3475500000000000    0.1988200000000000    0.0387200000000000 O
   0.3401900000000000    0.1498600000000000    0.8027100000000000 O
   0.1605200000000000    0.9624400000000000    0.8101000000000000 O
