Cd60 H282 C585 O240
1.0
  38.4385174055875609    0.0000000000000000    3.5813970263491246
   4.0813769165706448   18.4282775963432890    7.5692696673454707
   0.0000000000000000    0.0000000000000000   26.9259999999999984
Cd H C O
60 282 585 240
direct
   0.5999960000000000    0.2499850000000000    0.0000200000000000 Cd
   0.6709140000000001    0.5796200000000000    0.5234100000000000 Cd
   0.1999960000000000    0.7499850000000000    0.0000200000000000 Cd
   0.2709140000000000    0.0796200000000000    0.5234100000000000 Cd
   0.1290840000000000    0.4203200000000000    0.4766300000000000 Cd
   0.9999960000000001    0.2499850000000000    0.0000200000000000 Cd
   0.0709140000000000    0.5796200000000000    0.5234100000000000 Cd
   0.9290840000000000    0.9203200000000000    0.4766300000000000 Cd
   0.7999960000000002    0.7499850000000000    0.0000200000000000 Cd
   0.8709140000000001    0.0796200000000000    0.5234100000000000 Cd
   0.7290840000000001    0.4203200000000000    0.4766300000000000 Cd
   0.1999960000000000    0.2499850000000000    0.0000200000000000 Cd
   0.2709140000000000    0.5796200000000000    0.5234100000000000 Cd
   0.1290840000000000    0.9203200000000000    0.4766300000000000 Cd
   0.3999960000000000    0.7499850000000000    0.0000200000000000 Cd
   0.4709140000000001    0.0796200000000000    0.5234100000000000 Cd
   0.3290840000000000    0.4203200000000000    0.4766300000000000 Cd
   0.3999960000000000    0.2499850000000000    0.5000200000000000 Cd
   0.4709140000000001    0.5796200000000000    0.0234100000000000 Cd
   0.5290840000000000    0.9203200000000000    0.4766300000000000 Cd
   0.3290840000000000    0.9203200000000000    0.9766300000000000 Cd
   0.3999960000000000    0.2499850000000000    0.0000200000000000 Cd
   0.4709140000000001    0.5796200000000000    0.5234100000000000 Cd
   0.3290840000000000    0.9203200000000000    0.4766300000000000 Cd
   0.5999960000000000    0.7499850000000000    0.0000200000000000 Cd
   0.6709140000000001    0.0796200000000000    0.5234100000000000 Cd
   0.5290840000000000    0.4203200000000000    0.4766300000000000 Cd
   0.9999960000000001    0.7499850000000000    0.0000200000000000 Cd
   0.0709140000000000    0.0796200000000000    0.5234100000000000 Cd
   0.9290840000000000    0.4203200000000000    0.4766300000000000 Cd
   0.7999960000000002    0.2499850000000000    0.0000200000000000 Cd
   0.8709140000000001    0.5796200000000000    0.5234100000000000 Cd
   0.7290840000000001    0.9203200000000000    0.4766300000000000 Cd
   0.1999960000000000    0.7499850000000000    0.5000200000000000 Cd
   0.2709140000000000    0.0796200000000000    0.0234100000000000 Cd
   0.1290840000000000    0.4203200000000000    0.9766300000000000 Cd
   0.9999960000000001    0.2499850000000000    0.5000200000000000 Cd
   0.0709140000000000    0.5796200000000000    0.0234100000000000 Cd
   0.9290840000000000    0.9203200000000000    0.9766300000000000 Cd
   0.7999960000000002    0.7499850000000000    0.5000200000000000 Cd
   0.8709140000000001    0.0796200000000000    0.0234100000000000 Cd
   0.7290840000000001    0.4203200000000000    0.9766300000000000 Cd
   0.5999960000000000    0.7499850000000000    0.5000200000000000 Cd
   0.6709140000000001    0.0796200000000000    0.0234100000000000 Cd
   0.5290840000000000    0.4203200000000000    0.9766300000000000 Cd
   0.9999960000000001    0.7499850000000000    0.5000200000000000 Cd
   0.0709140000000000    0.0796200000000000    0.0234100000000000 Cd
   0.9290840000000000    0.4203200000000000    0.9766300000000000 Cd
   0.7999960000000002    0.2499850000000000    0.5000200000000000 Cd
   0.8709140000000001    0.5796200000000000    0.0234100000000000 Cd
   0.7290840000000001    0.9203200000000000    0.9766300000000000 Cd
   0.1999960000000000    0.2499850000000000    0.5000200000000000 Cd
   0.2709140000000000    0.5796200000000000    0.0234100000000000 Cd
   0.1290840000000000    0.9203200000000000    0.9766300000000000 Cd
   0.3999960000000000    0.7499850000000000    0.5000200000000000 Cd
   0.4709140000000001    0.0796200000000000    0.0234100000000000 Cd
   0.3290840000000000    0.4203200000000000    0.9766300000000000 Cd
   0.5999960000000000    0.2499850000000000    0.5000200000000000 Cd
   0.6709140000000001    0.5796200000000000    0.0234100000000000 Cd
   0.5290840000000000    0.9203200000000000    0.9766300000000000 Cd
   0.5500806412777524    0.3925647736588581    0.0826726642546983 H
   0.5670121936608106    0.3193144080791745    0.1450776153554177 H
   0.6626460000000001    0.1548550000000000    0.6823100000000000 H
   0.6559060000000001    0.3780950000000000    0.6634550000000000 H
   0.6691020000000001    0.3161950000000000    0.5260200000000000 H
   0.6134640000000001    0.3262350000000000    0.8281950000000000 H
   0.6224200000000001    0.3539150000000000    0.7310550000000000 H
   0.6685620000000001    0.1053400000000000    0.8600400000000000 H
   0.6801860000000001    0.1333550000000000    0.7631650000000000 H
   0.5873598337634552    0.2261030206802835    0.1169300051326118 H
   0.2626460000000000    0.6548550000000000    0.6823100000000000 H
   0.2559060000000000    0.8780950000000001    0.6634550000000000 H
   0.2691020000000000    0.8161950000000000    0.5260200000000000 H
   0.2134640000000000    0.8262350000000001    0.8281950000000000 H
   0.2224200000000000    0.8539150000000000    0.7310550000000000 H
   0.2685620000000000    0.6053400000000000    0.8600400000000000 H
   0.2801860000000000    0.6333550000000000    0.7631650000000000 H
   0.1373480000000000    0.8450949999999999    0.3177200000000000 H
   0.1440760000000000    0.6218550000000000    0.3365800000000000 H
   0.1308780000000000    0.6837700000000000    0.4740100000000000 H
   0.1865280000000000    0.6737100000000000    0.1718350000000000 H
   0.1775660000000000    0.6460250000000000    0.2689750000000000 H
   0.1314320000000000    0.8946050000000000    0.1399900000000000 H
   0.1198040000000000    0.8665900000000000    0.2368650000000000 H
   0.0626460000000000    0.1548550000000000    0.6823100000000000 H
   0.0559060000000000    0.3780950000000000    0.6634550000000000 H
   0.0691020000000000    0.3161950000000000    0.5260200000000000 H
   0.0134640000000000    0.3262350000000000    0.8281950000000000 H
   0.0224200000000000    0.3539150000000000    0.7310550000000000 H
   0.0685620000000000    0.1053400000000000    0.8600400000000000 H
   0.0801860000000000    0.1333550000000000    0.7631650000000000 H
   0.9373480000000001    0.3450950000000000    0.3177200000000000 H
   0.9440760000000000    0.1218550000000000    0.3365800000000000 H
   0.9308780000000001    0.1837700000000000    0.4740100000000000 H
   0.9865280000000001    0.1737100000000000    0.1718350000000000 H
   0.9775660000000000    0.1460250000000000    0.2689750000000000 H
   0.9314320000000000    0.3946050000000000    0.1399900000000000 H
   0.9198040000000001    0.3665900000000000    0.2368650000000000 H
   0.8626460000000000    0.6548550000000000    0.6823100000000000 H
   0.8559060000000001    0.8780950000000001    0.6634550000000000 H
   0.8691020000000000    0.8161950000000000    0.5260200000000000 H
   0.8134640000000001    0.8262350000000001    0.8281950000000000 H
   0.8224200000000000    0.8539150000000000    0.7310550000000000 H
   0.8685620000000001    0.6053400000000000    0.8600400000000000 H
   0.8801860000000000    0.6333550000000000    0.7631650000000000 H
   0.7373480000000001    0.8450949999999999    0.3177200000000000 H
   0.7440760000000001    0.6218550000000000    0.3365800000000000 H
   0.7308780000000001    0.6837700000000000    0.4740100000000000 H
   0.7865280000000001    0.6737100000000000    0.1718350000000000 H
   0.7775660000000001    0.6460250000000000    0.2689750000000000 H
   0.7314320000000001    0.8946050000000000    0.1399900000000000 H
   0.7198040000000001    0.8665900000000000    0.2368650000000000 H
   0.2626460000000000    0.1548550000000000    0.6823100000000000 H
   0.2559060000000000    0.3780950000000000    0.6634550000000000 H
   0.2691020000000000    0.3161950000000000    0.5260200000000000 H
   0.2134640000000000    0.3262350000000000    0.8281950000000000 H
   0.2224200000000000    0.3539150000000000    0.7310550000000000 H
   0.2685620000000000    0.1053400000000000    0.8600400000000000 H
   0.2801860000000000    0.1333550000000000    0.7631650000000000 H
   0.1373480000000000    0.3450950000000000    0.3177200000000000 H
   0.1440760000000000    0.1218550000000000    0.3365800000000000 H
   0.1308780000000000    0.1837700000000000    0.4740100000000000 H
   0.1865280000000000    0.1737100000000000    0.1718350000000000 H
   0.1775660000000000    0.1460250000000000    0.2689750000000000 H
   0.1314320000000000    0.3946050000000000    0.1399900000000000 H
   0.1198040000000000    0.3665900000000000    0.2368650000000000 H
   0.4626460000000000    0.6548550000000000    0.6823100000000000 H
   0.4559060000000000    0.8780950000000001    0.6634550000000000 H
   0.4691020000000000    0.8161950000000000    0.5260200000000000 H
   0.4134640000000000    0.8262350000000001    0.8281950000000000 H
   0.4224200000000000    0.8539150000000000    0.7310550000000000 H
   0.4685620000000000    0.6053400000000000    0.8600400000000000 H
   0.4801860000000000    0.6333550000000000    0.7631650000000000 H
   0.3373480000000000    0.8450949999999999    0.3177200000000000 H
   0.3440760000000000    0.6218550000000000    0.3365800000000000 H
   0.3308780000000000    0.6837700000000000    0.4740100000000000 H
   0.3865280000000000    0.6737100000000000    0.1718350000000000 H
   0.3775660000000000    0.6460250000000000    0.2689750000000000 H
   0.3314320000000000    0.8946050000000000    0.1399900000000000 H
   0.3198040000000000    0.8665900000000000    0.2368650000000000 H
   0.5161933527226047    0.0995892022812482    0.4645442084967632 H
   0.5413357845264212    0.0472573778635065    0.3818705593273590 H
   0.5163288850348526    0.1508062942880139    0.3459040742536152 H
   0.4626460000000000    0.1548550000000000    0.1823100000000000 H
   0.4559060000000000    0.3780950000000000    0.1634550000000000 H
   0.4691020000000000    0.3161950000000000    0.0260200000000000 H
   0.4134640000000000    0.3262350000000000    0.3281950000000000 H
   0.4224200000000000    0.3539150000000000    0.2310550000000000 H
   0.4685620000000000    0.1053400000000000    0.3600400000000000 H
   0.4801860000000000    0.1333550000000000    0.2631650000000000 H
   0.3373480000000000    0.3450950000000000    0.8177200000000000 H
   0.3440760000000000    0.1218550000000000    0.8365800000000000 H
   0.3308780000000000    0.1837700000000000    0.9740100000000000 H
   0.3865280000000000    0.1737100000000000    0.6718350000000000 H
   0.3775660000000000    0.1460250000000000    0.7689750000000000 H
   0.3314320000000000    0.3946050000000000    0.6399900000000001 H
   0.3198040000000000    0.3665900000000000    0.7368650000000000 H
   0.4626460000000000    0.1548550000000000    0.6823100000000000 H
   0.4559060000000000    0.3780950000000000    0.6634550000000000 H
   0.4691020000000000    0.3161950000000000    0.5260200000000000 H
   0.4134640000000000    0.3262350000000000    0.8281950000000000 H
   0.4224200000000000    0.3539150000000000    0.7310550000000000 H
   0.4685620000000000    0.1053400000000000    0.8600400000000000 H
   0.4801860000000000    0.1333550000000000    0.7631650000000000 H
   0.3373480000000000    0.3450950000000000    0.3177200000000000 H
   0.3440760000000000    0.1218550000000000    0.3365800000000000 H
   0.3308780000000000    0.1837700000000000    0.4740100000000000 H
   0.3865280000000000    0.1737100000000000    0.1718350000000000 H
   0.3775660000000000    0.1460250000000000    0.2689750000000000 H
   0.3314320000000000    0.3946050000000000    0.1399900000000000 H
   0.3198040000000000    0.3665900000000000    0.2368650000000000 H
   0.6626460000000001    0.6548550000000000    0.6823100000000000 H
   0.6559060000000001    0.8780950000000001    0.6634550000000000 H
   0.6691020000000001    0.8161950000000000    0.5260200000000000 H
   0.6134640000000001    0.8262350000000001    0.8281950000000000 H
   0.6224200000000001    0.8539150000000000    0.7310550000000000 H
   0.6685620000000001    0.6053400000000000    0.8600400000000000 H
   0.6801860000000001    0.6333550000000000    0.7631650000000000 H
   0.5373480000000000    0.8450949999999999    0.3177200000000000 H
   0.5440760000000000    0.6218550000000000    0.3365800000000000 H
   0.5308780000000001    0.6837700000000000    0.4740100000000000 H
   0.5865280000000000    0.6737100000000000    0.1718350000000000 H
   0.5775660000000000    0.6460250000000000    0.2689750000000000 H
   0.5314320000000000    0.8946050000000000    0.1399900000000000 H
   0.5198040000000000    0.8665900000000000    0.2368650000000000 H
   0.0626460000000000    0.6548550000000000    0.6823100000000000 H
   0.0559060000000000    0.8780950000000001    0.6634550000000000 H
   0.0691020000000000    0.8161950000000000    0.5260200000000000 H
   0.0134640000000000    0.8262350000000001    0.8281950000000000 H
   0.0224200000000000    0.8539150000000000    0.7310550000000000 H
   0.0685620000000000    0.6053400000000000    0.8600400000000000 H
   0.0801860000000000    0.6333550000000000    0.7631650000000000 H
   0.9373480000000001    0.8450949999999999    0.3177200000000000 H
   0.9440760000000000    0.6218550000000000    0.3365800000000000 H
   0.9308780000000001    0.6837700000000000    0.4740100000000000 H
   0.9865280000000001    0.6737100000000000    0.1718350000000000 H
   0.9775660000000000    0.6460250000000000    0.2689750000000000 H
   0.9314320000000000    0.8946050000000000    0.1399900000000000 H
   0.9198040000000001    0.8665900000000000    0.2368650000000000 H
   0.8626460000000000    0.1548550000000000    0.6823100000000000 H
   0.8559060000000001    0.3780950000000000    0.6634550000000000 H
   0.8691020000000000    0.3161950000000000    0.5260200000000000 H
   0.8134640000000001    0.3262350000000000    0.8281950000000000 H
   0.8224200000000000    0.3539150000000000    0.7310550000000000 H
   0.8685620000000001    0.1053400000000000    0.8600400000000000 H
   0.8801860000000000    0.1333550000000000    0.7631650000000000 H
   0.7373480000000001    0.3450950000000000    0.3177200000000000 H
   0.7440760000000001    0.1218550000000000    0.3365800000000000 H
   0.7308780000000001    0.1837700000000000    0.4740100000000000 H
   0.7865280000000001    0.1737100000000000    0.1718350000000000 H
   0.7775660000000001    0.1460250000000000    0.2689750000000000 H
   0.7314320000000001    0.3946050000000000    0.1399900000000000 H
   0.7198040000000001    0.3665900000000000    0.2368650000000000 H
   0.2626460000000000    0.6548550000000000    0.1823100000000000 H
   0.2559060000000000    0.8780950000000001    0.1634550000000000 H
   0.2691020000000000    0.8161950000000000    0.0260200000000000 H
   0.2134640000000000    0.8262350000000001    0.3281950000000000 H
   0.2224200000000000    0.8539150000000000    0.2310550000000000 H
   0.2685620000000000    0.6053400000000000    0.3600400000000000 H
   0.2801860000000000    0.6333550000000000    0.2631650000000000 H
   0.1373480000000000    0.8450949999999999    0.8177200000000000 H
   0.1440760000000000    0.6218550000000000    0.8365800000000000 H
   0.1308780000000000    0.6837700000000000    0.9740100000000000 H
   0.1865280000000000    0.6737100000000000    0.6718350000000000 H
   0.1775660000000000    0.6460250000000000    0.7689750000000000 H
   0.1314320000000000    0.8946050000000000    0.6399900000000001 H
   0.1198040000000000    0.8665900000000000    0.7368650000000000 H
   0.0626460000000000    0.1548550000000000    0.1823100000000000 H
   0.0559060000000000    0.3780950000000000    0.1634550000000000 H
   0.0691020000000000    0.3161950000000000    0.0260200000000000 H
   0.0134640000000000    0.3262350000000000    0.3281950000000000 H
   0.0224200000000000    0.3539150000000000    0.2310550000000000 H
   0.0685620000000000    0.1053400000000000    0.3600400000000000 H
   0.0801860000000000    0.1333550000000000    0.2631650000000000 H
   0.9373480000000001    0.3450950000000000    0.8177200000000000 H
   0.9440760000000000    0.1218550000000000    0.8365800000000000 H
   0.9308780000000001    0.1837700000000000    0.9740100000000000 H
   0.9865280000000001    0.1737100000000000    0.6718350000000000 H
   0.9775660000000000    0.1460250000000000    0.7689750000000000 H
   0.9314320000000000    0.3946050000000000    0.6399900000000001 H
   0.9198040000000001    0.3665900000000000    0.7368650000000000 H
   0.8626460000000000    0.6548550000000000    0.1823100000000000 H
   0.8559060000000001    0.8780950000000001    0.1634550000000000 H
   0.8691020000000000    0.8161950000000000    0.0260200000000000 H
   0.8134640000000001    0.8262350000000001    0.3281950000000000 H
   0.8224200000000000    0.8539150000000000    0.2310550000000000 H
   0.8685620000000001    0.6053400000000000    0.3600400000000000 H
   0.8801860000000000    0.6333550000000000    0.2631650000000000 H
   0.7373480000000001    0.8450949999999999    0.8177200000000000 H
   0.7440760000000001    0.6218550000000000    0.8365800000000000 H
   0.7308780000000001    0.6837700000000000    0.9740100000000000 H
   0.7865280000000001    0.6737100000000000    0.6718350000000000 H
   0.7775660000000001    0.6460250000000000    0.7689750000000000 H
   0.7314320000000001    0.8946050000000000    0.6399900000000001 H
   0.7198040000000001    0.8665900000000000    0.7368650000000000 H
   0.6626460000000001    0.6548550000000000    0.1823100000000000 H
   0.6559060000000001    0.8780950000000001    0.1634550000000000 H
   0.6691020000000001    0.8161950000000000    0.0260200000000000 H
   0.6134640000000001    0.8262350000000001    0.3281950000000000 H
   0.6224200000000001    0.8539150000000000    0.2310550000000000 H
   0.6685620000000001    0.6053400000000000    0.3600400000000000 H
   0.6801860000000001    0.6333550000000000    0.2631650000000000 H
   0.5373480000000000    0.8450949999999999    0.8177200000000000 H
   0.5440760000000000    0.6218550000000000    0.8365800000000000 H
   0.5308780000000001    0.6837700000000000    0.9740100000000000 H
   0.5865280000000000    0.6737100000000000    0.6718350000000000 H
   0.5775660000000000    0.6460250000000000    0.7689750000000000 H
   0.5314320000000000    0.8946050000000000    0.6399900000000001 H
   0.5198040000000000    0.8665900000000000    0.7368650000000000 H
   0.0626460000000000    0.6548550000000000    0.1823100000000000 H
   0.0559060000000000    0.8780950000000001    0.1634550000000000 H
   0.0691020000000000    0.8161950000000000    0.0260200000000000 H
   0.0134640000000000    0.8262350000000001    0.3281950000000000 H
   0.0224200000000000    0.8539150000000000    0.2310550000000000 H
   0.0685620000000000    0.6053400000000000    0.3600400000000000 H
   0.0801860000000000    0.6333550000000000    0.2631650000000000 H
   0.9373480000000001    0.8450949999999999    0.8177200000000000 H
   0.9440760000000000    0.6218550000000000    0.8365800000000000 H
   0.9308780000000001    0.6837700000000000    0.9740100000000000 H
   0.9865280000000001    0.6737100000000000    0.6718350000000000 H
   0.9775660000000000    0.6460250000000000    0.7689750000000000 H
   0.9314320000000000    0.8946050000000000    0.6399900000000001 H
   0.9198040000000001    0.8665900000000000    0.7368650000000000 H
   0.8626460000000000    0.1548550000000000    0.1823100000000000 H
   0.8559060000000001    0.3780950000000000    0.1634550000000000 H
   0.8691020000000000    0.3161950000000000    0.0260200000000000 H
   0.8134640000000001    0.3262350000000000    0.3281950000000000 H
   0.8224200000000000    0.3539150000000000    0.2310550000000000 H
   0.8685620000000001    0.1053400000000000    0.3600400000000000 H
   0.8801860000000000    0.1333550000000000    0.2631650000000000 H
   0.7373480000000001    0.3450950000000000    0.8177200000000000 H
   0.7440760000000001    0.1218550000000000    0.8365800000000000 H
   0.7308780000000001    0.1837700000000000    0.9740100000000000 H
   0.7865280000000001    0.1737100000000000    0.6718350000000000 H
   0.7775660000000001    0.1460250000000000    0.7689750000000000 H
   0.7314320000000001    0.3946050000000000    0.6399900000000001 H
   0.7198040000000001    0.3665900000000000    0.7368650000000000 H
   0.2626460000000000    0.1548550000000000    0.1823100000000000 H
   0.2559060000000000    0.3780950000000000    0.1634550000000000 H
   0.2691020000000000    0.3161950000000000    0.0260200000000000 H
   0.2134640000000000    0.3262350000000000    0.3281950000000000 H
   0.2224200000000000    0.3539150000000000    0.2310550000000000 H
   0.2685620000000000    0.1053400000000000    0.3600400000000000 H
   0.2801860000000000    0.1333550000000000    0.2631650000000000 H
   0.1373480000000000    0.3450950000000000    0.8177200000000000 H
   0.1440760000000000    0.1218550000000000    0.8365800000000000 H
   0.1308780000000000    0.1837700000000000    0.9740100000000000 H
   0.1865280000000000    0.1737100000000000    0.6718350000000000 H
   0.1775660000000000    0.1460250000000000    0.7689750000000000 H
   0.1314320000000000    0.3946050000000000    0.6399900000000001 H
   0.1198040000000000    0.3665900000000000    0.7368650000000000 H
   0.4626460000000000    0.6548550000000000    0.1823100000000000 H
   0.4559060000000000    0.8780950000000001    0.1634550000000000 H
   0.4691020000000000    0.8161950000000000    0.0260200000000000 H
   0.4134640000000000    0.8262350000000001    0.3281950000000000 H
   0.4224200000000000    0.8539150000000000    0.2310550000000000 H
   0.4685620000000000    0.6053400000000000    0.3600400000000000 H
   0.4801860000000000    0.6333550000000000    0.2631650000000000 H
   0.3373480000000000    0.8450949999999999    0.8177200000000000 H
   0.3440760000000000    0.6218550000000000    0.8365800000000000 H
   0.3308780000000000    0.6837700000000000    0.9740100000000000 H
   0.3865280000000000    0.6737100000000000    0.6718350000000000 H
   0.3775660000000000    0.6460250000000000    0.7689750000000000 H
   0.3314320000000000    0.8946050000000000    0.6399900000000001 H
   0.3198040000000000    0.8665900000000000    0.7368650000000000 H
   0.5199134089070161    0.4025736473305912    0.3575997773406018 H
   0.5477675022057935    0.3419088104324908    0.3338047186527058 H
   0.5543729501125315    0.2846140448099149    0.4451146739506393 H
   0.6626460000000001    0.1548550000000000    0.1823100000000000 H
   0.6559060000000001    0.3780950000000000    0.1634550000000000 H
   0.6691020000000001    0.3161950000000000    0.0260200000000000 H
   0.6134640000000001    0.3262350000000000    0.3281950000000000 H
   0.6224200000000001    0.3539150000000000    0.2310550000000000 H
   0.6685620000000001    0.1053400000000000    0.3600400000000000 H
   0.6801860000000001    0.1333550000000000    0.2631650000000000 H
   0.5373480000000000    0.3450950000000000    0.8177200000000000 H
   0.5440760000000000    0.1218550000000000    0.8365800000000000 H
   0.5308780000000001    0.1837700000000000    0.9740100000000000 H
   0.5865280000000000    0.1737100000000000    0.6718350000000000 H
   0.5775660000000000    0.1460250000000000    0.7689750000000000 H
   0.5314320000000000    0.3946050000000000    0.6399900000000001 H
   0.5198040000000000    0.3665900000000000    0.7368650000000000 H
   0.6340180000000001    0.1982900000000000    0.9089400000000001 C
   0.6643860000000001    0.4309400000000000    0.5578800000000000 C
   0.6689420000000001    0.1730700000000000    0.5787900000000000 C
   0.6627740000000001    0.2111700000000000    0.6578450000000000 C
   0.6583740000000001    0.3355650000000000    0.6472450000000000 C
   0.6660880000000001    0.3017200000000000    0.5691250000000000 C
   0.6626660000000001    0.3545550000000000    0.5918550000000000 C
   0.6661120000000000    0.2299100000000000    0.6022900000000000 C
   0.6581080000000001    0.2639600000000000    0.6812000000000000 C
   0.6279300000000001    0.2843000000000000    0.8134700000000000 C
   0.6335280000000001    0.2997100000000000    0.7590100000000000 C
   0.6587980000000001    0.1598650000000000    0.8314699999999999 C
   0.6648980000000001    0.1758350000000000    0.7768550000000001 C
   0.6403980000000001    0.2141300000000000    0.8504100000000000 C
   0.6523680000000001    0.2460200000000000    0.7394800000000000 C
   0.2340180000000000    0.6982900000000000    0.9089400000000001 C
   0.2643860000000000    0.9309400000000000    0.5578800000000000 C
   0.2689420000000000    0.6730700000000001    0.5787900000000000 C
   0.2627740000000000    0.7111700000000000    0.6578450000000000 C
   0.2583740000000000    0.8355650000000000    0.6472450000000000 C
   0.2660880000000000    0.8017200000000000    0.5691250000000000 C
   0.2626660000000000    0.8545550000000000    0.5918550000000000 C
   0.2661120000000000    0.7299100000000001    0.6022900000000000 C
   0.2581080000000000    0.7639600000000000    0.6812000000000000 C
   0.2279300000000000    0.7843000000000000    0.8134700000000000 C
   0.2335280000000000    0.7997099999999999    0.7590100000000000 C
   0.2587980000000000    0.6598650000000000    0.8314699999999999 C
   0.2648980000000000    0.6758350000000000    0.7768550000000001 C
   0.2403980000000000    0.7141299999999999    0.8504100000000000 C
   0.2523680000000000    0.7460200000000000    0.7394800000000000 C
   0.1659780000000000    0.8016550000000000    0.0910900000000000 C
   0.1356080000000000    0.5690150000000000    0.4421650000000000 C
   0.1310580000000000    0.8268949999999999    0.4212250000000000 C
   0.1372220000000000    0.7887800000000000    0.3421800000000000 C
   0.1416140000000000    0.6643850000000000    0.3527850000000000 C
   0.1339040000000000    0.6982400000000000    0.4309050000000000 C
   0.1373080000000000    0.6454050000000000    0.4081750000000000 C
   0.1338660000000000    0.7700500000000000    0.3977350000000000 C
   0.1418680000000000    0.7359900000000000    0.3188300000000000 C
   0.1720600000000000    0.7156450000000000    0.1865600000000000 C
   0.1664620000000000    0.7002349999999999    0.2410200000000000 C
   0.1411940000000000    0.8400799999999999    0.1685600000000000 C
   0.1350940000000000    0.8241100000000000    0.2231750000000000 C
   0.1595980000000000    0.7858149999999999    0.1496200000000000 C
   0.1476200000000000    0.7539199999999999    0.2605500000000000 C
   0.0340180000000000    0.1982900000000000    0.9089400000000001 C
   0.0643860000000000    0.4309400000000000    0.5578800000000000 C
   0.0689420000000000    0.1730700000000000    0.5787900000000000 C
   0.0627740000000000    0.2111700000000000    0.6578450000000000 C
   0.0583740000000000    0.3355650000000000    0.6472450000000000 C
   0.0660880000000000    0.3017200000000000    0.5691250000000000 C
   0.0626660000000000    0.3545550000000000    0.5918550000000000 C
   0.0661120000000000    0.2299100000000000    0.6022900000000000 C
   0.0581080000000000    0.2639600000000000    0.6812000000000000 C
   0.0279300000000000    0.2843000000000000    0.8134700000000000 C
   0.0335280000000000    0.2997100000000000    0.7590100000000000 C
   0.0587980000000000    0.1598650000000000    0.8314699999999999 C
   0.0648980000000000    0.1758350000000000    0.7768550000000001 C
   0.0403980000000000    0.2141300000000000    0.8504100000000000 C
   0.0523680000000000    0.2460200000000000    0.7394800000000000 C
   0.9659780000000000    0.3016550000000000    0.0910900000000000 C
   0.9356080000000000    0.0690150000000000    0.4421650000000000 C
   0.9310580000000001    0.3268950000000000    0.4212250000000000 C
   0.9372220000000000    0.2887800000000000    0.3421800000000000 C
   0.9416140000000001    0.1643850000000000    0.3527850000000000 C
   0.9339040000000001    0.1982400000000000    0.4309050000000000 C
   0.9373080000000000    0.1454050000000000    0.4081750000000000 C
   0.9338660000000001    0.2700500000000000    0.3977350000000000 C
   0.9418680000000000    0.2359900000000000    0.3188300000000000 C
   0.9720600000000000    0.2156450000000000    0.1865600000000000 C
   0.9664620000000000    0.2002350000000000    0.2410200000000000 C
   0.9411940000000001    0.3400800000000000    0.1685600000000000 C
   0.9350940000000001    0.3241100000000000    0.2231750000000000 C
   0.9595980000000001    0.2858150000000000    0.1496200000000000 C
   0.9476200000000000    0.2539200000000000    0.2605500000000000 C
   0.8340180000000000    0.6982900000000000    0.9089400000000001 C
   0.8643860000000001    0.9309400000000000    0.5578800000000000 C
   0.8689420000000001    0.6730700000000001    0.5787900000000000 C
   0.8627740000000000    0.7111700000000000    0.6578450000000000 C
   0.8583740000000001    0.8355650000000000    0.6472450000000000 C
   0.8660880000000001    0.8017200000000000    0.5691250000000000 C
   0.8626660000000000    0.8545550000000000    0.5918550000000000 C
   0.8661120000000000    0.7299100000000001    0.6022900000000000 C
   0.8581080000000001    0.7639600000000000    0.6812000000000000 C
   0.8279300000000001    0.7843000000000000    0.8134700000000000 C
   0.8335280000000000    0.7997099999999999    0.7590100000000000 C
   0.8587980000000001    0.6598650000000000    0.8314699999999999 C
   0.8648980000000001    0.6758350000000000    0.7768550000000001 C
   0.8403980000000001    0.7141299999999999    0.8504100000000000 C
   0.8523680000000000    0.7460200000000000    0.7394800000000000 C
   0.7659780000000000    0.8016550000000000    0.0910900000000000 C
   0.7356080000000000    0.5690150000000000    0.4421650000000000 C
   0.7310580000000001    0.8268949999999999    0.4212250000000000 C
   0.7372220000000000    0.7887800000000000    0.3421800000000000 C