H7 C15 O6
1.0
  38.4385174055875609    0.0000000000000000    3.5813970263491246
   4.0813769165706448   18.4282775963432890    7.5692696673454707
   0.0000000000000000    0.0000000000000000   26.9259999999999984
H C O
7 15 6
direct
   0.5440760000000000    0.1218550000000000    0.3365800000000000 H
   0.5308780000000001    0.1837700000000000    0.4740100000000000 H
   0.5198040000000000    0.3665900000000000    0.2368650000000000 H
   0.5373480000000000    0.3450950000000000    0.3177200000000000 H
   0.5865280000000000    0.1737100000000000    0.1718350000000000 H
   0.5775660000000000    0.1460250000000000    0.2689750000000000 H
   0.5314320000000000    0.3946050000000000    0.1399900000000000 H
   0.5356080000000001    0.0690150000000000    0.4421650000000000 C
   0.5373080000000000    0.1454050000000000    0.4081750000000000 C
   0.5416140000000000    0.1643850000000000    0.3527850000000000 C
   0.5338660000000001    0.2700500000000000    0.3977350000000000 C
   0.5310580000000000    0.3268950000000000    0.4212250000000000 C
   0.5339040000000000    0.1982400000000000    0.4309050000000000 C
   0.5350940000000001    0.3241100000000000    0.2231750000000000 C
   0.5372220000000001    0.2887800000000000    0.3421800000000000 C
   0.5720600000000000    0.2156450000000000    0.1865600000000000 C
   0.5595980000000000    0.2858150000000000    0.1496200000000000 C
   0.5418680000000000    0.2359900000000000    0.3188300000000000 C
   0.5664620000000000    0.2002350000000000    0.2410200000000000 C
   0.5476200000000000    0.2539200000000000    0.2605500000000000 C
   0.5411940000000001    0.3400800000000000    0.1685600000000000 C
   0.5659780000000001    0.3016550000000000    0.0910900000000000 C
   0.5439240000000001    0.0214700000000000    0.4201800000000000 O
   0.5261560000000001    0.0528950000000000    0.4913600000000000 O
   0.5422220000000000    0.3054850000000000    0.4707400000000000 O
   0.5183660000000000    0.3924100000000000    0.3958100000000000 O
   0.5823840000000000    0.2466400000000000    0.0788900000000000 O
   0.5556900000000000    0.3660450000000000    0.0585200000000000 O
