Cd48 H195 C288 S23 N48 O190
1.0
  27.9606223733424031    0.0000000000000000   12.0053170510130389
   9.2904328394418663   23.5573295710278607    3.9673045179058901
   0.0000000000000000    0.0000000000000000   25.6520000000000010
Cd H C S N O
48 195 288 23 48 190
direct
   0.5212766666666666    0.1612850000000000    0.2745200000000000 Cd
   0.1453733333333333    0.3387050000000000    0.2254850000000000 Cd
   0.3710000000000000    0.2255300000000000    0.1612150000000000 Cd
   0.2956500000000000    0.2744600000000000    0.3387900000000000 Cd
   0.1879433333333334    0.1612850000000000    0.2745200000000000 Cd
   0.8120400000000000    0.3387050000000000    0.2254850000000000 Cd
   0.0376666666666667    0.2255300000000000    0.1612150000000000 Cd
   0.9623166666666666    0.2744600000000000    0.3387900000000000 Cd
   0.8546100000000000    0.1612850000000000    0.2745200000000000 Cd
   0.4787066666666666    0.3387050000000000    0.2254850000000000 Cd
   0.7043333333333333    0.2255300000000000    0.1612150000000000 Cd
   0.6289833333333332    0.2744600000000000    0.3387900000000000 Cd
   0.1879433333333334    0.6612850000000000    0.2745200000000000 Cd
   0.8120400000000000    0.8387050000000000    0.2254850000000000 Cd
   0.0376666666666667    0.7255300000000000    0.1612150000000000 Cd
   0.9623166666666666    0.7744599999999999    0.3387900000000000 Cd
   0.5212766666666666    0.6612850000000000    0.2745200000000000 Cd
   0.1453733333333333    0.8387050000000000    0.2254850000000000 Cd
   0.3710000000000000    0.7255300000000000    0.1612150000000000 Cd
   0.2956500000000000    0.7744599999999999    0.3387900000000000 Cd
   0.8546100000000000    0.6612850000000000    0.2745200000000000 Cd
   0.4787066666666666    0.8387050000000000    0.2254850000000000 Cd
   0.7043333333333333    0.7255300000000000    0.1612150000000000 Cd
   0.6289833333333332    0.7744599999999999    0.3387900000000000 Cd
   0.1879433333333334    0.6612850000000000    0.7745200000000000 Cd
   0.8120400000000000    0.8387050000000000    0.7254849999999999 Cd
   0.0376666666666667    0.7255300000000000    0.6612150000000000 Cd
   0.9623166666666666    0.7744599999999999    0.8387899999999999 Cd
   0.5212766666666666    0.6612850000000000    0.7745200000000000 Cd
   0.1453733333333333    0.8387050000000000    0.7254849999999999 Cd
   0.3710000000000000    0.7255300000000000    0.6612150000000000 Cd
   0.2956500000000000    0.7744599999999999    0.8387899999999999 Cd
   0.8546100000000000    0.6612850000000000    0.7745200000000000 Cd
   0.4787066666666666    0.8387050000000000    0.7254849999999999 Cd
   0.7043333333333333    0.7255300000000000    0.6612150000000000 Cd
   0.6289833333333332    0.7744599999999999    0.8387899999999999 Cd
   0.1879433333333334    0.1612850000000000    0.7745200000000000 Cd
   0.5212766666666666    0.1612850000000000    0.7745200000000000 Cd
   0.8120400000000000    0.3387050000000000    0.7254849999999999 Cd
   0.3710000000000000    0.2255300000000000    0.6612150000000000 Cd
   0.2956500000000000    0.2744600000000000    0.8387899999999999 Cd
   0.9623166666666666    0.2744600000000000    0.8387899999999999 Cd
   0.1453733333333333    0.3387050000000000    0.7254849999999999 Cd
   0.0376666666666667    0.2255300000000000    0.6612150000000000 Cd
   0.8546100000000000    0.1612850000000000    0.7745200000000000 Cd
   0.4787066666666666    0.3387050000000000    0.7254849999999999 Cd
   0.7043333333333333    0.2255300000000000    0.6612150000000000 Cd
   0.6289833333333332    0.2744600000000000    0.8387899999999999 Cd
   0.3674933333333333    0.2098800000000000    0.4751750000000000 H
   0.5094533333333333    0.2092600000000000    0.4753450000000000 H
   0.5474766666666666    0.1916250000000000    0.3709950000000000 H
   0.4106466666666667    0.1920550000000000    0.3709350000000000 H
   0.2991600000000000    0.2900950000000000    0.0248300000000000 H
   0.1571933333333333    0.2907250000000000    0.0246600000000000 H
   0.2560033333333333    0.3079300000000000    0.1290700000000000 H
   0.1191700000000000    0.3083750000000000    0.1290100000000000 H
   0.4929633333333333    0.0248500000000000    0.2088700000000000 H
   0.3508133333333333    0.0246750000000000    0.2100650000000000 H
   0.4615666666666666    0.1291500000000000    0.1909200000000000 H
   0.3243833333333333    0.1290300000000000    0.1925000000000000 H
   0.1736866666666667    0.4751400000000000    0.2911350000000000 H
   0.3158366666666667    0.4753150000000000    0.2899400000000000 H
   0.3422633333333333    0.3709600000000000    0.3075150000000000 H
   0.2050800000000000    0.3708400000000000    0.3090900000000000 H
   0.0341600000000000    0.2098800000000000    0.4751750000000000 H
   0.1761200000000000    0.2092600000000000    0.4753450000000000 H
   0.2141433333333333    0.1916250000000000    0.3709950000000000 H
   0.0773133333333333    0.1920550000000000    0.3709350000000000 H
   0.9658266666666666    0.2900950000000000    0.0248300000000000 H
   0.8238599999999999    0.2907250000000000    0.0246600000000000 H
   0.9226699999999999    0.3079300000000000    0.1290700000000000 H
   0.7858366666666666    0.3083750000000000    0.1290100000000000 H
   0.1596300000000000    0.0248500000000000    0.2088700000000000 H
   0.0174800000000000    0.0246750000000000    0.2100650000000000 H
   0.1282333333333333    0.1291500000000000    0.1909200000000000 H
   0.9910500000000000    0.1290300000000000    0.1925000000000000 H
   0.8403533333333333    0.4751400000000000    0.2911350000000000 H
   0.9825033333333333    0.4753150000000000    0.2899400000000000 H
   0.0089300000000000    0.3709600000000000    0.3075150000000000 H
   0.8717466666666667    0.3708400000000000    0.3090900000000000 H
   0.7008266666666666    0.2098800000000000    0.4751750000000000 H
   0.8427866666666666    0.2092600000000000    0.4753450000000000 H
   0.8808099999999999    0.1916250000000000    0.3709950000000000 H
   0.7439800000000000    0.1920550000000000    0.3709350000000000 H
   0.6324933333333334    0.2900950000000000    0.0248300000000000 H
   0.4905266666666667    0.2907250000000000    0.0246600000000000 H
   0.5893366666666666    0.3079300000000000    0.1290700000000000 H
   0.4525033333333333    0.3083750000000000    0.1290100000000000 H
   0.8262966666666667    0.0248500000000000    0.2088700000000000 H
   0.6841466666666667    0.0246750000000000    0.2100650000000000 H
   0.7948999999999999    0.1291500000000000    0.1909200000000000 H
   0.6577166666666666    0.1290300000000000    0.1925000000000000 H
   0.5070200000000000    0.4751400000000000    0.2911350000000000 H
   0.6491700000000000    0.4753150000000000    0.2899400000000000 H
   0.6755966666666666    0.3709600000000000    0.3075150000000000 H
   0.5384133333333333    0.3708400000000000    0.3090900000000000 H
   0.0341600000000000    0.7098800000000001    0.4751750000000000 H
   0.1761200000000000    0.7092600000000000    0.4753450000000000 H
   0.2141433333333333    0.6916249999999999    0.3709950000000000 H
   0.0773133333333333    0.6920550000000000    0.3709350000000000 H
   0.9658266666666666    0.7900950000000000    0.0248300000000000 H
   0.8238599999999999    0.7907250000000000    0.0246600000000000 H
   0.9226699999999999    0.8079300000000000    0.1290700000000000 H
   0.7858366666666666    0.8083750000000001    0.1290100000000000 H
   0.1596300000000000    0.5248500000000000    0.2088700000000000 H
   0.0174800000000000    0.5246750000000000    0.2100650000000000 H
   0.1282333333333333    0.6291500000000000    0.1909200000000000 H
   0.9910500000000000    0.6290300000000000    0.1925000000000000 H
   0.8403533333333333    0.9751400000000000    0.2911350000000000 H
   0.9825033333333333    0.9753149999999999    0.2899400000000000 H
   0.0089300000000000    0.8709600000000000    0.3075150000000000 H
   0.8717466666666667    0.8708400000000001    0.3090900000000000 H
   0.3674933333333333    0.7098800000000001    0.4751750000000000 H
   0.5094533333333333    0.7092600000000000    0.4753450000000000 H
   0.5474766666666666    0.6916249999999999    0.3709950000000000 H
   0.4106466666666667    0.6920550000000000    0.3709350000000000 H
   0.2991600000000000    0.7900950000000000    0.0248300000000000 H
   0.1571933333333333    0.7907250000000000    0.0246600000000000 H
   0.2560033333333333    0.8079300000000000    0.1290700000000000 H
   0.1191700000000000    0.8083750000000001    0.1290100000000000 H
   0.4929633333333333    0.5248500000000000    0.2088700000000000 H
   0.3508133333333333    0.5246750000000000    0.2100650000000000 H
   0.4615666666666666    0.6291500000000000    0.1909200000000000 H
   0.3243833333333333    0.6290300000000000    0.1925000000000000 H
   0.1736866666666667    0.9751400000000000    0.2911350000000000 H
   0.3158366666666667    0.9753149999999999    0.2899400000000000 H
   0.3422633333333333    0.8709600000000000    0.3075150000000000 H
   0.2050800000000000    0.8708400000000001    0.3090900000000000 H
   0.7008266666666666    0.7098800000000001    0.4751750000000000 H
   0.8427866666666666    0.7092600000000000    0.4753450000000000 H
   0.8808099999999999    0.6916249999999999    0.3709950000000000 H
   0.7439800000000000    0.6920550000000000    0.3709350000000000 H
   0.6324933333333334    0.7900950000000000    0.0248300000000000 H
   0.4905266666666667    0.7907250000000000    0.0246600000000000 H
   0.5893366666666666    0.8079300000000000    0.1290700000000000 H
   0.4525033333333333    0.8083750000000001    0.1290100000000000 H
   0.8262966666666667    0.5248500000000000    0.2088700000000000 H
   0.6841466666666667    0.5246750000000000    0.2100650000000000 H
   0.7948999999999999    0.6291500000000000    0.1909200000000000 H
   0.6577166666666666    0.6290300000000000    0.1925000000000000 H
   0.5070200000000000    0.9751400000000000    0.2911350000000000 H
   0.6491700000000000    0.9753149999999999    0.2899400000000000 H
   0.6755966666666666    0.8709600000000000    0.3075150000000000 H
   0.5384133333333333    0.8708400000000001    0.3090900000000000 H
   0.0341600000000000    0.7098800000000001    0.9751750000000000 H
   0.1761200000000000    0.7092600000000000    0.9753450000000000 H
   0.2141433333333333    0.6916249999999999    0.8709950000000000 H
   0.0773133333333333    0.6920550000000000    0.8709350000000000 H
   0.9658266666666666    0.7900950000000000    0.5248300000000000 H
   0.8238599999999999    0.7907250000000000    0.5246600000000000 H
   0.9226699999999999    0.8079300000000000    0.6290700000000000 H
   0.7858366666666666    0.8083750000000001    0.6290100000000001 H
   0.1596300000000000    0.5248500000000000    0.7088700000000000 H
   0.0174800000000000    0.5246750000000000    0.7100649999999999 H
   0.1282333333333333    0.6291500000000000    0.6909200000000000 H
   0.9910500000000000    0.6290300000000000    0.6925000000000000 H
   0.8403533333333333    0.9751400000000000    0.7911349999999999 H
   0.9825033333333333    0.9753149999999999    0.7899400000000000 H
   0.0089300000000000    0.8709600000000000    0.8075150000000000 H
   0.8717466666666667    0.8708400000000001    0.8090900000000000 H
   0.3674933333333333    0.7098800000000001    0.9751750000000000 H
   0.5094533333333333    0.7092600000000000    0.9753450000000000 H
   0.5474766666666666    0.6916249999999999    0.8709950000000000 H
   0.4106466666666667    0.6920550000000000    0.8709350000000000 H
   0.2991600000000000    0.7900950000000000    0.5248300000000000 H
   0.1571933333333333    0.7907250000000000    0.5246600000000000 H
   0.2560033333333333    0.8079300000000000    0.6290700000000000 H
   0.1191700000000000    0.8083750000000001    0.6290100000000001 H
   0.4929633333333333    0.5248500000000000    0.7088700000000000 H
   0.3508133333333333    0.5246750000000000    0.7100649999999999 H
   0.4615666666666666    0.6291500000000000    0.6909200000000000 H
   0.3243833333333333    0.6290300000000000    0.6925000000000000 H
   0.1736866666666667    0.9751400000000000    0.7911349999999999 H
   0.3158366666666667    0.9753149999999999    0.7899400000000000 H
   0.3422633333333333    0.8709600000000000    0.8075150000000000 H
   0.2050800000000000    0.8708400000000001    0.8090900000000000 H
   0.7008266666666666    0.7098800000000001    0.9751750000000000 H
   0.8427866666666666    0.7092600000000000    0.9753450000000000 H
   0.8808099999999999    0.6916249999999999    0.8709950000000000 H
   0.7439800000000000    0.6920550000000000    0.8709350000000000 H
   0.6324933333333334    0.7900950000000000    0.5248300000000000 H
   0.4905266666666667    0.7907250000000000    0.5246600000000000 H
   0.5893366666666666    0.8079300000000000    0.6290700000000000 H
   0.4525033333333333    0.8083750000000001    0.6290100000000001 H
   0.8262966666666667    0.5248500000000000    0.7088700000000000 H
   0.6841466666666667    0.5246750000000000    0.7100649999999999 H
   0.7948999999999999    0.6291500000000000    0.6909200000000000 H
   0.6577166666666666    0.6290300000000000    0.6925000000000000 H
   0.5070200000000000    0.9751400000000000    0.7911349999999999 H
   0.6491700000000000    0.9753149999999999    0.7899400000000000 H
   0.6755966666666666    0.8709600000000000    0.8075150000000000 H
   0.5384133333333333    0.8708400000000001    0.8090900000000000 H
   0.0341600000000000    0.2098800000000000    0.9751750000000000 H
   0.1761200000000000    0.2092600000000000    0.9753450000000000 H
   0.2141433333333333    0.1916250000000000    0.8709950000000000 H
   0.0773133333333333    0.1920550000000000    0.8709350000000000 H
   0.1500165001317217    0.2300253742474949    0.7289308448465299 H
   0.3674933333333333    0.2098800000000000    0.9751750000000000 H
   0.5094533333333333    0.2092600000000000    0.9753450000000000 H
   0.5474766666666666    0.1916250000000000    0.8709950000000000 H
   0.4106466666666667    0.1920550000000000    0.8709350000000000 H
   0.9658266666666666    0.2900950000000000    0.5248300000000000 H
   0.8238599999999999    0.2907250000000000    0.5246600000000000 H
   0.9226699999999999    0.3079300000000000    0.6290700000000000 H
   0.7858366666666666    0.3083750000000000    0.6290100000000001 H
   0.4929633333333333    0.0248500000000000    0.7088700000000000 H
   0.3508133333333333    0.0246750000000000    0.7100649999999999 H
   0.4615666666666666    0.1291500000000000    0.6909200000000000 H
   0.3243833333333333    0.1290300000000000    0.6925000000000000 H
   0.1736866666666667    0.4751400000000000    0.7911349999999999 H
   0.3158366666666667    0.4753150000000000    0.7899400000000000 H
   0.3422633333333333    0.3709600000000000    0.8075150000000000 H
   0.2050800000000000    0.3708400000000000    0.8090900000000000 H
   0.8403533333333333    0.4751400000000000    0.7911349999999999 H
   0.9825033333333333    0.4753150000000000    0.7899400000000000 H
   0.0089300000000000    0.3709600000000000    0.8075150000000000 H
   0.8717466666666667    0.3708400000000000    0.8090900000000000 H
   0.0400286745811847    0.3139249465753418    0.6987014026494655 H
   0.0785100612765175    0.3050798447480444    0.7095415264704760 H
   0.2991600000000000    0.2900950000000000    0.5248300000000000 H
   0.1571933333333333    0.2907250000000000    0.5246600000000000 H
   0.2560033333333333    0.3079300000000000    0.6290700000000000 H
   0.1191700000000000    0.3083750000000000    0.6290100000000001 H
   0.1596300000000000    0.0248500000000000    0.7088700000000000 H
   0.0174800000000000    0.0246750000000000    0.7100649999999999 H
   0.1282333333333333    0.1291500000000000    0.6909200000000000 H
   0.9910500000000000    0.1290300000000000    0.6925000000000000 H
   0.7008266666666666    0.2098800000000000    0.9751750000000000 H
   0.8427866666666666    0.2092600000000000    0.9753450000000000 H
   0.8808099999999999    0.1916250000000000    0.8709950000000000 H
   0.7439800000000000    0.1920550000000000    0.8709350000000000 H
   0.6324933333333334    0.2900950000000000    0.5248300000000000 H
   0.4905266666666667    0.2907250000000000    0.5246600000000000 H
   0.5893366666666666    0.3079300000000000    0.6290700000000000 H
   0.4525033333333333    0.3083750000000000    0.6290100000000001 H
   0.8262966666666667    0.0248500000000000    0.7088700000000000 H
   0.6841466666666667    0.0246750000000000    0.7100649999999999 H
   0.7948999999999999    0.1291500000000000    0.6909200000000000 H
   0.6577166666666666    0.1290300000000000    0.6925000000000000 H
   0.5070200000000000    0.4751400000000000    0.7911349999999999 H
   0.6491700000000000    0.4753150000000000    0.7899400000000000 H
   0.6755966666666666    0.3709600000000000    0.8075150000000000 H
   0.5384133333333333    0.3708400000000000    0.8090900000000000 H
   0.4113033333333333    0.2196500000000000    0.5469349999999999 C
   0.4075299999999999    0.2054400000000000    0.4537650000000000 C
   0.4865699999999999    0.2051200000000000    0.4538200000000000 C
   0.5080333333333333    0.1949950000000000    0.3957800000000000 C
   0.4314200000000000    0.1952500000000000    0.3957350000000000 C
   0.4354700000000000    0.2101250000000000    0.4837700000000000 C
   0.2553466666666667    0.2803300000000000    0.9530700000000000 C
   0.2591200000000000    0.2945450000000000    0.0462400000000000 C
   0.1800766666666667    0.2948700000000000    0.0461850000000000 C
   0.2352333333333333    0.3047300000000000    0.1042700000000000 C
   0.1586166666666667    0.3049900000000000    0.1042250000000000 C
   0.2311800000000000    0.2898650000000000    0.0162350000000000 C
   0.4424500000000000    0.9530500000000000    0.2194950000000000 C
   0.4557366666666666    0.0462800000000000    0.2047900000000000 C
   0.3765700000000000    0.0461950000000000    0.2055250000000000 C
   0.4385666666666667    0.1043150000000000    0.1945600000000000 C
   0.3617600000000000    0.1042550000000000    0.1954100000000000 C
   0.4245466666666666    0.0162500000000000    0.2099850000000000 C
   0.2242000000000000    0.5469400000000000    0.2805100000000000 C
   0.2109100000000000    0.4537100000000000    0.2952200000000000 C
   0.2900800000000000    0.4537950000000000    0.2944850000000000 C
   0.3048933333333333    0.3957400000000000    0.3045950000000000 C
   0.2280866666666667    0.3956750000000000    0.3054450000000000 C
   0.2421000000000000    0.4837400000000000    0.2900250000000000 C
   0.0779700000000000    0.2196500000000000    0.5469349999999999 C
   0.0741966666666667    0.2054400000000000    0.4537650000000000 C
   0.1532366666666667    0.2051200000000000    0.4538200000000000 C
   0.1747000000000000    0.1949950000000000    0.3957800000000000 C
   0.0980866666666667    0.1952500000000000    0.3957350000000000 C
   0.1021366666666667    0.2101250000000000    0.4837700000000000 C
   0.9220133333333334    0.2803300000000000    0.9530700000000000 C
   0.9257866666666666    0.2945450000000000    0.0462400000000000 C
   0.8467433333333333    0.2948700000000000    0.0461850000000000 C
   0.9018999999999999    0.3047300000000000    0.1042700000000000 C
   0.8252833333333333    0.3049900000000000    0.1042250000000000 C
   0.8978466666666667    0.2898650000000000    0.0162350000000000 C
   0.1091166666666667    0.9530500000000000    0.2194950000000000 C
   0.1224033333333333    0.0462800000000000    0.2047900000000000 C
   0.0432366666666667    0.0461950000000000    0.2055250000000000 C
   0.1052333333333333    0.1043150000000000    0.1945600000000000 C
   0.0284266666666667    0.1042550000000000    0.1954100000000000 C
   0.0912133333333333    0.0162500000000000    0.2099850000000000 C
   0.8908666666666666    0.5469400000000000    0.2805100000000000 C
   0.8775766666666667    0.4537100000000000    0.2952200000000000 C
   0.9567466666666666    0.4537950000000000    0.2944850000000000 C
   0.9715600000000000    0.3957400000000000    0.3045950000000000 C
   0.8947533333333333    0.3956750000000000    0.3054450000000000 C
   0.9087666666666666    0.4837400000000000    0.2900250000000000 C
   0.7446366666666666    0.2196500000000000    0.5469349999999999 C
   0.7408633333333333    0.2054400000000000    0.4537650000000000 C
   0.8199033333333333    0.2051200000000000    0.4538200000000000 C
   0.8413666666666666    0.1949950000000000    0.3957800000000000 C
   0.7647533333333333    0.1952500000000000    0.3957350000000000 C
   0.7688033333333333    0.2101250000000000    0.4837700000000000 C
   0.5886800000000000    0.2803300000000000    0.9530700000000000 C
   0.5924533333333333    0.2945450000000000    0.0462400000000000 C
   0.5134099999999999    0.2948700000000000    0.0461850000000000 C
   0.5685666666666667    0.3047300000000000    0.1042700000000000 C
   0.4919500000000000    0.3049900000000000    0.1042250000000000 C
   0.5645133333333333    0.2898650000000000    0.0162350000000000 C
   0.7757833333333333    0.9530500000000000    0.2194950000000000 C
   0.7890699999999999    0.0462800000000000    0.2047900000000000 C
   0.7099033333333333    0.0461950000000000    0.2055250000000000 C
   0.7718999999999999    0.1043150000000000    0.1945600000000000 C
   0.6950933333333333    0.1042550000000000    0.1954100000000000 C
   0.7578800000000000    0.0162500000000000    0.2099850000000000 C
   0.5575333333333333    0.5469400000000000    0.2805100000000000 C
   0.5442433333333333    0.4537100000000000    0.2952200000000000 C
   0.6234133333333334    0.4537950000000000    0.2944850000000000 C
   0.6382266666666667    0.3957400000000000    0.3045950000000000 C
   0.5614200000000000    0.3956750000000000    0.3054450000000000 C
   0.5754333333333332    0.4837400000000000    0.2900250000000000 C
   0.0779700000000000    0.7196500000000000    0.5469349999999999 C
   0.0741966666666667    0.7054400000000001    0.4537650000000000 C
   0.1532366666666667    0.7051200000000000    0.4538200000000000 C
   0.1747000000000000    0.6949950000000000    0.3957800000000000 C
   0.0980866666666667    0.6952500000000000    0.3957350000000000 C
   0.1021366666666667    0.7101250000000000    0.4837700000000000 C
   0.9220133333333334    0.7803300000000000    0.9530700000000000 C
   0.9257866666666666    0.7945450000000001    0.0462400000000000 C
   0.8467433333333333    0.7948700000000000    0.0461850000000000 C
   0.9018999999999999    0.8047299999999999    0.1042700000000000 C
   0.8252833333333333    0.8049900000000000    0.1042250000000000 C
   0.8978466666666667    0.7898650000000000    0.0162350000000000 C
   0.1091166666666667    0.4530500000000000    0.2194950000000000 C
   0.1224033333333333    0.5462800000000000    0.2047900000000000 C
   0.0432366666666667    0.5461950000000000    0.2055250000000000 C
   0.1052333333333333    0.6043150000000000    0.1945600000000000 C
   0.0284266666666667    0.6042550000000000    0.1954100000000000 C
   0.0912133333333333    0.5162500000000000    0.2099850000000000 C
   0.8908666666666666    0.0469400000000000    0.2805100000000000 C
   0.8775766666666667    0.9537100000000001    0.2952200000000000 C
   0.9567466666666666    0.9537949999999999    0.2944850000000000 C
   0.9715600000000000    0.8957400000000000    0.3045950000000000 C
   0.8947533333333333    0.8956750000000000    0.3054450000000000 C
   0.9087666666666666    0.9837400000000001    0.2900250000000000 C
   0.4113033333333333    0.7196500000000000    0.5469349999999999 C
   0.4075299999999999    0.7054400000000001    0.4537650000000000 C
   0.4865699999999999    0.7051200000000000    0.4538200000000000 C
   0.5080333333333333    0.6949950000000000    0.3957800000000000 C
   0.4314200000000000    0.6952500000000000    0.3957350000000000 C
   0.4354700000000000    0.7101250000000000    0.4837700000000000 C
   0.2553466666666667    0.7803300000000000    0.9530700000000000 C
   0.2591200000000000    0.7945450000000001    0.0462400000000000 C
   0.1800766666666667    0.7948700000000000    0.0461850000000000 C
   0.2352333333333333    0.8047299999999999    0.1042700000000000 C
   0.1586166666666667    0.8049900000000000    0.1042250000000000 C
   0.2311800000000000    0.7898650000000000    0.0162350000000000 C
   0.4424500000000000    0.4530500000000000    0.2194950000000000 C
   0.4557366666666666    0.5462800000000000    0.2047900000000000 C
   0.3765700000000000    0.5461950000000000    0.2055250000000000 C
   0.4385666666666667    0.6043150000000000    0.1945600000000000 C
   0.3617600000000000    0.6042550000000000    0.1954100000000000 C
   0.4245466666666666    0.5162500000000000    0.2099850000000000 C
   0.2242000000000000    0.0469400000000000    0.2805100000000000 C
   0.2109100000000000    0.9537100000000001    0.2952200000000000 C
   0.2900800000000000    0.9537949999999999    0.2944850000000000 C
   0.3048933333333333    0.8957400000000000    0.3045950000000000 C
   0.2280866666666667    0.8956750000000000    0.3054450000000000 C
   0.2421000000000000    0.9837400000000001    0.2900250000000000 C
   0.7446366666666666    0.7196500000000000    0.5469349999999999 C
   0.7408633333333333    0.7054400000000001    0.4537650000000000 C
   0.8199033333333333    0.7051200000000000    0.4538200000000000 C
   0.8413666666666666    0.6949950000000000    0.3957800000000000 C
   0.7647533333333333    0.6952500000000000    0.3957350000000000 C
   0.7688033333333333    0.7101250000000000    0.4837700000000000 C
   0.5886800000000000    0.7803300000000000    0.9530700000000000 C
   0.5924533333333333    0.7945450000000001    0.0462400000000000 C
   0.5134099999999999    0.7948700000000000    0.0461850000000000 C
   0.5685666666666667    0.8047299999999999    0.1042700000000000 C
   0.4919500000000000    0.8049900000000000    0.1042250000000000 C
   0.5645133333333333    0.7898650000000000    0.0162350000000000 C
   0.7757833333333333    0.4530500000000000    0.2194950000000000 C
   0.7890699999999999    0.5462800000000000    0.2047900000000000 C
   0.7099033333333333    0.5461950000000000    0.2055250000000000 C
   0.7718999999999999    0.6043150000000000    0.1945600000000000 C
   0.6950933333333333    0.6042550000000000    0.1954100000000000 C
   0.7578800000000000    0.5162500000000000    0.2099850000000000 C
   0.5575333333333333    0.0469400000000000    0.2805100000000000 C
   0.5442433333333333    0.9537100000000001    0.2952200000000000 C
   0.6234133333333334    0.9537949999999999    0.2944850000000000 C
   0.6382266666666667    0.8957400000000000    0.3045950000000000 C
   0.5614200000000000    0.8956750000000000    0.3054450000000000 C
   0.5754333333333332    0.9837400000000001    0.2900250000000000 C
   0.0779700000000000    0.7196500000000000    0.0469350000000000 C
   0.0741966666666667    0.7054400000000001    0.9537650000000000 C
   0.1532366666666667    0.7051200000000000    0.9538200000000000 C
   0.1747000000000000    0.6949950000000000    0.8957800000000000 C
   0.0980866666666667    0.6952500000000000    0.8957349999999999 C
   0.1021366666666667    0.7101250000000000    0.9837700000000000 C
   0.9220133333333334    0.7803300000000000    0.4530700000000000 C
   0.9257866666666666    0.7945450000000001    0.5462400000000001 C
   0.8467433333333333    0.7948700000000000    0.5461850000000000 C
   0.9018999999999999    0.8047299999999999    0.6042700000000000 C
   0.8252833333333333    0.8049900000000000    0.6042250000000000 C
   0.8978466666666667    0.7898650000000000    0.5162350000000000 C
   0.1091166666666667    0.4530500000000000    0.7194950000000000 C
   0.1224033333333333    0.5462800000000000    0.7047900000000000 C
   0.0432366666666667    0.5461950000000000    0.7055250000000000 C
   0.1052333333333333    0.6043150000000000    0.6945600000000001 C
   0.0284266666666667    0.6042550000000000    0.6954100000000000 C
   0.0912133333333333    0.5162500000000000    0.7099850000000000 C
   0.8908666666666666    0.0469400000000000    0.7805100000000000 C
   0.8775766666666667    0.9537100000000001    0.7952200000000000 C
   0.9567466666666666    0.9537949999999999    0.7944850000000000 C
   0.9715600000000000    0.8957400000000000    0.8045949999999999 C
   0.8947533333333333    0.8956750000000000    0.8054450000000000 C
   0.9087666666666666    0.9837400000000001    0.7900250000000000 C
   0.4113033333333333    0.7196500000000000    0.0469350000000000 C
   0.4075299999999999    0.7054400000000001    0.9537650000000000 C
   0.4865699999999999    0.7051200000000000    0.9538200000000000 C
   0.5080333333333333    0.6949950000000000    0.8957800000000000 C
   0.4314200000000000    0.6952500000000000    0.8957349999999999 C
   0.4354700000000000    0.7101250000000000    0.9837700000000000 C
   0.2553466666666667    0.7803300000000000    0.4530700000000000 C
   0.2591200000000000    0.7945450000000001    0.5462400000000001 C
   0.1800766666666667    0.7948700000000000    0.5461850000000000 C
   0.2352333333333333    0.8047299999999999    0.6042700000000000 C
   0.1586166666666667    0.8049900000000000    0.6042250000000000 C
   0.2311800000000000    0.7898650000000000    0.5162350000000000 C
   0.4424500000000000    0.4530500000000000    0.7194950000000000 C
   0.4557366666666666    0.5462800000000000    0.7047900000000000 C
   0.3765700000000000    0.5461950000000000    0.7055250000000000 C
   0.4385666666666667    0.6043150000000000    0.6945600000000001 C
   0.3617600000000000    0.6042550000000000    0.6954100000000000 C
   0.4245466666666666    0.5162500000000000    0.7099850000000000 C
   0.2242000000000000    0.0469400000000000    0.7805100000000000 C
   0.2109100000000000    0.9537100000000001    0.7952200000000000 C
   0.2900800000000000    0.9537949999999999    0.7944850000000000 C
   0.3048933333333333    0.8957400000000000    0.8045949999999999 C
   0.2280866666666667    0.8956750000000000    0.8054450000000000 C
   0.2421000000000000    0.9837400000000001    0.7900250000000000 C
   0.7446366666666666    0.7196500000000000    0.0469350000000000 C