H5 O3
1.0
  27.9606223733424031    0.0000000000000000   12.0053170510130389
   9.2904328394418663   23.5573295710278607    3.9673045179058901
   0.0000000000000000    0.0000000000000000   25.6520000000000010
H O
5 3
direct
   0.7035724012449694    0.1121947925552210    0.1937700498135681 H
   0.7591347498076726    0.1122402618754011    0.1931547528681662 H
   0.8423785465834700    0.9457719365724766    0.2232584402567096 H
   0.7123048244823570    0.9451873911533182    0.2214628921020343 H
   0.7756581547689748    0.9506432325558130    0.2222094979169246 H
   0.7257533333333333    0.1329650000000000    0.1894800000000000 O
   0.8197966666666666    0.9275500000000000    0.2233950000000000 O
   0.7466366666666666    0.9272250000000000    0.2223850000000000 O
