P3 O12
1.0
  36.3019997290735716    0.0000000000000000    0.0044351259643864
  12.3679708142099756   34.4023350996757316    0.0012761149356279
   0.0000000000000000    0.0000000000000000   37.9780000000000015
P O
3 12
direct
   0.1708275000000000    0.3749325000000000    0.8498350000000000 P
   0.3307450000000000    0.3750975000000000    0.6501600000000000 P
   0.6637550000000000    0.4694625000000000    0.9585900000000001 P
   0.1797325000000000    0.3938750000000000    0.8162400000000001 O
   0.1328625000000000    0.3656675000000000    0.8425700000000000 O
   0.1637625000000000    0.4036175000000000    0.8812400000000000 O
   0.2052275000000000    0.3375250000000000    0.8601000000000000 O
   0.3218400000000000    0.3561125000000000    0.6837299999999999 O
   0.3687150000000000    0.3843525000000000    0.6574450000000001 O
   0.3378000000000000    0.3464675000000000    0.6187200000000000 O
   0.2963500000000000    0.4125200000000000    0.6399200000000000 O
   0.6691625000000000    0.4730650000000000    0.9982450000000000 O
   0.7040975000000000    0.4530050000000000    0.9413400000000001 O
   0.6391750000000000    0.4423200000000000    0.9520200000000000 O
   0.6418125000000000    0.5106500000000000    0.9427350000000000 O
