H9 O6
1.0
  36.3019997290735716    0.0000000000000000    0.0044351259643864
  12.3679708142099756   34.4023350996757316    0.0012761149356279
   0.0000000000000000    0.0000000000000000   37.9780000000000015
H O
9 6
direct
   0.6677835794837433    0.4703645535716314    0.9729167095931133 H
   0.6370373710400504    0.5140658881595142    0.9176185714096079 H
   0.6350727771554855    0.4974510807953808    0.8189384102362871 H
   0.3460487796923840    0.3348639438740136    0.6880586452227453 H
   0.3039796364758726    0.4245306523656474    0.6197088118273313 H
   0.3357206453103488    0.3779635548911029    0.6469596590784235 H
   0.1555192296711528    0.4151161869879961    0.8119067655376793 H
   0.1976048605376879    0.3255372163643114    0.8803301510306889 H
   0.1658607976390574    0.3720595950626647    0.8530548900655881 H
   0.6691625000000000    0.4730650000000000    0.9982450000000000 O
   0.6418125000000000    0.5106500000000000    0.9427350000000000 O
   0.3218400000000000    0.3561125000000000    0.6837299999999999 O
   0.2963500000000000    0.4125200000000000    0.6399200000000000 O
   0.1797325000000000    0.3938750000000000    0.8162400000000001 O
   0.2052275000000000    0.3375250000000000    0.8601000000000000 O
