Zn16 H188 C318 Br16 N16 O64
1.0
  22.2070000000000007    0.0000000000000000    0.0000000000000014
   0.0000000000000045   28.0159999999999982    0.0000000000000017
   0.0000000000000000    0.0000000000000000   32.3500000000000014
Zn H C Br N O
16 188 318 16 16 64
direct
   0.2499900000000000    0.4507850000000000    0.0000000000000000 Zn
   0.7500100000000000    0.0492150000000000    0.9999950000000000 Zn
   0.7500000000000000    0.4508100000000000    0.9999950000000000 Zn
   0.2500000000000000    0.0491850000000000    0.9999950000000000 Zn
   0.2499900000000000    0.9507850000000000    0.5000000000000000 Zn
   0.7500100000000000    0.5492150000000000    0.4999950000000000 Zn
   0.7500000000000000    0.9508099999999999    0.4999950000000000 Zn
   0.2500000000000000    0.5491850000000000    0.4999950000000000 Zn
   0.2499900000000000    0.9507850000000000    0.0000000000000000 Zn
   0.7500100000000000    0.5492150000000000    0.9999950000000000 Zn
   0.7500000000000000    0.9508099999999999    0.9999950000000000 Zn
   0.2500000000000000    0.5491850000000000    0.9999950000000000 Zn
   0.7500100000000000    0.0492150000000000    0.4999950000000000 Zn
   0.7500000000000000    0.4508100000000000    0.4999950000000000 Zn
   0.2499900000000000    0.4507850000000000    0.5000000000000000 Zn
   0.2500000000000000    0.0491850000000000    0.4999950000000000 Zn
   0.1940836556441555    0.4511773412562977    0.0733935709489934 H
   0.8106300676728267    0.4571666187434728    0.0748714993761034 H
   0.1940942201919114    0.5488268907298861    0.4266200920565459 H
   0.1523500000000000    0.2144600000000000    0.0002900000000000 H
   0.3475600000000000    0.2144800000000000    0.9997000000000000 H
   0.3430000000000000    0.1260900000000000    0.9996000000000000 H
   0.1569500000000000    0.1260650000000000    0.0003450000000000 H
   0.1523500000000000    0.2855250000000000    0.9997000000000000 H
   0.3475700000000000    0.2855050000000000    0.0002950000000000 H
   0.1569500000000000    0.3739200000000000    0.9996600000000000 H
   0.3430000000000000    0.3738950000000000    0.0003600000000000 H
   0.8719400000000000    0.5757300000000000    0.8983250000000000 H
   0.9308800000000000    0.5763550000000000    0.8324500000000000 H
   0.8722000000000000    0.4228350000000000    0.8978999999999999 H
   0.9311400000000000    0.4228350000000000    0.8320200000000000 H
   0.8722000000000000    0.5771750000000000    0.6021050000000000 H
   0.9311400000000000    0.5771750000000000    0.6679900000000000 H
   0.8719200000000000    0.4242800000000000    0.6016900000000001 H
   0.9308500000000000    0.4236550000000000    0.6675700000000000 H
   0.1278200000000000    0.5772000000000000    0.6020900000000000 H
   0.0688800000000000    0.5772250000000000    0.6679700000000000 H
   0.1280600000000000    0.4243050000000000    0.6017000000000000 H
   0.0691100000000000    0.4237100000000000    0.6675750000000000 H
   0.1281300000000000    0.5757350000000000    0.8983250000000000 H
   0.0692000000000000    0.5763900000000000    0.8324450000000000 H
   0.1277700000000000    0.4228400000000000    0.8978850000000000 H
   0.0688300000000000    0.4228700000000000    0.8320050000000000 H
   0.6524400000000000    0.2855200000000000    0.0003750000000000 H
   0.8476500000000000    0.2855450000000000    0.9996250000000000 H
   0.6570000000000000    0.3739100000000000    0.0004200000000000 H
   0.8430500000000000    0.3739400000000000    0.9995849999999999 H
   0.6524400000000000    0.2145000000000000    0.9996149999999999 H
   0.8476500000000000    0.2144750000000000    0.0003750000000000 H
   0.8430500000000000    0.1260800000000000    0.0004200000000000 H
   0.6570000000000000    0.1261100000000000    0.9995700000000001 H
   0.3722200000000000    0.0771650000000000    0.8978800000000000 H
   0.4311700000000000    0.0771300000000000    0.8320050000000000 H
   0.3718600000000000    0.9242699999999999    0.8983200000000000 H
   0.4308100000000000    0.9236150000000001    0.8324450000000000 H
   0.6281200000000000    0.0757450000000000    0.6017000000000000 H
   0.5691800000000000    0.0763700000000000    0.6675750000000000 H
   0.6278100000000000    0.9228499999999999    0.6021100000000000 H
   0.5688600000000000    0.9228499999999999    0.6679500000000000 H
   0.6278300000000000    0.0771800000000000    0.8978850000000000 H
   0.5688900000000000    0.0771750000000000    0.8320000000000001 H
   0.6281400000000000    0.9242850000000000    0.8983000000000000 H
   0.5691900000000000    0.9236550000000000    0.8324250000000000 H
   0.3718900000000000    0.0757100000000000    0.6017200000000000 H
   0.4308300000000000    0.0763150000000000    0.6675949999999999 H
   0.3721700000000000    0.9228149999999999    0.6021050000000000 H
   0.4311100000000000    0.9227950000000000    0.6679850000000001 H
   0.1523500000000000    0.7144600000000000    0.5002900000000000 H
   0.3475600000000000    0.7144800000000000    0.4997000000000000 H
   0.3430000000000000    0.6260900000000000    0.4996000000000000 H
   0.1569500000000000    0.6260650000000000    0.5003450000000000 H
   0.1523500000000000    0.7855250000000000    0.4997000000000000 H
   0.3475700000000000    0.7855050000000000    0.5002950000000000 H
   0.1569500000000000    0.8739200000000000    0.4996600000000000 H
   0.3430000000000000    0.8738950000000000    0.5003600000000000 H
   0.8719400000000000    0.0757300000000000    0.3983250000000000 H
   0.9308800000000000    0.0763550000000000    0.3324500000000000 H
   0.8722000000000000    0.9228350000000001    0.3979000000000000 H
   0.9311400000000000    0.9228350000000001    0.3320200000000000 H
   0.8722000000000000    0.0771750000000000    0.1021050000000000 H
   0.9311400000000000    0.0771750000000000    0.1679900000000000 H
   0.8719200000000000    0.9242800000000000    0.1016900000000000 H
   0.9308500000000000    0.9236550000000000    0.1675700000000000 H
   0.1278200000000000    0.0772000000000000    0.1020900000000000 H
   0.0688800000000000    0.0772250000000000    0.1679700000000000 H
   0.1280600000000000    0.9243049999999999    0.1017000000000000 H
   0.0691100000000000    0.9237100000000000    0.1675750000000000 H
   0.1281300000000000    0.0757350000000000    0.3983250000000000 H
   0.0692000000000000    0.0763900000000000    0.3324450000000000 H
   0.1277700000000000    0.9228400000000000    0.3978850000000000 H
   0.0688300000000000    0.9228700000000001    0.3320050000000000 H
   0.6524400000000000    0.7855200000000000    0.5003750000000000 H
   0.8476500000000000    0.7855449999999999    0.4996250000000000 H
   0.6570000000000000    0.8739100000000000    0.5004200000000000 H
   0.8430500000000000    0.8739399999999999    0.4995850000000000 H
   0.6524400000000000    0.7145000000000000    0.4996150000000000 H
   0.8476500000000000    0.7144750000000000    0.5003750000000000 H
   0.8430500000000000    0.6260800000000000    0.5004200000000000 H
   0.6570000000000000    0.6261099999999999    0.4995700000000000 H
   0.3722200000000000    0.5771650000000000    0.3978800000000000 H
   0.4311700000000000    0.5771300000000000    0.3320050000000000 H
   0.3718600000000000    0.4242700000000000    0.3983200000000000 H
   0.4308100000000000    0.4236150000000000    0.3324450000000000 H
   0.6281200000000000    0.5757450000000000    0.1017000000000000 H
   0.5691800000000000    0.5763700000000000    0.1675750000000000 H
   0.6278100000000000    0.4228500000000000    0.1021100000000000 H
   0.5688600000000000    0.4228500000000000    0.1679500000000000 H
   0.6278300000000000    0.5771800000000000    0.3978850000000000 H
   0.5688900000000000    0.5771750000000000    0.3320000000000000 H
   0.6281400000000000    0.4242850000000000    0.3983000000000000 H
   0.5691900000000000    0.4236550000000000    0.3324250000000000 H
   0.3718900000000000    0.5757099999999999    0.1017200000000000 H
   0.4308300000000000    0.5763150000000000    0.1675950000000000 H
   0.3721700000000000    0.4228150000000000    0.1021050000000000 H
   0.4311100000000000    0.4227950000000000    0.1679850000000000 H
   0.8108024865639665    0.5446298064300045    0.0749923844745809 H
   0.1939132933368779    0.5504916990987496    0.0735587771719753 H
   0.1523500000000000    0.7144600000000000    0.0002900000000000 H
   0.3475600000000000    0.7144800000000000    0.9997000000000000 H
   0.3430000000000000    0.6260900000000000    0.9996000000000000 H
   0.1569500000000000    0.6260650000000000    0.0003450000000000 H
   0.1523500000000000    0.7855250000000000    0.9997000000000000 H
   0.3475700000000000    0.7855050000000000    0.0002950000000000 H
   0.1569500000000000    0.8739200000000000    0.9996600000000000 H
   0.3430000000000000    0.8738950000000000    0.0003600000000000 H
   0.8719400000000000    0.0757300000000000    0.8983250000000000 H
   0.9308800000000000    0.0763550000000000    0.8324500000000000 H
   0.8722000000000000    0.9228350000000001    0.8978999999999999 H
   0.9311400000000000    0.9228350000000001    0.8320200000000000 H
   0.8722000000000000    0.0771750000000000    0.6021050000000000 H
   0.9311400000000000    0.0771750000000000    0.6679900000000000 H
   0.8719200000000000    0.9242800000000000    0.6016900000000001 H
   0.9308500000000000    0.9236550000000000    0.6675700000000000 H
   0.1278200000000000    0.0772000000000000    0.6020900000000000 H
   0.0688800000000000    0.0772250000000000    0.6679700000000000 H
   0.1280600000000000    0.9243049999999999    0.6017000000000000 H
   0.0691100000000000    0.9237100000000000    0.6675750000000000 H
   0.1281300000000000    0.0757350000000000    0.8983250000000000 H
   0.0692000000000000    0.0763900000000000    0.8324450000000000 H
   0.1277700000000000    0.9228400000000000    0.8978850000000000 H
   0.0688300000000000    0.9228700000000001    0.8320050000000000 H
   0.6524400000000000    0.7855200000000000    0.0003750000000000 H
   0.8476500000000000    0.7855449999999999    0.9996250000000000 H
   0.6570000000000000    0.8739100000000000    0.0004200000000000 H
   0.8430500000000000    0.8739399999999999    0.9995849999999999 H
   0.6524400000000000    0.7145000000000000    0.9996149999999999 H
   0.8476500000000000    0.7144750000000000    0.0003750000000000 H
   0.8430500000000000    0.6260800000000000    0.0004200000000000 H
   0.6570000000000000    0.6261099999999999    0.9995700000000001 H
   0.3722200000000000    0.5771650000000000    0.8978800000000000 H
   0.4311700000000000    0.5771300000000000    0.8320050000000000 H
   0.3718600000000000    0.4242700000000000    0.8983200000000000 H
   0.4308100000000000    0.4236150000000000    0.8324450000000000 H
   0.6281200000000000    0.5757450000000000    0.6017000000000000 H
   0.5691800000000000    0.5763700000000000    0.6675750000000000 H
   0.6278100000000000    0.4228500000000000    0.6021100000000000 H
   0.5688600000000000    0.4228500000000000    0.6679500000000000 H
   0.6278300000000000    0.5771800000000000    0.8978850000000000 H
   0.5688900000000000    0.5771750000000000    0.8320000000000001 H
   0.6281400000000000    0.4242850000000000    0.8983000000000000 H
   0.5691900000000000    0.4236550000000000    0.8324250000000000 H
   0.3718900000000000    0.5757099999999999    0.6017200000000000 H
   0.4308300000000000    0.5763150000000000    0.6675949999999999 H
   0.3721700000000000    0.4228150000000000    0.6021050000000000 H
   0.4311100000000000    0.4227950000000000    0.6679850000000001 H
   0.8289495848528214    0.5703370481019457    0.4450557710675282 H
   0.8290406283123380    0.4277389200219160    0.4449913363711236 H
   0.8334244867835958    0.4987829101201463    0.4419410214167271 H
   0.7615972507649453    0.5001815964144375    0.4188331827168350 H
   0.6524400000000000    0.2855200000000000    0.5003750000000000 H
   0.8476500000000000    0.2855450000000000    0.4996250000000000 H
   0.6570000000000000    0.3739100000000000    0.5004200000000000 H
   0.8430500000000000    0.3739400000000000    0.4995850000000000 H
   0.6524400000000000    0.2145000000000000    0.4996150000000000 H
   0.8476500000000000    0.2144750000000000    0.5003750000000000 H
   0.8430500000000000    0.1260800000000000    0.5004200000000000 H
   0.6570000000000000    0.1261100000000000    0.4995700000000000 H
   0.1939103020821220    0.4495143422522077    0.4264467238511136 H
   0.1523500000000000    0.2144600000000000    0.5002900000000000 H
   0.3475600000000000    0.2144800000000000    0.4997000000000000 H
   0.3430000000000000    0.1260900000000000    0.4996000000000000 H
   0.1569500000000000    0.1260650000000000    0.5003450000000000 H
   0.1523500000000000    0.2855250000000000    0.4997000000000000 H
   0.3475700000000000    0.2855050000000000    0.5002950000000000 H
   0.1569500000000000    0.3739200000000000    0.4996600000000000 H
   0.3430000000000000    0.3738950000000000    0.5003600000000000 H
   0.3722200000000000    0.0771650000000000    0.3978800000000000 H
   0.4311700000000000    0.0771300000000000    0.3320050000000000 H
   0.3718600000000000    0.9242699999999999    0.3983200000000000 H
   0.4308100000000000    0.9236150000000001    0.3324450000000000 H
   0.6281200000000000    0.0757450000000000    0.1017000000000000 H
   0.5691800000000000    0.0763700000000000    0.1675750000000000 H
   0.6278100000000000    0.9228499999999999    0.1021100000000000 H
   0.5688600000000000    0.9228499999999999    0.1679500000000000 H
   0.6278300000000000    0.0771800000000000    0.3978850000000000 H
   0.5688900000000000    0.0771750000000000    0.3320000000000000 H
   0.6281400000000000    0.9242850000000000    0.3983000000000000 H
   0.5691900000000000    0.9236550000000000    0.3324250000000000 H
   0.3718900000000000    0.0757100000000000    0.1017200000000000 H
   0.4308300000000000    0.0763150000000000    0.1675950000000000 H
   0.3721700000000000    0.9228149999999999    0.1021050000000000 H
   0.4311100000000000    0.9227950000000000    0.1679850000000000 H
   0.2247177503005170    0.5003653650181842    0.1703144334923666 H
   0.2247213587750896    0.4996202237911115    0.3296811605427215 H
   0.1961400000000000    0.1970800000000000    0.0001500000000000 C
   0.3037900000000000    0.1970900000000000    0.9998350000000000 C
   0.3020600000000000    0.1475550000000000    0.9998300000000000 C
   0.1978900000000000    0.1475400000000000    0.0001700000000000 C
   0.2499600000000000    0.2234950000000000    0.9999950000000000 C
   0.1961400000000000    0.3029050000000000    0.9998400000000001 C
   0.3037900000000000    0.3028950000000000    0.0001600000000000 C
   0.1978900000000000    0.3524450000000000    0.9998250000000000 C
   0.3020600000000000    0.3524350000000000    0.0001500000000000 C
   0.2499600000000000    0.2764900000000000    0.0000000000000000 C
   0.8304300000000000    0.5009050000000000    0.5597150000000000 C
   0.8304300000000000    0.4990950000000000    0.9402900000000001 C
   0.1695800000000000    0.5009100000000000    0.5597200000000000 C
   0.1695900000000000    0.4990900000000000    0.9402500000000000 C
   0.8857300000000000    0.5424750000000000    0.8836900000000000 C
   0.9184400000000000    0.5426500000000000    0.8469949999999999 C
   0.8858700000000000    0.4562300000000000    0.8834550000000000 C
   0.9185900000000000    0.4564000000000000    0.8467549999999999 C
   0.8688300000000000    0.4992600000000000    0.9021500000000000 C
   0.9348000000000000    0.4996050000000000    0.8279900000000000 C
   0.8858600000000000    0.5437800000000000    0.6165550000000000 C
   0.9185800000000000    0.5436100000000000    0.6532550000000000 C
   0.8857000000000000    0.4575350000000000    0.6163250000000000 C
   0.9184200000000000    0.4573600000000000    0.6530199999999999 C
   0.8688100000000000    0.5007400000000000    0.5978650000000000 C
   0.9347800000000001    0.5003900000000000    0.6720250000000000 C
   0.1141400000000000    0.5438100000000000    0.6165400000000000 C
   0.0814200000000000    0.5436550000000000    0.6532400000000000 C
   0.1142700000000000    0.4575650000000000    0.6163250000000000 C
   0.0815500000000000    0.4574050000000000    0.6530199999999999 C
   0.1311700000000000    0.5007600000000000    0.5978550000000000 C
   0.0652100000000000    0.5004400000000000    0.6720200000000001 C
   0.1143200000000000    0.5424900000000000    0.8836900000000000 C
   0.0816100000000000    0.5426800000000001    0.8469900000000000 C
   0.1141200000000000    0.4562400000000000    0.8834450000000000 C
   0.0814000000000000    0.4564300000000000    0.8467450000000001 C
   0.1311800000000000    0.4992650000000000    0.9021500000000000 C
   0.0652300000000000    0.4996450000000000    0.8279799999999999 C
   0.0621300000000000    0.5000750000000000    0.7500000000000000 C
   0.0317800000000000    0.5002500000000000    0.7119550000000000 C
   0.0317900000000000    0.4998450000000000    0.7880499999999999 C
   0.9378700000000000    0.4999850000000000    0.7500050000000000 C
   0.9682200000000000    0.5002050000000000    0.7119600000000000 C
   0.9682300000000000    0.4998050000000000    0.7880499999999999 C
   0.6962200000000000    0.3029100000000000    0.0002000000000000 C
   0.8038700000000000    0.3029250000000000    0.9998000000000000 C
   0.6979500000000000    0.3524500000000000    0.0002100000000000 C
   0.8021100000000000    0.3524600000000000    0.9997900000000000 C
   0.7500500000000000    0.2765100000000000    0.0000000000000000 C
   0.6962200000000000    0.1971100000000000    0.9997500000000000 C
   0.8038700000000000    0.1970950000000000    0.0002000000000000 C
   0.8021200000000001    0.1475600000000000    0.0000000000000000 C
   0.6979500000000000    0.1475700000000000    0.9997800000000000 C
   0.7500500000000000    0.2235100000000000    0.9999950000000000 C
   0.6696000000000000    0.0009100000000000    0.9402850000000000 C
   0.3304100000000000    0.0009050000000000    0.9402850000000000 C
   0.6695900000000000    0.9991000000000000    0.5597200000000000 C
   0.3304100000000000    0.9990850000000000    0.5597250000000000 C
   0.3858800000000000    0.0437650000000000    0.8834450000000000 C
   0.4186000000000000    0.0435700000000000    0.8467450000000001 C
   0.3856700000000000    0.9575150000000000    0.8836850000000001 C
   0.4184000000000000    0.9573250000000000    0.8469500000000000 C
   0.4347900000000000    0.0003450000000000    0.8279850000000000 C
   0.3688200000000000    0.0007300000000000    0.9021450000000000 C
   0.6143200000000000    0.0424900000000000    0.6163300000000000 C
   0.5815900000000001    0.0426650000000000    0.6530250000000000 C
   0.6141400000000000    0.9562450000000000    0.6165550000000000 C
   0.5814200000000000    0.9564150000000000    0.6532550000000000 C
   0.6312000000000000    0.9992700000000000    0.5978650000000000 C
   0.5652199999999999    0.9996250000000000    0.6720200000000001 C
   0.6141700000000000    0.0437850000000000    0.8834400000000000 C
   0.5814400000000000    0.0436100000000000    0.8467450000000001 C
   0.6143300000000000    0.9575350000000000    0.8836700000000000 C
   0.5816100000000000    0.9573600000000000    0.8469750000000000 C
   0.6312100000000000    0.0007400000000000    0.9021350000000000 C
   0.5652400000000000    0.0003900000000000    0.8279799999999999 C
   0.3856900000000000    0.0424500000000000    0.6163400000000000 C
   0.4184100000000000    0.0426150000000000    0.6530350000000000 C
   0.3858400000000000    0.9562050000000000    0.6165550000000000 C
   0.4185600000000000    0.9563650000000000    0.6532550000000000 C
   0.3688100000000000    0.9992400000000000    0.5978650000000000 C
   0.4347700000000000    0.9995700000000001    0.6720300000000000 C
   0.5621400000000000    0.0000250000000000    0.7500000000000000 C
   0.5317800000000000    0.9998050000000001    0.7119550000000000 C
   0.5317900000000000    0.0001900000000000    0.7880499999999999 C
   0.4682300000000000    0.0001500000000000    0.7880499999999999 C
   0.4378700000000000    0.9999250000000000    0.7500100000000001 C
   0.4682200000000000    0.9997600000000000    0.7119600000000000 C
   0.1961400000000000    0.6970800000000000    0.5001500000000000 C
   0.3037900000000000    0.6970900000000000    0.4998350000000000 C
   0.3020600000000000    0.6475550000000000    0.4998300000000000 C
   0.1978900000000000    0.6475400000000000    0.5001700000000000 C
   0.2499600000000000    0.7234950000000000    0.4999950000000000 C
   0.1961400000000000    0.8029050000000000    0.4998400000000000 C
   0.3037900000000000    0.8028950000000000    0.5001600000000000 C
   0.1978900000000000    0.8524450000000000    0.4998250000000000 C
   0.3020600000000000    0.8524350000000001    0.5001500000000000 C
   0.2499600000000000    0.7764900000000000    0.5000000000000000 C
   0.8304300000000000    0.0009050000000000    0.0597150000000000 C
   0.8304300000000000    0.9990950000000001    0.4402900000000000 C
   0.1695800000000000    0.0009100000000000    0.0597200000000000 C
   0.1695900000000000    0.9990900000000000    0.4402500000000000 C
   0.8857300000000000    0.0424750000000000    0.3836900000000000 C
   0.9184400000000000    0.0426500000000000    0.3469950000000000 C
   0.8858700000000000    0.9562300000000000    0.3834550000000000 C
   0.9185900000000000    0.9563999999999999    0.3467550000000000 C
   0.8688300000000000    0.9992600000000000    0.4021500000000000 C
   0.9348000000000000    0.9996050000000001    0.3279900000000000 C
   0.8858600000000000    0.0437800000000000    0.1165550000000000 C
   0.9185800000000000    0.0436100000000000    0.1532550000000000 C
   0.8857000000000000    0.9575350000000000    0.1163250000000000 C
   0.9184200000000000    0.9573600000000000    0.1530200000000000 C
   0.8688100000000000    0.0007400000000000    0.0978650000000000 C
   0.9347800000000001    0.0003900000000000    0.1720250000000000 C
   0.1141400000000000    0.0438100000000000    0.1165400000000000 C
   0.0814200000000000    0.0436550000000000    0.1532400000000000 C
   0.1142700000000000    0.9575650000000000    0.1163250000000000 C
   0.0815500000000000    0.9574050000000001    0.1530200000000000 C
   0.1311700000000000    0.0007600000000000    0.0978550000000000 C
   0.0652100000000000    0.0004400000000000    0.1720200000000000 C
   0.1143200000000000    0.0424900000000000    0.3836900000000000 C
   0.0816100000000000    0.0426800000000000    0.3469900000000000 C
   0.1141200000000000    0.9562400000000000    0.3834450000000000 C
   0.0814000000000000    0.9564300000000000    0.3467450000000000 C
   0.1311800000000000    0.9992650000000001    0.4021500000000000 C
   0.0652300000000000    0.9996450000000000    0.3279800000000000 C
   0.0621300000000000    0.0000750000000000    0.2500000000000000 C
   0.0317800000000000    0.0002500000000000    0.2119550000000000 C
   0.0317900000000000    0.9998450000000000    0.2880500000000000 C
   0.9682200000000000    0.0002050000000000    0.2119600000000000 C
   0.9378700000000000    0.9999850000000000    0.2500050000000000 C
   0.9682300000000000    0.9998050000000001    0.2880500000000000 C
   0.6962200000000000    0.8029100000000000    0.5002000000000000 C
   0.8038700000000000    0.8029250000000000    0.4998000000000000 C
   0.6979500000000000    0.8524499999999999    0.5002100000000000 C
   0.8021100000000000    0.8524600000000000    0.4997900000000000 C
   0.7500500000000000    0.7765100000000000    0.5000000000000000 C
   0.6962200000000000    0.6971100000000000    0.4997500000000000 C
   0.8038700000000000    0.6970950000000000    0.5002000000000000 C
   0.8021200000000001    0.6475600000000000    0.5000000000000000 C
   0.6979500000000000    0.6475700000000000    0.4997800000000000 C
   0.7500500000000000    0.7235100000000000    0.4999950000000000 C
   0.6696000000000000    0.5009100000000000    0.4402850000000000 C
   0.3304100000000000    0.5009050000000000    0.4402850000000000 C
   0.6695900000000000    0.4991000000000000    0.0597200000000000 C
   0.3304100000000000    0.4990850000000000    0.0597250000000000 C
   0.3858800000000000    0.5437650000000001    0.3834450000000000 C
   0.4186000000000000    0.5435700000000000    0.3467450000000000 C
   0.3856700000000000    0.4575150000000000    0.3836850000000000 C
   0.4184000000000000    0.4573250000000000    0.3469500000000000 C
   0.4347900000000000    0.5003450000000000    0.3279850000000000 C
   0.3688200000000000    0.5007300000000000    0.4021450000000000 C
   0.6143200000000000    0.5424900000000000    0.1163300000000000 C
   0.5815900000000001    0.5426650000000000    0.1530250000000000 C
   0.6141400000000000    0.4562450000000000    0.1165550000000000 C
   0.5814200000000000    0.4564150000000000    0.1532550000000000 C
   0.6312000000000000    0.4992700000000000    0.0978650000000000 C
   0.5652199999999999    0.4996250000000000    0.1720200000000000 C
   0.6141700000000000    0.5437850000000000    0.3834400000000000 C
   0.5814400000000000    0.5436100000000000    0.3467450000000000 C
   0.6143300000000000    0.4575350000000000    0.3836700000000000 C
   0.5816100000000000    0.4573600000000000    0.3469750000000000 C
   0.6312100000000000    0.5007400000000000    0.4021350000000000 C
   0.5652400000000000    0.5003900000000000    0.3279800000000000 C
   0.3856900000000000    0.5424500000000000    0.1163400000000000 C
   0.4184100000000000    0.5426150000000000    0.1530350000000000 C
   0.3858400000000000    0.4562050000000000    0.1165550000000000 C
   0.4185600000000000    0.4563650000000000    0.1532550000000000 C
   0.3688100000000000    0.4992400000000000    0.0978650000000000 C
   0.4347700000000000    0.4995700000000000    0.1720300000000000 C
   0.5317800000000000    0.4998050000000000    0.2119550000000000 C
   0.5621400000000000    0.5000250000000001    0.2500000000000000 C
   0.5317900000000000    0.5001900000000000    0.2880500000000000 C
   0.4378700000000000    0.4999250000000000    0.2500100000000000 C
   0.4682300000000000    0.5001500000000000    0.2880500000000000 C
   0.4682200000000000    0.4997600000000000    0.2119600000000000 C
   0.1961400000000000    0.6970800000000000    0.0001500000000000 C
   0.3037900000000000    0.6970900000000000    0.9998350000000000 C
   0.3020600000000000    0.6475550000000000    0.9998300000000000 C
   0.1978900000000000    0.6475400000000000    0.0001700000000000 C
   0.2499600000000000    0.7234950000000000    0.9999950000000000 C
   0.1961400000000000    0.8029050000000000    0.9998400000000001 C
   0.3037900000000000    0.8028950000000000    0.0001600000000000 C
   0.1978900000000000    0.8524450000000000    0.9998250000000000 C
   0.3020600000000000    0.8524350000000001    0.0001500000000000 C
   0.2499600000000000    0.7764900000000000    0.0000000000000000 C
   0.8304300000000000    0.0009050000000000    0.5597150000000000 C
   0.8304300000000000    0.9990950000000001    0.9402900000000001 C
   0.1695800000000000    0.0009100000000000    0.5597200000000000 C
   0.1695900000000000    0.9990900000000000    0.9402500000000000 C
   0.8857300000000000    0.0424750000000000    0.8836900000000000 C
   0.9184400000000000    0.0426500000000000    0.8469949999999999 C
   0.8858700000000000    0.9562300000000000    0.8834550000000000 C
   0.9185900000000000    0.9563999999999999    0.8467549999999999 C
   0.8688300000000000    0.9992600000000000    0.9021500000000000 C
   0.9348000000000000    0.9996050000000001    0.8279900000000000 C
   0.8858600000000000    0.0437800000000000    0.6165550000000000 C
   0.9185800000000000    0.0436100000000000    0.6532550000000000 C
   0.8857000000000000    0.9575350000000000    0.6163250000000000 C
   0.9184200000000000    0.9573600000000000    0.6530199999999999 C
   0.8688100000000000    0.0007400000000000    0.5978650000000000 C
   0.9347800000000001    0.0003900000000000    0.6720250000000000 C
   0.1141400000000000    0.0438100000000000    0.6165400000000000 C
   0.0814200000000000    0.0436550000000000    0.6532400000000000 C
   0.1142700000000000    0.9575650000000000    0.6163250000000000 C
   0.0815500000000000    0.9574050000000001    0.6530199999999999 C
   0.1311700000000000    0.0007600000000000    0.5978550000000000 C
   0.0652100000000000    0.0004400000000000    0.6720200000000001 C
   0.1143200000000000    0.0424900000000000    0.8836900000000000 C
   0.0816100000000000    0.0426800000000000    0.8469900000000000 C
   0.1141200000000000    0.9562400000000000    0.8834450000000000 C
   0.0814000000000000    0.9564300000000000    0.8467450000000001 C
   0.1311800000000000    0.9992650000000001    0.9021500000000000 C
   0.0652300000000000    0.9996450000000000    0.8279799999999999 C
   0.0621300000000000    0.0000750000000000    0.7500000000000000 C
   0.0317800000000000    0.0002500000000000    0.7119550000000000 C
   0.0317900000000000    0.9998450000000000    0.7880499999999999 C
   0.9682200000000000    0.0002050000000000    0.7119600000000000 C
   0.9378700000000000    0.9999850000000000    0.7500050000000000 C
   0.9682300000000000    0.9998050000000001    0.7880499999999999 C
   0.6962200000000000    0.8029100000000000    0.0002000000000000 C
   0.8038700000000000    0.8029250000000000    0.9998000000000000 C
   0.6979500000000000    0.8524499999999999    0.0002100000000000 C
   0.8021100000000000    0.8524600000000000    0.9997900000000000 C
   0.7500500000000000    0.7765100000000000    0.0000000000000000 C
   0.6962200000000000    0.6971100000000000    0.9997500000000000 C
   0.8038700000000000    0.6970950000000000    0.0002000000000000 C
   0.8021200000000001    0.6475600000000000    0.0000000000000000 C
   0.6979500000000000    0.6475700000000000    0.9997800000000000 C
   0.7500500000000000    0.7235100000000000    0.9999950000000000 C
   0.6696000000000000    0.5009100000000000    0.9402850000000000 C
   0.3304100000000000    0.5009050000000000    0.9402850000000000 C