H4 O2
1.0
  22.2070000000000007    0.0000000000000000    0.0000000000000014
   0.0000000000000045   28.0159999999999982    0.0000000000000017
   0.0000000000000000    0.0000000000000000   32.3500000000000014
H O
4 2
direct
   0.7879096153829098    0.3591498317315727    0.4998472596153915 H
   0.7121544147309399    0.3591444577490576    0.5001527241341495 H
   0.7879152302188763    0.1408550026895643    0.5001513603270280 H
   0.7121544379924709    0.1408755312879186    0.4998386396729720 H
   0.7500300000000000    0.3769950000000000    0.5000000000000000 O
   0.7500300000000000    0.1230250000000000    0.4999950000000000 O
