H12 O8
1.0
  22.2070000000000007    0.0000000000000000    0.0000000000000014
   0.0000000000000045   28.0159999999999982    0.0000000000000017
   0.0000000000000000    0.0000000000000000   32.3500000000000014
H O
12 8
direct
   0.8106300676728267    0.4571666187434728    0.0748714993761034 H
   0.8108024865639665    0.5446298064300045    0.0749923844745809 H
   0.8289495848528214    0.5703370481019457    0.4450557710675282 H
   0.8290406283123380    0.4277389200219160    0.4449913363711236 H
   0.8334244867835958    0.4987829101201463    0.4419410214167271 H
   0.7615972507649453    0.5001815964144375    0.4188331827168350 H
   0.1940836556441555    0.4511773412562977    0.0733935709489934 H
   0.1939132933368779    0.5504916990987496    0.0735587771719753 H
   0.2247177503005170    0.5003653650181842    0.1703144334923666 H
   0.1939103020821220    0.4495143422522077    0.4264467238511136 H
   0.1940942201919114    0.5488268907298861    0.4266200920565459 H
   0.2247213587750896    0.4996202237911115    0.3296811605427215 H
   0.8148800000000000    0.4604500000000000    0.0451650000000000 O
   0.8150400000000000    0.5414700000000000    0.0452750000000000 O
   0.8148900000000000    0.5395650000000000    0.4548400000000000 O
   0.8150400000000000    0.4585450000000000    0.4547350000000000 O
   0.1851100000000000    0.4604550000000000    0.0451700000000000 O
   0.1849600000000000    0.5414700000000000    0.0452700000000000 O
   0.1849600000000000    0.4585400000000000    0.4547350000000000 O
   0.1851200000000000    0.5395550000000000    0.4548450000000000 O
