H8 C10 N2
1.0
  22.2070000000000007    0.0000000000000000    0.0000000000000014
   0.0000000000000045   28.0159999999999982    0.0000000000000017
   0.0000000000000000    0.0000000000000000   32.3500000000000014
H C N
8 10 2
direct
   0.8430500000000000    0.3739400000000000    0.4995850000000000 H
   0.8476500000000000    0.2855450000000000    0.4996250000000000 H
   0.6570000000000000    0.1261100000000000    0.4995700000000000 H
   0.6524400000000000    0.2145000000000000    0.4996150000000000 H
   0.6570000000000000    0.3739100000000000    0.5004200000000000 H
   0.6524400000000000    0.2855200000000000    0.5003750000000000 H
   0.8430500000000000    0.1260800000000000    0.5004200000000000 H
   0.8476500000000000    0.2144750000000000    0.5003750000000000 H
   0.7500500000000000    0.2235100000000000    0.4999950000000000 C
   0.8021100000000000    0.3524600000000000    0.4997900000000000 C
   0.8038700000000000    0.3029250000000000    0.4998000000000000 C
   0.6979500000000000    0.1475700000000000    0.4997800000000000 C
   0.6962200000000000    0.1971100000000000    0.4997500000000000 C
   0.7500500000000000    0.2765100000000000    0.5000000000000000 C
   0.6979500000000000    0.3524500000000000    0.5002100000000000 C
   0.6962200000000000    0.3029100000000000    0.5002000000000000 C
   0.8021200000000001    0.1475600000000000    0.5000000000000000 C
   0.8038700000000000    0.1970950000000000    0.5002000000000000 C
   0.7500300000000000    0.1230250000000000    0.4999950000000000 N
   0.7500300000000000    0.3769950000000000    0.5000000000000000 N
