H6 O4
1.0
  37.0630574832856894    0.0000000000000000   -3.0458355160219686
  -1.9419506547423719   19.5624806354538343   -4.4363935851138558
   0.0000000000000000    0.0000000000000000   20.2250000000000014
H O
6 4
direct
   0.0402206155739102    0.0932018399690781    0.7638704750819350 H
   0.1273777714766776    0.0300588751386450    0.6761535721801356 H
   0.0849841808130048    0.0572528809704845    0.7244726474763216 H
   0.0907016041401119    0.9908275130393005    0.1278641916959531 H
   0.1561781167423213    0.8693126106285899    0.0285540212138411 H
   0.1246307910908597    0.9262752736578173    0.0678587636164659 H
   0.0568466666666667    0.0923100000000000    0.7292200000000000 O
   0.1064766666666667    0.0561000000000000    0.6796800000000000 O
   0.1098400000000000    0.9609500000000000    0.1292500000000000 O
   0.1463300000000000    0.8924000000000000    0.0694300000000000 O
