H6 C12 O4
1.0
  37.0630574832856894    0.0000000000000000   -3.0458355160219686
  -1.9419506547423719   19.5624806354538343   -4.4363935851138558
   0.0000000000000000    0.0000000000000000   20.2250000000000014
H C O
6 12 4
direct
   0.0503833333333333    0.0609500000000000    0.8395500000000000 H
   0.0416300000000000    0.0446100000000000    0.9545000000000000 H
   0.0632866666666667    0.0020000000000000    0.0564900000000000 H
   0.1536966666666666    0.9233000000000000    0.9561500000000001 H
   0.1638633333333333    0.9441800000000000    0.8416400000000001 H
   0.1440466666666667    0.9927400000000000    0.7430000000000000 H
   0.0855066666666667    0.0612900000000000    0.7271900000000000 C
   0.0959933333333333    0.0300500000000000    0.7856000000000000 C
   0.0752533333333333    0.0357800000000000    0.8401200000000000 C
   0.0860766666666667    0.0099700000000000    0.8975100000000000 C
   0.0661300000000000    0.0182000000000000    0.9553000000000000 C
   0.0779200000000000    0.9944200000000000    0.0113500000000000 C
   0.1293300000000000    0.9500000000000000    0.9552600000000000 C
   0.1390966666666666    0.9698400000000000    0.8409500000000000 C
   0.1282400000000000    0.9965600000000000    0.7864400000000000 C
   0.1097133333333333    0.9594900000000000    0.0113800000000000 C
   0.1231633333333333    0.9348700000000000    0.0725100000000000 C
   0.1185733333333333    0.9758300000000000    0.8979100000000000 C
   0.1064766666666667    0.0561000000000000    0.6796800000000000 O
   0.0568466666666667    0.0923100000000000    0.7292200000000000 O
   0.1098400000000000    0.9609500000000000    0.1292500000000000 O
   0.1463300000000000    0.8924000000000000    0.0694300000000000 O
