Zn24 H278 C354 N44 O97
1.0
  37.0630574832856894    0.0000000000000000   -3.0458355160219686
  -1.9419506547423719   19.5624806354538343   -4.4363935851138558
   0.0000000000000000    0.0000000000000000   20.2250000000000014
Zn H C N O
24 278 354 44 97
direct
   0.0029266666666667    0.3495700000000000    0.0858000000000000 Zn
   0.9722466666666666    0.2000200000000000    0.9267700000000000 Zn
   0.6695933333333333    0.3495700000000000    0.0858000000000000 Zn
   0.6389133333333332    0.2000200000000000    0.9267700000000000 Zn
   0.3362600000000000    0.3495700000000000    0.0858000000000000 Zn
   0.3055800000000000    0.2000200000000000    0.9267700000000000 Zn
   0.1018500000000000    0.1140500000000000    0.6087000000000000 Zn
   0.4351833333333333    0.1140500000000000    0.6087000000000000 Zn
   0.7685166666666666    0.1140500000000000    0.6087000000000000 Zn
   0.1696000000000000    0.0853300000000000    0.3498400000000000 Zn
   0.1389300000000000    0.9279300000000000    0.1981800000000000 Zn
   0.5029333333333333    0.0853300000000000    0.3498400000000000 Zn
   0.4722633333333333    0.9279300000000000    0.1981800000000000 Zn
   0.8362666666666666    0.0853300000000000    0.3498400000000000 Zn
   0.8055966666666666    0.9279300000000000    0.1981800000000000 Zn
   0.6018366666666666    0.6088900000000000    0.1138900000000000 Zn
   0.2685033333333333    0.6088900000000000    0.1138900000000000 Zn
   0.9351699999999999    0.6088900000000000    0.1138900000000000 Zn
   0.8720866666666667    0.6640700000000000    0.1502000000000000 Zn
   0.2054200000000000    0.6640700000000000    0.1502000000000000 Zn
   0.5387533333333333    0.6640700000000000    0.1502000000000000 Zn
   0.0387066666666667    0.1505200000000000    0.6630000000000000 Zn
   0.3720400000000000    0.1505200000000000    0.6630000000000000 Zn
   0.7053733333333333    0.1505200000000000    0.6630000000000000 Zn
   0.8290026078216526    0.7617940253430479    0.1765321111119436 H
   0.8039167268009443    0.6933869225477863    0.1430936078260851 H
   0.4546466666666666    0.6283200000000000    0.1250700000000000 H
   0.4652600000000000    0.6888200000000000    0.0750000000000000 H
   0.4394633333333333    0.7973300000000000    0.0973300000000000 H
   0.4094833333333333    0.8151100000000000    0.1626000000000000 H
   0.4155400000000000    0.6532600000000000    0.2124100000000000 H
   0.3962066666666667    0.7333100000000000    0.2293600000000000 H
   0.4792233333333333    0.6500800000000000    0.2431800000000000 H
   0.5071633333333333    0.7272200000000000    0.2810600000000000 H
   0.4337400000000000    0.8371800000000000    0.2813800000000000 H
   0.4809966666666666    0.8343200000000000    0.3032600000000000 H
   0.5031033333333333    0.7944000000000000    0.1265900000000000 H
   0.5212800000000000    0.8098500000000000    0.2135100000000000 H
   0.1213133333333333    0.6283200000000000    0.1250700000000000 H
   0.1319266666666667    0.6888200000000000    0.0750000000000000 H
   0.1061300000000000    0.7973300000000000    0.0973300000000000 H
   0.0761500000000000    0.8151100000000000    0.1626000000000000 H
   0.0822066666666667    0.6532600000000000    0.2124100000000000 H
   0.0628733333333333    0.7333100000000000    0.2293600000000000 H
   0.1458900000000000    0.6500800000000000    0.2431800000000000 H
   0.1738300000000000    0.7272200000000000    0.2810600000000000 H
   0.1004066666666667    0.8371800000000000    0.2813800000000000 H
   0.1476633333333333    0.8343200000000000    0.3032600000000000 H
   0.1697700000000000    0.7944000000000000    0.1265900000000000 H
   0.1879466666666667    0.8098500000000000    0.2135100000000000 H
   0.9545866666666666    0.1254600000000000    0.6278000000000000 H
   0.9652966666666666    0.0755600000000000    0.6884200000000000 H
   0.9395233333333333    0.0984100000000000    0.7964500000000000 H
   0.9094933333333333    0.1640700000000000    0.8137300000000000 H
   0.9154466666666666    0.2132500000000000    0.6521100000000000 H
   0.8961066666666666    0.2306400000000000    0.7317200000000000 H
   0.9790599999999999    0.2438800000000000    0.6491500000000000 H
   0.0070133333333333    0.2820700000000000    0.7260700000000000 H
   0.9336533333333332    0.2831000000000000    0.8353900000000000 H
   0.9808933333333333    0.3048600000000000    0.8326700000000000 H
   0.0031366666666667    0.1275000000000000    0.7937100000000000 H
   0.0212433333333333    0.2146300000000000    0.8088600000000000 H
   0.6212533333333332    0.1254600000000000    0.6278000000000000 H
   0.6319633333333332    0.0755600000000000    0.6884200000000000 H
   0.6061900000000000    0.0984100000000000    0.7964500000000000 H
   0.5761600000000000    0.1640700000000000    0.8137300000000000 H
   0.5821133333333333    0.2132500000000000    0.6521100000000000 H
   0.5627733333333333    0.2306400000000000    0.7317200000000000 H
   0.6457266666666666    0.2438800000000000    0.6491500000000000 H
   0.6736799999999999    0.2820700000000000    0.7260700000000000 H
   0.6003200000000000    0.2831000000000000    0.8353900000000000 H
   0.6475599999999999    0.3048600000000000    0.8326700000000000 H
   0.6698033333333333    0.1275000000000000    0.7937100000000000 H
   0.6879099999999999    0.2146300000000000    0.8088600000000000 H
   0.2879200000000000    0.1254600000000000    0.6278000000000000 H
   0.2986300000000000    0.0755600000000000    0.6884200000000000 H
   0.2728566666666666    0.0984100000000000    0.7964500000000000 H
   0.2428266666666667    0.1640700000000000    0.8137300000000000 H
   0.2487800000000000    0.2132500000000000    0.6521100000000000 H
   0.2294400000000000    0.2306400000000000    0.7317200000000000 H
   0.3123933333333333    0.2438800000000000    0.6491500000000000 H
   0.3403466666666666    0.2820700000000000    0.7260700000000000 H
   0.2669866666666666    0.2831000000000000    0.8353900000000000 H
   0.3142266666666667    0.3048600000000000    0.8326700000000000 H
   0.3364700000000000    0.1275000000000000    0.7937100000000000 H
   0.3545766666666667    0.2146300000000000    0.8088600000000000 H
   0.0194233333333333    0.6482400000000000    0.1218300000000000 H
   0.0128900000000000    0.5970600000000000    0.1824500000000000 H
   0.0663000000000000    0.4629400000000000    0.1006300000000000 H
   0.0404333333333333    0.4899500000000000    0.1700000000000000 H
   0.0741300000000000    0.5331500000000000    0.0189200000000000 H
   0.0540800000000000    0.6120800000000000    0.0291100000000000 H
   0.9893333333333333    0.6109599999999999    0.0072700000000000 H
   0.9614366666666666    0.5317499999999999    0.9830000000000000 H
   0.9885699999999999    0.4257200000000000    0.9702800000000000 H
   0.0365766666666667    0.4260000000000000    0.9858900000000000 H
   0.9749433333333333    0.4898400000000000    0.1494900000000000 H
   0.9529733333333332    0.4621600000000000    0.0652000000000000 H
   0.1283800000000000    0.5195200000000000    0.0149300000000000 H
   0.0892033333333333    0.4292900000000000    0.9281600000000000 H
   0.2235300000000000    0.4528800000000000    0.9255100000000001 H
   0.1786400000000000    0.2695000000000000    0.7336400000000000 H
   0.2177633333333333    0.3589400000000000    0.8205600000000000 H
   0.0836666666666667    0.3318000000000000    0.8265600000000000 H
   0.6860900000000000    0.6482400000000000    0.1218300000000000 H
   0.6795566666666666    0.5970600000000000    0.1824500000000000 H
   0.7329666666666667    0.4629400000000000    0.1006300000000000 H
   0.7071000000000000    0.4899500000000000    0.1700000000000000 H
   0.7407966666666667    0.5331500000000000    0.0189200000000000 H
   0.7207466666666666    0.6120800000000000    0.0291100000000000 H
   0.6559999999999999    0.6109599999999999    0.0072700000000000 H
   0.6281033333333332    0.5317499999999999    0.9830000000000000 H
   0.6552366666666667    0.4257200000000000    0.9702800000000000 H
   0.7032433333333333    0.4260000000000000    0.9858900000000000 H
   0.6416100000000000    0.4898400000000000    0.1494900000000000 H
   0.6196400000000000    0.4621600000000000    0.0652000000000000 H
   0.7950466666666667    0.5195200000000000    0.0149300000000000 H
   0.7558699999999999    0.4292900000000000    0.9281600000000000 H
   0.8901966666666666    0.4528800000000000    0.9255100000000001 H
   0.8453066666666667    0.2695000000000000    0.7336400000000000 H
   0.8844299999999999    0.3589400000000000    0.8205600000000000 H
   0.7503333333333333    0.3318000000000000    0.8265600000000000 H
   0.3527566666666667    0.6482400000000000    0.1218300000000000 H
   0.3462233333333333    0.5970600000000000    0.1824500000000000 H
   0.3996333333333333    0.4629400000000000    0.1006300000000000 H
   0.3737666666666666    0.4899500000000000    0.1700000000000000 H
   0.4074633333333333    0.5331500000000000    0.0189200000000000 H
   0.3874133333333333    0.6120800000000000    0.0291100000000000 H
   0.3226666666666667    0.6109599999999999    0.0072700000000000 H
   0.2947700000000000    0.5317499999999999    0.9830000000000000 H
   0.3219033333333333    0.4257200000000000    0.9702800000000000 H
   0.3699100000000000    0.4260000000000000    0.9858900000000000 H
   0.3082766666666666    0.4898400000000000    0.1494900000000000 H
   0.2863066666666667    0.4621600000000000    0.0652000000000000 H
   0.4617133333333333    0.5195200000000000    0.0149300000000000 H
   0.4225366666666667    0.4292900000000000    0.9281600000000000 H
   0.5568633333333333    0.4528800000000000    0.9255100000000001 H
   0.5119733333333333    0.2695000000000000    0.7336400000000000 H
   0.5510966666666667    0.3589400000000000    0.8205600000000000 H
   0.4170000000000000    0.3318000000000000    0.8265600000000000 H
   0.5194600000000000    0.1220700000000000    0.6478600000000000 H
   0.5127900000000000    0.1827600000000000    0.5966700000000000 H
   0.5661766666666667    0.1002800000000000    0.4633400000000000 H
   0.5402533333333333    0.1699900000000000    0.4900200000000000 H
   0.5741700000000000    0.0184300000000000    0.5335800000000001 H
   0.5541499999999999    0.0289000000000000    0.6121400000000000 H
   0.4894499999999999    0.0071500000000000    0.6108000000000000 H
   0.4614966666666667    0.9827800000000000    0.5318000000000001 H
   0.5365166666666666    0.9852100000000000    0.4265800000000000 H
   0.4885200000000000    0.9697500000000000    0.4262400000000000 H
   0.4528600000000000    0.0651500000000000    0.4621900000000000 H
   0.4747766666666666    0.1496300000000000    0.4897500000000000 H
   0.6284000000000000    0.0153200000000000    0.5188100000000000 H
   0.5892599999999999    0.9286100000000000    0.4285100000000000 H
   0.7236199999999999    0.9257900000000000    0.4523500000000000 H
   0.6787933333333332    0.7337600000000000    0.2689700000000000 H
   0.7179099999999999    0.8207900000000000    0.3582600000000000 H
   0.5837500000000000    0.8268799999999999    0.3312200000000000 H
   0.8527933333333333    0.1220700000000000    0.6478600000000000 H
   0.8461233333333333    0.1827600000000000    0.5966700000000000 H
   0.8995099999999999    0.1002800000000000    0.4633400000000000 H
   0.8735866666666666    0.1699900000000000    0.4900200000000000 H
   0.9075033333333333    0.0184300000000000    0.5335800000000001 H
   0.8874833333333333    0.0289000000000000    0.6121400000000000 H
   0.8227833333333333    0.0071500000000000    0.6108000000000000 H
   0.7948299999999999    0.9827800000000000    0.5318000000000001 H
   0.8698500000000000    0.9852100000000000    0.4265800000000000 H
   0.8218533333333333    0.9697500000000000    0.4262400000000000 H
   0.7861933333333333    0.0651500000000000    0.4621900000000000 H
   0.8081099999999999    0.1496300000000000    0.4897500000000000 H
   0.9617333333333333    0.0153200000000000    0.5188100000000000 H
   0.9225933333333333    0.9286100000000000    0.4285100000000000 H
   0.0569533333333333    0.9257900000000000    0.4523500000000000 H
   0.0121266666666667    0.7337600000000000    0.2689700000000000 H
   0.0512433333333333    0.8207900000000000    0.3582600000000000 H
   0.9170833333333333    0.8268799999999999    0.3312200000000000 H
   0.1861266666666667    0.1220700000000000    0.6478600000000000 H
   0.1794566666666667    0.1827600000000000    0.5966700000000000 H
   0.2328433333333333    0.1002800000000000    0.4633400000000000 H
   0.2069200000000000    0.1699900000000000    0.4900200000000000 H
   0.2408366666666666    0.0184300000000000    0.5335800000000001 H
   0.2208166666666667    0.0289000000000000    0.6121400000000000 H
   0.1561166666666667    0.0071500000000000    0.6108000000000000 H
   0.1281633333333333    0.9827800000000000    0.5318000000000001 H
   0.2031833333333333    0.9852100000000000    0.4265800000000000 H
   0.1551866666666666    0.9697500000000000    0.4262400000000000 H
   0.1195266666666667    0.0651500000000000    0.4621900000000000 H
   0.1414433333333333    0.1496300000000000    0.4897500000000000 H
   0.2950666666666666    0.0153200000000000    0.5188100000000000 H
   0.2559266666666666    0.9286100000000000    0.4285100000000000 H
   0.3902866666666667    0.9257900000000000    0.4523500000000000 H
   0.3454600000000000    0.7337600000000000    0.2689700000000000 H
   0.3845766666666667    0.8207900000000000    0.3582600000000000 H
   0.2504166666666666    0.8268799999999999    0.3312200000000000 H
   0.9942266666666666    0.2575200000000000    0.5090400000000000 H
   0.9801366666666667    0.3034000000000000    0.4063500000000000 H
   0.0997133333333333    0.2162500000000000    0.4479300000000000 H
   0.1043166666666667    0.2873800000000000    0.2374100000000000 H
   0.1175400000000000    0.2382400000000000    0.3387700000000000 H
   0.9989899999999999    0.3302000000000000    0.2987100000000000 H
   0.0801100000000000    0.1789600000000000    0.8841000000000000 H
   0.1460633333333333    0.1777900000000000    0.8760100000000000 H
   0.0993566666666667    0.3403000000000000    0.0659500000000000 H
   0.2286500000000000    0.3841200000000000    0.1054900000000000 H
   0.1625966666666667    0.3854200000000000    0.1132200000000000 H
   0.2096633333333333    0.2262200000000000    0.9213300000000000 H
   0.9771099999999999    0.7431300000000000    0.9929400000000000 H
   0.9968766666666666    0.8415100000000000    0.9439400000000000 H
   0.9867966666666665    0.9562800000000000    0.9225700000000000 H
   0.8968066666666666    0.0585300000000000    0.0009600000000000 H
   0.8752166666666666    0.9569800000000001    0.0442900000000000 H
   0.8838033333333333    0.8414800000000000    0.0610100000000000 H
   0.6608933333333333    0.2575200000000000    0.5090400000000000 H
   0.6468033333333333    0.3034000000000000    0.4063500000000000 H
   0.7663800000000000    0.2162500000000000    0.4479300000000000 H
   0.7709833333333334    0.2873800000000000    0.2374100000000000 H
   0.7842066666666666    0.2382400000000000    0.3387700000000000 H
   0.6656566666666666    0.3302000000000000    0.2987100000000000 H
   0.7467766666666666    0.1789600000000000    0.8841000000000000 H
   0.8127300000000000    0.1777900000000000    0.8760100000000000 H
   0.7660233333333333    0.3403000000000000    0.0659500000000000 H
   0.8953166666666665    0.3841200000000000    0.1054900000000000 H
   0.8292633333333332    0.3854200000000000    0.1132200000000000 H
   0.8763299999999999    0.2262200000000000    0.9213300000000000 H
   0.6437766666666667    0.7431300000000000    0.9929400000000000 H
   0.6635433333333334    0.8415100000000000    0.9439400000000000 H
   0.6534633333333333    0.9562800000000000    0.9225700000000000 H
   0.5634733333333333    0.0585300000000000    0.0009600000000000 H
   0.5418833333333333    0.9569800000000001    0.0442900000000000 H
   0.5504700000000000    0.8414800000000000    0.0610100000000000 H
   0.3275600000000000    0.2575200000000000    0.5090400000000000 H
   0.3134700000000000    0.3034000000000000    0.4063500000000000 H
   0.4330466666666666    0.2162500000000000    0.4479300000000000 H
   0.4376500000000000    0.2873800000000000    0.2374100000000000 H
   0.4508733333333333    0.2382400000000000    0.3387700000000000 H
   0.3323233333333333    0.3302000000000000    0.2987100000000000 H
   0.4134433333333333    0.1789600000000000    0.8841000000000000 H
   0.4793966666666666    0.1777900000000000    0.8760100000000000 H
   0.4326900000000000    0.3403000000000000    0.0659500000000000 H
   0.5619833333333333    0.3841200000000000    0.1054900000000000 H
   0.4959300000000000    0.3854200000000000    0.1132200000000000 H
   0.5429966666666667    0.2262200000000000    0.9213300000000000 H
   0.3104433333333333    0.7431300000000000    0.9929400000000000 H
   0.3302100000000000    0.8415100000000000    0.9439400000000000 H
   0.3201300000000000    0.9562800000000000    0.9225700000000000 H
   0.2301400000000000    0.0585300000000000    0.0009600000000000 H
   0.2085500000000000    0.9569800000000001    0.0442900000000000 H
   0.2171366666666667    0.8414800000000000    0.0610100000000000 H
   0.1610133333333333    0.5093200000000000    0.2564600000000000 H
   0.1469366666666667    0.4066200000000000    0.3025300000000000 H
   0.2663666666666666    0.4468800000000000    0.2155000000000000 H
   0.2710500000000000    0.2361700000000000    0.2875100000000000 H
   0.2841666666666667    0.3373500000000000    0.2378300000000000 H
   0.1658166666666667    0.2986600000000000    0.3297600000000000 H
   0.2467933333333333    0.8855000000000000    0.1778800000000000 H
   0.3127766666666666    0.8776200000000000    0.1764200000000000 H
   0.3763433333333333    0.9229300000000000    0.2248400000000000 H
   0.3952100000000000    0.1054400000000000    0.3850200000000000 H
   0.3291366666666666    0.1126500000000000    0.3869000000000000 H
   0.2658966666666667    0.0655200000000000    0.3414400000000000 H
   0.0632866666666667    0.0020000000000000    0.0564900000000000 H
   0.0416300000000000    0.0446100000000000    0.9545000000000000 H
   0.0503833333333333    0.0609500000000000    0.8395500000000000 H
   0.1440466666666667    0.9927400000000000    0.7430000000000000 H
   0.1638633333333333    0.9441800000000000    0.8416400000000001 H
   0.1536966666666666    0.9233000000000000    0.9561500000000001 H
   0.4943466666666667    0.5093200000000000    0.2564600000000000 H
   0.4802700000000000    0.4066200000000000    0.3025300000000000 H
   0.5996999999999999    0.4468800000000000    0.2155000000000000 H
   0.6043833333333333    0.2361700000000000    0.2875100000000000 H
   0.6174999999999999    0.3373500000000000    0.2378300000000000 H
   0.4991500000000000    0.2986600000000000    0.3297600000000000 H
   0.5801266666666667    0.8855000000000000    0.1778800000000000 H
   0.6461100000000000    0.8776200000000000    0.1764200000000000 H
   0.7096766666666666    0.9229300000000000    0.2248400000000000 H
   0.7285433333333333    0.1054400000000000    0.3850200000000000 H
   0.6624699999999999    0.1126500000000000    0.3869000000000000 H
   0.5992299999999999    0.0655200000000000    0.3414400000000000 H
   0.3966200000000000    0.0020000000000000    0.0564900000000000 H
   0.3749633333333333    0.0446100000000000    0.9545000000000000 H
   0.3837166666666667    0.0609500000000000    0.8395500000000000 H
   0.4773800000000000    0.9927400000000000    0.7430000000000000 H
   0.4971966666666666    0.9441800000000000    0.8416400000000001 H
   0.4870300000000000    0.9233000000000000    0.9561500000000001 H
   0.8276800000000000    0.5093200000000000    0.2564600000000000 H
   0.8136033333333332    0.4066200000000000    0.3025300000000000 H
   0.9330333333333333    0.4468800000000000    0.2155000000000000 H
   0.9377166666666666    0.2361700000000000    0.2875100000000000 H
   0.9508333333333333    0.3373500000000000    0.2378300000000000 H
   0.8324833333333332    0.2986600000000000    0.3297600000000000 H
   0.9134599999999999    0.8855000000000000    0.1778800000000000 H
   0.9794433333333332    0.8776200000000000    0.1764200000000000 H
   0.0430100000000000    0.9229300000000000    0.2248400000000000 H
   0.0618766666666667    0.1054400000000000    0.3850200000000000 H
   0.9958033333333333    0.1126500000000000    0.3869000000000000 H
   0.9325633333333333    0.0655200000000000    0.3414400000000000 H
   0.7299533333333332    0.0020000000000000    0.0564900000000000 H
   0.7082966666666666    0.0446100000000000    0.9545000000000000 H
   0.7170500000000000    0.0609500000000000    0.8395500000000000 H
   0.8107133333333333    0.9927400000000000    0.7430000000000000 H
   0.8305300000000000    0.9441800000000000    0.8416400000000001 H
   0.8203633333333333    0.9233000000000000    0.9561500000000001 H
   0.4592133333333333    0.6829100000000000    0.1258100000000000 C
   0.4334399999999999    0.7892800000000000    0.1473900000000000 C
   0.4203733333333333    0.7081200000000000    0.2143400000000000 C
   0.4833999999999999    0.7049200000000000    0.2449000000000000 C
   0.4575700000000000    0.8109300000000000    0.2665700000000000 C
   0.4976900000000000    0.7873300000000000    0.1771500000000000 C
   0.1258800000000000    0.6829100000000000    0.1258100000000000 C
   0.1001066666666666    0.7892800000000000    0.1473900000000000 C
   0.0870400000000000    0.7081200000000000    0.2143400000000000 C
   0.1500666666666667    0.7049200000000000    0.2449000000000000 C
   0.1242366666666667    0.8109300000000000    0.2665700000000000 C
   0.1643566666666667    0.7873300000000000    0.1771500000000000 C
   0.9591933333333333    0.1264200000000000    0.6822900000000000 C
   0.9334600000000000    0.1485900000000000    0.7881800000000000 C
   0.9202866666666666    0.2154000000000000    0.7068400000000000 C
   0.9832766666666666    0.2458100000000000    0.7038700000000000 C
   0.9574866666666666    0.2680500000000000    0.8094000000000000 C
   0.9976833333333333    0.1781800000000000    0.7864300000000000 C
   0.6258600000000000    0.1264200000000000    0.6822900000000000 C
   0.6001266666666667    0.1485900000000000    0.7881800000000000 C
   0.5869533333333332    0.2154000000000000    0.7068400000000000 C
   0.6499433333333333    0.2458100000000000    0.7038700000000000 C
   0.6241533333333333    0.2680500000000000    0.8094000000000000 C
   0.6643500000000000    0.1781800000000000    0.7864300000000000 C
   0.2925266666666667    0.1264200000000000    0.6822900000000000 C
   0.2667933333333333    0.1485900000000000    0.7881800000000000 C
   0.2536200000000000    0.2154000000000000    0.7068400000000000 C
   0.3166099999999999    0.2458100000000000    0.7038700000000000 C
   0.2908200000000000    0.2680500000000000    0.8094000000000000 C
   0.3310166666666666    0.1781800000000000    0.7864300000000000 C
   0.0160900000000000    0.5956700000000000    0.1286800000000000 C
   0.0429866666666667    0.4904200000000000    0.1164100000000000 C
   0.0504466666666667    0.5592100000000000    0.0351600000000000 C
   0.9863799999999999    0.5581199999999999    0.0132900000000000 C
   0.0131400000000000    0.4533300000000000    0.0000000000000000 C
   0.9777300000000000    0.4888200000000000    0.0957500000000000 C
   0.1067533333333333    0.2382500000000000    0.7243900000000000 C
   0.2006666666666667    0.5454100000000000    0.0285500000000000 C
   0.1399300000000000    0.4845200000000000    0.9751200000000000 C
   0.1185733333333333    0.4349400000000000    0.9272800000000000 C
   0.1941266666666667    0.4478000000000000    0.9253600000000000 C
   0.1781866666666667    0.4913800000000000    0.9748200000000000 C
   0.1728633333333333    0.3970800000000000    0.8745500000000000 C
   0.1670533333333333    0.3034600000000000    0.7741600000000000 C
   0.1884466666666667    0.3528000000000000    0.8221900000000000 C
   0.1129666666666667    0.3383200000000000    0.8254899999999999 C
   0.1288633333333333    0.2952000000000000    0.7755900000000000 C
   0.1341700000000000    0.3899000000000000    0.8755600000000000 C
   0.6827566666666667    0.5956700000000000    0.1286800000000000 C
   0.7096533333333332    0.4904200000000000    0.1164100000000000 C
   0.7171133333333333    0.5592100000000000    0.0351600000000000 C
   0.6530466666666666    0.5581199999999999    0.0132900000000000 C
   0.6798066666666667    0.4533300000000000    0.0000000000000000 C
   0.6443966666666666    0.4888200000000000    0.0957500000000000 C
   0.7734200000000000    0.2382500000000000    0.7243900000000000 C
   0.8673333333333333    0.5454100000000000    0.0285500000000000 C
   0.8065966666666666    0.4845200000000000    0.9751200000000000 C
   0.7852399999999999    0.4349400000000000    0.9272800000000000 C
   0.8607933333333333    0.4478000000000000    0.9253600000000000 C
   0.8448533333333332    0.4913800000000000    0.9748200000000000 C
   0.8395299999999999    0.3970800000000000    0.8745500000000000 C
   0.8337200000000000    0.3034600000000000    0.7741600000000000 C
   0.8551133333333333    0.3528000000000000    0.8221900000000000 C
   0.7796333333333333    0.3383200000000000    0.8254899999999999 C
   0.7955300000000000    0.2952000000000000    0.7755900000000000 C
   0.8008366666666666    0.3899000000000000    0.8755600000000000 C
   0.3494233333333333    0.5956700000000000    0.1286800000000000 C
   0.3763200000000000    0.4904200000000000    0.1164100000000000 C
   0.3837800000000000    0.5592100000000000    0.0351600000000000 C
   0.3197133333333333    0.5581199999999999    0.0132900000000000 C
   0.3464733333333333    0.4533300000000000    0.0000000000000000 C
   0.3110633333333333    0.4888200000000000    0.0957500000000000 C
   0.4400866666666666    0.2382500000000000    0.7243900000000000 C
   0.5340000000000000    0.5454100000000000    0.0285500000000000 C
   0.4732633333333333    0.4845200000000000    0.9751200000000000 C
   0.4519066666666666    0.4349400000000000    0.9272800000000000 C
   0.5274600000000000    0.4478000000000000    0.9253600000000000 C
   0.5115200000000000    0.4913800000000000    0.9748200000000000 C
   0.5061966666666666    0.3970800000000000    0.8745500000000000 C
   0.5003866666666666    0.3034600000000000    0.7741600000000000 C
   0.5217799999999999    0.3528000000000000    0.8221900000000000 C
   0.4463000000000000    0.3383200000000000    0.8254899999999999 C
   0.4621966666666666    0.2952000000000000    0.7755900000000000 C
   0.4675033333333333    0.3899000000000000    0.8755600000000000 C
   0.5160566666666666    0.1288200000000000    0.5954199999999999 C
   0.5428633333333333    0.1162300000000000    0.4906000000000000 C
   0.5504800000000000    0.0348600000000000    0.5593900000000001 C
   0.4864333333333333    0.0131000000000000    0.5581100000000000 C
   0.5131066666666666    0.0000000000000000    0.4537500000000000 C
   0.4776133333333333    0.0957100000000000    0.4888100000000000 C
   0.6068233333333333    0.7244600000000000    0.2379400000000000 C
   0.7006666666666667    0.0288000000000000    0.5449300000000000 C
   0.6399699999999999    0.9754900000000000    0.4838600000000000 C
   0.6186366666666666    0.9276700000000000    0.4342400000000000 C
   0.6942066666666666    0.9256500000000000    0.4472200000000000 C
   0.6782300000000000    0.9751100000000000    0.4908100000000000 C
   0.6729666666666666    0.8748600000000000    0.3964400000000000 C
   0.6671766666666666    0.7743500000000000    0.3028900000000000 C
   0.6885733333333333    0.8224500000000000    0.3521600000000000 C
   0.6130666666666666    0.8258000000000000    0.3377100000000000 C
   0.6289799999999999    0.7757900000000000    0.2946800000000000 C
   0.6342666666666666    0.8759000000000000    0.3892400000000000 C
   0.8493900000000000    0.1288200000000000    0.5954199999999999 C
   0.8761966666666666    0.1162300000000000    0.4906000000000000 C
   0.8838133333333333    0.0348600000000000    0.5593900000000001 C
   0.8197666666666666    0.0131000000000000    0.5581100000000000 C
   0.8464400000000000    0.0000000000000000    0.4537500000000000 C
   0.8109466666666666    0.0957100000000000    0.4888100000000000 C
   0.9401566666666666    0.7244600000000000    0.2379400000000000 C
   0.0340000000000000    0.0288000000000000    0.5449300000000000 C
   0.9733033333333333    0.9754900000000000    0.4838600000000000 C
   0.9519700000000000    0.9276700000000000    0.4342400000000000 C
   0.0275400000000000    0.9256500000000000    0.4472200000000000 C
   0.0115633333333333    0.9751100000000000    0.4908100000000000 C
   0.0063000000000000    0.8748600000000000    0.3964400000000000 C
   0.0005100000000000    0.7743500000000000    0.3028900000000000 C
   0.0219066666666667    0.8224500000000000    0.3521600000000000 C
   0.9463999999999999    0.8258000000000000    0.3377100000000000 C
   0.9623133333333332    0.7757900000000000    0.2946800000000000 C
   0.9676000000000000    0.8759000000000000    0.3892400000000000 C
   0.1827233333333333    0.1288200000000000    0.5954199999999999 C
   0.2095300000000000    0.1162300000000000    0.4906000000000000 C
   0.2171466666666667    0.0348600000000000    0.5593900000000001 C
   0.1531000000000000    0.0131000000000000    0.5581100000000000 C
   0.1797733333333333    0.0000000000000000    0.4537500000000000 C
   0.1442800000000000    0.0957100000000000    0.4888100000000000 C
   0.2734900000000000    0.7244600000000000    0.2379400000000000 C
   0.3673333333333333    0.0288000000000000    0.5449300000000000 C
   0.3066366666666667    0.9754900000000000    0.4838600000000000 C
   0.2853033333333333    0.9276700000000000    0.4342400000000000 C
   0.3608733333333333    0.9256500000000000    0.4472200000000000 C
   0.3448966666666666    0.9751100000000000    0.4908100000000000 C
   0.3396333333333333    0.8748600000000000    0.3964400000000000 C
   0.3338433333333333    0.7743500000000000    0.3028900000000000 C
   0.3552400000000000    0.8224500000000000    0.3521600000000000 C