Zn96 Ni72 H1 C287 N287 O1
1.0
  29.8999999999999986    0.0000000000000000    0.0000000000000018
   0.0000000000000048   29.7839999999999989    0.0000000000000018
   0.0000000000000000    0.0000000000000000   39.2429999999999950
Zn Ni H C N O
96 72 1 287 287 1
direct
   0.7500249999999999    0.2500150000000000    0.0830000000000000 Zn
   0.7500350000000000    0.2500150000000000    0.9169299999999999 Zn
   0.5000250000000001    0.2500350000000000    0.9169033333333333 Zn
   0.5000550000000000    0.2500350000000000    0.0830933333333333 Zn
   0.7500249999999999    0.2500150000000000    0.4163333333333333 Zn
   0.7500350000000000    0.2500150000000000    0.2502633333333333 Zn
   0.5000250000000001    0.2500350000000000    0.2502366666666667 Zn
   0.5000550000000000    0.2500350000000000    0.4164266666666666 Zn
   0.7500249999999999    0.2500150000000000    0.7496666666666666 Zn
   0.7500350000000000    0.2500150000000000    0.5835966666666665 Zn
   0.5000250000000001    0.2500350000000000    0.5835699999999999 Zn
   0.5000550000000000    0.2500350000000000    0.7497600000000000 Zn
   0.7500550000000000    0.4999900000000000    0.5835666666666666 Zn
   0.7500300000000000    0.4999900000000000    0.7497566666666666 Zn
   0.5000400000000000    0.5000100000000000    0.5835933333333333 Zn
   0.5000599999999999    0.5000100000000000    0.7497300000000000 Zn
   0.7500550000000000    0.4999900000000000    0.2502333333333333 Zn
   0.7500300000000000    0.4999900000000000    0.4164233333333333 Zn
   0.5000400000000000    0.5000100000000000    0.2502600000000000 Zn
   0.5000599999999999    0.5000100000000000    0.4163966666666666 Zn
   0.7500550000000000    0.4999900000000000    0.9168999999999999 Zn
   0.7500300000000000    0.4999900000000000    0.0830900000000000 Zn
   0.5000400000000000    0.5000100000000000    0.9169266666666667 Zn
   0.5000599999999999    0.5000100000000000    0.0830633333333333 Zn
   0.7500249999999999    0.7500150000000000    0.0830000000000000 Zn
   0.7500350000000000    0.7500150000000000    0.9169299999999999 Zn
   0.5000250000000001    0.7500350000000000    0.9169033333333333 Zn
   0.5000550000000000    0.7500350000000000    0.0830933333333333 Zn
   0.7500249999999999    0.7500150000000000    0.4163333333333333 Zn
   0.7500350000000000    0.7500150000000000    0.2502633333333333 Zn
   0.5000250000000001    0.7500350000000000    0.2502366666666667 Zn
   0.5000550000000000    0.7500350000000000    0.4164266666666666 Zn
   0.7500249999999999    0.7500150000000000    0.7496666666666666 Zn
   0.7500350000000000    0.7500150000000000    0.5835966666666665 Zn
   0.5000250000000001    0.7500350000000000    0.5835699999999999 Zn
   0.5000550000000000    0.7500350000000000    0.7497600000000000 Zn
   0.7500550000000000    0.9999899999999999    0.9168999999999999 Zn
   0.7500300000000000    0.9999899999999999    0.0830900000000000 Zn
   0.5000400000000000    0.0000100000000000    0.9169266666666667 Zn
   0.5000599999999999    0.0000100000000000    0.0830633333333333 Zn
   0.7500550000000000    0.9999899999999999    0.2502333333333333 Zn
   0.7500300000000000    0.9999899999999999    0.4164233333333333 Zn
   0.5000400000000000    0.0000100000000000    0.2502600000000000 Zn
   0.5000599999999999    0.0000100000000000    0.4163966666666666 Zn
   0.7500550000000000    0.9999899999999999    0.5835666666666666 Zn
   0.7500300000000000    0.9999899999999999    0.7497566666666666 Zn
   0.5000400000000000    0.0000100000000000    0.5835933333333333 Zn
   0.5000599999999999    0.0000100000000000    0.7497300000000000 Zn
   0.2500250000000000    0.2500150000000000    0.0830000000000000 Zn
   0.2500350000000000    0.2500150000000000    0.9169299999999999 Zn
   0.0000250000000000    0.2500350000000000    0.9169033333333333 Zn
   0.0000550000000000    0.2500350000000000    0.0830933333333333 Zn
   0.2500250000000000    0.2500150000000000    0.4163333333333333 Zn
   0.2500350000000000    0.2500150000000000    0.2502633333333333 Zn
   0.0000250000000000    0.2500350000000000    0.2502366666666667 Zn
   0.0000550000000000    0.2500350000000000    0.4164266666666666 Zn
   0.2500250000000000    0.2500150000000000    0.7496666666666666 Zn
   0.2500350000000000    0.2500150000000000    0.5835966666666665 Zn
   0.0000250000000000    0.2500350000000000    0.5835699999999999 Zn
   0.0000550000000000    0.2500350000000000    0.7497600000000000 Zn
   0.2500550000000000    0.4999900000000000    0.2502333333333333 Zn
   0.2500300000000000    0.4999900000000000    0.4164233333333333 Zn
   0.0000400000000000    0.5000100000000000    0.2502600000000000 Zn
   0.0000600000000000    0.5000100000000000    0.4163966666666666 Zn
   0.2500550000000000    0.4999900000000000    0.5835666666666666 Zn
   0.2500300000000000    0.4999900000000000    0.7497566666666666 Zn
   0.0000400000000000    0.5000100000000000    0.5835933333333333 Zn
   0.0000600000000000    0.5000100000000000    0.7497300000000000 Zn
   0.2500550000000000    0.4999900000000000    0.9168999999999999 Zn
   0.2500300000000000    0.4999900000000000    0.0830900000000000 Zn
   0.0000400000000000    0.5000100000000000    0.9169266666666667 Zn
   0.0000600000000000    0.5000100000000000    0.0830633333333333 Zn
   0.2500250000000000    0.7500150000000000    0.0830000000000000 Zn
   0.2500350000000000    0.7500150000000000    0.9169299999999999 Zn
   0.0000250000000000    0.7500350000000000    0.9169033333333333 Zn
   0.0000550000000000    0.7500350000000000    0.0830933333333333 Zn
   0.2500250000000000    0.7500150000000000    0.4163333333333333 Zn
   0.2500350000000000    0.7500150000000000    0.2502633333333333 Zn
   0.0000250000000000    0.7500350000000000    0.2502366666666667 Zn
   0.0000550000000000    0.7500350000000000    0.4164266666666666 Zn
   0.2500250000000000    0.7500150000000000    0.7496666666666666 Zn
   0.2500350000000000    0.7500150000000000    0.5835966666666665 Zn
   0.0000250000000000    0.7500350000000000    0.5835699999999999 Zn
   0.0000550000000000    0.7500350000000000    0.7497600000000000 Zn
   0.2500550000000000    0.9999899999999999    0.5835666666666666 Zn
   0.2500300000000000    0.9999899999999999    0.7497566666666666 Zn
   0.0000400000000000    0.0000100000000000    0.5835933333333333 Zn
   0.0000600000000000    0.0000100000000000    0.7497300000000000 Zn
   0.2500550000000000    0.9999899999999999    0.2502333333333333 Zn
   0.2500300000000000    0.9999899999999999    0.4164233333333333 Zn
   0.0000400000000000    0.0000100000000000    0.2502600000000000 Zn
   0.0000600000000000    0.0000100000000000    0.4163966666666666 Zn
   0.2500550000000000    0.9999899999999999    0.9168999999999999 Zn
   0.2500300000000000    0.9999899999999999    0.0830900000000000 Zn
   0.0000400000000000    0.0000100000000000    0.9169266666666667 Zn
   0.0000600000000000    0.0000100000000000    0.0830633333333333 Zn
   0.5008899999999999    0.1250150000000000    0.4999966666666666 Ni
   0.5008899999999999    0.1250150000000000    0.1666633333333333 Ni
   0.5008899999999999    0.1250150000000000    0.8333299999999999 Ni
   0.7508950000000000    0.1250300000000000    0.1666633333333333 Ni
   0.7508950000000000    0.1250300000000000    0.8333299999999999 Ni
   0.7508950000000000    0.1250300000000000    0.4999966666666666 Ni
   0.6250500000000000    0.2508750000000000    0.9999833333333332 Ni
   0.6250500000000000    0.2508750000000000    0.3333166666666666 Ni
   0.6250500000000000    0.2508750000000000    0.6666500000000000 Ni
   0.7491099999999999    0.3749850000000000    0.8333299999999999 Ni
   0.6251249999999999    0.4991200000000000    0.6666399999999999 Ni
   0.5009100000000000    0.3750750000000000    0.8333299999999999 Ni
   0.7491099999999999    0.3749850000000000    0.4999966666666666 Ni
   0.6251249999999999    0.4991200000000000    0.3333066666666666 Ni
   0.5009100000000000    0.3750750000000000    0.4999966666666666 Ni
   0.7491099999999999    0.3749850000000000    0.1666633333333333 Ni
   0.6251249999999999    0.4991200000000000    0.9999733333333333 Ni
   0.5009100000000000    0.3750750000000000    0.1666633333333333 Ni
   0.5008899999999999    0.6250150000000000    0.4999966666666666 Ni
   0.5008899999999999    0.6250150000000000    0.1666633333333333 Ni
   0.5008899999999999    0.6250150000000000    0.8333299999999999 Ni
   0.7508950000000000    0.6250300000000000    0.1666633333333333 Ni
   0.7508950000000000    0.6250300000000000    0.8333299999999999 Ni
   0.7508950000000000    0.6250300000000000    0.4999966666666666 Ni
   0.6250500000000000    0.7508750000000000    0.9999833333333332 Ni
   0.6250500000000000    0.7508750000000000    0.3333166666666666 Ni
   0.6250500000000000    0.7508750000000000    0.6666500000000000 Ni
   0.7491099999999999    0.8749850000000000    0.1666633333333333 Ni
   0.6251249999999999    0.9991200000000000    0.9999733333333333 Ni
   0.5009100000000000    0.8750750000000000    0.1666633333333333 Ni
   0.7491099999999999    0.8749850000000000    0.4999966666666666 Ni
   0.6251249999999999    0.9991200000000000    0.3333066666666666 Ni
   0.5009100000000000    0.8750750000000000    0.4999966666666666 Ni
   0.7491099999999999    0.8749850000000000    0.8333299999999999 Ni
   0.6251249999999999    0.9991200000000000    0.6666399999999999 Ni
   0.5009100000000000    0.8750750000000000    0.8333299999999999 Ni
   0.2508950000000000    0.6250300000000000    0.8333299999999999 Ni
   0.0008900000000000    0.1250150000000000    0.4999966666666666 Ni
   0.0008900000000000    0.1250150000000000    0.1666633333333333 Ni
   0.0008900000000000    0.1250150000000000    0.8333299999999999 Ni
   0.2508950000000000    0.1250300000000000    0.1666633333333333 Ni
   0.2508950000000000    0.1250300000000000    0.8333299999999999 Ni
   0.2508950000000000    0.1250300000000000    0.4999966666666666 Ni
   0.1250500000000000    0.2508750000000000    0.9999833333333332 Ni
   0.1250500000000000    0.2508750000000000    0.3333166666666666 Ni
   0.1250500000000000    0.2508750000000000    0.6666500000000000 Ni
   0.2491100000000000    0.3749850000000000    0.4999966666666666 Ni
   0.1251250000000000    0.4991200000000000    0.3333066666666666 Ni
   0.0009100000000000    0.3750750000000000    0.4999966666666666 Ni
   0.2491100000000000    0.3749850000000000    0.8333299999999999 Ni
   0.1251250000000000    0.4991200000000000    0.6666399999999999 Ni
   0.0009100000000000    0.3750750000000000    0.8333299999999999 Ni
   0.2491100000000000    0.3749850000000000    0.1666633333333333 Ni
   0.1251250000000000    0.4991200000000000    0.9999733333333333 Ni
   0.0009100000000000    0.3750750000000000    0.1666633333333333 Ni
   0.0008900000000000    0.6250150000000000    0.4999966666666666 Ni
   0.0008900000000000    0.6250150000000000    0.1666633333333333 Ni
   0.0008900000000000    0.6250150000000000    0.8333299999999999 Ni
   0.2508950000000000    0.6250300000000000    0.1666633333333333 Ni
   0.2508950000000000    0.6250300000000000    0.4999966666666666 Ni
   0.1250500000000000    0.7508750000000000    0.9999833333333332 Ni
   0.1250500000000000    0.7508750000000000    0.3333166666666666 Ni
   0.1250500000000000    0.7508750000000000    0.6666500000000000 Ni
   0.2491100000000000    0.8749850000000000    0.8333299999999999 Ni
   0.1251250000000000    0.9991200000000000    0.6666399999999999 Ni
   0.0009100000000000    0.8750750000000000    0.8333299999999999 Ni
   0.2491100000000000    0.8749850000000000    0.4999966666666666 Ni
   0.1251250000000000    0.9991200000000000    0.3333066666666666 Ni
   0.0009100000000000    0.8750750000000000    0.4999966666666666 Ni
   0.2491100000000000    0.8749850000000000    0.1666633333333333 Ni
   0.1251250000000000    0.9991200000000000    0.9999733333333333 Ni
   0.0009100000000000    0.8750750000000000    0.1666633333333333 Ni
   0.2506434850143810    0.6733935588429749    0.8697009696533737 H
   0.5006600000000000    0.0812350000000000    0.5329733333333333 C
   0.5007000000000000    0.0812350000000000    0.4670200000000000 C
   0.5006350000000001    0.1687950000000000    0.5329666666666666 C
   0.5006500000000000    0.1687950000000000    0.4670266666666666 C
   0.5006600000000000    0.0812350000000000    0.1996400000000000 C
   0.5007000000000000    0.0812350000000000    0.1336866666666667 C
   0.5006350000000001    0.1687950000000000    0.1996333333333333 C
   0.5006500000000000    0.1687950000000000    0.1336933333333333 C
   0.5006600000000000    0.0812350000000000    0.8663066666666666 C
   0.5007000000000000    0.0812350000000000    0.8003533333333333 C
   0.5006350000000001    0.1687950000000000    0.8663000000000000 C
   0.5006500000000000    0.1687950000000000    0.8003600000000000 C
   0.7507100000000000    0.0812450000000000    0.1336900000000000 C
   0.7507400000000000    0.0812400000000000    0.1996300000000000 C
   0.7506900000000001    0.1688000000000000    0.1996433333333333 C
   0.7506600000000000    0.1688050000000000    0.1336900000000000 C
   0.7507100000000000    0.0812450000000000    0.8003566666666666 C
   0.7507400000000000    0.0812400000000000    0.8662966666666666 C
   0.7506900000000001    0.1688000000000000    0.8663099999999999 C
   0.7506600000000000    0.1688050000000000    0.8003566666666666 C
   0.7507100000000000    0.0812450000000000    0.4670233333333333 C
   0.7507400000000000    0.0812400000000000    0.5329633333333333 C
   0.7506900000000001    0.1688000000000000    0.5329766666666667 C
   0.7506600000000000    0.1688050000000000    0.4670233333333333 C
   0.5813000000000000    0.2506700000000000    0.9671399999999999 C
   0.5813300000000000    0.2506600000000000    0.0328466666666667 C
   0.6687550000000000    0.2506100000000000    0.0328500000000000 C
   0.6687250000000000    0.2506250000000000    0.9670966666666666 C
   0.5813000000000000    0.2506700000000000    0.3004733333333333 C
   0.5813300000000000    0.2506600000000000    0.3661799999999999 C
   0.6687550000000000    0.2506100000000000    0.3661833333333333 C
   0.6687250000000000    0.2506250000000000    0.3004300000000000 C
   0.5813000000000000    0.2506700000000000    0.6338066666666666 C
   0.5813300000000000    0.2506600000000000    0.6995133333333333 C
   0.6687550000000000    0.2506100000000000    0.6995166666666667 C
   0.6687250000000000    0.2506250000000000    0.6337633333333332 C
   0.7492950000000000    0.4187900000000000    0.8004000000000000 C
   0.7493100000000000    0.4187850000000000    0.8662633333333333 C
   0.7493150000000000    0.3312000000000000    0.8003866666666666 C
   0.7493500000000000    0.3311950000000000    0.8662666666666666 C
   0.6688050000000000    0.4994350000000000    0.6336666666666666 C
   0.5813800000000000    0.4993450000000000    0.6337833333333334 C
   0.5813600000000000    0.4993400000000000    0.6994800000000000 C
   0.6687900000000000    0.4994250000000000    0.6995300000000000 C
   0.5007100000000000    0.3312600000000000    0.8004000000000000 C
   0.5006850000000000    0.3312650000000000    0.8662599999999999 C
   0.5006850000000000    0.4188550000000000    0.8003899999999999 C
   0.5006500000000000    0.4188550000000000    0.8662666666666666 C
   0.7492950000000000    0.4187900000000000    0.4670666666666666 C
   0.7493100000000000    0.4187850000000000    0.5329300000000000 C
   0.7493150000000000    0.3312000000000000    0.4670533333333333 C
   0.7493500000000000    0.3311950000000000    0.5329333333333333 C
   0.6688050000000000    0.4994350000000000    0.3003333333333333 C
   0.5813800000000000    0.4993450000000000    0.3004500000000000 C
   0.5813600000000000    0.4993400000000000    0.3661466666666666 C
   0.6687900000000000    0.4994250000000000    0.3661966666666666 C
   0.5007100000000000    0.3312600000000000    0.4670666666666666 C
   0.5006850000000000    0.3312650000000000    0.5329266666666667 C
   0.5006850000000000    0.4188550000000000    0.4670566666666667 C
   0.5006500000000000    0.4188550000000000    0.5329333333333333 C
   0.7492950000000000    0.4187900000000000    0.1337333333333333 C
   0.7493100000000000    0.4187850000000000    0.1995966666666667 C
   0.7493150000000000    0.3312000000000000    0.1337200000000000 C
   0.7493500000000000    0.3311950000000000    0.1996000000000000 C
   0.6688050000000000    0.4994350000000000    0.9670000000000000 C
   0.5813800000000000    0.4993450000000000    0.9671166666666666 C
   0.5813600000000000    0.4993400000000000    0.0328133333333333 C
   0.6687900000000000    0.4994250000000000    0.0328633333333333 C
   0.5007100000000000    0.3312600000000000    0.1337333333333333 C
   0.5006850000000000    0.3312650000000000    0.1995933333333333 C
   0.5006850000000000    0.4188550000000000    0.1337233333333333 C
   0.5006500000000000    0.4188550000000000    0.1996000000000000 C
   0.5006600000000000    0.5812349999999999    0.5329733333333333 C
   0.5007000000000000    0.5812349999999999    0.4670200000000000 C
   0.5006350000000001    0.6687950000000000    0.5329666666666666 C
   0.5006500000000000    0.6687950000000000    0.4670266666666666 C
   0.5006600000000000    0.5812349999999999    0.1996400000000000 C
   0.5007000000000000    0.5812349999999999    0.1336866666666667 C
   0.5006350000000001    0.6687950000000000    0.1996333333333333 C
   0.5006500000000000    0.6687950000000000    0.1336933333333333 C
   0.5006600000000000    0.5812349999999999    0.8663066666666666 C
   0.5007000000000000    0.5812349999999999    0.8003533333333333 C
   0.5006350000000001    0.6687950000000000    0.8663000000000000 C
   0.5006500000000000    0.6687950000000000    0.8003600000000000 C
   0.7507100000000000    0.5812450000000000    0.1336900000000000 C
   0.7507400000000000    0.5812400000000000    0.1996300000000000 C
   0.7506900000000001    0.6688000000000001    0.1996433333333333 C
   0.7506600000000000    0.6688050000000000    0.1336900000000000 C
   0.7507100000000000    0.5812450000000000    0.8003566666666666 C
   0.7507400000000000    0.5812400000000000    0.8662966666666666 C
   0.7506900000000001    0.6688000000000001    0.8663099999999999 C
   0.7506600000000000    0.6688050000000000    0.8003566666666666 C
   0.7507100000000000    0.5812450000000000    0.4670233333333333 C
   0.7507400000000000    0.5812400000000000    0.5329633333333333 C
   0.7506900000000001    0.6688000000000001    0.5329766666666667 C
   0.7506600000000000    0.6688050000000000    0.4670233333333333 C
   0.5813000000000000    0.7506699999999999    0.9671399999999999 C
   0.5813300000000000    0.7506600000000000    0.0328466666666667 C
   0.6687550000000000    0.7506100000000000    0.0328500000000000 C
   0.6687250000000000    0.7506250000000000    0.9670966666666666 C
   0.5813000000000000    0.7506699999999999    0.3004733333333333 C
   0.5813300000000000    0.7506600000000000    0.3661799999999999 C
   0.6687550000000000    0.7506100000000000    0.3661833333333333 C
   0.6687250000000000    0.7506250000000000    0.3004300000000000 C
   0.5813000000000000    0.7506699999999999    0.6338066666666666 C
   0.5813300000000000    0.7506600000000000    0.6995133333333333 C
   0.6687550000000000    0.7506100000000000    0.6995166666666667 C
   0.6687250000000000    0.7506250000000000    0.6337633333333332 C
   0.7492950000000000    0.9187900000000000    0.1337333333333333 C
   0.7493100000000000    0.9187850000000000    0.1995966666666667 C
   0.7493150000000000    0.8311999999999999    0.1337200000000000 C
   0.7493500000000000    0.8311950000000000    0.1996000000000000 C
   0.6688050000000000    0.9994350000000001    0.9670000000000000 C
   0.5813800000000000    0.9993449999999999    0.9671166666666666 C
   0.5813600000000000    0.9993400000000000    0.0328133333333333 C
   0.6687900000000000    0.9994250000000000    0.0328633333333333 C
   0.5007100000000000    0.8312600000000000    0.1337333333333333 C
   0.5006850000000000    0.8312649999999999    0.1995933333333333 C
   0.5006850000000000    0.9188550000000000    0.1337233333333333 C
   0.5006500000000000    0.9188550000000000    0.1996000000000000 C
   0.7492950000000000    0.9187900000000000    0.4670666666666666 C
   0.7493100000000000    0.9187850000000000    0.5329300000000000 C
   0.7493150000000000    0.8311999999999999    0.4670533333333333 C
   0.7493500000000000    0.8311950000000000    0.5329333333333333 C
   0.6688050000000000    0.9994350000000001    0.3003333333333333 C
   0.5813800000000000    0.9993449999999999    0.3004500000000000 C
   0.5813600000000000    0.9993400000000000    0.3661466666666666 C
   0.6687900000000000    0.9994250000000000    0.3661966666666666 C
   0.5007100000000000    0.8312600000000000    0.4670666666666666 C
   0.5006850000000000    0.8312649999999999    0.5329266666666667 C
   0.5006850000000000    0.9188550000000000    0.4670566666666667 C
   0.5006500000000000    0.9188550000000000    0.5329333333333333 C
   0.7492950000000000    0.9187900000000000    0.8004000000000000 C
   0.7493100000000000    0.9187850000000000    0.8662633333333333 C
   0.7493150000000000    0.8311999999999999    0.8003866666666666 C
   0.7493500000000000    0.8311950000000000    0.8662666666666666 C
   0.6688050000000000    0.9994350000000001    0.6336666666666666 C
   0.5813800000000000    0.9993449999999999    0.6337833333333334 C
   0.5813600000000000    0.9993400000000000    0.6994800000000000 C
   0.6687900000000000    0.9994250000000000    0.6995300000000000 C
   0.5007100000000000    0.8312600000000000    0.8004000000000000 C
   0.5006850000000000    0.8312649999999999    0.8662599999999999 C
   0.5006850000000000    0.9188550000000000    0.8003899999999999 C
   0.5006500000000000    0.9188550000000000    0.8662666666666666 C
   0.2507100000000000    0.5812450000000000    0.8003566666666666 C
   0.2507400000000000    0.5812400000000000    0.8662966666666666 C
   0.2506600000000000    0.6688050000000000    0.8003566666666666 C
   0.0006600000000000    0.0812350000000000    0.5329733333333333 C
   0.0007000000000000    0.0812350000000000    0.4670200000000000 C
   0.0006350000000000    0.1687950000000000    0.5329666666666666 C
   0.0006500000000000    0.1687950000000000    0.4670266666666666 C
   0.0006600000000000    0.0812350000000000    0.1996400000000000 C
   0.0007000000000000    0.0812350000000000    0.1336866666666667 C
   0.0006350000000000    0.1687950000000000    0.1996333333333333 C
   0.0006500000000000    0.1687950000000000    0.1336933333333333 C
   0.0006600000000000    0.0812350000000000    0.8663066666666666 C
   0.0007000000000000    0.0812350000000000    0.8003533333333333 C
   0.0006350000000000    0.1687950000000000    0.8663000000000000 C
   0.0006500000000000    0.1687950000000000    0.8003600000000000 C
   0.2507100000000000    0.0812450000000000    0.1336900000000000 C
   0.2507400000000000    0.0812400000000000    0.1996300000000000 C
   0.2506900000000000    0.1688000000000000    0.1996433333333333 C
   0.2506600000000000    0.1688050000000000    0.1336900000000000 C
   0.2507100000000000    0.0812450000000000    0.8003566666666666 C
   0.2507400000000000    0.0812400000000000    0.8662966666666666 C
   0.2506900000000000    0.1688000000000000    0.8663099999999999 C
   0.2506600000000000    0.1688050000000000    0.8003566666666666 C
   0.2507100000000000    0.0812450000000000    0.4670233333333333 C
   0.2507400000000000    0.0812400000000000    0.5329633333333333 C
   0.2506900000000000    0.1688000000000000    0.5329766666666667 C
   0.2506600000000000    0.1688050000000000    0.4670233333333333 C
   0.0813000000000000    0.2506700000000000    0.9671399999999999 C
   0.0813300000000000    0.2506600000000000    0.0328466666666667 C
   0.1687550000000000    0.2506100000000000    0.0328500000000000 C
   0.1687250000000000    0.2506250000000000    0.9670966666666666 C
   0.0813000000000000    0.2506700000000000    0.3004733333333333 C
   0.0813300000000000    0.2506600000000000    0.3661799999999999 C
   0.1687550000000000    0.2506100000000000    0.3661833333333333 C
   0.1687250000000000    0.2506250000000000    0.3004300000000000 C
   0.0813000000000000    0.2506700000000000    0.6338066666666666 C
   0.0813300000000000    0.2506600000000000    0.6995133333333333 C
   0.1687550000000000    0.2506100000000000    0.6995166666666667 C
   0.1687250000000000    0.2506250000000000    0.6337633333333332 C
   0.2492950000000000    0.4187900000000000    0.4670666666666666 C
   0.2493100000000000    0.4187850000000000    0.5329300000000000 C
   0.2493150000000000    0.3312000000000000    0.4670533333333333 C
   0.2493500000000000    0.3311950000000000    0.5329333333333333 C
   0.1688050000000000    0.4994350000000000    0.3003333333333333 C
   0.0813800000000000    0.4993450000000000    0.3004500000000000 C
   0.0813600000000000    0.4993400000000000    0.3661466666666666 C
   0.1687900000000000    0.4994250000000000    0.3661966666666666 C
   0.0007100000000000    0.3312600000000000    0.4670666666666666 C
   0.0006850000000000    0.3312650000000000    0.5329266666666667 C
   0.0006850000000000    0.4188550000000000    0.4670566666666667 C
   0.0006500000000000    0.4188550000000000    0.5329333333333333 C
   0.2492950000000000    0.4187900000000000    0.8004000000000000 C
   0.2493100000000000    0.4187850000000000    0.8662633333333333 C
   0.2493150000000000    0.3312000000000000    0.8003866666666666 C
   0.2493500000000000    0.3311950000000000    0.8662666666666666 C
   0.1688050000000000    0.4994350000000000    0.6336666666666666 C
   0.0813800000000000    0.4993450000000000    0.6337833333333334 C
   0.0813600000000000    0.4993400000000000    0.6994800000000000 C
   0.1687900000000000    0.4994250000000000    0.6995300000000000 C
   0.0007100000000000    0.3312600000000000    0.8004000000000000 C
   0.0006850000000000    0.3312650000000000    0.8662599999999999 C
   0.0006850000000000    0.4188550000000000    0.8003899999999999 C
   0.0006500000000000    0.4188550000000000    0.8662666666666666 C
   0.2492950000000000    0.4187900000000000    0.1337333333333333 C
   0.2493100000000000    0.4187850000000000    0.1995966666666667 C
   0.2493150000000000    0.3312000000000000    0.1337200000000000 C
   0.2493500000000000    0.3311950000000000    0.1996000000000000 C
   0.1688050000000000    0.4994350000000000    0.9670000000000000 C
   0.0813800000000000    0.4993450000000000    0.9671166666666666 C
   0.0813600000000000    0.4993400000000000    0.0328133333333333 C
   0.1687900000000000    0.4994250000000000    0.0328633333333333 C
   0.0007100000000000    0.3312600000000000    0.1337333333333333 C
   0.0006850000000000    0.3312650000000000    0.1995933333333333 C
   0.0006850000000000    0.4188550000000000    0.1337233333333333 C
   0.0006500000000000    0.4188550000000000    0.1996000000000000 C
   0.0006600000000000    0.5812349999999999    0.5329733333333333 C
   0.0007000000000000    0.5812349999999999    0.4670200000000000 C
   0.0006350000000000    0.6687950000000000    0.5329666666666666 C
   0.0006500000000000    0.6687950000000000    0.4670266666666666 C
   0.0006600000000000    0.5812349999999999    0.1996400000000000 C
   0.0007000000000000    0.5812349999999999    0.1336866666666667 C
   0.0006350000000000    0.6687950000000000    0.1996333333333333 C
   0.0006500000000000    0.6687950000000000    0.1336933333333333 C
   0.0006600000000000    0.5812349999999999    0.8663066666666666 C
   0.0007000000000000    0.5812349999999999    0.8003533333333333 C
   0.0006350000000000    0.6687950000000000    0.8663000000000000 C
   0.0006500000000000    0.6687950000000000    0.8003600000000000 C
   0.2507100000000000    0.5812450000000000    0.1336900000000000 C
   0.2507400000000000    0.5812400000000000    0.1996300000000000 C
   0.2506900000000000    0.6688000000000001    0.1996433333333333 C
   0.2506600000000000    0.6688050000000000    0.1336900000000000 C
   0.2507100000000000    0.5812450000000000    0.4670233333333333 C
   0.2507400000000000    0.5812400000000000    0.5329633333333333 C
   0.2506900000000000    0.6688000000000001    0.5329766666666667 C
   0.2506600000000000    0.6688050000000000    0.4670233333333333 C
   0.0813000000000000    0.7506699999999999    0.9671399999999999 C
   0.0813300000000000    0.7506600000000000    0.0328466666666667 C
   0.1687550000000000    0.7506100000000000    0.0328500000000000 C
   0.1687250000000000    0.7506250000000000    0.9670966666666666 C
   0.0813000000000000    0.7506699999999999    0.3004733333333333 C
   0.0813300000000000    0.7506600000000000    0.3661799999999999 C
   0.1687550000000000    0.7506100000000000    0.3661833333333333 C
   0.1687250000000000    0.7506250000000000    0.3004300000000000 C
   0.0813000000000000    0.7506699999999999    0.6338066666666666 C
   0.0813300000000000    0.7506600000000000    0.6995133333333333 C
   0.1687550000000000    0.7506100000000000    0.6995166666666667 C
   0.1687250000000000    0.7506250000000000    0.6337633333333332 C
   0.2492950000000000    0.9187900000000000    0.8004000000000000 C
   0.2493100000000000    0.9187850000000000    0.8662633333333333 C
   0.2493150000000000    0.8311999999999999    0.8003866666666666 C
   0.2493500000000000    0.8311950000000000    0.8662666666666666 C
   0.1688050000000000    0.9994350000000001    0.6336666666666666 C
   0.0813800000000000    0.9993449999999999    0.6337833333333334 C
   0.0813600000000000    0.9993400000000000    0.6994800000000000 C
   0.1687900000000000    0.9994250000000000    0.6995300000000000 C
   0.0007100000000000    0.8312600000000000    0.8004000000000000 C
   0.0006850000000000    0.8312649999999999    0.8662599999999999 C
   0.0006850000000000    0.9188550000000000    0.8003899999999999 C
   0.0006500000000000    0.9188550000000000    0.8662666666666666 C
   0.2492950000000000    0.9187900000000000    0.4670666666666666 C
   0.2493100000000000    0.9187850000000000    0.5329300000000000 C