C1 N1
1.0
  29.8999999999999986    0.0000000000000000    0.0000000000000018
   0.0000000000000048   29.7839999999999989    0.0000000000000018
   0.0000000000000000    0.0000000000000000   39.2429999999999950
C N
1 1
direct
   0.2506900000000000    0.6688000000000001    0.8663099999999999 C
   0.2504050000000000    0.6969450000000000    0.8870866666666666 N
