H8 O4
1.0
  21.8359980843317452    0.0000000000000000   -0.0091466420236929
  -0.0249165534040654   11.5313253736002057   -6.5119093431596964
   0.0000000000000000    0.0000000000000000   13.2400000000000002
H O
8 4
direct
   0.1669063875822647    0.8352976370942640    0.5506125736433380 H
   0.1656045229958245    0.8827508069638575    0.5035020902140482 H
   0.1651830931895991    0.1178352251696144    0.6232422716590749 H
   0.1489583267297536    0.1273777176424011    0.7220206170931130 H
   0.8330543834338473    0.1648942240391642    0.4493150245236133 H
   0.8344171907598031    0.1173525332063530    0.4965123603546311 H
   0.8348360571316650    0.8822502780768992    0.3767392405538058 H
   0.8510543875177505    0.8726904524596124    0.2779690864736610 H
   0.1878200000000000    0.8099200000000000    0.4770000000000000 O
   0.1871400000000000    0.1906200000000000    0.6710000000000000 O
   0.8122000000000000    0.1901700000000000    0.5229400000000000 O
   0.8128800000000000    0.8094600000000000    0.3290000000000000 O
