Cd4 H20 C60 N20
1.0
  21.8359980843317452    0.0000000000000000   -0.0091466420236929
  -0.0249165534040654   11.5313253736002057   -6.5119093431596964
   0.0000000000000000    0.0000000000000000   13.2400000000000002
Cd H C N
4 20 60 20
direct
   0.7500400000000000    0.6673100000000000    0.3324400000000000 Cd
   0.2499900000000000    0.3327800000000000    0.6675900000000000 Cd
   0.7499900000000000    0.3318500000000000    0.6674500000000000 Cd
   0.2500400000000000    0.6682399999999999    0.3325700000000000 Cd
   0.4449000000000000    0.5746900000000000    0.1874400000000000 H
   0.9450300000000000    0.5738799999999999    0.1874800000000000 H
   0.4453800000000000    0.6152500000000000    0.4261700000000000 H
   0.9453000000000000    0.6160000000000000    0.4271300000000000 H
   0.4450400000000000    0.8129999999999999    0.3845900000000000 H
   0.0547400000000000    0.6158100000000000    0.1872600000000000 H
   0.5547200000000000    0.6160000000000000    0.1872400000000000 H
   0.5547500000000000    0.8124700000000000    0.4263000000000000 H
   0.0549700000000000    0.5747400000000000    0.3857200000000000 H
   0.5550200000000000    0.5734300000000000    0.3846300000000000 H
   0.0549900000000000    0.4262100000000000    0.8125000000000000 H
   0.5551199999999999    0.4254100000000000    0.8125800000000000 H
   0.0547200000000000    0.3841000000000000    0.5728900000000000 H
   0.5546400000000000    0.3848300000000000    0.5738600000000000 H
   0.5549800000000000    0.1871000000000000    0.6154400000000000 H
   0.4453000000000000    0.3841000000000000    0.8127799999999999 H
   0.9452800000000000    0.3842800000000000    0.8127700000000000 H
   0.4452700000000000    0.1876300000000000    0.5737200000000000 H
   0.4450000000000000    0.4266600000000000    0.6153999999999999 H
   0.9450499999999999    0.4253500000000000    0.6143000000000000 H
   0.4690700000000000    0.5420400000000000    0.1052300000000000 C
   0.9691500000000000    0.5416100000000000    0.1052700000000000 C
   0.3388600000000000    0.4919300000000000    0.1032000000000000 C
   0.8390100000000000    0.4910100000000000    0.1032200000000000 C
   0.4693300000000000    0.5646300000000000    0.4584600000000000 C
   0.9692900000000000    0.5650200000000000    0.4589800000000000 C
   0.3392900000000000    0.6130500000000000    0.5089000000000000 C
   0.8391500000000000    0.6124800000000000    0.5090000000000000 C
   0.4691500000000000    0.8950399999999999    0.4352700000000000 C
   0.3391800000000000    0.8978600000000000    0.3864100000000000 C
   0.0307400000000000    0.5649700000000000    0.1051300000000000 C
   0.5307400000000000    0.5650500000000001    0.1051100000000000 C
   0.1607900000000000    0.6138200000000000    0.1026000000000000 C
   0.6609500000000000    0.6130800000000000    0.1025700000000000 C
   0.5307500000000001    0.8947300000000000    0.4585100000000000 C
   0.6609699999999999    0.8965200000000000    0.5085600000000000 C
   0.0308600000000000    0.5420400000000000    0.4359100000000000 C
   0.5309000000000000    0.5413500000000000    0.4353400000000000 C
   0.1608500000000000    0.4916800000000000    0.3875900000000000 C
   0.6608600000000000    0.4906300000000000    0.3872000000000000 C
   0.0308800000000000    0.4584800000000000    0.8947600000000000 C
   0.5309500000000000    0.4580600000000000    0.8947900000000000 C
   0.1610100000000000    0.5090800000000000    0.8968100000000000 C
   0.6611700000000000    0.5081599999999999    0.8968000000000000 C
   0.0307400000000000    0.4350700000000000    0.5410500000000000 C
   0.5306900000000000    0.4354500000000000    0.5415000000000000 C
   0.1608800000000000    0.3876200000000000    0.4910300000000000 C
   0.6607300000000000    0.3870400000000000    0.4911300000000000 C
   0.5308800000000000    0.1050600000000000    0.5647600000000000 C
   0.6608400000000000    0.1022300000000000    0.6136000000000000 C
   0.4692800000000000    0.4350400000000000    0.8949100000000000 C
   0.9692800000000000    0.4351300000000000    0.8948900000000000 C
   0.3390800000000000    0.3870100000000000    0.8974500000000000 C
   0.8392400000000000    0.3862800000000000    0.8974100000000000 C
   0.4692700000000000    0.1053600000000000    0.5415200000000000 C
   0.3390500000000000    0.1035800000000000    0.4914700000000000 C
   0.4691200000000000    0.4587400000000000    0.5646900000000000 C
   0.9691600000000000    0.4580500000000000    0.5641100000000000 C
   0.3391600000000000    0.5094700000000000    0.6128400000000001 C
   0.8391700000000000    0.5084100000000000    0.6124300000000000 C
   0.3717700000000000    0.4520800000000000    0.0002100000000000 C
   0.8719000000000000    0.4513800000000000    0.0002200000000000 C
   0.4364600000000000    0.4764000000000000    0.0000000000000000 C
   0.9365300000000000    0.4760400000000000    0.0001000000000000 C
   0.3719700000000000    0.5485500000000000    0.5482100000000000 C
   0.8719200000000000    0.5478900000000000    0.5480699999999999 C
   0.4365700000000000    0.5239900000000000    0.5238000000000000 C
   0.9365500000000000    0.5236700000000000    0.5237300000000000 C
   0.3718900000000000    0.0005800000000000    0.4516200000000000 C
   0.4365300000000000    0.0003400000000000    0.4761400000000000 C
   0.1281200000000000    0.5487100000000000    0.9998000000000000 C
   0.6282600000000000    0.5480000000000000    0.9997800000000000 C
   0.0635000000000000    0.5240400000000000    0.9998000000000000 C
   0.5635599999999999    0.5236900000000000    0.9998700000000000 C
   0.6281300000000000    0.9994900000000000    0.5484000000000000 C
   0.5634900000000000    0.9997300000000000    0.5238900000000000 C
   0.1281000000000000    0.4522000000000000    0.4519600000000000 C
   0.6280500000000000    0.4515400000000000    0.4518200000000000 C
   0.0634800000000000    0.4764200000000000    0.4762900000000000 C
   0.5634500000000000    0.4761000000000000    0.4762300000000000 C
   0.3122200000000000    0.5238100000000000    0.1908400000000000 N
   0.8123899999999999    0.5228000000000000    0.1908500000000000 N
   0.3128100000000000    0.6698700000000000    0.4774800000000000 N
   0.8125599999999999    0.6694000000000000    0.4778200000000000 N
   0.3127000000000000    0.8105200000000000    0.3289000000000000 N
   0.1872300000000000    0.6711700000000000    0.1900100000000000 N
   0.6874300000000000    0.6704400000000000    0.1899300000000000 N
   0.6875900000000000    0.8089200000000000    0.4766200000000000 N
   0.1873800000000000    0.5232200000000000    0.3308300000000000 N
   0.6874300000000000    0.5219200000000001    0.3302800000000000 N
   0.1876300000000000    0.4772900000000000    0.8091699999999999 N
   0.6878000000000000    0.4762800000000000    0.8091800000000000 N
   0.1874700000000000    0.3307000000000000    0.5222100000000000 N
   0.6872100000000000    0.3302100000000000    0.5225400000000000 N
   0.6873300000000000    0.1895700000000000    0.6710900000000000 N
   0.3125900000000000    0.3296300000000000    0.8100900000000000 N
   0.8127900000000000    0.3289200000000000    0.8100100000000000 N
   0.3124300000000000    0.1911700000000000    0.5234100000000000 N
   0.3125900000000000    0.4781800000000000    0.6697600000000000 N
   0.8126500000000000    0.4768700000000000    0.6691900000000000 N
