C3 N3
1.0
  33.7824997478769191    0.0000000000000000   -0.0041273109716195
  -0.0006244131804919   35.7674999727588272   -0.0012485212801552
   0.0000000000000000    0.0000000000000000   35.9324999999999974
C N
3 3
direct
   0.4000200000000000    0.1604860000000000    0.2393120000000000 C
   0.6000200000000001    0.3604860000000000    0.4393120000000000 C
   0.1999740000000000    0.8395300000000000    0.5606900000000000 C
   0.4000120000000000    0.1375220000000000    0.2626000000000000 N
   0.6000120000000001    0.3375220000000000    0.4626000000000000 N
   0.1999800000000000    0.8625040000000000    0.5374100000000001 N
