H12 O8
1.0
  29.9500579119592771    0.0000000000000000    8.4084300003202461
   2.5644571471230404   14.0620148921184338    2.5178349259649457
   0.0000000000000000    0.0000000000000000   30.0500000000000007
H O
12 8
direct
   0.9115946485445399    0.6453256180740607    0.2386104463660823 H
   0.0272744173239691    0.6954766151576721    0.2514832629704592 H
   0.9672592039721577    0.6829057637476431    0.2446182771140012 H
   0.8361831741287572    0.0716821740141952    0.2553192709840612 H
   0.8267057437933671    0.8147670100701854    0.2356191978998425 H
   0.8372375984055377   -0.0611195044991162    0.2451026666932850 H
   0.9724403059540750    0.3023257137144258    0.2500691815311271 H
   0.0880075543963806    0.3518335187226949    0.2635784315428100 H
   1.0324620707336207    0.3146007615064535    0.2572511646710208 H
   0.1635913236481186    0.9257779646113899    0.2445562616434144 H
   0.1730513613785039    0.1821345729231566    0.2650387111699467 H
   0.1625209178124454    1.0582159592593487    0.2551513272485364 H
   0.9421600000000000    0.6215700000000000    0.2425250000000000 O
   0.0088900000000000    0.6505500000000000    0.2499500000000000 O
   0.8179700000000000    0.0279600000000000    0.2520600000000000 O
   0.8126350000000000    0.8798200000000000    0.2407000000000000 O
   0.9908049999999999    0.3471600000000000    0.2517600000000000 O
   0.0574850000000000    0.3756900000000000    0.2595550000000000 O
   0.1817900000000000    0.9693500000000000    0.2480000000000000 O
   0.1871400000000000    0.1171600000000000    0.2598100000000000 O
