H6 C16 N2 O8
1.0
  29.9500579119592771    0.0000000000000000    8.4084300003202461
   2.5644571471230404   14.0620148921184338    2.5178349259649457
   0.0000000000000000    0.0000000000000000   30.0500000000000007
H C N O
6 16 2 8
direct
   0.1045250000000000    0.9501800000000000    0.2511800000000000 H
   0.1177500000000000    0.2363900000000000    0.2585100000000000 H
   0.0102300000000000    0.8205700000000000    0.2483900000000000 H
   0.8820450000000000    0.7607400000000000    0.2426600000000000 H
   0.9893500000000000    0.1774500000000000    0.2529150000000000 H
   0.8951100000000001    0.0476000000000000    0.2489200000000000 H
   0.1163950000000000    0.0897500000000000    0.2550300000000000 C
   0.0514250000000000    0.2175200000000000    0.2559100000000000 C
   0.0971600000000000    0.1858900000000000    0.2565000000000000 C
   0.0898150000000000    0.0251200000000000    0.2528000000000000 C
   0.1654650000000000    0.0561600000000000    0.2544100000000000 C
   0.0247850000000000    0.1531400000000000    0.2538000000000000 C
   0.0440550000000000    0.0563900000000000    0.2524400000000000 C
   0.0316500000000000    0.3212100000000000    0.2559500000000000 C
   0.9680299999999999    0.6762899999999999    0.2458100000000000 C
   0.8833350000000000    0.9076700000000000    0.2455250000000000 C
   0.9482699999999999    0.7800400000000000    0.2453650000000000 C
   0.9025799999999999    0.8114600000000000    0.2441250000000000 C
   0.9098400000000000    0.9726000000000000    0.2476050000000000 C
   0.8342950000000000    0.9410200000000000    0.2459400000000000 C
   0.9748350000000000    0.8447000000000000    0.2472950000000000 C
   0.9555500000000000    0.9415300000000000    0.2482200000000000 C
   0.0206400000000000    0.9843100000000000    0.2502600000000000 N
   0.9789250000000000    0.0000000000000000    0.2503000000000000 N
   0.1871400000000000    0.1171600000000000    0.2598100000000000 O
   0.0088900000000000    0.6505500000000000    0.2499500000000000 O
   0.1817900000000000    0.9693500000000000    0.2480000000000000 O
   0.0574850000000000    0.3756900000000000    0.2595550000000000 O
   0.9421600000000000    0.6215700000000000    0.2425250000000000 O
   0.8126350000000000    0.8798200000000000    0.2407000000000000 O
   0.9908049999999999    0.3471600000000000    0.2517600000000000 O
   0.8179700000000000    0.0279600000000000    0.2520600000000000 O
