H3 C9 O6
1.0
   8.7538094396884514    0.0000000000000000   -0.0031320474683521
  -0.0021711130776691   27.0311697927551897   -0.0025476277489206
   0.0000000000000000    0.0000000000000000   14.8989999999999991
H C O
3 9 6
direct
   0.3181200000000000    0.2163666666666667    0.2788700000000000 H
   0.2499300000000000    0.0785933333333333    0.1394900000000000 H
   0.1825300000000000    0.2165100000000000    0.0004900000000000 H
   0.2503500000000000    0.2225400000000000    0.1396800000000000 C
   0.2891700000000000    0.1964333333333333    0.2176600000000000 C
   0.2900500000000000    0.1446133333333333    0.2175800000000000 C
   0.2500200000000000    0.1188700000000000    0.1395300000000000 C
   0.2100600000000000    0.1446933333333333    0.0615800000000000 C
   0.2113400000000000    0.1965133333333333    0.0616500000000000 C
   0.2506700000000000    0.2780166666666666    0.1397000000000000 C
   0.3390300000000000    0.1165766666666667    0.2994300000000000 C
   0.1608900000000000    0.1168233333333333    0.9796000000000000 C
   0.1652600000000000    0.3004833333333333    1.0840000000000001 O
   0.3362500000000000    0.3004000000000000    0.1954200000000000 O
   0.3668900000000000    0.0706766666666667    0.2908400000000000 O
   0.3520900000000000    0.1399033333333333    0.3731700000000000 O
   1.1471499999999999    0.1403866666666667    0.9061700000000000 O
   0.1334200000000000    0.0708700000000000    0.9876900000000000 O
