H6 O4
1.0
  15.0959999977007477    0.0000000000000000   -0.0002634749038694
  -0.0004270503849027   14.1697355065733799   -8.1311846917519723
   0.0000000000000000    0.0000000000000000   32.6739999999999995
H O
6 4
direct
   0.0839798789476533    0.5761437885702937    0.5591353880501588 H
  -0.1236677847425322    0.7342062139616392    0.6343711621445393 H
  -0.0247270235486113    0.6565281649603560    0.5954540180340031 H
   0.0838527981620457    0.4573202888290331    0.4409475292876943 H
  -0.1237059254673235    0.4641660586956780    0.3653522548727836 H
  -0.0248196423867459    0.4647010299039807    0.4044540393347283 H
   0.0475400000000000    0.6148300000000000    0.5865500000000000 O
  -0.0672100000000000    0.7016300000000000    0.6274150000000001 O
   0.0475100000000000    0.4409700000000000    0.4134450000000000 O
  -0.0672100000000000    0.4456300000000000    0.3723750000000000 O
