H3 C7 N1 O4
1.0
  15.0959999977007477    0.0000000000000000   -0.0002634749038694
  -0.0004270503849027   14.1697355065733799   -8.1311846917519723
   0.0000000000000000    0.0000000000000000   32.6739999999999995
H C N O
3 7 1 4
direct
   0.0708000000000000    0.5811800000000000    0.8638350000000000 H
   0.0708100000000000    0.7276899999999999    0.7905949999999999 H
   0.2832600000000000    0.5324300000000000    0.7662100000000001 H
   0.1037100000000000    0.5954700000000001    0.8383000000000000 C
   0.1821300000000000    0.5476799999999999    0.8163549999999999 C
   0.2220100000000000    0.4747800000000000    0.8250800000000000 C
   0.1037100000000000    0.6766100000000000    0.7977350000000001 C
   0.1821200000000000    0.6327100000000000    0.7738300000000000 C
   0.2220200000000000    0.6501800000000000    0.7373950000000000 C
   0.2223400000000000    0.5678600000000000    0.7839300000000000 C
   0.0649800000000000    0.6594400000000000    0.8297150000000000 N
   0.1823900000000000    0.4459300000000000    0.8507549999999999 O
   0.2969300000000000    0.4405400000000000    0.8071050000000000 O
   0.1823900000000000    0.7015200000000000    0.7229650000000000 O
   0.2969200000000000    0.6142100000000000    0.7202649999999999 O
