H6 C12 S2 N2 O4
1.0
  22.5992263259282247    0.0000000000000000   -1.9592920837569734
   1.8228753949982592   34.5202865414094759  -17.9913268658343810
   0.0000000000000000    0.0000000000000000   25.9720000000000013
H C S N O
6 12 2 2 4
direct
   0.1263500000000000    0.0678166666666667    0.8486750000000001 H
   0.9420900000000000    0.0841866666666667    0.8059100000000000 H
   0.9584500000000000    0.0332200000000000    0.7041850000000001 H
   0.9054100000000000    0.0604900000000000    0.5155200000000000 H
   0.0772200000000000    0.0980600000000000    0.5968500000000000 H
   0.0829200000000000    0.0451266666666667    0.6274999999999999 H
   0.0251400000000000    0.1123600000000000    0.8956700000000000 C
   0.0335000000000000    0.0808033333333333    0.8348900000000000 C
   0.0880900000000000    0.0610266666666667    0.8179750000000000 C
   0.9858000000000000    0.0701233333333333    0.7934450000000000 C
   0.9947400000000000    0.0418000000000000    0.7371750000000000 C
   0.0512100000000000    0.0237200000000000    0.7231200000000000 C
   0.9968900000000001    0.0257200000000000    0.5861050000000000 C
   0.9456700000000000    0.0579400000000000    0.5399650000000000 C
   0.9915300000000000    0.0831100000000000    0.5532500000000000 C
   0.0414500000000000    0.0785300000000000    0.5856800000000000 C
   0.9897200000000000    0.1133633333333333    0.5325500000000000 C
   0.0446300000000000    0.0496266666666667    0.6030200000000000 C
   0.9925900000000000    0.9859566666666666    0.6023000000000001 S
   0.0680600000000000    0.9873299999999999    0.6518600000000000 S
   0.9482600000000000    0.0294766666666667    0.5557500000000000 N
   0.0973500000000000    0.0328100000000000    0.7633000000000000 N
   0.9400500000000001    0.1223166666666667    0.5138000000000000 O
   0.0392300000000000    0.1275700000000000    0.5354700000000000 O
   0.9718500000000000    0.1224200000000000    0.9096750000000000 O
   0.0716000000000000    0.1263600000000000    0.9274450000000001 O
