Zn48 H290 C564 S94 N94 O193
1.0
  22.5992263259282247    0.0000000000000000   -1.9592920837569734
   1.8228753949982592   34.5202865414094759  -17.9913268658343810
   0.0000000000000000    0.0000000000000000   25.9720000000000013
Zn H C S N O
48 290 564 94 94 193
direct
   0.6850900000000000    0.0087800000000000    0.7524250000000000 Zn
   0.8149200000000000    0.9912200000000000    0.7475499999999999 Zn
   0.6850900000000000    0.6754466666666666    0.7524250000000000 Zn
   0.8149200000000000    0.6578866666666666    0.7475499999999999 Zn
   0.6850900000000000    0.3421133333333333    0.7524250000000000 Zn
   0.8149200000000000    0.3245533333333333    0.7475499999999999 Zn
   0.6850900000000000    0.0087800000000000    0.2524250000000000 Zn
   0.8149200000000000    0.9912200000000000    0.2475500000000000 Zn
   0.6850900000000000    0.3421133333333333    0.2524250000000000 Zn
   0.8149200000000000    0.3245533333333333    0.2475500000000000 Zn
   0.6850900000000000    0.6754466666666666    0.2524250000000000 Zn
   0.8149200000000000    0.6578866666666666    0.2475500000000000 Zn
   0.0649200000000000    0.8349466666666666    0.0131650000000000 Zn
   0.0649200000000000    0.8349466666666666    0.5131650000000000 Zn
   0.9350900000000000    0.8317200000000000    0.4868400000000000 Zn
   0.9350900000000000    0.8317200000000000    0.9868399999999999 Zn
   0.0649200000000000    0.5016133333333332    0.5131650000000000 Zn
   0.0649200000000000    0.5016133333333332    0.0131650000000000 Zn
   0.9350900000000000    0.4983866666666666    0.9868399999999999 Zn
   0.9350900000000000    0.4983866666666666    0.4868400000000000 Zn
   0.0649200000000000    0.1682800000000000    0.5131650000000000 Zn
   0.0649200000000000    0.1682800000000000    0.0131650000000000 Zn
   0.9350900000000000    0.1650533333333333    0.4868400000000000 Zn
   0.9350900000000000    0.1650533333333333    0.9868399999999999 Zn
   0.4350800000000000    0.8317200000000000    0.4868400000000000 Zn
   0.4350800000000000    0.8317200000000000    0.9868399999999999 Zn
   0.5649200000000000    0.8349466666666666    0.0131650000000000 Zn
   0.5649200000000000    0.8349466666666666    0.5131650000000000 Zn
   0.4350800000000000    0.4983866666666666    0.4868400000000000 Zn
   0.4350800000000000    0.4983866666666666    0.9868399999999999 Zn
   0.5649200000000000    0.5016133333333332    0.0131650000000000 Zn
   0.5649200000000000    0.5016133333333332    0.5131650000000000 Zn
   0.1850900000000000    0.0087800000000000    0.7524250000000000 Zn
   0.3149200000000000    0.9912200000000000    0.7475499999999999 Zn
   0.1850900000000000    0.6754466666666666    0.7524250000000000 Zn
   0.3149200000000000    0.6578866666666666    0.7475499999999999 Zn
   0.1850900000000000    0.3421133333333333    0.7524250000000000 Zn
   0.3149200000000000    0.3245533333333333    0.7475499999999999 Zn
   0.4350800000000000    0.1650533333333333    0.9868399999999999 Zn
   0.4350800000000000    0.1650533333333333    0.4868400000000000 Zn
   0.5649200000000000    0.1682800000000000    0.0131650000000000 Zn
   0.5649200000000000    0.1682800000000000    0.5131650000000000 Zn
   0.1850900000000000    0.3421133333333333    0.2524250000000000 Zn
   0.3149200000000000    0.3245533333333333    0.2475500000000000 Zn
   0.1850900000000000    0.0087800000000000    0.2524250000000000 Zn
   0.3149200000000000    0.9912200000000000    0.2475500000000000 Zn
   0.1850900000000000    0.6754466666666666    0.2524250000000000 Zn
   0.3149200000000000    0.6578866666666666    0.2475500000000000 Zn
   0.0906689324860642    0.0531682564814496    0.8027478797326612 H
   0.0641011152160181    0.0262596670419073    0.7343459429861207 H
   0.7915600000000000    0.1361400000000000    0.5498750000000000 H
   0.8079100000000000    0.2039433333333333    0.6263200000000000 H
   0.6236500000000000    0.2324500000000000    0.6017000000000000 H
   0.8445900000000000    0.0103100000000000    0.5906400000000001 H
   0.6671200000000000    0.0852600000000000    0.5677200000000000 H
   0.6728100000000000    0.0645566666666667    0.6470950000000000 H
   0.7084400000000000    0.8638566666666666    0.9501250000000000 H
   0.6921000000000000    0.7960533333333333    0.8736500000000000 H
   0.8763600000000000    0.7675466666666666    0.8982850000000000 H
   0.6554100000000000    0.9896900000000000    0.9093650000000000 H
   0.8328900000000000    0.9147399999999999    0.9322850000000000 H
   0.8272000000000000    0.9354433333333333    0.8529100000000001 H
   0.7915600000000000    0.8028066666666667    0.5498750000000000 H
   0.8079100000000000    0.8706099999999999    0.6263200000000000 H
   0.6236500000000000    0.8991166666666666    0.6017000000000000 H
   0.8445900000000000    0.6769766666666667    0.5906400000000001 H
   0.6671200000000000    0.7519266666666666    0.5677200000000000 H
   0.6728100000000000    0.7312233333333333    0.6470950000000000 H
   0.7084400000000000    0.5305233333333333    0.9501250000000000 H
   0.6921000000000000    0.4627200000000000    0.8736500000000000 H
   0.8763600000000000    0.4342133333333333    0.8982850000000000 H
   0.6554100000000000    0.6563566666666667    0.9093650000000000 H
   0.8328900000000000    0.5814066666666666    0.9322850000000000 H
   0.8272000000000000    0.6021099999999999    0.8529100000000001 H
   0.7915600000000000    0.4694733333333333    0.5498750000000000 H
   0.8079100000000000    0.5372766666666666    0.6263200000000000 H
   0.6236500000000000    0.5657833333333333    0.6017000000000000 H
   0.8445900000000000    0.3436433333333333    0.5906400000000001 H
   0.6671200000000000    0.4185933333333333    0.5677200000000000 H
   0.6728100000000000    0.3978900000000000    0.6470950000000000 H
   0.7084400000000000    0.1971900000000000    0.9501250000000000 H
   0.6921000000000000    0.1293866666666666    0.8736500000000000 H
   0.8763600000000000    0.1008800000000000    0.8982850000000000 H
   0.6554100000000000    0.3230233333333333    0.9093650000000000 H
   0.8328900000000000    0.2480733333333333    0.9322850000000000 H
   0.8272000000000000    0.2687766666666667    0.8529100000000001 H
   0.7915600000000000    0.1361400000000000    0.0498750000000000 H
   0.8079100000000000    0.2039433333333333    0.1263200000000000 H
   0.6236500000000000    0.2324500000000000    0.1017000000000000 H
   0.8445900000000000    0.0103100000000000    0.0906400000000000 H
   0.6671200000000000    0.0852600000000000    0.0677200000000000 H
   0.6728100000000000    0.0645566666666667    0.1470950000000000 H
   0.7084400000000000    0.8638566666666666    0.4501250000000000 H
   0.6921000000000000    0.7960533333333333    0.3736500000000000 H
   0.8763600000000000    0.7675466666666666    0.3982850000000000 H
   0.6554100000000000    0.9896900000000000    0.4093650000000000 H
   0.8328900000000000    0.9147399999999999    0.4322850000000000 H
   0.8272000000000000    0.9354433333333333    0.3529100000000000 H
   0.7915600000000000    0.4694733333333333    0.0498750000000000 H
   0.8079100000000000    0.5372766666666666    0.1263200000000000 H
   0.6236500000000000    0.5657833333333333    0.1017000000000000 H
   0.8445900000000000    0.3436433333333333    0.0906400000000000 H
   0.6671200000000000    0.4185933333333333    0.0677200000000000 H
   0.6728100000000000    0.3978900000000000    0.1470950000000000 H
   0.7084400000000000    0.1971900000000000    0.4501250000000000 H
   0.6921000000000000    0.1293866666666666    0.3736500000000000 H
   0.8763600000000000    0.1008800000000000    0.3982850000000000 H
   0.6554100000000000    0.3230233333333333    0.4093650000000000 H
   0.8328900000000000    0.2480733333333333    0.4322850000000000 H
   0.8272000000000000    0.2687766666666667    0.3529100000000000 H
   0.7915600000000000    0.8028066666666667    0.0498750000000000 H
   0.8079100000000000    0.8706099999999999    0.1263200000000000 H
   0.6236500000000000    0.8991166666666666    0.1017000000000000 H
   0.8445900000000000    0.6769766666666667    0.0906400000000000 H
   0.6671200000000000    0.7519266666666666    0.0677200000000000 H
   0.6728100000000000    0.7312233333333333    0.1470950000000000 H
   0.7084400000000000    0.5305233333333333    0.4501250000000000 H
   0.6921000000000000    0.4627200000000000    0.3736500000000000 H
   0.8763600000000000    0.4342133333333333    0.3982850000000000 H
   0.6554100000000000    0.6563566666666667    0.4093650000000000 H
   0.8328900000000000    0.5814066666666666    0.4322850000000000 H
   0.8272000000000000    0.6021099999999999    0.3529100000000000 H
   0.9584500000000000    0.6998866666666667    0.2041850000000000 H
   0.9420900000000000    0.7508533333333333    0.3059100000000000 H
   0.1263500000000000    0.7344833333333333    0.3486750000000000 H
   0.9054100000000000    0.7271566666666667    0.0155200000000000 H
   0.0829200000000000    0.7117933333333333    0.1275000000000000 H
   0.0772200000000000    0.7647266666666667    0.0968500000000000 H
   0.9584500000000000    0.6998866666666667    0.7041850000000001 H
   0.9420900000000000    0.7508533333333333    0.8059100000000000 H
   0.1263500000000000    0.7344833333333333    0.8486750000000001 H
   0.9054100000000000    0.7271566666666667    0.5155200000000000 H
   0.0829200000000000    0.7117933333333333    0.6274999999999999 H
   0.0772200000000000    0.7647266666666667    0.5968500000000000 H
   0.0415600000000000    0.9667800000000000    0.2958200000000000 H
   0.0579100000000000    0.9158133333333333    0.1940950000000000 H
   0.8736500000000000    0.9321833333333333    0.1513300000000000 H
   0.0945900000000000    0.9395066666666666    0.4844500000000000 H
   0.9170900000000000    0.9548666666666666    0.3721500000000000 H
   0.9227800000000000    0.9019366666666666    0.4031500000000000 H
   0.0415600000000000    0.9667800000000000    0.7958200000000000 H
   0.0579100000000000    0.9158133333333333    0.6940950000000000 H
   0.8736500000000000    0.9321833333333333    0.6513300000000000 H
   0.0945900000000000    0.9395066666666666    0.9844500000000000 H
   0.9170900000000000    0.9548666666666666    0.8721500000000000 H
   0.9227800000000000    0.9019366666666666    0.9031500000000000 H
   0.9584500000000000    0.3665533333333333    0.7041850000000001 H
   0.9420900000000000    0.4175200000000000    0.8059100000000000 H
   0.1263500000000000    0.4011500000000000    0.8486750000000001 H
   0.9054100000000000    0.3938233333333333    0.5155200000000000 H
   0.0829200000000000    0.3784600000000000    0.6274999999999999 H
   0.0772200000000000    0.4313933333333333    0.5968500000000000 H
   0.9584500000000000    0.3665533333333333    0.2041850000000000 H
   0.9420900000000000    0.4175200000000000    0.3059100000000000 H
   0.1263500000000000    0.4011500000000000    0.3486750000000000 H
   0.9054100000000000    0.3938233333333333    0.0155200000000000 H
   0.0829200000000000    0.3784600000000000    0.1275000000000000 H
   0.0772200000000000    0.4313933333333333    0.0968500000000000 H
   0.0415600000000000    0.6334466666666667    0.7958200000000000 H
   0.0579100000000000    0.5824800000000000    0.6940950000000000 H
   0.8736500000000000    0.5988499999999999    0.6513300000000000 H
   0.0945900000000000    0.6061733333333332    0.9844500000000000 H
   0.9170900000000000    0.6215333333333333    0.8721500000000000 H
   0.9227800000000000    0.5686033333333333    0.9031500000000000 H
   0.0415600000000000    0.6334466666666667    0.2958200000000000 H
   0.0579100000000000    0.5824800000000000    0.1940950000000000 H
   0.8736500000000000    0.5988499999999999    0.1513300000000000 H
   0.0945900000000000    0.6061733333333332    0.4844500000000000 H
   0.9170900000000000    0.6215333333333333    0.3721500000000000 H
   0.9227800000000000    0.5686033333333333    0.4031500000000000 H
   0.9525472697938572    0.1285548386535891    0.8799024651371788 H
   0.9239512917448526    0.1289511678878098    0.5508519834271722 H
   0.0564599607039525    0.1349756095385660    0.5744167698562624 H
   0.0853028652869250    0.1345499709290756    0.9006832066176741 H
   0.9584500000000000    0.0332200000000000    0.2041850000000000 H
   0.9420900000000000    0.0841866666666667    0.3059100000000000 H
   0.1263500000000000    0.0678166666666667    0.3486750000000000 H
   0.9054100000000000    0.0604900000000000    0.0155200000000000 H
   0.0829200000000000    0.0451266666666667    0.1275000000000000 H
   0.0772200000000000    0.0980600000000000    0.0968500000000000 H
   0.0415600000000000    0.3001133333333333    0.2958200000000000 H
   0.0579100000000000    0.2491466666666667    0.1940950000000000 H
   0.8736500000000000    0.2655166666666666    0.1513300000000000 H
   0.0945900000000000    0.2728400000000000    0.4844500000000000 H
   0.9170900000000000    0.2882000000000000    0.3721500000000000 H
   0.9227800000000000    0.2352700000000000    0.4031500000000000 H
   0.0415600000000000    0.3001133333333333    0.7958200000000000 H
   0.0579100000000000    0.2491466666666667    0.6940950000000000 H
   0.8736500000000000    0.2655166666666666    0.6513300000000000 H
   0.0945900000000000    0.2728400000000000    0.9844500000000000 H
   0.9170900000000000    0.2882000000000000    0.8721500000000000 H
   0.9227800000000000    0.2352700000000000    0.9031500000000000 H
   0.5415600000000000    0.9667800000000000    0.2958200000000000 H
   0.5579200000000000    0.9158133333333333    0.1940950000000000 H
   0.3736500000000000    0.9321833333333333    0.1513300000000000 H
   0.5945900000000000    0.9395100000000000    0.4844900000000000 H
   0.4170900000000000    0.9548666666666666    0.3721500000000000 H
   0.4227800000000000    0.9019366666666666    0.4031500000000000 H
   0.5415600000000000    0.9667800000000000    0.7958200000000000 H
   0.5579200000000000    0.9158133333333333    0.6940950000000000 H
   0.3736500000000000    0.9321833333333333    0.6513300000000000 H
   0.5945900000000000    0.9395100000000000    0.9844900000000000 H
   0.4170900000000000    0.9548666666666666    0.8721500000000000 H
   0.4227800000000000    0.9019366666666666    0.9031500000000000 H
   0.4584500000000000    0.6998866666666667    0.2041850000000000 H
   0.4420900000000000    0.7508533333333333    0.3059100000000000 H
   0.6263500000000000    0.7344833333333333    0.3486750000000000 H
   0.4054100000000000    0.7271566666666667    0.0155000000000000 H
   0.5829200000000000    0.7117966666666666    0.1278500000000000 H
   0.5772200000000000    0.7647266666666667    0.0968500000000000 H
   0.4584500000000000    0.6998866666666667    0.7041850000000001 H
   0.4420900000000000    0.7508533333333333    0.8059100000000000 H
   0.6263500000000000    0.7344833333333333    0.8486750000000001 H
   0.4054100000000000    0.7271566666666667    0.5155000000000000 H
   0.5829200000000000    0.7117966666666666    0.6278500000000000 H
   0.5772200000000000    0.7647266666666667    0.5968500000000000 H
   0.5415600000000000    0.6334466666666667    0.2958200000000000 H
   0.5579200000000000    0.5824800000000000    0.1940950000000000 H
   0.3736500000000000    0.5988499999999999    0.1513300000000000 H
   0.5945900000000000    0.6061766666666666    0.4844900000000000 H
   0.4170900000000000    0.6215333333333333    0.3721500000000000 H
   0.4227800000000000    0.5686033333333333    0.4031500000000000 H
   0.5415600000000000    0.6334466666666667    0.7958200000000000 H
   0.5579200000000000    0.5824800000000000    0.6940950000000000 H
   0.3736500000000000    0.5988499999999999    0.6513300000000000 H
   0.5945900000000000    0.6061766666666666    0.9844900000000000 H
   0.4170900000000000    0.6215333333333333    0.8721500000000000 H
   0.4227800000000000    0.5686033333333333    0.9031500000000000 H
   0.4584500000000000    0.3665533333333333    0.2041850000000000 H
   0.4420900000000000    0.4175200000000000    0.3059100000000000 H
   0.6263500000000000    0.4011500000000000    0.3486750000000000 H
   0.4054100000000000    0.3938233333333333    0.0155000000000000 H
   0.5829200000000000    0.3784633333333333    0.1278500000000000 H
   0.5772200000000000    0.4313933333333333    0.0968500000000000 H
   0.4584500000000000    0.3665533333333333    0.7041850000000001 H
   0.4420900000000000    0.4175200000000000    0.8059100000000000 H
   0.6263500000000000    0.4011500000000000    0.8486750000000001 H
   0.4054100000000000    0.3938233333333333    0.5155000000000000 H
   0.5829200000000000    0.3784633333333333    0.6278500000000000 H
   0.5772200000000000    0.4313933333333333    0.5968500000000000 H
   0.2915600000000000    0.1361400000000000    0.5498750000000000 H
   0.3079000000000000    0.2039433333333333    0.6263200000000000 H
   0.1236500000000000    0.2324500000000000    0.6017000000000000 H
   0.3445900000000000    0.0103100000000000    0.5906350000000000 H
   0.1671200000000000    0.0852600000000000    0.5677200000000000 H
   0.1728000000000000    0.0645600000000000    0.6470950000000000 H
   0.2084400000000000    0.8638566666666666    0.9501250000000000 H
   0.1921000000000000    0.7960533333333333    0.8736500000000000 H
   0.3763600000000000    0.7675466666666666    0.8982850000000000 H
   0.1554100000000000    0.9896866666666666    0.9093650000000000 H
   0.3328900000000000    0.9147399999999999    0.9322850000000000 H
   0.3272000000000000    0.9354433333333333    0.8529100000000001 H
   0.2915600000000000    0.8028066666666667    0.5498750000000000 H
   0.3079000000000000    0.8706099999999999    0.6263200000000000 H
   0.1236500000000000    0.8991166666666666    0.6017000000000000 H
   0.3445900000000000    0.6769766666666667    0.5906350000000000 H
   0.1671200000000000    0.7519266666666666    0.5677200000000000 H
   0.1728000000000000    0.7312266666666666    0.6470950000000000 H
   0.2084400000000000    0.5305233333333333    0.9501250000000000 H
   0.1921000000000000    0.4627200000000000    0.8736500000000000 H
   0.3763600000000000    0.4342133333333333    0.8982850000000000 H
   0.1554100000000000    0.6563533333333333    0.9093650000000000 H
   0.3328900000000000    0.5814066666666666    0.9322850000000000 H
   0.3272000000000000    0.6021099999999999    0.8529100000000001 H
   0.2915600000000000    0.4694733333333333    0.5498750000000000 H
   0.3079000000000000    0.5372766666666666    0.6263200000000000 H
   0.1236500000000000    0.5657833333333333    0.6017000000000000 H
   0.3445900000000000    0.3436433333333333    0.5906350000000000 H
   0.1671200000000000    0.4185933333333333    0.5677200000000000 H
   0.1728000000000000    0.3978933333333333    0.6470950000000000 H
   0.2084400000000000    0.1971900000000000    0.9501250000000000 H
   0.1921000000000000    0.1293866666666666    0.8736500000000000 H
   0.3763600000000000    0.1008800000000000    0.8982850000000000 H
   0.1554100000000000    0.3230200000000000    0.9093650000000000 H
   0.3328900000000000    0.2480733333333333    0.9322850000000000 H
   0.3272000000000000    0.2687766666666667    0.8529100000000001 H
   0.5415600000000000    0.3001133333333333    0.7958200000000000 H
   0.5579200000000000    0.2491466666666667    0.6940950000000000 H
   0.3736500000000000    0.2655166666666666    0.6513300000000000 H
   0.5945900000000000    0.2728433333333333    0.9844900000000000 H
   0.4170900000000000    0.2882000000000000    0.8721500000000000 H
   0.4227800000000000    0.2352700000000000    0.9031500000000000 H
   0.5415600000000000    0.3001133333333333    0.2958200000000000 H
   0.5579200000000000    0.2491466666666667    0.1940950000000000 H
   0.3736500000000000    0.2655166666666666    0.1513300000000000 H
   0.5945900000000000    0.2728433333333333    0.4844900000000000 H
   0.4170900000000000    0.2882000000000000    0.3721500000000000 H
   0.4227800000000000    0.2352700000000000    0.4031500000000000 H
   0.4584500000000000    0.0332200000000000    0.2041850000000000 H
   0.4420900000000000    0.0841866666666667    0.3059100000000000 H
   0.6263500000000000    0.0678166666666667    0.3486750000000000 H
   0.4054100000000000    0.0604900000000000    0.0155000000000000 H
   0.5829200000000000    0.0451300000000000    0.1278500000000000 H
   0.5772200000000000    0.0980600000000000    0.0968500000000000 H
   0.4584500000000000    0.0332200000000000    0.7041850000000001 H
   0.4420900000000000    0.0841866666666667    0.8059100000000000 H
   0.6263500000000000    0.0678166666666667    0.8486750000000001 H
   0.4054100000000000    0.0604900000000000    0.5155000000000000 H
   0.5829200000000000    0.0451300000000000    0.6278500000000000 H
   0.5772200000000000    0.0980600000000000    0.5968500000000000 H
   0.2915600000000000    0.4694733333333333    0.0498750000000000 H
   0.3079000000000000    0.5372766666666666    0.1263200000000000 H
   0.1236500000000000    0.5657833333333333    0.1017000000000000 H
   0.3445900000000000    0.3436433333333333    0.0906350000000000 H
   0.1671200000000000    0.4185933333333333    0.0677200000000000 H
   0.1728000000000000    0.3978933333333333    0.1470950000000000 H
   0.2084400000000000    0.1971900000000000    0.4501250000000000 H
   0.1921000000000000    0.1293866666666666    0.3736500000000000 H
   0.3763600000000000    0.1008800000000000    0.3982850000000000 H
   0.1554100000000000    0.3230200000000000    0.4093650000000000 H
   0.3328900000000000    0.2480733333333333    0.4322850000000000 H
   0.3272000000000000    0.2687766666666667    0.3529100000000000 H
   0.2915600000000000    0.1361400000000000    0.0498750000000000 H
   0.3079000000000000    0.2039433333333333    0.1263200000000000 H
   0.1236500000000000    0.2324500000000000    0.1017000000000000 H
   0.3445900000000000    0.0103100000000000    0.0906350000000000 H
   0.1671200000000000    0.0852600000000000    0.0677200000000000 H
   0.1728000000000000    0.0645600000000000    0.1470950000000000 H
   0.2084400000000000    0.8638566666666666    0.4501250000000000 H
   0.1921000000000000    0.7960533333333333    0.3736500000000000 H
   0.3763600000000000    0.7675466666666666    0.3982850000000000 H
   0.1554100000000000    0.9896866666666666    0.4093650000000000 H
   0.3328900000000000    0.9147399999999999    0.4322850000000000 H
   0.3272000000000000    0.9354433333333333    0.3529100000000000 H
   0.2915600000000000    0.8028066666666667    0.0498750000000000 H
   0.3079000000000000    0.8706099999999999    0.1263200000000000 H
   0.1236500000000000    0.8991166666666666    0.1017000000000000 H
   0.3445900000000000    0.6769766666666667    0.0906350000000000 H
   0.1671200000000000    0.7519266666666666    0.0677200000000000 H
   0.1728000000000000    0.7312266666666666    0.1470950000000000 H
   0.2084400000000000    0.5305233333333333    0.4501250000000000 H
   0.1921000000000000    0.4627200000000000    0.3736500000000000 H
   0.3763600000000000    0.4342133333333333    0.3982850000000000 H
   0.1554100000000000    0.6563533333333333    0.4093650000000000 H
   0.3328900000000000    0.5814066666666666    0.4322850000000000 H
   0.3272000000000000    0.6021099999999999    0.3529100000000000 H
  -0.0051626386808349    0.1458648228435406    0.6376418815337132 H
   0.0107823496596648    0.1456892072232154    0.8336398441647764 H
   0.7248500000000000    0.2637800000000000    0.6685449999999999 C
   0.7552700000000000    0.1581333333333333    0.5627000000000000 C
   0.7642000000000000    0.1956366666666667    0.6052200000000000 C
   0.6619100000000000    0.2119866666666667    0.5915500000000000 C
   0.6988000000000000    0.1487633333333333    0.5356050000000000 C
   0.7165000000000000    0.2232633333333333    0.6212250000000000 C
   0.7603000000000000    0.0216733333333333    0.6699950000000000 C
   0.8043500000000000    0.0266200000000000    0.5868400000000000 C
   0.7531300000000000    0.0574100000000000    0.5385500000000000 C
   0.7053900000000000    0.0686833333333333    0.5744250000000000 C
   0.7085700000000000    0.0571200000000000    0.6177850000000000 C
   0.7584900000000000    0.0354766666666667    0.6246200000000000 C
   0.7751600000000000    0.7362166666666666    0.8314600000000000 C
   0.7447400000000000    0.8418666666666665    0.9372750000000001 C
   0.7358100000000000    0.8043633333333333    0.8947849999999999 C
   0.8381000000000000    0.7880133333333332    0.9084550000000000 C
   0.8012000000000000    0.8512333333333333    0.9643999999999999 C
   0.7835100000000000    0.7767333333333333    0.8787499999999999 C
   0.7397100000000000    0.9783266666666666    0.8300100000000000 C
   0.6956599999999999    0.9733799999999999    0.9131650000000000 C
   0.7468700000000000    0.9425899999999999    0.9614549999999999 C
   0.7946100000000000    0.9313166666666666    0.9255800000000001 C
   0.7914400000000000    0.9428833333333333    0.8822200000000000 C
   0.7415200000000000    0.9645199999999999    0.8753850000000001 C
   0.7248500000000000    0.9304466666666666    0.6685449999999999 C
   0.7552700000000000    0.8248000000000000    0.5627000000000000 C
   0.7642000000000000    0.8623033333333333    0.6052200000000000 C
   0.6619100000000000    0.8786533333333333    0.5915500000000000 C
   0.6988000000000000    0.8154300000000000    0.5356050000000000 C
   0.7165000000000000    0.8899299999999999    0.6212250000000000 C
   0.7603000000000000    0.6883400000000000    0.6699950000000000 C
   0.8043500000000000    0.6932866666666666    0.5868400000000000 C
   0.7531300000000000    0.7240766666666666    0.5385500000000000 C
   0.7053900000000000    0.7353499999999999    0.5744250000000000 C
   0.7085700000000000    0.7237866666666666    0.6177850000000000 C
   0.7584900000000000    0.7021433333333333    0.6246200000000000 C
   0.7751600000000000    0.4028833333333333    0.8314600000000000 C
   0.7447400000000000    0.5085333333333333    0.9372750000000001 C
   0.7358100000000000    0.4710299999999999    0.8947849999999999 C
   0.8381000000000000    0.4546800000000000    0.9084550000000000 C
   0.8012000000000000    0.5179000000000000    0.9643999999999999 C
   0.7835100000000000    0.4434000000000000    0.8787499999999999 C
   0.7397100000000000    0.6449933333333333    0.8300100000000000 C
   0.6956599999999999    0.6400466666666667    0.9131650000000000 C
   0.7468700000000000    0.6092566666666666    0.9614549999999999 C
   0.7946100000000000    0.5979833333333333    0.9255800000000001 C
   0.7914400000000000    0.6095500000000000    0.8822200000000000 C
   0.7415200000000000    0.6311866666666666    0.8753850000000001 C
   0.7248500000000000    0.5971133333333334    0.6685449999999999 C
   0.7552700000000000    0.4914666666666666    0.5627000000000000 C
   0.7642000000000000    0.5289699999999999    0.6052200000000000 C
   0.6619100000000000    0.5453200000000000    0.5915500000000000 C
   0.6988000000000000    0.4820966666666666    0.5356050000000000 C
   0.7165000000000000    0.5565966666666666    0.6212250000000000 C
   0.7603000000000000    0.3550066666666666    0.6699950000000000 C
   0.8043500000000000    0.3599533333333333    0.5868400000000000 C
   0.7531300000000000    0.3907433333333333    0.5385500000000000 C
   0.7053900000000000    0.4020166666666666    0.5744250000000000 C
   0.7085700000000000    0.3904533333333333    0.6177850000000000 C
   0.7584900000000000    0.3688100000000000    0.6246200000000000 C
   0.7751600000000000    0.0695500000000000    0.8314600000000000 C
   0.7447400000000000    0.1752000000000000    0.9372750000000001 C
   0.7358100000000000    0.1376966666666667    0.8947849999999999 C
   0.8381000000000000    0.1213466666666667    0.9084550000000000 C
   0.8012000000000000    0.1845666666666667    0.9643999999999999 C
   0.7835100000000000    0.1100666666666667    0.8787499999999999 C
   0.7397100000000000    0.3116600000000000    0.8300100000000000 C
   0.6956599999999999    0.3067133333333333    0.9131650000000000 C
   0.7468700000000000    0.2759233333333333    0.9614549999999999 C
   0.7946100000000000    0.2646500000000000    0.9255800000000001 C
   0.7914400000000000    0.2762166666666667    0.8822200000000000 C
   0.7415200000000000    0.2978533333333333    0.8753850000000001 C
   0.7248500000000000    0.2637800000000000    0.1685450000000000 C
   0.7552700000000000    0.1581333333333333    0.0627000000000000 C
   0.7642000000000000    0.1956366666666667    0.1052200000000000 C
   0.6619100000000000    0.2119866666666667    0.0915500000000000 C
   0.6988000000000000    0.1487633333333333    0.0356050000000000 C
   0.7165000000000000    0.2232633333333333    0.1212250000000000 C
   0.7603000000000000    0.0216733333333333    0.1699950000000000 C
   0.8043500000000000    0.0266200000000000    0.0868400000000000 C
   0.7531300000000000    0.0574100000000000    0.0385500000000000 C
   0.7053900000000000    0.0686833333333333    0.0744250000000000 C
   0.7085700000000000    0.0571200000000000    0.1177850000000000 C
   0.7584900000000000    0.0354766666666667    0.1246200000000000 C
   0.7751600000000000    0.7362166666666666    0.3314600000000000 C
   0.7447400000000000    0.8418666666666665    0.4372750000000000 C
   0.7358100000000000    0.8043633333333333    0.3947850000000000 C
   0.8381000000000000    0.7880133333333332    0.4084550000000000 C
   0.8012000000000000    0.8512333333333333    0.4644000000000000 C
   0.7835100000000000    0.7767333333333333    0.3787500000000000 C
   0.7397100000000000    0.9783266666666666    0.3300100000000000 C
   0.6956599999999999    0.9733799999999999    0.4131650000000000 C
   0.7468700000000000    0.9425899999999999    0.4614550000000000 C
   0.7946100000000000    0.9313166666666666    0.4255800000000000 C
   0.7914400000000000    0.9428833333333333    0.3822200000000000 C
   0.7415200000000000    0.9645199999999999    0.3753850000000000 C
   0.7248500000000000    0.5971133333333334    0.1685450000000000 C
   0.7552700000000000    0.4914666666666666    0.0627000000000000 C