H8 O5
1.0
  22.5992263259282247    0.0000000000000000   -1.9592920837569734
   1.8228753949982592   34.5202865414094759  -17.9913268658343810
   0.0000000000000000    0.0000000000000000   25.9720000000000013
H O
8 5
direct
   0.9239512917448526    0.1289511678878098    0.5508519834271722 H
   0.0564599607039525    0.1349756095385660    0.5744167698562624 H
  -0.0051626386808349    0.1458648228435406    0.6376418815337132 H
   0.0906689324860642    0.0531682564814496    0.8027478797326612 H
   0.0641011152160181    0.0262596670419073    0.7343459429861207 H
   0.0853028652869250    0.1345499709290756    0.9006832066176741 H
   0.9525472697938572    0.1285548386535891    0.8799024651371788 H
   0.0107823496596648    0.1456892072232154    0.8336398441647764 H
   0.9400500000000001    0.1223166666666667    0.5138000000000000 O
   0.0392300000000000    0.1275700000000000    0.5354700000000000 O
   0.0973500000000000    0.0328100000000000    0.7633000000000000 O
   0.0716000000000000    0.1263600000000000    0.9274450000000001 O
   0.9718500000000000    0.1224200000000000    0.9096750000000000 O
