H4 C8 O4
1.0
  31.1659999952531450    0.0000000000000000    0.0005439493146494
   0.0337472061124275   32.8733779245508728  -13.5487645545906084
   0.0000000000000000    0.0000000000000000   36.6139999999999972
H C O
4 8 4
direct
   0.6265149999999999    0.3569400000000000    0.5528150000000001 H
   0.6874650000000000    0.3509500000000000    0.6558200000000000 H
   0.5838800000000000    0.4169950000000000    0.5957700000000000 H
   0.6431950000000000    0.4096950000000000    0.6988000000000000 H
   0.6855800000000000    0.3142850000000000    0.5759750000000000 C
   0.6596800000000000    0.3501800000000000    0.6016100000000000 C
   0.6302000000000000    0.3687850000000000    0.5847900000000000 C
   0.6646000000000000    0.3653950000000000    0.6428000000000000 C
   0.6061250000000000    0.4020000000000000    0.6087700000000000 C
   0.6398500000000000    0.3980350000000000    0.6668149999999999 C
   0.6102400000000000    0.4165150000000000    0.6500000000000000 C
   0.5825100000000000    0.4509250000000000    0.6756500000000000 C
   0.7184600000000000    0.3043700000000000    0.5904950000000000 O
   0.6720550000000001    0.2962100000000000    0.5402100000000000 O
   0.5606500000000000    0.4702650000000000    0.6596350000000000 O
   0.5832349999999999    0.4579700000000000    0.7130500000000000 O
