H6 O4
1.0
  31.1659999952531450    0.0000000000000000    0.0005439493146494
   0.0337472061124275   32.8733779245508728  -13.5487645545906084
   0.0000000000000000    0.0000000000000000   36.6139999999999972
H O
6 4
direct
   0.7276767417173138    0.3220939869358495    0.6167212653589624 H
   0.6485755298631505    0.3061119901835395    0.5289162216158024 H
   0.6838815742939286    0.3189527495215234    0.5738625515451301 H
   0.5570409059147845    0.4429694386041789    0.6591091960650738 H
   0.5813903159936791    0.4320673079660052    0.7160529054955612 H
   0.5323878236460574    0.0734130471461859    0.7056421450714437 H
   0.7184600000000000    0.3043700000000000    0.5904950000000000 O
   0.6720550000000001    0.2962100000000000    0.5402100000000000 O
   0.5606500000000000    0.4702650000000000    0.6596350000000000 O
   0.5832349999999999    0.4579700000000000    0.7130500000000000 O
