H6 O4
1.0
  29.0532100615580262    0.0000000000000000   -0.4026426691044150
  -0.0426053734945575   31.6199703524152653   -0.0077262234558451
   0.0000000000000000    0.0000000000000000   37.9099999999999966
H O
6 4
direct
   0.8027167009918000    0.9194033784957883    0.7244048202525070 H
   0.6773108774042303    0.8725123252156102    0.7217245749549730 H
   0.7410933526850642    0.8917882796707493    0.7196590254015343 H
   0.8328004065417580    0.8482774907004869    0.5788502822898922 H
   0.7083531878454856    0.7997820081456581    0.5808693759530371 H
   0.7687045841192096    0.8252668335351619    0.5846837414700476 H
   0.7714900000000000    0.9202150000000000    0.7331000000000000 O
   0.6990900000000000    0.8928800000000000    0.7313550000000000 O
   0.8083950000000000    0.8334349999999999    0.5662500000000000 O
   0.7362350000000000    0.8055200000000000    0.5679200000000000 O
