Zn128 H450 C760 O448
1.0
  29.0532100615580262    0.0000000000000000   -0.4026426691044150
  -0.0426053734945575   31.6199703524152653   -0.0077262234558451
   0.0000000000000000    0.0000000000000000   37.9099999999999966
Zn H C O
128 450 760 448
direct
   0.2344000000000000    0.0368000000000000    0.7300800000000001 Zn
   0.1720150000000000    0.1817450000000000    0.4828850000000000 Zn
   0.8284650000000000    0.3202000000000000    0.5171950000000000 Zn
   0.7655250000000000    0.4650150000000000    0.2699050000000000 Zn
   0.2361150000000000    0.2867650000000000    0.0197300000000000 Zn
   0.8277600000000001    0.5702650000000000    0.2344450000000000 Zn
   0.1722600000000000    0.4314850000000000    0.2655750000000000 Zn
   0.7655400000000000    0.7149400000000000    0.4802450000000000 Zn
   0.2344000000000000    0.5367999999999999    0.7300800000000001 Zn
   0.1720150000000000    0.6817450000000000    0.4828850000000000 Zn
   0.8284650000000000    0.8202000000000000    0.5171950000000000 Zn
   0.7655250000000000    0.9650150000000000    0.2699050000000000 Zn
   0.2361150000000000    0.7867649999999999    0.0197300000000000 Zn
   0.8277600000000001    0.0702650000000000    0.2344450000000000 Zn
   0.1722600000000000    0.9314850000000000    0.2655750000000000 Zn
   0.7655400000000000    0.2149400000000000    0.4802450000000000 Zn
   0.2344000000000000    0.0368000000000000    0.2300800000000000 Zn
   0.1720150000000000    0.1817450000000000    0.9828850000000000 Zn
   0.8284650000000000    0.3202000000000000    0.0171950000000000 Zn
   0.7655250000000000    0.4650150000000000    0.7699050000000001 Zn
   0.2361150000000000    0.2867650000000000    0.5197300000000000 Zn
   0.8277600000000001    0.5702650000000000    0.7344450000000000 Zn
   0.1722600000000000    0.4314850000000000    0.7655750000000000 Zn
   0.7655400000000000    0.7149400000000000    0.9802450000000000 Zn
   0.2344000000000000    0.5367999999999999    0.2300800000000000 Zn
   0.1720150000000000    0.6817450000000000    0.9828850000000000 Zn
   0.8284650000000000    0.8202000000000000    0.0171950000000000 Zn
   0.7655250000000000    0.9650150000000000    0.7699050000000001 Zn
   0.2361150000000000    0.7867649999999999    0.5197300000000000 Zn
   0.8277600000000001    0.0702650000000000    0.7344450000000000 Zn
   0.1722600000000000    0.9314850000000000    0.7655750000000000 Zn
   0.7655400000000000    0.2149400000000000    0.9802450000000000 Zn
   0.7361150000000000    0.7867649999999999    0.5197300000000000 Zn
   0.7343999999999999    0.0368000000000000    0.2300800000000000 Zn
   0.6720150000000000    0.1817450000000000    0.9828850000000000 Zn
   0.3284650000000000    0.3202000000000000    0.0171950000000000 Zn
   0.2655250000000000    0.4650150000000000    0.7699050000000001 Zn
   0.7361150000000000    0.2867650000000000    0.5197300000000000 Zn
   0.3277600000000000    0.5702650000000000    0.7344450000000000 Zn
   0.6722600000000000    0.4314850000000000    0.7655750000000000 Zn
   0.2655400000000000    0.7149400000000000    0.9802450000000000 Zn
   0.7343999999999999    0.5367999999999999    0.2300800000000000 Zn
   0.6720150000000000    0.6817450000000000    0.9828850000000000 Zn
   0.3284650000000000    0.8202000000000000    0.0171950000000000 Zn
   0.2655250000000000    0.9650150000000000    0.7699050000000001 Zn
   0.3277600000000000    0.0702650000000000    0.7344450000000000 Zn
   0.6722600000000000    0.9314850000000000    0.7655750000000000 Zn
   0.2655400000000000    0.2149400000000000    0.9802450000000000 Zn
   0.7343999999999999    0.0368000000000000    0.7300800000000001 Zn
   0.6720150000000000    0.1817450000000000    0.4828850000000000 Zn
   0.3284650000000000    0.3202000000000000    0.5171950000000000 Zn
   0.2655250000000000    0.4650150000000000    0.2699050000000000 Zn
   0.7361150000000000    0.2867650000000000    0.0197300000000000 Zn
   0.3277600000000000    0.5702650000000000    0.2344450000000000 Zn
   0.6722600000000000    0.4314850000000000    0.2655750000000000 Zn
   0.2655400000000000    0.7149400000000000    0.4802450000000000 Zn
   0.7343999999999999    0.5367999999999999    0.7300800000000001 Zn
   0.6720150000000000    0.6817450000000000    0.4828850000000000 Zn
   0.3284650000000000    0.8202000000000000    0.5171950000000000 Zn
   0.2655250000000000    0.9650150000000000    0.2699050000000000 Zn
   0.7361150000000000    0.7867649999999999    0.0197300000000000 Zn
   0.3277600000000000    0.0702650000000000    0.2344450000000000 Zn
   0.6722600000000000    0.9314850000000000    0.2655750000000000 Zn
   0.2655400000000000    0.2149400000000000    0.4802450000000000 Zn
   0.9844349999999999    0.4649500000000000    0.0197400000000000 Zn
   0.9219450000000000    0.3200250000000000    0.2656350000000000 Zn
   0.5764400000000000    0.1815850000000000    0.2343850000000000 Zn
   0.5140200000000000    0.0368200000000000    0.4803150000000000 Zn
   0.5153750000000000    0.2868700000000000    0.2699350000000000 Zn
   0.5779150000000000    0.4317600000000000    0.5171700000000000 Zn
   0.9216750000000000    0.5701700000000000    0.4828350000000000 Zn
   0.9840300000000000    0.7150400000000000    0.7300700000000000 Zn
   0.9844349999999999    0.9649500000000000    0.5197400000000000 Zn
   0.9219450000000000    0.8200250000000000    0.7656350000000001 Zn
   0.5764400000000000    0.6815850000000000    0.7343850000000001 Zn
   0.5140200000000000    0.5368200000000000    0.9803150000000000 Zn
   0.5153750000000000    0.7868700000000000    0.7699350000000000 Zn
   0.5779150000000000    0.9317599999999999    0.0171700000000000 Zn
   0.9216750000000000    0.0701700000000000    0.9828350000000000 Zn
   0.9840300000000000    0.2150400000000000    0.2300700000000000 Zn
   0.9844349999999999    0.9649500000000000    0.0197400000000000 Zn
   0.9219450000000000    0.8200250000000000    0.2656350000000000 Zn
   0.5764400000000000    0.6815850000000000    0.2343850000000000 Zn
   0.5140200000000000    0.5368200000000000    0.4803150000000000 Zn
   0.5153750000000000    0.7868700000000000    0.2699350000000000 Zn
   0.5779150000000000    0.9317599999999999    0.5171700000000000 Zn
   0.9216750000000000    0.0701700000000000    0.4828350000000000 Zn
   0.9840300000000000    0.2150400000000000    0.7300700000000000 Zn
   0.9844349999999999    0.4649500000000000    0.5197400000000000 Zn
   0.9219450000000000    0.3200250000000000    0.7656350000000001 Zn
   0.5764400000000000    0.1815850000000000    0.7343850000000001 Zn
   0.5140200000000000    0.0368200000000000    0.9803150000000000 Zn
   0.5153750000000000    0.2868700000000000    0.7699350000000000 Zn
   0.5779150000000000    0.4317600000000000    0.0171700000000000 Zn
   0.9216750000000000    0.5701700000000000    0.9828350000000000 Zn
   0.9840300000000000    0.7150400000000000    0.2300700000000000 Zn
   0.4844350000000000    0.9649500000000000    0.0197400000000000 Zn
   0.4219450000000000    0.8200250000000000    0.2656350000000000 Zn
   0.0764400000000000    0.6815850000000000    0.2343850000000000 Zn
   0.0140200000000000    0.5368200000000000    0.4803150000000000 Zn
   0.0153750000000000    0.7868700000000000    0.2699350000000000 Zn
   0.0779150000000000    0.9317599999999999    0.5171700000000000 Zn
   0.4216750000000000    0.0701700000000000    0.4828350000000000 Zn
   0.4840300000000000    0.2150400000000000    0.7300700000000000 Zn
   0.4844350000000000    0.4649500000000000    0.5197400000000000 Zn
   0.4219450000000000    0.3200250000000000    0.7656350000000001 Zn
   0.0764400000000000    0.1815850000000000    0.7343850000000001 Zn
   0.0140200000000000    0.0368200000000000    0.9803150000000000 Zn
   0.0153750000000000    0.2868700000000000    0.7699350000000000 Zn
   0.0779150000000000    0.4317600000000000    0.0171700000000000 Zn
   0.4216750000000000    0.5701700000000000    0.9828350000000000 Zn
   0.4840300000000000    0.7150400000000000    0.2300700000000000 Zn
   0.4844350000000000    0.9649500000000000    0.5197400000000000 Zn
   0.4219450000000000    0.8200250000000000    0.7656350000000001 Zn
   0.0764400000000000    0.6815850000000000    0.7343850000000001 Zn
   0.0140200000000000    0.5368200000000000    0.9803150000000000 Zn
   0.0153750000000000    0.7868700000000000    0.7699350000000000 Zn
   0.0779150000000000    0.9317599999999999    0.0171700000000000 Zn
   0.4216750000000000    0.0701700000000000    0.9828350000000000 Zn
   0.4840300000000000    0.2150400000000000    0.2300700000000000 Zn
   0.4844350000000000    0.4649500000000000    0.0197400000000000 Zn
   0.4219450000000000    0.3200250000000000    0.2656350000000000 Zn
   0.0764400000000000    0.1815850000000000    0.2343850000000000 Zn
   0.0140200000000000    0.0368200000000000    0.4803150000000000 Zn
   0.0153750000000000    0.2868700000000000    0.2699350000000000 Zn
   0.0779150000000000    0.4317600000000000    0.5171700000000000 Zn
   0.4216750000000000    0.5701700000000000    0.4828350000000000 Zn
   0.4840300000000000    0.7150400000000000    0.7300700000000000 Zn
   0.3301400000000000    0.1204450000000000    0.6307150000000000 H
   0.3177700000000000    0.1511850000000000    0.5703050000000001 H
   0.1942250000000000    0.0664900000000000    0.6264250000000000 H
   0.1818250000000000    0.0971550000000000    0.5663600000000000 H
   0.1752350000000000    0.2542000000000000    0.4825500000000000 H
   0.8264100000000000    0.2477300000000000    0.5174150000000000 H
   0.0261000000000000    0.1766600000000000    0.5000000000000000 H
   0.9442150000000000    0.1920700000000000    0.5072100000000000 H
   0.0562400000000000    0.3096950000000000    0.4927100000000000 H
   0.9743649999999999    0.3251000000000000    0.5082050000000000 H
   0.8061800000000000    0.4352100000000000    0.3731700000000000 H
   0.8190299999999999    0.4048250000000000    0.4333000000000000 H
   0.6708000000000001    0.3801100000000000    0.3691650000000000 H
   0.6835599999999999    0.3497450000000000    0.4296750000000000 H
   0.3318350000000000    0.3699850000000000    0.1217950000000000 H
   0.3185100000000000    0.4008550000000000    0.1818050000000000 H
   0.1956450000000000    0.3165300000000000    0.1218300000000000 H
   0.1823050000000000    0.3473450000000000    0.1815050000000000 H
   0.1750800000000000    0.5039350000000000    0.2673750000000000 H
   0.8246500000000000    0.4978950000000000    0.2326000000000000 H
   0.0558600000000000    0.5595250000000001    0.2583950000000000 H
   0.9732550000000000    0.5749700000000000    0.2433500000000000 H
   0.0264800000000000    0.4263900000000000    0.2565050000000000 H
   0.9438500000000001    0.4418400000000000    0.2414700000000000 H
   0.6689550000000000    0.6317200000000001    0.3786150000000000 H
   0.6818100000000000    0.6008450000000000    0.3185450000000000 H
   0.8050400000000000    0.6853549999999999    0.3779000000000000 H
   0.8179200000000000    0.6545550000000000    0.3181600000000000 H
   0.3301400000000000    0.6204450000000000    0.6307150000000000 H
   0.3177700000000000    0.6511850000000000    0.5703050000000001 H
   0.1942250000000000    0.5664899999999999    0.6264250000000000 H
   0.1818250000000000    0.5971550000000000    0.5663600000000000 H
   0.1752350000000000    0.7542000000000000    0.4825500000000000 H
   0.8264100000000000    0.7477300000000000    0.5174150000000000 H
   0.0261000000000000    0.6766600000000000    0.5000000000000000 H
   0.9442150000000000    0.6920700000000000    0.5072100000000000 H
   0.0562400000000000    0.8096950000000001    0.4927100000000000 H
   0.9743649999999999    0.8250999999999999    0.5082050000000000 H
   0.8061800000000000    0.9352100000000000    0.3731700000000000 H
   0.8190299999999999    0.9048250000000000    0.4333000000000000 H
   0.6708000000000001    0.8801099999999999    0.3691650000000000 H
   0.6835599999999999    0.8497450000000000    0.4296750000000000 H
   0.3318350000000000    0.8699850000000000    0.1217950000000000 H
   0.3185100000000000    0.9008550000000000    0.1818050000000000 H
   0.1956450000000000    0.8165300000000000    0.1218300000000000 H
   0.1823050000000000    0.8473450000000000    0.1815050000000000 H
   0.1750800000000000    0.0039350000000000    0.2673750000000000 H
   0.8246500000000000    0.9978950000000000    0.2326000000000000 H
   0.0558600000000000    0.0595250000000000    0.2583950000000000 H
   0.9732550000000000    0.0749700000000000    0.2433500000000000 H
   0.0264800000000000    0.9263900000000000    0.2565050000000000 H
   0.9438500000000001    0.9418400000000000    0.2414700000000000 H
   0.6689550000000000    0.1317200000000000    0.3786150000000000 H
   0.6818100000000000    0.1008450000000000    0.3185450000000000 H
   0.8050400000000000    0.1853550000000000    0.3779000000000000 H
   0.8179200000000000    0.1545550000000000    0.3181600000000000 H
   0.3301400000000000    0.1204450000000000    0.1307150000000000 H
   0.3177700000000000    0.1511850000000000    0.0703050000000000 H
   0.1942250000000000    0.0664900000000000    0.1264250000000000 H
   0.1818250000000000    0.0971550000000000    0.0663600000000000 H
   0.1752350000000000    0.2542000000000000    0.9825500000000000 H
   0.8264100000000000    0.2477300000000000    0.0174150000000000 H
   0.0261000000000000    0.1766600000000000    0.0000000000000000 H
   0.9442150000000000    0.1920700000000000    0.0072100000000000 H
   0.0562400000000000    0.3096950000000000    0.9927100000000000 H
   0.9743649999999999    0.3251000000000000    0.0082050000000000 H
   0.8061800000000000    0.4352100000000000    0.8731700000000000 H
   0.8190299999999999    0.4048250000000000    0.9333000000000000 H
   0.6708000000000001    0.3801100000000000    0.8691650000000000 H
   0.6835599999999999    0.3497450000000000    0.9296750000000000 H
   0.3318350000000000    0.3699850000000000    0.6217950000000000 H
   0.3185100000000000    0.4008550000000000    0.6818050000000000 H
   0.1956450000000000    0.3165300000000000    0.6218300000000000 H
   0.1823050000000000    0.3473450000000000    0.6815050000000000 H
   0.1750800000000000    0.5039350000000000    0.7673749999999999 H
   0.8246500000000000    0.4978950000000000    0.7326000000000000 H
   0.0558600000000000    0.5595250000000001    0.7583949999999999 H
   0.9732550000000000    0.5749700000000000    0.7433500000000000 H
   0.0264800000000000    0.4263900000000000    0.7565050000000000 H
   0.9438500000000001    0.4418400000000000    0.7414700000000000 H
   0.6689550000000000    0.6317200000000001    0.8786149999999999 H
   0.6818100000000000    0.6008450000000000    0.8185450000000001 H
   0.8050400000000000    0.6853549999999999    0.8779000000000000 H
   0.8179200000000000    0.6545550000000000    0.8181600000000000 H
   0.3301400000000000    0.6204450000000000    0.1307150000000000 H
   0.3177700000000000    0.6511850000000000    0.0703050000000000 H
   0.1942250000000000    0.5664899999999999    0.1264250000000000 H
   0.1818250000000000    0.5971550000000000    0.0663600000000000 H
   0.1752350000000000    0.7542000000000000    0.9825500000000000 H
   0.8264100000000000    0.7477300000000000    0.0174150000000000 H
   0.0261000000000000    0.6766600000000000    0.0000000000000000 H
   0.9442150000000000    0.6920700000000000    0.0072100000000000 H
   0.0562400000000000    0.8096950000000001    0.9927100000000000 H
   0.9743649999999999    0.8250999999999999    0.0082050000000000 H
   0.8061800000000000    0.9352100000000000    0.8731700000000000 H
   0.8190299999999999    0.9048250000000000    0.9333000000000000 H
   0.6708000000000001    0.8801099999999999    0.8691650000000000 H
   0.6835599999999999    0.8497450000000000    0.9296750000000000 H
   0.3318350000000000    0.8699850000000000    0.6217950000000000 H
   0.3185100000000000    0.9008550000000000    0.6818050000000000 H
   0.1956450000000000    0.8165300000000000    0.6218300000000000 H
   0.1823050000000000    0.8473450000000000    0.6815050000000000 H
   0.1750800000000000    0.0039350000000000    0.7673749999999999 H
   0.8246500000000000    0.9978950000000000    0.7326000000000000 H
   0.0558600000000000    0.0595250000000000    0.7583949999999999 H
   0.9732550000000000    0.0749700000000000    0.7433500000000000 H
   0.0264800000000000    0.9263900000000000    0.7565050000000000 H
   0.9438500000000001    0.9418400000000000    0.7414700000000000 H
   0.6689550000000000    0.1317200000000000    0.8786149999999999 H
   0.6818100000000000    0.1008450000000000    0.8185450000000001 H
   0.8050400000000000    0.1853550000000000    0.8779000000000000 H
   0.8179200000000000    0.1545550000000000    0.8181600000000000 H
   0.8328004065417580    0.8482774907004869    0.5788502822898922 H
   0.7083531878454856    0.7997820081456581    0.5808693759530371 H
   0.7687045841192096    0.8252668335351619    0.5846837414700476 H
   0.8301400000000000    0.1204450000000000    0.1307150000000000 H
   0.8177700000000000    0.1511850000000000    0.0703050000000000 H
   0.6942250000000000    0.0664900000000000    0.1264250000000000 H
   0.6818250000000000    0.0971550000000000    0.0663600000000000 H
   0.6752350000000000    0.2542000000000000    0.9825500000000000 H
   0.3264100000000000    0.2477300000000000    0.0174150000000000 H
   0.5261000000000000    0.1766600000000000    0.0000000000000000 H
   0.4442150000000000    0.1920700000000000    0.0072100000000000 H
   0.5562400000000000    0.3096950000000000    0.9927100000000000 H
   0.4743650000000000    0.3251000000000000    0.0082050000000000 H
   0.3061800000000000    0.4352100000000000    0.8731700000000000 H
   0.3190300000000000    0.4048250000000000    0.9333000000000000 H
   0.1708000000000000    0.3801100000000000    0.8691650000000000 H
   0.1835600000000000    0.3497450000000000    0.9296750000000000 H
   0.8318350000000000    0.3699850000000000    0.6217950000000000 H
   0.8185100000000001    0.4008550000000000    0.6818050000000000 H
   0.6956450000000001    0.3165300000000000    0.6218300000000000 H
   0.6823049999999999    0.3473450000000000    0.6815050000000000 H
   0.6750800000000000    0.5039350000000000    0.7673749999999999 H
   0.3246500000000000    0.4978950000000000    0.7326000000000000 H
   0.5558600000000000    0.5595250000000001    0.7583949999999999 H
   0.4732550000000000    0.5749700000000000    0.7433500000000000 H
   0.5264799999999999    0.4263900000000000    0.7565050000000000 H
   0.4438500000000000    0.4418400000000000    0.7414700000000000 H
   0.1689550000000000    0.6317200000000001    0.8786149999999999 H
   0.1818100000000000    0.6008450000000000    0.8185450000000001 H
   0.3050400000000000    0.6853549999999999    0.8779000000000000 H
   0.3179200000000000    0.6545550000000000    0.8181600000000000 H
   0.8301400000000000    0.6204450000000000    0.1307150000000000 H
   0.8177700000000000    0.6511850000000000    0.0703050000000000 H
   0.6942250000000000    0.5664899999999999    0.1264250000000000 H
   0.6818250000000000    0.5971550000000000    0.0663600000000000 H
   0.6752350000000000    0.7542000000000000    0.9825500000000000 H
   0.3264100000000000    0.7477300000000000    0.0174150000000000 H
   0.5261000000000000    0.6766600000000000    0.0000000000000000 H
   0.4442150000000000    0.6920700000000000    0.0072100000000000 H
   0.5562400000000000    0.8096950000000001    0.9927100000000000 H
   0.4743650000000000    0.8250999999999999    0.0082050000000000 H
   0.3061800000000000    0.9352100000000000    0.8731700000000000 H
   0.3190300000000000    0.9048250000000000    0.9333000000000000 H
   0.1708000000000000    0.8801099999999999    0.8691650000000000 H
   0.1835600000000000    0.8497450000000000    0.9296750000000000 H
   0.8027167009918000    0.9194033784957883    0.7244048202525070 H
   0.6773108774042303    0.8725123252156102    0.7217245749549730 H
   0.7410933526850642    0.8917882796707493    0.7196590254015343 H
   0.6750800000000000    0.0039350000000000    0.7673749999999999 H
   0.3246500000000000    0.9978950000000000    0.7326000000000000 H
   0.5558600000000000    0.0595250000000000    0.7583949999999999 H
   0.4732550000000000    0.0749700000000000    0.7433500000000000 H
   0.5264799999999999    0.9263900000000000    0.7565050000000000 H
   0.4438500000000000    0.9418400000000000    0.7414700000000000 H
   0.1689550000000000    0.1317200000000000    0.8786149999999999 H
   0.1818100000000000    0.1008450000000000    0.8185450000000001 H
   0.3050400000000000    0.1853550000000000    0.8779000000000000 H
   0.3179200000000000    0.1545550000000000    0.8181600000000000 H
   0.8301400000000000    0.1204450000000000    0.6307150000000000 H
   0.8177700000000000    0.1511850000000000    0.5703050000000001 H
   0.6942250000000000    0.0664900000000000    0.6264250000000000 H
   0.6818250000000000    0.0971550000000000    0.5663600000000000 H
   0.6752350000000000    0.2542000000000000    0.4825500000000000 H
   0.3264100000000000    0.2477300000000000    0.5174150000000000 H
   0.5261000000000000    0.1766600000000000    0.5000000000000000 H
   0.4442150000000000    0.1920700000000000    0.5072100000000000 H
   0.5562400000000000    0.3096950000000000    0.4927100000000000 H
   0.4743650000000000    0.3251000000000000    0.5082050000000000 H
   0.3061800000000000    0.4352100000000000    0.3731700000000000 H
   0.3190300000000000    0.4048250000000000    0.4333000000000000 H
   0.1708000000000000    0.3801100000000000    0.3691650000000000 H
   0.1835600000000000    0.3497450000000000    0.4296750000000000 H
   0.8318350000000000    0.3699850000000000    0.1217950000000000 H
   0.8185100000000001    0.4008550000000000    0.1818050000000000 H
   0.6956450000000001    0.3165300000000000    0.1218300000000000 H
   0.6823049999999999    0.3473450000000000    0.1815050000000000 H
   0.6750800000000000    0.5039350000000000    0.2673750000000000 H
   0.3246500000000000    0.4978950000000000    0.2326000000000000 H
   0.5558600000000000    0.5595250000000001    0.2583950000000000 H
   0.4732550000000000    0.5749700000000000    0.2433500000000000 H
   0.5264799999999999    0.4263900000000000    0.2565050000000000 H
   0.4438500000000000    0.4418400000000000    0.2414700000000000 H
   0.1689550000000000    0.6317200000000001    0.3786150000000000 H
   0.1818100000000000    0.6008450000000000    0.3185450000000000 H
   0.3050400000000000    0.6853549999999999    0.3779000000000000 H
   0.3179200000000000    0.6545550000000000    0.3181600000000000 H
   0.8301400000000000    0.6204450000000000    0.6307150000000000 H
   0.8177700000000000    0.6511850000000000    0.5703050000000001 H
   0.6942250000000000    0.5664899999999999    0.6264250000000000 H
   0.6818250000000000    0.5971550000000000    0.5663600000000000 H
   0.6752350000000000    0.7542000000000000    0.4825500000000000 H
   0.3264100000000000    0.7477300000000000    0.5174150000000000 H
   0.5261000000000000    0.6766600000000000    0.5000000000000000 H
   0.4442150000000000    0.6920700000000000    0.5072100000000000 H
   0.5562400000000000    0.8096950000000001    0.4927100000000000 H
   0.4743650000000000    0.8250999999999999    0.5082050000000000 H
   0.3061800000000000    0.9352100000000000    0.3731700000000000 H
   0.3190300000000000    0.9048250000000000    0.4333000000000000 H
   0.1708000000000000    0.8801099999999999    0.3691650000000000 H
   0.1835600000000000    0.8497450000000000    0.4296750000000000 H
   0.8318350000000000    0.8699850000000000    0.1217950000000000 H
   0.8185100000000001    0.9008550000000000    0.1818050000000000 H
   0.6956450000000001    0.8165300000000000    0.1218300000000000 H
   0.6823049999999999    0.8473450000000000    0.1815050000000000 H
   0.6750800000000000    0.0039350000000000    0.2673750000000000 H
   0.3246500000000000    0.9978950000000000    0.2326000000000000 H
   0.5558600000000000    0.0595250000000000    0.2583950000000000 H
   0.4732550000000000    0.0749700000000000    0.2433500000000000 H
   0.5264799999999999    0.9263900000000000    0.2565050000000000 H
   0.4438500000000000    0.9418400000000000    0.2414700000000000 H
   0.1689550000000000    0.1317200000000000    0.3786150000000000 H
   0.1818100000000000    0.1008450000000000    0.3185450000000000 H
   0.3050400000000000    0.1853550000000000    0.3779000000000000 H
   0.3179200000000000    0.1545550000000000    0.3181600000000000 H
   0.9313500000000000    0.4034350000000000    0.1815950000000000 H
   0.9440950000000000    0.4344500000000000    0.1219050000000000 H
   0.0806550000000000    0.3821300000000000    0.1213300000000000 H
   0.0679400000000000    0.3511000000000000    0.1813700000000000 H
   0.9247150000000000    0.2476550000000000    0.2674300000000000 H
   0.5744549999999999    0.2539700000000000    0.2325700000000000 H
   0.8049350000000000    0.1920600000000000    0.2584850000000000 H
   0.7222700000000000    0.1766200000000000    0.2435500000000000 H
   0.7760650000000000    0.3252100000000000    0.2564300000000000 H
   0.6934150000000000    0.3097950000000000    0.2414550000000000 H
   0.5543200000000000    0.0666750000000000    0.3781350000000000 H
   0.5674850000000000    0.0974750000000000    0.3184200000000000 H
   0.4181300000000000    0.1198250000000000    0.3783800000000000 H
   0.4312850000000000    0.1506950000000000    0.3183400000000000 H
   0.5681150000000000    0.3472800000000000    0.4336100000000000 H
   0.5556600000000000    0.3166350000000000    0.3735150000000000 H
   0.4195950000000000    0.3699900000000000    0.3694650000000000 H
   0.4320250000000000    0.4007000000000000    0.4299100000000000 H
   0.5747550000000000    0.5042050000000000    0.5174800000000001 H
   0.9236550000000000    0.4977600000000000    0.4825850000000000 H
   0.7758250000000000    0.5751150000000000    0.5000000000000000 H
   0.6939350000000000    0.5596300000000000    0.5073750000000000 H
   0.8056050000000000    0.4421050000000000    0.4923850000000000 H
   0.7236899999999999    0.4266050000000000    0.5078400000000000 H
   0.0791000000000000    0.6318400000000000    0.6309549999999999 H
   0.0672600000000000    0.6011150000000000    0.5704350000000000 H
   0.9312050000000001    0.6545900000000000    0.5659750000000000 H
   0.9430799999999999    0.6852450000000000    0.6261400000000000 H
   0.9313500000000000    0.9034350000000000    0.6815950000000000 H
   0.9440950000000000    0.9344500000000000    0.6219050000000000 H
   0.0806550000000000    0.8821300000000001    0.6213299999999999 H
   0.0679400000000000    0.8511000000000000    0.6813700000000000 H
   0.9247150000000000    0.7476550000000000    0.7674300000000001 H
   0.5744549999999999    0.7539700000000000    0.7325699999999999 H
   0.7760650000000000    0.8252100000000000    0.7564299999999999 H
   0.6934150000000000    0.8097950000000000    0.7414550000000000 H
   0.8049350000000000    0.6920600000000000    0.7584850000000001 H
   0.7222700000000000    0.6766200000000000    0.7435499999999999 H
   0.5543200000000000    0.5666750000000000    0.8781350000000000 H
   0.5674850000000000    0.5974750000000000    0.8184199999999999 H
   0.4181300000000000    0.6198250000000000    0.8783799999999999 H
   0.4312850000000000    0.6506950000000000    0.8183400000000001 H
   0.5681150000000000    0.8472800000000000    0.9336100000000001 H
   0.5556600000000000    0.8166350000000000    0.8735150000000000 H
   0.4195950000000000    0.8699900000000000    0.8694649999999999 H
   0.4320250000000000    0.9007000000000001    0.9299100000000000 H
   0.5747550000000000    0.0042050000000000    0.0174800000000000 H
   0.9236550000000000    0.9977600000000000    0.9825850000000000 H
   0.7758250000000000    0.0751150000000000    0.0000000000000000 H
   0.6939350000000000    0.0596300000000000    0.0073750000000000 H
   0.8056050000000000    0.9421050000000000    0.9923850000000001 H
   0.7236899999999999    0.9266050000000000    0.0078400000000000 H
   0.0791000000000000    0.1318400000000000    0.1309550000000000 H
   0.0672600000000000    0.1011150000000000    0.0704350000000000 H
   0.9312050000000001    0.1545900000000000    0.0659750000000000 H
   0.9430799999999999    0.1852450000000000    0.1261400000000000 H
   0.9313500000000000    0.9034350000000000    0.1815950000000000 H
   0.9440950000000000    0.9344500000000000    0.1219050000000000 H
   0.0806550000000000    0.8821300000000001    0.1213300000000000 H
   0.0679400000000000    0.8511000000000000    0.1813700000000000 H
   0.9247150000000000    0.7476550000000000    0.2674300000000000 H
   0.5744549999999999    0.7539700000000000    0.2325700000000000 H
   0.7760650000000000    0.8252100000000000    0.2564300000000000 H
   0.6934150000000000    0.8097950000000000    0.2414550000000000 H
   0.8049350000000000    0.6920600000000000    0.2584850000000000 H
   0.7222700000000000    0.6766200000000000    0.2435500000000000 H
   0.5543200000000000    0.5666750000000000    0.3781350000000000 H
   0.5674850000000000    0.5974750000000000    0.3184200000000000 H
   0.4181300000000000    0.6198250000000000    0.3783800000000000 H
   0.4312850000000000    0.6506950000000000    0.3183400000000000 H
   0.5681150000000000    0.8472800000000000    0.4336100000000000 H
   0.5556600000000000    0.8166350000000000    0.3735150000000000 H
   0.4195950000000000    0.8699900000000000    0.3694650000000000 H
   0.4320250000000000    0.9007000000000001    0.4299100000000000 H
   0.5747550000000000    0.0042050000000000    0.5174800000000001 H
   0.9236550000000000    0.9977600000000000    0.4825850000000000 H
   0.7758250000000000    0.0751150000000000    0.5000000000000000 H
   0.6939350000000000    0.0596300000000000    0.5073750000000000 H
   0.8056050000000000    0.9421050000000000    0.4923850000000000 H
   0.7236899999999999    0.9266050000000000    0.5078400000000000 H
   0.0791000000000000    0.1318400000000000    0.6309549999999999 H