H3 O2
1.0
  12.9050740663546879    0.0000000000000000    4.2439708224609314
  -6.4320162615342769   11.8841640497404146    5.1099530966747686
   0.0000000000000000    0.0000000000000000   28.9020000000000010
H O
3 2
direct
   0.8574363606759821    0.4274002786729475    0.6710035927655730 H
   0.5679599815421047    0.2528712977851946    0.6636352781132174 H
   0.6867835170010610    0.3198986062757324    0.6852190470154371 H
   0.8349500000000000    0.4206200000000000    0.6431650000000000 O
   0.6504400000000000    0.3089400000000000    0.6402250000000000 O
