Ga24 P23 O92
1.0
  12.9050740663546879    0.0000000000000000    4.2439708224609314
  -6.4320162615342769   11.8841640497404146    5.1099530966747686
   0.0000000000000000    0.0000000000000000   28.9020000000000010
Ga P O
24 23 92
direct
   0.1866600000000000    0.8671000000000000    0.2726100000000000 Ga
   0.5219500000000000    0.3771800000000000    0.2267050000000000 Ga
   0.7323200000000000    0.5451900000000000    0.2940150000000000 Ga
   0.9752000000000000    0.4536000000000000    0.0847500000000000 Ga
   0.3201000000000000    0.5878400000000000    0.4334700000000000 Ga
   0.8552400000000000    0.8307900000000000    0.3114000000000000 Ga
   0.8133400000000000    0.1329300000000000    0.2273900000000000 Ga
   0.4780400000000000    0.6228500000000000    0.2732950000000000 Ga
   0.2676800000000000    0.4548400000000000    0.2059850000000000 Ga
   0.0247900000000000    0.5464400000000000    0.4152500000000000 Ga
   0.6798999999999999    0.4121900000000000    0.0665300000000000 Ga
   0.1447500000000000    0.1692400000000000    0.1885900000000000 Ga
   0.1866600000000000    0.8671000000000000    0.7726100000000000 Ga
   0.5219500000000000    0.3771800000000000    0.7267049999999999 Ga
   0.7323200000000000    0.5451900000000000    0.7940150000000000 Ga
   0.9752000000000000    0.4536000000000000    0.5847500000000000 Ga
   0.3201000000000000    0.5878400000000000    0.9334700000000000 Ga
   0.8552400000000000    0.8307900000000000    0.8114000000000000 Ga
   0.8133400000000000    0.1329300000000000    0.7273900000000000 Ga
   0.4780400000000000    0.6228500000000000    0.7732950000000001 Ga
   0.2676800000000000    0.4548400000000000    0.7059850000000000 Ga
   0.0247900000000000    0.5464400000000000    0.9152500000000000 Ga
   0.6798999999999999    0.4121900000000000    0.5665300000000000 Ga
   0.1447500000000000    0.1692400000000000    0.6885900000000000 Ga
   0.0647000000000000    0.9463900000000000    0.1979450000000000 P
   0.0650700000000000    0.3541000000000000    0.1664800000000000 P
   0.4616100000000000    0.3960400000000000    0.3288600000000000 P
   0.3978600000000000    0.3327600000000000    0.1565200000000000 P
   0.1188700000000000    0.6577100000000000    0.4730000000000000 P
   0.7111499999999999    0.3132700000000000    0.1770250000000000 P
   0.9353000000000000    0.0536400000000000    0.3020550000000000 P
   0.9349300000000000    0.6459300000000000    0.3335000000000000 P
   0.5383800000000000    0.6039900000000000    0.1711400000000000 P
   0.6021400000000000    0.6672800000000000    0.3434850000000000 P
   0.8811200000000000    0.3423300000000000    0.0270000000000000 P
   0.2888500000000000    0.6867600000000000    0.3229750000000000 P
   0.0647000000000000    0.9463900000000000    0.6979450000000000 P
   0.0650700000000000    0.3541000000000000    0.6664800000000000 P
   0.4616100000000000    0.3960400000000000    0.8288599999999999 P
   0.3978600000000000    0.3327600000000000    0.6565200000000000 P
   0.1188700000000000    0.6577100000000000    0.9730000000000000 P
   0.9353000000000000    0.0536400000000000    0.8020550000000000 P
   0.9349300000000000    0.6459300000000000    0.8335000000000000 P
   0.5383800000000000    0.6039900000000000    0.6711400000000000 P
   0.6021400000000000    0.6672800000000000    0.8434850000000000 P
   0.8811200000000000    0.3423300000000000    0.5270000000000000 P
   0.2888500000000000    0.6867600000000000    0.8229750000000000 P
   0.1115800000000000    0.9513300000000000    0.2404450000000000 O
   0.0907100000000000    0.0725400000000000    0.1626650000000000 O
   0.9241900000000000    0.8710000000000000    0.2351900000000000 O
   0.1139100000000000    0.9028200000000000    0.1614800000000000 O
   0.1217400000000000    0.2867200000000000    0.1465850000000000 O
   0.0874100000000000    0.4516700000000000    0.1102850000000000 O
   0.1212800000000000    0.4059100000000000    0.1954100000000000 O
   0.9310100000000000    0.2801800000000000    0.2054200000000000 O
   0.5931500000000000    0.4813200000000000    0.2839500000000000 O
   0.4172100000000000    0.3255400000000000    0.3010700000000000 O
   0.3951300000000000    0.4703800000000000    0.3293950000000000 O
   0.4382100000000000    0.3230200000000000    0.3870900000000000 O
   0.4148500000000000    0.2931700000000000    0.2101300000000000 O
   0.3078200000000000    0.2201600000000000    0.1641800000000000 O
   0.5117100000000000    0.3902500000000000    0.1017000000000000 O
   0.3415800000000000    0.4108000000000000    0.1543850000000000 O
   0.1608300000000000    0.5678100000000000    0.4753100000000000 O
   0.0190900000000000    0.6023300000000000    0.0359950000000000 O
   0.0534700000000000    0.6587400000000000    0.4353050000000000 O
   0.2116400000000000    0.7741900000000000    0.4512300000000000 O
   0.8349500000000000    0.4206200000000000    0.1431650000000000 O
   0.6363799999999999    0.3283900000000000    0.2257100000000000 O
   0.7159600000000000    0.2037400000000000    0.2029650000000000 O
   0.6504400000000000    0.3089400000000000    0.1402250000000000 O
   0.8884100000000000    0.0487000000000000    0.2595600000000000 O
   0.9092900000000000    0.9274900000000000    0.3373350000000000 O
   0.0758100000000000    0.1290400000000000    0.2648100000000000 O
   0.8860800000000000    0.0972100000000000    0.3385200000000000 O
   0.8782500000000000    0.7133100000000000    0.3534150000000000 O
   0.9125799999999999    0.5483600000000000    0.3897200000000000 O
   0.8787100000000000    0.5941200000000000    0.3045900000000000 O
   0.0689800000000000    0.7198600000000001    0.2945800000000000 O
   0.4068400000000000    0.5187100000000000    0.2160500000000000 O
   0.5827900000000000    0.6744900000000000    0.1989350000000000 O
   0.6048600000000000    0.5296500000000000    0.1706050000000000 O
   0.5617900000000000    0.6770100000000000    0.1129150000000000 O
   0.5851400000000000    0.7068600000000000    0.2898500000000000 O
   0.6921700000000000    0.7798700000000000    0.3358200000000000 O
   0.4882800000000000    0.6097800000000000    0.3982850000000000 O
   0.6584100000000001    0.5892300000000000    0.3456000000000000 O
   0.8391600000000000    0.4322200000000000    0.0246900000000000 O
   0.9809000000000000    0.3977100000000000    0.4640050000000000 O
   0.9465200000000000    0.3412900000000000    0.0647000000000000 O
   0.7883599999999999    0.2258400000000000    0.0487700000000000 O
   0.1650500000000000    0.5794100000000000    0.3568350000000000 O
   0.3636100000000000    0.6716400000000000    0.2742900000000000 O
   0.2840400000000000    0.7963000000000000    0.2970400000000000 O
   0.3495600000000000    0.6910900000000000    0.3597800000000000 O
   0.1115800000000000    0.9513300000000000    0.7404450000000000 O
   0.0907100000000000    0.0725400000000000    0.6626650000000001 O
   0.9241900000000000    0.8710000000000000    0.7351900000000000 O
   0.1139100000000000    0.9028200000000000    0.6614800000000001 O
   0.1217400000000000    0.2867200000000000    0.6465850000000000 O
   0.0874100000000000    0.4516700000000000    0.6102850000000000 O
   0.1212800000000000    0.4059100000000000    0.6954100000000000 O
   0.9310100000000000    0.2801800000000000    0.7054199999999999 O
   0.5931500000000000    0.4813200000000000    0.7839499999999999 O
   0.4172100000000000    0.3255400000000000    0.8010699999999999 O
   0.3951300000000000    0.4703800000000000    0.8293950000000000 O
   0.4382100000000000    0.3230200000000000    0.8870899999999999 O
   0.4148500000000000    0.2931700000000000    0.7101300000000000 O
   0.3078200000000000    0.2201600000000000    0.6641800000000000 O
   0.5117100000000000    0.3902500000000000    0.6017000000000000 O
   0.3415800000000000    0.4108000000000000    0.6543850000000000 O
   0.1608300000000000    0.5678100000000000    0.9753100000000000 O
   0.0190900000000000    0.6023300000000000    0.5359950000000000 O
   0.0534700000000000    0.6587400000000000    0.9353050000000001 O
   0.2116400000000000    0.7741900000000000    0.9512300000000000 O
   0.8884100000000000    0.0487000000000000    0.7595600000000000 O
   0.9092900000000000    0.9274900000000000    0.8373349999999999 O
   0.0758100000000000    0.1290400000000000    0.7648100000000000 O
   0.8860800000000000    0.0972100000000000    0.8385199999999999 O
   0.8782500000000000    0.7133100000000000    0.8534150000000000 O
   0.9125799999999999    0.5483600000000000    0.8897200000000001 O
   0.8787100000000000    0.5941200000000000    0.8045900000000000 O
   0.0689800000000000    0.7198600000000001    0.7945800000000001 O
   0.4068400000000000    0.5187100000000000    0.7160500000000000 O
   0.5827900000000000    0.6744900000000000    0.6989350000000000 O
   0.6048600000000000    0.5296500000000000    0.6706050000000000 O
   0.5617900000000000    0.6770100000000000    0.6129150000000000 O
   0.5851400000000000    0.7068600000000000    0.7898499999999999 O
   0.6921700000000000    0.7798700000000000    0.8358200000000000 O
   0.4882800000000000    0.6097800000000000    0.8982850000000000 O
   0.6584100000000001    0.5892300000000000    0.8456000000000000 O
   0.8391600000000000    0.4322200000000000    0.5246900000000000 O
   0.9809000000000000    0.3977100000000000    0.9640050000000000 O
   0.9465200000000000    0.3412900000000000    0.5647000000000000 O
   0.7883599999999999    0.2258400000000000    0.5487700000000000 O
   0.1650500000000000    0.5794100000000000    0.8568350000000000 O
   0.3636100000000000    0.6716400000000000    0.7742899999999999 O
   0.2840400000000000    0.7963000000000000    0.7970400000000000 O
   0.3495600000000000    0.6910900000000000    0.8597800000000000 O
