H7 O5
1.0
  33.7244532212568799    0.0000000000000000    5.0973337321835395
   4.2980992707040393   16.6229417762046587    7.2204058395413790
   0.0000000000000000    0.0000000000000000   20.3640000000000008
H O
7 5
direct
   0.2516065990170462    0.5563886905058296    0.1809981099201125 H
   0.2496243125458818    0.2434779860466376    0.1819650875503018 H
   0.2446819730742716    0.2985864607748525    0.1504229820763831 H
   0.2438333824408419    0.1936504308705954    0.2291377193335802 H
   0.2458583203169430    0.3988977930878072    0.0642624843053106 H
   0.2821036135902343    0.2980327071681914    0.3904128947330477 H
   0.2200970095572048    0.2439455077163595    0.3941737093870790 H
   0.2517920000000000    0.5883900000000000    0.1298950000000000 O
   0.2449080000000000    0.2283600000000000    0.1793700000000000 O
   0.2460400000000000    0.3424500000000000    0.0875300000000000 O
   0.2774200000000000    0.2998400000000000    0.4379800000000000 O
   0.2246240000000000    0.2531250000000000    0.4358700000000000 O
