Ca40 H163 C351 O239
1.0
  33.7244532212568799    0.0000000000000000    5.0973337321835395
   4.2980992707040393   16.6229417762046587    7.2204058395413790
   0.0000000000000000    0.0000000000000000   20.3640000000000008
Ca H C O
40 163 351 239
direct
   0.6489500000000001    0.7275550000000000    0.0589600000000000 Ca
   0.6489500000000001    0.2275550000000000    0.0589600000000000 Ca
   0.7510720000000001    0.2724100000000000    0.4410400000000000 Ca
   0.7510720000000001    0.7724100000000000    0.4410400000000000 Ca
   0.4489500000000000    0.2275550000000000    0.0589600000000000 Ca
   0.4489500000000000    0.7275550000000000    0.0589600000000000 Ca
   0.5510720000000000    0.7724100000000000    0.4410400000000000 Ca
   0.5510720000000000    0.2724100000000000    0.4410400000000000 Ca
   0.8489500000000001    0.7275550000000000    0.0589600000000000 Ca
   0.8489500000000001    0.2275550000000000    0.0589600000000000 Ca
   0.9510720000000000    0.2724100000000000    0.4410400000000000 Ca
   0.9510720000000000    0.7724100000000000    0.4410400000000000 Ca
   0.0489500000000000    0.7275550000000000    0.0589600000000000 Ca
   0.0489500000000000    0.2275550000000000    0.0589600000000000 Ca
   0.1510720000000000    0.2724100000000000    0.4410400000000000 Ca
   0.1510720000000000    0.7724100000000000    0.4410400000000000 Ca
   0.3510720000000001    0.7724100000000000    0.4410400000000000 Ca
   0.3510720000000001    0.2724100000000000    0.4410400000000000 Ca
   0.2489500000000000    0.2275550000000000    0.0589600000000000 Ca
   0.2489500000000000    0.7275550000000000    0.0589600000000000 Ca
   0.6489500000000001    0.7275550000000000    0.5589600000000000 Ca
   0.6489500000000001    0.2275550000000000    0.5589600000000000 Ca
   0.7510720000000001    0.2724100000000000    0.9410400000000000 Ca
   0.7510720000000001    0.7724100000000000    0.9410400000000000 Ca
   0.8489500000000001    0.7275550000000000    0.5589600000000000 Ca
   0.8489500000000001    0.2275550000000000    0.5589600000000000 Ca
   0.9510720000000000    0.2724100000000000    0.9410400000000000 Ca
   0.9510720000000000    0.7724100000000000    0.9410400000000000 Ca
   0.0489500000000000    0.7275550000000000    0.5589600000000000 Ca
   0.0489500000000000    0.2275550000000000    0.5589600000000000 Ca
   0.1510720000000000    0.2724100000000000    0.9410400000000000 Ca
   0.1510720000000000    0.7724100000000000    0.9410400000000000 Ca
   0.4489500000000000    0.2275550000000000    0.5589600000000000 Ca
   0.4489500000000000    0.7275550000000000    0.5589600000000000 Ca
   0.5510720000000000    0.7724100000000000    0.9410400000000000 Ca
   0.5510720000000000    0.2724100000000000    0.9410400000000000 Ca
   0.2489500000000000    0.2275550000000000    0.5589600000000000 Ca
   0.2489500000000000    0.7275550000000000    0.5589600000000000 Ca
   0.3510720000000001    0.7724100000000000    0.9410400000000000 Ca
   0.3510720000000001    0.2724100000000000    0.9410400000000000 Ca
   0.6500280000000001    0.1364650000000000    0.2231100000000000 H
   0.6444440000000001    0.7386450000000000    0.2991950000000000 H
   0.6550500000000001    0.9463699999999999    0.3335150000000000 H
   0.6488100000000001    0.9563050000000000    0.1199650000000000 H
   0.6500280000000001    0.6364650000000001    0.2231100000000000 H
   0.6444440000000001    0.2386450000000000    0.2991950000000000 H
   0.6550500000000001    0.4463700000000000    0.3335150000000000 H
   0.6488100000000001    0.4563050000000000    0.1199650000000000 H
   0.7499960000000001    0.3635000000000000    0.2768900000000000 H
   0.7512160000000001    0.5436500000000000    0.3800350000000000 H
   0.7555780000000001    0.7613150000000000    0.2008100000000000 H
   0.7449780000000001    0.5535949999999999    0.1664800000000000 H
   0.7499960000000001    0.8634999999999999    0.2768900000000000 H
   0.7512160000000001    0.0436500000000000    0.3800350000000000 H
   0.7555780000000001    0.2613150000000000    0.2008100000000000 H
   0.7449780000000001    0.0535950000000000    0.1664800000000000 H
   0.4500280000000000    0.1364650000000000    0.2231100000000000 H
   0.4444440000000000    0.7386450000000000    0.2991950000000000 H
   0.4550500000000000    0.9463699999999999    0.3335150000000000 H
   0.4488100000000000    0.9563050000000000    0.1199650000000000 H
   0.4500280000000000    0.6364650000000001    0.2231100000000000 H
   0.4444440000000000    0.2386450000000000    0.2991950000000000 H
   0.4550500000000000    0.4463700000000000    0.3335150000000000 H
   0.4488100000000000    0.4563050000000000    0.1199650000000000 H
   0.5499960000000000    0.3635000000000000    0.2768900000000000 H
   0.5512160000000000    0.5436500000000000    0.3800350000000000 H
   0.5555780000000000    0.7613150000000000    0.2008100000000000 H
   0.5449780000000001    0.5535949999999999    0.1664800000000000 H
   0.5499960000000000    0.8634999999999999    0.2768900000000000 H
   0.5512160000000000    0.0436500000000000    0.3800350000000000 H
   0.5555780000000000    0.2613150000000000    0.2008100000000000 H
   0.5449780000000001    0.0535950000000000    0.1664800000000000 H
   0.8500280000000000    0.1364650000000000    0.2231100000000000 H
   0.8444440000000001    0.7386450000000000    0.2991950000000000 H
   0.8550500000000001    0.9463699999999999    0.3335150000000000 H
   0.8488100000000001    0.9563050000000000    0.1199650000000000 H
   0.8500280000000000    0.6364650000000001    0.2231100000000000 H
   0.8444440000000001    0.2386450000000000    0.2991950000000000 H
   0.8550500000000001    0.4463700000000000    0.3335150000000000 H
   0.8488100000000001    0.4563050000000000    0.1199650000000000 H
   0.9499960000000001    0.8634999999999999    0.2768900000000000 H
   0.9512160000000001    0.0436500000000000    0.3800350000000000 H
   0.9555780000000000    0.2613150000000000    0.2008100000000000 H
   0.9449780000000001    0.0535950000000000    0.1664800000000000 H
   0.9499960000000001    0.3635000000000000    0.2768900000000000 H
   0.9512160000000001    0.5436500000000000    0.3800350000000000 H
   0.9555780000000000    0.7613150000000000    0.2008100000000000 H
   0.9449780000000001    0.5535949999999999    0.1664800000000000 H
   0.0500280000000000    0.1364650000000000    0.2231100000000000 H
   0.0444440000000000    0.7386450000000000    0.2991950000000000 H
   0.0550500000000000    0.9463699999999999    0.3335150000000000 H
   0.0488100000000000    0.9563050000000000    0.1199650000000000 H
   0.0500280000000000    0.6364650000000001    0.2231100000000000 H
   0.0444440000000000    0.2386450000000000    0.2991950000000000 H
   0.0550500000000000    0.4463700000000000    0.3335150000000000 H
   0.0488100000000000    0.4563050000000000    0.1199650000000000 H
   0.2821036135902343    0.2980327071681914    0.3904128947330477 H
   0.2200970095572048    0.2439455077163595    0.3941737093870790 H
   0.1499960000000000    0.8634999999999999    0.2768900000000000 H
   0.1512160000000000    0.0436500000000000    0.3800350000000000 H
   0.1555780000000000    0.2613150000000000    0.2008100000000000 H
   0.1449780000000000    0.0535950000000000    0.1664800000000000 H
   0.1499960000000000    0.3635000000000000    0.2768900000000000 H
   0.1512160000000000    0.5436500000000000    0.3800350000000000 H
   0.1555780000000000    0.7613150000000000    0.2008100000000000 H
   0.1449780000000000    0.5535949999999999    0.1664800000000000 H
   0.3499960000000000    0.3635000000000000    0.2768900000000000 H
   0.3512160000000000    0.5436500000000000    0.3800350000000000 H
   0.3555780000000000    0.7613150000000000    0.2008100000000000 H
   0.3449780000000000    0.5535949999999999    0.1664800000000000 H
   0.3499960000000000    0.8634999999999999    0.2768900000000000 H
   0.3512160000000000    0.0436500000000000    0.3800350000000000 H
   0.3555780000000000    0.2613150000000000    0.2008100000000000 H
   0.3449780000000000    0.0535950000000000    0.1664800000000000 H
   0.2516065990170462    0.5563886905058296    0.1809981099201125 H
   0.2458583203169430    0.3988977930878072    0.0642624843053106 H
   0.2496243125458818    0.2434779860466376    0.1819650875503018 H
   0.2446819730742716    0.2985864607748525    0.1504229820763831 H
   0.2438333824408419    0.1936504308705954    0.2291377193335802 H
   0.2500280000000000    0.1364650000000000    0.2231100000000000 H
   0.2444440000000000    0.7386450000000000    0.2991950000000000 H
   0.2550500000000000    0.9463699999999999    0.3335150000000000 H
   0.2488100000000000    0.9563050000000000    0.1199650000000000 H
   0.6500280000000001    0.1364650000000000    0.7231100000000000 H
   0.6444440000000001    0.7386450000000000    0.7991950000000000 H
   0.6550500000000001    0.9463699999999999    0.8335150000000000 H
   0.6488100000000001    0.9563050000000000    0.6199650000000000 H
   0.6500280000000001    0.6364650000000001    0.7231100000000000 H
   0.6444440000000001    0.2386450000000000    0.7991950000000000 H
   0.6550500000000001    0.4463700000000000    0.8335150000000000 H
   0.6488100000000001    0.4563050000000000    0.6199650000000000 H
   0.7499960000000001    0.3635000000000000    0.7768900000000001 H
   0.7512160000000001    0.5436500000000000    0.8800350000000000 H
   0.7555780000000001    0.7613150000000000    0.7008099999999999 H
   0.7449780000000001    0.5535949999999999    0.6664800000000000 H
   0.7499960000000001    0.8634999999999999    0.7768900000000001 H
   0.7512160000000001    0.0436500000000000    0.8800350000000000 H
   0.7555780000000001    0.2613150000000000    0.7008099999999999 H
   0.7449780000000001    0.0535950000000000    0.6664800000000000 H
   0.8500280000000000    0.6364650000000001    0.7231100000000000 H
   0.8444440000000001    0.2386450000000000    0.7991950000000000 H
   0.8550500000000001    0.4463700000000000    0.8335150000000000 H
   0.8488100000000001    0.4563050000000000    0.6199650000000000 H
   0.8500280000000000    0.1364650000000000    0.7231100000000000 H
   0.8444440000000001    0.7386450000000000    0.7991950000000000 H
   0.8550500000000001    0.9463699999999999    0.8335150000000000 H
   0.8488100000000001    0.9563050000000000    0.6199650000000000 H
   0.9499960000000001    0.3635000000000000    0.7768900000000001 H
   0.9512160000000001    0.5436500000000000    0.8800350000000000 H
   0.9555780000000000    0.7613150000000000    0.7008099999999999 H
   0.9449780000000001    0.5535949999999999    0.6664800000000000 H
   0.9499960000000001    0.8634999999999999    0.7768900000000001 H
   0.9512160000000001    0.0436500000000000    0.8800350000000000 H
   0.9555780000000000    0.2613150000000000    0.7008099999999999 H
   0.9449780000000001    0.0535950000000000    0.6664800000000000 H
   0.0500280000000000    0.6364650000000001    0.7231100000000000 H
   0.0444440000000000    0.2386450000000000    0.7991950000000000 H
   0.0550500000000000    0.4463700000000000    0.8335150000000000 H
   0.0488100000000000    0.4563050000000000    0.6199650000000000 H
   0.0500280000000000    0.1364650000000000    0.7231100000000000 H
   0.0444440000000000    0.7386450000000000    0.7991950000000000 H
   0.0550500000000000    0.9463699999999999    0.8335150000000000 H
   0.0488100000000000    0.9563050000000000    0.6199650000000000 H
   0.1499960000000000    0.8634999999999999    0.7768900000000001 H
   0.1512160000000000    0.0436500000000000    0.8800350000000000 H
   0.1555780000000000    0.2613150000000000    0.7008099999999999 H
   0.1449780000000000    0.0535950000000000    0.6664800000000000 H
   0.1499960000000000    0.3635000000000000    0.7768900000000001 H
   0.1512160000000000    0.5436500000000000    0.8800350000000000 H
   0.1555780000000000    0.7613150000000000    0.7008099999999999 H
   0.1449780000000000    0.5535949999999999    0.6664800000000000 H
   0.4500280000000000    0.6364650000000001    0.7231100000000000 H
   0.4444440000000000    0.2386450000000000    0.7991950000000000 H
   0.4550500000000000    0.4463700000000000    0.8335150000000000 H
   0.4488100000000000    0.4563050000000000    0.6199650000000000 H
   0.4500280000000000    0.1364650000000000    0.7231100000000000 H
   0.4444440000000000    0.7386450000000000    0.7991950000000000 H
   0.4550500000000000    0.9463699999999999    0.8335150000000000 H
   0.4488100000000000    0.9563050000000000    0.6199650000000000 H
   0.5499960000000000    0.3635000000000000    0.7768900000000001 H
   0.5512160000000000    0.5436500000000000    0.8800350000000000 H
   0.5555780000000000    0.7613150000000000    0.7008099999999999 H
   0.5449780000000001    0.5535949999999999    0.6664800000000000 H
   0.5499960000000000    0.8634999999999999    0.7768900000000001 H
   0.5512160000000000    0.0436500000000000    0.8800350000000000 H
   0.5555780000000000    0.2613150000000000    0.7008099999999999 H
   0.5449780000000001    0.0535950000000000    0.6664800000000000 H
   0.2500280000000000    0.1364650000000000    0.7231100000000000 H
   0.2444440000000000    0.7386450000000000    0.7991950000000000 H
   0.2550500000000000    0.9463699999999999    0.8335150000000000 H
   0.2488100000000000    0.9563050000000000    0.6199650000000000 H
   0.2500280000000000    0.6364650000000001    0.7231100000000000 H
   0.2444440000000000    0.2386450000000000    0.7991950000000000 H
   0.2550500000000000    0.4463700000000000    0.8335150000000000 H
   0.2488100000000000    0.4563050000000000    0.6199650000000000 H
   0.3499960000000000    0.3635000000000000    0.7768900000000001 H
   0.3512160000000000    0.5436500000000000    0.8800350000000000 H
   0.3555780000000000    0.7613150000000000    0.7008099999999999 H
   0.3449780000000000    0.5535949999999999    0.6664800000000000 H
   0.3499960000000000    0.8634999999999999    0.7768900000000001 H
   0.3512160000000000    0.0436500000000000    0.8800350000000000 H
   0.3555780000000000    0.2613150000000000    0.7008099999999999 H
   0.3449780000000000    0.0535950000000000    0.6664800000000000 H
   0.6459500000000001    0.8028750000000000    0.1540000000000000 C
   0.6508140000000001    0.7939600000000000    0.4035700000000000 C
   0.6515560000000001    0.0476550000000000    0.1949450000000000 C
   0.6468720000000001    0.8006350000000000    0.2783350000000000 C
   0.6526180000000001    0.9176900000000000    0.2973300000000000 C
   0.6500900000000001    0.8377300000000000    0.3246650000000000 C
   0.6492120000000001    0.9234450000000001    0.1773450000000000 C
   0.6512160000000001    0.9613499999999999    0.2237150000000000 C
   0.6474400000000001    0.8428850000000000    0.2045250000000000 C
   0.6459500000000001    0.3028750000000000    0.1540000000000000 C
   0.6508140000000001    0.2939600000000000    0.4035700000000000 C
   0.6515560000000001    0.5476550000000000    0.1949450000000000 C
   0.6468720000000001    0.3006350000000000    0.2783350000000000 C
   0.6526180000000001    0.4176900000000000    0.2973300000000000 C
   0.6500900000000001    0.3377300000000000    0.3246650000000000 C
   0.6492120000000001    0.4234450000000000    0.1773450000000000 C
   0.6512160000000001    0.4613500000000000    0.2237150000000000 C
   0.6474400000000001    0.3428850000000000    0.2045250000000000 C
   0.7540680000000001    0.6970900000000000    0.3460050000000000 C
   0.7492140000000000    0.7060000000000000    0.0964350000000000 C
   0.7484760000000001    0.4523000000000000    0.3050500000000000 C
   0.7508160000000001    0.5765150000000000    0.3226550000000000 C
   0.7488140000000001    0.5386100000000000    0.2762800000000000 C
   0.7525880000000000    0.6570700000000000    0.2954800000000000 C
   0.7531540000000001    0.6993250000000000    0.2216700000000000 C
   0.7474120000000001    0.5822700000000000    0.2026700000000000 C
   0.7499420000000001    0.6622250000000001    0.1753350000000000 C
   0.7540680000000001    0.1970900000000000    0.3460050000000000 C
   0.7492140000000000    0.2060000000000000    0.0964350000000000 C
   0.7484760000000001    0.9522999999999999    0.3050500000000000 C
   0.7508160000000001    0.0765150000000000    0.3226550000000000 C
   0.7488140000000001    0.0386100000000000    0.2762800000000000 C
   0.7525880000000000    0.1570700000000000    0.2954800000000000 C
   0.7531540000000001    0.1993250000000000    0.2216700000000000 C
   0.7474120000000001    0.0822700000000000    0.2026700000000000 C
   0.7499420000000001    0.1622250000000000    0.1753350000000000 C
   0.4459500000000000    0.8028750000000000    0.1540000000000000 C
   0.4508140000000000    0.7939600000000000    0.4035700000000000 C
   0.4515560000000000    0.0476550000000000    0.1949450000000000 C
   0.4468720000000000    0.8006350000000000    0.2783350000000000 C
   0.4526180000000000    0.9176900000000000    0.2973300000000000 C
   0.4500900000000000    0.8377300000000000    0.3246650000000000 C
   0.4492120000000001    0.9234450000000001    0.1773450000000000 C
   0.4512160000000000    0.9613499999999999    0.2237150000000000 C
   0.4474400000000000    0.8428850000000000    0.2045250000000000 C
   0.4459500000000000    0.3028750000000000    0.1540000000000000 C
   0.4508140000000000    0.2939600000000000    0.4035700000000000 C
   0.4515560000000000    0.5476550000000000    0.1949450000000000 C
   0.4468720000000000    0.3006350000000000    0.2783350000000000 C
   0.4526180000000000    0.4176900000000000    0.2973300000000000 C
   0.4500900000000000    0.3377300000000000    0.3246650000000000 C
   0.4492120000000001    0.4234450000000000    0.1773450000000000 C
   0.4512160000000000    0.4613500000000000    0.2237150000000000 C
   0.4474400000000000    0.3428850000000000    0.2045250000000000 C
   0.5540680000000000    0.6970900000000000    0.3460050000000000 C
   0.5492140000000001    0.7060000000000000    0.0964350000000000 C
   0.5484760000000001    0.4523000000000000    0.3050500000000000 C
   0.5508160000000000    0.5765150000000000    0.3226550000000000 C
   0.5488140000000000    0.5386100000000000    0.2762800000000000 C
   0.5525880000000001    0.6570700000000000    0.2954800000000000 C
   0.5531540000000000    0.6993250000000000    0.2216700000000000 C
   0.5474120000000000    0.5822700000000000    0.2026700000000000 C
   0.5499420000000000    0.6622250000000001    0.1753350000000000 C
   0.5540680000000000    0.1970900000000000    0.3460050000000000 C
   0.5492140000000001    0.2060000000000000    0.0964350000000000 C
   0.5484760000000001    0.9522999999999999    0.3050500000000000 C
   0.5508160000000000    0.0765150000000000    0.3226550000000000 C
   0.5488140000000000    0.0386100000000000    0.2762800000000000 C
   0.5525880000000001    0.1570700000000000    0.2954800000000000 C
   0.5531540000000000    0.1993250000000000    0.2216700000000000 C
   0.5474120000000000    0.0822700000000000    0.2026700000000000 C
   0.5499420000000000    0.1622250000000000    0.1753350000000000 C
   0.8459500000000001    0.8028750000000000    0.1540000000000000 C
   0.8508140000000001    0.7939600000000000    0.4035700000000000 C
   0.8515560000000001    0.0476550000000000    0.1949450000000000 C
   0.8468720000000001    0.8006350000000000    0.2783350000000000 C
   0.8526180000000001    0.9176900000000000    0.2973300000000000 C
   0.8500900000000000    0.8377300000000000    0.3246650000000000 C
   0.8492120000000001    0.9234450000000001    0.1773450000000000 C
   0.8512160000000001    0.9613499999999999    0.2237150000000000 C
   0.8474400000000001    0.8428850000000000    0.2045250000000000 C
   0.8459500000000001    0.3028750000000000    0.1540000000000000 C
   0.8508140000000001    0.2939600000000000    0.4035700000000000 C
   0.8515560000000001    0.5476550000000000    0.1949450000000000 C
   0.8468720000000001    0.3006350000000000    0.2783350000000000 C
   0.8526180000000001    0.4176900000000000    0.2973300000000000 C
   0.8500900000000000    0.3377300000000000    0.3246650000000000 C
   0.8492120000000001    0.4234450000000000    0.1773450000000000 C
   0.8512160000000001    0.4613500000000000    0.2237150000000000 C
   0.8474400000000001    0.3428850000000000    0.2045250000000000 C
   0.9540680000000000    0.1970900000000000    0.3460050000000000 C
   0.9492140000000000    0.2060000000000000    0.0964350000000000 C
   0.9484760000000001    0.9522999999999999    0.3050500000000000 C
   0.9508160000000001    0.0765150000000000    0.3226550000000000 C
   0.9488140000000000    0.0386100000000000    0.2762800000000000 C
   0.9525880000000000    0.1570700000000000    0.2954800000000000 C
   0.9531540000000001    0.1993250000000000    0.2216700000000000 C
   0.9474120000000000    0.0822700000000000    0.2026700000000000 C
   0.9499420000000001    0.1622250000000000    0.1753350000000000 C
   0.9540680000000000    0.6970900000000000    0.3460050000000000 C
   0.9492140000000000    0.7060000000000000    0.0964350000000000 C
   0.9484760000000001    0.4523000000000000    0.3050500000000000 C
   0.9508160000000001    0.5765150000000000    0.3226550000000000 C
   0.9488140000000000    0.5386100000000000    0.2762800000000000 C
   0.9525880000000000    0.6570700000000000    0.2954800000000000 C
   0.9531540000000001    0.6993250000000000    0.2216700000000000 C
   0.9474120000000000    0.5822700000000000    0.2026700000000000 C
   0.9499420000000001    0.6622250000000001    0.1753350000000000 C
   0.0459500000000000    0.8028750000000000    0.1540000000000000 C
   0.0508140000000000    0.7939600000000000    0.4035700000000000 C
   0.0515560000000000    0.0476550000000000    0.1949450000000000 C
   0.0468720000000000    0.8006350000000000    0.2783350000000000 C
   0.0526180000000000    0.9176900000000000    0.2973300000000000 C
   0.0500900000000000    0.8377300000000000    0.3246650000000000 C
   0.0492120000000000    0.9234450000000001    0.1773450000000000 C
   0.0512160000000000    0.9613499999999999    0.2237150000000000 C
   0.0474400000000000    0.8428850000000000    0.2045250000000000 C
   0.0459500000000000    0.3028750000000000    0.1540000000000000 C
   0.0508140000000000    0.2939600000000000    0.4035700000000000 C
   0.0515560000000000    0.5476550000000000    0.1949450000000000 C
   0.0468720000000000    0.3006350000000000    0.2783350000000000 C
   0.0526180000000000    0.4176900000000000    0.2973300000000000 C
   0.0500900000000000    0.3377300000000000    0.3246650000000000 C
   0.0492120000000000    0.4234450000000000    0.1773450000000000 C
   0.0512160000000000    0.4613500000000000    0.2237150000000000 C
   0.0474400000000000    0.3428850000000000    0.2045250000000000 C
   0.1540680000000000    0.1970900000000000    0.3460050000000000 C
   0.1492140000000000    0.2060000000000000    0.0964350000000000 C
   0.1484760000000000    0.9522999999999999    0.3050500000000000 C
   0.1508160000000000    0.0765150000000000    0.3226550000000000 C
   0.1488140000000000    0.0386100000000000    0.2762800000000000 C
   0.1525880000000000    0.1570700000000000    0.2954800000000000 C
   0.1531540000000000    0.1993250000000000    0.2216700000000000 C
   0.1474120000000000    0.0822700000000000    0.2026700000000000 C
   0.1499420000000000    0.1622250000000000    0.1753350000000000 C
   0.1540680000000000    0.6970900000000000    0.3460050000000000 C
   0.1492140000000000    0.7060000000000000    0.0964350000000000 C
   0.1484760000000000    0.4523000000000000    0.3050500000000000 C
   0.1508160000000000    0.5765150000000000    0.3226550000000000 C
   0.1488140000000000    0.5386100000000000    0.2762800000000000 C
   0.1525880000000000    0.6570700000000000    0.2954800000000000 C
   0.1531540000000000    0.6993250000000000    0.2216700000000000 C
   0.1474120000000000    0.5822700000000000    0.2026700000000000 C
   0.1499420000000000    0.6622250000000001    0.1753350000000000 C
   0.3540680000000000    0.6970900000000000    0.3460050000000000 C
   0.3492140000000000    0.7060000000000000    0.0964350000000000 C
   0.3484760000000000    0.4523000000000000    0.3050500000000000 C
   0.3508160000000000    0.5765150000000000    0.3226550000000000 C
   0.3488140000000000    0.5386100000000000    0.2762800000000000 C
   0.3525880000000000    0.6570700000000000    0.2954800000000000 C
   0.3531540000000000    0.6993250000000000    0.2216700000000000 C
   0.3474120000000001    0.5822700000000000    0.2026700000000000 C
   0.3499420000000000    0.6622250000000001    0.1753350000000000 C
   0.3540680000000000    0.1970900000000000    0.3460050000000000 C
   0.3492140000000000    0.2060000000000000    0.0964350000000000 C
   0.3484760000000000    0.9522999999999999    0.3050500000000000 C
   0.3508160000000000    0.0765150000000000    0.3226550000000000 C
   0.3488140000000000    0.0386100000000000    0.2762800000000000 C
   0.3525880000000000    0.1570700000000000    0.2954800000000000 C
   0.3531540000000000    0.1993250000000000    0.2216700000000000 C
   0.3474120000000001    0.0822700000000000    0.2026700000000000 C
   0.3499420000000000    0.1622250000000000    0.1753350000000000 C
   0.2459500000000000    0.8028750000000000    0.1540000000000000 C
   0.2508140000000000    0.7939600000000000    0.4035700000000000 C
   0.2515560000000000    0.0476550000000000    0.1949450000000000 C
   0.2468720000000000    0.8006350000000000    0.2783350000000000 C
   0.2526180000000000    0.9176900000000000    0.2973300000000000 C
   0.2500900000000000    0.8377300000000000    0.3246650000000000 C
   0.2492120000000000    0.9234450000000001    0.1773450000000000 C
   0.2512160000000000    0.9613499999999999    0.2237150000000000 C
   0.2474400000000000    0.8428850000000000    0.2045250000000000 C
   0.6459500000000001    0.8028750000000000    0.6540000000000000 C
   0.6508140000000001    0.7939600000000000    0.9035700000000000 C
   0.6515560000000001    0.0476550000000000    0.6949450000000000 C
   0.6468720000000001    0.8006350000000000    0.7783350000000000 C
   0.6526180000000001    0.9176900000000000    0.7973300000000000 C
   0.6500900000000001    0.8377300000000000    0.8246650000000000 C
   0.6492120000000001    0.9234450000000001    0.6773450000000000 C
   0.6512160000000001    0.9613499999999999    0.7237150000000000 C
   0.6474400000000001    0.8428850000000000    0.7045250000000001 C
   0.6459500000000001    0.3028750000000000    0.6540000000000000 C
   0.6508140000000001    0.2939600000000000    0.9035700000000000 C
   0.6515560000000001    0.5476550000000000    0.6949450000000000 C
   0.6468720000000001    0.3006350000000000    0.7783350000000000 C
   0.6526180000000001    0.4176900000000000    0.7973300000000000 C
   0.6500900000000001    0.3377300000000000    0.8246650000000000 C
   0.6492120000000001    0.4234450000000000    0.6773450000000000 C
   0.6512160000000001    0.4613500000000000    0.7237150000000000 C
   0.6474400000000001    0.3428850000000000    0.7045250000000001 C
   0.7540680000000001    0.6970900000000000    0.8460050000000000 C
   0.7492140000000000    0.7060000000000000    0.5964350000000000 C
   0.7484760000000001    0.4523000000000000    0.8050500000000000 C
   0.7508160000000001    0.5765150000000000    0.8226550000000000 C
   0.7488140000000001    0.5386100000000000    0.7762800000000001 C
   0.7525880000000000    0.6570700000000000    0.7954800000000000 C
   0.7531540000000001    0.6993250000000000    0.7216700000000000 C
   0.7474120000000001    0.5822700000000000    0.7026700000000000 C
   0.7499420000000001    0.6622250000000001    0.6753350000000000 C
   0.7540680000000001    0.1970900000000000    0.8460050000000000 C
   0.7492140000000000    0.2060000000000000    0.5964350000000000 C
   0.7484760000000001    0.9522999999999999    0.8050500000000000 C
   0.7508160000000001    0.0765150000000000    0.8226550000000000 C
   0.7488140000000001    0.0386100000000000    0.7762800000000001 C
   0.7525880000000000    0.1570700000000000    0.7954800000000000 C
   0.7531540000000001    0.1993250000000000    0.7216700000000000 C
   0.7474120000000001    0.0822700000000000    0.7026700000000000 C
   0.7499420000000001    0.1622250000000000    0.6753350000000000 C
   0.8459500000000001    0.3028750000000000    0.6540000000000000 C
   0.8508140000000001    0.2939600000000000    0.9035700000000000 C
   0.8515560000000001    0.5476550000000000    0.6949450000000000 C
   0.8468720000000001    0.3006350000000000    0.7783350000000000 C
   0.8526180000000001    0.4176900000000000    0.7973300000000000 C
   0.8500900000000000    0.3377300000000000    0.8246650000000000 C
   0.8492120000000001    0.4234450000000000    0.6773450000000000 C
   0.8512160000000001    0.4613500000000000    0.7237150000000000 C
   0.8474400000000001    0.3428850000000000    0.7045250000000001 C
   0.8459500000000001    0.8028750000000000    0.6540000000000000 C
   0.8508140000000001    0.7939600000000000    0.9035700000000000 C
   0.8515560000000001    0.0476550000000000    0.6949450000000000 C
   0.8468720000000001    0.8006350000000000    0.7783350000000000 C
   0.8526180000000001    0.9176900000000000    0.7973300000000000 C
   0.8500900000000000    0.8377300000000000    0.8246650000000000 C
   0.8492120000000001    0.9234450000000001    0.6773450000000000 C
   0.8512160000000001    0.9613499999999999    0.7237150000000000 C
   0.8474400000000001    0.8428850000000000    0.7045250000000001 C
   0.9540680000000000    0.6970900000000000    0.8460050000000000 C
   0.9492140000000000    0.7060000000000000    0.5964350000000000 C
   0.9484760000000001    0.4523000000000000    0.8050500000000000 C
   0.9508160000000001    0.5765150000000000    0.8226550000000000 C
   0.9488140000000000    0.5386100000000000    0.7762800000000001 C
   0.9525880000000000    0.6570700000000000    0.7954800000000000 C
   0.9531540000000001    0.6993250000000000    0.7216700000000000 C
   0.9474120000000000    0.5822700000000000    0.7026700000000000 C