H8 C14 O4
1.0
  30.5625875633676607    0.0000000000000000   -3.3897996152404639
  -1.3407215849856127   15.2478391882915894   -1.4690114769983862
   0.0000000000000000    0.0000000000000000   35.9720000000000013
H C O
8 14 4
direct
   0.7705350000000000    0.3740100000000000    0.7270000000000000 H
   0.8511900000000000    0.3769700000000000    0.7253000000000001 H
   0.8287000000000000    0.2999100000000000    0.6058600000000000 H
   0.7484500000000001    0.3024100000000000    0.6082100000000000 H
   0.9717600000000000    0.3569700000000000    0.6036350000000000 H
   0.8926750000000000    0.3689100000000000    0.6067050000000000 H
   0.9085350000000000    0.3070300000000000    0.7217550000000000 H
   0.9885500000000000    0.3046000000000000    0.7192100000000000 H
   0.0336050000000000    0.3239600000000000    0.6596450000000000 C
   0.7544600000000000    0.3381700000000000    0.6678600000000000 C
   0.7837850000000000    0.3584800000000000    0.7008000000000000 C
   0.8288800000000001    0.3591900000000000    0.6995350000000000 C
   0.8462450000000000    0.3384900000000000    0.6654450000000001 C
   0.8164199999999999    0.3181400000000000    0.6325550000000000 C
   0.7713749999999999    0.3185600000000000    0.6335000000000000 C
   0.7057550000000000    0.3359800000000000    0.6689700000000001 C
   0.9853300000000000    0.3291600000000000    0.6611000000000000 C
   0.9577550000000000    0.3465600000000000    0.6295100000000000 C
   0.9130499999999999    0.3517600000000000    0.6312150000000000 C
   0.8940950000000000    0.3369500000000000    0.6642100000000000 C
   0.9221300000000000    0.3196500000000000    0.6958500000000000 C
   0.9670250000000000    0.3170000000000000    0.6944900000000001 C
   0.0467650000000000    0.3108500000000000    0.6272650000000000 O
   0.0577250000000000    0.3319700000000000    0.6910750000000000 O
   0.6818550000000000    0.3292000000000000    0.6373800000000001 O
   0.6921650000000000    0.3405200000000000    0.7012700000000001 O
