H4 O2
1.0
  30.5625875633676607    0.0000000000000000   -3.3897996152404639
  -1.3407215849856127   15.2478391882915894   -1.4690114769983862
   0.0000000000000000    0.0000000000000000   35.9720000000000013
H O
4 2
direct
   0.3984586394260330    0.7057470273734896    0.2307559356902930 H
   0.3690252603175581    0.6075359846202034    0.2213704899990614 H
   0.3958992610782573    0.7299022419800363    0.9518189873295392 H
   0.3856079508145129    0.6200366688395208    0.9441806047480363 H
   0.3812550000000000    0.6572100000000000    0.2395100000000000 O
   0.3898450000000000    0.6766900000000000    0.9341999999999999 O
