H8 C7 N6
1.0
  21.4956767899838717    0.0000000000000000   -2.0372391466268098
  -0.0077304026596004   12.5849942445347587    0.0092252860010745
   0.0000000000000000    0.0000000000000000   17.1739999999999995
H C N
8 7 6
direct
   0.2360400000000000    0.4844800000000000    0.8159200000000000 H
   0.3009100000000000    0.4061300000000000    0.7930199999999999 H
   0.3113000000000000    0.5100200000000000    0.8632000000000000 H
   0.2673600000000000    0.1261000000000000    0.0741300000000000 H
   0.3385400000000000    0.1982000000000000    0.0866100000000000 H
   0.4425000000000000    0.8810700000000000    0.8618000000000000 H
   0.4870500000000000    0.9927100000000000    0.8966400000000000 H
   0.4293000000000000    0.0077900000000000    0.8166000000000000 H
   0.2794600000000000    0.4469500000000000    0.8401400000000000 C
   0.2661000000000000    0.3710200000000000    0.9027400000000000 C
   0.2772300000000000    0.2472500000000000    0.9895000000000000 C
   0.3041900000000000    0.1616400000000000    0.0428500000000000 C
   0.3348700000000000    0.0738400000000000    0.0020900000000000 C
   0.3935000000000000    0.9913000000000000    0.9277500000000000 C
   0.4405300000000000    0.9667100000000000    0.8725700000000000 C
   0.3079700000000000    0.2969300000000000    0.9346400000000000 N
   0.2126900000000000    0.3682800000000000    0.9351800000000000 N
   0.2202000000000000    0.2886300000000000    0.9910000000000000 N
   0.3769600000000000    0.0905700000000000    0.9482800000000000 N
   0.3251500000000000    0.9716000000000000    0.0151500000000000 N
   0.3627700000000000    0.9187200000000000    0.9668300000000000 N
