Zn16 H120 C105 N90
1.0
  21.4956767899838717    0.0000000000000000   -2.0372391466268098
  -0.0077304026596004   12.5849942445347587    0.0092252860010745
   0.0000000000000000    0.0000000000000000   17.1739999999999995
Zn H C N
16 120 105 90
direct
   0.6351100000000000    0.2641600000000000    0.3998400000000000 Zn
   0.3946900000000000    0.2598300000000000    0.5403500000000000 Zn
   0.8958400000000000    0.2594700000000000    0.5426600000000000 Zn
   0.1147300000000000    0.7644300000000001    0.1002400000000000 Zn
   0.6136700000000000    0.7642900000000000    0.1024700000000000 Zn
   0.3546600000000000    0.7597200000000000    0.9569600000000000 Zn
   0.8537500000000000    0.7594500000000000    0.9597200000000000 Zn
   0.3648600000000000    0.7358400000000000    0.6001300000000001 Zn
   0.8646300000000000    0.7356200000000001    0.6026300000000000 Zn
   0.1041300000000000    0.7405300000000000    0.4570000000000000 Zn
   0.6052800000000000    0.7401700000000000    0.4596200000000000 Zn
   0.3863000000000000    0.2357000000000000    0.8974900000000000 Zn
   0.8852400000000000    0.2355700000000000    0.8997200000000000 Zn
   0.1462200000000000    0.2405500000000000    0.0402500000000000 Zn
   0.6453100000000001    0.2402800000000000    0.0430200000000000 Zn
   0.1353400000000000    0.2643700000000000    0.3973300000000000 Zn
   0.4660700000000000    0.3634300000000000    0.7940700000000001 H
   0.9663200000000000    0.3634900000000000    0.7958900000000000 H
   0.4976300000000000    0.3211500000000000    0.7072800000000000 H
   0.9976100000000000    0.3212600000000000    0.7088600000000000 H
   0.4385500000000000    0.4195100000000000    0.7025400000000001 H
   0.9384500000000000    0.4194300000000000    0.7044300000000000 H
   0.2583300000000000    0.0530900000000000    0.6430300000000000 H
   0.7591700000000000    0.0519900000000000    0.6441000000000000 H
   0.3243000000000000    0.0136300000000000    0.5965400000000000 H
   0.8253700000000000    0.0137600000000000    0.5975500000000000 H
   0.2564300000000000    0.3270800000000000    0.3319300000000000 H
   0.7566000000000001    0.3275500000000000    0.3337000000000000 H
   0.3215900000000000    0.3710700000000000    0.3955900000000000 H
   0.8221000000000001    0.3714500000000000    0.3969300000000000 H
   0.3278400000000000    0.2547600000000000    0.3395300000000000 H
   0.8278900000000000    0.2549300000000000    0.3409800000000000 H
   0.4854000000000000    0.0145500000000000    0.3180000000000000 H
   0.9844700000000000    0.0157700000000000    0.3169500000000000 H
   0.0491200000000000    0.0944600000000000    0.2934000000000000 H
   0.5499200000000000    0.0936400000000000    0.2947500000000000 H
   0.0599700000000000    0.9906900000000000    0.3637800000000000 H
   0.5608500000000000    0.9900300000000000    0.3652700000000000 H
   0.0173100000000000    0.3740300000000000    0.5749600000000000 H
   0.5158300000000000    0.3738200000000000    0.5753000000000000 H
   0.0883800000000000    0.3017200000000000    0.5868800000000000 H
   0.5868700000000000    0.3016600000000000    0.5885899999999999 H
   0.1913200000000000    0.6195000000000001    0.3611800000000000 H
   0.6914100000000000    0.6184600000000000    0.3630400000000000 H
   0.2361300000000000    0.5081700000000000    0.3958300000000000 H
   0.7362700000000000    0.5073800000000001    0.3981700000000000 H
   0.1781200000000000    0.4927100000000000    0.3161100000000000 H
   0.6782600000000000    0.4913300000000000    0.3185200000000000 H
   0.2842100000000000    0.8632800000000000    0.7034600000000000 H
   0.7836600000000000    0.8638500000000000    0.7057500000000000 H
   0.2528900000000000    0.8213900000000000    0.7906000000000000 H
   0.7518700000000000    0.8213400000000000    0.7924200000000000 H
   0.3120400000000000    0.9197400000000000    0.7947200000000000 H
   0.8111100000000000    0.9195500000000000    0.7974000000000000 H
   0.4917600000000000    0.5533600000000000    0.8558600000000000 H
   0.9898400000000001    0.5513700000000000    0.8577700000000000 H
   0.4254900000000000    0.5138900000000000    0.9018200000000000 H
   0.9236400000000000    0.5133900000000000    0.9045200000000000 H
   0.4923300000000000    0.8267000000000000    0.1667800000000000 H
   0.9938900000000001    0.8286100000000000    0.1670100000000000 H
   0.4268900000000000    0.8699300000000000    0.1032600000000000 H
   0.9282200000000000    0.8721800000000000    0.1040200000000000 H
   0.4212400000000000    0.7533100000000000    0.1593100000000000 H
   0.9225000000000000    0.7561900000000000    0.1607100000000000 H
   0.2655300000000000    0.5164800000000001    0.1820000000000000 H
   0.7639300000000000    0.5155200000000000    0.1840500000000000 H
   0.2007600000000000    0.5948500000000000    0.2052300000000000 H
   0.6990600000000000    0.5938800000000000    0.2069500000000000 H
   0.1901000000000000    0.4906300000000000    0.1352600000000000 H
   0.6886600000000000    0.4899900000000000    0.1367000000000000 H
   0.2332800000000000    0.8741800000000000    0.9234800000000000 H
   0.7326100000000000    0.8739000000000000    0.9258300000000000 H
   0.1621100000000000    0.8020699999999999    0.9111300000000000 H
   0.6614400000000000    0.8018000000000000    0.9133500000000000 H
   0.0590000000000000    0.1193400000000000    0.1366800000000000 H
   0.5574700000000000    0.1189200000000000    0.1380900000000000 H
   0.0143200000000000    0.0075500000000000    0.1025300000000000 H
   0.5129300000000000    0.0072700000000000    0.1033200000000000 H
   0.0725600000000000    0.9927800000000000    0.1820600000000000 H
   0.5706800000000000    0.9922100000000000    0.1833600000000000 H
   0.0336600000000000    0.6365100000000000    0.2040000000000000 H
   0.5339000000000000    0.6365600000000000    0.2058900000000000 H
   0.0023600000000000    0.6787400000000000    0.2910900000000000 H
   0.5023300000000001    0.6788400000000000    0.2926800000000000 H
   0.0615200000000000    0.5805700000000000    0.2955200000000000 H
   0.5614200000000000    0.5804700000000000    0.2974100000000000 H
   0.2408100000000000    0.9479900000000000    0.3558500000000000 H
   0.7416400000000000    0.9469000000000000    0.3569200000000000 H
   0.1746100000000000    0.9862400000000000    0.4024100000000000 H
   0.6756700000000000    0.9863499999999999    0.4034200000000000 H
   0.2433600000000000    0.6724400000000000    0.6661899999999999 H
   0.7435500000000000    0.6729200000000000    0.6680300000000000 H
   0.1778600000000000    0.6285500000000001    0.6030200000000000 H
   0.6783800000000000    0.6289300000000000    0.6043700000000000 H
   0.1720700000000000    0.7450700000000000    0.6589699999999999 H
   0.6721300000000000    0.7452500000000000    0.6604300000000000 H
   0.0155100000000000    0.9842100000000000    0.6830100000000000 H
   0.5145700000000000    0.9854400000000000    0.6818700000000000 H
   0.4500500000000000    0.9063500000000000    0.7052200000000000 H
   0.9508600000000000    0.9055299999999999    0.7065600000000000 H
   0.4391200000000000    0.0000000000000000    0.6347000000000000 H
   0.9400100000000000    0.0000000000000000    0.6361800000000000 H
   0.4841400000000000    0.6261700000000000    0.4246500000000000 H
   0.9826600000000000    0.6259700000000000    0.4249900000000000 H
   0.4131000000000000    0.6983400000000000    0.4113700000000000 H
   0.9115900000000000    0.6982900000000000    0.4130800000000000 H
   0.3085500000000000    0.3815400000000000    0.6369300000000000 H
   0.8086500000000000    0.3804900000000000    0.6387699999999999 H
   0.2637000000000000    0.4926200000000000    0.6018000000000000 H
   0.7638400000000000    0.4918300000000000    0.6041299999999999 H
   0.3217100000000000    0.5086700000000000    0.6814500000000000 H
   0.8218600000000000    0.5072800000000000    0.6838500000000000 H
   0.2163100000000000    0.1361500000000000    0.2942200000000000 H
   0.7157600000000000    0.1367200000000000    0.2965000000000000 H
   0.2481000000000000    0.1786600000000000    0.2075500000000000 H
   0.7470700000000000    0.1786100000000000    0.2093700000000000 H
   0.1888600000000000    0.0804500000000000    0.2025700000000000 H
   0.6879300000000000    0.0802600000000000    0.2052500000000000 H
   0.0101300000000000    0.4486300000000000    0.1421900000000000 H
   0.5082000000000000    0.4466200000000000    0.1441100000000000 H
   0.0763300000000000    0.4866100000000000    0.0954400000000000 H
   0.5744600000000000    0.4861000000000000    0.0981400000000000 H
   0.0060800000000000    0.1713900000000000    0.8329000000000000 H
   0.5076400000000000    0.1732900000000000    0.8331900000000000 H
   0.0717500000000000    0.1278100000000000    0.8959500000000000 H
   0.5730900000000000    0.1300600000000000    0.8967100000000000 H
   0.0774800000000000    0.2438100000000000    0.8392500000000001 H
   0.5787400000000000    0.2466800000000000    0.8406600000000000 H
   0.7344400000000000    0.4835100000000000    0.8179000000000000 H
   0.7992100000000000    0.4051400000000000    0.7947300000000000 H
   0.8098700000000000    0.5093600000000000    0.8647000000000000 H
   0.7666900000000000    0.1258200000000000    0.0764800000000000 H
   0.8378600000000000    0.1979300000000000    0.0888300000000000 H
   0.9409700000000000    0.8806500000000000    0.8632900000000000 H
   0.9856500000000000    0.9924500000000001    0.8974299999999999 H
   0.9274100000000000    0.0072200000000000    0.8179000000000000 H
   0.5594400000000000    0.0332800000000000    0.1273900000000000 C
   0.0451800000000000    0.6544200000000000    0.2661400000000000 C
   0.5452500000000000    0.6544000000000000    0.2680100000000000 C
   0.0931700000000000    0.7394200000000000    0.2756500000000000 C
   0.4547200000000000    0.3455800000000000    0.7319400000000000 C
   0.9547900000000000    0.3455800000000000    0.7338000000000000 C
   0.4066700000000000    0.2607000000000000    0.7222900000000000 C
   0.9068000000000001    0.2605900000000000    0.7243100000000000 C
   0.3382700000000000    0.1485300000000000    0.6726200000000000 C
   0.8387000000000000    0.1481700000000000    0.6742200000000000 C
   0.2981200000000000    0.0834100000000000    0.6145000000000000 C
   0.7989000000000001    0.0830200000000000    0.6157899999999999 C
   0.2744200000000000    0.1422100000000000    0.5418900000000000 C
   0.7750800000000000    0.1423100000000000    0.5434500000000000 C
   0.2743600000000000    0.2356900000000000    0.4368300000000000 C
   0.7748200000000000    0.2363500000000000    0.4386800000000000 C
   0.2957600000000000    0.3009600000000000    0.3723100000000000 C
   0.7960500000000000    0.3014100000000000    0.3739400000000000 C
   0.0279500000000000    0.0535800000000000    0.3407900000000000 C
   0.5287400000000000    0.0526500000000000    0.3420700000000000 C
   0.0148700000000000    0.1294700000000000    0.4034500000000000 C
   0.5152000000000000    0.1285700000000000    0.4044900000000000 C
   0.0265500000000000    0.2530400000000000    0.4902000000000000 C
   0.5260500000000000    0.2525500000000000    0.4910600000000000 C
   0.0539000000000000    0.3384400000000000    0.5433700000000000 C
   0.5528300000000000    0.3382200000000000    0.5444600000000001 C
   0.0844600000000000    0.4262400000000000    0.5023200000000000 C
   0.5839000000000000    0.4260400000000000    0.5040000000000000 C
   0.1427300000000000    0.5090000000000000    0.4275000000000000 C
   0.6428199999999999    0.5084400000000000    0.4297600000000000 C
   0.1895100000000000    0.5338500000000000    0.3719800000000000 C
   0.6896400000000000    0.5329000000000000    0.3742300000000000 C
   0.2957200000000000    0.8457000000000000    0.7656100000000000 C
   0.7948600000000000    0.8457700000000000    0.7678700000000001 C
   0.3437300000000000    0.7608400000000000    0.7753700000000000 C
   0.8427500000000000    0.7607300000000000    0.7776600000000000 C
   0.4119700000000000    0.6487800000000000    0.8255800000000000 C
   0.9105500000000000    0.6479400000000000    0.8277800000000000 C
   0.4518300000000000    0.5836800000000000    0.8840400000000000 C
   0.9502100000000000    0.5825399999999999    0.8861400000000000 C
   0.4751900000000000    0.6423900000000000    0.9568100000000000 C
   0.9742600000000000    0.6418900000000000    0.9582600000000000 C
   0.4746900000000000    0.7354000000000001    0.0619000000000000 C
   0.9750700000000000    0.7365800000000000    0.0626800000000000 C
   0.4530600000000000    0.8001400000000000    0.1264600000000000 C
   0.9542400000000000    0.8022500000000000    0.1272400000000000 C
   0.2219900000000000    0.5538600000000000    0.1580000000000000 C
   0.7205000000000000    0.5530600000000000    0.1598200000000000 C
   0.2350400000000000    0.6295400000000000    0.0951100000000000 C
   0.7338700000000000    0.6289800000000000    0.0972200000000000 C
   0.2236000000000000    0.7530200000000000    0.0081100000000000 C
   0.7227400000000000    0.7527500000000000    0.0104500000000000 C
   0.1965100000000000    0.8385800000000000    0.9548300000000000 C
   0.6957900000000000    0.8383500000000000    0.9571100000000000 C
   0.1659300000000000    0.9263900000000000    0.9957200000000000 C
   0.6651100000000000    0.9261600000000000    0.9978700000000000 C
   0.1076100000000000    0.0089900000000000    0.0704500000000000 C
   0.6064700000000000    0.0086900000000000    0.0722100000000000 C
   0.0609400000000000    0.0336700000000000    0.1260900000000000 C
   0.5933000000000000    0.7392900000000000    0.2776000000000000 C
   0.1612800000000000    0.8518300000000000    0.3257400000000000 C
   0.6617000000000000    0.8514600000000000    0.3273400000000000 C
   0.2010800000000000    0.9169700000000000    0.3841600000000000 C
   0.7018500000000000    0.9165800000000000    0.3854600000000000 C
   0.2249000000000000    0.8576800000000000    0.4565100000000000 C
   0.7255500000000000    0.8577700000000000    0.4580700000000000 C
   0.2251500000000000    0.7636400000000000    0.5612800000000000 C
   0.7256100000000000    0.7643000000000000    0.5631300000000000 C
   0.2039100000000000    0.6985900000000000    0.6260100000000000 C
   0.7042200000000000    0.6990400000000000    0.6276500000000000 C
   0.4712300000000000    0.9473500000000000    0.6579000000000000 C
   0.9720299999999999    0.9464100000000000    0.6591000000000000 C
   0.4847700000000000    0.8714200000000000    0.5954800000000000 C
   0.9851000000000000    0.8705200000000000    0.5965100000000000 C
   0.4739200000000000    0.7474400000000000    0.5089000000000000 C
   0.9734100000000000    0.7469500000000000    0.5097500000000000 C
   0.4471400000000000    0.6617800000000000    0.4555000000000000 C
   0.9460700000000000    0.6615600000000000    0.4565800000000000 C
   0.4160700000000000    0.5739600000000000    0.4959700000000000 C
   0.9155100000000000    0.5737600000000000    0.4976300000000000 C
   0.3571500000000000    0.4915600000000000    0.5702100000000000 C
   0.8572300000000000    0.4910000000000000    0.5724000000000000 C
   0.3103300000000000    0.4671000000000000    0.6257400000000000 C
   0.8104600000000000    0.4661400000000000    0.6279700000000000 C
   0.2051100000000000    0.1542300000000000    0.2321000000000000 C
   0.7042400000000000    0.1543000000000000    0.2343600000000000 C
   0.1572200000000000    0.2392700000000000    0.2223100000000000 C
   0.6562400000000000    0.2391600000000000    0.2246000000000000 C
   0.0894200000000000    0.3520600000000000    0.1721900000000000 C
   0.5879900000000000    0.3512100000000000    0.1743800000000000 C
   0.0497600000000000    0.4174600000000000    0.1138300000000000 C
   0.5481300000000000    0.4163100000000000    0.1159300000000000 C
   0.0257100000000000    0.3581100000000000    0.0417000000000000 C
   0.5247700000000000    0.3575900000000000    0.0431600000000000 C
   0.0249000000000000    0.2634100000000000    0.9372800000000000 C
   0.5252800000000000    0.2645800000000000    0.9380600000000000 C
   0.0457300000000000    0.1977400000000000    0.8727300000000000 C
   0.5469200000000000    0.1998500000000000    0.8735100000000000 C
   0.7779800000000000    0.4461300000000000    0.8419000000000000 C
   0.7649300000000000    0.3704500000000000    0.9048500000000000 C
   0.7763700000000000    0.2469700000000000    0.9918500000000000 C
   0.8034600000000000    0.1614100000000000    0.0451300000000000 C
   0.8340500000000000    0.0736100000000000    0.0042500000000000 C
   0.8923600000000000    0.9910099999999999    0.9295000000000000 C
   0.9390300000000000    0.9663200000000000    0.8738700000000000 C
   0.0569500000000000    0.2035500000000000    0.4349700000000000 N
   0.5570500000000000    0.2025400000000000    0.4366600000000000 N
   0.4615700000000000    0.1316300000000000    0.4363800000000000 N
   0.9616700000000000    0.1321300000000000    0.4363900000000000 N
   0.4689100000000000    0.2113600000000000    0.4920600000000000 N
   0.9695200000000000    0.2116500000000000    0.4922300000000000 N
   0.1262500000000000    0.4096300000000000    0.4481300000000000 N
   0.6258200000000000    0.4092400000000000    0.4500400000000000 N
   0.0748800000000000    0.5284500000000000    0.5155000000000000 N
   0.5747600000000000    0.5283000000000000    0.5174900000000000 N
   0.1122500000000000    0.5814700000000000    0.4668700000000000 N
   0.6125600000000000    0.5810800000000000    0.4692300000000000 N
   0.2158100000000000    0.2028300000000000    0.4435500000000000 N
   0.7162500000000001    0.2034900000000000    0.4454800000000000 N
   0.2155600000000000    0.1427900000000000    0.5114800000000000 N
   0.7161700000000000    0.1430300000000000    0.5132500000000000 N
   0.3126600000000000    0.1987400000000000    0.4976800000000000 N
   0.8132700000000000    0.1991500000000000    0.4993600000000000 N
   0.3828800000000000    0.2192200000000000    0.6528500000000000 N
   0.8836200000000000    0.2184600000000000    0.6548000000000000 N
   0.3347100000000000    0.1439500000000000    0.7493500000000000 N
   0.8344100000000000    0.1443500000000000    0.7508200000000000 N
   0.3787800000000000    0.2160900000000000    0.7809700000000001 N
   0.8783000000000000    0.2166500000000000    0.7827600000000000 N
   0.1929900000000000    0.7033400000000000    0.0631500000000000 N
   0.6919999999999999    0.7030600000000000    0.0653200000000000 N
   0.2883700000000000    0.6324400000000000    0.0625300000000000 N
   0.7872800000000000    0.6317199999999999    0.0647900000000000 N
   0.2806700000000000    0.7118800000000000    0.0065600000000000 N
   0.7797800000000000    0.7113699999999999    0.0089700000000000 N
   0.1240800000000000    0.9097100000000000    0.0498400000000000 N
   0.6230100000000000    0.9094300000000000    0.0516800000000000 N
   0.1755500000000000    0.0286100000000000    0.9825100000000000 N
   0.6748300000000000    0.0284000000000000    0.9848100000000000 N
   0.1381400000000000    0.0815300000000000    0.0310600000000000 N
   0.6372000000000000    0.0812800000000000    0.0331300000000000 N
   0.0335600000000000    0.7036400000000000    0.0555300000000000 N
   0.5333200000000000    0.7026300000000000    0.0557100000000000 N
   0.0332900000000000    0.6428000000000000    0.9879900000000000 N
   0.5339200000000000    0.6428700000000001    0.9877300000000000 N
   0.4366900000000000    0.6987400000000000    0.0000000000000000 N
   0.9363300000000000    0.6989700000000000    0.0000000000000000 N
   0.3671000000000000    0.7191000000000000    0.8449400000000000 N
   0.8658400000000001    0.7185200000000000    0.8472100000000000 N
   0.4160200000000000    0.6446000000000000    0.7489400000000001 N
   0.9148300000000000    0.6440800000000000    0.7511900000000000 N
   0.3720600000000000    0.7166800000000000    0.7169600000000000 N
   0.8711700000000000    0.7166500000000000    0.7192499999999999 N
   0.4429200000000000    0.7974599999999999    0.5633000000000000 N
   0.9430200000000000    0.7964400000000000    0.5649900000000000 N
   0.0383000000000000    0.8678700000000000    0.5635599999999999 N
   0.5383900000000000    0.8683700000000000    0.5635900000000000 N
   0.0304500000000000    0.7883400000000000    0.5077199999999999 N
   0.5310600000000000    0.7886400000000000    0.5079100000000000 N
   0.3741500000000000    0.5907600000000000    0.5499300000000000 N
   0.8737200000000001    0.5903700000000000    0.5518300000000000 N
   0.4252100000000000    0.4717000000000000    0.4824700000000000 N
   0.9250800000000000    0.4715500000000000    0.4844400000000000 N
   0.3874100000000000    0.4189100000000000    0.5307300000000000 N
   0.8877200000000000    0.4185300000000000    0.5330800000000000 N
   0.2837200000000000    0.7965000000000000    0.5544800000000000 N
   0.7841600000000000    0.7971600000000000    0.5564100000000000 N
   0.2838100000000000    0.8569500000000000    0.4867000000000000 N
   0.7844100000000001    0.8572000000000000    0.4884700000000000 N
   0.1867100000000000    0.8008500000000000    0.5006000000000000 N
   0.6873200000000000    0.8012500000000000    0.5022799999999999 N
   0.1163500000000000    0.7815400000000000    0.3451600000000000 N
   0.6170900000000000    0.7807700000000000    0.3471100000000000 N
   0.1655600000000000    0.8556400000000000    0.2491300000000000 N
   0.6652500000000000    0.8560400000000000    0.2506000000000000 N
   0.1216800000000000    0.7833500000000000    0.2171900000000000 N
   0.6211800000000000    0.7839000000000000    0.2189800000000000 N
   0.8069800000000000    0.2966600000000000    0.9368000000000000 N
   0.7116000000000000    0.3675600000000000    0.9374400000000001 N
   0.7193000000000001    0.2881200000000000    0.9933999999999999 N
   0.8758899999999999    0.0902900000000000    0.9501200000000000 N
   0.8244200000000000    0.9713900000000000    0.0174600000000000 N
   0.8618400000000001    0.9184700000000000    0.9689100000000000 N
   0.4666600000000000    0.2973600000000000    0.9442500000000000 N
   0.9664100000000000    0.2963500000000000    0.9444300000000000 N
   0.4660500000000000    0.3571200000000000    0.0122300000000000 N
   0.9666800000000000    0.3571900000000000    0.0119700000000000 N
   0.0636400000000000    0.3010300000000000    0.9975200000000000 N
   0.5632800000000000    0.3012500000000000    0.9993100000000000 N
   0.1341300000000000    0.2814700000000000    0.1527600000000000 N
   0.6328600000000000    0.2809000000000000    0.1550300000000000 N
   0.0851300000000000    0.3559100000000000    0.2487700000000000 N
   0.5839400000000000    0.3554000000000000    0.2510300000000000 N
   0.1288000000000000    0.2833500000000000    0.2807200000000000 N
   0.6279000000000000    0.2833100000000000    0.2830100000000000 N
