H7 C15 O6
1.0
  23.0631104433525351    0.0000000000000000    2.1488382158094748
   2.0406884582853224    9.2141387981716445    3.7846348336727353
   0.0000000000000000    0.0000000000000000   26.9259999999999984
H C O
7 15 6
direct
   0.9067933333333333    0.2437100000000000    0.3365800000000000 H
   0.8847966666666667    0.3675400000000000    0.4740100000000000 H
   0.8663399999999999    0.7331800000000001    0.2368650000000000 H
   0.8955799999999999    0.6901900000000000    0.3177200000000000 H
   0.9775466666666666    0.3474200000000000    0.1718350000000000 H
   0.9626100000000000    0.2920500000000000    0.2689750000000000 H
   0.8857200000000000    0.7892100000000000    0.1399900000000000 H
   0.8926799999999999    0.1380300000000000    0.4421650000000000 C
   0.8955133333333333    0.2908100000000000    0.4081750000000000 C
   0.9026900000000000    0.3287700000000000    0.3527850000000000 C
   0.8897766666666667    0.5401000000000000    0.3977350000000000 C
   0.8850966666666666    0.6537900000000000    0.4212250000000000 C
   0.8898400000000000    0.3964800000000000    0.4309050000000000 C
   0.8918233333333333    0.6482200000000000    0.2231750000000000 C
   0.8953700000000000    0.5775600000000000    0.3421800000000000 C
   0.9534333333333332    0.4312900000000000    0.1865600000000000 C
   0.9326633333333333    0.5716300000000000    0.1496200000000000 C
   0.9031133333333332    0.4719800000000000    0.3188300000000000 C
   0.9441033333333333    0.4004700000000000    0.2410200000000000 C
   0.9127000000000000    0.5078400000000000    0.2605500000000000 C
   0.9019900000000000    0.6801600000000000    0.1685600000000000 C
   0.9432966666666667    0.6033100000000000    0.0910900000000000 C
   0.9065399999999999    1.0429400000000000    0.4201800000000000 O
   0.8769266666666666    0.1057900000000000    0.4913600000000000 O
   0.9037033333333333    0.6109700000000000    0.4707400000000000 O
   0.8639433333333333    0.7848200000000000    0.3958100000000000 O
   0.9706399999999999    0.4932800000000000    0.0788900000000000 O
   0.9261499999999999    0.7320900000000000    0.0585200000000000 O
