H2 O2
1.0
  39.2249999999999943    0.0000000000000000    0.0000000000000024
   0.0243909639134290   13.9749787127346785   -0.0002439097629554
   0.0000000000000000    0.0000000000000000   16.9239999999999995
H O
2 2
direct
   0.6569232725744611    0.8075062029315143    0.5232910541333622 H
   0.6743969696954406    0.8310434464334187    0.4174134464157583 H
   0.6585566666666667    0.8770700000000000    0.5179500000000000 O
   0.6710999999999999    0.8937400000000000    0.4420300000000000 O
