Zn48 H150 C142 N192 O96
1.0
  39.2249999999999943    0.0000000000000000    0.0000000000000024
   0.0243909639134290   13.9749787127346785   -0.0002439097629554
   0.0000000000000000    0.0000000000000000   16.9239999999999995
Zn H C N O
48 150 142 192 96
direct
   0.0074533333333333    0.0923100000000000    0.0704200000000000 Zn
   0.8091233333333333    0.0193800000000000    0.9038900000000000 Zn
   0.9925499999999999    0.9076800000000000    0.9295900000000000 Zn
   0.1908800000000000    0.9806300000000000    0.0961100000000000 Zn
   0.9925466666666666    0.4076800000000000    0.5704399999999999 Zn
   0.1908833333333333    0.4806200000000000    0.4039100000000000 Zn
   0.0074533333333333    0.5923000000000000    0.4295800000000000 Zn
   0.8091133333333334    0.5193800000000000    0.5961200000000000 Zn
   0.9761466666666666    0.4824100000000000    0.9036900000000000 Zn
   0.1745933333333333    0.4077800000000000    0.0705200000000000 Zn
   0.9761466666666666    0.9823800000000000    0.5963500000000000 Zn
   0.1745900000000000    0.9077700000000000    0.4294700000000000 Zn
   0.3571800000000000    0.0175800000000000    0.4036800000000000 Zn
   0.1587366666666667    0.0922200000000000    0.5705100000000000 Zn
   0.3571866666666667    0.5175800000000000    0.0963200000000000 Zn
   0.1587400000000000    0.5922300000000000    0.9290000000000000 Zn
   0.6741199999999999    0.0923100000000000    0.0704200000000000 Zn
   0.4757900000000000    0.0193800000000000    0.9038900000000000 Zn
   0.6592166666666666    0.9076800000000000    0.9295900000000000 Zn
   0.8575466666666667    0.9806300000000000    0.0961100000000000 Zn
   0.3407866666666666    0.0923100000000000    0.0704200000000000 Zn
   0.1424566666666667    0.0193800000000000    0.9038900000000000 Zn
   0.3258833333333333    0.9076800000000000    0.9295900000000000 Zn
   0.5242133333333333    0.9806300000000000    0.0961100000000000 Zn
   0.3258799999999999    0.4076800000000000    0.5704399999999999 Zn
   0.5242166666666667    0.4806200000000000    0.4039100000000000 Zn
   0.3407866666666666    0.5923000000000000    0.4295800000000000 Zn
   0.1424466666666667    0.5193800000000000    0.5961200000000000 Zn
   0.3094800000000000    0.4824100000000000    0.9036900000000000 Zn
   0.5079266666666666    0.4077800000000000    0.0705200000000000 Zn
   0.3094800000000000    0.9823800000000000    0.5963500000000000 Zn
   0.5079233333333333    0.9077700000000000    0.4294700000000000 Zn
   0.0238466666666667    0.0175800000000000    0.4036800000000000 Zn
   0.8254033333333333    0.0922200000000000    0.5705100000000000 Zn
   0.0238533333333333    0.5175800000000000    0.0963200000000000 Zn
   0.8254066666666666    0.5922300000000000    0.9290000000000000 Zn
   0.6741199999999999    0.5923000000000000    0.4295800000000000 Zn
   0.4757800000000000    0.5193800000000000    0.5961200000000000 Zn
   0.6905199999999999    0.5175800000000000    0.0963200000000000 Zn
   0.6428133333333332    0.9823800000000000    0.5963500000000000 Zn
   0.6592133333333332    0.4076800000000000    0.5704399999999999 Zn
   0.8575499999999999    0.4806200000000000    0.4039100000000000 Zn
   0.8412566666666665    0.9077700000000000    0.4294700000000000 Zn
   0.6428133333333332    0.4824100000000000    0.9036900000000000 Zn
   0.6905133333333333    0.0175800000000000    0.4036800000000000 Zn
   0.8412599999999999    0.4077800000000000    0.0705200000000000 Zn
   0.4920700000000000    0.0922200000000000    0.5705100000000000 Zn
   0.4920733333333333    0.5922300000000000    0.9290000000000000 Zn
   0.8143166666666666    0.8004100000000000    0.8489300000000000 H
   0.8529499999999999    0.7717600000000000    0.1411600000000000 H
   0.8553599999999999    0.6627600000000000    0.0937100000000000 H
   0.9129699999999999    0.8589599999999999    0.9951700000000000 H
   0.9493600000000000    0.1517100000000000    0.1650400000000000 H
   0.9082600000000000    0.1125600000000000    0.1830300000000000 H
   0.1856833333333333    0.1995900000000000    0.1510700000000000 H
   0.1470466666666667    0.2282500000000000    0.8588500000000000 H
   0.1446366666666667    0.3372600000000000    0.9063000000000000 H
   0.0870300000000000    0.1410400000000000    0.0048000000000000 H
   0.0506433333333333    0.8482700000000000    0.8349700000000000 H
   0.0917466666666667    0.8874300000000001    0.8169800000000000 H
   0.1857300000000000    0.6995900000000000    0.3489700000000000 H
   0.1469766666666666    0.7282400000000000    0.6411200000000000 H
   0.1445866666666666    0.8372300000000000    0.5936700000000000 H
   0.0870133333333333    0.6411000000000000    0.4952300000000000 H
   0.0506300000000000    0.3483300000000000    0.6651000000000000 H
   0.0917300000000000    0.3874900000000000    0.6831000000000000 H
   0.8142333333333333    0.3003900000000000    0.6510100000000000 H
   0.8529966666666666    0.2717600000000000    0.3588700000000000 H
   0.8553799999999999    0.1627600000000000    0.4063000000000000 H
   0.9129699999999999    0.3589600000000000    0.5048700000000000 H
   0.9493766666666666    0.6516800000000000    0.3349700000000000 H
   0.9082733333333333    0.6125400000000000    0.3169000000000000 H
   0.9818733333333333    0.7004100000000000    0.8489500000000000 H
   0.0202200000000000    0.7274700000000000    0.1415600000000000 H
   0.0224066666666667    0.8368200000000000    0.0945400000000000 H
   0.0792300000000000    0.6396400000000000    0.9954000000000000 H
   0.1160966666666667    0.3473700000000000    0.1655900000000000 H
   0.0748166666666667    0.3858900000000000    0.1826800000000000 H
   0.9818800000000000    0.2003800000000000    0.6511000000000000 H
   0.0201900000000000    0.2274800000000000    0.3584500000000000 H
   0.0223900000000000    0.3368200000000000    0.4054800000000000 H
   0.0792266666666667    0.1396400000000000    0.5046200000000000 H
   0.1160800000000000    0.8473000000000001    0.3344600000000000 H
   0.0748066666666667    0.8858400000000000    0.3173600000000000 H
   0.3514233333333333    0.7995900000000000    0.3489000000000000 H
   0.3131400000000000    0.7724800000000001    0.6415700000000000 H
   0.3109400000000000    0.6631400000000000    0.5945300000000000 H
   0.2540833333333333    0.8602700000000000    0.4954200000000000 H
   0.2172433333333333    0.1526600000000000    0.6655000000000000 H
   0.2585166666666666    0.1141000000000000    0.6826500000000000 H
   0.3131200000000000    0.2725200000000000    0.8584600000000000 H
   0.3109300000000000    0.1631700000000000    0.9054800000000000 H
   0.3514566666666666    0.2995800000000000    0.1510700000000000 H
   0.2541000000000000    0.3603600000000000    0.0046300000000000 H
   0.2172400000000000    0.6526200000000000    0.8344200000000001 H
   0.2585166666666666    0.6140900000000000    0.8173300000000000 H
   0.4809833333333333    0.8004100000000000    0.8489300000000000 H
   0.5196166666666666    0.7717600000000000    0.1411600000000000 H
   0.5220266666666666    0.6627600000000000    0.0937100000000000 H
   0.5796366666666666    0.8589599999999999    0.9951700000000000 H
   0.6160266666666666    0.1517100000000000    0.1650400000000000 H
   0.5749266666666666    0.1125600000000000    0.1830300000000000 H
   0.8523499999999999    0.1995900000000000    0.1510700000000000 H
   0.8137133333333333    0.2282500000000000    0.8588500000000000 H
   0.8113033333333333    0.3372600000000000    0.9063000000000000 H
   0.7536966666666667    0.1410400000000000    0.0048000000000000 H
   0.7173100000000000    0.8482700000000000    0.8349700000000000 H
   0.7584133333333333    0.8874300000000001    0.8169800000000000 H
   0.1476500000000000    0.8004100000000000    0.8489300000000000 H
   0.1862833333333333    0.7717600000000000    0.1411600000000000 H
   0.1886933333333333    0.6627600000000000    0.0937100000000000 H
   0.2463033333333333    0.8589599999999999    0.9951700000000000 H
   0.2826933333333333    0.1517100000000000    0.1650400000000000 H
   0.2415933333333333    0.1125600000000000    0.1830300000000000 H
   0.5190166666666667    0.1995900000000000    0.1510700000000000 H
   0.4803800000000000    0.2282500000000000    0.8588500000000000 H
   0.4779700000000000    0.3372600000000000    0.9063000000000000 H
   0.4203633333333333    0.1410400000000000    0.0048000000000000 H
   0.3839766666666666    0.8482700000000000    0.8349700000000000 H
   0.4250800000000000    0.8874300000000001    0.8169800000000000 H
   0.5190633333333333    0.6995900000000000    0.3489700000000000 H
   0.4803100000000000    0.7282400000000000    0.6411200000000000 H
   0.4779200000000000    0.8372300000000000    0.5936700000000000 H
   0.4203466666666666    0.6411000000000000    0.4952300000000000 H
   0.3839633333333333    0.3483300000000000    0.6651000000000000 H
   0.4250633333333333    0.3874900000000000    0.6831000000000000 H
   0.1475666666666667    0.3003900000000000    0.6510100000000000 H
   0.1863300000000000    0.2717600000000000    0.3588700000000000 H
   0.1887133333333333    0.1627600000000000    0.4063000000000000 H
   0.2463033333333333    0.3589600000000000    0.5048700000000000 H
   0.2827100000000000    0.6516800000000000    0.3349700000000000 H
   0.2416066666666667    0.6125400000000000    0.3169000000000000 H
   0.3152066666666666    0.7004100000000000    0.8489500000000000 H
   0.3535533333333333    0.7274700000000000    0.1415600000000000 H
   0.3557400000000000    0.8368200000000000    0.0945400000000000 H
   0.4125633333333333    0.6396400000000000    0.9954000000000000 H
   0.4494300000000000    0.3473700000000000    0.1655900000000000 H
   0.4081500000000000    0.3858900000000000    0.1826800000000000 H
   0.3152133333333333    0.2003800000000000    0.6511000000000000 H
   0.3535233333333333    0.2274800000000000    0.3584500000000000 H
   0.3557233333333333    0.3368200000000000    0.4054800000000000 H
   0.4125600000000000    0.1396400000000000    0.5046200000000000 H
   0.4494133333333333    0.8473000000000001    0.3344600000000000 H
   0.4081399999999999    0.8858400000000000    0.3173600000000000 H
   0.0180900000000000    0.7995900000000000    0.3489000000000000 H
   0.9798066666666666    0.7724800000000001    0.6415700000000000 H
   0.9776066666666666    0.6631400000000000    0.5945300000000000 H
   0.9207500000000000    0.8602700000000000    0.4954200000000000 H
   0.8839100000000000    0.1526600000000000    0.6655000000000000 H
   0.9251833333333332    0.1141000000000000    0.6826500000000000 H
   0.9797866666666666    0.2725200000000000    0.8584600000000000 H
   0.9775966666666667    0.1631700000000000    0.9054800000000000 H
   0.0181233333333333    0.2995800000000000    0.1510700000000000 H
   0.9207666666666666    0.3603600000000000    0.0046300000000000 H
   0.8839066666666666    0.6526200000000000    0.8344200000000001 H
   0.9251833333333332    0.6140900000000000    0.8173300000000000 H
   0.4809000000000000    0.3003900000000000    0.6510100000000000 H
   0.5196633333333334    0.2717600000000000    0.3588700000000000 H
   0.5220466666666667    0.1627600000000000    0.4063000000000000 H
   0.5796366666666666    0.3589600000000000    0.5048700000000000 H
   0.6160433333333333    0.6516800000000000    0.3349700000000000 H
   0.5749400000000000    0.6125400000000000    0.3169000000000000 H
   0.8523966666666666    0.6995900000000000    0.3489700000000000 H
   0.8136433333333333    0.7282400000000000    0.6411200000000000 H
   0.8112533333333333    0.8372300000000000    0.5936700000000000 H
   0.7458933333333333    0.1396400000000000    0.5046200000000000 H
   0.7827466666666666    0.8473000000000001    0.3344600000000000 H
   0.7414733333333333    0.8858400000000000    0.3173600000000000 H
   0.7536799999999999    0.6411000000000000    0.4952300000000000 H
   0.7172966666666666    0.3483300000000000    0.6651000000000000 H
   0.7583966666666666    0.3874900000000000    0.6831000000000000 H
   0.6659102309056687    0.3540232673876906    0.8573939728887733 H
   0.6464533333333333    0.2725200000000000    0.8584600000000000 H
   0.6442633333333333    0.1631700000000000    0.9054800000000000 H
   0.6847900000000000    0.2995800000000000    0.1510700000000000 H
   0.6726209182172493    0.2997373261464004    0.6657676935775324 H
   0.6485466666666666    0.2003800000000000    0.6511000000000000 H
   0.6868566666666667    0.2274800000000000    0.3584500000000000 H
   0.6890566666666667    0.3368200000000000    0.4054800000000000 H
   0.6771152600848140    0.2760324120016621    0.7715847458831830 H
   0.7458966666666667    0.6396400000000000    0.9954000000000000 H
   0.7827633333333333    0.3473700000000000    0.1655900000000000 H
   0.7414833333333333    0.3858900000000000    0.1826800000000000 H
   0.6485399999999999    0.7004100000000000    0.8489500000000000 H
   0.6868866666666666    0.7274700000000000    0.1415600000000000 H
   0.6890733333333333    0.8368200000000000    0.0945400000000000 H
   0.5874333333333333    0.3603600000000000    0.0046300000000000 H
   0.6243650956512882    0.6217444484754172    0.8084471449736128 H
   0.5505733333333334    0.6526200000000000    0.8344200000000001 H
   0.5918500000000000    0.6140900000000000    0.8173300000000000 H
   0.6367762571876643    0.5626662677913623    0.5944889639593460 H
   0.6847566666666667    0.7995900000000000    0.3489000000000000 H
   0.6464733333333332    0.7724800000000001    0.6415700000000000 H
   0.6442733333333333    0.6631400000000000    0.5945300000000000 H
   0.6274539591284026    0.6146980444327952    0.6956018853661754 H
   0.5874166666666667    0.8602700000000000    0.4954200000000000 H
   0.5505766666666667    0.1526600000000000    0.6655000000000000 H
   0.5918500000000000    0.1141000000000000    0.6826500000000000 H
   0.8236533333333333    0.8093500000000000    0.9086100000000000 C
   0.8431766666666666    0.7806999999999999    0.0248900000000000 C
   0.9247766666666666    0.9209500000000000    0.0222300000000000 C
   0.9327633333333333    0.0468800000000000    0.0930400000000000 C
   0.8590766666666666    0.0145800000000000    0.2803600000000000 C
   0.8440500000000000    0.9160100000000000    0.2578400000000000 C
   0.1763466666666667    0.1906600000000000    0.0914000000000000 C
   0.1568233333333333    0.2193100000000000    0.9751100000000000 C
   0.0752233333333333    0.0790500000000000    0.9777800000000000 C
   0.0672400000000000    0.9531200000000000    0.9069000000000000 C
   0.1409200000000000    0.9854100000000000    0.7196399999999999 C
   0.1559466666666667    0.0839900000000000    0.7421500000000000 C
   0.1763666666666667    0.6906500000000000    0.4086200000000000 C
   0.1567933333333333    0.7192900000000000    0.5248800000000000 C
   0.0752100000000000    0.5790900000000000    0.5222900000000000 C
   0.0672266666666667    0.4531700000000000    0.5930900000000000 C
   0.1409233333333333    0.4854200000000000    0.7803700000000000 C
   0.1559466666666667    0.5840000000000000    0.7578500000000000 C
   0.8235999999999999    0.3093300000000000    0.5913000000000000 C
   0.8431766666666666    0.2806900000000000    0.4751000000000000 C
   0.9247799999999999    0.4209500000000000    0.4777900000000000 C
   0.9327666666666666    0.5468499999999999    0.4069700000000000 C
   0.8590833333333333    0.5145800000000000    0.2196500000000000 C
   0.8440633333333333    0.4160100000000000    0.2421600000000000 C
   0.9910800000000000    0.6911900000000000    0.9087200000000000 C
   0.0103733333333333    0.7191500000000000    0.0253400000000000 C
   0.0911766666666667    0.5777500000000000    0.0224600000000000 C
   0.0994366666666667    0.4518700000000000    0.0931700000000000 C
   0.0253566666666667    0.4841000000000000    0.2807000000000000 C
   0.0109833333333333    0.5834800000000000    0.2580000000000000 C
   0.9910800000000000    0.1911700000000000    0.5913300000000000 C
   0.0103600000000000    0.2191400000000000    0.4746800000000000 C
   0.0911700000000000    0.0777400000000000    0.4775500000000000 C
   0.0994266666666667    0.9518300000000000    0.4068600000000000 C
   0.0253533333333333    0.9841200000000000    0.2192700000000000 C
   0.0109800000000000    0.0835100000000000    0.2420000000000000 C
   0.3422333333333333    0.8088000000000000    0.4086800000000000 C
   0.3229633333333333    0.7808200000000000    0.5253400000000000 C
   0.2421466666666666    0.9221900000000000    0.5224000000000000 C
   0.2338966666666667    0.0481200000000000    0.5931000000000000 C
   0.3079766666666667    0.0158300000000000    0.7807300000000000 C
   0.3223566666666666    0.9164500000000000    0.7580100000000000 C
   0.3229633333333333    0.2808400000000000    0.9746800000000000 C
   0.3422533333333333    0.3088000000000000    0.0913000000000000 C
   0.2421566666666666    0.4222500000000000    0.9775000000000000 C
   0.2338966666666667    0.5481300000000000    0.9068500000000000 C
   0.3079766666666667    0.5158600000000000    0.7192900000000000 C
   0.3223533333333333    0.4164800000000000    0.7420200000000000 C
   0.4903200000000000    0.8093500000000000    0.9086100000000000 C
   0.5098433333333333    0.7806999999999999    0.0248900000000000 C
   0.5914433333333333    0.9209500000000000    0.0222300000000000 C
   0.5994299999999999    0.0468800000000000    0.0930400000000000 C
   0.5257433333333333    0.0145800000000000    0.2803600000000000 C
   0.5107166666666667    0.9160100000000000    0.2578400000000000 C
   0.8430133333333333    0.1906600000000000    0.0914000000000000 C
   0.8234899999999999    0.2193100000000000    0.9751100000000000 C
   0.7418899999999999    0.0790500000000000    0.9777800000000000 C
   0.7339066666666666    0.9531200000000000    0.9069000000000000 C
   0.8075866666666667    0.9854100000000000    0.7196399999999999 C
   0.8226133333333333    0.0839900000000000    0.7421500000000000 C
   0.1569866666666667    0.8093500000000000    0.9086100000000000 C
   0.1765100000000000    0.7806999999999999    0.0248900000000000 C
   0.2581100000000000    0.9209500000000000    0.0222300000000000 C
   0.2660966666666666    0.0468800000000000    0.0930400000000000 C
   0.1924100000000000    0.0145800000000000    0.2803600000000000 C
   0.1773833333333333    0.9160100000000000    0.2578400000000000 C
   0.5096799999999999    0.1906600000000000    0.0914000000000000 C
   0.4901566666666666    0.2193100000000000    0.9751100000000000 C
   0.4085566666666667    0.0790500000000000    0.9777800000000000 C
   0.4005733333333333    0.9531200000000000    0.9069000000000000 C
   0.4742533333333333    0.9854100000000000    0.7196399999999999 C
   0.4892799999999999    0.0839900000000000    0.7421500000000000 C
   0.5097000000000000    0.6906500000000000    0.4086200000000000 C
   0.4901266666666667    0.7192900000000000    0.5248800000000000 C
   0.4085433333333333    0.5790900000000000    0.5222900000000000 C
   0.4005600000000000    0.4531700000000000    0.5930900000000000 C
   0.4742566666666667    0.4854200000000000    0.7803700000000000 C
   0.4892799999999999    0.5840000000000000    0.7578500000000000 C
   0.1569333333333333    0.3093300000000000    0.5913000000000000 C
   0.1765100000000000    0.2806900000000000    0.4751000000000000 C
   0.2581133333333333    0.4209500000000000    0.4777900000000000 C
   0.2661000000000000    0.5468499999999999    0.4069700000000000 C
   0.1924166666666667    0.5145800000000000    0.2196500000000000 C
   0.1773966666666667    0.4160100000000000    0.2421600000000000 C
   0.3244133333333333    0.6911900000000000    0.9087200000000000 C
   0.3437066666666667    0.7191500000000000    0.0253400000000000 C
   0.4245099999999999    0.5777500000000000    0.0224600000000000 C
   0.4327700000000000    0.4518700000000000    0.0931700000000000 C
   0.3586900000000000    0.4841000000000000    0.2807000000000000 C
   0.3443166666666667    0.5834800000000000    0.2580000000000000 C
   0.3244133333333333    0.1911700000000000    0.5913300000000000 C
   0.3436933333333333    0.2191400000000000    0.4746800000000000 C
   0.4245033333333333    0.0777400000000000    0.4775500000000000 C
   0.4327600000000000    0.9518300000000000    0.4068600000000000 C
   0.3586866666666667    0.9841200000000000    0.2192700000000000 C
   0.3443133333333333    0.0835100000000000    0.2420000000000000 C
   0.0089000000000000    0.8088000000000000    0.4086800000000000 C
   0.9896300000000000    0.7808200000000000    0.5253400000000000 C
   0.9088133333333333    0.9221900000000000    0.5224000000000000 C
   0.9005633333333333    0.0481200000000000    0.5931000000000000 C
   0.9746433333333333    0.0158300000000000    0.7807300000000000 C
   0.9890233333333333    0.9164500000000000    0.7580100000000000 C
   0.9896300000000000    0.2808400000000000    0.9746800000000000 C
   0.0089200000000000    0.3088000000000000    0.0913000000000000 C
   0.9088233333333333    0.4222500000000000    0.9775000000000000 C
   0.9005633333333333    0.5481300000000000    0.9068500000000000 C
   0.9746433333333333    0.5158600000000000    0.7192900000000000 C
   0.9890200000000000    0.4164800000000000    0.7420200000000000 C
   0.4902666666666666    0.3093300000000000    0.5913000000000000 C
   0.5098433333333333    0.2806900000000000    0.4751000000000000 C
   0.5914466666666667    0.4209500000000000    0.4777900000000000 C
   0.5994333333333333    0.5468499999999999    0.4069700000000000 C
   0.5257499999999999    0.5145800000000000    0.2196500000000000 C
   0.5107300000000000    0.4160100000000000    0.2421600000000000 C
   0.8430333333333333    0.6906500000000000    0.4086200000000000 C
   0.8234600000000000    0.7192900000000000    0.5248800000000000 C
   0.7578366666666666    0.0777400000000000    0.4775500000000000 C
   0.7660933333333333    0.9518300000000000    0.4068600000000000 C
   0.6920200000000000    0.9841200000000000    0.2192700000000000 C
   0.6776466666666666    0.0835100000000000    0.2420000000000000 C
   0.7418766666666666    0.5790900000000000    0.5222900000000000 C
   0.7338933333333333    0.4531700000000000    0.5930900000000000 C
   0.8075899999999999    0.4854200000000000    0.7803700000000000 C
   0.8226133333333333    0.5840000000000000    0.7578500000000000 C
   0.6562966666666666    0.2808400000000000    0.9746800000000000 C
   0.6755866666666667    0.3088000000000000    0.0913000000000000 C
   0.6577466666666667    0.1911700000000000    0.5913300000000000 C
   0.6770266666666667    0.2191400000000000    0.4746800000000000 C
   0.7578433333333333    0.5777500000000000    0.0224600000000000 C
   0.7661033333333334    0.4518700000000000    0.0931700000000000 C
   0.6920233333333333    0.4841000000000000    0.2807000000000000 C
   0.6776500000000000    0.5834800000000000    0.2580000000000000 C
   0.6577466666666667    0.6911900000000000    0.9087200000000000 C
   0.6770400000000000    0.7191500000000000    0.0253400000000000 C
   0.5754899999999999    0.4222500000000000    0.9775000000000000 C
   0.5672300000000000    0.5481300000000000    0.9068500000000000 C
   0.6755666666666666    0.8088000000000000    0.4086800000000000 C
   0.6562966666666666    0.7808200000000000    0.5253400000000000 C
   0.5754800000000000    0.9221900000000000    0.5224000000000000 C
   0.5672300000000000    0.0481200000000000    0.5931000000000000 C
   0.6413100000000000    0.0158300000000000    0.7807300000000000 C
   0.6556899999999999    0.9164500000000000    0.7580100000000000 C
   0.8283966666666667    0.8941900000000000    0.9419000000000000 N
   0.8322799999999999    0.7362300000000001    0.9574700000000000 N
   0.8564900000000000    0.7358100000000000    0.0890700000000000 N
   0.8411533333333333    0.8769700000000000    0.0175500000000000 N
   0.9566066666666666    0.9479300000000001    0.0087000000000000 N
   0.9086633333333333    0.9798500000000000    0.0742700000000000 N
   0.9275666666666667    0.1223200000000000    0.1425400000000000 N
   0.9619633333333333    0.0297500000000000    0.0537000000000000 N
   0.1716033333333333    0.1058200000000000    0.0581000000000000 N
   0.1677200000000000    0.2637800000000000    0.0425400000000000 N
   0.1435066666666667    0.2642100000000000    0.9109300000000000 N
   0.1588466666666667    0.1230400000000000    0.9824500000000000 N
   0.0433933333333333    0.0520700000000000    0.9912000000000000 N
   0.0913400000000000    0.0201500000000000    0.9257400000000000 N
   0.0724366666666667    0.8776700000000000    0.8574700000000000 N
   0.0380400000000000    0.9702400000000000    0.9462000000000000 N
   0.1716166666666667    0.6058100000000000    0.4419000000000000 N
   0.1677166666666667    0.7637699999999999    0.4574600000000000 N
   0.1434433333333333    0.7641800000000000    0.5890300000000001 N
   0.1588300000000000    0.6230200000000000    0.5175400000000000 N
   0.0433833333333333    0.5520800000000000    0.5088200000000001 N
   0.0913266666666667    0.5202100000000000    0.5743000000000000 N
   0.0724233333333333    0.3777300000000000    0.6426100000000000 N
   0.0380300000000000    0.4702600000000000    0.5537700000000000 N
   0.8283600000000000    0.3941700000000000    0.5580900000000000 N
   0.8322499999999999    0.2362200000000000    0.5425200000000000 N
   0.8565233333333333    0.2358100000000000    0.4109000000000000 N
   0.8411500000000000    0.3769700000000000    0.4824500000000000 N
   0.9566100000000000    0.4479200000000000    0.4912400000000000 N
   0.9086633333333333    0.4798400000000000    0.4257400000000000 N
   0.9275766666666666    0.6222900000000000    0.3574600000000000 N
   0.9619666666666666    0.5297300000000000    0.4462800000000000 N
   0.9955533333333333    0.6062500000000000    0.9420600000000000 N
   0.9997666666666666    0.7639600000000000    0.9577300000000000 N
   0.0236333333333333    0.7637500000000000    0.0896000000000000 N
   0.0081100000000000    0.6229100000000000    0.0179400000000000 N
   0.1231266666666667    0.5513300000000000    0.0092700000000000 N
   0.0751433333333333    0.5185100000000000    0.0742000000000000 N
   0.0942833333333333    0.3763200000000000    0.1425700000000000 N
   0.1286900000000000    0.4694900000000000    0.0542000000000000 N
   0.9955433333333332    0.1062300000000000    0.5579700000000000 N
   0.9997600000000000    0.2639500000000000    0.5423200000000000 N
   0.0236100000000000    0.2637500000000000    0.4104100000000000 N
   0.0080966666666667    0.1229000000000000    0.4820000000000000 N
   0.1231200000000000    0.0513200000000000    0.4907000000000000 N
   0.0751333333333333    0.0184900000000000    0.4257800000000000 N
   0.0942666666666667    0.8762600000000000    0.3574800000000000 N
   0.1286800000000000    0.9694600000000000    0.4458200000000000 N
   0.3377666666666667    0.8937400000000000    0.4420300000000000 N
   0.3335566666666667    0.7360200000000000    0.4576900000000000 N
   0.3097200000000000    0.7362100000000000    0.5896100000000000 N
   0.3252233333333333    0.8770700000000000    0.5179500000000000 N
   0.2102000000000000    0.9486300000000000    0.5092700000000000 N
   0.2581833333333333    0.9814400000000000    0.5742500000000000 N
   0.2390566666666666    0.1236900000000000    0.6425200000000000 N
   0.2046433333333333    0.0305100000000000    0.5541800000000000 N
   0.3097033333333333    0.2362300000000000    0.9104200000000000 N
   0.3252266666666667    0.3770800000000000    0.9820700000000000 N
   0.3377800000000000    0.3937400000000000    0.0579600000000000 N
   0.3335666666666666    0.2360200000000000    0.0420000000000000 N
   0.2102066666666667    0.4486700000000000    0.9907500000000000 N
   0.2581900000000000    0.4814800000000000    0.9257000000000000 N
   0.2390533333333333    0.6236699999999999    0.8574500000000000 N
   0.2046433333333333    0.5305100000000000    0.9458200000000000 N
   0.4950633333333333    0.8941900000000000    0.9419000000000000 N
   0.4989466666666666    0.7362300000000001    0.9574700000000000 N
   0.5231566666666667    0.7358100000000000    0.0890700000000000 N
   0.5078199999999999    0.8769700000000000    0.0175500000000000 N
   0.6232733333333333    0.9479300000000001    0.0087000000000000 N
   0.5753300000000000    0.9798500000000000    0.0742700000000000 N
   0.5942333333333333    0.1223200000000000    0.1425400000000000 N
   0.6286300000000000    0.0297500000000000    0.0537000000000000 N
   0.8382700000000000    0.1058200000000000    0.0581000000000000 N
   0.8343866666666666    0.2637800000000000    0.0425400000000000 N
   0.8101733333333333    0.2642100000000000    0.9109300000000000 N
   0.8255133333333333    0.1230400000000000    0.9824500000000000 N
   0.7100599999999999    0.0520700000000000    0.9912000000000000 N
   0.7580066666666666    0.0201500000000000    0.9257400000000000 N
   0.7391033333333333    0.8776700000000000    0.8574700000000000 N
   0.7047066666666666    0.9702400000000000    0.9462000000000000 N
   0.1617300000000000    0.8941900000000000    0.9419000000000000 N
   0.1656133333333333    0.7362300000000001    0.9574700000000000 N
   0.1898233333333333    0.7358100000000000    0.0890700000000000 N
   0.1744866666666667    0.8769700000000000    0.0175500000000000 N
   0.2899400000000000    0.9479300000000001    0.0087000000000000 N
   0.2419966666666667    0.9798500000000000    0.0742700000000000 N
   0.2609000000000000    0.1223200000000000    0.1425400000000000 N
   0.2952966666666667    0.0297500000000000    0.0537000000000000 N
   0.5049366666666666    0.1058200000000000    0.0581000000000000 N
   0.5010533333333334    0.2637800000000000    0.0425400000000000 N
   0.4768400000000000    0.2642100000000000    0.9109300000000000 N
   0.4921800000000000    0.1230400000000000    0.9824500000000000 N
   0.3767266666666667    0.0520700000000000    0.9912000000000000 N
   0.4246733333333333    0.0201500000000000    0.9257400000000000 N
   0.4057700000000000    0.8776700000000000    0.8574700000000000 N
   0.3713733333333333    0.9702400000000000    0.9462000000000000 N