H6 O4
1.0
  39.2249999999999943    0.0000000000000000    0.0000000000000024
   0.0243909639134290   13.9749787127346785   -0.0002439097629554
   0.0000000000000000    0.0000000000000000   16.9239999999999995
H O
6 4
direct
   0.6243650956512882    0.6217444484754172    0.8084471449736128 H
   0.6367762571876643    0.5626662677913623    0.5944889639593460 H
   0.6274539591284026    0.6146980444327952    0.6956018853661754 H
   0.6659102309056687    0.3540232673876906    0.8573939728887733 H
   0.6726209182172493    0.2997373261464004    0.6657676935775324 H
   0.6771152600848140    0.2760324120016621    0.7715847458831830 H
   0.6325133333333333    0.5690499999999999    0.7762300000000000 O
   0.6400066666666666    0.5335200000000000    0.6459700000000000 O
   0.6591266666666666    0.3961200000000000    0.8146000000000000 O
   0.6637166666666666    0.3591800000000000    0.6870600000000000 O
