H3 C2 N4
1.0
  39.2249999999999943    0.0000000000000000    0.0000000000000024
   0.0243909639134290   13.9749787127346785   -0.0002439097629554
   0.0000000000000000    0.0000000000000000   16.9239999999999995
H C N
3 2 4
direct
   0.6464733333333332    0.7724800000000001    0.6415700000000000 H
   0.6442733333333333    0.6631400000000000    0.5945300000000000 H
   0.6847566666666667    0.7995900000000000    0.3489000000000000 H
   0.6562966666666666    0.7808200000000000    0.5253400000000000 C
   0.6755666666666666    0.8088000000000000    0.4086800000000000 C
   0.6585566666666667    0.8770700000000000    0.5179500000000000 N
   0.6430533333333333    0.7362100000000000    0.5896100000000000 N
   0.6668900000000000    0.7360200000000000    0.4576900000000000 N
   0.6710999999999999    0.8937400000000000    0.4420300000000000 N
