H10 C10 S1 N1 O2
1.0
  23.0199985975414130    0.0000000000000000    0.0080354957129993
  -0.0083649504892176   29.9599985401935278   -0.0041832051375816
   0.0000000000000000    0.0000000000000000   29.9639999999999986
H C S N O
10 10 1 1 2
direct
   0.4110900000000000    0.4366700000000000    0.7046550000000000 H
   0.3408500000000000    0.4495000000000000    0.7273700000000000 H
   0.3583200000000000    0.3938400000000000    0.7140550000000000 H
   0.1771600000000000    0.4037650000000000    0.6012100000000000 H
   0.1687700000000000    0.4572750000000000    0.6249200000000000 H
   0.1797900000000000    0.4517350000000000    0.5659750000000000 H
   0.2966200000000000    0.3509700000000000    0.6341950000000001 H
   0.2963500000000000    0.2683150000000000    0.6392700000000000 H
   0.1781400000000000    0.2692300000000000    0.7433500000000000 H
   0.1729100000000000    0.3517350000000000    0.7434950000000000 H
   0.3646800000000000    0.4286450000000000    0.7034400000000001 C
   0.3434900000000000    0.4353250000000000    0.6560350000000000 C
   0.2825700000000000    0.4327450000000000    0.6465700000000000 C
   0.2570200000000000    0.4410950000000000    0.6038150000000000 C
   0.1917400000000000    0.4386450000000000    0.5987800000000000 C
   0.2358800000000000    0.3589350000000000    0.6893000000000000 C
   0.2700700000000000    0.3343050000000000    0.6592700000000000 C
   0.2698800000000000    0.2881500000000000    0.6618500000000000 C
   0.2041400000000000    0.2885950000000000    0.7199350000000000 C
   0.2014700000000000    0.3348650000000000    0.7198599999999999 C
   0.2353200000000000    0.4176650000000000    0.6907799999999999 S
   0.2382500000000000    0.2649450000000000    0.6918750000000000 N
   0.3825300000000000    0.4428950000000000    0.6271050000000000 O
   0.2851400000000000    0.4509900000000000    0.5686250000000000 O
