Zn8 H20 C40 O22
1.0
  15.9822268746663134    0.0000000000000000    9.1275653449698115
   5.2994425605699620   15.0871384294507429    9.1387573858709139
   0.0000000000000000    0.0000000000000000   18.4179999999999993
Zn H C O
8 20 40 22
direct
   0.2937700000000000    0.2937600000000000    0.2937600000000000 Zn
   0.1195900000000000    0.2932400000000000    0.2932400000000000 Zn
   0.2932700000000000    0.1196600000000000    0.2931100000000000 Zn
   0.7067500000000000    0.7068600000000000    0.8803200000000000 Zn
   0.7062500000000000    0.7062000000000000    0.7062000000000000 Zn
   0.7067500000000000    0.8803000000000000    0.7068800000000000 Zn
   0.8804300000000000    0.7067200000000000    0.7067400000000000 Zn
   0.2932700000000000    0.2931000000000000    0.1196700000000000 Zn
   0.4513200000000000    0.4512700000000000    0.9322000000000000 H
   0.4525200000000000    0.4524500000000000    0.1642000000000000 H
   0.9318900000000000    0.1642200000000000    0.4518000000000000 H
   0.1643400000000000    0.9320000000000001    0.4517000000000000 H
   0.4518200000000000    0.9319000000000000    0.1642300000000000 H
   0.4518100000000000    0.1642200000000000    0.9319300000000000 H
   0.9320200000000000    0.4513900000000000    0.4513900000000000 H
   0.1643200000000000    0.4524500000000000    0.4524500000000000 H
   0.9318800000000000    0.4518000000000000    0.1642200000000000 H
   0.1643400000000000    0.4516900000000000    0.9320200000000000 H
   0.5487000000000000    0.5486900000000000    0.0677900000000000 H
   0.5475000000000000    0.5475100000000001    0.8357800000000000 H
   0.8356800000000000    0.0679600000000000    0.5482900000000001 H
   0.0681300000000000    0.8357400000000000    0.5481900000000000 H
   0.0681400000000000    0.5481600000000000    0.8357599999999999 H
   0.8356800000000000    0.5482700000000000    0.0679600000000000 H
   0.8357000000000000    0.5475100000000001    0.5475400000000000 H
   0.0680000000000000    0.5485800000000000    0.5480000000000000 H
   0.5482000000000000    0.0680600000000000    0.8357599999999999 H
   0.5482100000000000    0.8357400000000000    0.0680500000000000 H
   0.4730300000000000    0.4729800000000000    0.9611400000000000 C
   0.4737200000000000    0.4736600000000000    0.0922700000000000 C
   0.9609400000000000    0.0922800000000000    0.4733100000000000 C
   0.0923500000000000    0.9609799999999999    0.4732500000000000 C
   0.4733200000000000    0.9609400000000000    0.0922800000000000 C
   0.4733200000000000    0.0922700000000000    0.9609700000000000 C
   0.9610600000000000    0.4730400000000000    0.4730600000000000 C
   0.0923400000000000    0.4736500000000000    0.4736000000000000 C
   0.9609300000000000    0.4732800000000000    0.0922800000000000 C
   0.0923600000000000    0.4732200000000000    0.9610100000000000 C
   0.5269900000000000    0.5269800000000000    0.0388400000000000 C
   0.5263000000000000    0.5263000000000000    0.9077200000000000 C
   0.9076600000000000    0.0389800000000000    0.5267300000000000 C
   0.0390800000000000    0.9076800000000000    0.5266800000000000 C
   0.0390800000000000    0.5266800000000000    0.9077000000000000 C
   0.9076600000000000    0.5267400000000000    0.0389800000000000 C
   0.9076800000000000    0.5263200000000000    0.5263200000000000 C
   0.0389600000000000    0.5269200000000001    0.5269300000000000 C
   0.5266999999999999    0.0390200000000000    0.9077000000000000 C
   0.5266999999999999    0.9076900000000000    0.0390200000000000 C
   0.3890600000000000    0.3889700000000000    0.1111700000000000 C
   0.4463800000000000    0.4463200000000000    0.0537700000000000 C
   0.1109100000000000    0.1109300000000000    0.3886000000000000 C
   0.0536100000000000    0.0536200000000000    0.4462000000000000 C
   0.3887800000000000    0.1108800000000000    0.1108800000000000 C
   0.4462400000000000    0.0535900000000000    0.0535900000000000 C
   0.1111300000000000    0.3890200000000000    0.3890500000000000 C
   0.0537500000000000    0.4463800000000000    0.4463000000000000 C
   0.1109100000000000    0.3886700000000000    0.1109400000000000 C
   0.0536000000000000    0.4462200000000000    0.0536300000000000 C
   0.6109500000000000    0.6110000000000000    0.8888000000000000 C
   0.5536400000000000    0.5536300000000000    0.9462200000000000 C
   0.8891100000000000    0.8890300000000000    0.6113000000000000 C
   0.9464100000000000    0.9463400000000000    0.5537900000000000 C
   0.8891100000000000    0.6112900000000000    0.8890500000000000 C
   0.9464200000000000    0.5537400000000000    0.9463600000000000 C
   0.8888900000000000    0.6109400000000000    0.6109400000000000 C
   0.9462699999999999    0.5535900000000000    0.5536000000000000 C
   0.6112400000000000    0.8890900000000000    0.8891000000000000 C
   0.5537700000000000    0.9463700000000000    0.9463900000000000 C
   0.3667300000000000    0.3666500000000000    0.0716100000000000 O
   0.3672200000000000    0.3670600000000000    0.1949200000000000 O
   0.0713400000000000    0.1946500000000000    0.3664000000000000 O
   0.1946800000000000    0.0714000000000000    0.3665000000000000 O
   0.3665800000000000    0.0713300000000000    0.1946100000000000 O
   0.3665800000000000    0.1946000000000000    0.0713000000000000 O
   0.0715100000000000    0.3667300000000000    0.3667300000000000 O
   0.1949400000000000    0.3671400000000000    0.3671300000000000 O
   0.0713400000000000    0.3664600000000000    0.1946600000000000 O
   0.1946700000000000    0.3665000000000000    0.0714100000000000 O
   0.6332900000000000    0.6333100000000000    0.9283800000000000 O
   0.6328000000000000    0.6329100000000000    0.8050700000000000 O
   0.8053399999999999    0.9285600000000001    0.6334900000000000 O
   0.9286799999999999    0.8053100000000000    0.6335200000000000 O
   0.9286799999999999    0.6335000000000000    0.8053300000000000 O
   0.8053500000000000    0.6334500000000000    0.9285800000000000 O
   0.8050800000000000    0.6328200000000000    0.6328600000000000 O
   0.9285099999999999    0.6332300000000000    0.6332600000000000 O
   0.6334400000000000    0.9286300000000000    0.8053800000000000 O
   0.6334300000000000    0.8053600000000000    0.9286400000000000 O
   0.2500300000000000    0.2500200000000000    0.2500000000000000 O
   0.7499900000000000    0.7499400000000001    0.7499600000000000 O
