H6 O4
1.0
  34.0584478843744307    0.0000000000000000   -8.0636299336806676
  -8.4743990657323209   21.2728529683923000  -10.5065657119668732
   0.0000000000000000    0.0000000000000000   25.1960000000000015
H O
6 4
direct
   0.4599635716719020    0.2368242839378461    0.1269093522224139 H
   0.3703207123874093    0.1807060796133575   -0.0407925273479900 H
   0.4151015446615463    0.2064562107520950    0.0413650531730328 H
   0.5515618623785542    0.1692279070635205    0.9476449738547582 H
   0.4838179512355270    0.1522123519233813    0.8695162208076560 H
   0.4480997548380190    0.1405462137399212    0.8259841882389353 H
   0.4378775000000000    0.2351100000000000    0.0941700000000000 O
   0.3891900000000000    0.2044450000000000    0.0029550000000000 O
   0.5336950000000000    0.1384850000000000    0.9042550000000000 O
   0.4730475000000000    0.1336800000000000    0.8433600000000000 O
