H6 O4
1.0
   6.0446133959251478    0.0000000000000000   -0.0683658818581812
  -0.0008239264726853   14.0409977859338397   -0.0078419733610293
   0.0000000000000000    0.0000000000000000   31.2669999999999995
H O
6 4
direct
   0.2892049966928409    0.6243039406127108    0.2807872003368073 H
   1.2070003210917244    0.6521677375058710    0.2942051140937481 H
   0.7451827967933363    0.6784859959423882    0.2893890704434195 H
   0.2526578960055947   -0.0715286754130729    0.4341398165104424 H
   1.0555562186021548    0.9022902738831590    0.4025155171685043 H
   0.5747393886300535   -0.0408596685833579    0.3312346379868091 H
   0.4358200000000000    0.5962300000000000    0.2813700000000000 O
   1.0712000000000002    0.6160600000000001    0.2906850000000000 O
   0.3529700000000000   -0.0872699999999999    0.4575150000000000 O
   1.0047600000000001    0.8916600000000000    0.4314400000000000 O
