H1 O1
1.0
  15.8259999903582500    0.0000000000000000   -0.0005524316147266
   0.0011033971528880   15.8049999614841745    0.0000000000000010
   0.0000000000000000    0.0000000000000000   37.2740000000000009
H O
1 1
direct
   0.8850170740103114    0.3513699874033229    0.7648731732271806 H
   0.8319600000000000    0.3684300000000000    0.7534950000000000 O
