Zn32 H190 C189 N126 O1
1.0
  15.8259999903582500    0.0000000000000000   -0.0005524316147266
   0.0011033971528880   15.8049999614841745    0.0000000000000010
   0.0000000000000000    0.0000000000000000   37.2740000000000009
Zn H C N O
32 190 189 126 1
direct
   0.8038800000000000    0.1410700000000000    0.9514150000000000 Zn
   0.9961700000000000    0.1670200000000000    0.0906350000000000 Zn
   0.1961000000000000    0.8589000000000000    0.0485750000000000 Zn
   0.0038100000000000    0.8329500000000000    0.9093500000000000 Zn
   0.6960900000000000    0.6410600000000000    0.9514150000000000 Zn
   0.5038300000000000    0.6670000000000000    0.0906250000000000 Zn
   0.3038900000000000    0.3589100000000000    0.0485750000000000 Zn
   0.4961500000000000    0.3329700000000000    0.9093650000000000 Zn
   0.8038900000000000    0.3589100000000000    0.7014150000000000 Zn
   0.0038200000000000    0.6670100000000000    0.6593599999999999 Zn
   0.6961000000000001    0.8589000000000000    0.7014199999999999 Zn
   0.5038200000000000    0.8329600000000000    0.8406000000000000 Zn
   0.3038800000000000    0.1410800000000000    0.7985750000000000 Zn
   0.4961600000000000    0.1670200000000000    0.6593650000000000 Zn
   0.1960900000000000    0.6410600000000000    0.7985750000000000 Zn
   0.9961600000000000    0.3329700000000000    0.8406300000000000 Zn
   0.6961000000000001    0.8589000000000000    0.2014200000000000 Zn
   0.5038200000000000    0.8329600000000000    0.3406000000000000 Zn
   0.3038800000000000    0.1410800000000000    0.2985750000000000 Zn
   0.4961600000000000    0.1670200000000000    0.1593650000000000 Zn
   0.0038200000000000    0.6670100000000000    0.1593600000000000 Zn
   0.1960900000000000    0.6410600000000000    0.2985750000000000 Zn
   0.8038900000000000    0.3589100000000000    0.2014150000000000 Zn
   0.9961600000000000    0.3329700000000000    0.3406300000000000 Zn
   0.8038800000000000    0.1410700000000000    0.4514150000000000 Zn
   0.9961700000000000    0.1670200000000000    0.5906350000000000 Zn
   0.1961000000000000    0.8589000000000000    0.5485750000000000 Zn
   0.0038100000000000    0.8329500000000000    0.4093500000000000 Zn
   0.6960900000000000    0.6410600000000000    0.4514150000000000 Zn
   0.5038300000000000    0.6670000000000000    0.5906250000000000 Zn
   0.3038900000000000    0.3589100000000000    0.5485750000000000 Zn
   0.4961500000000000    0.3329700000000000    0.4093650000000000 Zn
   0.6884100000000000    0.2888000000000000    0.9218600000000000 H
   0.4738700000000000    0.1366100000000000    0.9400150000000000 H
   0.6177100000000000    0.0472500000000000    0.9592700000000001 H
   0.9579299999999999    0.1828500000000000    0.0047650000000000 H
   0.7177500000000000    0.0790100000000000    0.0260550000000000 H
   0.8078400000000000    0.0918300000000000    0.0898250000000000 H
   0.0583400000000000    0.0098600000000000    0.0429300000000000 H
   0.2373000000000000    0.9548100000000000    0.1233000000000000 H
   0.1375200000000000    0.0901200000000000    0.1453650000000000 H
   0.9267800000000000    0.3251800000000000    0.1355650000000000 H
   0.8317000000000000    0.1526000000000000    0.2116750000000000 H
   0.9217800000000000    0.0645700000000000    0.1597650000000000 H
   0.3115600000000000    0.7111900000000000    0.0781400000000000 H
   0.3822600000000000    0.9527200000000000    0.0407100000000000 H
   0.5261100000000000    0.8633700000000000    0.0599650000000000 H
   0.0420400000000000    0.8171400000000000    0.9952300000000001 H
   0.1921400000000000    0.9081399999999999    0.9101650000000000 H
   0.2822300000000000    0.9209600000000000    0.9739350000000000 H
   0.9416300000000000    0.9901200000000000    0.9570600000000000 H
   0.8624500000000000    0.9098600000000000    0.8546250000000000 H
   0.7626600000000000    0.0451700000000000    0.8766650000000000 H
   0.0731800000000000    0.6748000000000000    0.8644250000000000 H
   0.1682500000000000    0.8473800000000000    0.7883100000000001 H
   0.0781800000000000    0.9354100000000000    0.8402250000000000 H
   0.8115300000000000    0.7887100000000000    0.9217800000000000 H
   0.8822800000000000    0.5472900000000001    0.9593250000000000 H
   0.0261100000000000    0.6366300000000000    0.9400600000000000 H
   0.5420800000000000    0.6828700000000000    0.0047600000000000 H
   0.6921000000000000    0.5916100000000000    0.0898150000000000 H
   0.7822000000000000    0.5788100000000000    0.0260500000000000 H
   0.4417100000000000    0.5097900000000000    0.0429500000000000 H
   0.3624200000000000    0.5901600000000000    0.1453500000000000 H
   0.2626600000000000    0.4548600000000000    0.1233200000000000 H
   0.5731900000000000    0.8251800000000000    0.1355650000000000 H
   0.6683500000000000    0.6525700000000000    0.2116550000000000 H
   0.5782800000000000    0.5645600000000000    0.1597350000000000 H
   0.1884400000000000    0.2112600000000000    0.0782050000000000 H
   0.1177000000000000    0.4527000000000000    0.0406700000000000 H
   0.9738599999999999    0.3633500000000000    0.0599000000000000 H
   0.4578900000000000    0.3171000000000000    0.9952300000000001 H
   0.3078700000000000    0.4083600000000000    0.9101800000000000 H
   0.2177800000000000    0.4211700000000000    0.9739450000000001 H
   0.5582700000000000    0.4901900000000000    0.9570400000000000 H
   0.7373000000000000    0.5451300000000000    0.8766700000000001 H
   0.6375400000000000    0.4098200000000000    0.8546350000000000 H
   0.4267900000000000    0.1748000000000000    0.8644250000000000 H
   0.4216600000000000    0.4354300000000000    0.8402650000000000 H
   0.3315900000000000    0.3474100000000000    0.7880000000000000 H
   0.6884300000000000    0.2112100000000000    0.6718350000000000 H
   0.6177100000000000    0.4527300000000000    0.7092499999999999 H
   0.4738800000000000    0.3633900000000000    0.6900100000000000 H
   0.8850170740103114    0.3513699874033229    0.7648731732271806 H
   0.1920700000000000    0.5915600000000000    0.6601850000000000 H
   0.2821500000000000    0.5787300000000000    0.7239500000000000 H
   0.0421100000000000    0.6829499999999999    0.7452200000000000 H
   0.9416800000000000    0.5098100000000000    0.7070450000000000 H
   0.7626600000000000    0.4548500000000000    0.6266700000000001 H
   0.8624300000000000    0.5901400000000000    0.6046300000000000 H
   0.0732500000000000    0.8251800000000000    0.6144499999999999 H
   0.1682300000000000    0.6526100000000000    0.5383100000000000 H
   0.0781600000000000    0.5645800000000000    0.5902150000000000 H
   0.8115500000000000    0.7112300000000000    0.6718150000000001 H
   0.8822700000000000    0.9526800000000000    0.7093250000000000 H
   0.0261200000000000    0.8633300000000000    0.6900650000000000 H
   0.5420100000000000    0.8172199999999999    0.7547500000000000 H
   0.7822600000000000    0.9209200000000000    0.7760600000000000 H
   0.6921700000000000    0.9081100000000000    0.8398250000000000 H
   0.4416600000000000    0.9901500000000000    0.7929400000000000 H
   0.3624600000000000    0.9098500000000000    0.8953599999999999 H
   0.2626800000000000    0.0451700000000000    0.8733250000000000 H
   0.5730800000000000    0.6747900000000000    0.8855000000000000 H
   0.6684700000000000    0.8474300000000000    0.9616199999999999 H
   0.5784100000000000    0.9354400000000000    0.9097000000000000 H
   0.1884200000000000    0.2887400000000000    0.8281800000000000 H
   0.1177000000000000    0.0473000000000000    0.7906650000000000 H
   0.9738500000000000    0.1366400000000000    0.8099000000000001 H
   0.4579600000000000    0.1827500000000000    0.7452449999999999 H
   0.3078000000000000    0.0918700000000000    0.6601650000000000 H
   0.2177100000000000    0.0790700000000000    0.7239300000000000 H
   0.5583000000000000    0.0098200000000000    0.7070500000000000 H
   0.7373000000000000    0.9548200000000000    0.6266700000000001 H
   0.6375300000000000    0.0901400000000000    0.6046350000000000 H
   0.4268900000000000    0.3251900000000000    0.6143950000000000 H
   0.3314800000000000    0.1525500000000000    0.5383750000000000 H
   0.4215400000000000    0.0645300000000000    0.5902950000000000 H
   0.3115400000000000    0.7887800000000000    0.8281550000000000 H
   0.3822500000000000    0.5472399999999999    0.7907299999999999 H
   0.5260899999999999    0.6365900000000000    0.8099900000000000 H
   0.0582900000000000    0.4901600000000000    0.7928999999999999 H
   0.2373100000000000    0.5451400000000000    0.8733250000000000 H
   0.1375400000000000    0.4098400000000000    0.8953599999999999 H
   0.9267400000000000    0.1748000000000000    0.8855450000000000 H
   0.8317200000000000    0.3473800000000000    0.9616800000000000 H
   0.9217900000000000    0.4354000000000000    0.9097700000000000 H
   0.8115500000000000    0.7112300000000000    0.1718150000000000 H
   0.8822700000000000    0.9526800000000000    0.2093250000000000 H
   0.0261200000000000    0.8633300000000000    0.1900650000000000 H
   0.5420100000000000    0.8172199999999999    0.2547500000000000 H
   0.7822600000000000    0.9209200000000000    0.2760600000000000 H
   0.6921700000000000    0.9081100000000000    0.3398250000000000 H
   0.4416600000000000    0.9901500000000000    0.2929400000000000 H
   0.3624600000000000    0.9098500000000000    0.3953600000000000 H
   0.2626800000000000    0.0451700000000000    0.3733250000000000 H
   0.5730800000000000    0.6747900000000000    0.3855000000000000 H
   0.6684700000000000    0.8474300000000000    0.4616200000000000 H
   0.5784100000000000    0.9354400000000000    0.4097000000000000 H
   0.1884200000000000    0.2887400000000000    0.3281800000000000 H
   0.1177000000000000    0.0473000000000000    0.2906650000000000 H
   0.9738500000000000    0.1366400000000000    0.3099000000000000 H
   0.4579600000000000    0.1827500000000000    0.2452450000000000 H
   0.3078000000000000    0.0918700000000000    0.1601650000000000 H
   0.2177100000000000    0.0790700000000000    0.2239300000000000 H
   0.5583000000000000    0.0098200000000000    0.2070500000000000 H
   0.7373000000000000    0.9548200000000000    0.1266700000000000 H
   0.6375300000000000    0.0901400000000000    0.1046350000000000 H
   0.4268900000000000    0.3251900000000000    0.1143950000000000 H
   0.3314800000000000    0.1525500000000000    0.0383750000000000 H
   0.4215400000000000    0.0645300000000000    0.0902950000000000 H
   0.1920700000000000    0.5915600000000000    0.1601850000000000 H
   0.2821500000000000    0.5787300000000000    0.2239500000000000 H
   0.0421100000000000    0.6829499999999999    0.2452200000000000 H
   0.9416800000000000    0.5098100000000000    0.2070450000000000 H
   0.7626600000000000    0.4548500000000000    0.1266700000000000 H
   0.8624300000000000    0.5901400000000000    0.1046300000000000 H
   0.0732500000000000    0.8251800000000000    0.1144500000000000 H
   0.1682300000000000    0.6526100000000000    0.0383100000000000 H
   0.0781600000000000    0.5645800000000000    0.0902150000000000 H
   0.3115400000000000    0.7887800000000000    0.3281550000000000 H
   0.3822500000000000    0.5472399999999999    0.2907300000000000 H
   0.5260899999999999    0.6365900000000000    0.3099900000000000 H
   0.6884300000000000    0.2112100000000000    0.1718350000000000 H
   0.6177100000000000    0.4527300000000000    0.2092500000000000 H
   0.4738800000000000    0.3633900000000000    0.1900100000000000 H
   0.9578700000000000    0.3170400000000000    0.2547700000000000 H
   0.8079000000000000    0.4084000000000000    0.3398100000000000 H
   0.7178099999999999    0.4212300000000000    0.2760400000000000 H
   0.0582900000000000    0.4901600000000000    0.2929000000000000 H
   0.2373100000000000    0.5451400000000000    0.3733250000000000 H
   0.1375400000000000    0.4098400000000000    0.3953600000000000 H
   0.9267400000000000    0.1748000000000000    0.3855450000000000 H
   0.8317200000000000    0.3473800000000000    0.4616800000000000 H
   0.9217900000000000    0.4354000000000000    0.4097700000000000 H
   0.6884100000000000    0.2888000000000000    0.4218600000000000 H
   0.4738700000000000    0.1366100000000000    0.4400150000000000 H
   0.6177100000000000    0.0472500000000000    0.4592700000000000 H
   0.9579299999999999    0.1828500000000000    0.5047650000000000 H
   0.7177500000000000    0.0790100000000000    0.5260550000000001 H
   0.8078400000000000    0.0918300000000000    0.5898250000000000 H
   0.0583400000000000    0.0098600000000000    0.5429300000000000 H
   0.2373000000000000    0.9548100000000000    0.6233000000000000 H
   0.1375200000000000    0.0901200000000000    0.6453650000000000 H
   0.9267800000000000    0.3251800000000000    0.6355649999999999 H
   0.8317000000000000    0.1526000000000000    0.7116750000000001 H
   0.9217800000000000    0.0645700000000000    0.6597649999999999 H
   0.3115600000000000    0.7111900000000000    0.5781400000000000 H
   0.3822600000000000    0.9527200000000000    0.5407100000000000 H
   0.5261100000000000    0.8633700000000000    0.5599650000000000 H
   0.0420400000000000    0.8171400000000000    0.4952300000000000 H
   0.1921400000000000    0.9081399999999999    0.4101650000000000 H
   0.2822300000000000    0.9209600000000000    0.4739350000000000 H
   0.9416300000000000    0.9901200000000000    0.4570600000000000 H
   0.8624500000000000    0.9098600000000000    0.3546250000000000 H
   0.7626600000000000    0.0451700000000000    0.3766650000000000 H
   0.0731800000000000    0.6748000000000000    0.3644250000000000 H
   0.1682500000000000    0.8473800000000000    0.2883100000000000 H
   0.0781800000000000    0.9354100000000000    0.3402250000000000 H
   0.8115300000000000    0.7887100000000000    0.4217800000000000 H
   0.8822800000000000    0.5472900000000001    0.4593250000000000 H
   0.0261100000000000    0.6366300000000000    0.4400600000000000 H
   0.5420800000000000    0.6828700000000000    0.5047600000000000 H
   0.6921000000000000    0.5916100000000000    0.5898150000000000 H
   0.7822000000000000    0.5788100000000000    0.5260500000000000 H
   0.4417100000000000    0.5097900000000000    0.5429500000000000 H
   0.3624200000000000    0.5901600000000000    0.6453500000000000 H
   0.2626600000000000    0.4548600000000000    0.6233200000000000 H
   0.5731900000000000    0.8251800000000000    0.6355649999999999 H
   0.6683500000000000    0.6525700000000000    0.7116550000000000 H
   0.5782800000000000    0.5645600000000000    0.6597350000000000 H
   0.1884400000000000    0.2112600000000000    0.5782050000000000 H
   0.1177000000000000    0.4527000000000000    0.5406700000000000 H
   0.9738599999999999    0.3633500000000000    0.5599000000000000 H
   0.4578900000000000    0.3171000000000000    0.4952300000000000 H
   0.3078700000000000    0.4083600000000000    0.4101800000000000 H
   0.2177800000000000    0.4211700000000000    0.4739450000000000 H
   0.5582700000000000    0.4901900000000000    0.4570400000000000 H
   0.7373000000000000    0.5451300000000000    0.3766700000000000 H
   0.6375400000000000    0.4098200000000000    0.3546350000000000 H
   0.4267900000000000    0.1748000000000000    0.3644250000000000 H
   0.4216600000000000    0.4354300000000000    0.3402650000000000 H
   0.3315900000000000    0.3474100000000000    0.2880000000000000 H
   0.6495500000000000    0.2351700000000000    0.9294800000000000 C
   0.5398300000000000    0.1551100000000000    0.9390000000000001 C
   0.6112400000000000    0.1108400000000000    0.9486500000000000 C
   0.9052000000000000    0.1550900000000000    0.0191950000000000 C
   0.7814300000000000    0.1015000000000000    0.0310150000000000 C
   0.8259900000000000    0.1077500000000000    0.0625500000000000 C
   0.0935800000000000    0.0132900000000000    0.0678500000000000 C
   0.1852000000000000    0.9862800000000000    0.1099300000000000 C
   0.1357800000000000    0.0532100000000000    0.1208400000000000 C
   0.9132600000000000    0.2660600000000000    0.1492050000000000 C
   0.8648700000000000    0.1755000000000000    0.1881300000000000 C
   0.9096000000000000    0.1318300000000000    0.1624250000000000 C
   0.3504200000000000    0.7648200000000001    0.0705150000000000 C
   0.3887400000000000    0.8891400000000000    0.0513000000000000 C
   0.4601400000000000    0.8448600000000001    0.0609500000000000 C
   0.0947700000000000    0.8448900000000000    0.9807950000000000 C
   0.1739900000000000    0.8922200000000000    0.9374000000000000 C
   0.2185400000000000    0.8984700000000000    0.9689749999999999 C
   0.9063900000000000    0.9866900000000000    0.9321300000000000 C
   0.8641900000000000    0.9467700000000000    0.8791500000000000 C
   0.8147700000000000    0.0137000000000000    0.8900650000000000 C
   0.0867000000000000    0.7339200000000000    0.8507850000000000 C
   0.1350900000000000    0.8244800000000000    0.8118550000000000 C
   0.0903600000000000    0.8681500000000000    0.8375600000000001 C
   0.8504000000000000    0.7351100000000000    0.9294350000000000 C
   0.8887400000000000    0.6108400000000000    0.9486950000000001 C
   0.9601400000000000    0.6551200000000000    0.9390499999999999 C
   0.5948000000000000    0.6550600000000000    0.0191900000000000 C
   0.6739700000000000    0.6075900000000000    0.0625850000000000 C
   0.7185300000000000    0.6013500000000001    0.0310100000000000 C
   0.4064400000000000    0.5132500000000000    0.0678750000000000 C
   0.3641900000000000    0.5532300000000000    0.1208350000000000 C
   0.3147800000000000    0.4863100000000000    0.1099250000000000 C
   0.5867300000000000    0.7660500000000000    0.1492000000000000 C
   0.6351700000000000    0.6754800000000000    0.1881100000000000 C
   0.5904400000000000    0.6318200000000000    0.1624050000000000 C
   0.1495700000000000    0.2648700000000000    0.0705550000000000 C
   0.1112300000000000    0.3891400000000000    0.0513000000000000 C
   0.0398400000000000    0.3448700000000000    0.0609450000000000 C
   0.4051800000000000    0.3449200000000000    0.9808000000000000 C
   0.3260000000000000    0.3923800000000000    0.9374000000000000 C
   0.2814400000000000    0.3986200000000000    0.9689800000000000 C
   0.5935300000000000    0.4867300000000000    0.9321150000000000 C
   0.6851800000000000    0.5136800000000000    0.8900650000000000 C
   0.6357699999999999    0.4467600000000000    0.8791550000000000 C
   0.4132300000000000    0.2339300000000000    0.8507950000000000 C
   0.4095000000000000    0.3681600000000000    0.8375500000000000 C
   0.3647800000000000    0.3245000000000000    0.8118850000000000 C
   0.6495700000000000    0.2648400000000000    0.6794600000000000 C
   0.6112400000000000    0.3891600000000000    0.6986600000000001 C
   0.5398400000000000    0.3448800000000000    0.6890000000000001 C
   0.1739400000000000    0.6075700000000001    0.6874100000000000 C
   0.2185000000000000    0.6013100000000000    0.7189500000000000 C
   0.0948000000000000    0.6551000000000000    0.7307950000000000 C
   0.9064300000000000    0.5132600000000000    0.6821200000000001 C
   0.8147700000000000    0.4863100000000000    0.6400650000000000 C
   0.8641900000000000    0.5532100000000000    0.6291550000000000 C
   0.0867500000000000    0.7660600000000000    0.6008000000000000 C
   0.1350900000000000    0.6755100000000001    0.5618600000000000 C
   0.0903600000000000    0.6318400000000000    0.5875600000000000 C
   0.8504100000000000    0.7648400000000000    0.6794600000000000 C
   0.8887400000000000    0.8891200000000000    0.6987000000000000 C
   0.9601499999999999    0.8448400000000000    0.6890499999999999 C
   0.5947600000000000    0.8449400000000000    0.7691850000000000 C
   0.7185600000000000    0.8984600000000000    0.7810200000000000 C
   0.6740000000000000    0.8922099999999999    0.8125500000000000 C
   0.4064200000000000    0.9867100000000000    0.8178700000000000 C
   0.3642000000000000    0.9467700000000000    0.8708350000000000 C
   0.3147900000000000    0.0137000000000000    0.8599250000000001 C
   0.5866900000000000    0.7339200000000000    0.8992150000000000 C
   0.6352400000000000    0.8245100000000000    0.9380950000000000 C
   0.5905200000000000    0.8681800000000000    0.9123850000000000 C
   0.1495600000000000    0.2351400000000000    0.8205350000000000 C
   0.1112300000000000    0.1108500000000000    0.8012900000000001 C
   0.0398200000000000    0.1551300000000000    0.8109350000000000 C
   0.4052100000000000    0.1550400000000000    0.7308050000000000 C
   0.3259700000000000    0.1077700000000000    0.6874000000000000 C
   0.2814100000000000    0.1015300000000000    0.7189500000000000 C
   0.5935500000000000    0.0132600000000000    0.6821200000000001 C
   0.6851900000000000    0.9862900000000000    0.6400650000000000 C
   0.6357800000000000    0.0532100000000000    0.6291550000000000 C
   0.4132800000000000    0.2660500000000000    0.6007800000000000 C
   0.3647200000000000    0.1754600000000000    0.5619000000000000 C
   0.4094400000000000    0.1318000000000000    0.5876100000000000 C
   0.3504000000000000    0.7351500000000000    0.8205300000000000 C
   0.3887200000000000    0.6108200000000000    0.8013350000000000 C
   0.4601300000000000    0.6551000000000000    0.8109750000000000 C
   0.0935500000000000    0.4867200000000000    0.8178700000000000 C
   0.1852000000000000    0.5136800000000000    0.8599300000000001 C
   0.1357800000000000    0.4467700000000000    0.8708400000000001 C
   0.9132300000000000    0.2339200000000000    0.8991950000000000 C
   0.8648700000000000    0.3244700000000000    0.9381300000000000 C
   0.9096000000000000    0.3681400000000000    0.9124250000000000 C
   0.8504100000000000    0.7648400000000000    0.1794600000000000 C
   0.8887400000000000    0.8891200000000000    0.1987000000000000 C
   0.9601499999999999    0.8448400000000000    0.1890500000000000 C
   0.5947600000000000    0.8449400000000000    0.2691850000000000 C
   0.7185600000000000    0.8984600000000000    0.2810200000000000 C
   0.6740000000000000    0.8922099999999999    0.3125500000000000 C
   0.4064200000000000    0.9867100000000000    0.3178700000000000 C
   0.3642000000000000    0.9467700000000000    0.3708350000000000 C
   0.3147900000000000    0.0137000000000000    0.3599250000000000 C
   0.5866900000000000    0.7339200000000000    0.3992150000000000 C
   0.6352400000000000    0.8245100000000000    0.4380950000000000 C
   0.5905200000000000    0.8681800000000000    0.4123850000000000 C
   0.1495600000000000    0.2351400000000000    0.3205350000000000 C
   0.1112300000000000    0.1108500000000000    0.3012900000000000 C
   0.0398200000000000    0.1551300000000000    0.3109350000000000 C
   0.4052100000000000    0.1550400000000000    0.2308050000000000 C
   0.3259700000000000    0.1077700000000000    0.1874000000000000 C
   0.2814100000000000    0.1015300000000000    0.2189500000000000 C
   0.5935500000000000    0.0132600000000000    0.1821200000000000 C
   0.6851900000000000    0.9862900000000000    0.1400650000000000 C
   0.6357800000000000    0.0532100000000000    0.1291550000000000 C
   0.4132800000000000    0.2660500000000000    0.1007800000000000 C
   0.3647200000000000    0.1754600000000000    0.0619000000000000 C
   0.4094400000000000    0.1318000000000000    0.0876100000000000 C
   0.1739400000000000    0.6075700000000001    0.1874100000000000 C
   0.2185000000000000    0.6013100000000000    0.2189500000000000 C
   0.0948000000000000    0.6551000000000000    0.2307950000000000 C
   0.9064300000000000    0.5132600000000000    0.1821200000000000 C
   0.8147700000000000    0.4863100000000000    0.1400650000000000 C
   0.8641900000000000    0.5532100000000000    0.1291550000000000 C
   0.0867500000000000    0.7660600000000000    0.1008000000000000 C
   0.1350900000000000    0.6755100000000001    0.0618600000000000 C
   0.0903600000000000    0.6318400000000000    0.0875600000000000 C
   0.3504000000000000    0.7351500000000000    0.3205300000000000 C
   0.3887200000000000    0.6108200000000000    0.3013350000000000 C
   0.4601300000000000    0.6551000000000000    0.3109750000000000 C
   0.6495700000000000    0.2648400000000000    0.1794600000000000 C
   0.6112400000000000    0.3891600000000000    0.1986600000000000 C
   0.5398400000000000    0.3448800000000000    0.1890000000000000 C
   0.9051700000000000    0.3448900000000000    0.2691950000000000 C
   0.8260200000000000    0.3924000000000000    0.3125800000000000 C
   0.7814700000000000    0.3986500000000000    0.2810050000000000 C
   0.0935500000000000    0.4867200000000000    0.3178700000000000 C
   0.1852000000000000    0.5136800000000000    0.3599300000000000 C
   0.1357800000000000    0.4467700000000000    0.3708400000000000 C
   0.9132300000000000    0.2339200000000000    0.3991950000000000 C
   0.8648700000000000    0.3244700000000000    0.4381300000000000 C
   0.9096000000000000    0.3681400000000000    0.4124250000000000 C
   0.6495500000000000    0.2351700000000000    0.4294800000000000 C
   0.5398300000000000    0.1551100000000000    0.4390000000000000 C
   0.6112400000000000    0.1108400000000000    0.4486500000000000 C
   0.9052000000000000    0.1550900000000000    0.5191950000000000 C
   0.7814300000000000    0.1015000000000000    0.5310150000000000 C
   0.8259900000000000    0.1077500000000000    0.5625500000000000 C
   0.0935800000000000    0.0132900000000000    0.5678500000000000 C
   0.1852000000000000    0.9862800000000000    0.6099300000000000 C
   0.1357800000000000    0.0532100000000000    0.6208400000000001 C
   0.9132600000000000    0.2660600000000000    0.6492050000000000 C
   0.8648700000000000    0.1755000000000000    0.6881300000000000 C
   0.9096000000000000    0.1318300000000000    0.6624250000000000 C
   0.3504200000000000    0.7648200000000001    0.5705150000000000 C
   0.3887400000000000    0.8891400000000000    0.5513000000000000 C
   0.4601400000000000    0.8448600000000001    0.5609499999999999 C
   0.0947700000000000    0.8448900000000000    0.4807950000000000 C
   0.1739900000000000    0.8922200000000000    0.4374000000000000 C
   0.2185400000000000    0.8984700000000000    0.4689750000000000 C
   0.9063900000000000    0.9866900000000000    0.4321300000000000 C
   0.8641900000000000    0.9467700000000000    0.3791500000000000 C
   0.8147700000000000    0.0137000000000000    0.3900650000000000 C
   0.0867000000000000    0.7339200000000000    0.3507850000000000 C
   0.1350900000000000    0.8244800000000000    0.3118550000000000 C
   0.0903600000000000    0.8681500000000000    0.3375600000000000 C
   0.8504000000000000    0.7351100000000000    0.4294350000000000 C
   0.8887400000000000    0.6108400000000000    0.4486950000000000 C
   0.9601400000000000    0.6551200000000000    0.4390500000000000 C
   0.5948000000000000    0.6550600000000000    0.5191900000000000 C
   0.6739700000000000    0.6075900000000000    0.5625850000000000 C
   0.7185300000000000    0.6013500000000001    0.5310100000000000 C
   0.4064400000000000    0.5132500000000000    0.5678750000000000 C
   0.3641900000000000    0.5532300000000000    0.6208350000000000 C
   0.3147800000000000    0.4863100000000000    0.6099250000000001 C
   0.5867300000000000    0.7660500000000000    0.6492000000000000 C
   0.6351700000000000    0.6754800000000000    0.6881100000000000 C
   0.5904400000000000    0.6318200000000000    0.6624050000000000 C
   0.1495700000000000    0.2648700000000000    0.5705550000000000 C
   0.1112300000000000    0.3891400000000000    0.5513000000000000 C
   0.0398400000000000    0.3448700000000000    0.5609450000000000 C
   0.4051800000000000    0.3449200000000000    0.4808000000000000 C
   0.3260000000000000    0.3923800000000000    0.4374000000000000 C
   0.2814400000000000    0.3986200000000000    0.4689800000000000 C
   0.5935300000000000    0.4867300000000000    0.4321150000000000 C
   0.6851800000000000    0.5136800000000000    0.3900650000000000 C
   0.6357699999999999    0.4467600000000000    0.3791550000000000 C
   0.4132300000000000    0.2339300000000000    0.3507950000000000 C
   0.4095000000000000    0.3681600000000000    0.3375500000000000 C
   0.3647800000000000    0.3245000000000000    0.3118850000000000 C
   0.5645600000000000    0.2341100000000000    0.9268500000000000 N
   0.6808100000000000    0.1620100000000000    0.9425600000000001 N
   0.9045800000000001    0.1417600000000000    0.0549400000000000 N
   0.8319700000000000    0.1316200000000000    0.0035000000000000 N
   0.1581600000000000    0.9612100000000000    0.0762150000000000 N
   0.0775900000000000    0.0700700000000000    0.0940100000000000 N
   0.8673800000000000    0.2608100000000000    0.1796200000000000 N
   0.9403800000000000    0.1897600000000000    0.1377900000000000 N
   0.3191600000000000    0.8379700000000000    0.0574300000000000 N
   0.4354200000000000    0.7658700000000001    0.0731400000000000 N
   0.0953900000000000    0.8582200000000000    0.9450499999999999 N
   0.1680100000000000    0.8683600000000000    0.9964900000000000 N
   0.8418099999999999    0.0387700000000000    0.9237750000000000 N
   0.9223800000000000    0.9299100000000000    0.9059800000000000 N
   0.1325800000000000    0.7391600000000000    0.8203700000000000 N
   0.0595800000000000    0.8102200000000001    0.8622000000000001 N
   0.9354000000000000    0.7340800000000000    0.9268300000000000 N
   0.8191500000000000    0.6619800000000000    0.9425450000000000 N
   0.5954000000000000    0.6416700000000000    0.0549300000000000 N
   0.6680199999999999    0.6315400000000000    0.0034950000000000 N
   0.3418500000000000    0.4612000000000000    0.0762250000000000 N
   0.4224200000000000    0.5700600000000000    0.0940150000000000 N
   0.6326300000000000    0.7608000000000000    0.1796100000000000 N
   0.5596300000000000    0.6897500000000000    0.1377700000000000 N
   0.0645800000000000    0.2659000000000000    0.0731500000000000 N