H12 C30 O12
1.0
  37.1208076555665656    0.0000000000000000   12.0770416492794634
   4.4125359453006192   18.0684821057834739    6.0250379189190459
   0.0000000000000000    0.0000000000000000   39.0840000000000032
H C O
12 30 12
direct
   0.7402000000000000    0.5487300000000001    0.0123100000000000 H
   0.0124600000000000    0.4792900000000000    0.7739900000000000 H
   0.7818650000000000    0.7294100000000000    0.9321650000000000 H
   0.8107850000000000    0.5153300000000000    0.9071300000000000 H
   0.7804599999999999    0.7584300000000000    0.8671850000000000 H
   0.9322550000000001    0.5604000000000000    0.8652100000000000 H
   0.9069849999999999    0.6207000000000000    0.7581000000000000 H
   0.8670800000000001    0.5592800000000000    0.8799200000000000 H
   0.7737450000000000    0.0218800000000000    0.7404750000000000 H
   0.8650150000000000    0.8628200000000000    0.7815200000000000 H
   0.7580750000000001    0.8114400000000001    0.8111950000000000 H
   0.8799150000000000    0.7320900000000000    0.7804400000000000 H
   0.7402200000000000    0.6928200000000000    0.0012000000000000 C
   0.0014800000000000    0.4775100000000000    0.8462700000000001 C
   0.7738499999999999    0.4456000000000000    0.9717450000000001 C
   0.7754750000000000    0.5245400000000000    0.9606700000000000 C
   0.7564250000000000    0.5705500000000000    0.9851500000000000 C
   0.7588600000000000    0.6444400000000000    0.9745750000000000 C
   0.7798700000000001    0.6720900000000000    0.9395000000000000 C
   0.7989299999999999    0.6264700000000000    0.9146950000000000 C
   0.7965900000000000    0.5523500000000000    0.9257500000000001 C
   0.8212850000000000    0.6556500000000000    0.8777250000000000 C
   0.8076950000000001    0.7254699999999999    0.8563700000000001 C
   0.9716899999999999    0.5476200000000000    0.7227000000000000 C
   0.9606500000000000    0.5500200000000000    0.7623200000000000 C
   0.9852300000000001    0.5114100000000000    0.7851650000000000 C
   0.9746900000000001    0.5154000000000000    0.8222750000000000 C
   0.9395750000000000    0.5571199999999999    0.8364150000000000 C
   0.9146600000000000    0.5958599999999999    0.8137500000000000 C
   0.9256700000000000    0.5919100000000000    0.7765450000000000 C
   0.8776950000000000    0.6406600000000000    0.8285500000000000 C
   0.8563200000000000    0.6137300000000000    0.8635200000000001 C
   0.7225250000000000    0.9402700000000001    0.7744900000000000 C
   0.7621599999999999    0.9184900000000000    0.7758250000000000 C
   0.7849450000000000    0.9677200000000000    0.7566300000000000 C
   0.8220450000000000    0.9470499999999999    0.7587850000000000 C
   0.8362400000000000    0.8771700000000000    0.7797000000000001 C
   0.8136500000000000    0.8272500000000000    0.7989400000000000 C
   0.7764300000000000    0.8488800000000000    0.7968550000000000 C
   0.8459449999999999    0.0007600000000000    0.7400700000000000 C
   0.8285300000000000    0.7535400000000000    0.8212850000000000 C
   0.8635100000000000    0.7106900000000000    0.8076950000000001 C
   0.7546850000000001    0.4191400000000000    0.0036750000000000 O
   0.7213800000000000    0.6648500000000001    0.0326300000000000 O
   0.0037350000000000    0.5097600000000000    0.7091800000000000 O
   0.0330450000000000    0.4407000000000000    0.8318250000000000 O
   0.8792050000000000   -0.0195000000000000    0.7444300000000000 O
   0.7920950000000000    0.4031300000000000    0.9494800000000000 O
   0.7447500000000000    0.7590900000000000    0.9908000000000000 O
   0.9493300000000000    0.5844600000000000    0.7016150000000000 O
   0.9910900000000000    0.4852700000000000    0.8796750000000000 O
   0.7014600000000000    0.8955000000000000    0.7927850000000001 O
   0.7089900000000000    1.0040499999999999    0.7555050000000000 O
   0.8316150000000000    0.0633900000000000    0.7213250000000000 O
