Zn48 H180 C450 O180
1.0
  37.1208076555665656    0.0000000000000000   12.0770416492794634
   4.4125359453006192   18.0684821057834739    6.0250379189190459
   0.0000000000000000    0.0000000000000000   39.0840000000000032
Zn H C O
48 180 450 180
direct
   0.3215750000000000    0.2147600000000000    0.4381750000000000 Zn
   0.4906550000000000    0.5492500000000000    0.1584600000000000 Zn
   0.4384450000000000    0.6431600000000000    0.1065000000000000 Zn
   0.1582250000000000    0.9775500000000000    0.2751700000000000 Zn
   0.1058600000000000    0.8750500000000000    0.3221750000000000 Zn
   0.4080100000000000    0.0486600000000000    0.2405100000000000 Zn
   0.3561200000000000    0.1424300000000000    0.1885850000000000 Zn
   0.0248200000000000    0.4774400000000000    0.4089400000000000 Zn
   0.0724250000000000    0.3744300000000000    0.3564450000000000 Zn
   0.2409400000000000    0.8170400000000000    0.0247000000000000 Zn
   0.1882850000000000    0.7148300000000000    0.0717950000000000 Zn
   0.2741100000000000    0.3175000000000000    0.4907200000000000 Zn
   0.8215749999999999    0.2147600000000000    0.4381750000000000 Zn
   0.9906550000000001    0.5492500000000000    0.1584600000000000 Zn
   0.9384450000000000    0.6431600000000000    0.1065000000000000 Zn
   0.6582250000000001    0.9775500000000000    0.2751700000000000 Zn
   0.6058600000000000    0.8750500000000000    0.3221750000000000 Zn
   0.9080100000000000    0.0486600000000000    0.2405100000000000 Zn
   0.8561200000000000    0.1424300000000000    0.1885850000000000 Zn
   0.5248200000000000    0.4774400000000000    0.4089400000000000 Zn
   0.5724250000000000    0.3744300000000000    0.3564450000000000 Zn
   0.7409399999999999    0.8170400000000000    0.0247000000000000 Zn
   0.6882850000000000    0.7148300000000000    0.0717950000000000 Zn
   0.7741100000000001    0.3175000000000000    0.4907200000000000 Zn
   0.3215750000000000    0.2147600000000000    0.9381750000000000 Zn
   0.4906550000000000    0.5492500000000000    0.6584600000000000 Zn
   0.4384450000000000    0.6431600000000000    0.6065000000000000 Zn
   0.1582250000000000    0.9775500000000000    0.7751700000000000 Zn
   0.1058600000000000    0.8750500000000000    0.8221750000000000 Zn
   0.4080100000000000    0.0486600000000000    0.7405100000000000 Zn
   0.3561200000000000    0.1424300000000000    0.6885850000000000 Zn
   0.0248200000000000    0.4774400000000000    0.9089400000000001 Zn
   0.0724250000000000    0.3744300000000000    0.8564450000000000 Zn
   0.2409400000000000    0.8170400000000000    0.5246999999999999 Zn
   0.1882850000000000    0.7148300000000000    0.5717950000000001 Zn
   0.2741100000000000    0.3175000000000000    0.9907200000000000 Zn
   0.8215749999999999    0.2147600000000000    0.9381750000000000 Zn
   0.9906550000000001    0.5492500000000000    0.6584600000000000 Zn
   0.9384450000000000    0.6431600000000000    0.6065000000000000 Zn
   0.6582250000000001    0.9775500000000000    0.7751700000000000 Zn
   0.6058600000000000    0.8750500000000000    0.8221750000000000 Zn
   0.9080100000000000    0.0486600000000000    0.7405100000000000 Zn
   0.8561200000000000    0.1424300000000000    0.6885850000000000 Zn
   0.5248200000000000    0.4774400000000000    0.9089400000000001 Zn
   0.5724250000000000    0.3744300000000000    0.8564450000000000 Zn
   0.7409399999999999    0.8170400000000000    0.5246999999999999 Zn
   0.6882850000000000    0.7148300000000000    0.5717950000000001 Zn
   0.7741100000000001    0.3175000000000000    0.9907200000000000 Zn
   0.2402000000000000    0.5487300000000001    0.0123100000000000 H
   0.2818650000000000    0.7294100000000000    0.4321650000000000 H
   0.3107850000000000    0.5153300000000000    0.4071300000000000 H
   0.2804600000000000    0.7584300000000000    0.3671850000000000 H
   0.3340900000000000    0.2125000000000000    0.0731050000000000 H
   0.4396000000000000    0.0711600000000000    0.0888800000000000 H
   0.4142550000000000    0.1314500000000000    0.4818550000000000 H
   0.4794550000000000    0.1325700000000000    0.4671350000000000 H
   0.0124600000000000    0.4792900000000000    0.2739900000000000 H
   0.4322550000000000    0.5604000000000000    0.3652100000000000 H
   0.4069850000000000    0.6207000000000000    0.2581000000000000 H
   0.3670800000000000    0.5592800000000000    0.3799200000000000 H
   0.0728050000000000    0.6699800000000000    0.1065400000000000 H
   0.0884050000000000    0.8804700000000000    0.0358300000000000 H
   0.4815000000000000    0.8289500000000000    0.0655150000000000 H
   0.4665900000000000    0.9597300000000000    0.0665800000000000 H
   0.2737450000000000    0.0218800000000000    0.2404750000000000 H
   0.3650150000000000    0.8628200000000000    0.2815200000000000 H
   0.2580750000000000    0.8114400000000001    0.3111950000000000 H
   0.3799150000000000    0.7320900000000000    0.2804400000000000 H
   0.1063600000000000    0.1432800000000000    0.3347850000000000 H
   0.0356800000000000    0.1765400000000000    0.4399600000000000 H
   0.0647500000000000    0.9624600000000000    0.4148800000000000 H
   0.0660650000000000    0.9334100000000000    0.4798650000000000 H
   0.0236100000000000    0.9793400000000000    0.2620000000000000 H
   0.1148450000000000    0.0609600000000000    0.1823050000000000 H
   0.0077250000000000    0.1208800000000000    0.1568200000000000 H
   0.1297200000000000    0.0594300000000000    0.1171500000000000 H
   0.3560900000000000    0.1691500000000000    0.3228400000000000 H
   0.2859000000000000    0.3804600000000000    0.3384400000000000 H
   0.3150700000000000    0.3284700000000000    0.2317850000000000 H
   0.3164400000000000    0.4593700000000000    0.2169150000000000 H
   0.4903300000000000    0.5228100000000000    0.0242900000000000 H
   0.0313950000000000    0.3633700000000000    0.1152500000000000 H
   0.0605650000000000    0.3115800000000000    0.0085900000000000 H
   0.0300000000000000    0.2325300000000000    0.1301200000000000 H
   0.0842200000000000    0.6436800000000000    0.3568000000000000 H
   0.1893450000000000    0.6767600000000000    0.2858000000000000 H
   0.1646650000000000    0.4623500000000000    0.3154500000000000 H
   0.2296750000000000    0.4335100000000000    0.3162850000000000 H
   0.2622950000000000    0.0484500000000000    0.4902800000000000 H
   0.1817550000000000    0.2296000000000000    0.0316900000000000 H
   0.1571650000000000    0.0151400000000000    0.0611400000000000 H
   0.1167800000000000    0.2583800000000000    0.0307650000000000 H
   0.3228800000000000    0.7126800000000000    0.0850900000000000 H
   0.3387100000000000    0.5709600000000000    0.1902550000000000 H
   0.2315950000000000    0.6311200000000000    0.1647200000000000 H
   0.2167250000000000    0.6324700000000000    0.2299050000000000 H
   0.7818650000000000    0.7294100000000000    0.4321650000000000 H
   0.8107850000000000    0.5153300000000000    0.4071300000000000 H
   0.7804599999999999    0.7584300000000000    0.3671850000000000 H
   0.8340900000000000    0.2125000000000000    0.0731050000000000 H
   0.9396000000000000    0.0711600000000000    0.0888800000000000 H
   0.9142550000000000    0.1314500000000000    0.4818550000000000 H
   0.9794550000000000    0.1325700000000000    0.4671350000000000 H
   0.5124600000000000    0.4792900000000000    0.2739900000000000 H
   0.9322550000000001    0.5604000000000000    0.3652100000000000 H
   0.9069849999999999    0.6207000000000000    0.2581000000000000 H
   0.8670800000000001    0.5592800000000000    0.3799200000000000 H
   0.5728050000000000    0.6699800000000000    0.1065400000000000 H
   0.5884050000000000    0.8804700000000000    0.0358300000000000 H
   0.9815000000000000    0.8289500000000000    0.0655150000000000 H
   0.9665900000000001    0.9597300000000000    0.0665800000000000 H
   0.7737450000000000    0.0218800000000000    0.2404750000000000 H
   0.8650150000000000    0.8628200000000000    0.2815200000000000 H
   0.7580750000000001    0.8114400000000001    0.3111950000000000 H
   0.8799150000000000    0.7320900000000000    0.2804400000000000 H
   0.6063600000000000    0.1432800000000000    0.3347850000000000 H
   0.5356800000000000    0.1765400000000000    0.4399600000000000 H
   0.5647500000000000    0.9624600000000000    0.4148800000000000 H
   0.5660650000000000    0.9334100000000000    0.4798650000000000 H
   0.5236100000000000    0.9793400000000000    0.2620000000000000 H
   0.6148450000000000    0.0609600000000000    0.1823050000000000 H
   0.5077250000000000    0.1208800000000000    0.1568200000000000 H
   0.6297200000000001    0.0594300000000000    0.1171500000000000 H
   0.8560900000000000    0.1691500000000000    0.3228400000000000 H
   0.7859000000000000    0.3804600000000000    0.3384400000000000 H
   0.8150700000000000    0.3284700000000000    0.2317850000000000 H
   0.8164400000000001    0.4593700000000000    0.2169150000000000 H
   0.9903299999999999    0.5228100000000000    0.0242900000000000 H
   0.5313950000000000    0.3633700000000000    0.1152500000000000 H
   0.5605650000000000    0.3115800000000000    0.0085900000000000 H
   0.5300000000000000    0.2325300000000000    0.1301200000000000 H
   0.5842200000000000    0.6436800000000000    0.3568000000000000 H
   0.6893450000000000    0.6767600000000000    0.2858000000000000 H
   0.6646650000000001    0.4623500000000000    0.3154500000000000 H
   0.7296750000000000    0.4335100000000000    0.3162850000000000 H
   0.7622949999999999    0.0484500000000000    0.4902800000000000 H
   0.6817550000000000    0.2296000000000000    0.0316900000000000 H
   0.6571650000000000    0.0151400000000000    0.0611400000000000 H
   0.6167800000000000    0.2583800000000000    0.0307650000000000 H
   0.8228800000000001    0.7126800000000000    0.0850900000000000 H
   0.8387100000000001    0.5709600000000000    0.1902550000000000 H
   0.7315950000000000    0.6311200000000000    0.1647200000000000 H
   0.7167250000000001    0.6324700000000000    0.2299050000000000 H
   0.2402000000000000    0.5487300000000001    0.5123100000000000 H
   0.2818650000000000    0.7294100000000000    0.9321650000000000 H
   0.3107850000000000    0.5153300000000000    0.9071300000000000 H
   0.2804600000000000    0.7584300000000000    0.8671850000000000 H
   0.3340900000000000    0.2125000000000000    0.5731050000000000 H
   0.4396000000000000    0.0711600000000000    0.5888800000000000 H
   0.4142550000000000    0.1314500000000000    0.9818549999999999 H
   0.4794550000000000    0.1325700000000000    0.9671350000000001 H
   0.4322550000000000    0.5604000000000000    0.8652100000000000 H
   0.4069850000000000    0.6207000000000000    0.7581000000000000 H
   0.3670800000000000    0.5592800000000000    0.8799200000000000 H
   0.0728050000000000    0.6699800000000000    0.6065400000000000 H
   0.0884050000000000    0.8804700000000000    0.5358300000000000 H
   0.4815000000000000    0.8289500000000000    0.5655150000000000 H
   0.4665900000000000    0.9597300000000000    0.5665800000000000 H
   0.2737450000000000    0.0218800000000000    0.7404750000000000 H
   0.3650150000000000    0.8628200000000000    0.7815200000000000 H
   0.2580750000000000    0.8114400000000001    0.8111950000000000 H
   0.3799150000000000    0.7320900000000000    0.7804400000000000 H
   0.1063600000000000    0.1432800000000000    0.8347850000000000 H
   0.0356800000000000    0.1765400000000000    0.9399600000000000 H
   0.0647500000000000    0.9624600000000000    0.9148800000000000 H
   0.0660650000000000    0.9334100000000000    0.9798650000000000 H
   0.0236100000000000    0.9793400000000000    0.7620000000000000 H
   0.1148450000000000    0.0609600000000000    0.6823049999999999 H
   0.0077250000000000    0.1208800000000000    0.6568200000000000 H
   0.1297200000000000    0.0594300000000000    0.6171500000000000 H
   0.3560900000000000    0.1691500000000000    0.8228400000000000 H
   0.2859000000000000    0.3804600000000000    0.8384400000000001 H
   0.3150700000000000    0.3284700000000000    0.7317850000000000 H
   0.3164400000000000    0.4593700000000000    0.7169150000000000 H
   0.4903300000000000    0.5228100000000000    0.5242900000000000 H
   0.0313950000000000    0.3633700000000000    0.6152500000000000 H
   0.0605650000000000    0.3115800000000000    0.5085900000000000 H
   0.0300000000000000    0.2325300000000000    0.6301200000000000 H
   0.0842200000000000    0.6436800000000000    0.8568000000000000 H
   0.1893450000000000    0.6767600000000000    0.7858000000000001 H
   0.1646650000000000    0.4623500000000000    0.8154500000000000 H
   0.2296750000000000    0.4335100000000000    0.8162849999999999 H
   0.2622950000000000    0.0484500000000000    0.9902800000000000 H
   0.1817550000000000    0.2296000000000000    0.5316900000000000 H
   0.1571650000000000    0.0151400000000000    0.5611400000000000 H
   0.1167800000000000    0.2583800000000000    0.5307650000000000 H
   0.3228800000000000    0.7126800000000000    0.5850900000000000 H
   0.3387100000000000    0.5709600000000000    0.6902550000000001 H
   0.2315950000000000    0.6311200000000000    0.6647200000000000 H
   0.2167250000000000    0.6324700000000000    0.7299050000000000 H
   0.7402000000000000    0.5487300000000001    0.5123100000000000 H
   0.8340900000000000    0.2125000000000000    0.5731050000000000 H
   0.9396000000000000    0.0711600000000000    0.5888800000000000 H
   0.9142550000000000    0.1314500000000000    0.9818549999999999 H
   0.9794550000000000    0.1325700000000000    0.9671350000000001 H
   0.5124600000000000    0.4792900000000000    0.7739900000000000 H
   0.5728050000000000    0.6699800000000000    0.6065400000000000 H
   0.5884050000000000    0.8804700000000000    0.5358300000000000 H
   0.9815000000000000    0.8289500000000000    0.5655150000000000 H
   0.9665900000000001    0.9597300000000000    0.5665800000000000 H
   0.6063600000000000    0.1432800000000000    0.8347850000000000 H
   0.5356800000000000    0.1765400000000000    0.9399600000000000 H
   0.5647500000000000    0.9624600000000000    0.9148800000000000 H
   0.5660650000000000    0.9334100000000000    0.9798650000000000 H
   0.5236100000000000    0.9793400000000000    0.7620000000000000 H
   0.6148450000000000    0.0609600000000000    0.6823049999999999 H
   0.5077250000000000    0.1208800000000000    0.6568200000000000 H
   0.6297200000000001    0.0594300000000000    0.6171500000000000 H
   0.8560900000000000    0.1691500000000000    0.8228400000000000 H
   0.7859000000000000    0.3804600000000000    0.8384400000000001 H
   0.8150700000000000    0.3284700000000000    0.7317850000000000 H
   0.8164400000000001    0.4593700000000000    0.7169150000000000 H
   0.9903299999999999    0.5228100000000000    0.5242900000000000 H
   0.5313950000000000    0.3633700000000000    0.6152500000000000 H
   0.5605650000000000    0.3115800000000000    0.5085900000000000 H
   0.5300000000000000    0.2325300000000000    0.6301200000000000 H
   0.5842200000000000    0.6436800000000000    0.8568000000000000 H
   0.6893450000000000    0.6767600000000000    0.7858000000000001 H
   0.6646650000000001    0.4623500000000000    0.8154500000000000 H
   0.7296750000000000    0.4335100000000000    0.8162849999999999 H
   0.7622949999999999    0.0484500000000000    0.9902800000000000 H
   0.6817550000000000    0.2296000000000000    0.5316900000000000 H
   0.6571650000000000    0.0151400000000000    0.5611400000000000 H
   0.6167800000000000    0.2583800000000000    0.5307650000000000 H
   0.8228800000000001    0.7126800000000000    0.5850900000000000 H
   0.8387100000000001    0.5709600000000000    0.6902550000000001 H
   0.7315950000000000    0.6311200000000000    0.6647200000000000 H
   0.7167250000000001    0.6324700000000000    0.7299050000000000 H
   0.2738500000000000    0.4456000000000000    0.4717450000000000 C
   0.2754750000000000    0.5245400000000000    0.4606700000000000 C
   0.2564250000000000    0.5705500000000000    0.4851500000000000 C
   0.2588600000000000    0.6444400000000000    0.4745750000000000 C
   0.2798700000000000    0.6720900000000000    0.4395000000000000 C
   0.2989300000000000    0.6264700000000000    0.4146950000000000 C
   0.2965900000000000    0.5523500000000000    0.4257500000000000 C
   0.2402200000000000    0.6928200000000000    0.0012000000000000 C
   0.3212850000000000    0.6556500000000000    0.3777250000000000 C
   0.3076950000000000    0.7254699999999999    0.3563700000000000 C
   0.3450250000000000    0.2143700000000000    0.0008300000000000 C
   0.3718400000000000    0.1764400000000000    0.0248000000000000 C
   0.3613200000000000    0.1803900000000000    0.0619100000000000 C
   0.3859200000000000    0.1418100000000000    0.0847300000000000 C
   0.4208900000000000    0.0999300000000000    0.0704900000000000 C
   0.4318700000000000    0.0959800000000000    0.0332900000000000 C
   0.4069400000000000    0.1347300000000000    0.0106000000000000 C
   0.4688300000000000    0.0511700000000000    0.0184800000000000 C
   0.4902100000000000    0.0781100000000000    0.4835000000000000 C
   0.3749150000000000    0.1442400000000000    0.1243450000000000 C
   0.4716900000000000    0.5476200000000000    0.2227000000000000 C
   0.4606500000000000    0.5500200000000000    0.2623200000000000 C
   0.4852300000000000    0.5114100000000000    0.2851650000000000 C
   0.4746900000000000    0.5154000000000000    0.3222750000000000 C
   0.4395750000000000    0.5571199999999999    0.3364150000000000 C
   0.4146600000000000    0.5958599999999999    0.3137500000000000 C
   0.4256700000000000    0.5919100000000000    0.2765450000000000 C
   0.0014800000000000    0.4775100000000000    0.3462700000000000 C
   0.3776950000000000    0.6406600000000000    0.3285500000000000 C
   0.3563200000000000    0.6137300000000000    0.3635200000000000 C
   0.0006250000000000    0.6909900000000000    0.1069850000000000 C
   0.0244900000000000    0.7447600000000000    0.0882350000000000 C
   0.0615900000000000    0.7241400000000000    0.0903850000000000 C
   0.0843550000000000    0.7734100000000000    0.0712000000000000 C
   0.0700650000000000    0.8429900000000000    0.0501650000000000 C
   0.0328500000000000    0.8645800000000000    0.0480800000000000 C
   0.0102700000000000    0.8146300000000000    0.0673050000000000 C
   0.0179750000000000    0.9382900000000000    0.0257350000000000 C
   0.4830000000000000    0.9811400000000000    0.0393250000000000 C
   0.1239850000000000    0.7517600000000000    0.0725350000000000 C
   0.2225250000000000    0.9402700000000001    0.2744900000000000 C
   0.2621600000000000    0.9184900000000000    0.2758250000000000 C
   0.2849450000000000    0.9677200000000000    0.2566300000000000 C
   0.3220450000000000    0.9470499999999999    0.2587850000000000 C
   0.3362400000000000    0.8771700000000000    0.2797000000000000 C
   0.3136500000000000    0.8272500000000000    0.2989400000000000 C
   0.2764300000000000    0.8488800000000000    0.2968550000000000 C
   0.3459450000000000    0.0007600000000000    0.2400700000000000 C
   0.3285300000000000    0.7535400000000000    0.3212850000000000 C
   0.3635100000000000    0.7106900000000000    0.3076950000000000 C
   0.1064000000000000    0.9992300000000000    0.3458100000000000 C
   0.0877300000000000    0.0475100000000000    0.3724900000000000 C
   0.0901250000000000    0.1214100000000000    0.3619400000000000 C
   0.0710400000000000    0.1673900000000000    0.3864300000000000 C
   0.0499100000000000    0.1395400000000000    0.4213300000000000 C
   0.0476100000000000    0.0654000000000000    0.4323650000000000 C
   0.0667150000000000    0.0198000000000000    0.4075300000000000 C
   0.0252450000000000    0.0361900000000000    0.4693250000000000 C
   0.0388250000000000    0.9663600000000000    0.4906750000000000 C
   0.0726350000000000    0.2463500000000000    0.3753850000000000 C
   0.4722750000000000    0.0475500000000000    0.2213850000000000 C
   0.0119250000000000    0.0501000000000000    0.2103350000000000 C
   0.0347850000000000    0.0115800000000000    0.2348950000000000 C
   0.0719050000000000    0.0156700000000000    0.2244850000000000 C
   0.0860500000000000    0.0575200000000000    0.1895300000000000 C
   0.0633700000000000    0.0961600000000000    0.1646250000000000 C
   0.0261350000000000    0.0921200000000000    0.1755050000000000 C
   0.0958450000000000    0.9779300000000000    0.2513200000000000 C
   0.0782050000000000    0.1409200000000000    0.1277800000000000 C
   0.1132600000000000    0.1138900000000000    0.1064300000000000 C
   0.3563850000000000    0.1901700000000000    0.2508200000000000 C
   0.3377750000000000    0.2441000000000000    0.2746600000000000 C
   0.3400250000000000    0.2234900000000000    0.3116650000000000 C
   0.3210200000000000    0.2729900000000000    0.3340000000000000 C
   0.3000950000000000    0.3427900000000000    0.3201450000000000 C
   0.2979050000000000    0.3643300000000000    0.2830300000000000 C
   0.3169500000000000    0.3141700000000000    0.2604850000000000 C
   0.2755600000000000    0.4381500000000000    0.2682000000000000 C
   0.2891450000000000    0.4808800000000000    0.2333350000000000 C
   0.3224100000000000    0.2513900000000000    0.3739500000000000 C
   0.0240050000000000    0.4406200000000000    0.4731550000000000 C
   0.0254100000000000    0.4190000000000000    0.0126900000000000 C
   0.0064050000000000    0.4684600000000000    0.0354450000000000 C
   0.0086850000000000    0.4478200000000000    0.0724400000000000 C
   0.0295050000000000    0.3777100000000000    0.0865500000000000 C
   0.0485450000000000    0.3275900000000000    0.0640250000000000 C
   0.0463550000000000    0.3492000000000000    0.0269100000000000 C
   0.4901200000000000    0.5016800000000000    0.0963250000000000 C
   0.0708850000000000    0.2537500000000000    0.0788100000000000 C
   0.0572950000000000    0.2110200000000000    0.1137000000000000 C
   0.0955700000000000    0.4991800000000000    0.3572200000000000 C
   0.1221250000000000    0.5476200000000000    0.3383350000000000 C
   0.1114250000000000    0.6216900000000000    0.3405650000000000 C
   0.1358350000000000    0.6676900000000000    0.3212900000000000 C
   0.1707950000000000    0.6397100000000000    0.3001650000000000 C
   0.1819650000000000    0.5654500000000000    0.2979850000000000 C
   0.1572150000000000    0.5198199999999999    0.3172500000000000 C
   0.2189850000000000    0.5361800000000000    0.2755500000000000 C
   0.2404400000000000    0.4663700000000000    0.2890850000000000 C
   0.1247300000000000    0.7467800000000000    0.3227150000000000 C
   0.2218550000000000    0.9452800000000000    0.0242350000000000 C
   0.2106850000000000    0.0243300000000000    0.0257200000000000 C
   0.2350700000000000    0.0703900000000000    0.0064950000000000 C
   0.2243400000000000    0.1444200000000000    0.0087500000000000 C
   0.1892300000000000    0.1721500000000000    0.0298300000000000 C
   0.1644950000000000    0.1264700000000000    0.0490700000000000 C
   0.1757000000000000    0.0522300000000000    0.0468400000000000 C
   0.2508750000000000    0.1929200000000000    0.4899700000000000 C
   0.1274600000000000    0.1557000000000000    0.0714500000000000 C
   0.1060100000000000    0.2255200000000000    0.0579550000000000 C
   0.2506600000000000    0.7142200000000000    0.0957050000000000 C
   0.2745650000000000    0.6763900000000000    0.1225700000000000 C
   0.3116950000000000    0.6804100000000000    0.1121850000000000 C
   0.3345350000000000    0.6418300000000000    0.1367550000000000 C
   0.3203050000000000    0.5997600000000000    0.1715600000000000 C
   0.2830650000000000    0.5957800000000000    0.1824200000000000 C
   0.2604000000000000    0.6345000000000000    0.1575100000000000 C
   0.2682250000000000    0.5509800000000000    0.2192550000000000 C
   0.2331750000000000    0.5780000000000000    0.2406200000000000 C
   0.3741900000000000    0.6443200000000000    0.1257450000000000 C
   0.7738499999999999    0.4456000000000000    0.4717450000000000 C
   0.7754750000000000    0.5245400000000000    0.4606700000000000 C
   0.7564250000000000    0.5705500000000000    0.4851500000000000 C
   0.7588600000000000    0.6444400000000000    0.4745750000000000 C
   0.7798700000000001    0.6720900000000000    0.4395000000000000 C
   0.7989299999999999    0.6264700000000000    0.4146950000000000 C
   0.7965900000000000    0.5523500000000000    0.4257500000000000 C
   0.8212850000000000    0.6556500000000000    0.3777250000000000 C
   0.8076950000000001    0.7254699999999999    0.3563700000000000 C
   0.8450250000000000    0.2143700000000000    0.0008300000000000 C
   0.8718399999999999    0.1764400000000000    0.0248000000000000 C
   0.8613200000000000    0.1803900000000000    0.0619100000000000 C
   0.8859200000000000    0.1418100000000000    0.0847300000000000 C
   0.9208900000000000    0.0999300000000000    0.0704900000000000 C
   0.9318700000000000    0.0959800000000000    0.0332900000000000 C
   0.9069400000000001    0.1347300000000000    0.0106000000000000 C
   0.9688300000000001    0.0511700000000000    0.0184800000000000 C
   0.9902100000000000    0.0781100000000000    0.4835000000000000 C
   0.8749150000000000    0.1442400000000000    0.1243450000000000 C
   0.9716899999999999    0.5476200000000000    0.2227000000000000 C
   0.9606500000000000    0.5500200000000000    0.2623200000000000 C
   0.9852300000000001    0.5114100000000000    0.2851650000000000 C
   0.9746900000000001    0.5154000000000000    0.3222750000000000 C
   0.9395750000000000    0.5571199999999999    0.3364150000000000 C
   0.9146600000000000    0.5958599999999999    0.3137500000000000 C
   0.9256700000000000    0.5919100000000000    0.2765450000000000 C
   0.5014800000000000    0.4775100000000000    0.3462700000000000 C
   0.8776950000000000    0.6406600000000000    0.3285500000000000 C
   0.8563200000000000    0.6137300000000000    0.3635200000000000 C
   0.5006250000000000    0.6909900000000000    0.1069850000000000 C
   0.5244900000000000    0.7447600000000000    0.0882350000000000 C
   0.5615900000000000    0.7241400000000000    0.0903850000000000 C
   0.5843550000000000    0.7734100000000000    0.0712000000000000 C
   0.5700650000000000    0.8429900000000000    0.0501650000000000 C
   0.5328500000000000    0.8645800000000000    0.0480800000000000 C
   0.5102700000000000    0.8146300000000000    0.0673050000000000 C
   0.5179750000000000    0.9382900000000000    0.0257350000000000 C
   0.9830000000000000    0.9811400000000000    0.0393250000000000 C
   0.6239850000000000    0.7517600000000000    0.0725350000000000 C
   0.7225250000000000    0.9402700000000001    0.2744900000000000 C
   0.7621599999999999    0.9184900000000000    0.2758250000000000 C
   0.7849450000000000    0.9677200000000000    0.2566300000000000 C
   0.8220450000000000    0.9470499999999999    0.2587850000000000 C
   0.8362400000000000    0.8771700000000000    0.2797000000000000 C
   0.8136500000000000    0.8272500000000000    0.2989400000000000 C
   0.7764300000000000    0.8488800000000000    0.2968550000000000 C
   0.8459449999999999    0.0007600000000000    0.2400700000000000 C
   0.8285300000000000    0.7535400000000000    0.3212850000000000 C
   0.8635100000000000    0.7106900000000000    0.3076950000000000 C
   0.6064000000000001    0.9992300000000000    0.3458100000000000 C
   0.5877300000000000    0.0475100000000000    0.3724900000000000 C
   0.5901250000000000    0.1214100000000000    0.3619400000000000 C
   0.5710400000000000    0.1673900000000000    0.3864300000000000 C
   0.5499100000000000    0.1395400000000000    0.4213300000000000 C
   0.5476100000000000    0.0654000000000000    0.4323650000000000 C
   0.5667150000000000    0.0198000000000000    0.4075300000000000 C
   0.5252450000000000    0.0361900000000000    0.4693250000000000 C
   0.5388250000000000    0.9663600000000000    0.4906750000000000 C
   0.5726350000000000    0.2463500000000000    0.3753850000000000 C
   0.9722750000000000    0.0475500000000000    0.2213850000000000 C
   0.5119250000000000    0.0501000000000000    0.2103350000000000 C
   0.5347850000000000    0.0115800000000000    0.2348950000000000 C
   0.5719050000000000    0.0156700000000000    0.2244850000000000 C
   0.5860500000000000    0.0575200000000000    0.1895300000000000 C
   0.5633700000000000    0.0961600000000000    0.1646250000000000 C
   0.5261350000000000    0.0921200000000000    0.1755050000000000 C
   0.5958450000000000    0.9779300000000000    0.2513200000000000 C
   0.5782050000000000    0.1409200000000000    0.1277800000000000 C
   0.6132600000000000    0.1138900000000000    0.1064300000000000 C
   0.8563850000000000    0.1901700000000000    0.2508200000000000 C
   0.8377749999999999    0.2441000000000000    0.2746600000000000 C
   0.8400250000000000    0.2234900000000000    0.3116650000000000 C
   0.8210200000000001    0.2729900000000000    0.3340000000000000 C
   0.8000950000000000    0.3427900000000000    0.3201450000000000 C
   0.7979050000000000    0.3643300000000000    0.2830300000000000 C
   0.8169500000000001    0.3141700000000000    0.2604850000000000 C
   0.7755600000000000    0.4381500000000000    0.2682000000000000 C
   0.7891450000000000    0.4808800000000000    0.2333350000000000 C
   0.8224100000000000    0.2513900000000000    0.3739500000000000 C
   0.5240050000000001    0.4406200000000000    0.4731550000000000 C
   0.5254100000000000    0.4190000000000000    0.0126900000000000 C
   0.5064050000000000    0.4684600000000000    0.0354450000000000 C
   0.5086850000000001    0.4478200000000000    0.0724400000000000 C
   0.5295050000000000    0.3777100000000000    0.0865500000000000 C
   0.5485449999999999    0.3275900000000000    0.0640250000000000 C
   0.5463550000000000    0.3492000000000000    0.0269100000000000 C
   0.9901200000000000    0.5016800000000000    0.0963250000000000 C
   0.5708850000000000    0.2537500000000000    0.0788100000000000 C