C2 O4
1.0
  37.7142919924012432    0.0000000000000000    3.6447605561819691
   1.2290263406271871   15.7741693358701092    7.4752977878703692
   0.0000000000000000    0.0000000000000000   19.5500000000000007
C O
2 4
direct
   0.6901966666666667    0.3599400000000000    0.0929800000000000 C
   0.7314750000000000    0.3572250000000000    0.0942600000000000 C
   0.6728499999999999    0.3200600000000000    0.1557150000000000 O
   0.6760683333333333    0.4061400000000000    0.0313500000000000 O
   0.7455583333333333    0.3149450000000000    0.1579150000000000 O
   0.7480650000000000    0.4021200000000000    0.0334650000000000 O
