H1 O1
1.0
  37.7142919924012432    0.0000000000000000    3.6447605561819691
   1.2290263406271871   15.7741693358701092    7.4752977878703692
   0.0000000000000000    0.0000000000000000   19.5500000000000007
H O
1 1
direct
   0.6870406902224331    0.3702601211553800    0.0792131370821197 H
   0.6760683333333333    0.4061400000000000    0.0313500000000000 O
