Ba96 H1 C190 O381
1.0
  37.7142919924012432    0.0000000000000000    3.6447605561819691
   1.2290263406271871   15.7741693358701092    7.4752977878703692
   0.0000000000000000    0.0000000000000000   19.5500000000000007
Ba H C O
96 1 190 381
direct
   0.7134233333333333    0.5125400000000000    0.9005449999999999 Ba
   0.7865899999999999    0.4875050000000000    0.0995100000000000 Ba
   0.7022716666666666    0.8192950000000000    0.7831250000000001 Ba
   0.9532566666666666    0.4875050000000000    0.0995100000000000 Ba
   0.8689383333333333    0.8192950000000000    0.7831250000000001 Ba
   0.6199233333333334    0.4875050000000000    0.0995100000000000 Ba
   0.5356050000000000    0.8192950000000000    0.7831250000000001 Ba
   0.1199233333333333    0.4875050000000000    0.0995100000000000 Ba
   0.0356050000000000    0.8192950000000000    0.7831250000000001 Ba
   0.4532566666666666    0.4875050000000000    0.0995100000000000 Ba
   0.3689383333333333    0.8192950000000000    0.7831250000000001 Ba
   0.2865900000000000    0.4875050000000000    0.0995100000000000 Ba
   0.2022716666666667    0.8192950000000000    0.7831250000000001 Ba
   0.0467566666666667    0.0125400000000000    0.4005450000000000 Ba
   0.1310550000000000    0.6806700000000000    0.7169300000000001 Ba
   0.2134233333333333    0.0125400000000000    0.4005450000000000 Ba
   0.2977216666666667    0.6806700000000000    0.7169300000000001 Ba
   0.3800900000000000    0.0125400000000000    0.4005450000000000 Ba
   0.4643883333333333    0.6806700000000000    0.7169300000000001 Ba
   0.5467566666666667    0.0125400000000000    0.4005450000000000 Ba
   0.6310549999999999    0.6806700000000000    0.7169300000000001 Ba
   0.8800899999999999    0.0125400000000000    0.4005450000000000 Ba
   0.9643883333333332    0.6806700000000000    0.7169300000000001 Ba
   0.7134233333333333    0.0125400000000000    0.4005450000000000 Ba
   0.7977216666666667    0.6806700000000000    0.7169300000000001 Ba
   0.7865899999999999    0.9875050000000001    0.0995100000000000 Ba
   0.7022716666666666    0.3192950000000000    0.7831250000000001 Ba
   0.9532566666666666    0.9875050000000001    0.0995100000000000 Ba
   0.8689383333333333    0.3192950000000000    0.7831250000000001 Ba
   0.6199233333333334    0.9875050000000001    0.0995100000000000 Ba
   0.5356050000000000    0.3192950000000000    0.7831250000000001 Ba
   0.1199233333333333    0.9875050000000001    0.0995100000000000 Ba
   0.0356050000000000    0.3192950000000000    0.7831250000000001 Ba
   0.4532566666666666    0.9875050000000001    0.0995100000000000 Ba
   0.3689383333333333    0.3192950000000000    0.7831250000000001 Ba
   0.2865900000000000    0.9875050000000001    0.0995100000000000 Ba
   0.2022716666666667    0.3192950000000000    0.7831250000000001 Ba
   0.8800899999999999    0.5125400000000000    0.4005450000000000 Ba
   0.9643883333333332    0.1806700000000000    0.7169300000000001 Ba
   0.7134233333333333    0.5125400000000000    0.4005450000000000 Ba
   0.7977216666666667    0.1806700000000000    0.7169300000000001 Ba
   0.5467566666666667    0.5125400000000000    0.4005450000000000 Ba
   0.6310549999999999    0.1806700000000000    0.7169300000000001 Ba
   0.0467566666666667    0.5125400000000000    0.4005450000000000 Ba
   0.1310550000000000    0.1806700000000000    0.7169300000000001 Ba
   0.2134233333333333    0.5125400000000000    0.4005450000000000 Ba
   0.2977216666666667    0.1806700000000000    0.7169300000000001 Ba
   0.3800900000000000    0.5125400000000000    0.4005450000000000 Ba
   0.4643883333333333    0.1806700000000000    0.7169300000000001 Ba
   0.7865899999999999    0.4875050000000000    0.5995100000000000 Ba
   0.7022716666666666    0.8192950000000000    0.2831250000000000 Ba
   0.9532566666666666    0.4875050000000000    0.5995100000000000 Ba
   0.8689383333333333    0.8192950000000000    0.2831250000000000 Ba
   0.6199233333333334    0.4875050000000000    0.5995100000000000 Ba
   0.5356050000000000    0.8192950000000000    0.2831250000000000 Ba
   0.4532566666666666    0.4875050000000000    0.5995100000000000 Ba
   0.3689383333333333    0.8192950000000000    0.2831250000000000 Ba
   0.1199233333333333    0.4875050000000000    0.5995100000000000 Ba
   0.0356050000000000    0.8192950000000000    0.2831250000000000 Ba
   0.2865900000000000    0.4875050000000000    0.5995100000000000 Ba
   0.2022716666666667    0.8192950000000000    0.2831250000000000 Ba
   0.2134233333333333    0.0125400000000000    0.9005449999999999 Ba
   0.2977216666666667    0.6806700000000000    0.2169300000000000 Ba
   0.3800900000000000    0.0125400000000000    0.9005449999999999 Ba
   0.4643883333333333    0.6806700000000000    0.2169300000000000 Ba
   0.5467566666666667    0.0125400000000000    0.9005449999999999 Ba
   0.6310549999999999    0.6806700000000000    0.2169300000000000 Ba
   0.0467566666666667    0.0125400000000000    0.9005449999999999 Ba
   0.1310550000000000    0.6806700000000000    0.2169300000000000 Ba
   0.8800899999999999    0.0125400000000000    0.9005449999999999 Ba
   0.9643883333333332    0.6806700000000000    0.2169300000000000 Ba
   0.7134233333333333    0.0125400000000000    0.9005449999999999 Ba
   0.7977216666666667    0.6806700000000000    0.2169300000000000 Ba
   0.7865899999999999    0.9875050000000001    0.5995100000000000 Ba
   0.7022716666666666    0.3192950000000000    0.2831250000000000 Ba
   0.9532566666666666    0.9875050000000001    0.5995100000000000 Ba
   0.8689383333333333    0.3192950000000000    0.2831250000000000 Ba
   0.6199233333333334    0.9875050000000001    0.5995100000000000 Ba
   0.5356050000000000    0.3192950000000000    0.2831250000000000 Ba
   0.1199233333333333    0.9875050000000001    0.5995100000000000 Ba
   0.0356050000000000    0.3192950000000000    0.2831250000000000 Ba
   0.2865900000000000    0.9875050000000001    0.5995100000000000 Ba
   0.2022716666666667    0.3192950000000000    0.2831250000000000 Ba
   0.4532566666666666    0.9875050000000001    0.5995100000000000 Ba
   0.3689383333333333    0.3192950000000000    0.2831250000000000 Ba
   0.8800899999999999    0.5125400000000000    0.9005449999999999 Ba
   0.9643883333333332    0.1806700000000000    0.2169300000000000 Ba
   0.7977216666666667    0.1806700000000000    0.2169300000000000 Ba
   0.5467566666666667    0.5125400000000000    0.9005449999999999 Ba
   0.6310549999999999    0.1806700000000000    0.2169300000000000 Ba
   0.0467566666666667    0.5125400000000000    0.9005449999999999 Ba
   0.1310550000000000    0.1806700000000000    0.2169300000000000 Ba
   0.2134233333333333    0.5125400000000000    0.9005449999999999 Ba
   0.2977216666666667    0.1806700000000000    0.2169300000000000 Ba
   0.3800900000000000    0.5125400000000000    0.9005449999999999 Ba
   0.4643883333333333    0.1806700000000000    0.2169300000000000 Ba
   0.6870406902224331    0.3702601211553800    0.0792131370821197 H
   0.7790950000000000    0.9090950000000000    0.8084400000000000 C
   0.8028850000000000    0.9552900000000000    0.8364300000000000 C
   0.6124283333333334    0.9090950000000000    0.8084400000000000 C
   0.6362183333333333    0.9552900000000000    0.8364300000000000 C
   0.4457616666666666    0.9090950000000000    0.8084400000000000 C
   0.4695516666666666    0.9552900000000000    0.8364300000000000 C
   0.2790950000000000    0.9090950000000000    0.8084400000000000 C
   0.3028850000000000    0.9552900000000000    0.8364300000000000 C
   0.9457616666666666    0.9090950000000000    0.8084400000000000 C
   0.9695516666666666    0.9552900000000000    0.8364300000000000 C
   0.1124283333333333    0.9090950000000000    0.8084400000000000 C
   0.1362183333333333    0.9552900000000000    0.8364300000000000 C
   0.7685283333333333    0.6427600000000000    0.9058250000000000 C
   0.8098099999999999    0.6400500000000000    0.9070549999999999 C
   0.9351949999999999    0.6427600000000000    0.9058250000000000 C
   0.9764766666666665    0.6400500000000000    0.9070549999999999 C
   0.6018616666666666    0.6427600000000000    0.9058250000000000 C
   0.6431433333333333    0.6400500000000000    0.9070549999999999 C
   0.1018616666666667    0.6427600000000000    0.9058250000000000 C
   0.1431433333333333    0.6400500000000000    0.9070549999999999 C
   0.4351950000000000    0.6427600000000000    0.9058250000000000 C
   0.4764766666666667    0.6400500000000000    0.9070549999999999 C
   0.2685283333333333    0.6427600000000000    0.9058250000000000 C
   0.3098100000000000    0.6400500000000000    0.9070549999999999 C
   0.8875566666666665    0.5908100000000001    0.6916450000000001 C
   0.8637750000000000    0.5446100000000000    0.6636400000000000 C
   0.0542233333333333    0.5908100000000001    0.6916450000000001 C
   0.0304416666666667    0.5446100000000000    0.6636400000000000 C
   0.2208900000000000    0.5908100000000001    0.6916450000000001 C
   0.1971083333333333    0.5446100000000000    0.6636400000000000 C
   0.5542233333333333    0.5908100000000001    0.6916450000000001 C
   0.5304416666666667    0.5446100000000000    0.6636400000000000 C
   0.3875566666666667    0.5908100000000001    0.6916450000000001 C
   0.3637750000000000    0.5446100000000000    0.6636400000000000 C
   0.7208899999999999    0.5908100000000001    0.6916450000000001 C
   0.6971083333333333    0.5446100000000000    0.6636400000000000 C
   0.0648083333333333    0.8572250000000000    0.5942600000000000 C
   0.0235300000000000    0.8599399999999999    0.5929800000000000 C
   0.2314750000000000    0.8572250000000000    0.5942600000000000 C
   0.1901966666666667    0.8599399999999999    0.5929800000000000 C
   0.3981416666666666    0.8572250000000000    0.5942600000000000 C
   0.3568633333333333    0.8599399999999999    0.5929800000000000 C
   0.5648083333333334    0.8572250000000000    0.5942600000000000 C
   0.5235300000000001    0.8599399999999999    0.5929800000000000 C
   0.8981416666666666    0.8572250000000000    0.5942600000000000 C
   0.8568633333333333    0.8599399999999999    0.5929800000000000 C
   0.7314750000000000    0.8572250000000000    0.5942600000000000 C
   0.6901966666666667    0.8599399999999999    0.5929800000000000 C
   0.6124283333333334    0.4090950000000000    0.8084400000000000 C
   0.6362183333333333    0.4552900000000000    0.8364300000000000 C
   0.4457616666666666    0.4090950000000000    0.8084400000000000 C
   0.4695516666666666    0.4552900000000000    0.8364300000000000 C
   0.7790950000000000    0.4090950000000000    0.8084400000000000 C
   0.8028850000000000    0.4552900000000000    0.8364300000000000 C
   0.2790950000000000    0.4090950000000000    0.8084400000000000 C
   0.3028850000000000    0.4552900000000000    0.8364300000000000 C
   0.1124283333333333    0.4090950000000000    0.8084400000000000 C
   0.1362183333333333    0.4552900000000000    0.8364300000000000 C
   0.9457616666666666    0.4090950000000000    0.8084400000000000 C
   0.9695516666666666    0.4552900000000000    0.8364300000000000 C
   0.7685283333333333    0.1427600000000000    0.9058250000000000 C
   0.8098099999999999    0.1400500000000000    0.9070549999999999 C
   0.9351949999999999    0.1427600000000000    0.9058250000000000 C
   0.9764766666666665    0.1400500000000000    0.9070549999999999 C
   0.6018616666666666    0.1427600000000000    0.9058250000000000 C
   0.6431433333333333    0.1400500000000000    0.9070549999999999 C
   0.1018616666666667    0.1427600000000000    0.9058250000000000 C
   0.1431433333333333    0.1400500000000000    0.9070549999999999 C
   0.4351950000000000    0.1427600000000000    0.9058250000000000 C
   0.4764766666666667    0.1400500000000000    0.9070549999999999 C
   0.2685283333333333    0.1427600000000000    0.9058250000000000 C
   0.3098100000000000    0.1400500000000000    0.9070549999999999 C
   0.0542233333333333    0.0908100000000000    0.6916450000000001 C
   0.0304416666666667    0.0446100000000000    0.6636400000000000 C
   0.7208899999999999    0.0908100000000000    0.6916450000000001 C
   0.6971083333333333    0.0446100000000000    0.6636400000000000 C
   0.8875566666666665    0.0908100000000000    0.6916450000000001 C
   0.8637750000000000    0.0446100000000000    0.6636400000000000 C
   0.2208900000000000    0.0908100000000000    0.6916450000000001 C
   0.1971083333333333    0.0446100000000000    0.6636400000000000 C
   0.3875566666666667    0.0908100000000000    0.6916450000000001 C
   0.3637750000000000    0.0446100000000000    0.6636400000000000 C
   0.5542233333333333    0.0908100000000000    0.6916450000000001 C
   0.5304416666666667    0.0446100000000000    0.6636400000000000 C
   0.8981416666666666    0.3572250000000000    0.5942600000000000 C
   0.8568633333333333    0.3599400000000000    0.5929800000000000 C
   0.7314750000000000    0.3572250000000000    0.5942600000000000 C
   0.6901966666666667    0.3599400000000000    0.5929800000000000 C
   0.5648083333333334    0.3572250000000000    0.5942600000000000 C
   0.5235300000000001    0.3599400000000000    0.5929800000000000 C
   0.0648083333333333    0.3572250000000000    0.5942600000000000 C
   0.0235300000000000    0.3599400000000000    0.5929800000000000 C
   0.2314750000000000    0.3572250000000000    0.5942600000000000 C
   0.1901966666666667    0.3599400000000000    0.5929800000000000 C
   0.3981416666666666    0.3572250000000000    0.5942600000000000 C
   0.3568633333333333    0.3599400000000000    0.5929800000000000 C
   0.4457616666666666    0.9090950000000000    0.3084400000000000 C
   0.4695516666666666    0.9552900000000000    0.3364300000000000 C
   0.2790950000000000    0.9090950000000000    0.3084400000000000 C
   0.3028850000000000    0.9552900000000000    0.3364300000000000 C
   0.9457616666666666    0.9090950000000000    0.3084400000000000 C
   0.9695516666666666    0.9552900000000000    0.3364300000000000 C
   0.1124283333333333    0.9090950000000000    0.3084400000000000 C
   0.1362183333333333    0.9552900000000000    0.3364300000000000 C
   0.7790950000000000    0.9090950000000000    0.3084400000000000 C
   0.8028850000000000    0.9552900000000000    0.3364300000000000 C
   0.6124283333333334    0.9090950000000000    0.3084400000000000 C
   0.6362183333333333    0.9552900000000000    0.3364300000000000 C
   0.7685283333333333    0.6427600000000000    0.4058250000000000 C
   0.8098099999999999    0.6400500000000000    0.4070550000000000 C
   0.9351949999999999    0.6427600000000000    0.4058250000000000 C
   0.9764766666666665    0.6400500000000000    0.4070550000000000 C
   0.6018616666666666    0.6427600000000000    0.4058250000000000 C
   0.6431433333333333    0.6400500000000000    0.4070550000000000 C
   0.4351950000000000    0.6427600000000000    0.4058250000000000 C
   0.4764766666666667    0.6400500000000000    0.4070550000000000 C
   0.1018616666666667    0.6427600000000000    0.4058250000000000 C
   0.1431433333333333    0.6400500000000000    0.4070550000000000 C
   0.2685283333333333    0.6427600000000000    0.4058250000000000 C
   0.3098100000000000    0.6400500000000000    0.4070550000000000 C
   0.0542233333333333    0.5908100000000001    0.1916450000000000 C
   0.0304416666666667    0.5446100000000000    0.1636400000000000 C
   0.8875566666666665    0.5908100000000001    0.1916450000000000 C
   0.8637750000000000    0.5446100000000000    0.1636400000000000 C
   0.7208899999999999    0.5908100000000001    0.1916450000000000 C
   0.6971083333333333    0.5446100000000000    0.1636400000000000 C
   0.2208900000000000    0.5908100000000001    0.1916450000000000 C
   0.1971083333333333    0.5446100000000000    0.1636400000000000 C
   0.5542233333333333    0.5908100000000001    0.1916450000000000 C
   0.5304416666666667    0.5446100000000000    0.1636400000000000 C
   0.3875566666666667    0.5908100000000001    0.1916450000000000 C
   0.3637750000000000    0.5446100000000000    0.1636400000000000 C
   0.2314750000000000    0.8572250000000000    0.0942600000000000 C
   0.1901966666666667    0.8599399999999999    0.0929800000000000 C
   0.3981416666666666    0.8572250000000000    0.0942600000000000 C
   0.3568633333333333    0.8599399999999999    0.0929800000000000 C
   0.5648083333333334    0.8572250000000000    0.0942600000000000 C
   0.5235300000000001    0.8599399999999999    0.0929800000000000 C
   0.0648083333333333    0.8572250000000000    0.0942600000000000 C
   0.0235300000000000    0.8599399999999999    0.0929800000000000 C
   0.8981416666666666    0.8572250000000000    0.0942600000000000 C
   0.8568633333333333    0.8599399999999999    0.0929800000000000 C
   0.7314750000000000    0.8572250000000000    0.0942600000000000 C
   0.6901966666666667    0.8599399999999999    0.0929800000000000 C
   0.7790950000000000    0.4090950000000000    0.3084400000000000 C
   0.8028850000000000    0.4552900000000000    0.3364300000000000 C
   0.4457616666666666    0.4090950000000000    0.3084400000000000 C
   0.4695516666666666    0.4552900000000000    0.3364300000000000 C
   0.2790950000000000    0.4090950000000000    0.3084400000000000 C
   0.3028850000000000    0.4552900000000000    0.3364300000000000 C
   0.1124283333333333    0.4090950000000000    0.3084400000000000 C
   0.1362183333333333    0.4552900000000000    0.3364300000000000 C
   0.9457616666666666    0.4090950000000000    0.3084400000000000 C
   0.9695516666666666    0.4552900000000000    0.3364300000000000 C
   0.6124283333333334    0.4090950000000000    0.3084400000000000 C
   0.6362183333333333    0.4552900000000000    0.3364300000000000 C
   0.7685283333333333    0.1427600000000000    0.4058250000000000 C
   0.8098099999999999    0.1400500000000000    0.4070550000000000 C
   0.9351949999999999    0.1427600000000000    0.4058250000000000 C
   0.9764766666666665    0.1400500000000000    0.4070550000000000 C
   0.6018616666666666    0.1427600000000000    0.4058250000000000 C
   0.6431433333333333    0.1400500000000000    0.4070550000000000 C
   0.1018616666666667    0.1427600000000000    0.4058250000000000 C
   0.1431433333333333    0.1400500000000000    0.4070550000000000 C
   0.2685283333333333    0.1427600000000000    0.4058250000000000 C
   0.3098100000000000    0.1400500000000000    0.4070550000000000 C
   0.4351950000000000    0.1427600000000000    0.4058250000000000 C
   0.4764766666666667    0.1400500000000000    0.4070550000000000 C
   0.0542233333333333    0.0908100000000000    0.1916450000000000 C
   0.0304416666666667    0.0446100000000000    0.1636400000000000 C
   0.8875566666666665    0.0908100000000000    0.1916450000000000 C
   0.8637750000000000    0.0446100000000000    0.1636400000000000 C
   0.7208899999999999    0.0908100000000000    0.1916450000000000 C
   0.6971083333333333    0.0446100000000000    0.1636400000000000 C
   0.2208900000000000    0.0908100000000000    0.1916450000000000 C
   0.1971083333333333    0.0446100000000000    0.1636400000000000 C
   0.5542233333333333    0.0908100000000000    0.1916450000000000 C
   0.5304416666666667    0.0446100000000000    0.1636400000000000 C
   0.3875566666666667    0.0908100000000000    0.1916450000000000 C
   0.3637750000000000    0.0446100000000000    0.1636400000000000 C
   0.8981416666666666    0.3572250000000000    0.0942600000000000 C
   0.8568633333333333    0.3599400000000000    0.0929800000000000 C
   0.5648083333333334    0.3572250000000000    0.0942600000000000 C
   0.5235300000000001    0.3599400000000000    0.0929800000000000 C
   0.0648083333333333    0.3572250000000000    0.0942600000000000 C
   0.0235300000000000    0.3599400000000000    0.0929800000000000 C
   0.2314750000000000    0.3572250000000000    0.0942600000000000 C
   0.1901966666666667    0.3599400000000000    0.0929800000000000 C
   0.3981416666666666    0.3572250000000000    0.0942600000000000 C
   0.3568633333333333    0.3599400000000000    0.0929800000000000 C
   0.6760683333333333    0.4061400000000000    0.0313500000000000 O
   0.7468533333333333    0.9032549999999999    0.8336049999999999 O
   0.7934850000000000    0.8823799999999999    0.7604250000000000 O
   0.8351566666666665    0.9273300000000000    0.8470700000000000 O
   0.7884899999999999    0.0207150000000000    0.8440900000000000 O
   0.5801866666666666    0.9032549999999999    0.8336049999999999 O
   0.6268183333333333    0.8823799999999999    0.7604250000000000 O
   0.6684899999999999    0.9273300000000000    0.8470700000000000 O
   0.6218233333333334    0.0207150000000000    0.8440900000000000 O
   0.4135200000000000    0.9032549999999999    0.8336049999999999 O
   0.4601516666666666    0.8823799999999999    0.7604250000000000 O
   0.5018233333333333    0.9273300000000000    0.8470700000000000 O
   0.4551566666666667    0.0207150000000000    0.8440900000000000 O
   0.2468533333333333    0.9032549999999999    0.8336049999999999 O
   0.2934850000000000    0.8823799999999999    0.7604250000000000 O
   0.3351566666666667    0.9273300000000000    0.8470700000000000 O
   0.2884900000000000    0.0207150000000000    0.8440900000000000 O
   0.9135199999999999    0.9032549999999999    0.8336049999999999 O
   0.9601516666666665    0.8823799999999999    0.7604250000000000 O
   0.0018233333333333    0.9273300000000000    0.8470700000000000 O
   0.9551566666666667    0.0207150000000000    0.8440900000000000 O
   0.0801866666666667    0.9032549999999999    0.8336049999999999 O
   0.1268183333333333    0.8823799999999999    0.7604250000000000 O
   0.1684900000000000    0.9273300000000000    0.8470700000000000 O
   0.1218233333333333    0.0207150000000000    0.8440900000000000 O
   0.7519416666666666    0.5980100000000000    0.9666850000000000 O
   0.7544316666666666    0.6848799999999999    0.8421600000000000 O
   0.8239449999999999    0.5938500000000000    0.9686750000000000 O
   0.8271466666666666    0.6799200000000000    0.8443000000000001 O
   0.9186083333333332    0.5980100000000000    0.9666850000000000 O
   0.9210983333333332    0.6848799999999999    0.8421600000000000 O
   0.9906116666666666    0.5938500000000000    0.9686750000000000 O
   0.9938133333333332    0.6799200000000000    0.8443000000000001 O
   0.5852750000000000    0.5980100000000000    0.9666850000000000 O
   0.5877650000000000    0.6848799999999999    0.8421600000000000 O
   0.6572783333333333    0.5938500000000000    0.9686750000000000 O
   0.6604800000000000    0.6799200000000000    0.8443000000000001 O
   0.0852750000000000    0.5980100000000000    0.9666850000000000 O
   0.0877650000000000    0.6848799999999999    0.8421600000000000 O
   0.1572783333333333    0.5938500000000000    0.9686750000000000 O
   0.1604800000000000    0.6799200000000000    0.8443000000000001 O
   0.4186083333333333    0.5980100000000000    0.9666850000000000 O
   0.4210983333333333    0.6848799999999999    0.8421600000000000 O
   0.4906116666666667    0.5938500000000000    0.9686750000000000 O
   0.4938133333333333    0.6799200000000000    0.8443000000000001 O
   0.2519416666666667    0.5980100000000000    0.9666850000000000 O
   0.2544316666666667    0.6848799999999999    0.8421600000000000 O
   0.3239450000000000    0.5938500000000000    0.9686750000000000 O
   0.3271466666666666    0.6799200000000000    0.8443000000000001 O
   0.9198016666666666    0.5966550000000000    0.6665050000000000 O
   0.8731566666666666    0.6175349999999999    0.7396450000000000 O
   0.8315116666666666    0.5727650000000000    0.6529000000000000 O
   0.8781833333333333    0.4791750000000000    0.6560000000000000 O
   0.0864683333333333    0.5966550000000000    0.6665050000000000 O
   0.0398233333333333    0.6175349999999999    0.7396450000000000 O
   0.9981783333333333    0.5727650000000000    0.6529000000000000 O
   0.0448500000000000    0.4791750000000000    0.6560000000000000 O
   0.2531350000000000    0.5966550000000000    0.6665050000000000 O
   0.2064900000000000    0.6175349999999999    0.7396450000000000 O
   0.1648450000000000    0.5727650000000000    0.6529000000000000 O
   0.2115166666666667    0.4791750000000000    0.6560000000000000 O
   0.5864683333333334    0.5966550000000000    0.6665050000000000 O
   0.5398233333333333    0.6175349999999999    0.7396450000000000 O
   0.4981783333333333    0.5727650000000000    0.6529000000000000 O
   0.5448500000000001    0.4791750000000000    0.6560000000000000 O
   0.4198016666666666    0.5966550000000000    0.6665050000000000 O
   0.3731566666666666    0.6175349999999999    0.7396450000000000 O
   0.3315116666666666    0.5727650000000000    0.6529000000000000 O
   0.3781833333333333    0.4791750000000000    0.6560000000000000 O
   0.7531350000000000    0.5966550000000000    0.6665050000000000 O
   0.7064900000000000    0.6175349999999999    0.7396450000000000 O
   0.6648450000000000    0.5727650000000000    0.6529000000000000 O
   0.7115166666666666    0.4791750000000000    0.6560000000000000 O
   0.0813983333333333    0.9021200000000000    0.5334650000000000 O
   0.0788916666666667    0.8149450000000000    0.6579150000000000 O
   0.0094016666666667    0.9061399999999999    0.5313500000000000 O
   0.0061833333333333    0.8200600000000000    0.6557150000000000 O
   0.2480650000000000    0.9021200000000000    0.5334650000000000 O
   0.2455583333333333    0.8149450000000000    0.6579150000000000 O
   0.1760683333333333    0.9061399999999999    0.5313500000000000 O
   0.1728500000000000    0.8200600000000000    0.6557150000000000 O
   0.4147316666666666    0.9021200000000000    0.5334650000000000 O
   0.4122250000000000    0.8149450000000000    0.6579150000000000 O
   0.3427350000000000    0.9061399999999999    0.5313500000000000 O
   0.3395166666666666    0.8200600000000000    0.6557150000000000 O
   0.5813983333333334    0.9021200000000000    0.5334650000000000 O
   0.5788916666666667    0.8149450000000000    0.6579150000000000 O
   0.5094016666666666    0.9061399999999999    0.5313500000000000 O
   0.5061833333333333    0.8200600000000000    0.6557150000000000 O
   0.9147316666666666    0.9021200000000000    0.5334650000000000 O
   0.9122250000000000    0.8149450000000000    0.6579150000000000 O
   0.8427349999999999    0.9061399999999999    0.5313500000000000 O
   0.8395166666666666    0.8200600000000000    0.6557150000000000 O
   0.7480650000000000    0.9021200000000000    0.5334650000000000 O
   0.7455583333333333    0.8149450000000000    0.6579150000000000 O
   0.6760683333333333    0.9061399999999999    0.5313500000000000 O
   0.6728499999999999    0.8200600000000000    0.6557150000000000 O
   0.5801866666666666    0.4032550000000000    0.8336049999999999 O
   0.6268183333333333    0.3823800000000000    0.7604250000000000 O
   0.6684899999999999    0.4273300000000000    0.8470700000000000 O
   0.6218233333333334    0.5207150000000000    0.8440900000000000 O
   0.4135200000000000    0.4032550000000000    0.8336049999999999 O
   0.4601516666666666    0.3823800000000000    0.7604250000000000 O
   0.5018233333333333    0.4273300000000000    0.8470700000000000 O
   0.4551566666666667    0.5207150000000000    0.8440900000000000 O
   0.7468533333333333    0.4032550000000000    0.8336049999999999 O
   0.7934850000000000    0.3823800000000000    0.7604250000000000 O
   0.8351566666666665    0.4273300000000000    0.8470700000000000 O
   0.7884899999999999    0.5207150000000000    0.8440900000000000 O
   0.2468533333333333    0.4032550000000000    0.8336049999999999 O
   0.2934850000000000    0.3823800000000000    0.7604250000000000 O
   0.3351566666666667    0.4273300000000000    0.8470700000000000 O
   0.2884900000000000    0.5207150000000000    0.8440900000000000 O
   0.0801866666666667    0.4032550000000000    0.8336049999999999 O
   0.1268183333333333    0.3823800000000000    0.7604250000000000 O
   0.1684900000000000    0.4273300000000000    0.8470700000000000 O
   0.1218233333333333    0.5207150000000000    0.8440900000000000 O
   0.9135199999999999    0.4032550000000000    0.8336049999999999 O
   0.9601516666666665    0.3823800000000000    0.7604250000000000 O
   0.0018233333333333    0.4273300000000000    0.8470700000000000 O
   0.9551566666666667    0.5207150000000000    0.8440900000000000 O
   0.7519416666666666    0.0980100000000000    0.9666850000000000 O
   0.7544316666666666    0.1848800000000000    0.8421600000000000 O
   0.8239449999999999    0.0938500000000000    0.9686750000000000 O
   0.8271466666666666    0.1799200000000000    0.8443000000000001 O
   0.9186083333333332    0.0980100000000000    0.9666850000000000 O
   0.9210983333333332    0.1848800000000000    0.8421600000000000 O
   0.9906116666666666    0.0938500000000000    0.9686750000000000 O
   0.9938133333333332    0.1799200000000000    0.8443000000000001 O
   0.5852750000000000    0.0980100000000000    0.9666850000000000 O
   0.5877650000000000    0.1848800000000000    0.8421600000000000 O
   0.6572783333333333    0.0938500000000000    0.9686750000000000 O
   0.6604800000000000    0.1799200000000000    0.8443000000000001 O
   0.0852750000000000    0.0980100000000000    0.9666850000000000 O
   0.0877650000000000    0.1848800000000000    0.8421600000000000 O
   0.1572783333333333    0.0938500000000000    0.9686750000000000 O
   0.1604800000000000    0.1799200000000000    0.8443000000000001 O
   0.4186083333333333    0.0980100000000000    0.9666850000000000 O
   0.4210983333333333    0.1848800000000000    0.8421600000000000 O
   0.4906116666666667    0.0938500000000000    0.9686750000000000 O
   0.4938133333333333    0.1799200000000000    0.8443000000000001 O
   0.2519416666666667    0.0980100000000000    0.9666850000000000 O
   0.2544316666666667    0.1848800000000000    0.8421600000000000 O
   0.3239450000000000    0.0938500000000000    0.9686750000000000 O
   0.3271466666666666    0.1799200000000000    0.8443000000000001 O
   0.0864683333333333    0.0966550000000000    0.6665050000000000 O
   0.0398233333333333    0.1175350000000000    0.7396450000000000 O
   0.9981783333333333    0.0727650000000000    0.6529000000000000 O
   0.0448500000000000    0.9791750000000000    0.6560000000000000 O