H24 C33 O12
1.0
  13.2977256409141660    0.0000000000000000   -2.1030600987546513
   2.0213038348030530   13.0607389171363284   -0.4534376978274069
   0.0000000000000000    0.0000000000000000   39.7139999999999986
H C O
24 33 12
direct
   0.5069399999999999    0.1251000000000000    0.6307733333333333 H
   0.3560800000000000    0.2232000000000000    0.5968000000000000 H
   0.6258700000000000    0.7311299999999999    0.6389266666666666 H
   0.6899700000000000    0.5967800000000000    0.6001633333333334 H
   0.4935200000000000    0.0000000000000000    0.7370133333333333 H
   0.4500000000000000    0.9231000000000000    0.7101666666666666 H
   0.6289000000000000    0.8840700000000000    0.6705833333333333 H
   0.5754500000000000    0.7862100000000000    0.6885666666666667 H
   0.5989700000000000    0.8935400000000000    0.7771966666666666 H
   0.6964000000000000    0.8017700000000000    0.7629166666666667 H
   0.7013900000000000    0.0000000000000000    0.7107033333333332 H
   0.7725800000000000    0.9219400000000000    0.7380333333333333 H
   0.3206200000000000    0.0541100000000000    0.7035833333333333 H
   0.1685900000000000    0.1498000000000000    0.6666666666666666 H
   0.9042400000000000    0.6638500000000001    0.7099299999999999 H
   0.9723600000000000    0.5321500000000000    0.6690433333333333 H
   0.4505500000000000    0.6164300000000000    0.7430699999999999 H
   0.6627100000000000    0.7657000000000000    0.8129266666666666 H
   0.4569600000000000    0.4833500000000000    0.7871433333333333 H
   0.6689500000000000    0.6329200000000000    0.8555066666666666 H
   0.8858600000000000    0.9946800000000000    0.7599100000000000 H
   0.6459200000000000    0.1497100000000000    0.8122166666666666 H
   0.0000000000000000    0.0591900000000000    0.8035866666666667 H
   0.7756500000000000    0.2181500000000000    0.8548633333333333 H
   0.4328700000000000    0.1309400000000000    0.6390400000000001 C
   0.2431500000000000    0.1432400000000000    0.6602033333333333 C
   0.3476800000000000    0.1850800000000000    0.6198100000000000 C
   0.2513400000000000    0.1914900000000000    0.6300066666666666 C
   0.1597600000000000    0.2492100000000000    0.6100466666666666 C
   0.7009300000000001    0.6869100000000000    0.6462066666666666 C
   0.7375800000000000    0.6102900000000000    0.6242333333333333 C
   0.8961600000000000    0.5754600000000000    0.6629600000000000 C
   0.8351800000000000    0.5543200000000000    0.6322033333333332 C
   0.8765100000000000    0.4750700000000000    0.6085566666666666 C
   0.6144300000000000    0.9062800000000000    0.7241466666666666 C
   0.5095499999999999    0.9724500000000000    0.7154900000000000 C
   0.6336200000000000    0.8371700000000000    0.6932966666666667 C
   0.6183300000000000    0.8424400000000000    0.7559633333333333 C
   0.6995200000000000    0.9728700000000000    0.7324566666666666 C
   0.4235400000000000    0.0826100000000000    0.6690533333333333 C
   0.3283200000000000    0.0891700000000000    0.6798999999999999 C
   0.7615800000000000    0.7053800000000000    0.6771333333333333 C
   0.8592100000000000    0.6487100000000000    0.6855599999999999 C
   0.5559300000000000    0.6991900000000000    0.7749933333333333 C
   0.4973100000000000    0.6197700000000000    0.7679866666666666 C
   0.6172299999999999    0.7046500000000000    0.8067700000000000 C
   0.5013300000000001    0.5458400000000000    0.7924366666666667 C
   0.6206500000000000    0.6300300000000000    0.8309299999999999 C
   0.5635200000000000    0.5498000000000000    0.8242233333333333 C
   0.5717800000000000    0.4706800000000000    0.8507433333333333 C
   0.7570800000000000    0.0680500000000000    0.7834700000000000 C
   0.8607600000000000    0.0421500000000000    0.7808266666666667 C
   0.7267600000000000    0.1307700000000000    0.8103333333333333 C
   0.9330000000000001    0.0789600000000000    0.8052699999999999 C
   0.7992400000000000    0.1685100000000000    0.8342033333333333 C
   0.9035100000000000    0.1432300000000000    0.8319166666666666 C
   0.9800500000000000    0.1897900000000000    0.8559766666666666 C
   0.0733900000000000    0.2568200000000000    0.6185333333333334 O
   0.1704700000000000    0.2981900000000000    0.5823333333333334 O
   0.8217500000000000    0.4122600000000000    0.5924799999999999 O
  -0.0308600000000000    0.4708400000000000    0.6046700000000000 O
   0.5122500000000000    0.0307400000000000    0.6858833333333333 O
   0.7329400000000000    0.7775400000000000    0.7007333333333333 O
   0.5493900000000000    0.7688600000000000    0.7494866666666666 O
   0.6789300000000000    0.0359800000000000    0.7614566666666667 O
   0.5227900000000000    0.3956100000000000    0.8442366666666666 O
   0.6299700000000000    0.4848600000000000    0.8787666666666666 O
   0.0747900000000000    0.1562400000000000    0.8549000000000000 O
  -0.0537500000000000    0.2612000000000000    0.8755533333333333 O
