H12 O8
1.0
  13.2977256409141660    0.0000000000000000   -2.1030600987546513
   2.0213038348030530   13.0607389171363284   -0.4534376978274069
   0.0000000000000000    0.0000000000000000   39.7139999999999986
H O
12 8
direct
   0.1649200028185924    0.3538772455326492    0.1519899298338094 H
  -0.0206394884959136    0.5323295547490721    0.2038120472347172 H
   0.0694460087585247    0.4543166158385192    0.1750635606630835 H
   0.4454690508843712    0.1416761814316100    0.1655224770098238 H
   0.5209936418949002    0.1518575969205649    0.1636463467358568 H
   0.2926985962529904    0.1683976764196907    0.1825536841950329 H
   0.3744757854313503    0.3673315550146243    0.9086763921615383 H
   0.5974263497822444    0.4728638166433595    0.9682720714720976 H
   0.4788964590585610    0.4273774468443376    0.9422383292724076 H
   0.7393491550560261    0.2531057820814958    0.8965638047780383 H
   0.6318163981523696    0.1434511662050330    0.9108231865958539 H
   0.5516523650458162    0.0804262584211150    0.9200824280155695 H
   0.1299100000000000    0.3636900000000000    0.1717000000000000 O
   0.0226600000000000    0.4674300000000000    0.2014033333333333 O
   0.4691100000000000    0.1857400000000000    0.1763700000000000 O
   0.3217200000000000    0.2224900000000000    0.1958700000000000 O
   0.4463000000000000    0.3731700000000000    0.9128933333333333 O
   0.5747600000000000    0.4351700000000000    0.9478666666666666 O
   0.6701900000000000    0.2527000000000000    0.9006000000000000 O
   0.5736700000000000    0.1431100000000000    0.9142166666666667 O
