H23 C33 O12
1.0
  13.2977256409141660    0.0000000000000000   -2.1030600987546513
   2.0213038348030530   13.0607389171363284   -0.4534376978274069
   0.0000000000000000    0.0000000000000000   39.7139999999999986
H C O
23 33 12
direct
   0.9500300000000000    0.8694700000000000    0.0256433333333333 H
   0.1288900000000000    0.9883700000000000    0.0386466666666667 H
   0.0753800000000000    0.9343300000000000    0.0712200000000000 H
   0.0989600000000000    0.6681900000000000    0.0355166666666667 H
   0.1963700000000000    0.7111100000000000    0.0660700000000000 H
   0.2725900000000000    0.7856700000000000    0.0260333333333333 H
   0.1257300000000000    0.0833100000000000    0.0896633333333333 H
   0.4041800000000000    0.8700300000000000    0.1119266666666667 H
   0.1898400000000000    0.1995400000000000    0.1344566666666667 H
   0.4723100000000000    0.9926400000000000    0.1558466666666667 H
   0.9504300000000000    0.7710900000000001    0.1277600000000000 H
   0.1626300000000000    0.5610400000000000    0.0781266666666667 H
   0.9568400000000000    0.6389100000000000    0.1720000000000000 H
   0.3858300000000000    0.7203400000000000    0.0000000000000000 H
   0.9935200000000000    0.7887700000000000    0.9921199999999999 H
   0.2014900000000000    0.8679500000000000    0.9928933333333333 H
   0.8208400000000000    0.8889600000000000    0.9820633333333333 H
   0.0000000000000000    0.1076300000000000    0.9582566666666666 H
   0.6687600000000000    0.9948600000000000    0.9500899999999999 H
   0.8560300000000000    0.2094100000000000    0.9255266666666666 H
   0.1459100000000000    0.5631900000000000    0.9501266666666666 H
   0.5136800000000000    0.5892800000000000    0.9801633333333333 H
   0.2756400000000000    0.4352300000000000    0.9272733333333333 H
   0.1144400000000000    0.8274899999999999    0.0312466666666667 C
   0.0096000000000000    0.8534500000000000    0.0092133333333333 C
   0.1335800000000000    0.9201400000000000    0.0542566666666667 C
   0.1183200000000000    0.7319900000000000    0.0525000000000000 C
   0.1995500000000000    0.8025500000000000    0.0090766666666667 C
   0.2615000000000000    0.9685500000000000    0.0981733333333333 C
   0.2008100000000000    0.0614100000000000    0.1043733333333333 C
   0.3591500000000000    0.9431800000000000    0.1170166666666667 C
   0.2374600000000000    0.1272900000000000    0.1299166666666667 C
   0.3960900000000000    0.0109800000000000    0.1414366666666667 C
   0.3350800000000000    0.1032900000000000    0.1485300000000000 C
   0.3764500000000000    0.1741900000000000    0.1749466666666666 C
   0.0558500000000000    0.6750600000000000    0.1002366666666667 C
   0.9972000000000000    0.6962400000000000    0.1266766666666667 C
   0.1171500000000000    0.5796200000000000    0.0984533333333333 C
   0.0000000000000000    0.6229100000000000    0.1513266666666667 C
   0.1205700000000000    0.5071700000000000    0.1000000000000000 C
   0.0634200000000000    0.5274400000000000    0.1500400000000000 C
   0.0716800000000000    0.4478600000000000    0.1764066666666667 C
   0.9236500000000000    0.9926800000000000    0.9724833333333333 C
   0.8284800000000000    0.9599800000000001    0.9703299999999999 C
   0.9329000000000000    0.0827600000000000    0.9563333333333333 C
   0.7432900000000000    0.0190200000000000    0.9522699999999999 C
   0.8477000000000000    0.1403700000000000    0.9382666666666666 C
   0.7514300000000000    0.1096300000000000    0.9361466666666667 C
   0.6597800000000000    0.1692100000000000    0.9168600000000000 C
   0.2570700000000000    0.6495300000000001    0.9773033333333333 C
   0.3607300000000000    0.6575299999999999    0.9858666666666667 C
   0.2267500000000000    0.5683900000000000    0.9563999999999999 C
   0.4329700000000000    0.5841800000000000    0.9735999999999999 C
   0.2992300000000000    0.4972700000000000    0.9438033333333333 C
   0.4034900000000000    0.5041700000000000    0.9521999999999999 C
   0.4800500000000000    0.4319500000000000    0.9366666666666666 C
   0.2328800000000000    0.8977600000000000    0.0741200000000000 O
   0.0493400000000000    0.7515600000000000    0.0770066666666667 O
   0.3217200000000000    0.2224900000000000    0.1958700000000000 O
   0.4691100000000000    0.1857400000000000    0.1763700000000000 O
   0.0226600000000000    0.4674300000000000    0.2014033333333333 O
   0.1299100000000000    0.3636900000000000    0.1717000000000000 O
   0.0123700000000000    0.9422600000000000    0.9897799999999999 O
   0.1789300000000000    0.7155700000000000    0.9880300000000000 O
   0.5736700000000000    0.1431100000000000    0.9142166666666667 O
   0.6701900000000000    0.2527000000000000    0.9006000000000000 O
   0.5747600000000000    0.4351700000000000    0.9478666666666666 O
   0.4463000000000000    0.3731700000000000    0.9128933333333333 O
