H12 O8
1.0
  13.2977256409141660    0.0000000000000000   -2.1030600987546513
   2.0213038348030530   13.0607389171363284   -0.4534376978274069
   0.0000000000000000    0.0000000000000000   39.7139999999999986
H O
12 8
direct
   0.2377808474456063    0.2913861127274684    0.5758663945806709 H
   0.0647539995470052    0.2211241545881265    0.6385630085191525 H
   0.1583827402647315    0.2482287989426652    0.6103675938341073 H
  -0.0544883279953290    0.5032629004854996    0.6194016321562130 H
   0.0210430380116020    0.5090046993496229    0.6159603653813400 H
   0.7927730710474303    0.4520222753497534    0.6105463421648100 H
   0.6649801394649422    0.5440477217888375    0.8820378759357702 H
   0.4795151694629313    0.3883363945426273    0.8226262329657559 H
   0.5695780790004399    0.4747093650763727    0.8486083601260158 H
  -0.1255728422002052    0.2738349618625681    0.8775032327298110 H
   0.0974920063164049    0.0949721043152640    0.8423460388755774 H
  -0.0211096070572984    0.1731105086109885    0.8575035531342833 H
   0.1704700000000000    0.2981900000000000    0.5823333333333334 O
   0.0733900000000000    0.2568200000000000    0.6185333333333334 O
  -0.0308600000000000    0.4708400000000000    0.6046700000000000 O
   0.8217500000000000    0.4122600000000000    0.5924799999999999 O
   0.6299700000000000    0.4848600000000000    0.8787666666666666 O
   0.5227900000000000    0.3956100000000000    0.8442366666666666 O
  -0.0537500000000000    0.2612000000000000    0.8755533333333333 O
   0.0747900000000000    0.1562400000000000    0.8549000000000000 O
