Zn12 H121 C165 O60
1.0
  13.2977256409141660    0.0000000000000000   -2.1030600987546513
   2.0213038348030530   13.0607389171363284   -0.4534376978274069
   0.0000000000000000    0.0000000000000000   39.7139999999999986
Zn H C O
12 121 165 60
direct
   0.1787700000000000    0.2444700000000000    0.2013966666666667 Zn
   0.5129200000000000    0.2874300000000000    0.2116400000000000 Zn
   0.6787700000000000    0.3957300000000000    0.2518233333333333 Zn
   0.0129000000000000    0.3650700000000000    0.2373866666666667 Zn
   0.1787700000000000    0.2444700000000000    0.5347299999999999 Zn
   0.5129200000000000    0.2874300000000000    0.5449733333333333 Zn
   0.6787700000000000    0.3957300000000000    0.5851566666666665 Zn
   0.0129000000000000    0.3650700000000000    0.5707200000000000 Zn
   0.1787700000000000    0.2444700000000000    0.8680633333333333 Zn
   0.5129200000000000    0.2874300000000000    0.8783066666666666 Zn
   0.6787700000000000    0.3957300000000000    0.9184899999999999 Zn
   0.0129000000000000    0.3650700000000000    0.9040533333333333 Zn
   0.4935200000000000    0.0000000000000000    0.0703466666666667 H
   0.4500000000000000    0.9231000000000000    0.0435000000000000 H
   0.6289000000000000    0.8840700000000000    0.0039166666666667 H
   0.5754500000000000    0.7862100000000000    0.0219000000000000 H
   0.5989700000000000    0.8935400000000000    0.1105300000000000 H
   0.6964000000000000    0.8017700000000000    0.0962500000000000 H
   0.7013900000000000    0.0000000000000000    0.0440366666666667 H
   0.7725800000000000    0.9219400000000000    0.0713666666666667 H
   0.3206200000000000    0.0541100000000000    0.0369166666666667 H
   0.5069399999999999    0.1251000000000000    0.2974400000000000 H
   0.1685900000000000    0.1498000000000000    0.0000000000000000 H
   0.3560800000000000    0.2232000000000000    0.2634666666666666 H
   0.6258700000000000    0.7311299999999999    0.3055933333333333 H
   0.9042400000000000    0.6638500000000001    0.0432633333333333 H
   0.6899700000000000    0.5967800000000000    0.2668300000000000 H
   0.9723600000000000    0.5321500000000000    0.0023766666666667 H
   0.4505500000000000    0.6164300000000000    0.0764033333333333 H
   0.6627100000000000    0.7657000000000000    0.1462600000000000 H
   0.4569600000000000    0.4833500000000000    0.1204766666666666 H
   0.6689500000000000    0.6329200000000000    0.1888400000000000 H
   0.8858600000000000    0.9946800000000000    0.0932433333333333 H
   0.6459200000000000    0.1497100000000000    0.1455500000000000 H
   0.0000000000000000    0.0591900000000000    0.1369200000000000 H
   0.7756500000000000    0.2181500000000000    0.1881966666666667 H
   0.9935200000000000    0.7887700000000000    0.3254533333333333 H
   0.2014900000000000    0.8679500000000000    0.3262266666666667 H
   0.8208400000000000    0.8889600000000000    0.3153966666666667 H
   0.0000000000000000    0.1076300000000000    0.2915900000000000 H
   0.6687600000000000    0.9948600000000000    0.2834233333333333 H
   0.8560300000000000    0.2094100000000000    0.2588600000000000 H
   0.1688800000000000    0.4333500000000000    0.1224000000000000 H
   0.1459100000000000    0.5631900000000000    0.2834600000000000 H
   0.5136800000000000    0.5892800000000000    0.3134966666666666 H
   0.2756400000000000    0.4352300000000000    0.2606066666666667 H
   0.4935200000000000    0.0000000000000000    0.4036800000000000 H
   0.4500000000000000    0.9231000000000000    0.3768333333333333 H
   0.6289000000000000    0.8840700000000000    0.3372500000000000 H
   0.5754500000000000    0.7862100000000000    0.3552333333333333 H
   0.5989700000000000    0.8935400000000000    0.4438633333333333 H
   0.6964000000000000    0.8017700000000000    0.4295833333333333 H
   0.7013900000000000    0.0000000000000000    0.3773700000000000 H
   0.7725800000000000    0.9219400000000000    0.4046999999999999 H
   0.3206200000000000    0.0541100000000000    0.3702500000000000 H
   0.5069399999999999    0.1251000000000000    0.6307733333333333 H
   0.1685900000000000    0.1498000000000000    0.3333333333333333 H
   0.3560800000000000    0.2232000000000000    0.5968000000000000 H
   0.6258700000000000    0.7311299999999999    0.6389266666666666 H
   0.9042400000000000    0.6638500000000001    0.3765966666666666 H
   0.6899700000000000    0.5967800000000000    0.6001633333333334 H
   0.9723600000000000    0.5321500000000000    0.3357100000000000 H
   0.4505500000000000    0.6164300000000000    0.4097366666666666 H
   0.6627100000000000    0.7657000000000000    0.4795933333333333 H
   0.4569600000000000    0.4833500000000000    0.4538099999999999 H
   0.6689500000000000    0.6329200000000000    0.5221733333333334 H
   0.8858600000000000    0.9946800000000000    0.4265766666666666 H
   0.6459200000000000    0.1497100000000000    0.4788833333333333 H
   0.0000000000000000    0.0591900000000000    0.4702533333333333 H
   0.7756500000000000    0.2181500000000000    0.5215300000000000 H
   0.9935200000000000    0.7887700000000000    0.6587866666666666 H
   0.9500300000000000    0.8694700000000000    0.3589766666666667 H
   0.1288900000000000    0.9883700000000000    0.3719800000000000 H
   0.0753800000000000    0.9343300000000000    0.4045533333333333 H
   0.0989600000000000    0.6681900000000000    0.3688500000000000 H
   0.1963700000000000    0.7111100000000000    0.3994033333333333 H
   0.2014900000000000    0.8679500000000000    0.6595599999999999 H
   0.2725900000000000    0.7856700000000000    0.3593666666666667 H
   0.8208400000000000    0.8889600000000000    0.6487300000000000 H
   0.0000000000000000    0.1076300000000000    0.6249233333333333 H
   0.6687600000000000    0.9948600000000000    0.6167566666666666 H
   0.8560300000000000    0.2094100000000000    0.5921933333333333 H
   0.1257300000000000    0.0833100000000000    0.4229966666666666 H
   0.4041800000000000    0.8700300000000000    0.4452600000000000 H
   0.1898400000000000    0.1995400000000000    0.4677900000000000 H
   0.4723100000000000    0.9926400000000000    0.4891799999999999 H
   0.9504300000000000    0.7710900000000001    0.4610933333333333 H
   0.1626300000000000    0.5610400000000000    0.4114600000000000 H
   0.9568400000000000    0.6389100000000000    0.5053333333333333 H
   0.1688800000000000    0.4333500000000000    0.4557333333333333 H
   0.3858300000000000    0.7203400000000000    0.3333333333333333 H
   0.1459100000000000    0.5631900000000000    0.6167933333333333 H
   0.5136800000000000    0.5892800000000000    0.6468300000000000 H
   0.2756400000000000    0.4352300000000000    0.5939399999999999 H
   0.4935200000000000    0.0000000000000000    0.7370133333333333 H
   0.4500000000000000    0.9231000000000000    0.7101666666666666 H
   0.6289000000000000    0.8840700000000000    0.6705833333333333 H
   0.5754500000000000    0.7862100000000000    0.6885666666666667 H
   0.5989700000000000    0.8935400000000000    0.7771966666666666 H
   0.6964000000000000    0.8017700000000000    0.7629166666666667 H
   0.7013900000000000    0.0000000000000000    0.7107033333333332 H
   0.7725800000000000    0.9219400000000000    0.7380333333333333 H
   0.3206200000000000    0.0541100000000000    0.7035833333333333 H
   0.5069399999999999    0.1251000000000000    0.9641066666666667 H
   0.1685900000000000    0.1498000000000000    0.6666666666666666 H
   0.3560800000000000    0.2232000000000000    0.9301333333333333 H
   0.6258700000000000    0.7311299999999999    0.9722599999999999 H
   0.9042400000000000    0.6638500000000001    0.7099299999999999 H
   0.6899700000000000    0.5967800000000000    0.9334966666666666 H
   0.9723600000000000    0.5321500000000000    0.6690433333333333 H
   0.4505500000000000    0.6164300000000000    0.7430699999999999 H
   0.6627100000000000    0.7657000000000000    0.8129266666666666 H
   0.4569600000000000    0.4833500000000000    0.7871433333333333 H
   0.6689500000000000    0.6329200000000000    0.8555066666666666 H
   0.8858600000000000    0.9946800000000000    0.7599100000000000 H
   0.6459200000000000    0.1497100000000000    0.8122166666666666 H
   0.0000000000000000    0.0591900000000000    0.8035866666666667 H
   0.7756500000000000    0.2181500000000000    0.8548633333333333 H
   0.9500300000000000    0.8694700000000000    0.6923100000000000 H
   0.1288900000000000    0.9883700000000000    0.7053133333333332 H
   0.0753800000000000    0.9343300000000000    0.7378866666666666 H
   0.0989600000000000    0.6681900000000000    0.7021833333333333 H
   0.1963700000000000    0.7111100000000000    0.7327366666666666 H
   0.2725900000000000    0.7856700000000000    0.6927000000000000 H
   0.1257300000000000    0.0833100000000000    0.7563299999999999 H
   0.4041800000000000    0.8700300000000000    0.7785933333333332 H
   0.1898400000000000    0.1995400000000000    0.8011233333333333 H
   0.4723100000000000    0.9926400000000000    0.8225133333333333 H
   0.9504300000000000    0.7710900000000001    0.7944266666666666 H
   0.1626300000000000    0.5610400000000000    0.7447933333333333 H
   0.9568400000000000    0.6389100000000000    0.8386666666666667 H
   0.1688800000000000    0.4333500000000000    0.7890666666666666 H
   0.3858300000000000    0.7203400000000000    0.6666666666666666 H
   0.6144300000000000    0.9062800000000000    0.0574800000000000 C
   0.5095499999999999    0.9724500000000000    0.0488233333333333 C
   0.6336200000000000    0.8371700000000000    0.0266300000000000 C
   0.6183300000000000    0.8424400000000000    0.0892966666666667 C
   0.6995200000000000    0.9728700000000000    0.0657900000000000 C
   0.4235400000000000    0.0826100000000000    0.0023866666666667 C
   0.3283200000000000    0.0891700000000000    0.0132333333333333 C
   0.4328700000000000    0.1309400000000000    0.3057066666666667 C
   0.2431500000000000    0.1432400000000000    0.3268700000000000 C
   0.3476800000000000    0.1850800000000000    0.2864766666666667 C
   0.2513400000000000    0.1914900000000000    0.2966733333333333 C
   0.1597600000000000    0.2492100000000000    0.2767133333333333 C
   0.7615800000000000    0.7053800000000000    0.0104666666666667 C
   0.7009300000000001    0.6869100000000000    0.3128733333333333 C
   0.8592100000000000    0.6487100000000000    0.0188933333333333 C
   0.7375800000000000    0.6102900000000000    0.2909000000000000 C
   0.8961600000000000    0.5754600000000000    0.3296266666666666 C
   0.8351800000000000    0.5543200000000000    0.2988700000000000 C
   0.8765100000000000    0.4750700000000000    0.2752233333333333 C
   0.5559300000000000    0.6991900000000000    0.1083266666666667 C
   0.4973100000000000    0.6197700000000000    0.1013200000000000 C
   0.6172299999999999    0.7046500000000000    0.1401033333333333 C
   0.5013300000000001    0.5458400000000000    0.1257700000000000 C
   0.6206500000000000    0.6300300000000000    0.1642633333333333 C
   0.5635200000000000    0.5498000000000000    0.1575566666666667 C
   0.5717800000000000    0.4706800000000000    0.1840766666666667 C
   0.7570800000000000    0.0680500000000000    0.1168033333333333 C
   0.8607600000000000    0.0421500000000000    0.1141600000000000 C
   0.7267600000000000    0.1307700000000000    0.1436666666666667 C
   0.9330000000000001    0.0789600000000000    0.1386033333333333 C
   0.7992400000000000    0.1685100000000000    0.1675366666666667 C
   0.9035100000000000    0.1432300000000000    0.1652500000000000 C
   0.9800500000000000    0.1897900000000000    0.1893100000000000 C
   0.9236500000000000    0.9926800000000000    0.3058166666666666 C
   0.8284800000000000    0.9599800000000001    0.3036633333333333 C
   0.9329000000000000    0.0827600000000000    0.2896666666666666 C
   0.7432900000000000    0.0190200000000000    0.2856033333333333 C
   0.8477000000000000    0.1403700000000000    0.2716000000000000 C
   0.7514300000000000    0.1096300000000000    0.2694800000000000 C
   0.6597800000000000    0.1692100000000000    0.2501933333333333 C
   0.2570700000000000    0.6495300000000001    0.3106366666666667 C
   0.3607300000000000    0.6575299999999999    0.3192000000000000 C
   0.2267500000000000    0.5683900000000000    0.2897333333333333 C
   0.4329700000000000    0.5841800000000000    0.3069333333333333 C
   0.2992300000000000    0.4972700000000000    0.2771366666666666 C
   0.4034900000000000    0.5041700000000000    0.2855333333333333 C
   0.4800500000000000    0.4319500000000000    0.2700000000000000 C
   0.6144300000000000    0.9062800000000000    0.3908133333333333 C
   0.5095499999999999    0.9724500000000000    0.3821566666666666 C
   0.6336200000000000    0.8371700000000000    0.3599633333333333 C
   0.6183300000000000    0.8424400000000000    0.4226300000000000 C
   0.6995200000000000    0.9728700000000000    0.3991233333333333 C
   0.4235400000000000    0.0826100000000000    0.3357200000000000 C
   0.3283200000000000    0.0891700000000000    0.3465666666666666 C
   0.4328700000000000    0.1309400000000000    0.6390400000000001 C
   0.2431500000000000    0.1432400000000000    0.6602033333333333 C
   0.3476800000000000    0.1850800000000000    0.6198100000000000 C
   0.2513400000000000    0.1914900000000000    0.6300066666666666 C
   0.1597600000000000    0.2492100000000000    0.6100466666666666 C
   0.7615800000000000    0.7053800000000000    0.3438000000000000 C
   0.7009300000000001    0.6869100000000000    0.6462066666666666 C
   0.8592100000000000    0.6487100000000000    0.3522266666666666 C
   0.7375800000000000    0.6102900000000000    0.6242333333333333 C
   0.8961600000000000    0.5754600000000000    0.6629600000000000 C
   0.8351800000000000    0.5543200000000000    0.6322033333333332 C
   0.8765100000000000    0.4750700000000000    0.6085566666666666 C
   0.5559300000000000    0.6991900000000000    0.4416599999999999 C
   0.4973100000000000    0.6197700000000000    0.4346533333333333 C
   0.6172299999999999    0.7046500000000000    0.4734366666666666 C
   0.5013300000000001    0.5458400000000000    0.4591033333333333 C
   0.6206500000000000    0.6300300000000000    0.4975966666666666 C
   0.5635200000000000    0.5498000000000000    0.4908899999999999 C
   0.5717800000000000    0.4706800000000000    0.5174099999999999 C
   0.7570800000000000    0.0680500000000000    0.4501366666666666 C
   0.8607600000000000    0.0421500000000000    0.4474933333333333 C
   0.7267600000000000    0.1307700000000000    0.4770000000000000 C
   0.9330000000000001    0.0789600000000000    0.4719366666666667 C
   0.7992400000000000    0.1685100000000000    0.5008699999999999 C
   0.9035100000000000    0.1432300000000000    0.4985833333333333 C
   0.9800500000000000    0.1897900000000000    0.5226433333333333 C
   0.1144400000000000    0.8274899999999999    0.3645800000000000 C
   0.0096000000000000    0.8534500000000000    0.3425466666666667 C
   0.1335800000000000    0.9201400000000000    0.3875900000000000 C
   0.1183200000000000    0.7319900000000000    0.3858333333333333 C
   0.1995500000000000    0.8025500000000000    0.3424100000000000 C
   0.9236500000000000    0.9926800000000000    0.6391499999999999 C
   0.8284800000000000    0.9599800000000001    0.6369966666666667 C
   0.9329000000000000    0.0827600000000000    0.6230000000000000 C
   0.7432900000000000    0.0190200000000000    0.6189366666666667 C
   0.8477000000000000    0.1403700000000000    0.6049333333333333 C
   0.7514300000000000    0.1096300000000000    0.6028133333333333 C
   0.6597800000000000    0.1692100000000000    0.5835266666666666 C
   0.2615000000000000    0.9685500000000000    0.4315066666666666 C
   0.2008100000000000    0.0614100000000000    0.4377066666666666 C
   0.3591500000000000    0.9431800000000000    0.4503500000000000 C
   0.2374600000000000    0.1272900000000000    0.4632499999999999 C
   0.3960900000000000    0.0109800000000000    0.4747700000000000 C
   0.3350800000000000    0.1032900000000000    0.4818633333333333 C
   0.3764500000000000    0.1741900000000000    0.5082800000000000 C
   0.0558500000000000    0.6750600000000000    0.4335700000000000 C
   0.9972000000000000    0.6962400000000000    0.4600100000000000 C
   0.1171500000000000    0.5796200000000000    0.4317866666666667 C
   0.0000000000000000    0.6229100000000000    0.4846600000000000 C
   0.1205700000000000    0.5071700000000000    0.4333333333333333 C
   0.0634200000000000    0.5274400000000000    0.4833733333333333 C
   0.0716800000000000    0.4478600000000000    0.5097400000000000 C
   0.2570700000000000    0.6495300000000001    0.6439699999999999 C
   0.3607300000000000    0.6575299999999999    0.6525333333333333 C
   0.2267500000000000    0.5683900000000000    0.6230666666666667 C
   0.4329700000000000    0.5841800000000000    0.6402666666666665 C
   0.2992300000000000    0.4972700000000000    0.6104700000000000 C
   0.4034900000000000    0.5041700000000000    0.6188666666666667 C
   0.4800500000000000    0.4319500000000000    0.6033333333333333 C
   0.6144300000000000    0.9062800000000000    0.7241466666666666 C
   0.5095499999999999    0.9724500000000000    0.7154900000000000 C
   0.6336200000000000    0.8371700000000000    0.6932966666666667 C
   0.6183300000000000    0.8424400000000000    0.7559633333333333 C
   0.6995200000000000    0.9728700000000000    0.7324566666666666 C
   0.4235400000000000    0.0826100000000000    0.6690533333333333 C
   0.3283200000000000    0.0891700000000000    0.6798999999999999 C
   0.4328700000000000    0.1309400000000000    0.9723733333333333 C
   0.2431500000000000    0.1432400000000000    0.9935366666666666 C
   0.3476800000000000    0.1850800000000000    0.9531433333333332 C
   0.2513400000000000    0.1914900000000000    0.9633400000000000 C
   0.1597600000000000    0.2492100000000000    0.9433799999999999 C
   0.7615800000000000    0.7053800000000000    0.6771333333333333 C
   0.7009300000000001    0.6869100000000000    0.9795400000000000 C
   0.8592100000000000    0.6487100000000000    0.6855599999999999 C
   0.7375800000000000    0.6102900000000000    0.9575666666666667 C
   0.8961600000000000    0.5754600000000000    0.9962933333333333 C
   0.8351800000000000    0.5543200000000000    0.9655366666666666 C
   0.8765100000000000    0.4750700000000000    0.9418899999999999 C
   0.5559300000000000    0.6991900000000000    0.7749933333333333 C
   0.4973100000000000    0.6197700000000000    0.7679866666666666 C
   0.6172299999999999    0.7046500000000000    0.8067700000000000 C
   0.5013300000000001    0.5458400000000000    0.7924366666666667 C
   0.6206500000000000    0.6300300000000000    0.8309299999999999 C
   0.5635200000000000    0.5498000000000000    0.8242233333333333 C
   0.5717800000000000    0.4706800000000000    0.8507433333333333 C
   0.7570800000000000    0.0680500000000000    0.7834700000000000 C
   0.8607600000000000    0.0421500000000000    0.7808266666666667 C
   0.7267600000000000    0.1307700000000000    0.8103333333333333 C
   0.9330000000000001    0.0789600000000000    0.8052699999999999 C
   0.7992400000000000    0.1685100000000000    0.8342033333333333 C
   0.9035100000000000    0.1432300000000000    0.8319166666666666 C
   0.9800500000000000    0.1897900000000000    0.8559766666666666 C
   0.1144400000000000    0.8274899999999999    0.6979133333333333 C
   0.0096000000000000    0.8534500000000000    0.6758799999999999 C
   0.1335800000000000    0.9201400000000000    0.7209233333333332 C
   0.1183200000000000    0.7319900000000000    0.7191666666666666 C
   0.1995500000000000    0.8025500000000000    0.6757433333333333 C
   0.2615000000000000    0.9685500000000000    0.7648400000000000 C
   0.2008100000000000    0.0614100000000000    0.7710399999999999 C
   0.3591500000000000    0.9431800000000000    0.7836833333333333 C
   0.2374600000000000    0.1272900000000000    0.7965833333333333 C
   0.3960900000000000    0.0109800000000000    0.8081033333333333 C
   0.3350800000000000    0.1032900000000000    0.8151966666666666 C
   0.3764500000000000    0.1741900000000000    0.8416133333333333 C
   0.0558500000000000    0.6750600000000000    0.7669033333333333 C
   0.9972000000000000    0.6962400000000000    0.7933433333333333 C
   0.1171500000000000    0.5796200000000000    0.7651200000000000 C
   0.0000000000000000    0.6229100000000000    0.8179933333333334 C
   0.1205700000000000    0.5071700000000000    0.7666666666666666 C
   0.0634200000000000    0.5274400000000000    0.8167066666666667 C
   0.0716800000000000    0.4478600000000000    0.8430733333333333 C
   0.5122500000000000    0.0307400000000000    0.0192166666666667 O
   0.7329400000000000    0.7775400000000000    0.0340666666666667 O
   0.5493900000000000    0.7688600000000000    0.0828200000000000 O
   0.6789300000000000    0.0359800000000000    0.0947900000000000 O
   0.0733900000000000    0.2568200000000000    0.2852000000000000 O
   0.1704700000000000    0.2981900000000000    0.2490000000000000 O
   0.8217500000000000    0.4122600000000000    0.2591466666666666 O
   0.9691400000000000    0.4708400000000000    0.2713366666666667 O
   0.5227900000000000    0.3956100000000000    0.1775700000000000 O
   0.6299700000000000    0.4848600000000000    0.2121000000000000 O
   0.0747900000000000    0.1562400000000000    0.1882333333333333 O
   0.9462500000000000    0.2612000000000000    0.2088866666666667 O
   0.0123700000000000    0.9422600000000000    0.3231133333333333 O
   0.1789300000000000    0.7155700000000000    0.3213633333333333 O
   0.5736700000000000    0.1431100000000000    0.2475500000000000 O
   0.6701900000000000    0.2527000000000000    0.2339333333333333 O
   0.5747600000000000    0.4351700000000000    0.2812000000000000 O
   0.4463000000000000    0.3731700000000000    0.2462266666666666 O
   0.5122500000000000    0.0307400000000000    0.3525500000000000 O
   0.7329400000000000    0.7775400000000000    0.3673999999999999 O
   0.5493900000000000    0.7688600000000000    0.4161533333333333 O
   0.6789300000000000    0.0359800000000000    0.4281233333333333 O
   0.0733900000000000    0.2568200000000000    0.6185333333333334 O
   0.1704700000000000    0.2981900000000000    0.5823333333333334 O
   0.8217500000000000    0.4122600000000000    0.5924799999999999 O
   0.9691400000000000    0.4708400000000000    0.6046700000000000 O
   0.5227900000000000    0.3956100000000000    0.5109033333333333 O
   0.6299700000000000    0.4848600000000000    0.5454333333333333 O
   0.0747900000000000    0.1562400000000000    0.5215666666666666 O
   0.9462500000000000    0.2612000000000000    0.5422199999999999 O
   0.0123700000000000    0.9422600000000000    0.6564466666666666 O
   0.2328800000000000    0.8977600000000000    0.4074533333333333 O
   0.0493400000000000    0.7515600000000000    0.4103400000000000 O
   0.1789300000000000    0.7155700000000000    0.6546966666666667 O
   0.5736700000000000    0.1431100000000000    0.5808833333333333 O
   0.6701900000000000    0.2527000000000000    0.5672666666666666 O
   0.3217200000000000    0.2224900000000000    0.5292033333333332 O
   0.4691100000000000    0.1857400000000000    0.5097033333333333 O
   0.0226600000000000    0.4674300000000000    0.5347366666666666 O
   0.1299100000000000    0.3636900000000000    0.5050333333333333 O
   0.5747600000000000    0.4351700000000000    0.6145333333333334 O
   0.4463000000000000    0.3731700000000000    0.5795600000000000 O
   0.5122500000000000    0.0307400000000000    0.6858833333333333 O
   0.7329400000000000    0.7775400000000000    0.7007333333333333 O
   0.5493900000000000    0.7688600000000000    0.7494866666666666 O
   0.6789300000000000    0.0359800000000000    0.7614566666666667 O
   0.0733900000000000    0.2568200000000000    0.9518666666666666 O
   0.1704700000000000    0.2981900000000000    0.9156666666666666 O
   0.8217500000000000    0.4122600000000000    0.9258133333333333 O
   0.9691400000000000    0.4708400000000000    0.9380033333333333 O
   0.5227900000000000    0.3956100000000000    0.8442366666666666 O
   0.6299700000000000    0.4848600000000000    0.8787666666666666 O
   0.0747900000000000    0.1562400000000000    0.8549000000000000 O
   0.9462500000000000    0.2612000000000000    0.8755533333333333 O
   0.2328800000000000    0.8977600000000000    0.7407866666666666 O
   0.0493400000000000    0.7515600000000000    0.7436733333333333 O
   0.3217200000000000    0.2224900000000000    0.8625366666666666 O
   0.4691100000000000    0.1857400000000000    0.8430366666666667 O
   0.0226600000000000    0.4674300000000000    0.8680699999999999 O
   0.1299100000000000    0.3636900000000000    0.8383666666666666 O
