H21 C19 N2 O4
1.0
  13.9709999468023760    0.0000000000000000   -0.0012191997474323
  -0.0038265133501218   15.6609993798668761    0.0021866881061323
   0.0000000000000000    0.0000000000000000   19.6060000000000016
H C N O
21 19 2 4
direct
   0.7574700000000000    0.0360900000000000    0.3904600000000000 H
   0.7370600000000000    0.1722000000000000    0.3888200000000000 H
   0.5885899999999999    0.2137900000000000    0.4418000000000000 H
   0.4390600000000000    0.1257600000000000    0.5934800000000000 H
   0.6114600000000000    0.0486200000000000    0.2652800000000000 H
   0.5293099999999999    0.1052300000000000    0.1615200000000000 H
   0.3850700000000000    0.0580500000000000    0.4871100000000000 H
   0.6764300000000000    0.3051000000000000    0.3970000000000000 H
   0.5253100000000001    0.3954400000000000    0.1780000000000000 H
   0.4981700000000000    0.9821200000000000    0.5707300000000000 H
   0.5063600000000000    0.9421400000000000    0.4863700000000000 H
   0.6613000000000000    0.9911600000000000    0.4718600000000000 H
   0.6650000000000000    0.0053100000000000    0.5614500000000000 H
   0.5113100000000000    0.0456600000000000    0.3907300000000000 H
   0.4558700000000000    0.1472000000000000    0.3967200000000000 H
   0.5740300000000000    0.5041600000000001    0.2655400000000000 H
   0.6035900000000000    0.1397000000000000    0.6070200000000000 H
   0.5968300000000000    0.2312700000000000    0.5536100000000000 H
   0.6667999999999999    0.5098500000000000    0.4806500000000000 H
   0.6020900000000000    0.4110000000000000    0.4727300000000000 H
   0.7287600000000000    0.4137600000000000    0.4563500000000000 H
   0.6725300000000000    0.1345300000000000    0.3761800000000000 C
   0.6011200000000000    0.1450400000000000    0.4359900000000000 C
   0.5689600000000000    0.2878100000000000    0.2396000000000000 C
   0.4721000000000000    0.1477200000000000    0.5456900000000000 C
   0.6281900000000000    0.1712900000000000    0.3116100000000000 C
   0.6132800000000000    0.2609200000000000    0.3022400000000000 C
   0.5991300000000001    0.1168000000000000    0.2600500000000000 C
   0.5534800000000000    0.1488800000000000    0.2014000000000000 C
   0.4610300000000000    0.0748800000000000    0.4924800000000000 C
   0.6399899999999999    0.3239000000000000    0.3508000000000000 C
   0.5569400000000000    0.3764400000000000    0.2269700000000000 C
   0.5195200000000000    0.9985900000000000    0.5183100000000000 C
   0.6265300000000000    0.0231300000000000    0.5147100000000000 C
   0.6222400000000000    0.4094000000000000    0.3380500000000000 C
   0.5031600000000001    0.1023200000000000    0.4234600000000000 C
   0.5831000000000000    0.4360500000000000    0.2747700000000000 C
   0.5808200000000000    0.1628700000000000    0.5567000000000000 C
   0.4159200000000000    0.2266800000000000    0.5232900000000000 C
   0.6613100000000000    0.4497200000000000    0.4523200000000000 C
   0.5377900000000000    0.2315700000000000    0.1910800000000000 N
   0.6398800000000000    0.1173600000000000    0.5044000000000000 N
   0.6983500000000000    0.0478000000000000    0.3641500000000000 O
   0.6416400000000000    0.4741800000000000    0.3829500000000000 O
   0.3250100000000000    0.2255900000000000    0.5327100000000000 O
   0.4584200000000000    0.2884700000000000    0.4942800000000000 O
