H5 O3
1.0
  34.3379949739927213    0.0000000000000000    0.0185786450086074
   1.3519830309398717   31.6631446721075207    0.0165938916380439
   0.0000000000000000    0.0000000000000000   32.5300000000000011
H O
5 3
direct
   0.2115685209908336    0.2126736147431373    0.8536239092257117 H
   0.2451492122488783    0.2279300718942309    0.8201711815251091 H
   0.2690272781183217    0.3016718406009481    0.9617351344616688 H
   0.3141387654854887    0.3108183056276496    0.9588849804409477 H
   0.2714528602442422    0.2875040232727146    0.9297529177826135 H
   0.2225166666666666    0.2111066666666667    0.8258600000000000 O
   0.2605783333333334    0.2971766666666666    0.9560900000000000 O
   0.2909833333333333    0.3133533333333333    0.9764050000000000 O
