H6 O4
1.0
  16.4164104267610327    0.0000000000000000    4.3579460414433333
   2.8404229665900669   18.8045292291105142    7.9974895337472027
   0.0000000000000000    0.0000000000000000   28.3520000000000003
H O
6 4
direct
   0.5731263481589628    0.1559152782274362    0.9428086422424178 H
   0.4120796691754623    0.1190186331736843    0.0654581590202583 H
   0.4895922673158746    0.1212960686543986    1.0062007437987930 H
   0.4269689513097827    0.8440771192066869    0.0574140518633467 H
   0.5879582298972290    0.8810109601724204    0.9347484858623981 H
   0.5104889847255583    0.8787084220566710    0.9940054081656503 H
   0.5419500000000000    0.1795300000000000    0.9670000000000001 O
   0.4447000000000000    0.1553000000000000    0.0410350000000000 O
   0.4581300000000000    0.8204700000000000    0.0332150000000000 O
   0.5553399999999999    0.8447300000000000    0.9591750000000000 O
