H20 C24 N4
1.0
  27.0879619772044151    0.0000000000000000    0.0453863583909680
  -0.0453876855630017   29.6008062684956919    0.2619393307344294
   0.0000000000000000    0.0000000000000000   21.5990000000000002
H C N
20 24 4
direct
   0.1704000000000000    0.4902750000000000    0.8504000000000000 H
   0.0709200000000000    0.4306600000000000    0.0230500000000000 H
   0.1600900000000000    0.4142000000000000    0.0110500000000000 H
   0.8409650000000000    0.4858700000000000    0.8645100000000000 H
   0.9304300000000000    0.4981000000000000    0.8841000000000000 H
   0.9162750000000000    0.4109500000000000    0.0443800000000000 H
   0.8264899999999999    0.4030250000000000    0.0182900000000000 H
   0.9965800000000000    0.4361900000000000    0.0125900000000000 H
   0.9182850000000000    0.4870200000000000    0.1428800000000000 H
   0.9961650000000000    0.4899850000000000    0.0884000000000000 H
   0.0817250000000000    0.5129899999999999    0.8570900000000000 H
   0.0038450000000000    0.5100250000000000    0.9115000000000000 H
   0.1590550000000000    0.5141350000000000    0.1354000000000000 H
   0.0695900000000000    0.5019100000000000    0.1158000000000000 H
   0.0837400000000000    0.5890550000000000    0.9555900000000001 H
   0.1735300000000000    0.5969750000000000    0.9816700000000000 H
   0.0034400000000000    0.5638250000000000    0.9873900000000000 H
   0.8296049999999999    0.5097250000000000    0.1495100000000000 H
   0.9290950000000000    0.5693500000000000    0.9769200000000000 H
   0.8399250000000000    0.5858050000000000    0.9889100000000000 H
   0.1467750000000000    0.4779700000000000    0.8878000000000000 C
   0.0972750000000000    0.4900800000000000    0.8917300000000000 C
   0.0684000000000000    0.4747550000000000    0.9417000000000000 C
   0.0910450000000000    0.4450100000000000    0.9837399999999999 C
   0.1409100000000000    0.4352250000000000    0.9772999999999999 C
   0.0187950000000000    0.4950350000000000    0.9542200000000000 C
   0.8592299999999999    0.4696350000000000    0.9037300000000000 C
   0.9093750000000000    0.4761300000000000    0.9151300000000000 C
   0.9309350000000001    0.4564150000000000    0.9676700000000000 C
   0.9007600000000000    0.4281000000000000    0.0040000000000000 C
   0.8511649999999999    0.4234950000000000    0.9897800000000000 C
   0.9810650000000001    0.4672350000000000    0.9926000000000000 C
   0.1407900000000000    0.5303700000000000    0.0962400000000000 C
   0.0906450000000000    0.5238800000000000    0.0848500000000000 C
   0.0690800000000000    0.5435900000000000    0.0323000000000000 C
   0.0992600000000000    0.5719050000000000    0.9959800000000000 C
   0.1488500000000000    0.5765100000000000    0.0101900000000000 C
   0.0189500000000000    0.5327750000000000    0.0073000000000000 C
   0.8532350000000000    0.5220350000000000    0.1121100000000000 C
   0.9027300000000000    0.5099250000000000    0.1082400000000000 C
   0.9316150000000001    0.5252550000000000    0.0582800000000000 C
   0.9089700000000001    0.5550000000000000    0.0162300000000000 C
   0.8591000000000000    0.5647850000000000    0.0226700000000000 C
   0.9812200000000000    0.5049800000000000    0.0457600000000000 C
   0.1691150000000000    0.4520150000000000    0.9310900000000000 N
   0.8298650000000001    0.4448850000000000    0.9413100000000000 N
   0.1701550000000000    0.5551150000000000    0.0586500000000000 N
   0.8308900000000000    0.5479849999999999    0.0688700000000000 N
