H6 O4
1.0
  27.0879619772044151    0.0000000000000000    0.0453863583909680
  -0.0453876855630017   29.6008062684956919    0.2619393307344294
   0.0000000000000000    0.0000000000000000   21.5990000000000002
H O
6 4
direct
   0.0353762887339044    0.3608763077046012    0.5829528310464390 H
   0.0352435124486716    0.4256462363886290    0.6523046147520229 H
   0.9630472829824346    0.2520889756227744    0.9093567752008745 H
   0.9606176067975413    0.3247342416715664   -0.0094961371102524 H
   0.8440369584416959    0.2670418649533357    0.9777589796777941 H
   0.4035592662664290    0.4360466965654838    0.5763071390871128 H
   0.0000000000000000    0.3593800000000000    0.5897200000000000 O
   0.0001800000000000    0.4189850000000000    0.6534700000000000 O
   0.9961300000000000    0.2646750000000000    0.9088000000000001 O
   0.9943050000000000    0.3242100000000000   -0.0247699999999999 O
