Zn24 H48 C47 O95
1.0
  10.0859944697321726    0.0000000000000000   -0.0105620325709421
  -0.0028675965892439   11.5948037764075398   -0.2256682598312030
   0.0000000000000000    0.0000000000000000   29.5859999999999985
Zn H C O
24 48 47 95
direct
   0.4999800000000000    0.5000000000000000    0.2499950000000000 Zn
   0.4235600000000000    0.2549200000000000    0.8146300000000000 Zn
   0.1123000000000000    0.2595700000000000    0.8452450000000000 Zn
   0.9999900000000000    0.5000000000000000    0.9999950000000000 Zn
   0.5764100000000000    0.7450900000000000    0.1853550000000000 Zn
   0.8876600000000000    0.7404400000000000    0.1547400000000000 Zn
   0.4999800000000000    0.5000000000000000    0.7499950000000000 Zn
   0.4235600000000000    0.2549200000000000    0.3146300000000000 Zn
   0.1123000000000000    0.2595700000000000    0.3452450000000000 Zn
   0.9999900000000000    0.5000000000000000    0.4999950000000000 Zn
   0.5764100000000000    0.7450900000000000    0.6853549999999999 Zn
   0.8876600000000000    0.7404400000000000    0.6547400000000000 Zn
   0.0751500000000000    0.7549300000000000    0.0646550000000000 Zn
   0.3872000000000000    0.7595499999999999    0.0953550000000000 Zn
   0.4999900000000000    0.0000000000000000    0.2499950000000000 Zn
   0.6127700000000000    0.2404500000000000    0.4046300000000000 Zn
   0.0000000000000000    0.0000000000000000    0.0000000000000000 Zn
   0.0751500000000000    0.7549300000000000    0.5646550000000000 Zn
   0.3872000000000000    0.7595499999999999    0.5953550000000000 Zn
   0.4999900000000000    0.0000000000000000    0.7499950000000000 Zn
   0.9248300000000000    0.2450700000000000    0.9353300000000000 Zn
   0.6127700000000000    0.2404500000000000    0.9046300000000000 Zn
   0.0000000000000000    0.0000000000000000    0.5000000000000000 Zn
   0.9248300000000000    0.2450700000000000    0.4353300000000000 Zn
   0.2974200000000000    0.5200300000000000    0.1324150000000000 H
   0.7025600000000000    0.4799700000000000    0.3675650000000000 H
   0.0464900000000000    0.5245200000000000    0.8639900000000000 H
   0.6636200000000000    0.1906900000000000    0.7105550000000000 H
   0.2061800000000000    0.5041000000000000    0.7561050000000000 H
   0.7522300000000000    0.1432800000000000    0.8138350000000000 H
   0.6079300000000000    0.4380800000000000    0.9786200000000000 H
   0.3920300000000000    0.5619200000000000    0.0213600000000000 H
   0.9534800000000000    0.4754700000000000    0.1359900000000000 H
   0.3363500000000000    0.8093200000000000    0.2894250000000000 H
   0.7937900000000000    0.4959000000000000    0.2438750000000000 H
   0.2477400000000000    0.8567200000000000    0.1861500000000000 H
   0.2974200000000000    0.5200300000000000    0.6324149999999999 H
   0.7025600000000000    0.4799700000000000    0.8675649999999999 H
   0.0464900000000000    0.5245200000000000    0.3639900000000000 H
   0.6636200000000000    0.1906900000000000    0.2105550000000000 H
   0.2061800000000000    0.5041000000000000    0.2561050000000000 H
   0.7522300000000000    0.1432800000000000    0.3138350000000000 H
   0.6079300000000000    0.4380800000000000    0.4786200000000000 H
   0.3920300000000000    0.5619200000000000    0.5213600000000000 H
   0.9534800000000000    0.4754700000000000    0.6359900000000001 H
   0.3363500000000000    0.8093200000000000    0.7894250000000000 H
   0.7937900000000000    0.4959000000000000    0.7438750000000001 H
   0.2477400000000000    0.8567200000000000    0.6861500000000000 H
   0.4533100000000000    0.0245700000000000    0.1141100000000000 H
   0.8363699999999999    0.6908600000000000    0.9601550000000000 H
   0.2931900000000000    0.0037800000000000    0.0061050000000000 H
   0.7472400000000000    0.6434600000000000    0.0638500000000000 H
   0.1072200000000000    0.0613900000000000    0.2712200000000000 H
   0.8927500000000000    0.9386200000000000    0.2287600000000000 H
   0.5466400000000000    0.9754200000000000    0.3858700000000000 H
   0.2527300000000000    0.3565500000000000    0.4361300000000000 H
   0.2023400000000000    0.0198300000000000    0.8824250000000000 H
   0.7976200000000000    0.9801800000000001    0.1175550000000000 H
   0.4533100000000000    0.0245700000000000    0.6141100000000000 H
   0.8363699999999999    0.6908600000000000    0.4601550000000000 H
   0.2931900000000000    0.0037800000000000    0.5061050000000000 H
   0.7472400000000000    0.6434600000000000    0.5638500000000000 H
   0.1072200000000000    0.0613900000000000    0.7712200000000000 H
   0.8927500000000000    0.9386200000000000    0.7287600000000000 H
   0.5466400000000000    0.9754200000000000    0.8858699999999999 H
   0.1636000000000000    0.3091400000000000    0.0398200000000000 H
   0.7067800000000000    0.9962200000000000    0.9938800000000000 H
   0.2527300000000000    0.3565500000000000    0.9361300000000000 H
   0.2023400000000000    0.0198300000000000    0.3824250000000000 H
   0.7976200000000000    0.9801800000000001    0.6175550000000000 H
   0.7538814207548159    0.0774510645636678    0.4707685656684334 H
   0.1636000000000000    0.3091400000000000    0.5398200000000000 H
   0.3689700000000000    0.5484100000000000    0.1587800000000000 C
   0.6310100000000000    0.4515900000000000    0.3412050000000000 C
   0.0210000000000000    0.4802300000000000    0.8955800000000000 C
   0.6017200000000000    0.2435400000000000    0.7336250000000000 C
   0.2240900000000000    0.4308800000000000    0.7785200000000000 C
   0.8341200000000000    0.1759500000000000    0.8352550000000001 C
   0.7156800000000000    0.4227900000000000    0.9750650000000001 C
   0.2842900000000000    0.5772200000000000    0.0249150000000000 C
   0.9789700000000000    0.5197700000000000    0.1044050000000000 C
   0.3982400000000000    0.7564600000000000    0.2663550000000000 C
   0.7758800000000000    0.5691200000000000    0.2214650000000000 C
   0.1658500000000000    0.8240600000000000    0.1647300000000000 C
   0.3689700000000000    0.5484100000000000    0.6587800000000000 C
   0.6310100000000000    0.4515900000000000    0.8412050000000000 C
   0.0210000000000000    0.4802300000000000    0.3955800000000000 C
   0.6017200000000000    0.2435400000000000    0.2336250000000000 C
   0.2240900000000000    0.4308800000000000    0.2785200000000000 C
   0.8341200000000000    0.1759500000000000    0.3352550000000000 C
   0.7156800000000000    0.4227900000000000    0.4750650000000000 C
   0.2842900000000000    0.5772200000000000    0.5249150000000000 C
   0.9789700000000000    0.5197700000000000    0.6044050000000000 C
   0.3982400000000000    0.7564600000000000    0.7663550000000000 C
   0.7758800000000000    0.5691200000000000    0.7214650000000000 C
   0.1658500000000000    0.8240600000000000    0.6647300000000000 C
   0.4789300000000000    0.9802100000000000    0.1456850000000000 C
   0.8979600000000000    0.7436199999999999    0.9834149999999999 C
   0.2753700000000000    0.9306500000000000    0.0285550000000000 C
   0.6655200000000000    0.6760300000000000    0.0853050000000000 C
   0.2149300000000000    0.0769400000000000    0.2748350000000000 C
   0.7850300000000000    0.9230600000000000    0.2251500000000000 C
   0.5210300000000000    0.0198000000000000    0.3542950000000000 C
   0.3344500000000000    0.3239700000000000    0.4146750000000000 C
   0.1309600000000000    0.0483000000000000    0.9087700000000001 C
   0.8690000000000000    0.9517099999999999    0.0912150000000000 C
   0.4789300000000000    0.9802100000000000    0.6456850000000001 C
   0.8979600000000000    0.7436199999999999    0.4834150000000000 C
   0.2753700000000000    0.9306500000000000    0.5285550000000000 C
   0.6655200000000000    0.6760300000000000    0.5853050000000000 C
   0.2149300000000000    0.0769400000000000    0.7748349999999999 C
   0.7850300000000000    0.9230600000000000    0.7251500000000000 C
   0.5210300000000000    0.0198000000000000    0.8542950000000000 C
   0.1020100000000000    0.2563900000000000    0.0165650000000000 C
   0.7246000000000000    0.0693500000000000    0.9714300000000000 C
   0.3344500000000000    0.3239700000000000    0.9146750000000000 C
   0.1309600000000000    0.0483000000000000    0.4087700000000000 C
   0.8690000000000000    0.9517099999999999    0.5912150000000000 C
   0.1020100000000000    0.2563900000000000    0.5165650000000001 C
   0.3940000000000000    0.4795100000000000    0.1896800000000000 O
   0.4167400000000000    0.6501900000000000    0.1540750000000000 O
   0.6059700000000000    0.5204900000000000    0.3103050000000000 O
   0.5832300000000000    0.3498100000000000    0.3459100000000000 O
   0.9993800000000000    0.5403100000000000    0.9303550000000000 O
   0.0162000000000000    0.3694400000000000    0.8927000000000000 O
   0.6114300000000000    0.3506600000000000    0.7321700000000000 O
   0.5264500000000000    0.1855300000000000    0.7603249999999999 O
   0.1260000000000000    0.3896300000000000    0.7986300000000000 O
   0.3456100000000000    0.3973200000000000    0.7812950000000001 O
   0.9459000000000000    0.1853800000000000    0.8167300000000000 O
   0.8060400000000000    0.1997100000000000    0.8766950000000000 O
   0.7925500000000000    0.4804700000000000    0.9999400000000001 O
   0.7486000000000000    0.3463100000000000    0.9449250000000000 O
   0.2074200000000000    0.5195300000000000    0.0000450000000000 O
   0.2513700000000000    0.6536900000000000    0.0550550000000000 O
   0.0005800000000000    0.4597000000000000    0.0696300000000000 O
   0.9837700000000000    0.6305600000000000    0.1072850000000000 O
   0.3885400000000000    0.6493400000000000    0.2678150000000000 O
   0.4735100000000000    0.8144800000000000    0.2396550000000000 O
   0.8739700000000000    0.6103700000000000    0.2013500000000000 O
   0.6543600000000001    0.6026800000000000    0.2186900000000000 O
   0.0540700000000000    0.8146200000000000    0.1832500000000000 O
   0.1939300000000000    0.8002899999999999    0.1232900000000000 O
   0.3940000000000000    0.4795100000000000    0.6896800000000000 O
   0.4167400000000000    0.6501900000000000    0.6540750000000000 O
   0.6059700000000000    0.5204900000000000    0.8103050000000001 O
   0.5832300000000000    0.3498100000000000    0.8459099999999999 O
   0.9993800000000000    0.5403100000000000    0.4303550000000000 O
   0.0162000000000000    0.3694400000000000    0.3927000000000000 O
   0.6114300000000000    0.3506600000000000    0.2321700000000000 O
   0.5264500000000000    0.1855300000000000    0.2603250000000000 O
   0.1260000000000000    0.3896300000000000    0.2986300000000000 O
   0.3456100000000000    0.3973200000000000    0.2812950000000000 O
   0.9459000000000000    0.1853800000000000    0.3167300000000000 O
   0.8060400000000000    0.1997100000000000    0.3766950000000000 O
   0.7925500000000000    0.4804700000000000    0.4999400000000000 O
   0.7486000000000000    0.3463100000000000    0.4449250000000000 O
   0.2074200000000000    0.5195300000000000    0.5000450000000000 O
   0.2513700000000000    0.6536900000000000    0.5550550000000000 O
   0.0005800000000000    0.4597000000000000    0.5696300000000000 O
   0.9837700000000000    0.6305600000000000    0.6072850000000000 O
   0.3885400000000000    0.6493400000000000    0.7678150000000000 O
   0.4735100000000000    0.8144800000000000    0.7396550000000000 O
   0.8739700000000000    0.6103700000000000    0.7013500000000000 O
   0.6543600000000001    0.6026800000000000    0.7186900000000001 O
   0.0540700000000000    0.8146200000000000    0.6832500000000000 O
   0.1939300000000000    0.8002899999999999    0.6232900000000000 O
   0.5004300000000000    0.0402900000000000    0.1805000000000000 O
   0.4840800000000000    0.8694600000000000    0.1427550000000000 O
   0.8882700000000000    0.8507500000000000    0.9820599999999999 O
   0.9729700000000000    0.6854900000000000    0.0102100000000000 O
   0.3735200000000000    0.8895400000000000    0.0487200000000000 O
   0.1538500000000000    0.8970300000000000    0.0313000000000000 O
   0.5535600000000001    0.6854200000000000    0.0668350000000000 O
   0.6940600000000000    0.6997500000000000    0.1267400000000000 O
   0.2919700000000000    0.0194400000000000    0.2500400000000000 O
   0.2476200000000000    0.1535700000000000    0.3049950000000000 O
   0.7080000000000000    0.9805600000000000    0.2499400000000000 O
   0.7523400000000000    0.8464300000000000    0.1949900000000000 O
   0.4995400000000000    0.9597200000000000    0.3194800000000000 O
   0.5158900000000000    0.1305400000000000    0.3572350000000000 O
   0.4464100000000000    0.3145800000000000    0.4331450000000000 O
   0.3059100000000000    0.3002500000000000    0.3732450000000000 O
   0.1059200000000000    0.9795000000000000    0.9396850000000000 O
   0.0834000000000000    0.1501400000000000    0.9040300000000000 O
   0.8940500000000000    0.0205000000000000    0.0602950000000000 O
   0.9165600000000000    0.8498599999999999    0.0959550000000000 O
   0.5004300000000000    0.0402900000000000    0.6805000000000000 O
   0.4840800000000000    0.8694600000000000    0.6427550000000000 O
   0.8882700000000000    0.8507500000000000    0.4820600000000000 O
   0.9729700000000000    0.6854900000000000    0.5102100000000001 O
   0.3735200000000000    0.8895400000000000    0.5487200000000000 O
   0.1538500000000000    0.8970300000000000    0.5313000000000000 O
   0.5535600000000001    0.6854200000000000    0.5668350000000000 O
   0.6940600000000000    0.6997500000000000    0.6267400000000000 O
   0.2919700000000000    0.0194400000000000    0.7500400000000000 O
   0.2476200000000000    0.1535700000000000    0.8049950000000000 O
   0.7080000000000000    0.9805600000000000    0.7499400000000001 O
   0.7523400000000000    0.8464300000000000    0.6949900000000000 O
   0.4995400000000000    0.9597200000000000    0.8194800000000000 O
   0.5158900000000000    0.1305400000000000    0.8572350000000000 O
   0.1116900000000000    0.1492500000000000    0.0179200000000000 O
   0.0269900000000000    0.3145100000000000    0.9897700000000000 O
   0.6264500000000000    0.1104600000000000    0.9512650000000000 O
   0.8461200000000000    0.1029700000000000    0.9686850000000000 O
   0.4464100000000000    0.3145800000000000    0.9331450000000000 O
   0.3059100000000000    0.3002500000000000    0.8732450000000000 O
   0.1059200000000000    0.9795000000000000    0.4396850000000000 O
   0.0834000000000000    0.1501400000000000    0.4040300000000000 O
   0.8940500000000000    0.0205000000000000    0.5602950000000000 O
   0.9165600000000000    0.8498599999999999    0.5959550000000000 O
   0.8461200000000000    0.1029700000000000    0.4686850000000000 O
   0.1116900000000000    0.1492500000000000    0.5179200000000000 O
   0.0269900000000000    0.3145100000000000    0.4897700000000000 O
