Cd48 H151 C368 N46 O192
1.0
  16.8449586188058653    0.0000000000000000    0.0373380599125491
   0.2844996832216740   37.9209060852315005    0.0450067250422980
   0.0000000000000000    0.0000000000000000   23.8880000000000017
Cd H C N O
48 151 368 46 192
direct
   0.0000000000000000    0.0942850000000000    0.0419600000000000 Cd
   0.1401700000000000    0.1544300000000000    0.0000000000000000 Cd
   0.0000000000000000    0.1543550000000000    0.5417500000000000 Cd
   0.3083133333333333    0.3442200000000000    0.9603000000000000 Cd
   0.1415566666666667    0.0942150000000000    0.5413000000000000 Cd
   0.3061600000000000    0.9043150000000000    0.4611300000000000 Cd
   0.1399333333333333    0.3442150000000000    0.4608200000000000 Cd
   0.1395800000000000    0.9043650000000000    0.9601800000000000 Cd
   0.6666666666666666    0.0942850000000000    0.0419600000000000 Cd
   0.8068366666666666    0.1544300000000000    0.0000000000000000 Cd
   0.6666666666666666    0.1543550000000000    0.5417500000000000 Cd
   0.9749800000000000    0.3442200000000000    0.9603000000000000 Cd
   0.8082233333333333    0.0942150000000000    0.5413000000000000 Cd
   0.9728266666666666    0.9043150000000000    0.4611300000000000 Cd
   0.8066000000000000    0.3442150000000000    0.4608200000000000 Cd
   0.8062466666666666    0.9043650000000000    0.9601800000000000 Cd
   0.3333333333333333    0.0942850000000000    0.0419600000000000 Cd
   0.4735033333333333    0.1544300000000000    0.0000000000000000 Cd
   0.3333333333333333    0.1543550000000000    0.5417500000000000 Cd
   0.6416466666666667    0.3442200000000000    0.9603000000000000 Cd
   0.4748900000000000    0.0942150000000000    0.5413000000000000 Cd
   0.6394933333333332    0.9043150000000000    0.4611300000000000 Cd
   0.4732666666666666    0.3442150000000000    0.4608200000000000 Cd
   0.4729133333333333    0.9043650000000000    0.9601800000000000 Cd
   0.4729133333333333    0.4043650000000000    0.9601800000000000 Cd
   0.3061600000000000    0.4043150000000000    0.4611300000000000 Cd
   0.0000000000000000    0.5942850000000000    0.0419600000000000 Cd
   0.1401700000000000    0.6544300000000001    0.0000000000000000 Cd
   0.0000000000000000    0.6543550000000000    0.5417500000000000 Cd
   0.3083133333333333    0.8442200000000000    0.9603000000000000 Cd
   0.1415566666666667    0.5942149999999999    0.5413000000000000 Cd
   0.1399333333333333    0.8442149999999999    0.4608200000000000 Cd
   0.1395800000000000    0.4043650000000000    0.9601800000000000 Cd
   0.3333333333333333    0.5942850000000000    0.0419600000000000 Cd
   0.4735033333333333    0.6544300000000001    0.0000000000000000 Cd
   0.3333333333333333    0.6543550000000000    0.5417500000000000 Cd
   0.6416466666666667    0.8442200000000000    0.9603000000000000 Cd
   0.4748900000000000    0.5942149999999999    0.5413000000000000 Cd
   0.6394933333333332    0.4043150000000000    0.4611300000000000 Cd
   0.4732666666666666    0.8442149999999999    0.4608200000000000 Cd
   0.8062466666666666    0.4043650000000000    0.9601800000000000 Cd
   0.6666666666666666    0.5942850000000000    0.0419600000000000 Cd
   0.8068366666666666    0.6544300000000001    0.0000000000000000 Cd
   0.6666666666666666    0.6543550000000000    0.5417500000000000 Cd
   0.9749800000000000    0.8442200000000000    0.9603000000000000 Cd
   0.8082233333333333    0.5942149999999999    0.5413000000000000 Cd
   0.9728266666666666    0.4043150000000000    0.4611300000000000 Cd
   0.8066000000000000    0.8442149999999999    0.4608200000000000 Cd
   0.9770433333333333    0.9449799999999999    0.8088600000000000 H
   0.0160233333333333    0.9456850000000000    0.6481200000000000 H
   0.0000000000000000    0.0544000000000000    0.6931000000000000 H
   0.0000000000000000    0.0244000000000000    0.5188400000000000 H
   0.0177333333333333    0.0530750000000000    0.8546000000000000 H
   0.9964799999999999    0.9741949999999999    0.9832900000000000 H
   0.1433833333333333    0.9441349999999999    0.3093600000000000 H
   0.1844233333333333    0.0523350000000000    0.3543700000000000 H
   0.1630200000000000    0.9738450000000001    0.4836100000000000 H
   0.1453933333333333    0.0539400000000000    0.1936200000000000 H
   0.1804800000000000    0.9452100000000000    0.1478200000000000 H
   0.1639833333333333    0.0243850000000000    0.0191100000000000 H
   0.0180266666666667    0.3030050000000000    0.1475500000000000 H
   0.0000000000000000    0.1949150000000000    0.1938900000000000 H
   0.0000000000000000    0.2241250000000000    0.0192600000000000 H
   0.9780599999999999    0.3044450000000000    0.3091200000000000 H
   0.0165533333333333    0.1958200000000000    0.3545100000000000 H
   0.9966166666666666    0.2745050000000000    0.4834900000000000 H
   0.1447933333333333    0.3039500000000000    0.8088100000000000 H
   0.1817100000000000    0.1953250000000000    0.8548200000000000 H
   0.1645500000000000    0.2744400000000000    0.9833100000000000 H
   0.1433466666666667    0.1941500000000000    0.6934500000000000 H
   0.1825133333333333    0.3024650000000000    0.6478500000000000 H
   0.1628500000000000    0.2238600000000000    0.5190200000000000 H
   0.6437100000000000    0.9449799999999999    0.8088600000000000 H
   0.6826900000000000    0.9456850000000000    0.6481200000000000 H
   0.6666666666666666    0.0544000000000000    0.6931000000000000 H
   0.6666666666666666    0.0244000000000000    0.5188400000000000 H
   0.6844000000000000    0.0530750000000000    0.8546000000000000 H
   0.6631466666666666    0.9741949999999999    0.9832900000000000 H
   0.8100499999999999    0.9441349999999999    0.3093600000000000 H
   0.8510899999999999    0.0523350000000000    0.3543700000000000 H
   0.8296866666666667    0.9738450000000001    0.4836100000000000 H
   0.8120600000000000    0.0539400000000000    0.1936200000000000 H
   0.8471466666666666    0.9452100000000000    0.1478200000000000 H
   0.8306499999999999    0.0243850000000000    0.0191100000000000 H
   0.6846933333333333    0.3030050000000000    0.1475500000000000 H
   0.6666666666666666    0.1949150000000000    0.1938900000000000 H
   0.6666666666666666    0.2241250000000000    0.0192600000000000 H
   0.6447266666666667    0.3044450000000000    0.3091200000000000 H
   0.6832199999999999    0.1958200000000000    0.3545100000000000 H
   0.6632833333333332    0.2745050000000000    0.4834900000000000 H
   0.8114600000000000    0.3039500000000000    0.8088100000000000 H
   0.8483766666666666    0.1953250000000000    0.8548200000000000 H
   0.8312166666666666    0.2744400000000000    0.9833100000000000 H
   0.8100133333333333    0.1941500000000000    0.6934500000000000 H
   0.8491799999999999    0.3024650000000000    0.6478500000000000 H
   0.8295166666666667    0.2238600000000000    0.5190200000000000 H
   0.3103766666666666    0.9449799999999999    0.8088600000000000 H
   0.3493566666666666    0.9456850000000000    0.6481200000000000 H
   0.3333333333333333    0.0544000000000000    0.6931000000000000 H
   0.3333333333333333    0.0244000000000000    0.5188400000000000 H
   0.3510666666666666    0.0530750000000000    0.8546000000000000 H
   0.3298133333333333    0.9741949999999999    0.9832900000000000 H
   0.4767166666666666    0.9441349999999999    0.3093600000000000 H
   0.5177566666666666    0.0523350000000000    0.3543700000000000 H
   0.4963533333333333    0.9738450000000001    0.4836100000000000 H
   0.4787266666666666    0.0539400000000000    0.1936200000000000 H
   0.5138133333333333    0.9452100000000000    0.1478200000000000 H
   0.4973166666666666    0.0243850000000000    0.0191100000000000 H
   0.3513600000000000    0.3030050000000000    0.1475500000000000 H
   0.3333333333333333    0.1949150000000000    0.1938900000000000 H
   0.3333333333333333    0.2241250000000000    0.0192600000000000 H
   0.3113933333333333    0.3044450000000000    0.3091200000000000 H
   0.3498866666666666    0.1958200000000000    0.3545100000000000 H
   0.3299500000000000    0.2745050000000000    0.4834900000000000 H
   0.4781266666666666    0.3039500000000000    0.8088100000000000 H
   0.5150433333333333    0.1953250000000000    0.8548200000000000 H
   0.4978833333333333    0.2744400000000000    0.9833100000000000 H
   0.4766800000000000    0.1941500000000000    0.6934500000000000 H
   0.5158466666666667    0.3024650000000000    0.6478500000000000 H
   0.4961833333333333    0.2238600000000000    0.5190200000000000 H
   0.2990208685610254    0.4047809934783957    0.8848113821220382 H
   0.2796397290496840    0.4049968474108074    0.9593443809115502 H
   0.3428766391685003    0.4756373028988385    0.4498766855687376 H
   0.3546610122237348    0.4010601097629635    0.5714527919196144 H
   0.3524010885156599    0.4370916445460275    0.5096756845948996 H
   0.9770433333333333    0.4449800000000000    0.8088600000000000 H
   0.0160233333333333    0.4456850000000000    0.6481200000000000 H
   0.0000000000000000    0.5544000000000000    0.6931000000000000 H
   0.0000000000000000    0.5244000000000000    0.5188400000000000 H
   0.0177333333333333    0.5530750000000000    0.8546000000000000 H
   0.9964799999999999    0.4741950000000000    0.9832900000000000 H
   0.1433833333333333    0.4441350000000000    0.3093600000000000 H
   0.1844233333333333    0.5523350000000000    0.3543700000000000 H
   0.1630200000000000    0.4738450000000000    0.4836100000000000 H
   0.1453933333333333    0.5539400000000000    0.1936200000000000 H
   0.1804800000000000    0.4452100000000000    0.1478200000000000 H
   0.1639833333333333    0.5243850000000000    0.0191100000000000 H
   0.0180266666666667    0.8030050000000000    0.1475500000000000 H
   0.0000000000000000    0.6949149999999999    0.1938900000000000 H
   0.0000000000000000    0.7241250000000000    0.0192600000000000 H
   0.9780599999999999    0.8044450000000001    0.3091200000000000 H
   0.0165533333333333    0.6958200000000000    0.3545100000000000 H
   0.9966166666666666    0.7745050000000000    0.4834900000000000 H
   0.1447933333333333    0.8039499999999999    0.8088100000000000 H
   0.1817100000000000    0.6953250000000000    0.8548200000000000 H
   0.1645500000000000    0.7744400000000000    0.9833100000000000 H
   0.1433466666666667    0.6941500000000000    0.6934500000000000 H
   0.1825133333333333    0.8024650000000000    0.6478500000000000 H
   0.1628500000000000    0.7238599999999999    0.5190200000000000 H
   0.3436478752447725    0.5829432342149169   -0.0873398079150955 H
   0.3316388971019978    0.5108884787701795    0.0293176916868866 H
   0.3379040485455138    0.5435640531301400   -0.0334967781019594 H
   0.3298133333333333    0.4741950000000000    0.9832900000000000 H
   0.4767166666666666    0.4441350000000000    0.3093600000000000 H
   0.5177566666666666    0.5523350000000000    0.3543700000000000 H
   0.4963533333333333    0.4738450000000000    0.4836100000000000 H
   0.4787266666666666    0.5539400000000000    0.1936200000000000 H
   0.5138133333333333    0.4452100000000000    0.1478200000000000 H
   0.4973166666666666    0.5243850000000000    0.0191100000000000 H
   0.3060744725139621    0.5818946468677288    0.5948550326511204 H
   0.3100085818929073    0.5870582065748887    0.6457391084105962 H
   0.3065314147697277    0.5775888898389497    0.5256429217067571 H
   0.3513600000000000    0.8030050000000000    0.1475500000000000 H
   0.3333333333333333    0.6949149999999999    0.1938900000000000 H
   0.3333333333333333    0.7241250000000000    0.0192600000000000 H
   0.3113933333333333    0.8044450000000001    0.3091200000000000 H
   0.3498866666666666    0.6958200000000000    0.3545100000000000 H
   0.3299500000000000    0.7745050000000000    0.4834900000000000 H
   0.4781266666666666    0.8039499999999999    0.8088100000000000 H
   0.5150433333333333    0.6953250000000000    0.8548200000000000 H
   0.4978833333333333    0.7744400000000000    0.9833100000000000 H
   0.4766800000000000    0.6941500000000000    0.6934500000000000 H
   0.5158466666666667    0.8024650000000000    0.6478500000000000 H
   0.4961833333333333    0.7238599999999999    0.5190200000000000 H
   0.7706871726504072    0.4097443666753795    0.9162105427674679 H
   0.6437100000000000    0.4449800000000000    0.8088600000000000 H
   0.6826900000000000    0.4456850000000000    0.6481200000000000 H
   0.6666666666666666    0.5544000000000000    0.6931000000000000 H
   0.6666666666666666    0.5244000000000000    0.5188400000000000 H
   0.6844000000000000    0.5530750000000000    0.8546000000000000 H
   0.6631466666666666    0.4741950000000000    0.9832900000000000 H
   0.8100499999999999    0.4441350000000000    0.3093600000000000 H
   0.8510899999999999    0.5523350000000000    0.3543700000000000 H
   0.8296866666666667    0.4738450000000000    0.4836100000000000 H
   0.8120600000000000    0.5539400000000000    0.1936200000000000 H
   0.8471466666666666    0.4452100000000000    0.1478200000000000 H
   0.8306499999999999    0.5243850000000000    0.0191100000000000 H
   0.6846933333333333    0.8030050000000000    0.1475500000000000 H
   0.6666666666666666    0.6949149999999999    0.1938900000000000 H
   0.6666666666666666    0.7241250000000000    0.0192600000000000 H
   0.6447266666666667    0.8044450000000001    0.3091200000000000 H
   0.6832199999999999    0.6958200000000000    0.3545100000000000 H
   0.6632833333333332    0.7745050000000000    0.4834900000000000 H
   0.8114600000000000    0.8039499999999999    0.8088100000000000 H
   0.8483766666666666    0.6953250000000000    0.8548200000000000 H
   0.8312166666666666    0.7744400000000000    0.9833100000000000 H
   0.8100133333333333    0.6941500000000000    0.6934500000000000 H
   0.8491799999999999    0.8024650000000000    0.6478500000000000 H
   0.8295166666666667    0.7238599999999999    0.5190200000000000 H
   0.0036433333333333    0.9539599999999999    0.5354900000000000 C
   0.0051266666666667    0.0445650000000000    0.9671300000000000 C
   0.9652366666666666    0.9192100000000001    0.9145000000000000 C
   0.0000000000000000    0.0798900000000000    0.5871300000000000 C
   0.9885800000000000    0.9645900000000001    0.8410200000000000 C
   0.9878699999999999    0.9554849999999999    0.8976200000000000 C
   0.0101100000000000    0.9732200000000000    0.6356700000000000 C
   0.0000000000000000    0.0345450000000000    0.6610600000000000 C
   0.0031133333333333    0.9993449999999999    0.6768600000000000 C
   0.9997466666666666    0.0175500000000000    0.5630800000000000 C
   0.0000000000000000    0.0434550000000000    0.6043700000000000 C
   0.0072133333333333    0.9821750000000000    0.5788900000000000 C
   0.0078366666666667    0.0164500000000000    0.9235200000000000 C
   0.9992933333333333    0.0000000000000000    0.9390900000000000 C
   0.0110133333333333    0.0255650000000000    0.8668000000000000 C
   0.0031866666666667    0.0000000000000000    0.8254400000000000 C
   0.1717033333333333    0.0442200000000000    0.4669700000000000 C
   0.1687766666666666    0.9538550000000000    0.0353000000000000 C
   0.1342866666666667    0.0797950000000000    0.0877900000000000 C
   0.1322000000000000    0.9186300000000001    0.4154600000000000 C
   0.1548466666666667    0.9638450000000001    0.3413900000000000 C
   0.1541800000000000    0.9549000000000001    0.3980800000000000 C
   0.1775233333333333    0.0248800000000000    0.3668000000000000 C
   0.1695166666666666    0.0000000000000000    0.3256000000000000 C
   0.1656800000000000    0.9806699999999999    0.4393700000000000 C
   0.1743066666666667    0.0159450000000000    0.4235800000000000 C
   0.1559233333333333    0.0341450000000000    0.1614100000000000 C
   0.1556533333333333    0.0432400000000000    0.1047900000000000 C
   0.1752233333333333    0.9728100000000000    0.1355900000000000 C
   0.1660333333333333    0.0173950000000000    0.0633100000000000 C
   0.1726733333333333    0.9819550000000000    0.0788800000000000 C
   0.1688533333333333    0.9988400000000000    0.1769700000000000 C
   0.0036900000000000    0.2040500000000000    0.4670400000000000 C
   0.0051666666666667    0.2945000000000000    0.0351200000000000 C
   0.9659399999999999    0.3299100000000000    0.4151100000000000 C
   0.0000000000000000    0.1691600000000000    0.0882200000000000 C
   0.0113433333333333    0.2754950000000000    0.1354700000000000 C
   0.0000000000000000    0.2145250000000000    0.1616000000000000 C
   0.0036166666666667    0.2496000000000000    0.1769700000000000 C
   0.9995799999999999    0.2310650000000000    0.0634200000000000 C
   0.0000000000000000    0.2054150000000000    0.1050200000000000 C
   0.0080800000000000    0.2663800000000000    0.0788100000000000 C
   0.9891266666666666    0.2846200000000000    0.3412300000000000 C
   0.9883233333333332    0.2935350000000000    0.3978900000000000 C
   0.0103600000000000    0.2233500000000000    0.3668500000000000 C
   0.9992799999999999    0.2676550000000000    0.4392700000000000 C
   0.0071766666666667    0.2323050000000000    0.4235900000000000 C
   0.0032466666666667    0.2494500000000000    0.3255600000000000 C
   0.1702466666666667    0.2039100000000000    0.9673400000000000 C
   0.1701433333333333    0.2942800000000000    0.5353500000000000 C
   0.1342066666666666    0.3298050000000000    0.9146000000000000 C
   0.1322800000000000    0.1686350000000000    0.5874500000000000 C
   0.1557633333333333    0.2841800000000000    0.8410200000000000 C
   0.1557233333333333    0.2932800000000000    0.8976100000000000 C
   0.1760933333333333    0.2229100000000000    0.8669700000000000 C
   0.1665600000000000    0.2674650000000000    0.9391300000000000 C
   0.1736600000000000    0.2320450000000000    0.9236600000000000 C
   0.1690200000000000    0.2489150000000000    0.8255300000000000 C
   0.1545600000000000    0.2138850000000000    0.6613000000000000 C
   0.1540600000000000    0.2049300000000000    0.6046500000000000 C
   0.1761766666666667    0.2749750000000000    0.6355600000000000 C
   0.1652800000000000    0.2307200000000000    0.5632200000000001 C
   0.1732033333333333    0.2660150000000000    0.5788300000000000 C
   0.1686900000000000    0.2489650000000000    0.6768999999999999 C
   0.6703100000000000    0.9539599999999999    0.5354900000000000 C
   0.6717933333333332    0.0445650000000000    0.9671300000000000 C
   0.6319033333333333    0.9192100000000001    0.9145000000000000 C
   0.6666666666666666    0.0798900000000000    0.5871300000000000 C
   0.6552466666666666    0.9645900000000001    0.8410200000000000 C
   0.6545366666666665    0.9554849999999999    0.8976200000000000 C
   0.6767766666666666    0.9732200000000000    0.6356700000000000 C
   0.6666666666666666    0.0345450000000000    0.6610600000000000 C
   0.6697799999999999    0.9993449999999999    0.6768600000000000 C
   0.6664133333333333    0.0175500000000000    0.5630800000000000 C
   0.6666666666666666    0.0434550000000000    0.6043700000000000 C
   0.6738799999999999    0.9821750000000000    0.5788900000000000 C
   0.6659599999999999    0.0000000000000000    0.9390900000000000 C
   0.6745033333333333    0.0164500000000000    0.9235200000000000 C
   0.6776799999999999    0.0255650000000000    0.8668000000000000 C
   0.6698533333333333    0.0000000000000000    0.8254400000000000 C
   0.8383699999999999    0.0442200000000000    0.4669700000000000 C
   0.8354433333333333    0.9538550000000000    0.0353000000000000 C
   0.8009533333333333    0.0797950000000000    0.0877900000000000 C
   0.7988666666666666    0.9186300000000001    0.4154600000000000 C
   0.8215133333333333    0.9638450000000001    0.3413900000000000 C
   0.8208466666666666    0.9549000000000001    0.3980800000000000 C
   0.8441900000000000    0.0248800000000000    0.3668000000000000 C
   0.8361833333333333    0.0000000000000000    0.3256000000000000 C
   0.8323466666666666    0.9806699999999999    0.4393700000000000 C
   0.8409733333333334    0.0159450000000000    0.4235800000000000 C
   0.8225899999999999    0.0341450000000000    0.1614100000000000 C
   0.8223199999999999    0.0432400000000000    0.1047900000000000 C
   0.8418899999999999    0.9728100000000000    0.1355900000000000 C
   0.8327000000000000    0.0173950000000000    0.0633100000000000 C
   0.8393400000000000    0.9819550000000000    0.0788800000000000 C
   0.8355199999999999    0.9988400000000000    0.1769700000000000 C
   0.6703566666666666    0.2040500000000000    0.4670400000000000 C
   0.6718333333333333    0.2945000000000000    0.0351200000000000 C
   0.6326066666666665    0.3299100000000000    0.4151100000000000 C
   0.6666666666666666    0.1691600000000000    0.0882200000000000 C
   0.6780100000000000    0.2754950000000000    0.1354700000000000 C
   0.6666666666666666    0.2145250000000000    0.1616000000000000 C
   0.6702833333333333    0.2496000000000000    0.1769700000000000 C
   0.6662466666666667    0.2310650000000000    0.0634200000000000 C
   0.6666666666666666    0.2054150000000000    0.1050200000000000 C
   0.6747466666666666    0.2663800000000000    0.0788100000000000 C
   0.6557933333333332    0.2846200000000000    0.3412300000000000 C
   0.6549900000000000    0.2935350000000000    0.3978900000000000 C
   0.6770266666666667    0.2233500000000000    0.3668500000000000 C
   0.6659466666666667    0.2676550000000000    0.4392700000000000 C
   0.6738433333333333    0.2323050000000000    0.4235900000000000 C
   0.6699133333333332    0.2494500000000000    0.3255600000000000 C
   0.8369133333333333    0.2039100000000000    0.9673400000000000 C
   0.8368099999999999    0.2942800000000000    0.5353500000000000 C
   0.8008733333333333    0.3298050000000000    0.9146000000000000 C
   0.7989466666666667    0.1686350000000000    0.5874500000000000 C
   0.8224300000000000    0.2841800000000000    0.8410200000000000 C
   0.8223900000000000    0.2932800000000000    0.8976100000000000 C
   0.8427600000000000    0.2229100000000000    0.8669700000000000 C
   0.8332266666666666    0.2674650000000000    0.9391300000000000 C
   0.8403266666666667    0.2320450000000000    0.9236600000000000 C
   0.8356866666666666    0.2489150000000000    0.8255300000000000 C
   0.8212266666666665    0.2138850000000000    0.6613000000000000 C
   0.8207266666666666    0.2049300000000000    0.6046500000000000 C
   0.8428433333333333    0.2749750000000000    0.6355600000000000 C
   0.8319466666666666    0.2307200000000000    0.5632200000000001 C
   0.8398699999999999    0.2660150000000000    0.5788300000000000 C
   0.8353566666666666    0.2489650000000000    0.6768999999999999 C
   0.3369766666666666    0.9539599999999999    0.5354900000000000 C
   0.3384600000000000    0.0445650000000000    0.9671300000000000 C
   0.2985700000000000    0.9192100000000001    0.9145000000000000 C
   0.3333333333333333    0.0798900000000000    0.5871300000000000 C
   0.3219133333333333    0.9645900000000001    0.8410200000000000 C
   0.3212033333333333    0.9554849999999999    0.8976200000000000 C
   0.3434433333333333    0.9732200000000000    0.6356700000000000 C
   0.3333333333333333    0.0345450000000000    0.6610600000000000 C
   0.3364466666666667    0.9993449999999999    0.6768600000000000 C
   0.3330800000000000    0.0175500000000000    0.5630800000000000 C
   0.3333333333333333    0.0434550000000000    0.6043700000000000 C
   0.3405466666666667    0.9821750000000000    0.5788900000000000 C
   0.3326266666666666    0.0000000000000000    0.9390900000000000 C
   0.3411700000000000    0.0164500000000000    0.9235200000000000 C
   0.3443466666666666    0.0255650000000000    0.8668000000000000 C
   0.3365200000000000    0.0000000000000000    0.8254400000000000 C
   0.5050366666666666    0.0442200000000000    0.4669700000000000 C
   0.5021099999999999    0.9538550000000000    0.0353000000000000 C
   0.4676200000000000    0.0797950000000000    0.0877900000000000 C
   0.4655333333333333    0.9186300000000001    0.4154600000000000 C
   0.4881799999999999    0.9638450000000001    0.3413900000000000 C
   0.4875133333333333    0.9549000000000001    0.3980800000000000 C
   0.5108566666666666    0.0248800000000000    0.3668000000000000 C
   0.5028500000000000    0.0000000000000000    0.3256000000000000 C
   0.4990133333333333    0.9806699999999999    0.4393700000000000 C
   0.5076400000000000    0.0159450000000000    0.4235800000000000 C
   0.4892566666666667    0.0341450000000000    0.1614100000000000 C
   0.4889866666666666    0.0432400000000000    0.1047900000000000 C
   0.5085566666666667    0.9728100000000000    0.1355900000000000 C
   0.4993666666666666    0.0173950000000000    0.0633100000000000 C
   0.5060066666666667    0.9819550000000000    0.0788800000000000 C
   0.5021866666666667    0.9988400000000000    0.1769700000000000 C
   0.3370233333333333    0.2040500000000000    0.4670400000000000 C
   0.3385000000000000    0.2945000000000000    0.0351200000000000 C
   0.2992733333333333    0.3299100000000000    0.4151100000000000 C
   0.3333333333333333    0.1691600000000000    0.0882200000000000 C
   0.3446766666666666    0.2754950000000000    0.1354700000000000 C
   0.3333333333333333    0.2145250000000000    0.1616000000000000 C
   0.3369500000000000    0.2496000000000000    0.1769700000000000 C
   0.3329133333333333    0.2310650000000000    0.0634200000000000 C
   0.3333333333333333    0.2054150000000000    0.1050200000000000 C
   0.3414133333333333    0.2663800000000000    0.0788100000000000 C
   0.3224600000000000    0.2846200000000000    0.3412300000000000 C
   0.3216566666666666    0.2935350000000000    0.3978900000000000 C
   0.3436933333333333    0.2233500000000000    0.3668500000000000 C
   0.3326133333333333    0.2676550000000000    0.4392700000000000 C
   0.3405100000000000    0.2323050000000000    0.4235900000000000 C
   0.3365800000000000    0.2494500000000000    0.3255600000000000 C
   0.5035799999999999    0.2039100000000000    0.9673400000000000 C
   0.5034766666666667    0.2942800000000000    0.5353500000000000 C
   0.4675400000000000    0.3298050000000000    0.9146000000000000 C
   0.4656133333333333    0.1686350000000000    0.5874500000000000 C
   0.4890966666666666    0.2841800000000000    0.8410200000000000 C
   0.4890566666666666    0.2932800000000000    0.8976100000000000 C
   0.5094266666666667    0.2229100000000000    0.8669700000000000 C
   0.4998933333333333    0.2674650000000000    0.9391300000000000 C
   0.5069933333333333    0.2320450000000000    0.9236600000000000 C
   0.5023533333333333    0.2489150000000000    0.8255300000000000 C
   0.4878933333333333    0.2138850000000000    0.6613000000000000 C
   0.4873933333333333    0.2049300000000000    0.6046500000000000 C
   0.5095100000000000    0.2749750000000000    0.6355600000000000 C
   0.4986133333333333    0.2307200000000000    0.5632200000000001 C
   0.5065366666666666    0.2660150000000000    0.5788300000000000 C
   0.5020233333333333    0.2489650000000000    0.6768999999999999 C
   0.0036433333333333    0.4539600000000000    0.5354900000000000 C
   0.0051266666666667    0.5445650000000000    0.9671300000000000 C
   0.9652366666666666    0.4192100000000000    0.9145000000000000 C
   0.0000000000000000    0.5798900000000000    0.5871300000000000 C
   0.9885800000000000    0.4645900000000000    0.8410200000000000 C
   0.9878699999999999    0.4554850000000000    0.8976200000000000 C
   0.0101100000000000    0.4732200000000000    0.6356700000000000 C
   0.0000000000000000    0.5345450000000000    0.6610600000000000 C
   0.0031133333333333    0.4993450000000000    0.6768600000000000 C
   0.9997466666666666    0.5175500000000000    0.5630800000000000 C
   0.0000000000000000    0.5434550000000000    0.6043700000000000 C
   0.0072133333333333    0.4821750000000000    0.5788900000000000 C
   0.0078366666666667    0.5164500000000000    0.9235200000000000 C
   0.9992933333333333    0.5000000000000000    0.9390900000000000 C
   0.0110133333333333    0.5255649999999999    0.8668000000000000 C
   0.0031866666666667    0.5000000000000000    0.8254400000000000 C
   0.1717033333333333    0.5442200000000000    0.4669700000000000 C
   0.1687766666666666    0.4538550000000000    0.0353000000000000 C
   0.1342866666666667    0.5797950000000001    0.0877900000000000 C
   0.1322000000000000    0.4186300000000000    0.4154600000000000 C
   0.1548466666666667    0.4638450000000000    0.3413900000000000 C
   0.1541800000000000    0.4549000000000000    0.3980800000000000 C
   0.1775233333333333    0.5248800000000000    0.3668000000000000 C
   0.1695166666666666    0.5000000000000000    0.3256000000000000 C
   0.1656800000000000    0.4806700000000000    0.4393700000000000 C
   0.1743066666666667    0.5159450000000000    0.4235800000000000 C
   0.1559233333333333    0.5341450000000000    0.1614100000000000 C
   0.1556533333333333    0.5432399999999999    0.1047900000000000 C
   0.1752233333333333    0.4728100000000000    0.1355900000000000 C
   0.1660333333333333    0.5173950000000000    0.0633100000000000 C
   0.1726733333333333    0.4819550000000000    0.0788800000000000 C
   0.1688533333333333    0.4988400000000000    0.1769700000000000 C
   0.0036900000000000    0.7040500000000001    0.4670400000000000 C
   0.0051666666666667    0.7945000000000000    0.0351200000000000 C
   0.9659399999999999    0.8299099999999999    0.4151100000000000 C
   0.0000000000000000    0.6691600000000000    0.0882200000000000 C
   0.0113433333333333    0.7754950000000000    0.1354700000000000 C
   0.0000000000000000    0.7145250000000000    0.1616000000000000 C
   0.0036166666666667    0.7496000000000000    0.1769700000000000 C
   0.9995799999999999    0.7310650000000000    0.0634200000000000 C
   0.0000000000000000    0.7054150000000000    0.1050200000000000 C
   0.0080800000000000    0.7663800000000001    0.0788100000000000 C
   0.9891266666666666    0.7846200000000000    0.3412300000000000 C
   0.9883233333333332    0.7935350000000000    0.3978900000000000 C
   0.0103600000000000    0.7233499999999999    0.3668500000000000 C