H5 C16 N2 O8
1.0
  16.8449586188058653    0.0000000000000000    0.0373380599125491
   0.2844996832216740   37.9209060852315005    0.0450067250422980
   0.0000000000000000    0.0000000000000000   23.8880000000000017
H C N O
5 16 2 8
direct
   0.3103766666666666    0.4449800000000000    0.8088600000000000 H
   0.3493566666666666    0.4456850000000000    0.6481200000000000 H
   0.3510666666666666    0.5530750000000000    0.8546000000000000 H
   0.3333333333333333    0.5544000000000000    0.6931000000000000 H
   0.3333333333333333    0.5244000000000000    0.5188400000000000 H
   0.2985700000000000    0.4192100000000000    0.9145000000000000 C
   0.3212033333333333    0.4554850000000000    0.8976200000000000 C
   0.3219133333333333    0.4645900000000000    0.8410200000000000 C
   0.3364466666666667    0.4993450000000000    0.6768600000000000 C
   0.3405466666666667    0.4821750000000000    0.5788900000000000 C
   0.3369766666666666    0.4539600000000000    0.5354900000000000 C
   0.3434433333333333    0.4732200000000000    0.6356700000000000 C
   0.3326266666666666    0.5000000000000000    0.9390900000000000 C
   0.3330800000000000    0.5175500000000000    0.5630800000000000 C
   0.3411700000000000    0.5164500000000000    0.9235200000000000 C
   0.3384600000000000    0.5445650000000000    0.9671300000000000 C
   0.3443466666666666    0.5255649999999999    0.8668000000000000 C
   0.3365200000000000    0.5000000000000000    0.8254400000000000 C
   0.3333333333333333    0.5345450000000000    0.6610600000000000 C
   0.3333333333333333    0.5434550000000000    0.6043700000000000 C
   0.3333333333333333    0.5798900000000000    0.5871300000000000 C
   0.3384366666666667    0.4872650000000000    0.7329200000000000 N
   0.3387300000000000    0.5118200000000001    0.7694000000000000 N
   0.2419400000000000    0.4040650000000000    0.8900700000000000 O
   0.3299066666666667    0.4629050000000000    0.4838900000000000 O
   0.3370466666666667    0.4043050000000000    0.9561600000000000 O
   0.3366966666666666    0.4216750000000000    0.5508600000000000 O
   0.3333333333333333    0.5355550000000000    0.0186200000000000 O
   0.3401933333333333    0.5768900000000000   -0.0479500000000000 O
   0.3333333333333333    0.5957200000000000    0.6112500000000000 O
   0.3394800000000000    0.5943000000000001    0.5454599999999999 O
