H10 O7
1.0
  16.8449586188058653    0.0000000000000000    0.0373380599125491
   0.2844996832216740   37.9209060852315005    0.0450067250422980
   0.0000000000000000    0.0000000000000000   23.8880000000000017
H O
10 7
direct
   0.8500323975501262    0.0833318784109958    0.4130817750323025 H
   0.8323893379762032    0.0111014475788603    0.5310508254916677 H
   0.8431378930292301    0.0444047911411146    0.4680770725681575 H
   0.7696298231875088    0.9095705643288030    0.4168656415963752 H
   0.6996040478602467    0.9062759388838217    0.3649619617274613 H
   0.8693286582161738    0.9123345776810882    0.4886510895053034 H
   0.7881644378302959    0.0833718613216231    0.0932342265008816 H
   0.8407350344616055    0.9144489379789285    1.0892560800125972 H
   0.8345221076329745    0.9871976432970967    0.9713030898767979 H
   0.8394553101830603    0.9536252104379925    1.0342361421079682 H
   0.8400399999999999    0.0764850000000000    0.4515800000000000 O
   0.8300399999999999    0.0354300000000000    0.5185400000000000 O
   0.7429566666666666    0.9028650000000000    0.3911200000000000 O
   0.8371899999999999    0.9042550000000000    0.4576300000000000 O
   0.7442466666666666    0.0956550000000000    0.1119300000000000 O
   0.8335266666666666    0.9215599999999999    1.0505700000000000 O
   0.8300333333333333    0.9629200000000000    0.9836700000000000 O
