H10 O7
1.0
  16.8449586188058653    0.0000000000000000    0.0373380599125491
   0.2844996832216740   37.9209060852315005    0.0450067250422980
   0.0000000000000000    0.0000000000000000   23.8880000000000017
H O
10 7
direct
   0.6718810844314398    0.6659013179096078    0.4122079961691133 H
   0.6658139969425305    0.7376055280914257    0.5293483231873254 H
   0.6689841843481437    0.7051233304200235    0.4661735444276806 H
   0.5931277533494810    0.8464185943445929    0.3555466675893912 H
   0.5488132632993508    0.8464875063674263    0.3551306382604599 H
   0.6894027820240645    0.8450064659337001    0.4185601857219128 H
   0.6672715226491914    0.6669732318844626    0.0820628510828446 H
   0.6759085032680038    0.7729149427236923    0.9494464016025645 H
   0.6932029350658442    0.8473285578384260    1.0697433026507621 H
   0.6885543622251995    0.8116382424122200    1.0087595317164195 H
   0.6701366666666666    0.6717850000000000    0.4517000000000000 O
   0.6666666666666666    0.7129400000000000    0.5186400000000000 O
   0.5761566666666667    0.8457250000000001    0.3908100000000000 O
   0.6708933333333333    0.8442499999999999    0.4570200000000000 O
   0.6707700000000000    0.6543250000000000    0.0464500000000000 O
   0.6634033333333333    0.7855050000000000    0.9837100000000000 O
   0.6734700000000000    0.8268249999999999    1.0500900000000000 O
