K24 V60 P46 H46 C23 O150
1.0
  32.5499971443944958    0.0000000000000000    0.0136345117178645
  -0.0007564432171247   14.4469999801963613    0.0000000000000009
   0.0000000000000000    0.0000000000000000   15.8569999999999993
K V P H C O
24 60 46 46 23 150
direct
   0.0000000000000000    0.4876500000000000    0.7500100000000000 K
   0.1107766666666667    0.0000000000000000    0.7499700000000000 K
   0.0000000000000000    0.0000000000000000    0.7500100000000000 K
   0.0575166666666667    0.5123200000000000    0.2499200000000000 K
   0.2241733333333333    0.5123100000000000    0.2498800000000000 K
   0.0575133333333333    0.9876700000000000    0.2499000000000000 K
   0.2241633333333333    0.9877000000000000    0.2498000000000000 K
   0.1107966666666667    0.4876600000000000    0.7499900000000000 K
   0.3333333333333333    0.4876500000000000    0.7500100000000000 K
   0.4441100000000000    0.0000000000000000    0.7499700000000000 K
   0.3333333333333333    0.0000000000000000    0.7500100000000000 K
   0.3908500000000000    0.5123200000000000    0.2499200000000000 K
   0.5575066666666666    0.5123100000000000    0.2498800000000000 K
   0.3908466666666667    0.9876700000000000    0.2499000000000000 K
   0.5574966666666666    0.9877000000000000    0.2498000000000000 K
   0.4441300000000000    0.4876600000000000    0.7499900000000000 K
   0.6666666666666666    0.4876500000000000    0.7500100000000000 K
   0.7774433333333333    0.0000000000000000    0.7499700000000000 K
   0.6666666666666666    0.0000000000000000    0.7500100000000000 K
   0.7241833333333333    0.5123200000000000    0.2499200000000000 K
   0.8908400000000000    0.5123100000000000    0.2498800000000000 K
   0.7241799999999999    0.9876700000000000    0.2499000000000000 K
   0.8908300000000000    0.9877000000000000    0.2498000000000000 K
   0.7774633333333333    0.4876600000000000    0.7499900000000000 K
   0.0223800000000000    0.4679800000000000    0.5471800000000000 V
   0.1890566666666667    0.4679600000000000    0.5471500000000000 V
   0.0223266666666667    0.0320500000000000    0.9527600000000001 V
   0.1890000000000000    0.0320100000000000    0.9525900000000000 V
   0.1459733333333333    0.5319700000000001    0.0472300000000000 V
   0.0000000000000000    0.5319500000000000    0.0472500000000000 V
   0.1460233333333333    0.9679200000000000    0.4527900000000000 V
   0.0000000000000000    0.9679200000000000    0.4527900000000000 V
   0.1460233333333333    0.5320900000000000    0.4528000000000000 V
   0.0000000000000000    0.5320800000000000    0.4527900000000000 V
   0.1459733333333333    0.9680700000000000    0.0472100000000000 V
   0.0000000000000000    0.9681000000000000    0.0472600000000000 V
   0.0223400000000000    0.4679500000000000    0.9527600000000001 V
   0.1890066666666667    0.4679700000000000    0.9526800000000000 V
   0.0223833333333333    0.0320100000000000    0.5471800000000000 V
   0.1890600000000000    0.0320300000000000    0.5471300000000000 V
   0.2946733333333333    0.7500100000000000    0.7500400000000000 V
   0.1280000000000000    0.7500200000000000    0.7501000000000000 V
   0.2069800000000000    0.2499800000000000    0.2499800000000000 V
   0.0403533333333333    0.2499900000000000    0.2501000000000000 V
   0.3557133333333333    0.4679800000000000    0.5471800000000000 V
   0.5223899999999999    0.4679600000000000    0.5471500000000000 V
   0.3556600000000000    0.0320500000000000    0.9527600000000001 V
   0.5223333333333333    0.0320100000000000    0.9525900000000000 V
   0.4793066666666667    0.5319700000000001    0.0472300000000000 V
   0.3333333333333333    0.5319500000000000    0.0472500000000000 V
   0.4793566666666667    0.9679200000000000    0.4527900000000000 V
   0.3333333333333333    0.9679200000000000    0.4527900000000000 V
   0.4793566666666667    0.5320900000000000    0.4528000000000000 V
   0.3333333333333333    0.5320800000000000    0.4527900000000000 V
   0.4793066666666667    0.9680700000000000    0.0472100000000000 V
   0.3333333333333333    0.9681000000000000    0.0472600000000000 V
   0.3556733333333333    0.4679500000000000    0.9527600000000001 V
   0.5223400000000000    0.4679700000000000    0.9526800000000000 V
   0.3557166666666666    0.0320100000000000    0.5471800000000000 V
   0.5223933333333333    0.0320300000000000    0.5471300000000000 V
   0.6280066666666666    0.7500100000000000    0.7500400000000000 V
   0.4613333333333333    0.7500200000000000    0.7501000000000000 V
   0.5403133333333333    0.2499800000000000    0.2499800000000000 V
   0.3736866666666667    0.2499900000000000    0.2501000000000000 V
   0.6890466666666666    0.4679800000000000    0.5471800000000000 V
   0.8557233333333333    0.4679600000000000    0.5471500000000000 V
   0.6889933333333333    0.0320500000000000    0.9527600000000001 V
   0.8556666666666666    0.0320100000000000    0.9525900000000000 V
   0.8126399999999999    0.5319700000000001    0.0472300000000000 V
   0.6666666666666666    0.5319500000000000    0.0472500000000000 V
   0.8126899999999999    0.9679200000000000    0.4527900000000000 V
   0.6666666666666666    0.9679200000000000    0.4527900000000000 V
   0.8126899999999999    0.5320900000000000    0.4528000000000000 V
   0.6666666666666666    0.5320800000000000    0.4527900000000000 V
   0.8126399999999999    0.9680700000000000    0.0472100000000000 V
   0.6666666666666666    0.9681000000000000    0.0472600000000000 V
   0.6890066666666667    0.4679500000000000    0.9527600000000001 V
   0.8556733333333333    0.4679700000000000    0.9526800000000000 V
   0.6890499999999999    0.0320100000000000    0.5471800000000000 V
   0.8557266666666666    0.0320300000000000    0.5471300000000000 V
   0.9613400000000000    0.7500100000000000    0.7500400000000000 V
   0.7946666666666666    0.7500200000000000    0.7501000000000000 V
   0.8736466666666667    0.2499800000000000    0.2499800000000000 V
   0.7070200000000000    0.2499900000000000    0.2501000000000000 V
   0.2535500000000000    0.6447900000000000    0.5834800000000000 P
   0.0868900000000000    0.6447900000000000    0.5835100000000000 P
   0.2535300000000000    0.8552100000000000    0.9165900000000000 P
   0.0868500000000000    0.8552300000000000    0.9166200000000000 P
   0.2480233333333333    0.3552200000000000    0.0832800000000000 P
   0.0814100000000000    0.3552100000000000    0.0833800000000000 P
   0.2482300000000000    0.1447800000000000    0.4163700000000000 P
   0.0815566666666667    0.1447800000000000    0.4164900000000000 P
   0.2482166666666667    0.3552000000000000    0.4164100000000000 P
   0.0815533333333333    0.3552200000000000    0.4165000000000000 P
   0.2479733333333333    0.1447800000000000    0.0831500000000000 P
   0.0814000000000000    0.1447900000000000    0.0833500000000000 P
   0.2535366666666666    0.6447800000000000    0.9165900000000000 P
   0.0868600000000000    0.6447800000000000    0.9166200000000000 P
   0.2535500000000000    0.8552200000000000    0.5834800000000000 P
   0.0868900000000000    0.8552100000000000    0.5834900000000000 P
   0.5868833333333333    0.6447900000000000    0.5834800000000000 P
   0.4202233333333333    0.6447900000000000    0.5835100000000000 P
   0.5868633333333333    0.8552100000000000    0.9165900000000000 P
   0.4201833333333333    0.8552300000000000    0.9166200000000000 P
   0.5813566666666666    0.3552200000000000    0.0832800000000000 P
   0.4147433333333333    0.3552100000000000    0.0833800000000000 P
   0.5815633333333333    0.1447800000000000    0.4163700000000000 P
   0.5815500000000000    0.3552000000000000    0.4164100000000000 P
   0.5813066666666666    0.1447800000000000    0.0831500000000000 P
   0.4147333333333333    0.1447900000000000    0.0833500000000000 P
   0.5868700000000000    0.6447800000000000    0.9165900000000000 P
   0.4201933333333333    0.6447800000000000    0.9166200000000000 P
   0.5868833333333333    0.8552200000000000    0.5834800000000000 P
   0.4202233333333333    0.8552100000000000    0.5834900000000000 P
   0.9202166666666667    0.6447900000000000    0.5834800000000000 P
   0.7535566666666667    0.6447900000000000    0.5835100000000000 P
   0.9201966666666666    0.8552100000000000    0.9165900000000000 P
   0.7535166666666666    0.8552300000000000    0.9166200000000000 P
   0.9146900000000000    0.3552200000000000    0.0832800000000000 P
   0.7480766666666666    0.3552100000000000    0.0833800000000000 P
   0.9148966666666666    0.1447800000000000    0.4163700000000000 P
   0.7482233333333332    0.1447800000000000    0.4164900000000000 P
   0.9148833333333333    0.3552000000000000    0.4164100000000000 P
   0.7482200000000000    0.3552200000000000    0.4165000000000000 P
   0.9146399999999999    0.1447800000000000    0.0831500000000000 P
   0.7480666666666667    0.1447900000000000    0.0833500000000000 P
   0.9202033333333333    0.6447800000000000    0.9165900000000000 P
   0.7535266666666667    0.6447800000000000    0.9166200000000000 P
   0.9202166666666667    0.8552200000000000    0.5834800000000000 P
   0.7535566666666667    0.8552100000000000    0.5834900000000000 P
   0.2113566666666667    0.7499900000000000    0.5021000000000000 H
   0.0447000000000000    0.7499900000000000    0.5021000000000000 H
   0.1991866666666667    0.7499900000000000    0.6120600000000000 H
   0.0325200000000000    0.7499900000000000    0.6120600000000000 H
   0.2113766666666667    0.7499800000000000    0.9981100000000001 H
   0.0446966666666667    0.7499900000000000    0.9981300000000000 H
   0.1991666666666667    0.7499800000000000    0.8881900000000000 H
   0.0324900000000000    0.7499900000000000    0.8882100000000001 H
   0.2904533333333333    0.2500100000000000    0.0000000000000000 H
   0.1237666666666667    0.2500100000000000    0.0000000000000000 H
   0.3022666666666667    0.2499300000000000    0.1124600000000000 H
   0.1357100000000000    0.2499900000000000    0.1123100000000000 H
   0.2902500000000000    0.2499800000000000    0.4981100000000000 H
   0.1235933333333333    0.2500000000000000    0.4981700000000000 H
   0.3026266666666667    0.2500200000000000    0.3882300000000000 H
   0.1359500000000000    0.2500200000000000    0.3882900000000000 H
   0.5446900000000000    0.7499900000000000    0.5021000000000000 H
   0.3780333333333333    0.7499900000000000    0.5021000000000000 H
   0.5325200000000000    0.7499900000000000    0.6120600000000000 H
   0.3658533333333333    0.7499900000000000    0.6120600000000000 H
   0.5447100000000000    0.7499800000000000    0.9981100000000001 H
   0.3780300000000000    0.7499900000000000    0.9981300000000000 H
   0.5325000000000000    0.7499800000000000    0.8881900000000000 H
   0.3658233333333333    0.7499900000000000    0.8882100000000001 H
   0.6237866666666667    0.2500100000000000    0.0000000000000000 H
   0.4571000000000000    0.2500100000000000    0.0000000000000000 H
   0.6355999999999999    0.2499300000000000    0.1124600000000000 H
   0.4690433333333333    0.2499900000000000    0.1123100000000000 H
   0.6235833333333334    0.2499800000000000    0.4981100000000000 H
   0.6359600000000000    0.2500200000000000    0.3882300000000000 H
   0.8780233333333333    0.7499900000000000    0.5021000000000000 H
   0.7113666666666666    0.7499900000000000    0.5021000000000000 H
   0.8658533333333333    0.7499900000000000    0.6120600000000000 H
   0.6991866666666666    0.7499900000000000    0.6120600000000000 H
   0.8780433333333333    0.7499800000000000    0.9981100000000001 H
   0.7113633333333333    0.7499900000000000    0.9981300000000000 H
   0.8658333333333332    0.7499800000000000    0.8881900000000000 H
   0.6991566666666666    0.7499900000000000    0.8882100000000001 H
   0.9571200000000000    0.2500100000000000    0.0000000000000000 H
   0.7904333333333333    0.2500100000000000    0.0000000000000000 H
   0.9689333333333333    0.2499300000000000    0.1124600000000000 H
   0.8023766666666666    0.2499900000000000    0.1123100000000000 H
   0.9569166666666666    0.2499800000000000    0.4981100000000000 H
   0.7902600000000000    0.2500000000000000    0.4981700000000000 H
   0.9692933333333333    0.2500200000000000    0.3882300000000000 H
   0.8026166666666666    0.2500200000000000    0.3882900000000000 H
   0.2244866666666666    0.7500000000000000    0.5659300000000000 C
   0.0578233333333333    0.7500000000000000    0.5659400000000000 C
   0.2244833333333333    0.7499800000000000    0.9342400000000000 C
   0.0578066666666667    0.7500000000000000    0.9342600000000000 C
   0.2771133333333333    0.2499900000000000    0.0660400000000000 C
   0.1105033333333333    0.2500000000000000    0.0660100000000000 C
   0.2772466666666666    0.2500000000000000    0.4341700000000000 C
   0.1105800000000000    0.2500100000000000    0.4342400000000000 C
   0.5578200000000000    0.7500000000000000    0.5659300000000000 C
   0.3911566666666667    0.7500000000000000    0.5659400000000000 C
   0.5578166666666666    0.7499800000000000    0.9342400000000000 C
   0.3911400000000000    0.7500000000000000    0.9342600000000000 C
   0.6104466666666666    0.2499900000000000    0.0660400000000000 C
   0.4438366666666667    0.2500000000000000    0.0660100000000000 C
   0.6105799999999999    0.2500000000000000    0.4341700000000000 C
   0.8911533333333332    0.7500000000000000    0.5659300000000000 C
   0.7244900000000000    0.7500000000000000    0.5659400000000000 C
   0.8911499999999999    0.7499800000000000    0.9342400000000000 C
   0.7244733333333333    0.7500000000000000    0.9342600000000000 C
   0.9437800000000000    0.2499900000000000    0.0660400000000000 C
   0.7771699999999999    0.2500000000000000    0.0660100000000000 C
   0.9439133333333333    0.2500000000000000    0.4341700000000000 C
   0.7772466666666666    0.2500100000000000    0.4342400000000000 C
   0.2780000000000000    0.6553200000000000    0.6661300000000000 O
   0.1113400000000000    0.6553400000000000    0.6661500000000000 O
   0.2235800000000000    0.5623200000000000    0.5961700000000000 O
   0.0569133333333333    0.5623300000000000    0.5961800000000000 O
   0.2814300000000000    0.6293100000000000    0.5059100000000000 O
   0.1147733333333333    0.6293100000000000    0.5059399999999999 O
   0.2780100000000000    0.8446800000000000    0.8339400000000000 O
   0.1113133333333333    0.8447200000000000    0.8339500000000000 O
   0.2235300000000000    0.9375800000000000    0.9038100000000000 O
   0.0568500000000000    0.9376100000000001    0.9038700000000000 O
   0.2813833333333333    0.8708000000000000    0.9941400000000000 O
   0.1147200000000000    0.8708100000000000    0.9941400000000000 O
   0.2233733333333333    0.3447200000000000    0.1657300000000000 O
   0.0568333333333333    0.3446900000000000    0.1659100000000000 O
   0.2780133333333333    0.4376200000000000    0.0961800000000000 O
   0.1113900000000000    0.4376400000000000    0.0961800000000000 O
   0.2203533333333333    0.3706900000000000    0.0054100000000000 O
   0.0536633333333333    0.3706900000000000    0.0056300000000000 O
   0.2238833333333333    0.1552900000000000    0.3335800000000000 O
   0.0571733333333333    0.1552900000000000    0.3337600000000000 O
   0.2782166666666667    0.0623400000000000    0.4038100000000000 O
   0.1115400000000000    0.0623500000000000    0.4038400000000000 O
   0.2202400000000000    0.1292300000000000    0.4937500000000000 O
   0.0536033333333333    0.1292300000000000    0.4939300000000000 O
   0.2238500000000000    0.3446500000000000    0.3336600000000000 O
   0.0571633333333333    0.3446900000000000    0.3337700000000000 O
   0.2782000000000000    0.4376600000000000    0.4038200000000000 O
   0.1115333333333333    0.4376600000000000    0.4038500000000000 O
   0.2202533333333333    0.3707500000000000    0.4938300000000000 O
   0.0536033333333333    0.3707600000000000    0.4939400000000000 O
   0.2231866666666667    0.1552800000000000    0.1654300000000000 O
   0.0568133333333333    0.1553000000000000    0.1658700000000000 O
   0.2779600000000000    0.0624000000000000    0.0961900000000000 O
   0.1113800000000000    0.0623700000000000    0.0961800000000000 O
   0.2204200000000000    0.1293100000000000    0.0050800000000000 O
   0.0536700000000000    0.1293100000000000    0.0055900000000000 O
   0.2780100000000000    0.6553099999999999    0.8339400000000000 O
   0.1113266666666667    0.6553099999999999    0.8339600000000000 O
   0.2235433333333333    0.5623800000000000    0.9038300000000000 O
   0.0568700000000000    0.5623700000000000    0.9038700000000000 O
   0.2813966666666666    0.6292200000000000    0.9941400000000000 O
   0.1147233333333333    0.6292300000000000    0.9941600000000000 O
   0.2780000000000000    0.8446900000000001    0.6661200000000000 O
   0.1113433333333333    0.8446800000000000    0.6661300000000000 O
   0.2235800000000000    0.9376800000000000    0.5961600000000000 O
   0.0569166666666667    0.9376700000000000    0.5961800000000000 O
   0.2814300000000000    0.8706900000000000    0.5059000000000000 O
   0.1147666666666667    0.8706900000000000    0.5059200000000000 O
   0.1771533333333333    0.7500100000000000    0.7502400000000000 O
   0.0105000000000000    0.7500100000000000    0.7500700000000000 O
   0.3245300000000000    0.2500000000000000    0.2509100000000000 O
   0.1578333333333333    0.2500300000000000    0.2510500000000000 O
   0.6113333333333333    0.6553200000000000    0.6661300000000000 O
   0.4446733333333333    0.6553400000000000    0.6661500000000000 O
   0.5569133333333334    0.5623200000000000    0.5961700000000000 O
   0.3902466666666666    0.5623300000000000    0.5961800000000000 O
   0.6147633333333333    0.6293100000000000    0.5059100000000000 O
   0.4481066666666667    0.6293100000000000    0.5059399999999999 O
   0.6113433333333333    0.8446800000000000    0.8339400000000000 O
   0.4446466666666666    0.8447200000000000    0.8339500000000000 O
   0.5568633333333333    0.9375800000000000    0.9038100000000000 O
   0.3901833333333333    0.9376100000000001    0.9038700000000000 O
   0.6147166666666666    0.8708000000000000    0.9941400000000000 O
   0.4480533333333333    0.8708100000000000    0.9941400000000000 O
   0.5567066666666667    0.3447200000000000    0.1657300000000000 O
   0.3901666666666667    0.3446900000000000    0.1659100000000000 O
   0.6113466666666667    0.4376200000000000    0.0961800000000000 O
   0.4447233333333333    0.4376400000000000    0.0961800000000000 O
   0.5536866666666667    0.3706900000000000    0.0054100000000000 O
   0.3869966666666667    0.3706900000000000    0.0056300000000000 O
   0.5572166666666667    0.1552900000000000    0.3335800000000000 O
   0.6115500000000000    0.0623400000000000    0.4038100000000000 O
   0.5535733333333333    0.1292300000000000    0.4937500000000000 O
   0.5571833333333334    0.3446500000000000    0.3336600000000000 O
   0.6115333333333333    0.4376600000000000    0.4038200000000000 O
   0.5535866666666667    0.3707500000000000    0.4938300000000000 O
   0.5565200000000000    0.1552800000000000    0.1654300000000000 O
   0.3901466666666666    0.1553000000000000    0.1658700000000000 O
   0.6112933333333332    0.0624000000000000    0.0961900000000000 O
   0.4447133333333333    0.0623700000000000    0.0961800000000000 O
   0.5537533333333333    0.1293100000000000    0.0050800000000000 O
   0.3870033333333333    0.1293100000000000    0.0055900000000000 O
   0.6113433333333333    0.6553099999999999    0.8339400000000000 O
   0.4446599999999999    0.6553099999999999    0.8339600000000000 O
   0.5568766666666667    0.5623800000000000    0.9038300000000000 O
   0.3902033333333333    0.5623700000000000    0.9038700000000000 O
   0.6147300000000000    0.6292200000000000    0.9941400000000000 O
   0.4480566666666667    0.6292300000000000    0.9941600000000000 O
   0.6113333333333333    0.8446900000000001    0.6661200000000000 O
   0.4446766666666666    0.8446800000000000    0.6661300000000000 O
   0.5569133333333334    0.9376800000000000    0.5961600000000000 O
   0.3902500000000000    0.9376700000000000    0.5961800000000000 O
   0.6147633333333333    0.8706900000000000    0.5059000000000000 O
   0.4480999999999999    0.8706900000000000    0.5059200000000000 O
   0.5104866666666666    0.7500100000000000    0.7502400000000000 O
   0.3438333333333333    0.7500100000000000    0.7500700000000000 O
   0.6578633333333332    0.2500000000000000    0.2509100000000000 O
   0.4911666666666666    0.2500300000000000    0.2510500000000000 O
   0.9446666666666665    0.6553200000000000    0.6661300000000000 O
   0.7780066666666666    0.6553400000000000    0.6661500000000000 O
   0.8902466666666666    0.5623200000000000    0.5961700000000000 O
   0.7235800000000000    0.5623300000000000    0.5961800000000000 O
   0.9480966666666666    0.6293100000000000    0.5059100000000000 O
   0.7814399999999999    0.6293100000000000    0.5059399999999999 O
   0.9446766666666666    0.8446800000000000    0.8339400000000000 O
   0.7779800000000000    0.8447200000000000    0.8339500000000000 O
   0.8901966666666666    0.9375800000000000    0.9038100000000000 O
   0.7235166666666666    0.9376100000000001    0.9038700000000000 O
   0.9480499999999999    0.8708000000000000    0.9941400000000000 O
   0.7813866666666667    0.8708100000000000    0.9941400000000000 O
   0.8900399999999999    0.3447200000000000    0.1657300000000000 O
   0.7234999999999999    0.3446900000000000    0.1659100000000000 O
   0.9446800000000000    0.4376200000000000    0.0961800000000000 O
   0.7780566666666666    0.4376400000000000    0.0961800000000000 O
   0.8870199999999999    0.3706900000000000    0.0054100000000000 O
   0.7203299999999999    0.3706900000000000    0.0056300000000000 O
   0.8905500000000000    0.1552900000000000    0.3335800000000000 O
   0.7238399999999999    0.1552900000000000    0.3337600000000000 O
   0.9448833333333333    0.0623400000000000    0.4038100000000000 O
   0.7782066666666666    0.0623500000000000    0.4038400000000000 O
   0.8869066666666666    0.1292300000000000    0.4937500000000000 O
   0.7202700000000000    0.1292300000000000    0.4939300000000000 O
   0.8905166666666666    0.3446500000000000    0.3336600000000000 O
   0.7238300000000000    0.3446900000000000    0.3337700000000000 O
   0.9448666666666666    0.4376600000000000    0.4038200000000000 O
   0.7782000000000000    0.4376600000000000    0.4038500000000000 O
   0.8869199999999999    0.3707500000000000    0.4938300000000000 O
   0.7202700000000000    0.3707600000000000    0.4939400000000000 O
   0.8898533333333333    0.1552800000000000    0.1654300000000000 O
   0.7234800000000000    0.1553000000000000    0.1658700000000000 O
   0.9446266666666666    0.0624000000000000    0.0961900000000000 O
   0.7780466666666667    0.0623700000000000    0.0961800000000000 O
   0.8870866666666666    0.1293100000000000    0.0050800000000000 O
   0.7203366666666666    0.1293100000000000    0.0055900000000000 O
   0.9446766666666666    0.6553099999999999    0.8339400000000000 O
   0.7779933333333333    0.6553099999999999    0.8339600000000000 O
   0.8902099999999999    0.5623800000000000    0.9038300000000000 O
   0.7235366666666666    0.5623700000000000    0.9038700000000000 O
   0.9480633333333333    0.6292200000000000    0.9941400000000000 O
   0.7813899999999999    0.6292300000000000    0.9941600000000000 O
   0.9446666666666665    0.8446900000000001    0.6661200000000000 O
   0.7780100000000000    0.8446800000000000    0.6661300000000000 O
   0.8902466666666666    0.9376800000000000    0.5961600000000000 O
   0.7235833333333332    0.9376700000000000    0.5961800000000000 O
   0.9480966666666666    0.8706900000000000    0.5059000000000000 O
   0.7814333333333333    0.8706900000000000    0.5059200000000000 O
   0.8438200000000000    0.7500100000000000    0.7502400000000000 O
   0.6771666666666666    0.7500100000000000    0.7500700000000000 O
   0.9911966666666666    0.2500000000000000    0.2509100000000000 O
   0.8245000000000000    0.2500300000000000    0.2510500000000000 O
