H12 O8
1.0
  22.8423451845884564    0.0000000000000000    1.8482844662304032
   0.8393796667693515   12.6254618327635608    2.0852173230732545
   0.0000000000000000    0.0000000000000000   25.8580000000000005
H O
12 8
direct
   0.2202170941770924    0.5342445555918447    0.4035363696134608 H
   0.3828769413002064    0.5889274488382720    0.3767193419824529 H
   0.3054494548291640    0.5411932373867897    0.3920260365881644 H
   0.2890251585101495    0.1686920674863783    0.5626596914955280 H
   0.1775515630434206    0.3717902749570947    0.5197389480915674 H
   0.2290731965191152    0.2824633028209556    0.5242936091748946 H
   0.6124919507170089    0.1952321510423048    0.2317637606232597 H
   0.4496767466620070    0.2465126076073385    0.2052919337892683 H
   0.5268240035061477    0.2172813571123943    0.2286712013818216 H
   0.6128913580999081    0.8902203117968609    0.3074482391815282 H
   0.5358628606177116    0.8030638942388275    0.4073406071336640 H
   0.5437876375268043    0.8216085073620923    0.3668596918108943 H
   0.2466666666666666    0.5907100000000000    0.3936050000000000 O
   0.3433900000000000    0.6221900000000000    0.3777800000000000 O
   0.2617766666666667    0.2089400000000000    0.5837850000000000 O
   0.1947033333333333    0.3332300000000000    0.5509400000000000 O
   0.5860933333333334    0.2143500000000000    0.2037400000000000 O
   0.4891566666666666    0.2445600000000000    0.1886850000000000 O
   0.6396599999999999    0.9014200000000000    0.3329300000000000 O
   0.5726400000000000    0.8336800000000000    0.3943250000000000 O
