H14 C10 N4
1.0
  17.2359999973748081    0.0000000000000000   -0.0003008249498605
   0.2419266558071727   16.9442620939089146    0.0192246230540824
   0.0000000000000000    0.0000000000000000   35.7060000000000031
H C N
14 10 4
direct
   0.7627900000000000    0.5767200000000000    0.4505000000000000 H
   0.7650600000000000    0.7014300000000000    0.4884600000000000 H
   0.6436100000000000    0.5333000000000000    0.6536900000000000 H
   0.7105700000000000    0.3374600000000000    0.5207550000000000 H
   0.8133300000000000    0.3358400000000000    0.5186850000000000 H
   0.7654500000000000    0.3691000000000000    0.5601800000000000 H
   0.7071900000000000    0.6884300000000000    0.5293050000000000 H
   0.8096900000000000    0.6882700000000000    0.5330200000000000 H
   0.5947500000000000    0.4123100000000000    0.5970500000000000 H
   0.5529700000000000    0.5044300000000000    0.5832750000000000 H
   0.6125400000000000    0.4507500000000000    0.5515900000000000 H
   0.9010899999999999    0.5998800000000000    0.6248700000000000 H
   0.8990700000000000    0.5782000000000000    0.5758950000000000 H
   0.8610800000000000    0.6692100000000000    0.5930900000000000 H
   0.7628300000000000    0.3688800000000000    0.5294850000000000 C
   0.7623400000000000    0.4514000000000000    0.5150650000000000 C
   0.7577199999999999    0.5221200000000000    0.5360000000000000 C
   0.7625800000000000    0.5832600000000000    0.5097850000000000 C
   0.7611800000000000    0.6700600000000000    0.5152150000000000 C
   0.6052500000000000    0.4666900000000000    0.5811300000000000 C
   0.6755400000000000    0.5074800000000000    0.5950450000000000 C
   0.7430700000000000    0.5310400000000000    0.5761550000000000 C
   0.7893400000000000    0.5686400000000000    0.6030000000000000 C
   0.8668000000000000    0.6056600000000000    0.5990800000000001 C
   0.7681900000000000    0.4679400000000000    0.4781550000000000 N
   0.7691200000000000    0.5485100000000001    0.4756850000000000 N
   0.7520800000000000    0.5676400000000000    0.6366050000000000 N
   0.6835700000000000    0.5299300000000000    0.6310750000000001 N
