H4 C8 O4
1.0
  17.2359999973748081    0.0000000000000000   -0.0003008249498605
   0.2419266558071727   16.9442620939089146    0.0192246230540824
   0.0000000000000000    0.0000000000000000   35.7060000000000031
H C O
4 8 4
direct
   0.5157500000000000    0.8268700000000000    0.4768550000000000 H
   0.6165800000000000    0.5942800000000000    0.4688000000000000 H
   0.4117500000000000    0.7743600000000000    0.5189550000000001 H
   0.5195100000000000    0.5451500000000000    0.5000000000000000 H
   0.5147200000000000    0.7646400000000000    0.4844500000000000 C
   0.5727900000000000    0.6341400000000000    0.4803500000000000 C
   0.6385100000000000    0.7453100000000000    0.4468050000000000 C
   0.5728799999999999    0.7140600000000000    0.4702000000000000 C
   0.3980500000000000    0.6234300000000000    0.5446200000000000 C
   0.4591000000000000    0.6562300000000000    0.5192250000000000 C
   0.4574900000000000    0.7357300000000000    0.5081400000000000 C
   0.5178600000000000    0.6062200000000000    0.5000000000000000 C
   0.6397900000000000    0.8225400000000000    0.4452500000000000 O
   0.6873899999999999    0.6998500000000000    0.4324100000000000 O
   0.3360900000000000    0.6665800000000000    0.5483950000000000 O
   0.4098300000000000    0.5567400000000000    0.5596000000000000 O
