H2 O2
1.0
  17.2359999973748081    0.0000000000000000   -0.0003008249498605
   0.2419266558071727   16.9442620939089146    0.0192246230540824
   0.0000000000000000    0.0000000000000000   35.7060000000000031
H O
2 2
direct
   0.6388341083002695    0.7648653781482940    0.4464112590570944 H
   0.3829900951743974    0.6339179743903285    0.5455375458475895 H
   0.6397900000000000    0.8225400000000000    0.4452500000000000 O
   0.3360900000000000    0.6665800000000000    0.5483950000000000 O
