H9 O6
1.0
  38.2151990393224992    0.0000000000000000   10.7410883240463324
   2.2517027258913576   38.1198284472463342   10.7847537749696638
   0.0000000000000000    0.0000000000000000   31.0120000000000005
H O
9 6
direct
   0.1965447006127748    0.2962670254570530    0.2137322874943418 H
   0.2741960116065550    0.3259781554358240    0.1041990813190493 H
   0.2455622952556092    0.3152306850532670    0.1654311308799389 H
   0.6663910991197390    0.1685881222131115    0.3008848343710065 H
   0.6521451592544468    0.2671285687584897    0.3077940531424802 H
   0.6457700689280210    0.2226055783476948    0.3025147655030218 H
   0.6327310419099219    0.0213294166935183    0.6717599831381029 H
   0.5526238739786251    0.0620570407342249    0.6781782118263949 H
   0.5801833400162083    0.0258608221697623    0.6415457348930638 H
   0.1999550000000000    0.2972950000000000    0.1812350000000000 O
   0.2511500000000000    0.3169150000000000    0.1121850000000000 O
   0.6814249999999999    0.1843450000000000    0.3049050000000000 O
   0.6699850000000001    0.2479850000000000    0.3089900000000000 O
   0.6282449999999999    0.0367250000000000    0.6924700000000000 O
   0.5685850000000000    0.0656650000000000    0.6950900000000000 O
