Zn64 H191 C190 N285 O1
1.0
  15.4279996028806288    0.0000000000000000    0.0035005021309375
   0.0017554283775310   20.1339986968410827    0.0070280916892063
   0.0000000000000000    0.0000000000000000   35.6099999999999994
Zn H C N O
64 191 190 285 1
direct
   0.2960800000000000    0.3750600000000000    0.7876900000000000 Zn
   0.5174500000000000    0.3750000000000000    0.6326750000000000 Zn
   0.7039299999999999    0.6249600000000000    0.7122999999999999 Zn
   0.4826100000000000    0.6250200000000000    0.8673000000000000 Zn
   0.7039100000000000    0.1249500000000000    0.7122999999999999 Zn
   0.4826000000000000    0.1250100000000000    0.8673200000000000 Zn
   0.2960800000000000    0.8750700000000000    0.7876950000000000 Zn
   0.5174500000000000    0.8750000000000000    0.6326750000000000 Zn
   0.5447400000000000    0.3749700000000000    0.4622900000000000 Zn
   0.7667800000000000    0.3750100000000000    0.6172500000000000 Zn
   0.9552200000000000    0.1250200000000000    0.5376950000000000 Zn
   0.7332000000000000    0.1250000000000000    0.3827400000000000 Zn
   0.9552100000000000    0.6250200000000000    0.5376950000000000 Zn
   0.7332000000000000    0.6250000000000000    0.3827400000000000 Zn
   0.5447300000000000    0.8749700000000000    0.4622500000000000 Zn
   0.7667800000000000    0.8750200000000000    0.6172500000000000 Zn
   0.7960600000000000    0.3750600000000000    0.2876900000000000 Zn
   0.0174600000000000    0.3750000000000000    0.1326750000000000 Zn
   0.2039300000000000    0.1249600000000000    0.2123000000000000 Zn
   0.9825700000000001    0.1250200000000000    0.3673200000000000 Zn
   0.7960500000000000    0.8750700000000000    0.2876900000000000 Zn
   0.0174500000000000    0.8750100000000000    0.1326750000000000 Zn
   0.2039300000000000    0.6249600000000000    0.2123050000000000 Zn
   0.9825800000000000    0.6250200000000000    0.3673200000000000 Zn
   0.4552300000000000    0.6250599999999999    0.0377050000000000 Zn
   0.2332100000000000    0.6250100000000000    0.8827400000000001 Zn
   0.0447700000000000    0.8750000000000000    0.9622950000000000 Zn
   0.2667900000000000    0.8750300000000000    0.1172550000000000 Zn
   0.0447600000000000    0.3749900000000000    0.9622950000000000 Zn
   0.2668000000000000    0.3750200000000000    0.1172500000000000 Zn
   0.4552400000000000    0.1250500000000000    0.0377050000000000 Zn
   0.2332100000000000    0.1250000000000000    0.8827400000000001 Zn
   0.2960800000000000    0.3750600000000000    0.2876900000000000 Zn
   0.5174500000000000    0.3750000000000000    0.1326750000000000 Zn
   0.7039299999999999    0.6249600000000000    0.2123000000000000 Zn
   0.4826100000000000    0.6250200000000000    0.3673000000000000 Zn
   0.7039100000000000    0.1249500000000000    0.2123000000000000 Zn
   0.4826000000000000    0.1250100000000000    0.3673200000000000 Zn
   0.2960800000000000    0.8750700000000000    0.2876950000000000 Zn
   0.5174500000000000    0.8750000000000000    0.1326750000000000 Zn
   0.5447400000000000    0.3749700000000000    0.9622900000000000 Zn
   0.7667800000000000    0.3750100000000000    0.1172500000000000 Zn
   0.9552200000000000    0.1250200000000000    0.0376950000000000 Zn
   0.7332000000000000    0.1250000000000000    0.8827400000000001 Zn
   0.9552100000000000    0.6250200000000000    0.0376950000000000 Zn
   0.7332000000000000    0.6250000000000000    0.8827400000000001 Zn
   0.5447300000000000    0.8749700000000000    0.9622500000000000 Zn
   0.7667800000000000    0.8750200000000000    0.1172500000000000 Zn
   0.7960600000000000    0.3750600000000000    0.7876900000000000 Zn
   0.0174600000000000    0.3750000000000000    0.6326750000000000 Zn
   0.2039300000000000    0.1249600000000000    0.7122999999999999 Zn
   0.9825700000000001    0.1250200000000000    0.8673200000000000 Zn
   0.7960500000000000    0.8750700000000000    0.7876900000000000 Zn
   0.0174500000000000    0.8750100000000000    0.6326750000000000 Zn
   0.2039300000000000    0.6249600000000000    0.7123050000000000 Zn
   0.9825800000000000    0.6250200000000000    0.8673200000000000 Zn
   0.4552300000000000    0.6250599999999999    0.5377050000000000 Zn
   0.2332100000000000    0.6250100000000000    0.3827400000000000 Zn
   0.0447700000000000    0.8750000000000000    0.4622950000000000 Zn
   0.2667900000000000    0.8750300000000000    0.6172550000000000 Zn
   0.0447600000000000    0.3749900000000000    0.4622950000000000 Zn
   0.2668000000000000    0.3750200000000000    0.6172500000000000 Zn
   0.4552400000000000    0.1250500000000000    0.5377050000000000 Zn
   0.2332100000000000    0.1250000000000000    0.3827400000000000 Zn
   0.4749900000000000    0.4843700000000000    0.8116600000000000 H
   0.2121400000000000    0.4771500000000000    0.8419400000000000 H
   0.4748800000000000    0.2656900000000000    0.8116099999999999 H
   0.2120100000000000    0.2728200000000000    0.8418800000000000 H
   0.4992800000000000    0.3749600000000000    0.7317800000000000 H
   0.2326100000000000    0.3750700000000000    0.7084200000000000 H
   0.5250600000000000    0.5156900000000000    0.6883049999999999 H
   0.7879400000000000    0.5228500000000000    0.6580500000000000 H
   0.5251700000000000    0.7343100000000000    0.6883750000000000 H
   0.7880400000000000    0.7272100000000000    0.6581000000000000 H
   0.5007800000000000    0.6251000000000000    0.7682150000000000 H
   0.7674600000000000    0.6249100000000000    0.7915500000000000 H
   0.5250500000000000    0.0156400000000000    0.6883250000000000 H
   0.7879100000000000    0.0228600000000000    0.6580550000000001 H
   0.5251500000000000    0.2343300000000000    0.6883800000000000 H
   0.7880100000000000    0.2271900000000000    0.6581049999999999 H
   0.5007600000000000    0.1250600000000000    0.7682200000000000 H
   0.7674299999999999    0.1249500000000000    0.7915700000000000 H
   0.4749900000000000    0.9843400000000000    0.8116900000000000 H
   0.2121000000000000    0.9771800000000000    0.8419000000000000 H
   0.4748800000000000    0.7657100000000000    0.8116000000000000 H
   0.2120200000000000    0.7728300000000000    0.8418950000000001 H
   0.4992800000000000    0.8749300000000000    0.7317850000000000 H
   0.2326100000000000    0.8751200000000000    0.7084250000000000 H
   0.7245500000000000    0.2657100000000000    0.4386000000000000 H
   0.4619600000000000    0.2727300000000000    0.4079800000000000 H
   0.7244600000000000    0.4842500000000000    0.4386750000000000 H
   0.4618600000000000    0.4773900000000000    0.4080450000000000 H
   0.7484200000000000    0.3750600000000000    0.5179549999999999 H
   0.4819200000000000    0.3749500000000000    0.5417550000000000 H
   0.7755100000000000    0.2343000000000000    0.5613600000000000 H
   0.0381200000000000    0.2273100000000000    0.5919950000000000 H
   0.7754799999999999    0.0157900000000000    0.5613700000000000 H
   0.0381200000000000    0.0226600000000000    0.5919700000000000 H
   0.7515500000000001    0.1250200000000000    0.4820300000000000 H
   0.0180800000000000    0.1250500000000000    0.4582400000000000 H
   0.7755000000000000    0.7343100000000000    0.5613550000000000 H
   0.0381100000000000    0.7273100000000000    0.5920000000000000 H
   0.7754900000000000    0.5157800000000000    0.5613600000000000 H
   0.0381200000000000    0.5226600000000000    0.5919700000000000 H
   0.7515400000000000    0.6250200000000000    0.4820300000000000 H
   0.0180700000000000    0.6250100000000000    0.4582400000000000 H
   0.7245400000000000    0.7657300000000000    0.4386000000000000 H
   0.4619400000000000    0.7727200000000000    0.4079500000000000 H
   0.7244600000000000    0.9842600000000000    0.4386750000000000 H
   0.4618700000000000    0.9773800000000000    0.4080350000000000 H
   0.7484100000000000    0.8751100000000001    0.5179500000000000 H
   0.4819100000000000    0.8749100000000000    0.5417550000000000 H
   0.9749500000000000    0.4843500000000000    0.3116650000000000 H
   0.7121000000000000    0.4771400000000000    0.3419500000000000 H
   0.9748500000000000    0.2657100000000000    0.3116200000000000 H
   0.7119700000000000    0.2728000000000000    0.3418700000000000 H
   0.9992400000000000    0.3749600000000000    0.2317500000000000 H
   0.7325800000000000    0.3750600000000000    0.2084150000000000 H
   0.0250600000000000    0.0156600000000000    0.1883150000000000 H
   0.2879300000000000    0.0228600000000000    0.1580650000000000 H
   0.0251600000000000    0.2343100000000000    0.1883700000000000 H
   0.2880400000000000    0.2272200000000000    0.1581300000000000 H
   0.0007700000000000    0.1250700000000000    0.2682200000000000 H
   0.2674400000000000    0.1249400000000000    0.2915700000000000 H
   0.9749400000000000    0.9843700000000000    0.3116600000000000 H
   0.7120800000000000    0.9771600000000000    0.3419350000000000 H
   0.9748500000000000    0.7656900000000000    0.3116000000000000 H
   0.7119900000000000    0.7728100000000000    0.3418800000000000 H
   0.9992300000000000    0.8749600000000000    0.2317800000000000 H
   0.7325600000000000    0.8750599999999999    0.2084100000000000 H
   0.0250700000000000    0.5156600000000000    0.1883200000000000 H
   0.2879400000000000    0.5228600000000000    0.1580650000000000 H
   0.0251500000000000    0.7343100000000000    0.1883650000000000 H
   0.2880500000000000    0.7272400000000000    0.1581450000000000 H
   0.0007900000000000    0.6250500000000000    0.2682250000000000 H
   0.2674700000000000    0.6249800000000000    0.2915750000000000 H
   0.2754500000000000    0.7343200000000000    0.0613900000000000 H
   0.5380400000000000    0.7272800000000000    0.0920150000000000 H
   0.2755400000000000    0.5157500000000000    0.0613100000000000 H
   0.5381200000000000    0.5226700000000000    0.0919700000000000 H
   0.2515500000000000    0.6249400000000001    0.9820350000000000 H
   0.5180600000000000    0.6251000000000000    0.9582450000000000 H
   0.2245500000000000    0.9842200000000000    0.9386050000000000 H
   0.9618900000000000    0.9773800000000000    0.9080349999999999 H
   0.2245200000000000    0.7657500000000000    0.9386150000000000 H
   0.9618900000000000    0.7726900000000000    0.9080150000000000 H
   0.2484500000000000    0.8750200000000000    0.0179600000000000 H
   0.9819200000000000    0.8749900000000000    0.0417550000000000 H
   0.2245100000000000    0.2657400000000000    0.9386200000000000 H
   0.9618900000000000    0.2727000000000000    0.9079999999999999 H
   0.2245300000000000    0.4842000000000000    0.9386099999999999 H
   0.9618800000000000    0.4773700000000000    0.9080349999999999 H
   0.2484400000000000    0.3749800000000000    0.0179550000000000 H
   0.9819200000000000    0.3749900000000000    0.0417550000000000 H
   0.2754500000000000    0.2343200000000000    0.0613900000000000 H
   0.5380400000000000    0.2272700000000000    0.0920000000000000 H
   0.2755500000000000    0.0157400000000000    0.0613200000000000 H
   0.5381400000000000    0.0226400000000000    0.0919500000000000 H
   0.2515600000000000    0.1249300000000000    0.9820300000000000 H
   0.5180700000000000    0.1250800000000000    0.9582450000000000 H
   0.4749900000000000    0.4843700000000000    0.3116600000000000 H
   0.2121400000000000    0.4771500000000000    0.3419400000000000 H
   0.4748800000000000    0.2656900000000000    0.3116100000000000 H
   0.2120100000000000    0.2728200000000000    0.3418800000000000 H
   0.4992800000000000    0.3749600000000000    0.2317800000000000 H
   0.2326100000000000    0.3750700000000000    0.2084200000000000 H
   0.5250600000000000    0.5156900000000000    0.1883050000000000 H
   0.7879400000000000    0.5228500000000000    0.1580500000000000 H
   0.5251700000000000    0.7343100000000000    0.1883750000000000 H
   0.7880400000000000    0.7272100000000000    0.1581000000000000 H
   0.5007800000000000    0.6251000000000000    0.2682150000000000 H
   0.7674600000000000    0.6249100000000000    0.2915500000000000 H
   0.5250500000000000    0.0156400000000000    0.1883250000000000 H
   0.7879100000000000    0.0228600000000000    0.1580550000000000 H
   0.5251500000000000    0.2343300000000000    0.1883800000000000 H
   0.7880100000000000    0.2271900000000000    0.1581050000000000 H
   0.5007600000000000    0.1250600000000000    0.2682200000000000 H
   0.7674299999999999    0.1249500000000000    0.2915700000000000 H
   0.4749900000000000    0.9843400000000000    0.3116900000000000 H
   0.2121000000000000    0.9771800000000000    0.3419000000000000 H
   0.4748800000000000    0.7657100000000000    0.3116000000000000 H
   0.2120200000000000    0.7728300000000000    0.3418950000000000 H
   0.4992800000000000    0.8749300000000000    0.2317850000000000 H
   0.2326100000000000    0.8751200000000000    0.2084250000000000 H
   0.7245500000000000    0.2657100000000000    0.9386000000000000 H
   0.4619600000000000    0.2727300000000000    0.9079800000000000 H
   0.7244600000000000    0.4842500000000000    0.9386749999999999 H
   0.4618600000000000    0.4773900000000000    0.9080450000000000 H
   0.7484200000000000    0.3750600000000000    0.0179550000000000 H
   0.4819200000000000    0.3749500000000000    0.0417550000000000 H
   0.7755100000000000    0.2343000000000000    0.0613600000000000 H
   0.0381200000000000    0.2273100000000000    0.0919950000000000 H
   0.7754799999999999    0.0157900000000000    0.0613700000000000 H
   0.0381200000000000    0.0226600000000000    0.0919700000000000 H
   0.7515500000000001    0.1250200000000000    0.9820300000000000 H
   0.0180800000000000    0.1250500000000000    0.9582400000000000 H
   0.7755000000000000    0.7343100000000000    0.0613550000000000 H
   0.0381100000000000    0.7273100000000000    0.0920000000000000 H
   0.7754900000000000    0.5157800000000000    0.0613600000000000 H
   0.0381200000000000    0.5226600000000000    0.0919700000000000 H
   0.7515400000000000    0.6250200000000000    0.9820300000000000 H
   0.0180700000000000    0.6250100000000000    0.9582400000000000 H
   0.7245400000000000    0.7657300000000000    0.9386000000000000 H
   0.4619400000000000    0.7727200000000000    0.9079500000000000 H
   0.7244600000000000    0.9842600000000000    0.9386749999999999 H
   0.4618700000000000    0.9773800000000000    0.9080349999999999 H
   0.7484100000000000    0.8751100000000001    0.0179500000000000 H
   0.4819100000000000    0.8749100000000000    0.0417550000000000 H
   0.9749500000000000    0.4843500000000000    0.8116650000000001 H
   0.7121000000000000    0.4771400000000000    0.8419500000000000 H
   0.9748500000000000    0.2657100000000000    0.8116200000000000 H
   0.7119700000000000    0.2728000000000000    0.8418700000000000 H
   0.9992400000000000    0.3749600000000000    0.7317500000000000 H
   0.7325800000000000    0.3750600000000000    0.7084150000000000 H
   0.0250600000000000    0.0156600000000000    0.6883150000000000 H
   0.2879300000000000    0.0228600000000000    0.6580650000000000 H
   0.0251600000000000    0.2343100000000000    0.6883700000000000 H
   0.2880400000000000    0.2272200000000000    0.6581300000000000 H
   0.0007700000000000    0.1250700000000000    0.7682200000000000 H
   0.2674400000000000    0.1249400000000000    0.7915700000000000 H
   0.9749400000000000    0.9843700000000000    0.8116600000000000 H
   0.7120800000000000    0.9771600000000000    0.8419350000000000 H
   0.9748500000000000    0.7656900000000000    0.8116000000000000 H
   0.7119900000000000    0.7728100000000000    0.8418800000000000 H
   0.9992300000000000    0.8749600000000000    0.7317800000000000 H
   0.7325600000000000    0.8750599999999999    0.7084100000000000 H
   0.0250700000000000    0.5156600000000000    0.6883200000000000 H
   0.2879400000000000    0.5228600000000000    0.6580650000000000 H
   0.0251500000000000    0.7343100000000000    0.6883650000000000 H
   0.2880500000000000    0.7272400000000000    0.6581450000000000 H
   0.0007900000000000    0.6250500000000000    0.7682249999999999 H
   0.2674700000000000    0.6249800000000000    0.7915749999999999 H
   0.2754500000000000    0.7343200000000000    0.5613900000000001 H
   0.5380400000000000    0.7272800000000000    0.5920150000000000 H
   0.2755400000000000    0.5157500000000000    0.5613100000000000 H
   0.5381200000000000    0.5226700000000000    0.5919700000000000 H
   0.2515500000000000    0.6249400000000001    0.4820350000000000 H
   0.5180600000000000    0.6251000000000000    0.4582450000000000 H
   0.2245500000000000    0.9842200000000000    0.4386050000000000 H
   0.9618900000000000    0.9773800000000000    0.4080350000000000 H
   0.0459470555251563    0.7671468544113909    0.4161341106373488 H
   0.2484500000000000    0.8750200000000000    0.5179600000000000 H
   0.9819200000000000    0.8749900000000000    0.5417550000000000 H
   0.2245100000000000    0.2657400000000000    0.4386200000000000 H
   0.9618900000000000    0.2727000000000000    0.4080000000000000 H
   0.2245300000000000    0.4842000000000000    0.4386100000000000 H
   0.9618800000000000    0.4773700000000000    0.4080350000000000 H
   0.2484400000000000    0.3749800000000000    0.5179549999999999 H
   0.9819200000000000    0.3749900000000000    0.5417550000000000 H
   0.2754500000000000    0.2343200000000000    0.5613900000000001 H
   0.5380400000000000    0.2272700000000000    0.5920000000000000 H
   0.2755500000000000    0.0157400000000000    0.5613200000000000 H
   0.5381400000000000    0.0226400000000000    0.5919500000000000 H
   0.2515600000000000    0.1249300000000000    0.4820300000000000 H
   0.5180700000000000    0.1250800000000000    0.4582450000000000 H
   0.4122400000000000    0.4959100000000000    0.8237700000000000 C
   0.2794100000000000    0.4922000000000000    0.8395900000000001 C
   0.4121300000000000    0.2541300000000000    0.8237000000000000 C
   0.2793000000000000    0.2577900000000000    0.8395400000000000 C
   0.4374000000000000    0.3749800000000000    0.7172600000000000 C
   0.3024800000000000    0.3750300000000000    0.7050850000000000 C
   0.5878200000000000    0.5041400000000000    0.6762000000000000 C
   0.7206600000000000    0.5078100000000000    0.6604050000000000 C
   0.5879100000000000    0.7458800000000000    0.6762550000000001 C
   0.7207500000000000    0.7422299999999999    0.6604449999999999 C
   0.5626600000000000    0.6250700000000000    0.7827400000000000 C
   0.6975800000000000    0.6249500000000000    0.7948999999999999 C
   0.5878000000000000    0.0041100000000000    0.6762150000000000 C
   0.7206399999999999    0.0078100000000000    0.6604050000000000 C
   0.5878900000000000    0.2458900000000000    0.6762650000000000 C
   0.7207300000000000    0.2422200000000000    0.6604500000000000 C
   0.5626400000000000    0.1250300000000000    0.7827400000000000 C
   0.6975600000000000    0.1249900000000000    0.7949050000000000 C
   0.4122300000000000    0.9958900000000001    0.8237900000000000 C
   0.2793800000000000    0.9922200000000000    0.8395800000000000 C
   0.4121400000000000    0.7541500000000000    0.8237300000000001 C
   0.2793100000000000    0.7578000000000000    0.8395450000000000 C
   0.4374000000000000    0.8749600000000000    0.7172600000000000 C
   0.3024800000000000    0.8750700000000000    0.7050900000000000 C
   0.6619300000000000    0.2541400000000000    0.4263900000000000 C
   0.5292500000000000    0.2577500000000000    0.4104000000000000 C
   0.6618500000000000    0.4958600000000000    0.4264500000000000 C
   0.5291500000000000    0.4923400000000000    0.4104700000000000 C
   0.6866500000000000    0.3750400000000000    0.5325750000000000 C
   0.5518200000000000    0.3749800000000000    0.5449550000000000 C
   0.8381200000000000    0.2458700000000000    0.5735850000000000 C
   0.9708100000000000    0.2422900000000000    0.5895650000000000 C
   0.8381000000000000    0.0041700000000000    0.5735800000000000 C
   0.9708000000000000    0.0077100000000000    0.5895500000000000 C
   0.8133300000000000    0.1250200000000000    0.4674100000000000 C
   0.9481600000000000    0.1250300000000000    0.4550350000000000 C
   0.8381100000000000    0.7458800000000000    0.5735800000000000 C
   0.9708000000000000    0.7422900000000000    0.5895700000000000 C
   0.8381000000000000    0.5041800000000000    0.5735800000000000 C
   0.9708000000000000    0.5077000000000000    0.5895450000000000 C
   0.8133200000000000    0.6250100000000000    0.4674100000000000 C
   0.9481500000000000    0.6250200000000000    0.4550350000000000 C
   0.6619200000000000    0.7541500000000000    0.4263900000000000 C
   0.5292300000000000    0.7577500000000000    0.4104050000000000 C
   0.6618500000000000    0.9958700000000000    0.4264550000000000 C
   0.5291700000000000    0.9923300000000000    0.4104550000000000 C
   0.6866400000000000    0.8750599999999999    0.5325500000000000 C
   0.5518200000000000    0.8749600000000000    0.5449550000000000 C
   0.9122000000000000    0.4958900000000000    0.3237500000000000 C
   0.7793700000000000    0.4921900000000000    0.3396000000000000 C
   0.9121100000000000    0.2541400000000000    0.3237300000000000 C
   0.7792600000000000    0.2577800000000000    0.3395300000000000 C
   0.9373700000000000    0.3749700000000000    0.2172500000000000 C
   0.8024500000000000    0.3750300000000000    0.2050850000000000 C
   0.0878200000000000    0.0041200000000000    0.1762100000000000 C
   0.2206500000000000    0.0078200000000000    0.1604000000000000 C
   0.0879000000000000    0.2458800000000000    0.1762600000000000 C
   0.2207500000000000    0.2422400000000000    0.1604650000000000 C
   0.0626500000000000    0.1250500000000000    0.2827400000000000 C
   0.1975700000000000    0.1249700000000000    0.2949050000000000 C
   0.9121899999999999    0.9959100000000000    0.3237750000000000 C
   0.7793600000000001    0.9922100000000000    0.3395500000000000 C
   0.9121100000000000    0.7541300000000000    0.3237200000000000 C
   0.7792800000000000    0.7577900000000000    0.3395350000000000 C
   0.9373500000000000    0.8749800000000000    0.2172550000000000 C
   0.8024400000000000    0.8750300000000000    0.2050800000000000 C
   0.0878200000000000    0.5041300000000000    0.1762100000000000 C
   0.2206700000000000    0.5078100000000000    0.1604100000000000 C
   0.0879000000000000    0.7458800000000000    0.1762600000000000 C
   0.2207600000000000    0.7422600000000000    0.1604800000000000 C
   0.0626700000000000    0.6250400000000000    0.2827450000000000 C
   0.1975900000000000    0.6250000000000000    0.2949000000000000 C
   0.3380700000000000    0.7458900000000001    0.0736100000000000 C
   0.4707600000000000    0.7422700000000000    0.0895900000000000 C
   0.3381500000000000    0.5041500000000000    0.0735400000000000 C
   0.4708300000000000    0.5077100000000000    0.0895400000000000 C
   0.3133300000000000    0.6249800000000000    0.9674150000000000 C
   0.4481600000000000    0.6250599999999999    0.9550400000000000 C
   0.1619200000000000    0.9958399999999999    0.9264000000000000 C
   0.0292100000000000    0.9923300000000000    0.9104500000000000 C
   0.1619100000000000    0.7541700000000000    0.9264000000000000 C
   0.0292000000000000    0.7577199999999999    0.9104400000000000 C
   0.1866800000000000    0.8750300000000000    0.0325800000000000 C
   0.0518500000000000    0.8749900000000000    0.0449500000000000 C
   0.1619000000000000    0.2541500000000000    0.9264049999999999 C
   0.0292100000000000    0.2577300000000000    0.9104200000000000 C
   0.1619100000000000    0.4958200000000000    0.9264049999999999 C
   0.0292000000000000    0.4923200000000000    0.9104449999999999 C
   0.1866700000000000    0.3749900000000000    0.0325750000000000 C
   0.0518400000000000    0.3749900000000000    0.0449600000000000 C
   0.3380700000000000    0.2458800000000000    0.0736100000000000 C
   0.4707600000000000    0.2422700000000000    0.0895900000000000 C
   0.3381500000000000    0.0041500000000000    0.0735500000000000 C
   0.4708500000000000    0.0076700000000000    0.0895250000000000 C
   0.3133400000000000    0.1249600000000000    0.9674100000000000 C
   0.4481700000000000    0.1250500000000000    0.9550400000000000 C
   0.4122400000000000    0.4959100000000000    0.3237700000000000 C
   0.2794100000000000    0.4922000000000000    0.3395900000000000 C
   0.4121300000000000    0.2541300000000000    0.3237000000000000 C
   0.2793000000000000    0.2577900000000000    0.3395400000000000 C
   0.4374000000000000    0.3749800000000000    0.2172600000000000 C
   0.3024800000000000    0.3750300000000000    0.2050850000000000 C
   0.5878200000000000    0.5041400000000000    0.1762000000000000 C
   0.7206600000000000    0.5078100000000000    0.1604050000000000 C
   0.5879100000000000    0.7458800000000000    0.1762550000000000 C
   0.7207500000000000    0.7422299999999999    0.1604450000000000 C
   0.5626600000000000    0.6250700000000000    0.2827400000000000 C
   0.6975800000000000    0.6249500000000000    0.2949000000000000 C
   0.5878000000000000    0.0041100000000000    0.1762150000000000 C
   0.7206399999999999    0.0078100000000000    0.1604050000000000 C
   0.5878900000000000    0.2458900000000000    0.1762650000000000 C
   0.7207300000000000    0.2422200000000000    0.1604500000000000 C
   0.5626400000000000    0.1250300000000000    0.2827400000000000 C
   0.6975600000000000    0.1249900000000000    0.2949050000000000 C
   0.4122300000000000    0.9958900000000001    0.3237900000000000 C
   0.2793800000000000    0.9922200000000000    0.3395800000000000 C
   0.4121400000000000    0.7541500000000000    0.3237300000000000 C
   0.2793100000000000    0.7578000000000000    0.3395450000000000 C
   0.4374000000000000    0.8749600000000000    0.2172600000000000 C
   0.3024800000000000    0.8750700000000000    0.2050900000000000 C
   0.6619300000000000    0.2541400000000000    0.9263900000000000 C
   0.5292500000000000    0.2577500000000000    0.9104000000000000 C
   0.6618500000000000    0.4958600000000000    0.9264500000000000 C
   0.5291500000000000    0.4923400000000000    0.9104700000000000 C
   0.6866500000000000    0.3750400000000000    0.0325750000000000 C
   0.5518200000000000    0.3749800000000000    0.0449550000000000 C
   0.8381200000000000    0.2458700000000000    0.0735850000000000 C
   0.9708100000000000    0.2422900000000000    0.0895650000000000 C
   0.8381000000000000    0.0041700000000000    0.0735800000000000 C
   0.9708000000000000    0.0077100000000000    0.0895500000000000 C
   0.8133300000000000    0.1250200000000000    0.9674100000000000 C
   0.9481600000000000    0.1250300000000000    0.9550350000000001 C
   0.8381100000000000    0.7458800000000000    0.0735800000000000 C
   0.9708000000000000    0.7422900000000000    0.0895700000000000 C
   0.8381000000000000    0.5041800000000000    0.0735800000000000 C
   0.9708000000000000    0.5077000000000000    0.0895450000000000 C
   0.8133200000000000    0.6250100000000000    0.9674100000000000 C
   0.9481500000000000    0.6250200000000000    0.9550350000000001 C
   0.6619200000000000    0.7541500000000000    0.9263900000000000 C
   0.5292300000000000    0.7577500000000000    0.9104050000000000 C
   0.6618500000000000    0.9958700000000000    0.9264550000000000 C
   0.5291700000000000    0.9923300000000000    0.9104550000000000 C
   0.6866400000000000    0.8750599999999999    0.0325500000000000 C
   0.5518200000000000    0.8749600000000000    0.0449550000000000 C
   0.9122000000000000    0.4958900000000000    0.8237500000000000 C
   0.7793700000000000    0.4921900000000000    0.8396000000000000 C
   0.9121100000000000    0.2541400000000000    0.8237300000000001 C
   0.7792600000000000    0.2577800000000000    0.8395300000000000 C
   0.9373700000000000    0.3749700000000000    0.7172499999999999 C
   0.8024500000000000    0.3750300000000000    0.7050850000000000 C
   0.0878200000000000    0.0041200000000000    0.6762100000000000 C
   0.2206500000000000    0.0078200000000000    0.6604000000000000 C
   0.0879000000000000    0.2458800000000000    0.6762600000000000 C
   0.2207500000000000    0.2422400000000000    0.6604650000000000 C
   0.0626500000000000    0.1250500000000000    0.7827400000000000 C
   0.1975700000000000    0.1249700000000000    0.7949050000000000 C
   0.9121899999999999    0.9959100000000000    0.8237749999999999 C
   0.7793600000000001    0.9922100000000000    0.8395500000000000 C
   0.9121100000000000    0.7541300000000000    0.8237200000000000 C
   0.7792800000000000    0.7577900000000000    0.8395349999999999 C
   0.9373500000000000    0.8749800000000000    0.7172550000000000 C
   0.8024400000000000    0.8750300000000000    0.7050800000000000 C
   0.0878200000000000    0.5041300000000000    0.6762100000000000 C
   0.2206700000000000    0.5078100000000000    0.6604099999999999 C
   0.0879000000000000    0.7458800000000000    0.6762600000000000 C
   0.2207600000000000    0.7422600000000000    0.6604800000000000 C
   0.0626700000000000    0.6250400000000000    0.7827450000000000 C
   0.1975900000000000    0.6250000000000000    0.7948999999999999 C
   0.3380700000000000    0.7458900000000001    0.5736100000000000 C
   0.4707600000000000    0.7422700000000000    0.5895900000000001 C
   0.3381500000000000    0.5041500000000000    0.5735399999999999 C
   0.4708300000000000    0.5077100000000000    0.5895400000000000 C
   0.3133300000000000    0.6249800000000000    0.4674150000000000 C
   0.4481600000000000    0.6250599999999999    0.4550400000000000 C
   0.1619200000000000    0.9958399999999999    0.4264000000000000 C
   0.0292100000000000    0.9923300000000000    0.4104500000000000 C
   0.1866800000000000    0.8750300000000000    0.5325800000000001 C
   0.0518500000000000    0.8749900000000000    0.5449500000000000 C
   0.1619000000000000    0.2541500000000000    0.4264050000000000 C
   0.0292100000000000    0.2577300000000000    0.4104200000000000 C
   0.1619100000000000    0.4958200000000000    0.4264050000000000 C