H12 C24 N4 O4
1.0
  13.1669992760329961    0.0000000000000000    0.0043663424695674
  -2.8679762369001751   12.9440822699005302    0.0032395404989738
   0.0000000000000000    0.0000000000000000   22.4070000000000000
H C N O
12 24 4 4
direct
   0.8957500000000000    0.0226200000000000    0.2335700000000000 H
   0.9012800000000000    0.0305500000000000    0.1223500000000000 H
   0.6631800000000000    0.7495100000000000    0.1199700000000000 H
   0.6679800000000000    0.7520700000000000    0.2321200000000000 H
   0.5196300000000000    0.8912400000000000    0.9514899999999999 H
   0.5122300000000000    0.8810800000000000    0.8395500000000000 H
   0.0220300000000000    0.8679000000000000    0.8322100000000000 H
   0.0279500000000000    0.8746300000000000    0.9435900000000000 H
   0.6334000000000000    0.7278300000000000    0.6662300000000000 H
   0.6297100000000000    0.7268900000000000    0.5544100000000000 H
   0.8669300000000000    0.9893700000000000    0.5454599999999999 H
   0.8792900000000000    0.0023600000000000    0.6563000000000000 H
   0.8453600000000000    0.9635300000000000    0.2069000000000000 C
   0.8482400000000000    0.9677600000000000    0.1448600000000000 C
   0.7820500000000000    0.8901500000000000    0.1129000000000000 C
   0.7157200000000000    0.8109100000000000    0.1437800000000000 C
   0.7175800000000000    0.8121600000000000    0.2056600000000000 C
   0.8745100000000000    0.8868100000000000    0.0185600000000000 C
   0.8673000000000000    0.8793500000000000    0.9527900000000000 C
   0.7719400000000000    0.8792000000000000    0.9234100000000000 C
   0.6810600000000000    0.8858200000000001    0.9555600000000000 C
   0.6837100000000000    0.8934299999999999    0.0212400000000000 C
   0.5883800000000000    0.8860200000000000    0.9256700000000000 C
   0.5842000000000001    0.8802200000000000    0.8632800000000000 C
   0.6728000000000000    0.8749100000000000    0.8305000000000000 C
   0.7678700000000001    0.8742600000000000    0.8599000000000000 C
   0.8594500000000000    0.8703300000000000    0.8275400000000001 C
   0.9517900000000000    0.8694300000000000    0.8574800000000000 C
   0.9555000000000000    0.8735600000000000    0.9200100000000000 C
   0.8583700000000000    0.8686800000000000    0.7616000000000001 C
   0.6665600000000000    0.8713300000000000    0.7647900000000000 C
   0.7569500000000000    0.8654300000000000    0.6698200000000000 C
   0.6861800000000000    0.7869900000000000    0.6409899999999999 C
   0.6837900000000000    0.7862400000000000    0.5790000000000000 C
   0.8161200000000000    0.9333700000000000    0.5738000000000000 C
   0.8229200000000000    0.9400200000000000    0.6356500000000000 C
   0.7811900000000001    0.8871900000000000    0.2367000000000000 N
   0.7805600000000000    0.8900700000000000    0.0480000000000000 N
   0.7611900000000000    0.8689900000000000    0.7339300000000000 N
   0.7475800000000000    0.8578700000000000    0.5458000000000000 N
   0.9550800000000000    0.8889700000000000    0.0465000000000000 O
   0.6088100000000000    0.9020899999999999    0.0517300000000000 O
   0.9355800000000000    0.8665900000000000    0.7313100000000000 O
   0.5866300000000000    0.8712500000000000    0.7369000000000000 O
