H6 C12 O4
1.0
  13.1669992760329961    0.0000000000000000    0.0043663424695674
  -2.8679762369001751   12.9440822699005302    0.0032395404989738
   0.0000000000000000    0.0000000000000000   22.4070000000000000
H C O
6 12 4
direct
   0.9033400000000000    0.1242500000000000    0.8148500000000000 H
   0.7525100000000000    0.1517200000000000    0.0169600000000000 H
   0.9381900000000000    0.1383500000000000    0.0000000000000000 H
   0.7317900000000001    0.1294000000000000    0.7685400000000000 H
   0.5449100000000000    0.1356600000000000    0.7805299999999999 H
   0.5807700000000000    0.1559900000000000    0.9707300000000000 H
   0.0406200000000000    0.1196700000000000    0.9022300000000000 C
   0.9299400000000000    0.1292400000000000    0.9088300000000000 C
   0.8688800000000000    0.1298200000000000    0.8586400000000000 C
   0.7637800000000000    0.1371900000000000    0.8635699999999999 C
   0.7207600000000000    0.1449100000000000    0.9219400000000000 C
   0.7855300000000000    0.1453400000000000    0.9727600000000000 C
   0.8875800000000000    0.1377900000000000    0.9664300000000000 C
   0.6988000000000000    0.1352500000000000    0.8127900000000000 C
   0.5958800000000000    0.1394400000000000    0.8190800000000000 C
   0.5533500000000000    0.1474700000000000    0.8766600000000000 C
   0.6151700000000000    0.1505300000000000    0.9269100000000000 C
   0.4404500000000000    0.1494200000000000    0.8831000000000000 C
   0.4090400000000000    0.1691700000000000    0.9347000000000000 O
   0.3849700000000000    0.1293000000000000    0.8363500000000000 O
   0.0747300000000000    0.1157400000000000    0.8492000000000000 O
   0.0917400000000000    0.1157700000000000    0.9500300000000000 O
