H12 O8
1.0
  20.0981828226735928    0.0000000000000000   -4.1442114118838367
  -0.0200947169495902   33.2319877241987101    0.0203002723332679
   0.0000000000000000    0.0000000000000000   39.5959999999999965
H O
12 8
direct
   0.2204480878061223    0.5108225494757189    0.8144909502689788 H
   0.1671833239219542    0.5396634623181547    0.7552724350549325 H
   0.2582857151955101    0.6142387156863716    0.7299149065348728 H
   0.3705596142478011    0.6800890959883198    0.8011034934238157 H
   0.3174369266227204    0.6456284687104978    0.7709876822756643 H
   0.1602411523405982    0.6323531429128767    0.7698996549572262 H
   0.3321556685836524    0.6431480208483575    0.1516267487854855 H
   0.4687309737799407    0.6983315934613096    0.2199662189945243 H
   0.4083676796162908    0.6696036958158085    0.1839566474034545 H
   0.6598192355793503    0.6414510181372720    0.1303666811604179 H
   0.6225731341482701    0.6890280839553792    0.2108628642611345 H
   0.6283066066300903    0.6652141805243349    0.1693811863783499 H
   0.2249500000000000    0.4818750000000000    0.8128350000000000 O
   0.1788900000000000    0.5124400000000000    0.7630399999999999 O
   0.2834900000000000    0.6389400000000001    0.7351850000000000 O
   0.3480800000000000    0.6756600000000000    0.7773950000000001 O
   0.3427000000000000    0.6590900000000000    0.1725350000000000 O
   0.4224700000000000    0.6909250000000000    0.2119200000000000 O
   0.6815200000000000    0.6527750000000000    0.1523450000000000 O
   0.6580500000000000    0.6807350000000000    0.1995050000000000 O
