H23 C40 Cl2 O10
1.0
  20.0981828226735928    0.0000000000000000   -4.1442114118838367
  -0.0200947169495902   33.2319877241987101    0.0203002723332679
   0.0000000000000000    0.0000000000000000   39.5959999999999965
H C Cl O
23 40 2 10
direct
   0.3977700000000000    0.4803650000000000    0.0284450000000000 H
   0.2152300000000000    0.5499849999999999    0.0000000000000000 H
   0.4596300000000000    0.5648950000000000    0.1109700000000000 H
   0.4591400000000000    0.6925350000000000    0.0548850000000000 H
   0.4880600000000000    0.7256350000000000    0.0075100000000000 H
   0.4062600000000000    0.7342700000000000    0.0151500000000000 H
   0.5818300000000000    0.6408300000000000    0.1056250000000000 H
   0.5370600000000000    0.6789550000000000    0.2020100000000000 H
   0.3778800000000000    0.6448150000000000    0.1182500000000000 H
   0.2824500000000000    0.5293500000000000    0.8572949999999999 H
   0.3589400000000000    0.6459150000000000    0.8358050000000000 H
   0.4528400000000000    0.5997050000000000    0.8541950000000000 H
   0.6018300000000000    0.6346650000000000    0.9418800000000001 H
   0.5206800000000000    0.6274700000000000    0.9799100000000001 H
   0.1897800000000000    0.5922250000000000    0.9364650000000000 H
   0.2266400000000000    0.5438050000000000    0.9455899999999999 H
   0.1807200000000000    0.5989600000000000    0.9989700000000000 H
   0.1362800000000000    0.5564150000000000    0.9790650000000001 H
   0.2544200000000000    0.5821200000000000    0.9000100000000000 H
   0.3889600000000000    0.5353400000000000    0.9855250000000000 H
   0.3647800000000000    0.7494700000000000    0.9527000000000000 H
   0.4343500000000000    0.7808999999999999    0.9695450000000000 H
   0.4447200000000000    0.7384850000000001    0.9438900000000000 H
   0.4177900000000000    0.5826950000000000    0.0232250000000000 C
   0.4039300000000000    0.5420500000000000    0.0129150000000000 C
   0.4087400000000000    0.5113550000000000    0.0366450000000000 C
   0.4286900000000000    0.5200250000000000    0.0721950000000000 C
   0.4437600000000000    0.5587350000000000    0.0835400000000000 C
   0.4385700000000000    0.5909000000000000    0.0594900000000000 C
   0.4539600000000000    0.6313299999999999    0.0702500000000000 C
   0.4475600000000000    0.6618800000000000    0.0460150000000000 C
   0.4256300000000000    0.6539100000000000    0.0104400000000000 C
   0.4769300000000000    0.6420250000000001    0.1073050000000000 C
   0.5448499999999999    0.6468750000000000    0.1212300000000000 C
   0.5664400000000001    0.6598050000000000    0.1553400000000000 C
   0.5199700000000000    0.6682200000000000    0.1757600000000000 C
   0.4521800000000000    0.6624150000000000    0.1623800000000000 C
   0.4309100000000000    0.6490200000000000    0.1283250000000000 C
   0.6387500000000000    0.6648900000000000    0.1700450000000000 C
   0.4016600000000000    0.6711850000000000    0.1836200000000000 C
   0.3113100000000000    0.6450150000000000    0.7663000000000000 C
   0.3021800000000000    0.6142650000000001    0.7922100000000001 C
   0.2649500000000000    0.5800300000000000    0.7826200000000000 C
   0.2565000000000000    0.5492049999999999    0.8045800000000001 C
   0.2873500000000000    0.5537150000000000    0.8395250000000001 C
   0.3235900000000000    0.5884900000000000    0.8513400000000000 C
   0.3312000000000000    0.6184950000000000    0.8274150000000000 C
   0.2183300000000000    0.5121599999999999    0.7928500000000001 C
   0.3500700000000000    0.5937749999999999    0.8888150000000000 C
   0.4179100000000000    0.6041050000000000    0.9025000000000001 C
   0.4664500000000000    0.6066000000000000    0.8815649999999999 C
   0.5309900000000000    0.6172550000000000    0.8958349999999999 C
   0.5508100000000000    0.6255700000000000    0.9314000000000000 C
   0.5052200000000000    0.6219150000000000    0.9523500000000000 C
   0.4378500000000000    0.6110850000000000    0.9390200000000000 C
   0.3914300000000000    0.6067950000000000    0.9611350000000001 C
   0.3262400000000000    0.5953650000000000    0.9468500000000000 C
   0.2195700000000000    0.5734600000000000    0.9568500000000000 C
   0.1861400000000000    0.5694200000000000    0.9874350000000001 C
   0.3061900000000000    0.5890800000000000    0.9109800000000000 C
   0.4117400000000000    0.6145750000000000    0.9987400000000000 C
   0.4345500000000000    0.7242150000000001    0.9957950000000000 C
   0.4184400000000000    0.7497100000000000    0.9635150000000000 C
   0.4348400000000000    0.4804550000000000    0.1016250000000000 Cl
   0.5904000000000000    0.6203250000000000    0.8699300000000000 Cl
   0.6815200000000000    0.6527750000000000    0.1523450000000000 O
   0.6580500000000000    0.6807350000000000    0.1995050000000000 O
   0.4224700000000000    0.6909250000000000    0.2119200000000000 O
   0.3427000000000000    0.6590900000000000    0.1725350000000000 O
   0.2249500000000000    0.4818750000000000    0.8128350000000000 O
   0.2834900000000000    0.6389400000000001    0.7351850000000000 O
   0.3480800000000000    0.6756600000000000    0.7773950000000001 O
   0.1788900000000000    0.5124400000000000    0.7630399999999999 O
   0.2836300000000000    0.5919000000000000    0.9691250000000000 O
   0.4166000000000000    0.6833000000000000    0.9858549999999999 O
