H9 O6
1.0
  10.0258919327720655    0.0000000000000000    0.8634002272272374
   3.6473301092861705   16.6962483885444364    3.9808327108686523
   0.0000000000000000    0.0000000000000000   20.1350000000000016
H O
9 6
direct
   0.2517463737065412    0.4124651732728083    0.8821209726922705 H
   0.1586280804581079    0.4939167458000437    0.9031123038398599 H
   0.3849259044037546    0.2952170663775784    0.8465842915720296 H
   0.4451132691510462    0.1089127450167541    0.9598454988832029 H
   0.4393682181288095    0.1058120869288591    1.0783711717048858 H
   0.4375805909908094    1.0990601919910299    0.1642366501916555 H
   0.2501151723551510    0.4037452844958828    0.1407100985573698 H
   0.1616314400616310    0.4898404354016067    0.0959906708361647 H
   0.3730791344377049    0.2842193918470201    0.2091759496240301 H
   0.2023900000000000    0.4535200000000000    0.8777700000000001 O
   0.3226000000000000    0.3470600000000000    0.8410900000000000 O
   0.4541900000000000    0.0859700000000000    1.0082499999999999 O
   0.4470600000000000    1.0863700000000001    0.1193900000000000 O
   0.2041400000000000    0.4487800000000000    0.1334800000000000 O
   0.3179100000000000    0.3382600000000000    0.2005000000000000 O
