H6 O4
1.0
  39.3839873071191775    0.0000000000000000   -0.0316194983430205
  -0.0290127886338279   13.9689698710425905    0.0000000000000009
   0.0000000000000000    0.0000000000000000   16.9899999999999984
H O
6 4
direct
   0.6238381464088243   -0.1199351534312577    0.1915073357331691 H
   0.6368392344978508   -0.0630141424682496    0.4047328808230440 H
   0.6271822356070624   -0.1141168693713783    0.3040600179076942 H
   0.6659094706108685    0.1467915209685142    0.1435250658337371 H
   0.6728504524158476    0.2002401846510567    0.3348742153295839 H
   0.6773237090058584    0.2242890278910077    0.2296023658374837 H
   0.6321633333333333   -0.0675300000000000    0.2236800000000000 O
   0.6400066666666666   -0.0333900000000000    0.3536200000000000 O
   0.6590633333333333    0.1045900000000000    0.1860100000000000 O
   0.6638299999999999    0.1411100000000000    0.3133400000000000 O
