H6 O4
1.0
  15.9830493866884353    0.0000000000000000    9.1684027127236476
   5.3101138762916964   15.0777957118969912    9.1761315973080411
   0.0000000000000000    0.0000000000000000   36.8620000000000019
H O
6 4
direct
   0.1129107523927267    0.2806341545604242    0.5564837636047344 H
   0.1133639864432379    0.4927489031626999    0.5567103795576444 H
   0.1053579243278705    0.3944764228079938    0.5527086728840483 H
   0.8870796377252010    0.7193238190679705    0.4435221086978475 H
   0.8866268410925212    0.5072109394411110    0.4432957111805496 H
   0.8946336420123651    0.6054820115564598    0.4472980519602993 H
   0.1329100000000000    0.3051000000000000    0.5664800000000000 O
   0.1331700000000000    0.4285000000000000    0.5666100000000001 O
   0.8670800000000000    0.6948600000000000    0.4335250000000000 O
   0.8668200000000000    0.5714600000000000    0.4333950000000000 O
