H4 C8 O4
1.0
  15.9830493866884353    0.0000000000000000    9.1684027127236476
   5.3101138762916964   15.0777957118969912    9.1761315973080411
   0.0000000000000000    0.0000000000000000   36.8620000000000019
H C O
4 8 4
direct
   0.9515500000000000    0.4319900000000000    0.4757750000000000 H
   0.9522600000000000    0.6642900000000000    0.4761300000000000 H
   0.0484500000000000    0.5679700000000000    0.5242300000000000 H
   0.0477400000000000    0.3356700000000000    0.5238750000000000 H
   0.9731500000000000    0.4610100000000000    0.4865800000000000 C
   0.9735600000000000    0.5923100000000000    0.4867850000000000 C
   0.8890500000000000    0.6110600000000000    0.4445100000000000 C
   0.9463700000000000    0.5536900000000000    0.4731500000000000 C
   0.0268500000000000    0.5389500000000000    0.5134250000000000 C
   0.0264400000000000    0.4076500000000000    0.5132200000000000 C
   0.1109500000000000    0.3888900000000000    0.5554950000000000 C
   0.0536300000000000    0.4462600000000000    0.5268200000000000 C
   0.8668200000000000    0.5714600000000000    0.4333950000000000 O
   0.8670800000000000    0.6948600000000000    0.4335250000000000 O
   0.1331700000000000    0.4285000000000000    0.5666100000000001 O
   0.1329100000000000    0.3051000000000000    0.5664800000000000 O
