H16 C34 O8
1.0
  11.0892966765623058    0.0000000000000000   -0.2448738842429303
  -0.0000249479497339   16.1829999605437784   -0.0011297865304829
   0.0000000000000000    0.0000000000000000   35.9739999999999966
H C O
16 34 8
direct
   0.7451600000000000    0.7985100000000001    0.4406450000000000 H
   0.6271099999999999    0.6668700000000000    0.4405500000000000 H
   0.2339300000000000    0.7939300000000000    0.4403050000000000 H
   0.3512500000000000    0.6619699999999999    0.4399600000000000 H
   0.2339200000000000    0.2060700000000000    0.4403050000000000 H
   0.3512400000000000    0.3380300000000000    0.4399650000000000 H
   0.7451700000000000    0.2014900000000000    0.4406500000000000 H
   0.6271200000000000    0.3331300000000000    0.4405550000000000 H
   0.7662300000000000    0.7939600000000000    0.5596900000000000 H
   0.6489100000000000    0.6620000000000000    0.5600650000000000 H
   0.2547000000000000    0.7985300000000000    0.5593500000000000 H
   0.3728000000000000    0.6669100000000000    0.5594749999999999 H
   0.2547100000000000    0.2015000000000000    0.5593550000000000 H
   0.3728100000000000    0.3331200000000000    0.5594800000000000 H
   0.7662200000000000    0.2060700000000000    0.5596900000000000 H
   0.6489000000000000    0.3380300000000000    0.5600700000000000 H
   0.8390600000000000    0.8804999999999999    0.4998800000000000 C
   0.7224100000000000    0.7683900000000000    0.4666350000000000 C
   0.6569300000000000    0.6950400000000000    0.4667150000000000 C
   0.2377300000000000    0.8042600000000000    0.4998350000000000 C
   0.4363600000000000    0.5760600000000000    0.4997700000000000 C
   0.3694800000000000    0.6559100000000000    0.4997100000000000 C
   0.2657500000000000    0.7658000000000000    0.4662150000000000 C
   0.3309600000000000    0.6923200000000000    0.4661550000000000 C
   0.2377300000000000    0.1957600000000000    0.4998400000000000 C
   0.4363600000000000    0.4239600000000000    0.4997700000000000 C
   0.3694700000000000    0.3441200000000000    0.4997150000000000 C
   0.2657400000000000    0.2342000000000000    0.4662150000000000 C
   0.3309600000000000    0.3076900000000000    0.4661600000000000 C
   0.8390600000000000    0.1195200000000000    0.4998850000000000 C
   0.7224200000000000    0.2316100000000000    0.4666350000000000 C
   0.6569300000000000    0.3049600000000000    0.4667150000000000 C
   0.3756000000000000    0.5000100000000000    0.4995450000000000 C
   0.7622700000000000    0.8042700000000000    0.5001550000000000 C
   0.5636700000000000    0.5760600000000000    0.5000000000000000 C
   0.6305600000000000    0.6559000000000000    0.5000000000000000 C
   0.7343499999999999    0.7658199999999999    0.5337900000000000 C
   0.6691300000000000    0.6923400000000000    0.5338600000000000 C
   0.1609300000000000    0.8804900000000000    0.5000000000000000 C
   0.2775300000000000    0.7684100000000000    0.5333700000000000 C
   0.3430200000000000    0.6950600000000000    0.5333050000000000 C
   0.1609300000000000    0.1195300000000000    0.5000000000000000 C
   0.2775300000000000    0.2316200000000000    0.5333700000000000 C
   0.3430200000000000    0.3049700000000000    0.5333100000000000 C
   0.7622700000000000    0.1957500000000000    0.5001600000000000 C
   0.5636700000000000    0.4239600000000000    0.5000000000000000 C
   0.6305600000000000    0.3441100000000000    0.5000000000000000 C
   0.7343499999999999    0.2342000000000000    0.5337900000000000 C
   0.6691200000000000    0.3076800000000000    0.5338650000000000 C
   0.6244300000000000    0.5000100000000000    0.5004999999999999 C
   0.8655200000000000   -0.0901700000000000    0.4681950000000000 O
   1.1254200000000001   -0.0907600000000000    0.4687200000000000 O
   1.1254200000000001    0.0907700000000000    0.4687200000000000 O
   0.8655200000000000    0.0901800000000000    0.4681950000000000 O
  -0.1253900000000001   -0.0907500000000000    0.5312600000000000 O
   0.1344700000000000   -0.0901500000000000    0.5317850000000000 O
   0.1344800000000000    0.0901800000000000    0.5317850000000000 O
  -0.1253800000000000    0.0907700000000000    0.5312600000000000 O
