H12 O8
1.0
  11.0892966765623058    0.0000000000000000   -0.2448738842429303
  -0.0000249479497339   16.1829999605437784   -0.0011297865304829
   0.0000000000000000    0.0000000000000000   35.9739999999999966
H O
12 8
direct
   1.1502207172692056    0.1106784209252112    0.4446325022036762 H
   0.1657815121204450    0.1093693792500409    0.5556509958699399 H
   0.1668715634433082    0.1161818640773659    0.5003249537202512 H
  -0.1501726784267553    0.1106854612647899    0.5553484058494208 H
   0.8342077601201484    0.1093684368278351    0.4443313418414025 H
  -0.1668554425000190    0.1161865435424575    0.4996507703315118 H
   1.1502374922496559   -0.1106812113381681    0.4446351298481339 H
   0.1657805234310451   -0.1093374031371768    0.5556490321441563 H
   0.1668869649657173   -0.1161713724871014    0.5003249965450689 H
  -0.1501940088430743   -0.1106626207498096    0.5553464578104904 H
   0.8342026922676158   -0.1093644452668652    0.4443317153408013 H
  -0.1668728344368108   -0.1161749184481599    0.4996507475350320 H
   1.1254200000000001    0.0907700000000000    0.4687200000000000 O
   0.1344800000000000    0.0901800000000000    0.5317850000000000 O
  -0.1253800000000000    0.0907700000000000    0.5312600000000000 O
   0.8655200000000000    0.0901800000000000    0.4681950000000000 O
   1.1254200000000001   -0.0907600000000000    0.4687200000000000 O
   0.1344700000000000   -0.0901500000000000    0.5317850000000000 O
  -0.1253900000000001   -0.0907500000000000    0.5312600000000000 O
   0.8655200000000000   -0.0901700000000000    0.4681950000000000 O
