H4 O2
1.0
  28.0094708480600687    0.0000000000000000    1.1724755057881373
   1.5541212345626700   15.0621188739379068    1.3141092860355628
   0.0000000000000000    0.0000000000000000   30.4980000000000011
H O
4 2
direct
   0.7485288743671922    0.8945453431116237    0.5505959565575966 H
   0.7476233193449086    0.8612850529336649    0.6046466293843995 H
   0.9659245861608057    0.8903187111836368    0.5520732593833728 H
   0.9618195231066939    0.9024503872742028    0.6064645170157594 H
   0.7302800000000000    0.8772100000000000    0.5774400000000000 O
   0.9815050000000001    0.8988600000000000    0.5792900000000000 O
