H6 C12 N2 O4
1.0
  28.0094708480600687    0.0000000000000000    1.1724755057881373
   1.5541212345626700   15.0621188739379068    1.3141092860355628
   0.0000000000000000    0.0000000000000000   30.4980000000000011
H C N O
6 12 2 4
direct
   0.3161200000000000    0.3972400000000000    0.4408550000000000 H
   0.3161400000000000    0.5623200000000000    0.4419450000000000 H
   0.4684000000000000    0.7974800000000000    0.4374750000000000 H
   0.3176400000000000    0.6905300000000000    0.3996900000000000 H
   0.3207300000000000    0.8541200000000000    0.4026250000000000 H
   0.4640250000000000    0.3860200000000000    0.3969950000000000 H
   0.3916550000000000    0.2807700000000000    0.4184650000000000 C
   0.3947900000000000    0.8383200000000000    0.4208950000000000 C
   0.3901500000000000    0.3795200000000000    0.4186950000000000 C
   0.3976100000000000    0.9357900000000000    0.4230350000000000 C
   0.3480250000000000    0.4302800000000000    0.4312100000000000 C
   0.3916400000000000    0.6580500000000000    0.4188000000000000 C
   0.3481950000000000    0.5215800000000000    0.4313850000000000 C
   0.4342900000000000    0.7752900000000000    0.4293750000000000 C
   0.3503000000000000    0.7161800000000000    0.4089900000000000 C
   0.3518700000000000    0.8068800000000000    0.4102200000000000 C
   0.3905700000000000    0.5603700000000000    0.4188650000000000 C
   0.4307050000000000    0.4241700000000000    0.4069000000000000 C
   0.4333750000000000    0.6876200000000000    0.4286450000000000 N
   0.4314800000000000    0.5120900000000000    0.4067550000000000 N
   0.4381400000000000   -0.0378500000000001    0.4295550000000000 O
   0.3520750000000000    0.2477500000000000    0.4280000000000000 O
   0.4315400000000000    0.2374600000000000    0.4092200000000000 O
   0.3579950000000000   -0.0151800000000000    0.4185250000000000 O
