Zn16 H154 C260 N46 O60
1.0
  28.0094708480600687    0.0000000000000000    1.1724755057881373
   1.5541212345626700   15.0621188739379068    1.3141092860355628
   0.0000000000000000    0.0000000000000000   30.4980000000000011
Zn H C N O
16 154 260 46 60
direct
   0.1564200000000000    0.8811900000000000    0.0775000000000000 Zn
   0.4454450000000000    0.0996400000000000    0.4200450000000000 Zn
   0.3436050000000000    0.1187700000000000    0.4224950000000000 Zn
   0.0545850000000000    0.9003200000000000    0.0799550000000000 Zn
   0.6564200000000000    0.8811900000000000    0.0775000000000000 Zn
   0.9454450000000000    0.0996400000000000    0.4200450000000000 Zn
   0.8436049999999999    0.1187700000000000    0.4224950000000000 Zn
   0.5545850000000000    0.9003200000000000    0.0799550000000000 Zn
   0.1564200000000000    0.8811900000000000    0.5775000000000000 Zn
   0.4454450000000000    0.0996400000000000    0.9200450000000000 Zn
   0.3436050000000000    0.1187700000000000    0.9224950000000001 Zn
   0.0545850000000000    0.9003200000000000    0.5799550000000000 Zn
   0.6564200000000000    0.8811900000000000    0.5775000000000000 Zn
   0.9454450000000000    0.0996400000000000    0.9200450000000000 Zn
   0.8436049999999999    0.1187700000000000    0.9224950000000001 Zn
   0.5545850000000000    0.9003200000000000    0.5799550000000000 Zn
   0.3961550000000000    0.8686500000000000    0.0094850000000000 H
   0.3849250000000000    0.9066600000000000    0.1487300000000000 H
   0.3227150000000000    0.9285099999999999    0.0091650000000000 H
   0.0315000000000000    0.8712500000000000    0.4455000000000000 H
   0.0290300000000000    0.8619200000000000    0.3646700000000000 H
   0.1817600000000000    0.9028500000000000    0.4288700000000000 H
   0.4831800000000000    0.8839000000000000    0.0123050000000000 H
   0.4734050000000000    0.9129300000000000    0.1461800000000000 H
   0.1772750000000000    0.8409600000000000    0.2216350000000000 H
   0.0273350000000000    0.9337900000000000    0.2193850000000000 H
   0.1838950000000000    0.6027300000000000    0.0591300000000000 H
   0.0275350000000000    0.9336100000000001    0.3014450000000000 H
   0.1838800000000000    0.4376600000000000    0.0580400000000000 H
   0.0316250000000000    0.2024700000000000    0.0625300000000000 H
   0.1823900000000000    0.3094500000000000    0.1003000000000000 H
   0.1793000000000000    0.1458600000000000    0.0973650000000000 H
   0.2345300000000000    0.9173700000000000    0.0109600000000000 H
   0.0360000000000000    0.6139400000000000    0.1030150000000000 H
   0.3209700000000000    0.8364900000000000    0.1476400000000000 H
   0.2322850000000000    0.8368100000000001    0.1439700000000000 H
   0.1038800000000000    0.1313200000000000    0.4905150000000000 H
   0.1151100000000000    0.0933200000000000    0.3512700000000000 H
   0.1773200000000000    0.0714500000000000    0.4908350000000000 H
   0.4685450000000000    0.1287200000000000    0.0545150000000000 H
   0.4709950000000000    0.1380800000000000    0.1353400000000000 H
   0.3182850000000000    0.0971300000000000    0.0711150000000000 H
   0.0168500000000000    0.1160700000000000    0.4876900000000000 H
   0.0266350000000000    0.0870400000000000    0.3538150000000000 H
   0.3227500000000000    0.1590100000000000    0.2783650000000000 H
   0.4726900000000000    0.0661900000000000    0.2806150000000000 H
   0.4724900000000000    0.0663600000000000    0.1985550000000000 H
   0.2655050000000000    0.0825900000000000    0.4890450000000000 H
   0.1790650000000000    0.1634800000000000    0.3523650000000000 H
   0.2677500000000000    0.1631700000000000    0.3560350000000000 H
   0.8961550000000000    0.8686500000000000    0.0094850000000000 H
   0.8849250000000000    0.9066600000000000    0.1487300000000000 H
   0.8227150000000000    0.9285099999999999    0.0091650000000000 H
   0.5315000000000000    0.8712500000000000    0.4455000000000000 H
   0.5290300000000000    0.8619200000000000    0.3646700000000000 H
   0.6817600000000000    0.9028500000000000    0.4288700000000000 H
   0.9831799999999999    0.8839000000000000    0.0123050000000000 H
   0.9734050000000001    0.9129300000000000    0.1461800000000000 H
   0.6772750000000000    0.8409600000000000    0.2216350000000000 H
   0.5273350000000000    0.9337900000000000    0.2193850000000000 H
   0.6838950000000000    0.6027300000000000    0.0591300000000000 H
   0.5275350000000000    0.9336100000000001    0.3014450000000000 H
   0.6838800000000000    0.4376600000000000    0.0580400000000000 H
   0.5316250000000000    0.2024700000000000    0.0625300000000000 H
   0.6823900000000001    0.3094500000000000    0.1003000000000000 H
   0.6793000000000000    0.1458600000000000    0.0973650000000000 H
   0.7345300000000000    0.9173700000000000    0.0109600000000000 H
   0.5360000000000000    0.6139400000000000    0.1030150000000000 H
   0.8209700000000000    0.8364900000000000    0.1476400000000000 H
   0.7322850000000000    0.8368100000000001    0.1439700000000000 H
   0.6038800000000000    0.1313200000000000    0.4905150000000000 H
   0.6151100000000000    0.0933200000000000    0.3512700000000000 H
   0.6773200000000000    0.0714500000000000    0.4908350000000000 H
   0.9685450000000000    0.1287200000000000    0.0545150000000000 H
   0.9709950000000001    0.1380800000000000    0.1353400000000000 H
   0.8182849999999999    0.0971300000000000    0.0711150000000000 H
   0.5168500000000000    0.1160700000000000    0.4876900000000000 H
   0.5266350000000000    0.0870400000000000    0.3538150000000000 H
   0.8227500000000000    0.1590100000000000    0.2783650000000000 H
   0.9726900000000001    0.0661900000000000    0.2806150000000000 H
   0.8161200000000000    0.3972400000000000    0.4408550000000000 H
   0.9724900000000001    0.0663600000000000    0.1985550000000000 H
   0.8161400000000000    0.5623200000000000    0.4419450000000000 H
   0.9683999999999999    0.7974800000000000    0.4374750000000000 H
   0.8176399999999999    0.6905300000000000    0.3996900000000000 H
   0.8207300000000000    0.8541200000000000    0.4026250000000000 H
   0.7655050000000000    0.0825900000000000    0.4890450000000000 H
   0.9640250000000000    0.3860200000000000    0.3969950000000000 H
   0.6790650000000000    0.1634800000000000    0.3523650000000000 H
   0.7677499999999999    0.1631700000000000    0.3560350000000000 H
   0.3961550000000000    0.8686500000000000    0.5094850000000000 H
   0.3849250000000000    0.9066600000000000    0.6487300000000000 H
   0.3227150000000000    0.9285099999999999    0.5091650000000000 H
   0.0315000000000000    0.8712500000000000    0.9455000000000000 H
   0.0290300000000000    0.8619200000000000    0.8646700000000000 H
   0.1817600000000000    0.9028500000000000    0.9288700000000000 H
   0.4831800000000000    0.8839000000000000    0.5123050000000000 H
   0.4734050000000000    0.9129300000000000    0.6461800000000000 H
   0.1772750000000000    0.8409600000000000    0.7216350000000000 H
   0.0273350000000000    0.9337900000000000    0.7193849999999999 H
   0.1838950000000000    0.6027300000000000    0.5591300000000000 H
   0.0275350000000000    0.9336100000000001    0.8014450000000000 H
   0.1838800000000000    0.4376600000000000    0.5580400000000000 H
   0.0316250000000000    0.2024700000000000    0.5625300000000000 H
   0.1823900000000000    0.3094500000000000    0.6003000000000001 H
   0.1793000000000000    0.1458600000000000    0.5973650000000000 H
   0.2345300000000000    0.9173700000000000    0.5109600000000000 H
   0.0360000000000000    0.6139400000000000    0.6030150000000000 H
   0.3209700000000000    0.8364900000000000    0.6476400000000000 H
   0.2322850000000000    0.8368100000000001    0.6439699999999999 H
   0.1038800000000000    0.1313200000000000    0.9905150000000000 H
   0.1151100000000000    0.0933200000000000    0.8512700000000000 H
   0.1773200000000000    0.0714500000000000    0.9908350000000000 H
   0.4685450000000000    0.1287200000000000    0.5545150000000000 H
   0.4709950000000000    0.1380800000000000    0.6353400000000000 H
   0.3182850000000000    0.0971300000000000    0.5711150000000000 H
   0.0168500000000000    0.1160700000000000    0.9876900000000000 H
   0.0266350000000000    0.0870400000000000    0.8538150000000000 H
   0.3227500000000000    0.1590100000000000    0.7783650000000000 H
   0.4726900000000000    0.0661900000000000    0.7806150000000001 H
   0.3161200000000000    0.3972400000000000    0.9408550000000000 H
   0.4724900000000000    0.0663600000000000    0.6985550000000000 H
   0.3161400000000000    0.5623200000000000    0.9419450000000000 H
   0.4684000000000000    0.7974800000000000    0.9374750000000001 H
   0.3176400000000000    0.6905300000000000    0.8996900000000000 H
   0.3207300000000000    0.8541200000000000    0.9026250000000000 H
   0.2655050000000000    0.0825900000000000    0.9890450000000000 H
   0.4640250000000000    0.3860200000000000    0.8969950000000000 H
   0.1790650000000000    0.1634800000000000    0.8523650000000000 H
   0.2677500000000000    0.1631700000000000    0.8560350000000000 H
   0.8961550000000000    0.8686500000000000    0.5094850000000000 H
   0.8849250000000000    0.9066600000000000    0.6487300000000000 H
   0.8227150000000000    0.9285099999999999    0.5091650000000000 H
   0.5315000000000000    0.8712500000000000    0.9455000000000000 H
   0.5290300000000000    0.8619200000000000    0.8646700000000000 H
   0.6817600000000000    0.9028500000000000    0.9288700000000000 H
   0.9831799999999999    0.8839000000000000    0.5123050000000000 H
   0.9734050000000001    0.9129300000000000    0.6461800000000000 H
   0.6772750000000000    0.8409600000000000    0.7216350000000000 H
   0.5273350000000000    0.9337900000000000    0.7193849999999999 H
   0.6838950000000000    0.6027300000000000    0.5591300000000000 H
   0.5275350000000000    0.9336100000000001    0.8014450000000000 H
   0.6838800000000000    0.4376600000000000    0.5580400000000000 H
   0.5316250000000000    0.2024700000000000    0.5625300000000000 H
   0.6823900000000001    0.3094500000000000    0.6003000000000001 H
   0.6793000000000000    0.1458600000000000    0.5973650000000000 H
   0.7345300000000000    0.9173700000000000    0.5109600000000000 H
   0.5360000000000000    0.6139400000000000    0.6030150000000000 H
   0.8209700000000000    0.8364900000000000    0.6476400000000000 H
   0.7322850000000000    0.8368100000000001    0.6439699999999999 H
   0.6038800000000000    0.1313200000000000    0.9905150000000000 H
   0.6151100000000000    0.0933200000000000    0.8512700000000000 H
   0.6773200000000000    0.0714500000000000    0.9908350000000000 H
   0.9685450000000000    0.1287200000000000    0.5545150000000000 H
   0.9709950000000001    0.1380800000000000    0.6353400000000000 H
   0.8182849999999999    0.0971300000000000    0.5711150000000000 H
   0.5168500000000000    0.1160700000000000    0.9876900000000000 H
   0.5266350000000000    0.0870400000000000    0.8538150000000000 H
   0.8227500000000000    0.1590100000000000    0.7783650000000000 H
   0.9726900000000001    0.0661900000000000    0.7806150000000001 H
   0.8161200000000000    0.3972400000000000    0.9408550000000000 H
   0.9724900000000001    0.0663600000000000    0.6985550000000000 H
   0.8161400000000000    0.5623200000000000    0.9419450000000000 H
   0.9683999999999999    0.7974800000000000    0.9374750000000001 H
   0.8176399999999999    0.6905300000000000    0.8996900000000000 H
   0.8207300000000000    0.8541200000000000    0.9026250000000000 H
   0.7655050000000000    0.0825900000000000    0.9890450000000000 H
   0.9640250000000000    0.3860200000000000    0.8969950000000000 H
   0.6790650000000000    0.1634800000000000    0.8523650000000000 H
   0.7677499999999999    0.1631700000000000    0.8560350000000000 H
   0.3300450000000000    0.8822600000000000    0.0784750000000000 C
   0.3824500000000000    0.8862500000000000    0.0790800000000000 C
   0.4112300000000000    0.8798000000000000    0.0405450000000000 C
   0.1092550000000000    0.8940300000000000    0.4921100000000000 C
   0.1038200000000000    0.8870900000000000    0.1650150000000000 C
   0.4052600000000000    0.8983400000000000    0.1179250000000000 C
   0.3047000000000000    0.9051800000000000    0.0396400000000000 C
   0.1083650000000000    0.7192000000000000    0.0815350000000000 C
   0.1069650000000000    0.8878800000000000    0.4435000000000000 C
   0.0636900000000000    0.8762700000000000    0.4246850000000000 C
   0.0623800000000000    0.8727500000000000    0.3794700000000000 C
   0.1052400000000000    0.1616500000000000    0.0791050000000000 C
   0.1473150000000000    0.8946200000000000    0.4151100000000000 C
   0.1032100000000000    0.8851599999999999    0.3047100000000000 C
   0.1098700000000000    0.6204499999999999    0.0813050000000000 C
   0.4600350000000000    0.8870900000000000    0.0417850000000000 C
   0.4543650000000000    0.9038100000000000    0.1167550000000000 C
   0.1043400000000000    0.8831400000000000    0.3535050000000000 C
   0.1435400000000000    0.8616900000000000    0.2388050000000000 C
   0.1024100000000000    0.8871300000000000    0.2142250000000000 C
   0.0599050000000000    0.9132500000000000    0.2373950000000000 C
   0.1024200000000000    0.0641800000000000    0.0769650000000000 C
   0.1519900000000000    0.5696900000000000    0.0687800000000000 C
   0.0602200000000000    0.9125200000000000    0.2829300000000000 C
   0.1083850000000000    0.3419200000000000    0.0812000000000000 C
   0.1518250000000000    0.4783900000000000    0.0686050000000000 C
   0.0657350000000000    0.2246700000000000    0.0706300000000000 C
   0.1497300000000000    0.2837900000000000    0.0910050000000000 C
   0.1481600000000000    0.1930900000000000    0.0897750000000000 C
   0.1094550000000000    0.4396000000000000    0.0811300000000000 C
   0.2554500000000000    0.9011200000000000    0.0404150000000000 C
   0.0693150000000000    0.5757900000000000    0.0931050000000000 C
   0.3035150000000000    0.8564200000000000    0.1166000000000000 C
   0.2541850000000000    0.8552600000000000    0.1149400000000000 C
   0.1699900000000000    0.1177100000000000    0.4215250000000000 C
   0.1175850000000000    0.1137200000000000    0.4209150000000000 C
   0.0888000000000000    0.1201700000000000    0.4594550000000000 C
   0.3908150000000000    0.1059300000000000    0.0078900000000000 C
   0.3962000000000000    0.1128900000000000    0.3349900000000000 C
   0.0947750000000000    0.1016400000000000    0.3820750000000000 C
   0.1953300000000000    0.0947800000000000    0.4603600000000000 C
   0.3930900000000000    0.1120900000000000    0.0565000000000000 C
   0.4363500000000000    0.1237100000000000    0.0753250000000000 C
   0.4376550000000000    0.1272300000000000    0.1205350000000000 C
   0.3527300000000000    0.1053500000000000    0.0848800000000000 C
   0.3968150000000000    0.1148100000000000    0.1952900000000000 C
   0.0400000000000000    0.1128800000000000    0.4582150000000000 C
   0.0456700000000000    0.0961700000000000    0.3832400000000000 C
   0.3956950000000000    0.1168400000000000    0.1464950000000000 C
   0.3564800000000000    0.1382800000000000    0.2611950000000000 C
   0.3976100000000000    0.1128500000000000    0.2857750000000000 C
   0.4401150000000000    0.0867200000000000    0.2626050000000000 C
   0.4398050000000000    0.0874500000000000    0.2170700000000000 C
   0.2445850000000000    0.0988500000000000    0.4595850000000000 C
   0.1965200000000000    0.1435500000000000    0.3834000000000000 C
   0.2458500000000000    0.1447200000000000    0.3850650000000000 C
   0.8300449999999999    0.8822600000000000    0.0784750000000000 C
   0.8824500000000000    0.8862500000000000    0.0790800000000000 C
   0.9112300000000000    0.8798000000000000    0.0405450000000000 C
   0.6092550000000000    0.8940300000000000    0.4921100000000000 C
   0.6038200000000000    0.8870900000000000    0.1650150000000000 C
   0.9052600000000000    0.8983400000000000    0.1179250000000000 C
   0.8047000000000000    0.9051800000000000    0.0396400000000000 C
   0.6083650000000000    0.7192000000000000    0.0815350000000000 C
   0.6069650000000000    0.8878800000000000    0.4435000000000000 C
   0.5636900000000000    0.8762700000000000    0.4246850000000000 C
   0.5623800000000000    0.8727500000000000    0.3794700000000000 C
   0.6052400000000000    0.1616500000000000    0.0791050000000000 C
   0.6473150000000000    0.8946200000000000    0.4151100000000000 C
   0.6032100000000000    0.8851599999999999    0.3047100000000000 C
   0.6098700000000000    0.6204499999999999    0.0813050000000000 C
   0.9600350000000000    0.8870900000000000    0.0417850000000000 C
   0.9543650000000000    0.9038100000000000    0.1167550000000000 C
   0.6043400000000000    0.8831400000000000    0.3535050000000000 C
   0.6435400000000000    0.8616900000000000    0.2388050000000000 C
   0.6024100000000000    0.8871300000000000    0.2142250000000000 C
   0.5599050000000000    0.9132500000000000    0.2373950000000000 C
   0.6024200000000000    0.0641800000000000    0.0769650000000000 C
   0.6519900000000000    0.5696900000000000    0.0687800000000000 C
   0.5602200000000001    0.9125200000000000    0.2829300000000000 C
   0.6083850000000000    0.3419200000000000    0.0812000000000000 C
   0.6518250000000000    0.4783900000000000    0.0686050000000000 C
   0.5657350000000000    0.2246700000000000    0.0706300000000000 C
   0.6497300000000000    0.2837900000000000    0.0910050000000000 C
   0.6481600000000000    0.1930900000000000    0.0897750000000000 C
   0.6094550000000000    0.4396000000000000    0.0811300000000000 C
   0.7554500000000000    0.9011200000000000    0.0404150000000000 C
   0.5693150000000000    0.5757900000000000    0.0931050000000000 C
   0.8035150000000000    0.8564200000000000    0.1166000000000000 C
   0.7541850000000000    0.8552600000000000    0.1149400000000000 C
   0.6699900000000000    0.1177100000000000    0.4215250000000000 C
   0.6175850000000001    0.1137200000000000    0.4209150000000000 C
   0.5888000000000000    0.1201700000000000    0.4594550000000000 C
   0.8908150000000000    0.1059300000000000    0.0078900000000000 C
   0.8962000000000000    0.1128900000000000    0.3349900000000000 C
   0.5947750000000001    0.1016400000000000    0.3820750000000000 C
   0.6953300000000000    0.0947800000000000    0.4603600000000000 C
   0.8916550000000000    0.2807700000000000    0.4184650000000000 C
   0.8930899999999999    0.1120900000000000    0.0565000000000000 C
   0.9363500000000000    0.1237100000000000    0.0753250000000000 C
   0.9376550000000000    0.1272300000000000    0.1205350000000000 C
   0.8947900000000000    0.8383200000000000    0.4208950000000000 C
   0.8527300000000000    0.1053500000000000    0.0848800000000000 C
   0.8968149999999999    0.1148100000000000    0.1952900000000000 C
   0.8901500000000000    0.3795200000000000    0.4186950000000000 C
   0.5400000000000000    0.1128800000000000    0.4582150000000000 C
   0.5456700000000000    0.0961700000000000    0.3832400000000000 C
   0.8956950000000000    0.1168400000000000    0.1464950000000000 C
   0.8564800000000000    0.1382800000000000    0.2611950000000000 C
   0.8976100000000000    0.1128500000000000    0.2857750000000000 C
   0.9401150000000000    0.0867200000000000    0.2626050000000000 C
   0.8976100000000000    0.9357900000000000    0.4230350000000000 C
   0.8480250000000000    0.4302800000000000    0.4312100000000000 C
   0.9398050000000000    0.0874500000000000    0.2170700000000000 C
   0.8916400000000000    0.6580500000000000    0.4188000000000000 C
   0.8481950000000000    0.5215800000000000    0.4313850000000000 C
   0.9342900000000001    0.7752900000000000    0.4293750000000000 C
   0.8503000000000001    0.7161800000000000    0.4089900000000000 C
   0.8518700000000000    0.8068800000000000    0.4102200000000000 C
   0.8905700000000000    0.5603700000000000    0.4188650000000000 C
   0.7445850000000001    0.0988500000000000    0.4595850000000000 C
   0.9307050000000000    0.4241700000000000    0.4069000000000000 C
   0.6965200000000000    0.1435500000000000    0.3834000000000000 C
   0.7458500000000000    0.1447200000000000    0.3850650000000000 C
   0.3300450000000000    0.8822600000000000    0.5784750000000000 C
   0.3824500000000000    0.8862500000000000    0.5790800000000000 C
   0.4112300000000000    0.8798000000000000    0.5405450000000001 C
   0.1092550000000000    0.8940300000000000    0.9921100000000000 C
   0.1038200000000000    0.8870900000000000    0.6650150000000000 C
   0.4052600000000000    0.8983400000000000    0.6179250000000001 C
   0.3047000000000000    0.9051800000000000    0.5396400000000000 C
   0.1083650000000000    0.7192000000000000    0.5815350000000000 C
   0.1069650000000000    0.8878800000000000    0.9435000000000000 C
   0.0636900000000000    0.8762700000000000    0.9246850000000000 C
   0.0623800000000000    0.8727500000000000    0.8794700000000000 C
   0.1052400000000000    0.1616500000000000    0.5791050000000000 C
   0.1473150000000000    0.8946200000000000    0.9151100000000000 C
   0.1032100000000000    0.8851599999999999    0.8047100000000000 C
   0.1098700000000000    0.6204499999999999    0.5813050000000000 C
   0.4600350000000000    0.8870900000000000    0.5417850000000000 C
   0.4543650000000000    0.9038100000000000    0.6167549999999999 C
   0.1043400000000000    0.8831400000000000    0.8535050000000000 C
   0.1435400000000000    0.8616900000000000    0.7388049999999999 C
   0.1024100000000000    0.8871300000000000    0.7142250000000000 C
   0.0599050000000000    0.9132500000000000    0.7373950000000000 C
   0.1024200000000000    0.0641800000000000    0.5769650000000000 C
   0.1519900000000000    0.5696900000000000    0.5687800000000000 C
   0.0602200000000000    0.9125200000000000    0.7829300000000000 C
   0.1083850000000000    0.3419200000000000    0.5811999999999999 C
   0.1518250000000000    0.4783900000000000    0.5686050000000000 C
   0.0657350000000000    0.2246700000000000    0.5706300000000000 C
   0.1497300000000000    0.2837900000000000    0.5910050000000000 C
   0.1481600000000000    0.1930900000000000    0.5897749999999999 C
   0.1094550000000000    0.4396000000000000    0.5811300000000000 C
   0.2554500000000000    0.9011200000000000    0.5404150000000000 C
   0.0693150000000000    0.5757900000000000    0.5931050000000000 C
   0.3035150000000000    0.8564200000000000    0.6166000000000000 C
   0.2541850000000000    0.8552600000000000    0.6149400000000000 C
   0.1699900000000000    0.1177100000000000    0.9215249999999999 C
   0.1175850000000000    0.1137200000000000    0.9209149999999999 C
   0.0888000000000000    0.1201700000000000    0.9594549999999999 C
   0.3908150000000000    0.1059300000000000    0.5078900000000000 C
   0.3962000000000000    0.1128900000000000    0.8349900000000000 C
   0.0947750000000000    0.1016400000000000    0.8820749999999999 C
   0.1953300000000000    0.0947800000000000    0.9603600000000000 C
   0.3916550000000000    0.2807700000000000    0.9184650000000000 C
   0.3930900000000000    0.1120900000000000    0.5565000000000000 C
   0.4363500000000000    0.1237100000000000    0.5753250000000000 C
   0.4376550000000000    0.1272300000000000    0.6205350000000001 C
   0.3947900000000000    0.8383200000000000    0.9208950000000000 C
   0.3527300000000000    0.1053500000000000    0.5848800000000000 C
   0.3968150000000000    0.1148100000000000    0.6952900000000000 C
   0.3901500000000000    0.3795200000000000    0.9186950000000000 C
   0.0400000000000000    0.1128800000000000    0.9582150000000000 C
   0.0456700000000000    0.0961700000000000    0.8832400000000000 C
   0.3956950000000000    0.1168400000000000    0.6464950000000000 C
   0.3564800000000000    0.1382800000000000    0.7611950000000001 C
   0.3976100000000000    0.1128500000000000    0.7857750000000000 C
   0.4401150000000000    0.0867200000000000    0.7626050000000000 C
   0.3976100000000000    0.9357900000000000    0.9230350000000000 C
   0.3480250000000000    0.4302800000000000    0.9312100000000000 C
   0.4398050000000000    0.0874500000000000    0.7170700000000000 C
   0.3916400000000000    0.6580500000000000    0.9188000000000001 C
   0.3481950000000000    0.5215800000000000    0.9313850000000000 C
   0.4342900000000000    0.7752900000000000    0.9293750000000001 C
   0.3503000000000000    0.7161800000000000    0.9089900000000000 C
   0.3518700000000000    0.8068800000000000    0.9102200000000000 C
   0.3905700000000000    0.5603700000000000    0.9188650000000000 C
   0.2445850000000000    0.0988500000000000    0.9595850000000000 C
   0.4307050000000000    0.4241700000000000    0.9069000000000000 C
   0.1965200000000000    0.1435500000000000    0.8834000000000000 C
   0.2458500000000000    0.1447200000000000    0.8850650000000000 C
   0.8300449999999999    0.8822600000000000    0.5784750000000000 C
   0.8824500000000000    0.8862500000000000    0.5790800000000000 C
   0.9112300000000000    0.8798000000000000    0.5405450000000001 C
   0.6092550000000000    0.8940300000000000    0.9921100000000000 C
   0.6038200000000000    0.8870900000000000    0.6650150000000000 C
   0.9052600000000000    0.8983400000000000    0.6179250000000001 C
   0.8047000000000000    0.9051800000000000    0.5396400000000000 C
   0.6083650000000000    0.7192000000000000    0.5815350000000000 C
   0.6069650000000000    0.8878800000000000    0.9435000000000000 C
   0.5636900000000000    0.8762700000000000    0.9246850000000000 C
   0.5623800000000000    0.8727500000000000    0.8794700000000000 C
   0.6052400000000000    0.1616500000000000    0.5791050000000000 C
   0.6473150000000000    0.8946200000000000    0.9151100000000000 C
   0.6032100000000000    0.8851599999999999    0.8047100000000000 C
   0.6098700000000000    0.6204499999999999    0.5813050000000000 C
   0.9600350000000000    0.8870900000000000    0.5417850000000000 C
   0.9543650000000000    0.9038100000000000    0.6167549999999999 C
   0.6043400000000000    0.8831400000000000    0.8535050000000000 C
   0.6435400000000000    0.8616900000000000    0.7388049999999999 C
   0.6024100000000000    0.8871300000000000    0.7142250000000000 C
   0.5599050000000000    0.9132500000000000    0.7373950000000000 C
   0.6024200000000000    0.0641800000000000    0.5769650000000000 C
   0.6519900000000000    0.5696900000000000    0.5687800000000000 C
   0.5602200000000001    0.9125200000000000    0.7829300000000000 C
   0.6083850000000000    0.3419200000000000    0.5811999999999999 C
   0.6518250000000000    0.4783900000000000    0.5686050000000000 C
   0.5657350000000000    0.2246700000000000    0.5706300000000000 C
   0.6497300000000000    0.2837900000000000    0.5910050000000000 C
   0.6481600000000000    0.1930900000000000    0.5897749999999999 C
   0.6094550000000000    0.4396000000000000    0.5811300000000000 C
   0.7554500000000000    0.9011200000000000    0.5404150000000000 C
   0.5693150000000000    0.5757900000000000    0.5931050000000000 C
   0.8035150000000000    0.8564200000000000    0.6166000000000000 C
   0.7541850000000000    0.8552600000000000    0.6149400000000000 C
   0.6699900000000000    0.1177100000000000    0.9215249999999999 C
   0.6175850000000001    0.1137200000000000    0.9209149999999999 C
   0.5888000000000000    0.1201700000000000    0.9594549999999999 C
   0.8908150000000000    0.1059300000000000    0.5078900000000000 C
   0.8962000000000000    0.1128900000000000    0.8349900000000000 C
   0.5947750000000001    0.1016400000000000    0.8820749999999999 C
   0.6953300000000000    0.0947800000000000    0.9603600000000000 C
   0.8916550000000000    0.2807700000000000    0.9184650000000000 C
   0.8930899999999999    0.1120900000000000    0.5565000000000000 C
   0.9363500000000000    0.1237100000000000    0.5753250000000000 C
   0.9376550000000000    0.1272300000000000    0.6205350000000001 C
   0.8947900000000000    0.8383200000000000    0.9208950000000000 C
   0.8527300000000000    0.1053500000000000    0.5848800000000000 C
   0.8968149999999999    0.1148100000000000    0.6952900000000000 C
   0.8901500000000000    0.3795200000000000    0.9186950000000000 C
   0.5400000000000000    0.1128800000000000    0.9582150000000000 C
   0.5456700000000000    0.0961700000000000    0.8832400000000000 C
   0.8956950000000000    0.1168400000000000    0.6464950000000000 C
   0.8564800000000000    0.1382800000000000    0.7611950000000001 C
   0.8976100000000000    0.1128500000000000    0.7857750000000000 C
   0.9401150000000000    0.0867200000000000    0.7626050000000000 C
   0.8976100000000000    0.9357900000000000    0.9230350000000000 C
   0.8480250000000000    0.4302800000000000    0.9312100000000000 C
   0.9398050000000000    0.0874500000000000    0.7170700000000000 C
   0.8916400000000000    0.6580500000000000    0.9188000000000001 C
   0.8481950000000000    0.5215800000000000    0.9313850000000000 C
   0.9342900000000001    0.7752900000000000    0.9293750000000001 C
   0.8503000000000001    0.7161800000000000    0.9089900000000000 C
   0.8518700000000000    0.8068800000000000    0.9102200000000000 C
   0.8905700000000000    0.5603700000000000    0.9188650000000000 C
   0.7445850000000001    0.0988500000000000    0.9595850000000000 C
   0.9307050000000000    0.4241700000000000    0.9069000000000000 C
   0.6965200000000000    0.1435500000000000    0.8834000000000000 C
   0.7458500000000000    0.1447200000000000    0.8850650000000000 C
   0.2302800000000000    0.8772100000000000    0.0774400000000000 N
   0.4815050000000000    0.8988600000000000    0.0792900000000000 N
   0.1465850000000000    0.8934900000000000    0.3713150000000000 N
   0.0666500000000000    0.3123400000000000    0.0713550000000000 N
   0.1445900000000000    0.8604000000000001    0.2826700000000000 N
   0.0685450000000000    0.4878700000000000    0.0932500000000000 N
   0.2697500000000000    0.1227600000000000    0.4225600000000000 N