H9 O6
1.0
  28.5529685527971182    0.0000000000000000   -0.2426990378612282
  -0.0213398305654874   29.7279913219862522   -0.0077827721115870
   0.0000000000000000    0.0000000000000000   30.3039999999999985
H O
9 6
direct
   0.4976819934244728    0.1027331950094705    0.7588470190232803 H
   0.4536701825506748    0.1702137329808622    0.8614556983180499 H
   0.4771562821902893    0.1438823158437266    0.8119995351171598 H
   0.6191720431595636    0.2980076698308420    0.8247661855674152 H
   0.5049110971328648    0.2666682947772617    0.8866017939347209 H
   0.5568031350506193    0.2769301146895181    0.8542219586969251 H
   0.6438837420481903    0.2505750234599626    0.7313298008205749 H
   0.5846189482496247    0.1375542751461608    0.6969590005622580 H
   0.6066996042981210    0.1914571223495401    0.7160340038208867 H
   0.4793700000000000    0.1017800000000000    0.7856449999999999 O
   0.4551150000000000    0.1427350000000000    0.8442550000000000 O
   0.5988350000000000    0.3049500000000000    0.8493200000000001 O
   0.5326649999999999    0.2851700000000000    0.8833650000000000 O
   0.6475900000000000    0.2227850000000000    0.7149500000000000 O
   0.6111750000000000    0.1579000000000000    0.6962550000000001 O
