Zn64 H93 C279 O186
1.0
  28.5529685527971182    0.0000000000000000   -0.2426990378612282
  -0.0213398305654874   29.7279913219862522   -0.0077827721115870
   0.0000000000000000    0.0000000000000000   30.3039999999999985
Zn H C O
64 93 279 186
direct
   0.0288200000000000    0.2813400000000000    0.4540000000000000 Zn
   0.1583300000000000    0.1560200000000000    0.1502750000000000 Zn
   0.2204000000000000    0.2187700000000000    0.2057600000000000 Zn
   0.4093850000000000    0.0953250000000000    0.3500300000000000 Zn
   0.4710700000000000    0.0313350000000000    0.2959500000000000 Zn
   0.3416500000000000    0.4060600000000000    0.0997250000000000 Zn
   0.2795950000000000    0.4687550000000000    0.0442200000000000 Zn
   0.0905650000000000    0.3453450000000000    0.3999600000000000 Zn
   0.5288200000000000    0.2813400000000000    0.4540000000000000 Zn
   0.6583300000000000    0.1560200000000000    0.1502750000000000 Zn
   0.7204000000000000    0.2187700000000000    0.2057600000000000 Zn
   0.9093850000000000    0.0953250000000000    0.3500300000000000 Zn
   0.9710700000000000    0.0313350000000000    0.2959500000000000 Zn
   0.8416500000000000    0.4060600000000000    0.0997250000000000 Zn
   0.7795950000000000    0.4687550000000000    0.0442200000000000 Zn
   0.5905650000000000    0.3453450000000000    0.3999600000000000 Zn
   0.0288200000000000    0.7813399999999999    0.4540000000000000 Zn
   0.1583300000000000    0.6560200000000000    0.1502750000000000 Zn
   0.2204000000000000    0.7187700000000000    0.2057600000000000 Zn
   0.4093850000000000    0.5953250000000000    0.3500300000000000 Zn
   0.4710700000000000    0.5313350000000000    0.2959500000000000 Zn
   0.3416500000000000    0.9060600000000000    0.0997250000000000 Zn
   0.2795950000000000    0.9687550000000000    0.0442200000000000 Zn
   0.0905650000000000    0.8453450000000000    0.3999600000000000 Zn
   0.5288200000000000    0.7813399999999999    0.4540000000000000 Zn
   0.6583300000000000    0.6560200000000000    0.1502750000000000 Zn
   0.7204000000000000    0.7187700000000000    0.2057600000000000 Zn
   0.9093850000000000    0.5953250000000000    0.3500300000000000 Zn
   0.9710700000000000    0.5313350000000000    0.2959500000000000 Zn
   0.8416500000000000    0.9060600000000000    0.0997250000000000 Zn
   0.7795950000000000    0.9687550000000000    0.0442200000000000 Zn
   0.5905650000000000    0.8453450000000000    0.3999600000000000 Zn
   0.0288200000000000    0.2813400000000000    0.9540000000000000 Zn
   0.1583300000000000    0.1560200000000000    0.6502749999999999 Zn
   0.2204000000000000    0.2187700000000000    0.7057599999999999 Zn
   0.4093850000000000    0.0953250000000000    0.8500300000000001 Zn
   0.4710700000000000    0.0313350000000000    0.7959499999999999 Zn
   0.3416500000000000    0.4060600000000000    0.5997250000000000 Zn
   0.2795950000000000    0.4687550000000000    0.5442200000000000 Zn
   0.0905650000000000    0.3453450000000000    0.8999600000000000 Zn
   0.5288200000000000    0.2813400000000000    0.9540000000000000 Zn
   0.6583300000000000    0.1560200000000000    0.6502749999999999 Zn
   0.7204000000000000    0.2187700000000000    0.7057599999999999 Zn
   0.9093850000000000    0.0953250000000000    0.8500300000000001 Zn
   0.9710700000000000    0.0313350000000000    0.7959499999999999 Zn
   0.8416500000000000    0.4060600000000000    0.5997250000000000 Zn
   0.7795950000000000    0.4687550000000000    0.5442200000000000 Zn
   0.5905650000000000    0.3453450000000000    0.8999600000000000 Zn
   0.0288200000000000    0.7813399999999999    0.9540000000000000 Zn
   0.1583300000000000    0.6560200000000000    0.6502749999999999 Zn
   0.2204000000000000    0.7187700000000000    0.7057599999999999 Zn
   0.4093850000000000    0.5953250000000000    0.8500300000000001 Zn
   0.4710700000000000    0.5313350000000000    0.7959499999999999 Zn
   0.3416500000000000    0.9060600000000000    0.5997250000000000 Zn
   0.2795950000000000    0.9687550000000000    0.5442200000000000 Zn
   0.0905650000000000    0.8453450000000000    0.8999600000000000 Zn
   0.5288200000000000    0.7813399999999999    0.9540000000000000 Zn
   0.6583300000000000    0.6560200000000000    0.6502749999999999 Zn
   0.7204000000000000    0.7187700000000000    0.7057599999999999 Zn
   0.9093850000000000    0.5953250000000000    0.8500300000000001 Zn
   0.9710700000000000    0.5313350000000000    0.7959499999999999 Zn
   0.8416500000000000    0.9060600000000000    0.5997250000000000 Zn
   0.7795950000000000    0.9687550000000000    0.5442200000000000 Zn
   0.5905650000000000    0.8453450000000000    0.8999600000000000 Zn
   0.4543900000000000    0.3866000000000000    0.0000000000000000 H
   0.3838750000000000    0.0093200000000000    0.4684100000000000 H
   0.0000000000000000    0.4619500000000000    0.3920400000000000 H
   0.2952600000000000    0.1134200000000000    0.2554600000000000 H
   0.3659000000000000    0.4914650000000000    0.2178550000000000 H
   0.2480750000000000    0.0391450000000000    0.1414150000000000 H
   0.0455250000000000    0.1365950000000000    0.2449700000000000 H
   0.1160650000000000    0.2594350000000000    0.2814700000000000 H
   0.4994100000000000    0.2119700000000000    0.3579000000000000 H
   0.2046650000000000    0.3633250000000000    0.4945400000000000 H
   0.1340300000000000    0.2412600000000000    0.0320800000000000 H
   0.2519350000000000    0.2890500000000000    0.1084700000000000 H
   0.9543900000000001    0.3866000000000000    0.0000000000000000 H
   0.8838750000000000    0.0093200000000000    0.4684100000000000 H
   0.5000000000000000    0.4619500000000000    0.3920400000000000 H
   0.7952600000000001    0.1134200000000000    0.2554600000000000 H
   0.8659000000000000    0.4914650000000000    0.2178550000000000 H
   0.7480750000000000    0.0391450000000000    0.1414150000000000 H
   0.5455250000000000    0.1365950000000000    0.2449700000000000 H
   0.6160650000000000    0.2594350000000000    0.2814700000000000 H
   0.9994100000000000    0.2119700000000000    0.3579000000000000 H
   0.7046650000000000    0.3633250000000000    0.4945400000000000 H
   0.6340300000000000    0.2412600000000000    0.0320800000000000 H
   0.7519350000000000    0.2890500000000000    0.1084700000000000 H
   0.4543900000000000    0.8866000000000001    0.0000000000000000 H
   0.3838750000000000    0.5093200000000000    0.4684100000000000 H
   0.0000000000000000    0.9619500000000001    0.3920400000000000 H
   0.2952600000000000    0.6134200000000000    0.2554600000000000 H
   0.3659000000000000    0.9914650000000000    0.2178550000000000 H
   0.2480750000000000    0.5391450000000000    0.1414150000000000 H
   0.0455250000000000    0.6365950000000000    0.2449700000000000 H
   0.1160650000000000    0.7594350000000001    0.2814700000000000 H
   0.4994100000000000    0.7119700000000000    0.3579000000000000 H
   0.2046650000000000    0.8633250000000000    0.4945400000000000 H
   0.1340300000000000    0.7412600000000000    0.0320800000000000 H
   0.2519350000000000    0.7890500000000000    0.1084700000000000 H
   0.9543900000000001    0.8866000000000001    0.0000000000000000 H
   0.8838750000000000    0.5093200000000000    0.4684100000000000 H
   0.5000000000000000    0.9619500000000001    0.3920400000000000 H
   0.7952600000000001    0.6134200000000000    0.2554600000000000 H
   0.8659000000000000    0.9914650000000000    0.2178550000000000 H
   0.7480750000000000    0.5391450000000000    0.1414150000000000 H
   0.5455250000000000    0.6365950000000000    0.2449700000000000 H
   0.6160650000000000    0.7594350000000001    0.2814700000000000 H
   0.9994100000000000    0.7119700000000000    0.3579000000000000 H
   0.7046650000000000    0.8633250000000000    0.4945400000000000 H
   0.6340300000000000    0.7412600000000000    0.0320800000000000 H
   0.7519350000000000    0.7890500000000000    0.1084700000000000 H
   0.4543900000000000    0.3866000000000000    0.5000000000000000 H
   0.3838750000000000    0.0093200000000000    0.9684100000000000 H
   0.0000000000000000    0.4619500000000000    0.8920399999999999 H
   0.2952600000000000    0.1134200000000000    0.7554600000000000 H
   0.3659000000000000    0.4914650000000000    0.7178550000000000 H
   0.2480750000000000    0.0391450000000000    0.6414150000000001 H
   0.0455250000000000    0.1365950000000000    0.7449700000000000 H
   0.1160650000000000    0.2594350000000000    0.7814700000000000 H
   0.2046650000000000    0.3633250000000000    0.9945400000000000 H
   0.1340300000000000    0.2412600000000000    0.5320800000000000 H
   0.2519350000000000    0.2890500000000000    0.6084700000000000 H
   0.9543900000000001    0.3866000000000000    0.5000000000000000 H
   0.8838750000000000    0.0093200000000000    0.9684100000000000 H
   0.5000000000000000    0.4619500000000000    0.8920399999999999 H
   0.7952600000000001    0.1134200000000000    0.7554600000000000 H
   0.8659000000000000    0.4914650000000000    0.7178550000000000 H
   0.7480750000000000    0.0391450000000000    0.6414150000000001 H
   0.9994100000000000    0.2119700000000000    0.8579000000000000 H
   0.7046650000000000    0.3633250000000000    0.9945400000000000 H
   0.6340300000000000    0.2412600000000000    0.5320800000000000 H
   0.7519350000000000    0.2890500000000000    0.6084700000000000 H
   0.4543900000000000    0.8866000000000001    0.5000000000000000 H
   0.3838750000000000    0.5093200000000000    0.9684100000000000 H
   0.0000000000000000    0.9619500000000001    0.8920399999999999 H
   0.2952600000000000    0.6134200000000000    0.7554600000000000 H
   0.3659000000000000    0.9914650000000000    0.7178550000000000 H
   0.2480750000000000    0.5391450000000000    0.6414150000000001 H
   0.0455250000000000    0.6365950000000000    0.7449700000000000 H
   0.1160650000000000    0.7594350000000001    0.7814700000000000 H
   0.4994100000000000    0.7119700000000000    0.8579000000000000 H
   0.2046650000000000    0.8633250000000000    0.9945400000000000 H
   0.1340300000000000    0.7412600000000000    0.5320800000000000 H
   0.2519350000000000    0.7890500000000000    0.6084700000000000 H
   0.9543900000000001    0.8866000000000001    0.5000000000000000 H
   0.8838750000000000    0.5093200000000000    0.9684100000000000 H
   0.5000000000000000    0.9619500000000001    0.8920399999999999 H
   0.7952600000000001    0.6134200000000000    0.7554600000000000 H
   0.8659000000000000    0.9914650000000000    0.7178550000000000 H
   0.7480750000000000    0.5391450000000000    0.6414150000000001 H
   0.5455250000000000    0.6365950000000000    0.7449700000000000 H
   0.6160650000000000    0.7594350000000001    0.7814700000000000 H
   0.9994100000000000    0.7119700000000000    0.8579000000000000 H
   0.7046650000000000    0.8633250000000000    0.9945400000000000 H
   0.6340300000000000    0.7412600000000000    0.5320800000000000 H
   0.7519350000000000    0.7890500000000000    0.6084700000000000 H
   0.4812450000000000    0.4205300000000000    0.4475350000000000 C
   0.4508950000000000    0.4155850000000000    0.4832750000000000 C
   0.4160600000000000    0.4477350000000000    0.4909900000000000 C
   0.4112900000000000    0.4846600000000000    0.4626350000000000 C
   0.4417450000000000    0.4898000000000000    0.4270150000000000 C
   0.4768850000000000    0.4578750000000000    0.4196850000000000 C
   0.0177500000000000    0.3857500000000000    0.4390250000000000 C
   0.3834350000000000    0.4427700000000000    0.0288400000000000 C
   0.4367350000000000    0.0284550000000000    0.3963550000000000 C
   0.2678000000000000    0.0799550000000000    0.1975650000000000 C
   0.2986000000000000    0.0846750000000000    0.2334800000000000 C
   0.3337450000000000    0.0526450000000000    0.2409500000000000 C
   0.3382650000000000    0.0160450000000000    0.2122600000000000 C
   0.3073900000000000    0.0111850000000000    0.1764400000000000 C
   0.2720150000000000    0.0430000000000000    0.1692750000000000 C
   0.2310750000000000    0.1146150000000000    0.1891800000000000 C
   0.3670800000000000    0.0575150000000000    0.2788200000000000 C
   0.3123600000000000    0.4730150000000000    0.1452950000000000 C
   0.0187000000000000    0.1705450000000000    0.3024000000000000 C
   0.0490350000000000    0.1656050000000000    0.2666550000000000 C
   0.0838750000000000    0.1977850000000000    0.2589250000000000 C
   0.0886450000000000    0.2347450000000000    0.2872600000000000 C
   0.0582050000000000    0.2398800000000000    0.3228850000000000 C
   0.0230750000000000    0.2079150000000000    0.3302450000000000 C
   0.4822050000000000    0.1357350000000000    0.3109400000000000 C
   0.1165300000000000    0.1928000000000000    0.2211000000000000 C
   0.0632550000000000    0.2785400000000000    0.3535450000000000 C
   0.2321800000000000    0.3298650000000000    0.0523750000000000 C
   0.2013400000000000    0.3345600000000000    0.0164900000000000 C
   0.1661850000000000    0.3024950000000000    0.0090050000000000 C
   0.1616800000000000    0.2658650000000000    0.0376700000000000 C
   0.1925900000000000    0.2610350000000000    0.0734650000000000 C
   0.2279750000000000    0.2928900000000000    0.0806300000000000 C
   0.2689050000000000    0.3645750000000000    0.0607850000000000 C
   0.1327900000000000    0.3073650000000000    0.4711900000000000 C
   0.1876150000000000    0.2228900000000000    0.1046250000000000 C
   0.9812449999999999    0.4205300000000000    0.4475350000000000 C
   0.9508950000000000    0.4155850000000000    0.4832750000000000 C
   0.9160600000000000    0.4477350000000000    0.4909900000000000 C
   0.9112899999999999    0.4846600000000000    0.4626350000000000 C
   0.9417450000000001    0.4898000000000000    0.4270150000000000 C
   0.9768850000000000    0.4578750000000000    0.4196850000000000 C
   0.5177500000000000    0.3857500000000000    0.4390250000000000 C
   0.8834350000000000    0.4427700000000000    0.0288400000000000 C
   0.9367350000000000    0.0284550000000000    0.3963550000000000 C
   0.7678000000000000    0.0799550000000000    0.1975650000000000 C
   0.7986000000000000    0.0846750000000000    0.2334800000000000 C
   0.8337450000000000    0.0526450000000000    0.2409500000000000 C
   0.8382650000000000    0.0160450000000000    0.2122600000000000 C
   0.8073900000000001    0.0111850000000000    0.1764400000000000 C
   0.7720150000000000    0.0430000000000000    0.1692750000000000 C
   0.7310750000000000    0.1146150000000000    0.1891800000000000 C
   0.8670800000000001    0.0575150000000000    0.2788200000000000 C
   0.8123600000000000    0.4730150000000000    0.1452950000000000 C
   0.5187000000000000    0.1705450000000000    0.3024000000000000 C
   0.5490350000000001    0.1656050000000000    0.2666550000000000 C
   0.5838750000000000    0.1977850000000000    0.2589250000000000 C
   0.5886450000000000    0.2347450000000000    0.2872600000000000 C
   0.5582050000000000    0.2398800000000000    0.3228850000000000 C
   0.5230750000000000    0.2079150000000000    0.3302450000000000 C
   0.9822050000000000    0.1357350000000000    0.3109400000000000 C
   0.6165300000000000    0.1928000000000000    0.2211000000000000 C
   0.5632550000000001    0.2785400000000000    0.3535450000000000 C
   0.7321800000000001    0.3298650000000000    0.0523750000000000 C
   0.7013400000000000    0.3345600000000000    0.0164900000000000 C
   0.6661850000000000    0.3024950000000000    0.0090050000000000 C
   0.6616800000000000    0.2658650000000000    0.0376700000000000 C
   0.6925900000000000    0.2610350000000000    0.0734650000000000 C
   0.7279750000000000    0.2928900000000000    0.0806300000000000 C
   0.7689049999999999    0.3645750000000000    0.0607850000000000 C
   0.6327900000000000    0.3073650000000000    0.4711900000000000 C
   0.6876150000000000    0.2228900000000000    0.1046250000000000 C
   0.4812450000000000    0.9205300000000001    0.4475350000000000 C
   0.4508950000000000    0.9155850000000000    0.4832750000000000 C
   0.4160600000000000    0.9477350000000000    0.4909900000000000 C
   0.4112900000000000    0.9846600000000000    0.4626350000000000 C
   0.4417450000000000    0.9898000000000000    0.4270150000000000 C
   0.4768850000000000    0.9578750000000000    0.4196850000000000 C
   0.0177500000000000    0.8857500000000000    0.4390250000000000 C
   0.3834350000000000    0.9427700000000000    0.0288400000000000 C
   0.4367350000000000    0.5284550000000000    0.3963550000000000 C
   0.2678000000000000    0.5799550000000000    0.1975650000000000 C
   0.2986000000000000    0.5846750000000001    0.2334800000000000 C
   0.3337450000000000    0.5526450000000001    0.2409500000000000 C
   0.3382650000000000    0.5160450000000000    0.2122600000000000 C
   0.3073900000000000    0.5111850000000000    0.1764400000000000 C
   0.2720150000000000    0.5430000000000000    0.1692750000000000 C
   0.2310750000000000    0.6146150000000000    0.1891800000000000 C
   0.3670800000000000    0.5575150000000000    0.2788200000000000 C
   0.3123600000000000    0.9730150000000000    0.1452950000000000 C
   0.0187000000000000    0.6705449999999999    0.3024000000000000 C
   0.0490350000000000    0.6656050000000000    0.2666550000000000 C
   0.0838750000000000    0.6977850000000000    0.2589250000000000 C
   0.0886450000000000    0.7347450000000000    0.2872600000000000 C
   0.0582050000000000    0.7398800000000000    0.3228850000000000 C
   0.0230750000000000    0.7079150000000000    0.3302450000000000 C
   0.4822050000000000    0.6357349999999999    0.3109400000000000 C
   0.1165300000000000    0.6928000000000000    0.2211000000000000 C
   0.0632550000000000    0.7785400000000000    0.3535450000000000 C
   0.2321800000000000    0.8298650000000001    0.0523750000000000 C
   0.2013400000000000    0.8345600000000000    0.0164900000000000 C
   0.1661850000000000    0.8024950000000000    0.0090050000000000 C
   0.1616800000000000    0.7658650000000000    0.0376700000000000 C
   0.1925900000000000    0.7610350000000000    0.0734650000000000 C
   0.2279750000000000    0.7928900000000000    0.0806300000000000 C
   0.2689050000000000    0.8645750000000000    0.0607850000000000 C
   0.1327900000000000    0.8073650000000000    0.4711900000000000 C
   0.1876150000000000    0.7228900000000000    0.1046250000000000 C
   0.9812449999999999    0.9205300000000001    0.4475350000000000 C
   0.9508950000000000    0.9155850000000000    0.4832750000000000 C
   0.9160600000000000    0.9477350000000000    0.4909900000000000 C
   0.9112899999999999    0.9846600000000000    0.4626350000000000 C
   0.9417450000000001    0.9898000000000000    0.4270150000000000 C
   0.9768850000000000    0.9578750000000000    0.4196850000000000 C
   0.5177500000000000    0.8857500000000000    0.4390250000000000 C
   0.8834350000000000    0.9427700000000000    0.0288400000000000 C
   0.9367350000000000    0.5284550000000000    0.3963550000000000 C
   0.7678000000000000    0.5799550000000000    0.1975650000000000 C
   0.7986000000000000    0.5846750000000001    0.2334800000000000 C
   0.8337450000000000    0.5526450000000001    0.2409500000000000 C
   0.8382650000000000    0.5160450000000000    0.2122600000000000 C
   0.8073900000000001    0.5111850000000000    0.1764400000000000 C
   0.7720150000000000    0.5430000000000000    0.1692750000000000 C
   0.7310750000000000    0.6146150000000000    0.1891800000000000 C
   0.8670800000000001    0.5575150000000000    0.2788200000000000 C
   0.8123600000000000    0.9730150000000000    0.1452950000000000 C
   0.5187000000000000    0.6705449999999999    0.3024000000000000 C
   0.5490350000000001    0.6656050000000000    0.2666550000000000 C
   0.5838750000000000    0.6977850000000000    0.2589250000000000 C
   0.5886450000000000    0.7347450000000000    0.2872600000000000 C
   0.5582050000000000    0.7398800000000000    0.3228850000000000 C
   0.5230750000000000    0.7079150000000000    0.3302450000000000 C
   0.9822050000000000    0.6357349999999999    0.3109400000000000 C
   0.6165300000000000    0.6928000000000000    0.2211000000000000 C
   0.5632550000000001    0.7785400000000000    0.3535450000000000 C
   0.7321800000000001    0.8298650000000001    0.0523750000000000 C
   0.7013400000000000    0.8345600000000000    0.0164900000000000 C
   0.6661850000000000    0.8024950000000000    0.0090050000000000 C
   0.6616800000000000    0.7658650000000000    0.0376700000000000 C
   0.6925900000000000    0.7610350000000000    0.0734650000000000 C
   0.7279750000000000    0.7928900000000000    0.0806300000000000 C
   0.7689049999999999    0.8645750000000000    0.0607850000000000 C
   0.6327900000000000    0.8073650000000000    0.4711900000000000 C
   0.6876150000000000    0.7228900000000000    0.1046250000000000 C
   0.4812450000000000    0.4205300000000000    0.9475350000000000 C
   0.4508950000000000    0.4155850000000000    0.9832750000000000 C
   0.4160600000000000    0.4477350000000000    0.9909900000000000 C
   0.4112900000000000    0.4846600000000000    0.9626350000000000 C
   0.4417450000000000    0.4898000000000000    0.9270149999999999 C
   0.4768850000000000    0.4578750000000000    0.9196850000000000 C
   0.0177500000000000    0.3857500000000000    0.9390250000000000 C
   0.3834350000000000    0.4427700000000000    0.5288400000000000 C
   0.4367350000000000    0.0284550000000000    0.8963550000000000 C
   0.2678000000000000    0.0799550000000000    0.6975650000000000 C
   0.2986000000000000    0.0846750000000000    0.7334800000000000 C
   0.3337450000000000    0.0526450000000000    0.7409500000000000 C
   0.3382650000000000    0.0160450000000000    0.7122600000000000 C
   0.3073900000000000    0.0111850000000000    0.6764400000000000 C
   0.2720150000000000    0.0430000000000000    0.6692750000000001 C
   0.2310750000000000    0.1146150000000000    0.6891800000000000 C
   0.3670800000000000    0.0575150000000000    0.7788200000000001 C
   0.3123600000000000    0.4730150000000000    0.6452950000000000 C
   0.0187000000000000    0.1705450000000000    0.8024000000000000 C
   0.0490350000000000    0.1656050000000000    0.7666550000000000 C
   0.0838750000000000    0.1977850000000000    0.7589250000000001 C
   0.0886450000000000    0.2347450000000000    0.7872600000000001 C
   0.0582050000000000    0.2398800000000000    0.8228850000000000 C
   0.0230750000000000    0.2079150000000000    0.8302450000000000 C
   0.1165300000000000    0.1928000000000000    0.7211000000000000 C
   0.0632550000000000    0.2785400000000000    0.8535450000000000 C
   0.2321800000000000    0.3298650000000000    0.5523749999999999 C
   0.2013400000000000    0.3345600000000000    0.5164900000000000 C
   0.1661850000000000    0.3024950000000000    0.5090050000000000 C
   0.1616800000000000    0.2658650000000000    0.5376700000000000 C
   0.1925900000000000    0.2610350000000000    0.5734650000000000 C
   0.2279750000000000    0.2928900000000000    0.5806300000000000 C
   0.2689050000000000    0.3645750000000000    0.5607850000000000 C
   0.1327900000000000    0.3073650000000000    0.9711900000000000 C
   0.1876150000000000    0.2228900000000000    0.6046250000000000 C
   0.9812449999999999    0.4205300000000000    0.9475350000000000 C
   0.9508950000000000    0.4155850000000000    0.9832750000000000 C
   0.9160600000000000    0.4477350000000000    0.9909900000000000 C
   0.9112899999999999    0.4846600000000000    0.9626350000000000 C
   0.9417450000000001    0.4898000000000000    0.9270149999999999 C
   0.9768850000000000    0.4578750000000000    0.9196850000000000 C
   0.5177500000000000    0.3857500000000000    0.9390250000000000 C
   0.8834350000000000    0.4427700000000000    0.5288400000000000 C
   0.9367350000000000    0.0284550000000000    0.8963550000000000 C
   0.7678000000000000    0.0799550000000000    0.6975650000000000 C
   0.7986000000000000    0.0846750000000000    0.7334800000000000 C
   0.8337450000000000    0.0526450000000000    0.7409500000000000 C
   0.8382650000000000    0.0160450000000000    0.7122600000000000 C
   0.8073900000000001    0.0111850000000000    0.6764400000000000 C
   0.7720150000000000    0.0430000000000000    0.6692750000000001 C
   0.7310750000000000    0.1146150000000000    0.6891800000000000 C
   0.8670800000000001    0.0575150000000000    0.7788200000000001 C
   0.8123600000000000    0.4730150000000000    0.6452950000000000 C
   0.9822050000000000    0.1357350000000000    0.8109400000000000 C
   0.7321800000000001    0.3298650000000000    0.5523749999999999 C
   0.7013400000000000    0.3345600000000000    0.5164900000000000 C
   0.6661850000000000    0.3024950000000000    0.5090050000000000 C
   0.6616800000000000    0.2658650000000000    0.5376700000000000 C
   0.6925900000000000    0.2610350000000000    0.5734650000000000 C
   0.7279750000000000    0.2928900000000000    0.5806300000000000 C
   0.7689049999999999    0.3645750000000000    0.5607850000000000 C
   0.6327900000000000    0.3073650000000000    0.9711900000000000 C
   0.6876150000000000    0.2228900000000000    0.6046250000000000 C
   0.4812450000000000    0.9205300000000001    0.9475350000000000 C
   0.4508950000000000    0.9155850000000000    0.9832750000000000 C
   0.4160600000000000    0.9477350000000000    0.9909900000000000 C
   0.4112900000000000    0.9846600000000000    0.9626350000000000 C
   0.4417450000000000    0.9898000000000000    0.9270149999999999 C
   0.4768850000000000    0.9578750000000000    0.9196850000000000 C
   0.0177500000000000    0.8857500000000000    0.9390250000000000 C
   0.3834350000000000    0.9427700000000000    0.5288400000000000 C
   0.4367350000000000    0.5284550000000000    0.8963550000000000 C
   0.2678000000000000    0.5799550000000000    0.6975650000000000 C
   0.2986000000000000    0.5846750000000001    0.7334800000000000 C
   0.3337450000000000    0.5526450000000001    0.7409500000000000 C
   0.3382650000000000    0.5160450000000000    0.7122600000000000 C
   0.3073900000000000    0.5111850000000000    0.6764400000000000 C
   0.2720150000000000    0.5430000000000000    0.6692750000000001 C
   0.2310750000000000    0.6146150000000000    0.6891800000000000 C
   0.3670800000000000    0.5575150000000000    0.7788200000000001 C
   0.3123600000000000    0.9730150000000000    0.6452950000000000 C
   0.0187000000000000    0.6705449999999999    0.8024000000000000 C
   0.0490350000000000    0.6656050000000000    0.7666550000000000 C
   0.0838750000000000    0.6977850000000000    0.7589250000000001 C
   0.0886450000000000    0.7347450000000000    0.7872600000000001 C
   0.0582050000000000    0.7398800000000000    0.8228850000000000 C
   0.0230750000000000    0.7079150000000000    0.8302450000000000 C
   0.4822050000000000    0.6357349999999999    0.8109400000000000 C
   0.1165300000000000    0.6928000000000000    0.7211000000000000 C
   0.0632550000000000    0.7785400000000000    0.8535450000000000 C
   0.2321800000000000    0.8298650000000001    0.5523749999999999 C
   0.2013400000000000    0.8345600000000000    0.5164900000000000 C
   0.1661850000000000    0.8024950000000000    0.5090050000000000 C
   0.1616800000000000    0.7658650000000000    0.5376700000000000 C
   0.1925900000000000    0.7610350000000000    0.5734650000000000 C
   0.2279750000000000    0.7928900000000000    0.5806300000000000 C
   0.2689050000000000    0.8645750000000000    0.5607850000000000 C
   0.1327900000000000    0.8073650000000000    0.9711900000000000 C
   0.1876150000000000    0.7228900000000000    0.6046250000000000 C
   0.9812449999999999    0.9205300000000001    0.9475350000000000 C
   0.9508950000000000    0.9155850000000000    0.9832750000000000 C
   0.9160600000000000    0.9477350000000000    0.9909900000000000 C
   0.9112899999999999    0.9846600000000000    0.9626350000000000 C
   0.9417450000000001    0.9898000000000000    0.9270149999999999 C
   0.9768850000000000    0.9578750000000000    0.9196850000000000 C
   0.5177500000000000    0.8857500000000000    0.9390250000000000 C
   0.8834350000000000    0.9427700000000000    0.5288400000000000 C
   0.9367350000000000    0.5284550000000000    0.8963550000000000 C
   0.7678000000000000    0.5799550000000000    0.6975650000000000 C
   0.7986000000000000    0.5846750000000001    0.7334800000000000 C
   0.8337450000000000    0.5526450000000001    0.7409500000000000 C
   0.8382650000000000    0.5160450000000000    0.7122600000000000 C
   0.8073900000000001    0.5111850000000000    0.6764400000000000 C
   0.7720150000000000    0.5430000000000000    0.6692750000000001 C
   0.7310750000000000    0.6146150000000000    0.6891800000000000 C
   0.8670800000000001    0.5575150000000000    0.7788200000000001 C
   0.8123600000000000    0.9730150000000000    0.6452950000000000 C
   0.5187000000000000    0.6705449999999999    0.8024000000000000 C
   0.5490350000000001    0.6656050000000000    0.7666550000000000 C
   0.5838750000000000    0.6977850000000000    0.7589250000000001 C
   0.5886450000000000    0.7347450000000000    0.7872600000000001 C
   0.5582050000000000    0.7398800000000000    0.8228850000000000 C
   0.5230750000000000    0.7079150000000000    0.8302450000000000 C
   0.9822050000000000    0.6357349999999999    0.8109400000000000 C
   0.6165300000000000    0.6928000000000000    0.7211000000000000 C
   0.5632550000000001    0.7785400000000000    0.8535450000000000 C
   0.7321800000000001    0.8298650000000001    0.5523749999999999 C
   0.7013400000000000    0.8345600000000000    0.5164900000000000 C
   0.6661850000000000    0.8024950000000000    0.5090050000000000 C
   0.6616800000000000    0.7658650000000000    0.5376700000000000 C
   0.6925900000000000    0.7610350000000000    0.5734650000000000 C
   0.7279750000000000    0.7928900000000000    0.5806300000000000 C
   0.7689049999999999    0.8645750000000000    0.5607850000000000 C
   0.6327900000000000    0.8073650000000000    0.9711900000000000 C
   0.6876150000000000    0.7228900000000000    0.6046250000000000 C