H2 O2
1.0
  25.8511646534779587    0.0000000000000000   -3.7795716766284273
  -6.5197625184273669   11.1317845134105422   -1.8743975699682338
   0.0000000000000000    0.0000000000000000   35.6719999999999970
H O
2 2
direct
   0.8578088694693038    0.6015666267400092    0.0782424619180251 H
   0.6993204477503403    0.2852119339789758    0.1718617730537626 H
   0.8519749999999999    0.5657300000000000    0.0508000000000000 O
   0.7170700000000000    0.2970800000000000    0.1993550000000000 O
