H6 C19 O8 F6
1.0
  13.1803984405094621    0.0000000000000000   -1.3948523037998533
   1.3669792355065205   13.0867024440950672   -0.8603388340707538
   0.0000000000000000    0.0000000000000000   26.3120000000000012
H C O F
6 19 8 6
direct
   0.0625300000000000    0.8627800000000000    0.8507800000000000 H
   0.9595600000000000    0.7187100000000000    0.8509000000000000 H
   0.6999800000000000    0.9315300000000000    0.8843600000000000 H
   0.4367700000000000    0.7033199999999999    0.9308350000000001 H
   0.5415500000000000    0.7016200000000000    0.8589249999999999 H
   0.7985200000000000    0.7700500000000000    0.9659700000000000 H
   0.4872400000000000    0.7346900000000000    0.0302400000000000 C
   0.7143500000000000    0.7512600000000000    0.0524750000000000 C
   0.0100800000000000    0.0604500000000000    0.8657450000000000 C
   0.9403400000000000    0.9779700000000000    0.8646400000000001 C
   0.9823100000000000    0.8767600000000000    0.8573400000000000 C
   0.9238600000000000    0.7957000000000000    0.8581200000000000 C
   0.8213500000000000    0.8139500000000000    0.8678450000000000 C
   0.7793000000000000    0.9153400000000000    0.8762950000000000 C
   0.8368200000000000    0.9975400000000000    0.8735950000000000 C
   0.7833200000000000    0.1049900000000000    0.8746499999999999 C
   0.8122900000000000    0.6194300000000000    0.8680350000000000 C
   0.5576000000000000    0.7316100000000000    0.9888200000000000 C
   0.5168900000000000    0.7162700000000000    0.9380400000000000 C
   0.5763500000000000    0.7166900000000000    0.8975299999999999 C
   0.6786700000000000    0.7360700000000000    0.9068200000000000 C
   0.7194000000000000    0.7539000000000000    0.9576750000000001 C
   0.6610500000000000    0.7492700000000000    0.9987300000000000 C
   0.6918500000000000    0.7324000000000001    0.8092500000000000 C
   0.7508000000000000    0.7274900000000000    0.8639600000000001 C
   0.5026000000000000    0.7868600000000000    0.0712250000000000 O
   0.4082400000000000    0.6837500000000000    0.0202000000000000 O
   0.7150500000000000    0.6738100000000000    0.0777650000000000 O
   0.7602700000000000    0.8312500000000000    0.0665000000000000 O
  -0.0050800000000000    0.1424200000000000    0.8919850000000000 O
   0.0889600000000000    0.0403800000000000    0.8399950000000000 O
   0.7822300000000000    0.1553400000000000    0.8357700000000000 O
   0.7382200000000000    0.1342100000000000    0.9151000000000000 O
   0.8840100000000000    0.6178500000000000    0.9088499999999999 F
   0.8623499999999999    0.5872600000000000    0.8260750000000000 F
   0.7506200000000000    0.5462399999999999    0.8735550000000001 F
   0.6186500000000000    0.8129999999999999    0.8067500000000001 F
   0.6443300000000000    0.6470700000000000    0.7936500000000000 F
   0.7556300000000000    0.7425400000000000    0.7732150000000000 F
