H8 O6
1.0
  13.1803984405094621    0.0000000000000000   -1.3948523037998533
   1.3669792355065205   13.0867024440950672   -0.8603388340707538
   0.0000000000000000    0.0000000000000000   26.3120000000000012
H O
8 6
direct
   0.7723887074673378    0.1120723141420042    0.8844542302205363 H
   0.0954864971345880   -0.0221105459342328    0.8184724308358141 H
  -0.0641930711427983    0.1628046923330592    0.9105184021017786 H
   0.0024617769245486    0.0702082533906921    0.8671143209615871 H
   0.7254164763353285    0.7705371655501508    0.0558549505793332 H
   0.3999193267053721    0.6408544256467440   -0.0110198633714842 H
   0.5608883386535024    0.8243238093402230    0.0820106293012098 H
   0.4931903338979726    0.7383503400690629    0.0359191443709551 H
   0.7382200000000000    0.1342100000000000    0.9151000000000000 O
   0.0889600000000000    0.0403800000000000    0.8399950000000000 O
  -0.0050800000000000    0.1424200000000000    0.8919850000000000 O
   0.7602700000000000    0.8312500000000000    0.0665000000000000 O
   0.4082400000000000    0.6837500000000000    0.0202000000000000 O
   0.5026000000000000    0.7868600000000000    0.0712250000000000 O
