H8 C10 N2
1.0
  13.1803984405094621    0.0000000000000000   -1.3948523037998533
   1.3669792355065205   13.0867024440950672   -0.8603388340707538
   0.0000000000000000    0.0000000000000000   26.3120000000000012
H C N
8 10 2
direct
   0.1596800000000000    0.4402600000000000    0.4683300000000000 H
   0.8972300000000000    0.2671100000000000    0.4089900000000000 H
   0.0429900000000000    0.3584500000000000    0.4415000000000000 H
   0.7000500000000000    0.4589100000000000    0.4941300000000000 H
   0.0995000000000000    0.7321900000000000    0.5907150000000000 H
   0.9538500000000000    0.6404400000000000    0.5579100000000000 H
   0.2969500000000000    0.5399200000000000    0.5059200000000000 H
   0.8374200000000001    0.5582000000000000    0.5319000000000000 H
   0.1407300000000000    0.5034800000000000    0.4955450000000000 C
   0.8863700000000000    0.3336600000000000    0.4353350000000000 C
   0.9689000000000000    0.3856500000000000    0.4547950000000000 C
   0.9555300000000000    0.4697100000000000    0.4899100000000000 C
   0.7773800000000000    0.4400100000000000    0.4834150000000000 C
   0.1104400000000000    0.6654500000000000    0.5644500000000000 C
   0.0279900000000000    0.6132600000000000    0.5451150000000000 C
   0.0414700000000000    0.5290200000000000    0.5101150000000000 C
   0.2196100000000000    0.5588600000000000    0.5166050000000000 C
   0.8563400000000000    0.4951900000000000    0.5000000000000000 C
   0.7912500000000000    0.3605400000000000    0.4488500000000000 N
   0.2055900000000000    0.6385700000000000    0.5510150000000000 N
