H4 O2
1.0
  13.1803984405094621    0.0000000000000000   -1.3948523037998533
   1.3669792355065205   13.0867024440950672   -0.8603388340707538
   0.0000000000000000    0.0000000000000000   26.3120000000000012
H O
4 2
direct
   0.7812099009861484    0.4180660756042385    0.4738706216592488 H
   0.8602242784692493    0.3410485302223147    0.4390498804298580 H
   0.2157392545927865    0.5808669269906553    0.5261051675793307 H
   0.1365759168086970    0.6580665691663923    0.5607596579892292 H
   0.7912500000000000    0.3605400000000000    0.4488500000000000 O
   0.2055900000000000    0.6385700000000000    0.5510150000000000 O
