Zn6 H45 C63 N3 O24
1.0
  14.4661359836962262    0.0000000000000000   -3.2558399378976217
  -7.3506685522470869   12.4464031996012334   -3.2509345160987055
   0.0000000000000000    0.0000000000000000   16.7749999999999986
Zn H C N O
6 45 63 3 24
direct
   0.0746300000000000    0.4734100000000000    0.5782000000000000 Zn
   0.9253700000000000    0.5266100000000000    0.4217800000000000 Zn
   0.3288900000000000    0.6707300000000000    0.7498000000000000 Zn
   0.5259000000000000    0.9249300000000000    0.9211900000000000 Zn
   0.4740900000000000    0.0750900000000000    0.0787900000000000 Zn
   0.6711100000000000    0.3292900000000000    0.2501100000000000 Zn
   0.4345174915968046    0.6151776520068789    0.8371880125487761 H
   0.6805782256322748    0.8892306284431075    0.9130924620106300 H
   0.5804761258156256    0.7531525116380227    0.8821480758549277 H
   0.0440122121384880    0.6104408290496605    0.6586134031380425 H
   0.2388449255762549    0.6626799122603154    0.8683561532521069 H
   0.1396488259895050    0.6476832553665435    0.7852147753966570 H
   0.6034400000000000    0.1338700000000000    0.4162000000000000 H
   0.5671500000000000    0.9864700000000000    0.4758600000000000 H
   0.5907100000000000    0.9354400000000000    0.1795700000000000 H
   0.5564500000000000    0.7887200000000000    0.2394500000000000 H
   0.8371800000000000    0.7716200000000000    0.4145100000000000 H
   0.7421000000000000    0.8747100000000000    0.4240500000000000 H
   0.4427200000000000    0.5785000000000000    0.3442800000000000 H
   0.5384000000000000    0.4773400000000000    0.3349100000000000 H
   0.3336200000000000    0.6118600000000000    0.5401000000000000 H
   0.5024100000000000    0.6974700000000000    0.5110000000000000 H
   0.3561700000000000    0.8039200000000000    0.3299600000000000 H
   0.1896900000000000    0.7234500000000000    0.3640800000000000 H
   0.3965600000000000    0.8661500000000000    0.5837900000000000 H
   0.4328500000000000    0.0135500000000000    0.5241000000000000 H
   0.4092900000000000    0.0645800000000000    0.8204200000000000 H
   0.4435500000000000    0.2113000000000000    0.7605400000000000 H
   0.1628200000000000    0.2284100000000000    0.5854700000000000 H
   0.2578900000000000    0.1253100000000000    0.5759400000000000 H
   0.5572700000000000    0.4215300000000000    0.6556999999999999 H
   0.4616000000000000    0.5226800000000000    0.6650800000000000 H
   0.6663800000000000    0.3881600000000000    0.4598800000000000 H
   0.4975900000000000    0.3025500000000000    0.4889800000000000 H
   0.6438300000000000    0.1961100000000000    0.6700199999999999 H
   0.8103100000000000    0.2765700000000000    0.6359000000000000 H
   0.8663300000000000    0.3967600000000000    0.0840100000000000 H
   0.0135300000000000    0.4328100000000000    0.0243100000000000 H
   0.0643800000000000    0.4090000000000000    0.3205300000000000 H
   0.2108700000000000    0.4429300000000000    0.2606000000000000 H
   0.2289900000000000    0.1628100000000000    0.0861600000000000 H
   0.1256000000000000    0.2575500000000000    0.0763600000000000 H
   0.4212100000000000    0.5575500000000000    0.1562300000000000 H
   0.5226700000000000    0.4622000000000000    0.1658500000000000 H
   0.3876100000000000    0.6658700000000000    0.9597200000000000 H
   0.3020000000000000    0.4970600000000000    0.9889800000000000 H
   0.1961000000000000    0.6438800000000000    0.1701000000000000 H
   0.2767100000000000    0.8104500000000000    0.1359400000000000 H
   0.5167761096259068    0.1974621473095391    0.0015006553505055 H
   0.6835251475508325    1.0910148182503074    0.9195854590834645 H
   0.6156859075872418    1.1594125528973134    0.9540871249250309 H
   0.6131799999999999    0.1279400000000000    0.2555000000000000 C
   0.7479500000000000    0.5537100000000000    0.3684800000000000 C
   0.1473400000000000    0.6018300000000000    0.4655500000000000 C
   0.5921300000000000    0.0577800000000000    0.3776900000000000 C
   0.5720700000000000    0.9757500000000000    0.4108900000000000 C
   0.5862600000000000    0.9463100000000000    0.2446500000000000 C
   0.5671400000000000    0.8645300000000000    0.2780600000000000 C
   0.5582900000000000    0.8781700000000000    0.3608900000000000 C
   0.5979300000000000    0.0432200000000000    0.2937100000000000 C
   0.7506900000000000    0.7300400000000000    0.3991000000000000 C
   0.6976400000000000    0.7875500000000000    0.4046600000000000 C
   0.5292500000000000    0.6212000000000000    0.3606900000000000 C
   0.5826500000000000    0.5645100000000000    0.3555600000000000 C
   0.6939900000000000    0.6177200000000000    0.3748700000000000 C
   0.5861400000000000    0.7337200000000000    0.3862300000000000 C
   0.3389300000000000    0.6533900000000000    0.4937300000000000 C
   0.4333000000000000    0.7016200000000000    0.4776200000000000 C
   0.3517600000000000    0.7632000000000000    0.3769100000000000 C
   0.2585400000000000    0.7177100000000000    0.3955500000000000 C
   0.2498100000000000    0.6597300000000000    0.4521000000000000 C
   0.4396800000000000    0.7534900000000000    0.4162900000000000 C
   0.2520500000000000    0.4463200000000000    0.6315100000000000 C
   0.3868100000000000    0.8720800000000000    0.7444000000000000 C
   0.8526600000000000    0.3981900000000000    0.5344300000000000 C
   0.4078700000000000    0.9422500000000000    0.6223000000000000 C
   0.4279300000000000    0.0242800000000000    0.5890900000000000 C
   0.4137400000000000    0.0537100000000000    0.7553299999999999 C
   0.4328600000000000    0.1354900000000000    0.7219000000000000 C
   0.4417000000000000    0.1218500000000000    0.6390900000000000 C
   0.4020700000000000    0.9568100000000000    0.7062800000000000 C
   0.2493000000000000    0.2699900000000000    0.6008400000000000 C
   0.3023500000000000    0.2124700000000000    0.5953300000000000 C
   0.4707500000000000    0.3788200000000000    0.6392900000000000 C
   0.4173500000000000    0.4355200000000000    0.6444299999999999 C
   0.3060100000000000    0.3823000000000000    0.6251200000000000 C
   0.4138500000000000    0.2663000000000000    0.6137600000000000 C
   0.6610700000000000    0.3466400000000000    0.5062000000000000 C
   0.5667000000000000    0.2984100000000000    0.5223600000000000 C
   0.6482400000000000    0.2368200000000000    0.6230800000000000 C
   0.7414500000000001    0.2823200000000000    0.6044300000000000 C
   0.7501900000000000    0.3402900000000000    0.5478900000000000 C
   0.5603200000000000    0.2465400000000000    0.5837000000000000 C
   0.4468200000000000    0.2525600000000000    0.1322200000000000 C
   0.8722600000000000    0.3871600000000000    0.2446800000000000 C
   0.3981700000000000    0.8525600000000000    0.0343600000000000 C
   0.9423000000000000    0.4079400000000000    0.1225100000000000 C
   0.0242400000000000    0.4278500000000000    0.0892700000000000 C
   0.0535500000000000    0.4135200000000000    0.2554600000000000 C
   0.1352200000000000    0.4324600000000000    0.2220200000000000 C
   0.1216800000000000    0.4414600000000000    0.1392300000000000 C
   0.9568200000000000    0.4021300000000000    0.2064900000000000 C
   0.2703800000000000    0.2493600000000000    0.1014900000000000 C
   0.2126900000000000    0.3022300000000000    0.0958300000000000 C
   0.3787000000000000    0.4709600000000000    0.1398500000000000 C
   0.4355700000000000    0.4177400000000000    0.1451200000000000 C
   0.3826100000000000    0.3063200000000000    0.1258200000000000 C
   0.2662600000000000    0.4138000000000000    0.1141800000000000 C
   0.3462200000000000    0.6607000000000000    0.0061000000000000 C
   0.2979700000000000    0.5663000000000000    0.0223400000000000 C
   0.2367100000000000    0.6481700000000000    0.1231200000000000 C
   0.2822900000000000    0.7414400000000000    0.1044400000000000 C
   0.3401200000000000    0.7500300000000000    0.0478000000000000 C
   0.2462600000000000    0.5600800000000000    0.0837500000000000 C
   0.5321100000000000    0.7922300000000000    0.3932600000000000 N
   0.4678900000000000    0.2078000000000000    0.6067300000000000 N
   0.2075700000000000    0.4676400000000000    0.1069000000000000 N
   0.4512100000000000    0.6877200000000000    0.8424800000000000 O
   0.6027200000000000    0.8498200000000000    0.8892000000000000 O
   0.1060800000000000    0.6019500000000000    0.6742000000000000 O
   0.2197900000000000    0.6367200000000000    0.8053399999999999 O
   0.6369899999999999    0.2200600000000000    0.3055900000000000 O
   0.6025500000000000    0.1063600000000000    0.1745900000000000 O
   0.6884500000000000    0.4516200000000000    0.3430000000000000 O
   0.8502400000000000    0.6035100000000000    0.3900100000000000 O
   0.1349900000000000    0.5253600000000000    0.4939300000000000 O
   0.0764800000000000    0.6283800000000000    0.4449200000000000 O
   0.3115500000000000    0.5484100000000000    0.6569000000000000 O
   0.1497600000000000    0.3965100000000000    0.6099700000000000 O
   0.3630000000000000    0.7799700000000001    0.6944000000000000 O
   0.3974500000000000    0.8936600000000000    0.8254000000000000 O
   0.8650099999999999    0.4746700000000000    0.5060600000000000 O
   0.9235200000000000    0.3716500000000000    0.5550700000000000 O
   0.5487900000000000    0.3123000000000000    0.1575000000000000 O
   0.3972700000000000    0.1502000000000000    0.1107800000000000 O
   0.7802100000000000    0.3633100000000000    0.1946400000000000 O
   0.8939100000000000    0.3980700000000000    0.3257300000000000 O
   0.4741900000000000    0.8645100000000000    0.0055500000000000 O
   0.3721800000000000    0.9238200000000000    0.0554000000000000 O
   0.5258100000000000    0.1355100000000000   -0.0055700000000000 O
   0.6278200000000000    1.0762000000000000    0.9445900000000000 O
