Cd4 H49 C70 N14 O14
1.0
  13.4639993355782384    0.0000000000000000    0.0042298402792170
   0.0093888811094689   14.9489920220146875    0.0122627343091230
   0.0000000000000000    0.0000000000000000   14.9529999999999994
Cd H C N O
4 49 70 14 14
direct
   0.0000600000000000    0.2550000000000000    0.2548600000000000 Cd
   0.7500500000000000    0.7550300000000000    0.2451100000000000 Cd
   0.2500800000000000    0.2451000000000000    0.7551500000000000 Cd
   0.5000300000000000    0.7453900000000000    0.7451000000000000 Cd
   0.4299200000000000    0.9675500000000000    0.6835500000000000 H
   0.2605400000000000    0.0000000000000000    0.5839600000000000 H
   0.2914000000000000    0.7233800000000000    0.6181100000000000 H
   0.2027900000000000    0.9484900000000001    0.4370000000000000 H
   0.0550900000000000    0.9209000000000001    0.3403400000000000 H
   0.9593000000000000    0.7113600000000000    0.5156300000000000 H
   0.1061200000000000    0.7391100000000000    0.6152000000000000 H
   0.5696500000000000    0.6838400000000000    0.9673700000000000 H
   0.7391500000000000    0.5843600000000000    0.0000000000000000 H
   0.7089800000000001    0.6186100000000000    0.7234000000000000 H
   0.7973300000000000    0.4374700000000000    0.9485800000000000 H
   0.9450900000000000    0.3406900000000000    0.9209700000000000 H
   0.0410000000000000    0.5159700000000000    0.7114000000000000 H
   0.8941300000000000    0.6156700000000001    0.7392600000000000 H
   0.9303700000000000    0.0326700000000000    0.3165500000000000 H
   0.7610100000000000    0.9960200000000000    0.4161700000000000 H
   0.7913200000000000    0.2768000000000000    0.3817600000000000 H
   0.7031700000000000    0.0517900000000000    0.5629999999999999 H
   0.5553300000000000    0.0792200000000000    0.6597400000000000 H
   0.4590500000000000    0.2886600000000000    0.4844400000000000 H
   0.6060200000000000    0.2610200000000000    0.3848200000000000 H
   0.0700400000000000    0.3168700000000000    0.0326400000000000 H
   0.2395200000000000    0.4162800000000000    0.9960800000000000 H
   0.2089100000000000    0.3817200000000000    0.2767700000000000 H
   0.2973300000000000    0.5629500000000000    0.0517200000000000 H
   0.4449800000000000    0.6596800000000000    0.0792300000000000 H
   0.5409700000000000    0.4844800000000000    0.2888300000000000 H
   0.3941700000000000    0.3848400000000000    0.2611400000000000 H
   0.8195700000000000    0.5328100000000000    0.1835800000000000 H
   0.9891200000000000    0.4959800000000000    0.0842500000000000 H
   0.9589800000000001    0.7767800000000000    0.1185000000000000 H
   0.0472600000000000    0.5517700000000000    0.9374000000000000 H
   0.1950700000000000    0.5793600000000000    0.8407500000000000 H
   0.2910500000000000    0.7885400000000000    0.0000000000000000 H
   0.1441200000000000    0.7607500000000000    0.1156200000000000 H
   0.1807500000000000    0.1835600000000000    0.5330300000000000 H
   0.0114000000000000    0.0841800000000000    0.4960900000000000 H
   0.0411500000000000    0.1182100000000000    0.7768600000000000 H
   0.9530800000000000    0.9373800000000000    0.5510000000000000 H
   0.8053100000000000    0.8407500000000000    0.5792500000000000 H
   0.7092800000000000    0.0000000000000000    0.7887000000000000 H
   0.8562000000000000    0.1153300000000000    0.7609800000000000 H
   0.3195600000000000    0.4673700000000000    0.8164800000000000 H
   0.4887700000000000    0.5042300000000000    0.9160000000000000 H
   0.4588600000000000    0.2234000000000000    0.8822000000000000 H
   0.5469700000000000    0.4484900000000000    0.0631000000000000 H
   0.6948000000000000    0.4208600000000000    0.1597000000000000 H
   0.7909100000000000    0.2115400000000000    0.9844900000000000 H
   0.6439200000000000    0.2393200000000000    0.8849900000000001 H
   0.3765700000000000    0.9220600000000000    0.6540700000000000 C
   0.2935900000000000    0.9414000000000000    0.6044800000000000 C
   0.3069900000000000    0.7942700000000000    0.6233000000000000 C
   0.1633600000000000    0.8450600000000000    0.5314400000000000 C
   0.1489100000000000    0.8972599999999999    0.4548900000000000 C
   0.0666200000000000    0.8816100000000000    0.4008100000000000 C
   0.9982799999999999    0.8140800000000000    0.4219700000000000 C
   0.0136400000000000    0.7626900000000000    0.4991700000000000 C
   0.0954200000000000    0.7779000000000000    0.5541900000000000 C
   0.9098000000000001    0.7975000000000000    0.3621900000000000 C
   0.6231900000000000    0.6544000000000000    0.9219700000000000 C
   0.7062300000000000    0.6048800000000000    0.9414100000000000 C
   0.6932000000000000    0.6237700000000000    0.7942900000000001 C
   0.8368000000000000    0.5319000000000000    0.8451000000000000 C
   0.8512700000000000    0.4553600000000000    0.8973900000000000 C
   0.9335200000000000    0.4011500000000000    0.8816500000000000 C
   0.0019500000000000    0.4223100000000000    0.8141000000000000 C
   0.9865699999999999    0.4995000000000000    0.7627000000000000 C
   0.9048400000000000    0.5546500000000000    0.7780600000000000 C
   0.0903700000000000    0.3623700000000000    0.7975100000000001 C
   0.8769200000000000    0.0781500000000000    0.3460000000000000 C
   0.7939500000000000    0.0588000000000000    0.3956000000000000 C
   0.8070600000000000    0.2059200000000000    0.3766000000000000 C
   0.6634900000000000    0.1551100000000000    0.4685000000000000 C
   0.6491600000000000    0.1029600000000000    0.5451800000000000 C
   0.5667800000000000    0.1185200000000000    0.5992499999999999 C
   0.4982700000000000    0.1860000000000000    0.5780999999999999 C
   0.5135700000000000    0.2373800000000000    0.5008800000000000 C
   0.5954199999999999    0.2222400000000000    0.4458500000000000 C
   0.4097400000000000    0.2025500000000000    0.6378900000000000 C
   0.1234800000000000    0.3462000000000000    0.0781400000000000 C
   0.2065100000000000    0.3957000000000000    0.0588200000000000 C
   0.1932300000000000    0.3766500000000000    0.2059000000000000 C
   0.3368500000000000    0.4685400000000000    0.1551500000000000 C
   0.3512300000000000    0.5451100000000000    0.1029500000000000 C
   0.4335000000000000    0.5992100000000000    0.1185400000000000 C
   0.5019000000000000    0.5780999999999999    0.1860700000000000 C
   0.4865700000000000    0.5009000000000000    0.2374900000000000 C
   0.4048000000000000    0.4458500000000000    0.2223300000000000 C
   0.5903600000000000    0.6379000000000000    0.2026000000000000 C
   0.8731300000000000    0.5782100000000000    0.1541900000000000 C
   0.9562000000000000    0.5587900000000000    0.1047400000000000 C
   0.9431800000000000    0.7059100000000000    0.1236100000000000 C
   0.0867700000000000    0.6550200000000000    0.0318400000000000 C
   0.1012100000000000    0.6029000000000000    0.9553199999999999 C
   0.1835100000000000    0.6186000000000000    0.9012000000000000 C
   0.2519700000000000    0.6860100000000000    0.9223500000000000 C
   0.2365900000000000    0.7373200000000000    0.9995300000000000 C
   0.1548100000000000    0.7220500000000000    0.0546100000000000 C
   0.3404100000000000    0.7026100000000000    0.8624500000000000 C
   0.1271700000000000    0.1541100000000000    0.5783800000000000 C
   0.0442000000000000    0.1046400000000000    0.5589100000000000 C
   0.0570300000000000    0.1234200000000000    0.7060200000000000 C
   0.9135799999999999    0.0316800000000000    0.6550900000000000 C
   0.8991400000000001    0.9552400000000000    0.6028900000000000 C
   0.8168400000000000    0.9011500000000000    0.6185700000000000 C
   0.7483400000000000    0.9222700000000000    0.6860200000000000 C
   0.7637400000000000    0.9993700000000000    0.7374000000000001 C
   0.8455200000000000    0.0543800000000000    0.7221900000000000 C
   0.6598100000000000    0.8624900000000000    0.7025500000000000 C
   0.3730500000000000    0.4219500000000000    0.8460400000000000 C
   0.4559400000000000    0.4414100000000000    0.8956300000000000 C
   0.4430300000000000    0.2942700000000000    0.8769500000000000 C
   0.5865200000000000    0.3451600000000000    0.9687000000000000 C
   0.6009400000000000    0.3973000000000000    0.0452200000000000 C
   0.6832900000000000    0.3816200000000000    0.0992600000000000 C
   0.7517700000000000    0.3141300000000000    0.0781000000000000 C
   0.7364200000000000    0.2628200000000000    0.0009500000000000 C
   0.6545900000000000    0.2780700000000000    0.9459600000000000 C
   0.8403200000000000    0.2975200000000000    0.1378200000000000 C
   0.3842000000000000    0.8303100000000000    0.6648700000000000 N
   0.2492600000000000    0.8595100000000000    0.5852500000000000 N
   0.6157899999999999    0.6652300000000000    0.8302400000000000 N
   0.7508100000000000    0.5857100000000000    0.8595800000000000 N
   0.8843900000000000    0.1698900000000000    0.3351100000000000 N
   0.7494400000000000    0.1406800000000000    0.4147600000000000 N
   0.1159100000000000    0.3352600000000000    0.1698500000000000 N
   0.2509400000000000    0.4147500000000000    0.1407000000000000 N
   0.8657500000000000    0.6699500000000000    0.1650200000000000 N
   0.0000000000000000    0.6406100000000000    0.0856100000000000 N
   0.1344400000000000    0.1648800000000000    0.6701100000000000 N
   0.9995200000000000    0.0854400000000000    0.6407000000000000 N
   0.3657100000000000    0.3302100000000000    0.8353300000000000 N
   0.5005400000000000    0.3595700000000000    0.9149000000000000 N
   0.8997500000000000    0.8473900000000000    0.2938200000000000 O
   0.8503100000000000    0.7344500000000000    0.3829000000000000 O
   0.1003600000000000    0.2940000000000000    0.8474200000000000 O
   0.1498400000000000    0.3829400000000000    0.7343800000000000 O
   0.3997200000000000    0.1526600000000000    0.7062700000000000 O
   0.3501800000000000    0.2656000000000000    0.6171700000000000 O
   0.6003400000000000    0.7062800000000000    0.1527100000000000 O
   0.6499000000000000    0.6171700000000000    0.2656200000000000 O
   0.3504500000000000    0.6526800000000000    0.7941900000000000 O
   0.3998400000000000    0.7657300000000000    0.8829399999999999 O
   0.6497500000000000    0.7942900000000001    0.6525700000000000 O
   0.6002900000000000    0.8830400000000000    0.7655999999999999 O
   0.8503900000000000    0.3473900000000000    0.2061100000000000 O
   0.8998600000000000    0.2344700000000000    0.1171300000000000 O
