H2 C7 N1 O4
1.0
  15.0959999977007477    0.0000000000000000   -0.0002634749038694
  -0.0004270503849027   14.1697355065733799   -8.1311846917519723
   0.0000000000000000    0.0000000000000000   16.3369999999999997
H C N O
2 7 1 4
direct
   0.8208100000000000    0.7276000000000000    0.1454900000000000 H
   0.8206300000000000    0.5805800000000000    0.8531900000000000 H
   0.8537400000000001    0.6764900000000000    0.0804000000000000 C
   0.9323399999999999    0.6328900000000000    0.0845600000000000 C
   0.9724400000000000    0.6505000000000000    0.1747900000000000 C
   0.8536500000000000    0.5950700000000000    0.9184800000000000 C
   0.9322900000000000    0.5476100000000000    0.9148500000000001 C
   0.9723900000000000    0.4748100000000000    0.8249300000000001 C
   0.9725700000000000    0.5680200000000000    0.9998300000000000 C
   0.8149100000000000    0.6590600000000000    0.9993100000000000 N
  -0.0672100000000000    0.7016300000000000    0.2548300000000000 O
   0.0475400000000000    0.6148300000000000    0.1731000000000000 O
  -0.0672100000000000    0.4456300000000000    0.7447500000000000 O
   0.0475100000000000    0.4409700000000000    0.8268900000000000 O
