H6 O4
1.0
  15.0959999977007477    0.0000000000000000   -0.0002634749038694
  -0.0004270503849027   14.1697355065733799   -8.1311846917519723
   0.0000000000000000    0.0000000000000000   16.3369999999999997
H O
6 4
direct
   0.2545086900978058    0.4776931602996705    0.6550172995566629 H
   0.3418634341602426    0.4603299860647898    0.5852427975803581 H
   0.1369542033576904    0.4857232887948763    0.7452170936388609 H
   0.2545053204272217    0.6550216878591927    0.4776940102306777 H
   0.3418504005549035    0.5852399035317774    0.4603201041614963 H
   0.1369619046734286    0.7452312166160411    0.4857343841538401 H
   0.2969300000000000    0.4405400000000000    0.6142100000000000 O
   0.1823900000000000    0.4459300000000000    0.7015100000000000 O
   0.2969200000000000    0.6142100000000000    0.4405300000000000 O
   0.1823900000000000    0.7015200000000000    0.4459300000000000 O
