H4 C8 O4
1.0
  15.9817740090690084    0.0000000000000000    9.1565528733823367
   5.3125227970883175   15.0833955978640120    9.1514427151544524
   0.0000000000000000    0.0000000000000000   36.8500000000000014
H C O
4 8 4
direct
   0.0482300000000000    0.3357200000000000    0.7840199999999999 H
   0.0482300000000000    0.5680400000000000    0.6678550000000000 H
   0.9517600000000001    0.4319500000000000    0.8321350000000001 H
   0.9517600000000001    0.6642700000000000    0.7159700000000000 H
   0.0267300000000000    0.4076900000000000    0.7695100000000000 C
   0.0267300000000000    0.5390200000000001    0.7038400000000000 C
   0.9732600000000000    0.4609800000000000    0.7961500000000000 C
   0.9732600000000000    0.5923100000000000    0.7304850000000001 C
   0.1112500000000000    0.3890600000000000    0.6945300000000000 C
   0.0537800000000000    0.4463800000000000    0.7231850000000000 C
   0.8887400000000000    0.6109300000000000    0.8054500000000000 C
   0.9462100000000000    0.5536200000000000    0.7768050000000000 C
   0.1334400000000000    0.3053200000000000    0.7142999999999999 O
   0.1334400000000000    0.4286100000000000    0.6526550000000000 O
   0.8665500000000000    0.5713800000000000    0.8473349999999999 O
   0.8665500000000000    0.6946700000000000    0.7856900000000000 O
