H6 O4
1.0
  15.9817740090690084    0.0000000000000000    9.1565528733823367
   5.3125227970883175   15.0833955978640120    9.1514427151544524
   0.0000000000000000    0.0000000000000000   36.8500000000000014
H O
6 4
direct
   0.8864160976716398    0.7190803324923964    0.7535773935617620 H
   0.8864152821204713    0.5071560682864105    0.8595403429131334 H
   0.8941828612365171    0.6053336904352671    0.8026677879326047 H
   0.1135721665297669    0.2809116799211667    0.7464126618368949 H
   0.1135725487272416    0.4928340881713607    0.6404510747319868 H
   0.1058037088036049    0.3946578611156016    0.6973239305578007 H
   0.8665500000000000    0.6946700000000000    0.7856900000000000 O
   0.8665500000000000    0.5713800000000000    0.8473349999999999 O
   0.1334400000000000    0.3053200000000000    0.7142999999999999 O
   0.1334400000000000    0.4286100000000000    0.6526550000000000 O
