Zn16 H44 C88 O48
1.0
  15.9817740090690084    0.0000000000000000    9.1565528733823367
   5.3125227970883175   15.0833955978640120    9.1514427151544524
   0.0000000000000000    0.0000000000000000   36.8500000000000014
Zn H C O
16 44 88 48
direct
   0.3804600000000000    0.2067400000000000    0.1033700000000000 Zn
   0.2061500000000000    0.2063500000000000    0.1031700000000000 Zn
   0.2067200000000000    0.2067000000000000    0.1901800000000000 Zn
   0.6195200000000000    0.7932500000000000    0.3966200000000000 Zn
   0.7932700000000000    0.6196300000000000    0.3966450000000000 Zn
   0.7938400000000000    0.7936400000000000    0.3968200000000000 Zn
   0.7932700000000000    0.7932900000000001    0.3098100000000000 Zn
   0.2067200000000000    0.3803700000000000    0.1033450000000000 Zn
   0.3804600000000000    0.2067400000000000    0.6033700000000000 Zn
   0.2061500000000000    0.2063500000000000    0.6031700000000000 Zn
   0.2067200000000000    0.2067000000000000    0.6901800000000000 Zn
   0.6195200000000000    0.7932500000000000    0.8966200000000000 Zn
   0.7932700000000000    0.6196300000000000    0.8966450000000000 Zn
   0.7938400000000000    0.7936400000000000    0.8968200000000000 Zn
   0.7932700000000000    0.7932900000000001    0.8098099999999999 Zn
   0.2067200000000000    0.3803700000000000    0.6033450000000000 Zn
   0.0485900000000000    0.5678100000000000    0.0243050000000000 H
   0.5682100000000000    0.0481800000000000    0.1678550000000000 H
   0.0475400000000000    0.3357500000000000    0.0237950000000000 H
   0.3356100000000000    0.0482800000000000    0.2840250000000000 H
   0.0475500000000000    0.0476000000000000    0.1678650000000000 H
   0.5682100000000000    0.3357300000000000    0.0240850000000000 H
   0.0486000000000000    0.0486100000000000    0.2839000000000000 H
   0.3356100000000000    0.5680500000000001    0.0241450000000000 H
   0.0482300000000000    0.3357200000000000    0.2840200000000000 H
   0.5679100000000000    0.0485500000000000    0.0242750000000000 H
   0.0482300000000000    0.5680400000000000    0.1678550000000000 H
   0.3356400000000000    0.0476500000000000    0.0238200000000000 H
   0.4320700000000000    0.9514400000000000    0.4757200000000000 H
   0.9517600000000001    0.4319500000000000    0.3321350000000000 H
   0.6643400000000000    0.9523500000000000    0.4761700000000000 H
   0.9517600000000001    0.6642700000000000    0.2159700000000000 H
   0.9524400000000000    0.9524000000000000    0.3321250000000000 H
   0.6643700000000000    0.4319400000000000    0.4758450000000000 H
   0.9513900000000000    0.9513900000000000    0.2160900000000000 H
   0.4317800000000000    0.6642700000000000    0.4759050000000000 H
   0.6643800000000000    0.9517200000000000    0.2159650000000000 H
   0.9513900000000000    0.4321800000000000    0.4756500000000000 H
   0.4317700000000000    0.9518200000000000    0.3321350000000000 H
   0.9524400000000000    0.6642500000000000    0.4762000000000000 H
   0.0485900000000000    0.5678100000000000    0.5243050000000000 H
   0.5682100000000000    0.0481800000000000    0.6678550000000000 H
   0.0475400000000000    0.3357500000000000    0.5237950000000000 H
   0.3356100000000000    0.0482800000000000    0.7840250000000000 H
   0.0475500000000000    0.0476000000000000    0.6678649999999999 H
   0.5682100000000000    0.3357300000000000    0.5240850000000000 H
   0.0486000000000000    0.0486100000000000    0.7839000000000000 H
   0.3356100000000000    0.5680500000000001    0.5241450000000000 H
   0.5679100000000000    0.0485500000000000    0.5242750000000000 H
   0.3356400000000000    0.0476500000000000    0.5238200000000000 H
   0.4320700000000000    0.9514400000000000    0.9757199999999999 H
   0.6643400000000000    0.9523500000000000    0.9761700000000000 H
   0.9524400000000000    0.9524000000000000    0.8321250000000000 H
   0.6643700000000000    0.4319400000000000    0.9758450000000001 H
   0.9513900000000000    0.9513900000000000    0.7160900000000000 H
   0.4317800000000000    0.6642700000000000    0.9759050000000000 H
   0.6643800000000000    0.9517200000000000    0.7159650000000000 H
   0.9513900000000000    0.4321800000000000    0.9756500000000000 H
   0.4317700000000000    0.9518200000000000    0.8321350000000001 H
   0.9524400000000000    0.6642500000000000    0.9762000000000000 H
   0.0269200000000000    0.5388700000000000    0.0134650000000000 C
   0.5391100000000000    0.0266900000000000    0.2038400000000000 C
   0.0263300000000000    0.4077000000000000    0.0131800000000000 C
   0.4076200000000000    0.0267500000000000    0.2695100000000000 C
   0.0263300000000000    0.0263700000000000    0.2038450000000000 C
   0.5391100000000000    0.4076900000000000    0.0133500000000000 C
   0.0269200000000000    0.0269300000000000    0.2694300000000000 C
   0.4076300000000000    0.5390200000000001    0.0133800000000000 C
   0.0267300000000000    0.4076900000000000    0.2695100000000000 C
   0.5389200000000000    0.0269000000000000    0.0134500000000000 C
   0.0267300000000000    0.5390200000000001    0.2038400000000000 C
   0.4076400000000000    0.0263900000000000    0.0131950000000000 C
   0.4610700000000000    0.9731000000000000    0.4865450000000000 C
   0.9732600000000000    0.4609800000000000    0.2961500000000000 C
   0.5923500000000000    0.9736000000000000    0.4867950000000000 C
   0.9732600000000000    0.5923100000000000    0.2304850000000000 C
   0.9736600000000000    0.9736300000000000    0.2961450000000000 C
   0.5923600000000000    0.4609700000000000    0.4866150000000000 C
   0.9730700000000000    0.9730700000000000    0.2305600000000000 C
   0.4608800000000000    0.5923100000000000    0.4866450000000000 C
   0.5923600000000000    0.9732400000000000    0.2304500000000000 C
   0.9730700000000000    0.4611300000000000    0.4865250000000000 C
   0.4608800000000000    0.9733000000000001    0.2961500000000000 C
   0.9736600000000000    0.5923000000000000    0.4868100000000000 C
   0.1109100000000000    0.3888300000000000    0.0554950000000000 C
   0.0536100000000000    0.4462300000000000    0.0268000000000000 C
   0.3891100000000000    0.1112700000000000    0.1945350000000000 C
   0.4464000000000000    0.0538100000000000    0.2231850000000000 C
   0.1109100000000000    0.1110000000000000    0.1944100000000000 C
   0.0536000000000000    0.0536500000000000    0.2231100000000000 C
   0.3891100000000000    0.3890700000000000    0.0556350000000000 C
   0.4464000000000000    0.4463800000000000    0.0268900000000000 C
   0.1112500000000000    0.3890600000000000    0.1945300000000000 C
   0.0537800000000000    0.4463800000000000    0.2231850000000000 C
   0.3888100000000000    0.1109900000000000    0.0554950000000000 C
   0.4462200000000000    0.0536500000000000    0.0268200000000000 C
   0.6111799999999999    0.8890000000000000    0.4444950000000000 C
   0.5537700000000000    0.9463400000000000    0.4731700000000000 C
   0.8887400000000000    0.6109300000000000    0.3054500000000000 C
   0.9462100000000000    0.5536200000000000    0.2768050000000000 C
   0.8890800000000000    0.8890000000000000    0.3055800000000000 C
   0.9463800000000000    0.9463400000000000    0.2768850000000000 C
   0.6108800000000000    0.6109200000000000    0.4443550000000000 C
   0.5535800000000000    0.5536200000000000    0.4731000000000000 C
   0.6108800000000000    0.8887200000000000    0.3054500000000000 C
   0.5535900000000000    0.9462000000000000    0.2768050000000000 C
   0.8890800000000000    0.6111700000000000    0.4444950000000000 C
   0.9463700000000000    0.5537700000000000    0.4731700000000000 C
   0.0269200000000000    0.5388700000000000    0.5134649999999999 C
   0.5391100000000000    0.0266900000000000    0.7038400000000000 C
   0.0263300000000000    0.4077000000000000    0.5131800000000000 C
   0.4076200000000000    0.0267500000000000    0.7695100000000000 C
   0.0263300000000000    0.0263700000000000    0.7038450000000001 C
   0.5391100000000000    0.4076900000000000    0.5133500000000000 C
   0.0269200000000000    0.0269300000000000    0.7694300000000001 C
   0.4076300000000000    0.5390200000000001    0.5133799999999999 C
   0.5389200000000000    0.0269000000000000    0.5134500000000000 C
   0.4076400000000000    0.0263900000000000    0.5131950000000000 C
   0.4610700000000000    0.9731000000000000    0.9865450000000000 C
   0.5923500000000000    0.9736000000000000    0.9867950000000000 C
   0.9736600000000000    0.9736300000000000    0.7961450000000000 C
   0.5923600000000000    0.4609700000000000    0.9866150000000000 C
   0.9730700000000000    0.9730700000000000    0.7305600000000000 C
   0.4608800000000000    0.5923100000000000    0.9866450000000000 C
   0.5923600000000000    0.9732400000000000    0.7304500000000000 C
   0.9730700000000000    0.4611300000000000    0.9865250000000000 C
   0.4608800000000000    0.9733000000000001    0.7961500000000000 C
   0.9736600000000000    0.5923000000000000    0.9868100000000000 C
   0.1109100000000000    0.3888300000000000    0.5554950000000000 C
   0.0536100000000000    0.4462300000000000    0.5268000000000000 C
   0.3891100000000000    0.1112700000000000    0.6945350000000000 C
   0.4464000000000000    0.0538100000000000    0.7231850000000000 C
   0.1109100000000000    0.1110000000000000    0.6944100000000000 C
   0.0536000000000000    0.0536500000000000    0.7231100000000000 C
   0.3891100000000000    0.3890700000000000    0.5556350000000000 C
   0.4464000000000000    0.4463800000000000    0.5268900000000000 C
   0.3888100000000000    0.1109900000000000    0.5554950000000000 C
   0.4462200000000000    0.0536500000000000    0.5268200000000000 C
   0.6111799999999999    0.8890000000000000    0.9444950000000000 C
   0.5537700000000000    0.9463400000000000    0.9731700000000000 C
   0.8890800000000000    0.8890000000000000    0.8055800000000000 C
   0.9463800000000000    0.9463400000000000    0.7768850000000000 C
   0.6108800000000000    0.6109200000000000    0.9443550000000001 C
   0.5535800000000000    0.5536200000000000    0.9731000000000001 C
   0.6108800000000000    0.8887200000000000    0.8054500000000000 C
   0.5535900000000000    0.9462000000000000    0.7768050000000000 C
   0.8890800000000000    0.6111700000000000    0.9444950000000000 C
   0.9463700000000000    0.5537700000000000    0.9731700000000000 C
   0.1332600000000000    0.4284000000000000    0.0666000000000000 O
   0.4287100000000000    0.1335500000000000    0.1526600000000000 O
   0.1327300000000000    0.3050700000000000    0.0664950000000000 O
   0.3053000000000000    0.1333900000000000    0.2143150000000000 O
   0.1327200000000000    0.1330000000000000    0.1525000000000000 O
   0.4287100000000000    0.3053300000000000    0.0667500000000000 O
   0.1332600000000000    0.1332100000000000    0.2141950000000000 O
   0.3053000000000000    0.4286400000000000    0.0666950000000000 O
   0.1334400000000000    0.3053200000000000    0.2143000000000000 O
   0.4284200000000000    0.1332600000000000    0.0666250000000000 O
   0.1334400000000000    0.4286100000000000    0.1526550000000000 O
   0.3049900000000000    0.1329400000000000    0.0664650000000000 O
   0.5715700000000000    0.8667400000000000    0.4333650000000000 O
   0.8665500000000000    0.5713800000000000    0.3473350000000000 O
   0.6950000000000000    0.8670600000000001    0.4335300000000000 O
   0.8665500000000000    0.6946700000000000    0.2856900000000000 O
   0.8672600000000000    0.8669900000000000    0.3474650000000000 O
   0.6946800000000000    0.5713600000000000    0.4330000000000000 O
   0.8667300000000000    0.8667899999999999    0.2857950000000000 O
   0.5712800000000000    0.6946700000000000    0.4332250000000000 O
   0.6946800000000000    0.8666100000000000    0.2856750000000000 O
   0.8667300000000000    0.5715900000000000    0.4333900000000000 O
   0.5712800000000000    0.8664500000000001    0.3473350000000000 O
   0.8672600000000000    0.6949300000000000    0.4334950000000000 O
   0.2499700000000000    0.2499700000000000    0.1249800000000000 O
   0.7500200000000000    0.7500300000000000    0.3750100000000000 O
   0.1332600000000000    0.4284000000000000    0.5666000000000000 O
   0.4287100000000000    0.1335500000000000    0.6526600000000000 O
   0.1327300000000000    0.3050700000000000    0.5664950000000000 O
   0.3053000000000000    0.1333900000000000    0.7143150000000000 O
   0.1327200000000000    0.1330000000000000    0.6525000000000000 O
   0.4287100000000000    0.3053300000000000    0.5667500000000000 O
   0.1332600000000000    0.1332100000000000    0.7141950000000000 O
   0.3053000000000000    0.4286400000000000    0.5666949999999999 O
   0.4284200000000000    0.1332600000000000    0.5666250000000000 O
   0.3049900000000000    0.1329400000000000    0.5664650000000000 O
   0.5715700000000000    0.8667400000000000    0.9333650000000000 O
   0.6950000000000000    0.8670600000000001    0.9335300000000000 O
   0.8672600000000000    0.8669900000000000    0.8474650000000000 O
   0.6946800000000000    0.5713600000000000    0.9330000000000001 O
   0.8667300000000000    0.8667899999999999    0.7857950000000000 O
   0.5712800000000000    0.6946700000000000    0.9332250000000000 O
   0.6946800000000000    0.8666100000000000    0.7856750000000000 O
   0.8667300000000000    0.5715900000000000    0.9333899999999999 O
   0.5712800000000000    0.8664500000000001    0.8473349999999999 O
   0.8672600000000000    0.6949300000000000    0.9334950000000000 O
   0.2499700000000000    0.2499700000000000    0.6249800000000000 O
   0.7500200000000000    0.7500300000000000    0.8750100000000001 O
