H4 C4 N2
1.0
  27.9547235414078159    0.0000000000000000   -9.8279629488241227
  -6.9389354307086180   12.1336189574789852   -4.9313436387219136
   0.0000000000000000    0.0000000000000000   29.6179999999999986
H C N
4 4 2
direct
   0.7379350000000000    0.1228500000000000    0.4443050000000000 H
   0.8180450000000000    0.4791500000000000    0.4588400000000000 H
   0.8832050000000000    0.5267500000000001    0.5147000000000000 H
   0.8341750000000000    0.5545400000000000    0.5283400000000000 H
   0.7666900000000000    0.2098200000000000    0.4727050000000000 C
   0.7967700000000000    0.2696200000000000    0.5289850000000000 C
   0.8388400000000000    0.4920500000000000    0.5005350000000000 C
   0.8150999999999999    0.3864700000000000    0.5006500000000000 C
   0.7790900000000001    0.2862000000000000    0.4548500000000000 N
   0.8268750000000000    0.3786700000000000    0.5474200000000000 N
