H1 O1
1.0
  27.9547235414078159    0.0000000000000000   -9.8279629488241227
  -6.9389354307086180   12.1336189574789852   -4.9313436387219136
   0.0000000000000000    0.0000000000000000   29.6179999999999986
H O
1 1
direct
   0.1785201386118157    0.6111365229559348    0.4870077578720504 H
   0.1421950000000000    0.5598200000000000    0.4540000000000000 O
