H4 C4 O6
1.0
  37.0092362941216351    0.0000000000000000   -3.4208650844295958
  -0.9347885075460047   37.5493835288874038   -9.9731576392173444
   0.0000000000000000    0.0000000000000000   26.7020000000000017
H C O
4 4 6
direct
   0.1657766666666667    0.8876780000000001    0.5873600000000000 H
   0.2183150000000000    0.9629480000000000    0.5511000000000000 H
   0.1697400000000000    0.9593820000000001    0.6038850000000000 H
   0.2483866666666666    0.8990400000000001    0.5553200000000000 H
   0.1559600000000000    0.9214900000000000    0.5302550000000000 C
   0.2435866666666666    0.9498060000000000    0.6196699999999999 C
   0.2188683333333333    0.9403260000000000    0.5689200000000000 C
   0.1797666666666667    0.9337820000000001    0.5816550000000000 C
   0.1513350000000000    0.9438820000000001    0.5022250000000000 O
   0.1429733333333333    0.8901800000000001    0.5184850000000000 O
   0.2416933333333333    0.9812360000000000    0.6501700000000000 O
   0.2639466666666667    0.9257100000000000    0.6285700000000000 O
   0.2313016666666667    0.9097920000000000    0.5337350000000000 O
   0.1791616666666667    0.9082000000000001    0.6110050000000000 O
