H2 O2
1.0
  37.0092362941216351    0.0000000000000000   -3.4208650844295958
  -0.9347885075460047   37.5493835288874038   -9.9731576392173444
   0.0000000000000000    0.0000000000000000   26.7020000000000017
H O
2 2
direct
   0.2431312540769095    0.9573660093465148    0.6270063119652783 H
   0.1548501631876622    0.9268632899247281    0.5235287890054428 H
   0.2416933333333333    0.9812360000000000    0.6501700000000000 O
   0.1513350000000000    0.9438820000000001    0.5022250000000000 O
