La120 H718 C716 O1076
1.0
  37.0092362941216351    0.0000000000000000   -3.4208650844295958
  -0.9347885075460047   37.5493835288874038   -9.9731576392173444
   0.0000000000000000    0.0000000000000000   26.7020000000000017
La H C O
120 718 716 1076
direct
   0.1328133333333333    0.9387860000000001    0.9127900000000000 La
   0.1328133333333333    0.5387860000000000    0.9127900000000000 La
   0.4661466666666667    0.9387860000000001    0.9127900000000000 La
   0.7994800000000000    0.9387860000000001    0.9127900000000000 La
   0.1328133333333333    0.1387860000000000    0.9127900000000000 La
   0.4661466666666667    0.1387860000000000    0.9127900000000000 La
   0.7994800000000000    0.1387860000000000    0.9127900000000000 La
   0.1328133333333333    0.3387860000000000    0.9127900000000000 La
   0.4661466666666667    0.3387860000000000    0.9127900000000000 La
   0.7994800000000000    0.3387860000000000    0.9127900000000000 La
   0.4661466666666667    0.5387860000000000    0.9127900000000000 La
   0.7994800000000000    0.5387860000000000    0.9127900000000000 La
   0.1328133333333333    0.7387860000000002    0.9127900000000000 La
   0.4661466666666667    0.7387860000000002    0.9127900000000000 La
   0.7994800000000000    0.7387860000000002    0.9127900000000000 La
   0.2994800000000000    0.1387860000000000    0.4127900000000000 La
   0.2994800000000000    0.5387860000000000    0.4127900000000000 La
   0.6328133333333333    0.5387860000000000    0.4127900000000000 La
   0.9661466666666666    0.5387860000000000    0.4127900000000000 La
   0.6328133333333333    0.1387860000000000    0.4127900000000000 La
   0.9661466666666666    0.1387860000000000    0.4127900000000000 La
   0.2994800000000000    0.3387860000000000    0.4127900000000000 La
   0.2994800000000000    0.9387860000000001    0.4127900000000000 La
   0.2994800000000000    0.7387860000000002    0.4127900000000000 La
   0.6328133333333333    0.9387860000000001    0.4127900000000000 La
   0.9661466666666666    0.9387860000000001    0.4127900000000000 La
   0.6328133333333333    0.3387860000000000    0.4127900000000000 La
   0.9661466666666666    0.3387860000000000    0.4127900000000000 La
   0.6328133333333333    0.7387860000000002    0.4127900000000000 La
   0.9661466666666666    0.7387860000000002    0.4127900000000000 La
   0.5981716666666667    0.4082540000000000    0.2384300000000000 La
   0.5981716666666667    0.2082540000000000    0.2384300000000000 La
   0.2648383333333333    0.6082540000000001    0.2384300000000000 La
   0.2648383333333333    0.4082540000000000    0.2384300000000000 La
   0.5981716666666667    0.6082540000000001    0.2384300000000000 La
   0.7648383333333333    0.4082540000000000    0.7384300000000000 La
   0.7648383333333333    0.6082540000000001    0.7384300000000000 La
   0.2648383333333333    0.2082540000000000    0.2384300000000000 La
   0.2648383333333333    0.8082540000000000    0.2384300000000000 La
   0.7648383333333333    0.2082540000000000    0.7384300000000000 La
   0.2648383333333333    0.0082540000000000    0.2384300000000000 La
   0.4315050000000000    0.8082540000000000    0.7384300000000000 La
   0.5981716666666667    0.0082540000000000    0.2384300000000000 La
   0.5981716666666667    0.8082540000000000    0.2384300000000000 La
   0.0981716666666667    0.4082540000000000    0.7384300000000000 La
   0.0981716666666667    0.6082540000000001    0.7384300000000000 La
   0.4315050000000000    0.6082540000000001    0.7384300000000000 La
   0.0981716666666667    0.8082540000000000    0.7384300000000000 La
   0.4315050000000000    0.4082540000000000    0.7384300000000000 La
   0.7648383333333333    0.8082540000000000    0.7384300000000000 La
   0.9315049999999999    0.4082540000000000    0.2384300000000000 La
   0.9315049999999999    0.6082540000000001    0.2384300000000000 La
   0.9315049999999999    0.0082540000000000    0.2384300000000000 La
   0.9315049999999999    0.2082540000000000    0.2384300000000000 La
   0.9315049999999999    0.8082540000000000    0.2384300000000000 La
   0.4315050000000000    0.0082540000000000    0.7384300000000000 La
   0.0981716666666667    0.0082540000000000    0.7384300000000000 La
   0.7648383333333333    0.0082540000000000    0.7384300000000000 La
   0.0981716666666667    0.2082540000000000    0.7384300000000000 La
   0.4315050000000000    0.2082540000000000    0.7384300000000000 La
   0.9661466666666666    0.3387860000000000    0.9127900000000000 La
   0.2994800000000000    0.5387860000000000    0.9127900000000000 La
   0.2994800000000000    0.9387860000000001    0.9127900000000000 La
   0.2994800000000000    0.3387860000000000    0.9127900000000000 La
   0.2994800000000000    0.7387860000000002    0.9127900000000000 La
   0.6328133333333333    0.9387860000000001    0.9127900000000000 La
   0.9661466666666666    0.9387860000000001    0.9127900000000000 La
   0.9661466666666666    0.1387860000000000    0.9127900000000000 La
   0.6328133333333333    0.3387860000000000    0.9127900000000000 La
   0.6328133333333333    0.5387860000000000    0.9127900000000000 La
   0.9661466666666666    0.5387860000000000    0.9127900000000000 La
   0.6328133333333333    0.7387860000000002    0.9127900000000000 La
   0.9661466666666666    0.7387860000000002    0.9127900000000000 La
   0.1328133333333333    0.5387860000000000    0.4127900000000000 La
   0.4661466666666667    0.5387860000000000    0.4127900000000000 La
   0.7994800000000000    0.5387860000000000    0.4127900000000000 La
   0.7994800000000000    0.1387860000000000    0.4127900000000000 La
   0.1328133333333333    0.9387860000000001    0.4127900000000000 La
   0.2994800000000000    0.1387860000000000    0.9127900000000000 La
   0.1328133333333333    0.1387860000000000    0.4127900000000000 La
   0.1328133333333333    0.3387860000000000    0.4127900000000000 La
   0.1328133333333333    0.7387860000000002    0.4127900000000000 La
   0.4661466666666667    0.9387860000000001    0.4127900000000000 La
   0.7994800000000000    0.9387860000000001    0.4127900000000000 La
   0.4661466666666667    0.1387860000000000    0.4127900000000000 La
   0.4661466666666667    0.3387860000000000    0.4127900000000000 La
   0.7994800000000000    0.3387860000000000    0.4127900000000000 La
   0.4661466666666667    0.7387860000000002    0.4127900000000000 La
   0.7994800000000000    0.7387860000000002    0.4127900000000000 La
   0.6328133333333333    0.1387860000000000    0.9127900000000000 La
   0.7648383333333333    0.2082540000000000    0.2384300000000000 La
   0.7648383333333333    0.4082540000000000    0.2384300000000000 La
   0.7648383333333333    0.6082540000000001    0.2384300000000000 La
   0.5981716666666667    0.4082540000000000    0.7384300000000000 La
   0.2648383333333333    0.6082540000000001    0.7384300000000000 La
   0.5981716666666667    0.6082540000000001    0.7384300000000000 La
   0.2648383333333333    0.8082540000000000    0.7384300000000000 La
   0.2648383333333333    0.4082540000000000    0.7384300000000000 La
   0.4315050000000000    0.6082540000000001    0.2384300000000000 La
   0.5981716666666667    0.2082540000000000    0.7384300000000000 La
   0.4315050000000000    0.4082540000000000    0.2384300000000000 La
   0.4315050000000000    0.8082540000000000    0.2384300000000000 La
   0.2648383333333333    0.0082540000000000    0.7384300000000000 La
   0.0981716666666667    0.4082540000000000    0.2384300000000000 La
   0.0981716666666667    0.6082540000000001    0.2384300000000000 La
   0.4315050000000000    0.2082540000000000    0.2384300000000000 La
   0.0981716666666667    0.8082540000000000    0.2384300000000000 La
   0.7648383333333333    0.8082540000000000    0.2384300000000000 La
   0.5981716666666667    0.8082540000000000    0.7384300000000000 La
   0.4315050000000000    0.0082540000000000    0.2384300000000000 La
   0.0981716666666667    0.2082540000000000    0.2384300000000000 La
   0.2648383333333333    0.2082540000000000    0.7384300000000000 La
   0.0981716666666667    0.0082540000000000    0.2384300000000000 La
   0.7648383333333333    0.0082540000000000    0.2384300000000000 La
   0.5981716666666667    0.0082540000000000    0.7384300000000000 La
   0.9315049999999999    0.4082540000000000    0.7384300000000000 La
   0.9315049999999999    0.6082540000000001    0.7384300000000000 La
   0.9315049999999999    0.0082540000000000    0.7384300000000000 La
   0.9315049999999999    0.2082540000000000    0.7384300000000000 La
   0.9315049999999999    0.8082540000000000    0.7384300000000000 La
   0.9553216666666666    0.4810200000000000    0.4629450000000000 H
   0.8990966666666665    0.4597260000000000    0.4477800000000000 H
   0.9197866666666665    0.4705960000000000    0.3236550000000000 H
   0.8768466666666666    0.4243100000000000    0.3640600000000000 H
   0.9991099999999999    0.4876780000000001    0.5873600000000000 H
   0.0030733333333333    0.5593820000000000    0.6038850000000000 H
   0.1450333333333333    0.5712360000000001    0.8277500000000000 H
   0.1878300000000000    0.5108600000000001    0.7869400000000000 H
   0.0817200000000000    0.4990400000000000    0.5553200000000000 H
   0.0516483333333333    0.5629480000000000    0.5511000000000000 H
   0.1123766666666667    0.5343680000000001    0.6853400000000001 H
   0.1666150000000000    0.5176120000000001    0.7034850000000000 H
   0.2886550000000000    0.4810200000000000    0.4629450000000000 H
   0.2324300000000000    0.4597260000000000    0.4477800000000000 H
   0.2531200000000000    0.4705960000000000    0.3236550000000000 H
   0.2101800000000000    0.4243100000000000    0.3640600000000000 H
   0.3324433333333333    0.4876780000000001    0.5873600000000000 H
   0.3364066666666666    0.5593820000000000    0.6038850000000000 H
   0.4783666666666666    0.5712360000000001    0.8277500000000000 H
   0.5211633333333333    0.5108600000000001    0.7869400000000000 H
   0.4150533333333333    0.4990400000000000    0.5553200000000000 H
   0.3849816666666667    0.5629480000000000    0.5511000000000000 H
   0.4457099999999999    0.5343680000000001    0.6853400000000001 H
   0.4999483333333333    0.5176120000000001    0.7034850000000000 H
   0.1219883333333333    0.4810200000000000    0.9629449999999999 H
   0.0657633333333333    0.4597260000000000    0.9477800000000001 H
   0.0864533333333333    0.4705960000000000    0.8236550000000000 H
   0.0435133333333333    0.4243100000000000    0.8640600000000001 H
   0.1657766666666667    0.4876780000000001    0.0873600000000000 H
   0.1697400000000000    0.5593820000000000    0.1038850000000000 H
   0.3117000000000000    0.5712360000000001    0.3277500000000000 H
   0.3544966666666666    0.5108600000000001    0.2869400000000000 H
   0.2483866666666666    0.4990400000000000    0.0553200000000000 H
   0.2183150000000000    0.5629480000000000    0.0511000000000000 H
   0.2790433333333333    0.5343680000000001    0.1853400000000000 H
   0.3332816666666666    0.5176120000000001    0.2034850000000000 H
   0.4553216666666666    0.4810200000000000    0.9629449999999999 H
   0.3990966666666667    0.4597260000000000    0.9477800000000001 H
   0.4197866666666666    0.4705960000000000    0.8236550000000000 H
   0.3768466666666667    0.4243100000000000    0.8640600000000001 H
   0.4991099999999999    0.4876780000000001    0.0873600000000000 H
   0.5030733333333334    0.5593820000000000    0.1038850000000000 H
   0.6450333333333333    0.5712360000000001    0.3277500000000000 H
   0.6878299999999999    0.5108600000000001    0.2869400000000000 H
   0.5817200000000000    0.4990400000000000    0.0553200000000000 H
   0.5516483333333333    0.5629480000000000    0.0511000000000000 H
   0.6123766666666667    0.5343680000000001    0.1853400000000000 H
   0.6666150000000000    0.5176120000000001    0.2034850000000000 H
   0.7886550000000000    0.4810200000000000    0.9629449999999999 H
   0.7324299999999999    0.4597260000000000    0.9477800000000001 H
   0.7531200000000000    0.4705960000000000    0.8236550000000000 H
   0.7101799999999999    0.4243100000000000    0.8640600000000001 H
   0.8324433333333333    0.4876780000000001    0.0873600000000000 H
   0.8364066666666666    0.5593820000000000    0.1038850000000000 H
   0.9783666666666666    0.5712360000000001    0.3277500000000000 H
   0.0211633333333333    0.5108600000000001    0.2869400000000000 H
   0.9150533333333333    0.4990400000000000    0.0553200000000000 H
   0.8849816666666666    0.5629480000000000    0.0511000000000000 H
   0.9457099999999999    0.5343680000000001    0.1853400000000000 H
   0.9999483333333332    0.5176120000000001    0.2034850000000000 H
   0.6219883333333334    0.4810200000000000    0.4629450000000000 H
   0.5657633333333333    0.4597260000000000    0.4477800000000000 H
   0.5864533333333333    0.4705960000000000    0.3236550000000000 H
   0.5435133333333333    0.4243100000000000    0.3640600000000000 H
   0.6657766666666667    0.4876780000000001    0.5873600000000000 H
   0.6697400000000000    0.5593820000000000    0.6038850000000000 H
   0.8117000000000000    0.5712360000000001    0.8277500000000000 H
   0.8544966666666666    0.5108600000000001    0.7869400000000000 H
   0.7483866666666666    0.4990400000000000    0.5553200000000000 H
   0.7183149999999999    0.5629480000000000    0.5511000000000000 H
   0.7790433333333333    0.5343680000000001    0.6853400000000001 H
   0.8332816666666666    0.5176120000000001    0.7034850000000000 H
   0.7886550000000000    0.2810200000000000    0.9629449999999999 H
   0.7324299999999999    0.2597260000000000    0.9477800000000001 H
   0.7531200000000000    0.2705960000000000    0.8236550000000000 H
   0.7101799999999999    0.2243100000000000    0.8640600000000001 H
   0.8324433333333333    0.2876780000000000    0.0873600000000000 H
   0.8364066666666666    0.3593820000000000    0.1038850000000000 H
   0.9783666666666666    0.3712360000000000    0.3277500000000000 H
   0.0211633333333333    0.3108600000000000    0.2869400000000000 H
   0.9150533333333333    0.2990400000000000    0.0553200000000000 H
   0.8849816666666666    0.3629480000000000    0.0511000000000000 H
   0.9457099999999999    0.3343680000000000    0.1853400000000000 H
   0.9999483333333332    0.3176120000000000    0.2034850000000000 H
   0.6219883333333334    0.2810200000000000    0.4629450000000000 H
   0.5657633333333333    0.2597260000000000    0.4477800000000000 H
   0.5864533333333333    0.2705960000000000    0.3236550000000000 H
   0.5435133333333333    0.2243100000000000    0.3640600000000000 H
   0.6657766666666667    0.2876780000000000    0.5873600000000000 H
   0.6697400000000000    0.3593820000000000    0.6038850000000000 H
   0.8117000000000000    0.3712360000000000    0.8277500000000000 H
   0.8544966666666666    0.3108600000000000    0.7869400000000000 H
   0.7483866666666666    0.2990400000000000    0.5553200000000000 H
   0.7183149999999999    0.3629480000000000    0.5511000000000000 H
   0.7790433333333333    0.3343680000000000    0.6853400000000001 H
   0.8332816666666666    0.3176120000000000    0.7034850000000000 H
   0.9553216666666666    0.2810200000000000    0.4629450000000000 H
   0.8990966666666665    0.2597260000000000    0.4477800000000000 H
   0.9197866666666665    0.2705960000000000    0.3236550000000000 H
   0.8768466666666666    0.2243100000000000    0.3640600000000000 H
   0.9991099999999999    0.2876780000000000    0.5873600000000000 H
   0.0030733333333333    0.3593820000000000    0.6038850000000000 H
   0.1450333333333333    0.3712360000000000    0.8277500000000000 H
   0.1878300000000000    0.3108600000000000    0.7869400000000000 H
   0.0817200000000000    0.2990400000000000    0.5553200000000000 H
   0.0516483333333333    0.3629480000000000    0.5511000000000000 H
   0.1123766666666667    0.3343680000000000    0.6853400000000001 H
   0.1666150000000000    0.3176120000000000    0.7034850000000000 H
   0.4553216666666666    0.2810200000000000    0.9629449999999999 H
   0.3990966666666667    0.2597260000000000    0.9477800000000001 H
   0.4197866666666666    0.2705960000000000    0.8236550000000000 H
   0.3768466666666667    0.2243100000000000    0.8640600000000001 H
   0.4991099999999999    0.2876780000000000    0.0873600000000000 H
   0.5030733333333334    0.3593820000000000    0.1038850000000000 H
   0.6450333333333333    0.3712360000000000    0.3277500000000000 H
   0.6878299999999999    0.3108600000000000    0.2869400000000000 H
   0.5817200000000000    0.2990400000000000    0.0553200000000000 H
   0.5516483333333333    0.3629480000000000    0.0511000000000000 H
   0.6123766666666667    0.3343680000000000    0.1853400000000000 H
   0.6666150000000000    0.3176120000000000    0.2034850000000000 H
   0.2886550000000000    0.2810200000000000    0.4629450000000000 H
   0.2324300000000000    0.2597260000000000    0.4477800000000000 H
   0.2531200000000000    0.2705960000000000    0.3236550000000000 H
   0.2101800000000000    0.2243100000000000    0.3640600000000000 H
   0.3324433333333333    0.2876780000000000    0.5873600000000000 H
   0.3364066666666666    0.3593820000000000    0.6038850000000000 H
   0.4783666666666666    0.3712360000000000    0.8277500000000000 H
   0.5211633333333333    0.3108600000000000    0.7869400000000000 H
   0.4150533333333333    0.2990400000000000    0.5553200000000000 H
   0.3849816666666667    0.3629480000000000    0.5511000000000000 H
   0.4457099999999999    0.3343680000000000    0.6853400000000001 H
   0.4999483333333333    0.3176120000000000    0.7034850000000000 H
   0.1219883333333333    0.2810200000000000    0.9629449999999999 H
   0.0657633333333333    0.2597260000000000    0.9477800000000001 H
   0.0864533333333333    0.2705960000000000    0.8236550000000000 H
   0.0435133333333333    0.2243100000000000    0.8640600000000001 H
   0.1657766666666667    0.2876780000000000    0.0873600000000000 H
   0.1697400000000000    0.3593820000000000    0.1038850000000000 H
   0.3117000000000000    0.3712360000000000    0.3277500000000000 H
   0.3544966666666666    0.3108600000000000    0.2869400000000000 H
   0.2483866666666666    0.2990400000000000    0.0553200000000000 H
   0.2183150000000000    0.3629480000000000    0.0511000000000000 H
   0.2790433333333333    0.3343680000000000    0.1853400000000000 H
   0.3332816666666666    0.3176120000000000    0.2034850000000000 H
   0.7886550000000000    0.6810200000000001    0.9629449999999999 H
   0.7324299999999999    0.6597260000000000    0.9477800000000001 H
   0.7531200000000000    0.6705960000000001    0.8236550000000000 H
   0.7101799999999999    0.6243100000000001    0.8640600000000001 H
   0.8324433333333333    0.6876780000000001    0.0873600000000000 H
   0.8364066666666666    0.7593820000000001    0.1038850000000000 H
   0.9783666666666666    0.7712360000000001    0.3277500000000000 H
   0.0211633333333333    0.7108600000000000    0.2869400000000000 H
   0.9150533333333333    0.6990400000000001    0.0553200000000000 H
   0.8849816666666666    0.7629480000000001    0.0511000000000000 H
   0.9457099999999999    0.7343680000000001    0.1853400000000000 H
   0.9999483333333332    0.7176120000000001    0.2034850000000000 H
   0.6219883333333334    0.6810200000000001    0.4629450000000000 H
   0.5657633333333333    0.6597260000000000    0.4477800000000000 H
   0.5864533333333333    0.6705960000000001    0.3236550000000000 H
   0.5435133333333333    0.6243100000000001    0.3640600000000000 H
   0.6657766666666667    0.6876780000000001    0.5873600000000000 H
   0.6697400000000000    0.7593820000000001    0.6038850000000000 H
   0.8117000000000000    0.7712360000000001    0.8277500000000000 H
   0.8544966666666666    0.7108600000000000    0.7869400000000000 H
   0.7483866666666666    0.6990400000000001    0.5553200000000000 H
   0.7183149999999999    0.7629480000000001    0.5511000000000000 H
   0.7790433333333333    0.7343680000000001    0.6853400000000001 H
   0.8332816666666666    0.7176120000000001    0.7034850000000000 H
   0.9553216666666666    0.6810200000000001    0.4629450000000000 H
   0.8990966666666665    0.6597260000000000    0.4477800000000000 H
   0.9197866666666665    0.6705960000000001    0.3236550000000000 H
   0.8768466666666666    0.6243100000000001    0.3640600000000000 H
   0.9991099999999999    0.6876780000000001    0.5873600000000000 H
   0.0030733333333333    0.7593820000000001    0.6038850000000000 H
   0.1450333333333333    0.7712360000000001    0.8277500000000000 H
   0.1878300000000000    0.7108600000000000    0.7869400000000000 H
   0.0817200000000000    0.6990400000000001    0.5553200000000000 H
   0.0516483333333333    0.7629480000000001    0.5511000000000000 H
   0.1123766666666667    0.7343680000000001    0.6853400000000001 H
   0.1666150000000000    0.7176120000000001    0.7034850000000000 H
   0.4553216666666666    0.6810200000000001    0.9629449999999999 H
   0.3990966666666667    0.6597260000000000    0.9477800000000001 H
   0.4197866666666666    0.6705960000000001    0.8236550000000000 H
   0.3768466666666667    0.6243100000000001    0.8640600000000001 H
   0.4991099999999999    0.6876780000000001    0.0873600000000000 H
   0.5030733333333334    0.7593820000000001    0.1038850000000000 H
   0.6450333333333333    0.7712360000000001    0.3277500000000000 H
   0.6878299999999999    0.7108600000000000    0.2869400000000000 H
   0.5817200000000000    0.6990400000000001    0.0553200000000000 H
   0.5516483333333333    0.7629480000000001    0.0511000000000000 H
   0.6123766666666667    0.7343680000000001    0.1853400000000000 H
   0.6666150000000000    0.7176120000000001    0.2034850000000000 H
   0.2886550000000000    0.6810200000000001    0.4629450000000000 H
   0.2324300000000000    0.6597260000000000    0.4477800000000000 H
   0.2531200000000000    0.6705960000000001    0.3236550000000000 H
   0.2101800000000000    0.6243100000000001    0.3640600000000000 H
   0.3324433333333333    0.6876780000000001    0.5873600000000000 H
   0.3364066666666666    0.7593820000000001    0.6038850000000000 H
   0.4783666666666666    0.7712360000000001    0.8277500000000000 H
   0.5211633333333333    0.7108600000000000    0.7869400000000000 H
   0.4150533333333333    0.6990400000000001    0.5553200000000000 H
   0.3849816666666667    0.7629480000000001    0.5511000000000000 H
   0.4457099999999999    0.7343680000000001    0.6853400000000001 H
   0.4999483333333333    0.7176120000000001    0.7034850000000000 H
   0.1219883333333333    0.6810200000000001    0.9629449999999999 H
   0.0657633333333333    0.6597260000000000    0.9477800000000001 H
   0.0864533333333333    0.6705960000000001    0.8236550000000000 H
   0.0435133333333333    0.6243100000000001    0.8640600000000001 H
   0.1657766666666667    0.6876780000000001    0.0873600000000000 H
   0.1697400000000000    0.7593820000000001    0.1038850000000000 H
   0.3117000000000000    0.7712360000000001    0.3277500000000000 H
   0.3544966666666666    0.7108600000000000    0.2869400000000000 H
   0.2483866666666666    0.6990400000000001    0.0553200000000000 H
   0.2183150000000000    0.7629480000000001    0.0511000000000000 H
   0.2790433333333333    0.7343680000000001    0.1853400000000000 H
   0.3332816666666666    0.7176120000000001    0.2034850000000000 H
   0.7886550000000000    0.8810200000000000    0.9629449999999999 H
   0.7324299999999999    0.8597260000000000    0.9477800000000001 H
   0.7531200000000000    0.8705960000000000    0.8236550000000000 H
   0.7101799999999999    0.8243100000000001    0.8640600000000001 H
   0.8324433333333333    0.8876780000000001    0.0873600000000000 H
   0.8364066666666666    0.9593820000000001    0.1038850000000000 H
   0.9783666666666666    0.9712360000000001    0.3277500000000000 H
   0.0211633333333333    0.9108600000000000    0.2869400000000000 H
   0.9150533333333333    0.8990400000000001    0.0553200000000000 H
   0.8849816666666666    0.9629480000000000    0.0511000000000000 H
   0.9457099999999999    0.9343680000000001    0.1853400000000000 H
   0.9999483333333332    0.9176120000000001    0.2034850000000000 H
   0.6219883333333334    0.8810200000000000    0.4629450000000000 H
   0.5657633333333333    0.8597260000000000    0.4477800000000000 H
   0.5864533333333333    0.8705960000000000    0.3236550000000000 H
   0.5435133333333333    0.8243100000000001    0.3640600000000000 H
   0.6657766666666667    0.8876780000000001    0.5873600000000000 H
   0.6697400000000000    0.9593820000000001    0.6038850000000000 H
   0.8117000000000000    0.9712360000000001    0.8277500000000000 H
   0.8544966666666666    0.9108600000000000    0.7869400000000000 H
   0.7483866666666666    0.8990400000000001    0.5553200000000000 H
   0.7183149999999999    0.9629480000000000    0.5511000000000000 H
   0.7790433333333333    0.9343680000000001    0.6853400000000001 H
   0.8332816666666666    0.9176120000000001    0.7034850000000000 H
   0.9553216666666666    0.8810200000000000    0.4629450000000000 H
   0.8990966666666665    0.8597260000000000    0.4477800000000000 H
   0.9197866666666665    0.8705960000000000    0.3236550000000000 H
   0.8768466666666666    0.8243100000000001    0.3640600000000000 H
   0.9991099999999999    0.8876780000000001    0.5873600000000000 H
   0.0030733333333333    0.9593820000000001    0.6038850000000000 H
   0.1450333333333333    0.9712360000000001    0.8277500000000000 H
   0.1878300000000000    0.9108600000000000    0.7869400000000000 H
   0.0817200000000000    0.8990400000000001    0.5553200000000000 H
   0.0516483333333333    0.9629480000000000    0.5511000000000000 H
   0.1123766666666667    0.9343680000000001    0.6853400000000001 H
   0.1666150000000000    0.9176120000000001    0.7034850000000000 H
   0.4553216666666666    0.8810200000000000    0.9629449999999999 H
   0.3990966666666667    0.8597260000000000    0.9477800000000001 H
   0.4197866666666666    0.8705960000000000    0.8236550000000000 H
   0.3768466666666667    0.8243100000000001    0.8640600000000001 H
   0.4991099999999999    0.8876780000000001    0.0873600000000000 H
   0.5030733333333334    0.9593820000000001    0.1038850000000000 H
   0.6450333333333333    0.9712360000000001    0.3277500000000000 H
   0.6878299999999999    0.9108600000000000    0.2869400000000000 H
   0.5817200000000000    0.8990400000000001    0.0553200000000000 H
   0.5516483333333333    0.9629480000000000    0.0511000000000000 H
   0.6123766666666667    0.9343680000000001    0.1853400000000000 H
   0.6666150000000000    0.9176120000000001    0.2034850000000000 H
   0.2886550000000000    0.8810200000000000    0.4629450000000000 H
   0.2324300000000000    0.8597260000000000    0.4477800000000000 H
   0.2531200000000000    0.8705960000000000    0.3236550000000000 H
   0.2101800000000000    0.8243100000000001    0.3640600000000000 H
   0.3324433333333333    0.8876780000000001    0.5873600000000000 H
   0.3364066666666666    0.9593820000000001    0.6038850000000000 H
   0.4783666666666666    0.9712360000000001    0.8277500000000000 H
   0.5211633333333333    0.9108600000000000    0.7869400000000000 H
   0.4150533333333333    0.8990400000000001    0.5553200000000000 H
   0.3849816666666667    0.9629480000000000    0.5511000000000000 H
   0.4457099999999999    0.9343680000000001    0.6853400000000001 H
   0.4999483333333333    0.9176120000000001    0.7034850000000000 H
   0.1219883333333333    0.8810200000000000    0.9629449999999999 H
   0.0657633333333333    0.8597260000000000    0.9477800000000001 H
   0.0864533333333333    0.8705960000000000    0.8236550000000000 H
   0.0435133333333333    0.8243100000000001    0.8640600000000001 H
   0.1657766666666667    0.8876780000000001    0.0873600000000000 H
   0.1697400000000000    0.9593820000000001    0.1038850000000000 H
   0.3117000000000000    0.9712360000000001    0.3277500000000000 H
   0.3544966666666666    0.9108600000000000    0.2869400000000000 H
   0.2483866666666666    0.8990400000000001    0.0553200000000000 H
   0.2183150000000000    0.9629480000000000    0.0511000000000000 H
   0.2790433333333333    0.9343680000000001    0.1853400000000000 H
   0.3332816666666666    0.9176120000000001    0.2034850000000000 H
   0.7886550000000000    0.0810200000000000    0.9629449999999999 H
   0.7324299999999999    0.0597260000000000    0.9477800000000001 H
   0.7531200000000000    0.0705960000000000    0.8236550000000000 H
   0.7101799999999999    0.0243100000000000    0.8640600000000001 H
   0.8324433333333333    0.0876780000000000    0.0873600000000000 H
   0.8364066666666666    0.1593820000000000    0.1038850000000000 H
   0.9783666666666666    0.1712360000000000    0.3277500000000000 H
   0.0211633333333333    0.1108600000000000    0.2869400000000000 H
   0.9150533333333333    0.0990400000000000    0.0553200000000000 H
   0.8849816666666666    0.1629480000000000    0.0511000000000000 H
   0.9457099999999999    0.1343680000000000    0.1853400000000000 H
   0.9999483333333332    0.1176120000000000    0.2034850000000000 H
   0.6219883333333334    0.0810200000000000    0.4629450000000000 H
   0.5657633333333333    0.0597260000000000    0.4477800000000000 H
   0.5864533333333333    0.0705960000000000    0.3236550000000000 H
   0.5435133333333333    0.0243100000000000    0.3640600000000000 H
   0.6657766666666667    0.0876780000000000    0.5873600000000000 H
   0.6697400000000000    0.1593820000000000    0.6038850000000000 H
   0.8117000000000000    0.1712360000000000    0.8277500000000000 H
   0.8544966666666666    0.1108600000000000    0.7869400000000000 H
   0.7483866666666666    0.0990400000000000    0.5553200000000000 H
   0.7183149999999999    0.1629480000000000    0.5511000000000000 H
   0.7790433333333333    0.1343680000000000    0.6853400000000001 H
   0.8332816666666666    0.1176120000000000    0.7034850000000000 H
   0.9553216666666666    0.0810200000000000    0.4629450000000000 H
   0.8990966666666665    0.0597260000000000    0.4477800000000000 H
   0.9197866666666665    0.0705960000000000    0.3236550000000000 H