H3 C7 N1 O4
1.0
  16.6449350994731873    0.0000000000000000   -0.0464815482269435
   0.1757441767191278   16.8150694282384343   -0.0202511202290802
   0.0000000000000000    0.0000000000000000   27.2600000000000016
H C N O
3 7 1 4
direct
   0.0425300000000000    0.0893300000000000    0.3255600000000000 H
   0.0424200000000000    0.0891800000000000    0.1738400000000000 H
   0.1907900000000000    0.2583300000000000    0.2499800000000000 H
   0.0653900000000000    0.1152500000000000    0.2917400000000000 C
   0.1199200000000000    0.1783100000000000    0.2939500000000000 C
   0.1465500000000000    0.2121100000000000    0.3416700000000000 C
   0.0653100000000000    0.1151900000000000    0.2077500000000000 C
   0.1197900000000000    0.1782600000000000    0.2057700000000000 C
   0.1464300000000000    0.2120900000000000    0.1582400000000000 C
   0.1483300000000000    0.2095500000000000    0.2499200000000000 C
   0.0386800000000000    0.0833000000000000    0.2496900000000000 N
   0.2046400000000000    0.2603500000000000    0.3423000000000000 O
   1.1111300000000000    0.1908900000000000    0.3815400000000000 O
   0.2046700000000000    0.2601200000000000    0.1579300000000000 O
   1.1111100000000000    0.1911500000000000    0.1180800000000000 O
