Zn16 H44 C88 O48
1.0
  15.9944489240045655    0.0000000000000000    9.0757756482522876
   5.2834800045365311   15.0962639233272053    9.0722763735962211
   0.0000000000000000    0.0000000000000000   36.7860000000000014
Zn H C O
16 44 88 48
direct
   0.2069700000000000    0.3801500000000000    0.1034800000000000 Zn
   0.2070400000000000    0.2069700000000000    0.1900550000000000 Zn
   0.2059600000000000    0.2060500000000000    0.1030050000000000 Zn
   0.7930199999999999    0.6198500000000000    0.3965100000000000 Zn
   0.6198200000000000    0.7930300000000000    0.3964500000000000 Zn
   0.7929500000000000    0.7930300000000000    0.3099350000000000 Zn
   0.7940300000000000    0.7939500000000000    0.3969850000000000 Zn
   0.3801700000000000    0.2069700000000000    0.1035150000000000 Zn
   0.2069700000000000    0.3801500000000000    0.6034800000000000 Zn
   0.2070400000000000    0.2069700000000000    0.6900550000000000 Zn
   0.2059600000000000    0.2060500000000000    0.6030050000000000 Zn
   0.7930199999999999    0.6198500000000000    0.8965099999999999 Zn
   0.6198200000000000    0.7930300000000000    0.8964500000000000 Zn
   0.7929500000000000    0.7930300000000000    0.8099350000000001 Zn
   0.7940300000000000    0.7939500000000000    0.8969849999999999 Zn
   0.3801700000000000    0.2069700000000000    0.6035150000000000 Zn
   0.3358700000000000    0.0484900000000000    0.2839150000000000 H
   0.0468200000000000    0.3359300000000000    0.0235050000000000 H
   0.5679800000000000    0.0485500000000000    0.1679500000000000 H
   0.0492500000000000    0.5671700000000000    0.0246150000000000 H
   0.3358800000000000    0.5678600000000000    0.0242400000000000 H
   0.5679400000000000    0.3358800000000000    0.0243000000000000 H
   0.3359300000000000    0.0469800000000000    0.0234900000000000 H
   0.0484800000000000    0.5679300000000000    0.1679500000000000 H
   0.5672700000000001    0.0491700000000000    0.0246000000000000 H
   0.0485500000000000    0.3358800000000000    0.2839000000000000 H
   0.9514500000000000    0.6641200000000000    0.2160650000000000 H
   0.6640600000000000    0.9530000000000000    0.4765050000000000 H
   0.9515100000000000    0.4320700000000000    0.3320400000000000 H
   0.4327200000000000    0.9508100000000000    0.4753950000000000 H
   0.4320500000000000    0.6641300000000000    0.4756950000000000 H
   0.6641100000000000    0.4321400000000000    0.4757550000000000 H
   0.9531700000000000    0.6640700000000000    0.4764900000000000 H
   0.4320100000000000    0.9514500000000000    0.3320400000000000 H
   0.9507300000000000    0.4328300000000000    0.4753800000000000 H
   0.6641200000000000    0.9515100000000000    0.2160700000000000 H
   0.3358700000000000    0.0484900000000000    0.7839149999999999 H
   0.0468200000000000    0.3359300000000000    0.5235050000000000 H
   0.5679800000000000    0.0485500000000000    0.6679500000000000 H
   0.0492500000000000    0.5671700000000000    0.5246150000000001 H
   0.3358800000000000    0.5678600000000000    0.5242400000000000 H
   0.0493100000000000    0.0492600000000000    0.7835449999999999 H
   0.5679400000000000    0.3358800000000000    0.5243000000000000 H
   0.0468100000000000    0.0470100000000000    0.6679800000000000 H
   0.3359300000000000    0.0469800000000000    0.5234900000000000 H
   0.0484800000000000    0.5679300000000000    0.6679500000000000 H
   0.5672700000000001    0.0491700000000000    0.5246000000000000 H
   0.0485500000000000    0.3358800000000000    0.7839000000000000 H
   0.9514500000000000    0.6641200000000000    0.7160650000000000 H
   0.6640600000000000    0.9530000000000000    0.9765050000000000 H
   0.9515100000000000    0.4320700000000000    0.8320400000000000 H
   0.4327200000000000    0.9508100000000000    0.9753950000000000 H
   0.4320500000000000    0.6641300000000000    0.9756950000000000 H
   0.9506800000000000    0.9507500000000000    0.7164450000000000 H
   0.6641100000000000    0.4321400000000000    0.9757549999999999 H
   0.9531800000000000    0.9530000000000000    0.8320100000000000 H
   0.9531700000000000    0.6640700000000000    0.9764900000000001 H
   0.4320100000000000    0.9514500000000000    0.8320400000000000 H
   0.9507300000000000    0.4328300000000000    0.9753800000000000 H
   0.6641200000000000    0.9515100000000000    0.7160700000000000 H
   0.4077700000000000    0.0268600000000000    0.2694550000000000 C
   0.0259400000000000    0.4078000000000000    0.0130250000000000 C
   0.5389800000000000    0.0269000000000000    0.2038900000000000 C
   0.0272800000000000    0.5385200000000000    0.0136350000000000 C
   0.4077800000000000    0.5389300000000000    0.0134200000000000 C
   0.5389600000000000    0.4077700000000000    0.0134600000000000 C
   0.4078100000000000    0.0260200000000000    0.0130150000000000 C
   0.0268500000000000    0.5389600000000000    0.2038500000000000 C
   0.5385700000000000    0.0272400000000000    0.0136350000000000 C
   0.0268900000000000    0.4077700000000000    0.2694550000000000 C
   0.9731000000000000    0.5922300000000000    0.2305350000000000 C
   0.5921900000000000    0.9739600000000000    0.4869800000000000 C
   0.9731400000000000    0.4610400000000000    0.2961000000000000 C
   0.4614300000000000    0.9727400000000000    0.4863600000000000 C
   0.4610300000000000    0.5922300000000000    0.4865350000000000 C
   0.5922100000000000    0.4610700000000000    0.4865750000000000 C
   0.9740400000000000    0.5921999999999999    0.4869700000000000 C
   0.4610200000000000    0.9731000000000000    0.2961000000000000 C
   0.9727000000000000    0.4614800000000000    0.4863500000000000 C
   0.5922200000000000    0.9731500000000000    0.2305350000000000 C
   0.3891400000000000    0.1117800000000000    0.1945450000000000 C
   0.4464200000000000    0.0540800000000000    0.2231900000000000 C
   0.1108900000000000    0.3884000000000000    0.0555100000000000 C
   0.0535800000000000    0.4459800000000000    0.0268400000000000 C
   0.3891100000000000    0.3890900000000000    0.0559000000000000 C
   0.4464100000000000    0.4463800000000000    0.0270450000000000 C
   0.3884600000000000    0.1109800000000000    0.0555000000000000 C
   0.4460200000000000    0.0536400000000000    0.0268250000000000 C
   0.1117900000000000    0.3891100000000000    0.1945350000000000 C
   0.0540700000000000    0.4464000000000000    0.2231900000000000 C
   0.8882000000000000    0.6108900000000000    0.3054550000000000 C
   0.9459200000000000    0.5535900000000000    0.2768000000000000 C
   0.6115300000000000    0.8890200000000000    0.4444950000000000 C
   0.5539700000000000    0.9463500000000000    0.4731700000000000 C
   0.6108800000000000    0.6109100000000000    0.4440900000000000 C
   0.5535800000000000    0.5536200000000000    0.4729500000000000 C
   0.8890900000000000    0.6115900000000000    0.4444800000000000 C
   0.9464000000000000    0.5540200000000000    0.4731550000000000 C
   0.6108600000000000    0.8882300000000000    0.3054450000000000 C
   0.5535700000000000    0.9459300000000000    0.2768000000000000 C
   0.4077700000000000    0.0268600000000000    0.7694550000000000 C
   0.0259400000000000    0.4078000000000000    0.5130250000000000 C
   0.5389800000000000    0.0269000000000000    0.7038900000000000 C
   0.0272800000000000    0.5385200000000000    0.5136350000000000 C
   0.4077800000000000    0.5389300000000000    0.5134200000000000 C
   0.0273100000000000    0.0272900000000000    0.7692000000000000 C
   0.5389600000000000    0.4077700000000000    0.5134600000000000 C
   0.0259300000000000    0.0260500000000000    0.7039050000000000 C
   0.4078100000000000    0.0260200000000000    0.5130150000000000 C
   0.0268500000000000    0.5389600000000000    0.7038500000000000 C
   0.5385700000000000    0.0272400000000000    0.5136350000000000 C
   0.0268900000000000    0.4077700000000000    0.7694550000000000 C
   0.9731000000000000    0.5922300000000000    0.7305349999999999 C
   0.5921900000000000    0.9739600000000000    0.9869800000000000 C
   0.9731400000000000    0.4610400000000000    0.7961000000000000 C
   0.4614300000000000    0.9727400000000000    0.9863600000000000 C
   0.4610300000000000    0.5922300000000000    0.9865349999999999 C
   0.9726800000000000    0.9727100000000000    0.7307500000000000 C
   0.5922100000000000    0.4610700000000000    0.9865750000000000 C
   0.9740600000000000    0.9739500000000000    0.7960849999999999 C
   0.9740400000000000    0.5921999999999999    0.9869700000000000 C
   0.4610200000000000    0.9731000000000000    0.7961000000000000 C
   0.9727000000000000    0.4614800000000000    0.9863500000000001 C
   0.5922200000000000    0.9731500000000000    0.7305349999999999 C
   0.3891400000000000    0.1117800000000000    0.6945450000000000 C
   0.4464200000000000    0.0540800000000000    0.7231900000000000 C
   0.1108900000000000    0.3884000000000000    0.5555099999999999 C
   0.0535800000000000    0.4459800000000000    0.5268400000000000 C
   0.3891100000000000    0.3890900000000000    0.5558999999999999 C
   0.4464100000000000    0.4463800000000000    0.5270450000000000 C
   0.1109300000000000    0.1110300000000000    0.6941850000000001 C
   0.0536100000000000    0.0536800000000000    0.7229800000000000 C
   0.3884600000000000    0.1109800000000000    0.5555000000000000 C
   0.4460200000000000    0.0536400000000000    0.5268250000000000 C
   0.1117900000000000    0.3891100000000000    0.6945350000000000 C
   0.0540700000000000    0.4464000000000000    0.7231900000000000 C
   0.8882000000000000    0.6108900000000000    0.8054550000000000 C
   0.9459200000000000    0.5535900000000000    0.7767999999999999 C
   0.6115300000000000    0.8890200000000000    0.9444950000000000 C
   0.5539700000000000    0.9463500000000000    0.9731700000000000 C
   0.6108800000000000    0.6109100000000000    0.9440900000000000 C
   0.5535800000000000    0.5536200000000000    0.9729500000000000 C
   0.8890600000000000    0.8889700000000000    0.8058050000000000 C
   0.9463800000000000    0.9463300000000000    0.7770100000000000 C
   0.8890900000000000    0.6115900000000000    0.9444800000000000 C
   0.9464000000000000    0.5540200000000000    0.9731550000000000 C
   0.6108600000000000    0.8882300000000000    0.8054450000000000 C
   0.5535700000000000    0.9459300000000000    0.7767999999999999 C
   0.4286000000000000    0.1341600000000000    0.1527000000000000 O
   0.1334400000000000    0.4278300000000000    0.0667500000000000 O
   0.3054700000000000    0.1339100000000000    0.2142650000000000 O
   0.1325300000000000    0.3047200000000000    0.0663650000000000 O
   0.4285600000000000    0.3054300000000000    0.0670950000000000 O
   0.3054400000000000    0.4285500000000000    0.0669450000000000 O
   0.4279100000000000    0.1334400000000000    0.0667750000000000 O
   0.1340900000000000    0.3054500000000000    0.2142550000000000 O
   0.3047800000000000    0.1326600000000000    0.0663400000000000 O
   0.1340200000000000    0.4285700000000000    0.1527150000000000 O
   0.8659800000000000    0.5714300000000000    0.3472800000000000 O
   0.5720800000000000    0.8665600000000000    0.4332150000000000 O
   0.8659000000000000    0.6945500000000000    0.2857350000000000 O
   0.6952100000000000    0.8673300000000000    0.4336500000000000 O
   0.6945400000000000    0.5714600000000000    0.4330400000000000 O
   0.5714200000000000    0.6945700000000000    0.4329000000000000 O
   0.8665400000000000    0.5721600000000000    0.4332400000000000 O
   0.6945200000000000    0.8661000000000000    0.2857200000000000 O
   0.8674600000000000    0.6952800000000000    0.4336200000000000 O
   0.5713900000000000    0.8658300000000000    0.3472650000000000 O
   0.2498900000000000    0.2498800000000000    0.1249350000000000 O
   0.7501000000000000    0.7501200000000000    0.3750550000000000 O
   0.4286000000000000    0.1341600000000000    0.6527000000000001 O
   0.1334400000000000    0.4278300000000000    0.5667500000000000 O
   0.3054700000000000    0.1339100000000000    0.7142650000000000 O
   0.1325300000000000    0.3047200000000000    0.5663650000000000 O
   0.4285600000000000    0.3054300000000000    0.5670950000000000 O
   0.1325000000000000    0.1327900000000000    0.6523550000000000 O
   0.3054400000000000    0.4285500000000000    0.5669450000000000 O
   0.1335100000000000    0.1335100000000000    0.7138850000000000 O
   0.4279100000000000    0.1334400000000000    0.5667750000000000 O
   0.1340900000000000    0.3054500000000000    0.7142550000000000 O
   0.3047800000000000    0.1326600000000000    0.5663400000000000 O
   0.1340200000000000    0.4285700000000000    0.6527149999999999 O
   0.8659800000000000    0.5714300000000000    0.8472800000000000 O
   0.5720800000000000    0.8665600000000000    0.9332150000000000 O
   0.8659000000000000    0.6945500000000000    0.7857350000000001 O
   0.6952100000000000    0.8673300000000000    0.9336500000000000 O
   0.6945400000000000    0.5714600000000000    0.9330400000000000 O
   0.8674900000000000    0.8672100000000000    0.8476350000000000 O
   0.5714200000000000    0.6945700000000000    0.9329000000000001 O
   0.8664800000000000    0.8664900000000000    0.7861000000000000 O
   0.8665400000000000    0.5721600000000000    0.9332400000000001 O
   0.6945200000000000    0.8661000000000000    0.7857200000000000 O
   0.8674600000000000    0.6952800000000000    0.9336200000000000 O
   0.5713900000000000    0.8658300000000000    0.8472649999999999 O
   0.2498900000000000    0.2498800000000000    0.6249350000000000 O
   0.7501000000000000    0.7501200000000000    0.8750550000000000 O
