H7 O4
1.0
   7.5799983329020311    0.0000000000000000   -0.0050272460088906
  -0.0187342310598726   10.5224830086756640   -0.0025711317619902
   0.0000000000000000    0.0000000000000000   26.5199999999999996
H O
7 4
direct
   0.1078175224391702    0.0090287920171505    0.8275322011280725 H
   0.1776198080139287    0.1190092640276507    0.8684383735613403 H
   0.1116038288254456    0.3694074050562178    0.6771138101694920 H
   0.1169246505506725    0.3084265138533644    0.7335097546401257 H
   0.2232039534201228    0.2447650161948268    0.5699375150419393 H
   1.1187973411490399    0.5685976636729060    0.5681385743182820 H
   1.2230943126105265    0.4199981727190806    0.5515452900322688 H
   0.1494700000000000    0.0299199999999999    0.8614750000000000 O
   0.1304400000000000    0.2928500000000000    0.6973400000000000 O
   0.1395600000000000    0.2897600000000000    0.5910450000000000 O
   1.0746899999999999    0.4998300000000000    0.5889950000000000 O
