H5 C9 S1 N2 O2
1.0
   7.5799983329020311    0.0000000000000000   -0.0050272460088906
  -0.0187342310598726   10.5224830086756640   -0.0025711317619902
   0.0000000000000000    0.0000000000000000   26.5199999999999996
H C S N O
5 9 1 2 2
direct
   0.0357700000000000    0.6024000000000000    0.6839850000000001 H
   0.2229500000000000    0.3441900000000000    0.8442400000000000 H
   0.2353700000000000    0.1744800000000000    0.9090199999999999 H
   0.0595600000000000    0.9014100000000000    0.8073650000000000 H
   0.0245700000000000    0.0599000000000000    0.7394100000000000 H
   0.1075400000000000    0.3959300000000000    0.6116150000000000 C
   0.1038800000000000    0.4008000000000000    0.6688200000000000 C
   0.0666000000000000    0.5071900000000000    0.6973050000000001 C
   0.1120800000000000    0.3140100000000000    0.7464750000000000 C
   0.1227300000000000    0.2171100000000000    0.7858849999999999 C
   0.1778900000000000    0.2483100000000000    0.8349850000000000 C
   0.1884200000000000    0.1531900000000000    0.8711100000000001 C
   0.0917700000000000    0.0009800000000000    0.8144549999999999 C
   0.0754100000000000    0.0900700000000000    0.7761050000000000 C
   0.0646200000000000    0.4719200000000000    0.7601450000000001 S
   0.1304400000000000    0.2928500000000000    0.6973400000000000 N
   0.1494700000000000    0.0299200000000000    0.8614750000000000 N
   0.1395600000000000    0.2897600000000000    0.5910450000000000 O
   1.0746899999999999    0.4998300000000000    0.5889950000000000 O
