P1 O5
1.0
   9.0154999780297729    0.0000000000000000   -0.0006294006343427
  -3.2734184181935988    8.4023828297518559   -0.0009443103900646
   0.0000000000000000    0.0000000000000000   39.0439999999999969
P O
1 5
direct
   0.2987300000000000    0.0073500000000000    0.8295550000000000 P
   0.4299700000000000    0.2299800000000000    0.8708250000000000 O
   0.2837000000000000    0.0821100000000000    0.8664600000000000 O
   0.1361400000000000    0.8746800000000000    0.8261950000000000 O
   0.4365100000000000    0.9464800000000000    0.8291800000000000 O
   0.3254500000000000    0.1320600000000000    0.8015550000000000 O
