H3 O2
1.0
   9.0154999780297729    0.0000000000000000   -0.0006294006343427
  -3.2734184181935988    8.4023828297518559   -0.0009443103900646
   0.0000000000000000    0.0000000000000000   39.0439999999999969
H O
3 2
direct
   0.7364181340316980    0.8133826323185188    0.9232719004596084 H
   0.4851893985423531    0.0045663017506628    0.8956624072647187 H
   0.5546101360988238    0.8182326705350880    0.8847677019770283 H
   0.7365900000000000    0.9055700000000000    0.9360999999999999 O
   0.5550200000000000    0.0380800000000000    0.9153600000000000 O
