H3 O2
1.0
   9.0154999780297729    0.0000000000000000   -0.0006294006343427
  -3.2734184181935988    8.4023828297518559   -0.0009443103900646
   0.0000000000000000    0.0000000000000000   39.0439999999999969
H O
3 2
direct
   0.4022888245716282    0.1190283815686990    0.8770368618417563 H
   0.3005762389047591    0.0323610527088431    0.8071368571652895 H
   0.2840907272496999    0.0688933073213160    0.7811977953854590 H
   0.4299700000000000    0.2299800000000000    0.8708250000000000 O
   0.3254500000000000    0.1320600000000000    0.8015550000000000 O
