H6 O4
1.0
  13.0749999999999993    0.0000000000000000    0.0000000000000008
   0.0243909639134290   13.9749787127346785   -0.0002439097629554
   0.0000000000000000    0.0000000000000000   16.9239999999999995
H O
6 4
direct
   0.1268812353540630    0.3781771712684139    0.1916061175251746 H
   0.0896630408968034    0.4373548013171791    0.4055639302108294 H
   0.1176119164082940    0.3852907875465515    0.3044503178631477 H
   0.0017409919679108    0.6449070155230124    0.1420610573159807 H
  -0.0311164494455991    0.6981746167539907    0.3345411933179039 H
  -0.0404545465793228    0.7202267166694194    0.2291469285291689 H
   0.1024500000000000    0.4308800000000000    0.2238200000000000 O
   0.0799800000000000    0.4664700000000000    0.3540700000000000 O
   0.0226500000000000    0.6038500000000000    0.1853800000000000 O
   0.0000000000000000    0.6407900000000000    0.3129600000000000 O
