Zn16 H45 C46 N60 O32
1.0
  13.0749999999999993    0.0000000000000000    0.0000000000000008
   0.0243909639134290   13.9749787127346785   -0.0002439097629554
   0.0000000000000000    0.0000000000000000   16.9239999999999995
Zn H C N O
16 45 46 60 32
direct
   0.9284400000000000    0.4824100000000000    0.9036900000000000 Zn
   0.0223600000000000    0.0923100000000000    0.0704200000000000 Zn
   0.0715400000000000    0.0175800000000000    0.4036800000000000 Zn
   0.4762200000000000    0.5922300000000000    0.9290000000000000 Zn
   0.4273400000000000    0.5193800000000000    0.5961200000000000 Zn
   0.5237700000000000    0.9077700000000000    0.4294700000000000 Zn
   0.5726400000000000    0.9806300000000000    0.0961100000000000 Zn
   0.0223600000000000    0.5923000000000000    0.4295800000000000 Zn
   0.0715600000000000    0.5175800000000000    0.0963200000000000 Zn
   0.9776500000000000    0.9076800000000000    0.9295900000000000 Zn
   0.9284400000000000    0.9823800000000000    0.5963500000000000 Zn
   0.5237800000000000    0.4077800000000000    0.0705200000000000 Zn
   0.5726500000000000    0.4806200000000000    0.4039100000000000 Zn
   0.4762100000000000    0.0922200000000000    0.5705100000000000 Zn
   0.4273700000000000    0.0193800000000000    0.9038900000000000 Zn
   0.9776400000000000    0.4076800000000000    0.5704399999999999 Zn
   0.9456400000000000    0.2003800000000000    0.6511000000000000 H
   0.7389100000000000    0.3589600000000000    0.5048700000000000 H
   0.0605700000000000    0.2274800000000000    0.3584500000000000 H
   0.0671700000000000    0.3368200000000000    0.4054800000000000 H
   0.7248200000000000    0.6125400000000000    0.3169000000000000 H
   0.8481300000000001    0.6516800000000000    0.3349700000000000 H
   0.0543700000000000    0.2995800000000000    0.1510700000000000 H
   0.2610900000000000    0.1410400000000000    0.0048000000000000 H
   0.9393600000000000    0.2725200000000000    0.8584600000000000 H
   0.9327900000000000    0.1631700000000000    0.9054800000000000 H
   0.2752400000000000    0.8874300000000001    0.8169800000000000 H
   0.1519300000000000    0.8482700000000000    0.8349700000000000 H
   0.4429500000000000    0.8004100000000000    0.8489300000000000 H
   0.2376900000000000    0.6396400000000000    0.9954000000000000 H
   0.5588500000000000    0.7717600000000000    0.1411600000000000 H
   0.5660800000000000    0.6627600000000000    0.0937100000000000 H
   0.2244500000000000    0.3858900000000000    0.1826800000000000 H
   0.3482900000000000    0.3473700000000000    0.1655900000000000 H
   0.5571900000000000    0.6995900000000000    0.3489700000000000 H
   0.7622500000000000    0.8602700000000000    0.4954200000000000 H
   0.4409300000000000    0.7282400000000000    0.6411200000000000 H
   0.4337600000000000    0.8372300000000000    0.5936700000000000 H
   0.7755500000000000    0.1141000000000000    0.6826500000000000 H
   0.6517300000000000    0.1526600000000000    0.6655000000000000 H
   0.0542700000000000    0.7995900000000000    0.3489000000000000 H
   0.2610400000000000    0.6411000000000000    0.4952300000000000 H
   0.9394200000000000    0.7724800000000001    0.6415700000000000 H
   0.9328200000000000    0.6631400000000000    0.5945300000000000 H
   0.2751900000000000    0.3874900000000000    0.6831000000000000 H
   0.1518900000000000    0.3483300000000000    0.6651000000000000 H
   0.9456200000000000    0.7004100000000000    0.8489500000000000 H
   0.7389100000000000    0.8589599999999999    0.9951700000000000 H
   0.0606600000000000    0.7274700000000000    0.1415600000000000 H
   0.0672200000000000    0.8368200000000000    0.0945400000000000 H
   0.7247800000000000    0.1125600000000000    0.1830300000000000 H
   0.8480799999999999    0.1517100000000000    0.1650400000000000 H
   0.5570500000000000    0.1995900000000000    0.1510700000000000 H
   0.7623000000000000    0.3603600000000000    0.0046300000000000 H
   0.4411400000000000    0.2282500000000000    0.8588500000000000 H
   0.4339100000000000    0.3372600000000000    0.9063000000000000 H
   0.7755500000000000    0.6140900000000000    0.8173300000000000 H
   0.6517200000000000    0.6526200000000000    0.8344200000000001 H
   0.4427000000000000    0.3003900000000000    0.6510100000000000 H
   0.5589900000000000    0.2717600000000000    0.3588700000000000 H
   0.5661400000000000    0.1627600000000000    0.4063000000000000 H
   0.9670600000000000    0.4164800000000000    0.7420200000000000 C
   0.9239300000000000    0.5158600000000000    0.7192900000000000 C
   0.0310800000000000    0.2191400000000000    0.4746800000000000 C
   0.9732400000000000    0.1911700000000000    0.5913300000000000 C
   0.7983000000000000    0.5468499999999999    0.4069700000000000 C
   0.7743400000000000    0.4209500000000000    0.4777900000000000 C
   0.0329400000000000    0.0835100000000000    0.2420000000000000 C
   0.0760600000000000    0.9841200000000000    0.2192700000000000 C
   0.9688900000000000    0.2808400000000000    0.9746800000000000 C
   0.0267600000000000    0.3088000000000000    0.0913000000000000 C
   0.2017200000000000    0.9531200000000000    0.9069000000000000 C
   0.2256700000000000    0.0790500000000000    0.9777800000000000 C
   0.4678400000000000    0.5840000000000000    0.7578500000000000 C
   0.4227700000000000    0.4854200000000000    0.7803700000000000 C
   0.5295299999999999    0.7806999999999999    0.0248900000000000 C
   0.4709600000000000    0.8093500000000000    0.9086100000000000 C
   0.2983100000000000    0.4518700000000000    0.0931700000000000 C
   0.2735300000000000    0.5777500000000000    0.0224600000000000 C
   0.5321500000000000    0.9160100000000000    0.2578400000000000 C
   0.5772300000000000    0.0145800000000000    0.2803600000000000 C
   0.4703800000000000    0.7192900000000000    0.5248800000000000 C
   0.5291000000000000    0.6906500000000000    0.4086200000000000 C
   0.7016900000000000    0.0481200000000000    0.5931000000000000 C
   0.7264400000000000    0.9221900000000000    0.5224000000000000 C
   0.0329500000000000    0.5834800000000000    0.2580000000000000 C
   0.0760700000000000    0.4841000000000000    0.2807000000000000 C
   0.9688900000000000    0.7808200000000000    0.5253400000000000 C
   0.0267000000000000    0.8088000000000000    0.4086800000000000 C
   0.2016800000000000    0.4531700000000000    0.5930900000000000 C
   0.2256300000000000    0.5790900000000000    0.5222900000000000 C
   0.9670700000000000    0.9164500000000000    0.7580100000000000 C
   0.9239300000000000    0.0158300000000000    0.7807300000000000 C
   0.0311200000000000    0.7191500000000000    0.0253400000000000 C
   0.9732400000000000    0.6911900000000000    0.9087200000000000 C
   0.7982900000000001    0.0468800000000000    0.0930400000000000 C
   0.7743300000000000    0.9209500000000000    0.0222300000000000 C
   0.5321900000000001    0.4160100000000000    0.2421600000000000 C
   0.5772500000000000    0.5145800000000000    0.2196500000000000 C
   0.4704700000000000    0.2193100000000000    0.9751100000000000 C
   0.5290400000000000    0.1906600000000000    0.0914000000000000 C
   0.7016900000000000    0.5481300000000000    0.9068500000000000 C
   0.7264699999999999    0.4222500000000000    0.9775000000000000 C
   0.4678400000000000    0.0839900000000000    0.7421500000000000 C
   0.4227600000000000    0.9854100000000000    0.7196399999999999 C
   0.5295299999999999    0.2806900000000000    0.4751000000000000 C
   0.4708000000000000    0.3093300000000000    0.5913000000000000 C
   0.9992799999999999    0.2639500000000000    0.5423200000000000 N
   0.9866300000000000    0.1062300000000000    0.5579700000000000 N
   0.0242900000000000    0.1229000000000000    0.4820000000000000 N
   0.0708300000000000    0.2637500000000000    0.4104100000000000 N
   0.8698300000000000    0.4479200000000000    0.4912400000000000 N
   0.8859000000000000    0.5297300000000000    0.4462800000000000 N
   0.7259900000000000    0.4798400000000000    0.4257400000000000 N
   0.7827300000000000    0.6222900000000000    0.3574600000000000 N
   0.0007000000000000    0.2360200000000000    0.0420000000000000 N
   0.0133400000000000    0.3937400000000000    0.0579600000000000 N
   0.9756800000000000    0.3770800000000000    0.9820700000000000 N
   0.9291100000000000    0.2362300000000000    0.9104200000000000 N
   0.1301800000000000    0.0520700000000000    0.9912000000000000 N
   0.1141200000000000    0.9702400000000000    0.9462000000000000 N
   0.2740200000000000    0.0201500000000000    0.9257400000000000 N
   0.2173100000000000    0.8776700000000000    0.8574700000000000 N
   0.4968400000000000    0.7362300000000001    0.9574700000000000 N
   0.4851900000000000    0.8941900000000000    0.9419000000000000 N
   0.5234600000000000    0.8769700000000000    0.0175500000000000 N
   0.5694700000000000    0.7358100000000000    0.0890700000000000 N
   0.3693800000000000    0.5513300000000000    0.0092700000000000 N
   0.3860700000000000    0.4694900000000000    0.0542000000000000 N
   0.2254300000000000    0.5185100000000000    0.0742000000000000 N
   0.2828500000000000    0.3763200000000000    0.1425700000000000 N
   0.5031500000000000    0.7637699999999999    0.4574600000000000 N
   0.5148500000000000    0.6058100000000000    0.4419000000000000 N
   0.4764900000000000    0.6230200000000000    0.5175400000000000 N
   0.4303300000000000    0.7641800000000000    0.5890300000000001 N
   0.6306000000000000    0.9486300000000000    0.5092700000000000 N
   0.6139300000000000    0.0305100000000000    0.5541800000000000 N
   0.7745500000000000    0.9814400000000000    0.5742500000000000 N
   0.7171700000000000    0.1236900000000000    0.6425200000000000 N
   0.0006700000000000    0.7360200000000000    0.4576900000000000 N
   0.0133000000000000    0.8937400000000000    0.4420300000000000 N
   0.9756700000000000    0.8770700000000000    0.5179500000000000 N
   0.9291600000000000    0.7362100000000000    0.5896100000000000 N
   0.1301500000000000    0.5520800000000000    0.5088200000000001 N
   0.1140900000000000    0.4702600000000000    0.5537700000000000 N
   0.2739800000000000    0.5202100000000000    0.5743000000000000 N
   0.2172700000000000    0.3777300000000000    0.6426100000000000 N
   0.9993000000000000    0.7639600000000000    0.9577300000000000 N
   0.9866600000000000    0.6062500000000000    0.9420600000000000 N
   0.0243300000000000    0.6229100000000000    0.0179400000000000 N
   0.0709000000000000    0.7637500000000000    0.0896000000000000 N
   0.8698200000000000    0.9479300000000001    0.0087000000000000 N
   0.8858900000000000    0.0297500000000000    0.0537000000000000 N
   0.7259900000000000    0.9798500000000000    0.0742700000000000 N
   0.7827000000000000    0.1223200000000000    0.1425400000000000 N
   0.5031600000000001    0.2637800000000000    0.0425400000000000 N
   0.5148100000000000    0.1058200000000000    0.0581000000000000 N
   0.4765400000000000    0.1230400000000000    0.9824500000000000 N
   0.4305200000000000    0.2642100000000000    0.9109300000000000 N
   0.6306200000000000    0.4486700000000000    0.9907500000000000 N
   0.6139300000000000    0.5305100000000000    0.9458200000000000 N
   0.7745700000000000    0.4814800000000000    0.9257000000000000 N
   0.7171600000000000    0.6236699999999999    0.8574500000000000 N
   0.4967500000000000    0.2362200000000000    0.5425200000000000 N
   0.4850800000000000    0.3941700000000000    0.5580900000000000 N
   0.5234500000000000    0.3769700000000000    0.4824500000000000 N
   0.5695700000000000    0.2358100000000000    0.4109000000000000 N
   0.9773900000000000    0.8960900000000001    0.6853900000000001 O
   0.5074400000000000    0.3592300000000000    0.1870800000000000 O
   0.5818200000000000    0.5327000000000000    0.1464100000000000 O
   0.6043300000000000    0.5669100000000000    0.2768800000000000 O
   0.9911500000000000    0.3591800000000000    0.6870600000000000 O
   0.9200199999999999    0.5335200000000000    0.6459700000000000 O
   0.8975400000000000    0.5690499999999999    0.7762300000000000 O
   0.9773800000000000    0.3961200000000000    0.8146000000000000 O
   0.0000000000000000    0.1408100000000000    0.1870400000000000 O
   0.0799900000000000    0.9664600000000000    0.1459400000000000 O
   0.1024600000000000    0.9309300000000000    0.2762000000000000 O
   0.0226200000000000    0.1038700000000000    0.3146300000000000 O
   0.4925800000000000    0.6407800000000000    0.8129300000000000 O
   0.4181900000000000    0.4673100000000000    0.8536100000000000 O
   0.3956900000000000    0.4330900000000000    0.7231400000000000 O
   0.4789400000000000    0.6041500000000000    0.6852500000000000 O
   0.5074200000000000    0.8592200000000000    0.3129200000000000 O
   0.5818000000000000    0.0327000000000000    0.3536000000000000 O
   0.6043100000000000    0.0669000000000000    0.2231300000000000 O
   0.5210399999999999    0.8958500000000000    0.1852400000000000 O
   0.0000000000000000    0.6407900000000000    0.3129600000000000 O
   0.0799800000000000    0.4664700000000000    0.3540700000000000 O
   0.1024500000000000    0.4308800000000000    0.2238200000000000 O
   0.0226500000000000    0.6038500000000000    0.1853800000000000 O
   0.9911700000000000    0.8591600000000000    0.8129000000000000 O
   0.9200199999999999    0.0335200000000000    0.8540500000000000 O
   0.8975100000000000    0.0689900000000000    0.7237000000000000 O
   0.5210900000000001    0.3958500000000000    0.3147600000000000 O
   0.4925800000000000    0.1407700000000000    0.6870700000000000 O
   0.4181900000000000    0.9672900000000000    0.6464000000000000 O
   0.3956900000000000    0.9331000000000000    0.7768699999999999 O
   0.4789500000000000    0.1041500000000000    0.8147500000000000 O
