H3 O2
1.0
  37.4669993095074005    0.0000000000000000   -0.0071931475750991
   0.0236748037069338   13.5796210252461425   -7.8433702140318697
   0.0000000000000000    0.0000000000000000   15.6869999999999994
H O
3 2
direct
   0.3855406924889557    0.8681257196009772    0.5336917873036058 H
   0.4215981118462516    0.6318496294833792    0.5539586850310620 H
   0.4546928168695388    0.6610607561371575    0.5004576321286278 H
   0.3982066666666667    0.9134000000000000    0.5184400000000000 O
   0.4454000000000000    0.6184900000000000    0.5243100000000001 O
