H4 C6 N1 O2
1.0
  37.4669993095074005    0.0000000000000000   -0.0071931475750991
   0.0236748037069338   13.5796210252461425   -7.8433702140318697
   0.0000000000000000    0.0000000000000000   15.6869999999999994
H C N O
4 6 1 2
direct
   0.3646633333333333    0.7251800000000000    0.6038400000000000 H
   0.4031766666666666    0.5890800000000000    0.5924000000000000 H
   0.4849733333333333    0.6606500000000000    0.4600400000000000 H
   0.4502866666666666    0.8017600000000000    0.4712700000000000 H
   0.3813566666666667    0.8531700000000000    0.5387300000000000 C
   0.4043633333333333    0.7730700000000000    0.5369100000000000 C
   0.3912800000000000    0.7127400000000000    0.5719300000000000 C
   0.4124933333333333    0.6369600000000000    0.5653000000000000 C
   0.4582333333333333    0.6772800000000000    0.4913700000000000 C
   0.4387633333333333    0.7552300000000000    0.4971300000000000 C
   0.4454000000000000    0.6184900000000000    0.5243100000000001 N
   0.3982066666666667    0.9134000000000000    0.5184400000000000 O
   0.3487900000000000    0.8553400000000000    0.5553000000000000 O
