H3 O2
1.0
  10.1179999244880836    0.0000000000000000   -0.0012361468929430
  -0.0115635515294296   11.5932431679516768   -0.2284718429430017
   0.0000000000000000    0.0000000000000000   14.7989999999999995
H O
3 2
direct
   0.3486795527193235    0.6044656691710306    0.2742199906159340 H
   0.3219221131028008    0.4273366580768597    0.3408047436676454 H
   0.3623657956394156    0.4016723039899006    0.3907429737226968 H
   0.4122100000000000    0.6503000000000000    0.3084500000000000 O
   0.3937400000000000    0.4791500000000000    0.3795000000000000 O
