Zn12 H26 C23 O48
1.0
  10.1179999244880836    0.0000000000000000   -0.0012361468929430
  -0.0115635515294296   11.5932431679516768   -0.2284718429430017
   0.0000000000000000    0.0000000000000000   14.7989999999999995
Zn H C O
12 26 23 48
direct
   0.0000000000000000    0.0000000000000000    0.0000000000000000 Zn
   0.0719700000000000    0.7549000000000000    0.1296400000000000 Zn
   0.3826500000000000    0.7594700000000000    0.1909600000000000 Zn
   0.5000000000000000    0.0000000000000000    0.4999900000000000 Zn
   0.9280300000000000    0.2450900000000000    0.8703300000000000 Zn
   0.6173500000000000    0.2405200000000000    0.8090100000000000 Zn
   0.5000000000000000    0.4999900000000000    0.4999900000000000 Zn
   0.4280100000000000    0.2548700000000000    0.6295900000000000 Zn
   0.1173300000000000    0.2594400000000000    0.6909300000000000 Zn
   0.0000000000000000    0.4999900000000000    0.0000000000000000 Zn
   0.5719900000000000    0.7451100000000001    0.3703800000000000 Zn
   0.8826700000000000    0.7405500000000000    0.3090400000000000 Zn
   0.3486795527193235    0.6044656691710306    0.2742199906159340 H
   0.2046800000000000    0.0186500000000000    0.7656900000000000 H
   0.7953300000000000    0.9813400000000000    0.2342800000000000 H
   0.4498900000000000    0.0245400000000000    0.2284700000000000 H
   0.8376200000000000    0.6908500000000000    0.9193800000000000 H
   0.2911200000000000    0.0033100000000000    0.0000000000000000 H
   0.7422200000000000    0.6440200000000000    0.1276000000000000 H
   0.8900000000000000    0.9375700000000000    0.4568400000000000 H
   0.1100000000000000    0.0624200000000000    0.5431300000000000 H
   0.5501200000000001    0.9754500000000000    0.7715000000000000 H
   0.1623700000000000    0.3091400000000000    0.0805900000000000 H
   0.7088800000000000    0.9966800000000000    0.9876700000000000 H
   0.2577800000000000    0.3559700000000000    0.8723600000000000 H
   0.3219221131028008    0.4273366580768597    0.3408047436676454 H
   0.3623657956394156    0.4016723039899006    0.3907429737226968 H
   0.7049200000000000    0.4815000000000000    0.7342200000000000 H
   0.0505100000000000    0.5245200000000000    0.7284300000000000 H
   0.6626200000000000    0.1910800000000000    0.4195700000000000 H
   0.2091100000000000    0.5029800000000000    0.5120800000000000 H
   0.7575300000000000    0.1440200000000000    0.6275300000000000 H
   0.3899200000000000    0.5628100000000000    0.0432600000000000 H
   0.6100800000000000    0.4371700000000000    0.9567099999999999 H
   0.9494800000000000    0.4754600000000000    0.2715300000000000 H
   0.3373800000000000    0.8089100000000000    0.5804000000000000 H
   0.7908900000000000    0.4970000000000000    0.4878900000000000 H
   0.2424700000000000    0.8559600000000001    0.3724300000000000 H
   0.1332700000000000    0.0478800000000000    0.8179900000000000 C
   0.8667300000000000    0.9521100000000000    0.1819800000000000 C
   0.4760900000000000    0.9801400000000000    0.2914200000000000 C
   0.8982400000000000    0.7436300000000000    0.9663400000000000 C
   0.2733000000000000    0.9302600000000000    0.0573000000000000 C
   0.6606400000000000    0.6761900000000000    0.1706300000000000 C
   0.7824900000000000    0.9227700000000000    0.4497500000000000 C
   0.2175100000000000    0.0772100000000000    0.5502200000000000 C
   0.5239100000000000    0.0198500000000000    0.7085500000000000 C
   0.1017600000000000    0.2563500000000000    0.0336300000000000 C
   0.7267000000000000    0.0697300000000000    0.9426700000000000 C
   0.3393600000000000    0.3238000000000000    0.8293400000000000 C
   0.6334200000000000    0.4521900000000000    0.6819499999999999 C
   0.0241500000000000    0.4801300000000000    0.7913700000000000 C
   0.6018600000000000    0.2437700000000000    0.4664100000000000 C
   0.2268200000000000    0.4300800000000000    0.5571800000000000 C
   0.8392100000000000    0.1761700000000000    0.6705600000000000 C
   0.2824000000000000    0.5773800000000000    0.0503200000000000 C
   0.7176000000000000    0.4226100000000000    0.9496500000000000 C
   0.9758500000000000    0.5198600000000000    0.2086000000000000 C
   0.3981400000000000    0.7562100000000000    0.5335600000000000 C
   0.7731800000000000    0.5699100000000000    0.4427900000000000 C
   0.1607900000000000    0.8238200000000000    0.3294100000000000 C
   0.4122100000000000    0.6503000000000000    0.3084500000000000 O
   0.1061800000000000    0.9792100000000000    0.8795100000000000 O
   0.0876500000000000    0.1503000000000000    0.8084200000000000 O
   0.8938199999999999    0.0207800000000000    0.1204600000000000 O
   0.9123500000000000    0.8496800000000000    0.1915500000000000 O
   0.5002799999999999    0.0401600000000000    0.3606100000000000 O
   0.4791400000000000    0.8692600000000000    0.2858000000000000 O
   0.8883000000000000    0.8507800000000000    0.9638900000000000 O
   0.9725800000000000    0.6855100000000000    0.0201000000000000 O
   0.3711700000000000    0.8893400000000000    0.0976200000000000 O
   0.1521400000000000    0.8965500000000000    0.0627800000000000 O
   0.5489700000000000    0.6853800000000000    0.1339100000000000 O
   0.6891400000000000    0.6997500000000000    0.2534900000000000 O
   0.7064300000000000    0.9803800000000000    0.4998600000000000 O
   0.7488300000000000    0.8469600000000000    0.3891300000000000 O
   0.2935700000000000    0.0196100000000000    0.5001100000000001 O
   0.2511700000000000    0.1530200000000000    0.6108500000000000 O
   0.4997200000000000    0.9598300000000000    0.6393600000000000 O
   0.5208700000000001    0.1307200000000000    0.7141700000000000 O
   0.1116900000000000    0.1492100000000000    0.0360800000000000 O
   0.0274200000000000    0.3144800000000000    0.9798700000000000 O
   0.6288300000000000    0.1106500000000000    0.9023500000000000 O
   0.8478599999999999    0.1034400000000000    0.9371900000000000 O
   0.4510300000000000    0.3146100000000000    0.8660600000000001 O
   0.3108600000000000    0.3002300000000000    0.7464800000000000 O
   0.3937400000000000    0.4791500000000000    0.3795000000000000 O
   0.6062600000000000    0.5208300000000000    0.6204600000000000 O
   0.5877900000000000    0.3496900000000000    0.6915200000000000 O
   0.9997800000000000    0.5401300000000000    0.8605100000000000 O
   0.0211100000000000    0.3692500000000000    0.7857800000000000 O
   0.6116700000000000    0.3509400000000000    0.4638700000000000 O
   0.5274700000000000    0.1855400000000000    0.5201200000000000 O
   0.1289000000000000    0.3892600000000000    0.5975800000000000 O
   0.3479200000000000    0.3964100000000000    0.5627100000000000 O
   0.9508799999999999    0.1853300000000000    0.6338300000000000 O
   0.8108000000000000    0.1997300000000000    0.7534200000000000 O
   0.2063900000000000    0.5196900000000000    0.0000000000000000 O
   0.2486700000000000    0.6530400000000000    0.1109800000000000 O
   0.7936100000000000    0.4803000000000000    0.9998800000000000 O
   0.7513300000000001    0.3469600000000000    0.8889800000000000 O
   0.0002200000000000    0.4598600000000000    0.1394600000000000 O
   0.9788900000000000    0.6307400000000000    0.2141800000000000 O
   0.3883300000000000    0.6490500000000000    0.5361000000000000 O
   0.4725300000000000    0.8144400000000001    0.4798500000000000 O
   0.8711000000000000    0.6107300000000000    0.4023800000000000 O
   0.6520800000000000    0.6035700000000001    0.4372600000000000 O
   0.0491200000000000    0.8146600000000001    0.3661400000000000 O
   0.1892000000000000    0.8002600000000000    0.2465400000000000 O
