H12 C12 S4 O4
1.0
  13.1439910132668540    0.0000000000000000    0.0153702036481610
   0.0025020639425359   13.1259907871031718    0.0153491549821791
   0.0000000000000000    0.0000000000000000   13.6600000000000001
H C S O
12 12 4 4
direct
   0.8103300000000000    0.9168200000000000    0.2946800000000000 H
   0.8556900000000000    0.9138300000000000    0.1718300000000000 H
   0.9204300000000000    0.8407200000000000    0.2657200000000000 H
   0.2929200000000000    0.9589200000000000    0.4750000000000000 H
   0.3558700000000000    0.8823900000000000    0.5661400000000000 H
   0.2895200000000000    0.9945800000000000    0.6035000000000000 H
   0.1896700000000000    0.0831800000000000    0.7052700000000000 H
   0.1443300000000000    0.0861800000000000    0.8281300000000000 H
   0.0795800000000000    0.1592800000000000    0.7342300000000000 H
   0.7070900000000000    0.0410400000000000    0.5249900000000000 H
   0.6441200000000000    0.1175800000000000    0.4338000000000000 H
   0.7104700000000000    0.0053900000000000    0.3964800000000000 H
   0.1192800000000000    0.8790900000000000    0.3603000000000000 C
   0.0573300000000000    0.9432600000000000    0.4319300000000000 C
   0.9797300000000000    0.0085200000000000    0.3985400000000000 C
   0.0783600000000000    0.9356500000000000    0.5329000000000000 C
   0.8784500000000000    0.9106300000000001    0.2490000000000000 C
   0.2904900000000000    0.9318700000000000    0.5508700000000000 C
   0.8807199999999999    0.1209100000000000    0.6395800000000000 C
   0.9426700000000000    0.0567300000000000    0.5680400000000000 C
   0.0202800000000000    0.9914700000000000    0.6014400000000000 C
   0.9216299999999999    0.0643400000000000    0.4670800000000000 C
   0.1215600000000000    0.0893700000000000    0.7509500000000000 C
   0.7095100000000000    0.0681000000000000    0.4491200000000000 C
   0.9621400000000000    0.0187100000000000    0.2690400000000000 S
   0.1792300000000000    0.8508100000000000    0.5658000000000000 S
   0.0378600000000000    0.9812900000000000    0.7309400000000000 S
   0.8207600000000000    0.1491700000000000    0.4341800000000000 S
   0.2050600000000000    0.9159800000000000    0.3370500000000000 O
   0.0795600000000000    0.7958100000000000    0.3338800000000000 O
   0.7949400000000000    0.0840300000000000    0.6629100000000000 O
   0.9204400000000000    0.2042000000000000    0.6660700000000001 O
