H6 O4
1.0
  13.1439910132668540    0.0000000000000000    0.0153702036481610
   0.0025020639425359   13.1259907871031718    0.0153491549821791
   0.0000000000000000    0.0000000000000000   13.6600000000000001
H O
6 4
direct
   0.2439312509630554    0.9776367539798536    0.3484477406633227 H
   0.0160424359417334    0.7592888280158142    0.3426328640364178 H
   0.1270385008895713    0.8711193912892804    0.3478015391019186 H
   0.7560733216821581    0.0223701232915767    0.6515134040185934 H
   0.9839580491728348    0.2407190356743641    0.6573121014219736 H
   0.8729710967067092    0.1288931600222506    0.6521510355829725 H
   0.2050600000000000    0.9159800000000000    0.3370500000000000 O
   0.0795600000000000    0.7958100000000000    0.3338800000000000 O
   0.7949400000000000    0.0840300000000000    0.6629100000000000 O
   0.9204400000000000    0.2042000000000000    0.6660700000000001 O
