H7 C13 N1 O4
1.0
  27.1379952218431839    0.0000000000000000    0.0161040124366749
  -0.0066238906441185   27.1419957150707809   -0.0137378001151457
   0.0000000000000000    0.0000000000000000   23.1870000000000012
H C N O
7 13 1 4
direct
   0.2527150000000000    0.0805600000000000    0.0366200000000000 H
   0.3649250000000000    0.1307800000000000    0.9174300000000000 H
   0.2201700000000000    0.1240100000000000    0.8626300000000000 H
   0.4136150000000000    0.0889250000000000    0.9674000000000000 H
   0.4585000000000000    0.0882250000000000    0.1439500000000000 H
   0.3706600000000000    0.0996950000000000    0.1749400000000000 H
   0.3050050000000000    0.1081600000000000    0.1020700000000000 H
   0.1762000000000000    0.0936150000000000    0.9648600000000001 C
   0.2301400000000000    0.1018800000000000    0.9520300000000000 C
   0.2653150000000000    0.0944150000000000    0.9950800000000000 C
   0.3151850000000000    0.1044950000000000    0.9845500000000000 C
   0.3272750000000000    0.1212050000000000    0.9291199999999999 C
   0.2458850000000000    0.1179800000000000    0.8978900000000000 C
   0.3539250000000000    0.0989900000000000    0.0288800000000000 C
   0.4032250000000000    0.0921350000000000    0.0125700000000000 C
   0.4407150000000000    0.0888150000000000    0.0536000000000000 C
   0.4289400000000000    0.0910600000000000    0.1123900000000000 C
   0.3800050000000000    0.0974200000000000    0.1292700000000000 C
   0.3428100000000000    0.1017000000000000    0.0880700000000000 C
   0.4933250000000000    0.0844500000000000    0.0340100000000000 C
   0.2938400000000000    0.1269850000000000    0.8860000000000000 N
   0.1454300000000000    0.1085950000000000    0.9274700000000000 O
   0.1665600000000000    0.0731750000000000    0.0127900000000000 O
   0.5258650000000000    0.0790400000000000    0.0728900000000000 O
   0.5011450000000000    0.0873300000000000    0.9799000000000000 O
