H8 C10 N3 O2
1.0
  13.3149999979720093    0.0000000000000000   -0.0002323905898928
  -0.0040594075971909   14.5369985475674248    0.0050743701641994
   0.0000000000000000    0.0000000000000000   29.0740000000000016
H C N O
8 10 3 2
direct
   0.9834100000000000    0.1916200000000000    0.0978500000000000 H
   0.8609500000000000    0.0935600000000000    0.1418350000000000 H
   0.6174800000000000    0.2592600000000000    0.0883550000000000 H
   0.7397700000000000    0.3526900000000000    0.0446250000000000 H
   0.5669500000000000    0.0706000000000000    0.0838400000000000 H
   0.7772400000000000    0.0842000000000000    0.2329500000000000 H
   0.7577300000000000    0.1966900000000000    0.2114200000000000 H
   0.6733200000000000    0.1509200000000000    0.2536100000000000 H
   0.9431300000000000    0.3380700000000000    0.0434100000000000 C
   0.8690300000000000    0.2776700000000000    0.0684000000000000 C
   0.9030000000000000    0.2050200000000000    0.0960500000000000 C
   0.8352300000000000    0.1504700000000000    0.1204350000000000 C
   0.7326300000000000    0.1698300000000000    0.1168400000000000 C
   0.6970800000000000    0.2420000000000000    0.0896250000000000 C
   0.7658700000000001    0.2953500000000000    0.0654100000000000 C
   0.5806500000000000    0.0693300000000000    0.1205650000000000 C
   0.6526200000000000    0.0975700000000000    0.1870400000000000 C
   0.7191900000000000    0.1343900000000000    0.2233050000000000 C
   0.5262300000000000    0.0265100000000000    0.1514500000000000 N
   0.5719200000000000    0.0446800000000000    0.1933100000000000 N
   0.6605700000000000    0.1141400000000000    0.1406800000000000 N
   0.9028100000000000    0.4036900000000000    0.0191050000000000 O
   0.0351700000000000    0.3237900000000000    0.0471650000000000 O
