H3 O2
1.0
  13.3149999979720093    0.0000000000000000   -0.0002323905898928
  -0.0040594075971909   14.5369985475674248    0.0050743701641994
   0.0000000000000000    0.0000000000000000   29.0740000000000016
H O
3 2
direct
   0.9330948422585011    0.3544020201140167    0.0373607810290890 H
   0.6311366216225222    0.0834900014574374    0.1887091546769118 H
   0.5996206513712663    0.0595980527396084    0.1297166207592013 H
   0.9028100000000000    0.4036900000000000    0.0191050000000000 O
   0.5719200000000000    0.0446800000000000    0.1933100000000000 O
