H6 O4
1.0
  31.0780970944225245    0.0000000000000000    9.4600252108356475
  10.1860670326079550   29.4038353556524150    9.3412314383545016
   0.0000000000000000    0.0000000000000000   23.1750000000000007
H O
6 4
direct
   0.1831405906931880    0.0898946906672146    0.0465406218146998 H
   0.2748833206774448    0.0788992981110415    1.0212615767420996 H
   0.2403748536784755    0.1701582483926260    0.0161837655096791 H
   0.0739780415576509    0.2020021431492406    0.4386344326264647 H
   0.0649691617586573    0.2903940513114548    0.4129790361176545 H
   0.1780945074633377    0.2486534058054241    0.4703682899544749 H
   0.1895650000000000    0.0576500000000000    0.0500400000000000 O
   0.2635550000000000    0.0538150000000000    1.0288100000000000 O
   0.0459600000000000    0.2090750000000000    0.4252300000000000 O
   0.0410850000000000    0.2832400000000000    0.4048200000000000 O
