H6 C12 O4
1.0
  27.2839999958444075    0.0000000000000000   -0.0004761956330931
   0.0000000000000024   14.7880000000000003    0.0000000000000009
   0.0000000000000000    0.0000000000000000   30.2740000000000009
H C O
6 12 4
direct
   0.0000000000000000    0.7288100000000000    0.7217550000000000 H
   0.0000000000000000    0.8482600000000000    0.7797600000000000 H
   0.9365550000000000    0.1486600000000000    0.6278500000000000 H
   0.9476599999999999    0.0330700000000000    0.5687250000000000 H
   0.9927750000000000    0.0000000000000000    0.7609699999999999 H
   0.9985450000000000    0.7651100000000000    0.6446900000000000 H
   0.0000000000000000    0.7971100000000000    0.7129700000000000 C
   0.0000000000000000    0.8647600000000000    0.7458899999999999 C
   0.9634900000000000    0.0633200000000000    0.6795100000000001 C
   0.9807350000000000    0.9750000000000000    0.6914899999999999 C
   0.9500400000000000    0.0813800000000000    0.6361700000000000 C
   0.9829150000000000    0.9060000000000000    0.6578400000000000 C
   0.9610500000000000    0.1401400000000000    0.7112650000000000 C
   0.9556000000000000    0.0158800000000000    0.6029900000000000 C
   0.9712450000000000    0.9292000000000000    0.6131750000000000 C
   0.9755700000000000    0.8624200000000000    0.5756800000000000 C
   0.9940650000000000    0.9514300000000000    0.7354600000000000 C
   0.9979650000000000    0.8173300000000000    0.6700200000000001 C
   0.0022600000000000    0.8862300000000000    0.5432750000000000 O
   0.9246000000000000    0.1945300000000000    0.7093700000000001 O
   0.9960100000000001    0.1529400000000000    0.7388650000000000 O
   0.9516549999999999    0.7887400000000000    0.5783650000000000 O
