H4 O2
1.0
  29.0741450586320838    0.0000000000000000    1.5975021469842743
  -0.0538971260016292   31.8099529396047878    0.0094382168575269
   0.0000000000000000    0.0000000000000000   37.0120000000000005
H O
4 2
direct
   0.7262204323257827    0.3793473947622780    0.7796593500339700 H
   0.6880105260568069    0.3721567813499036    0.7520131509236021 H
   0.7737645676742172    0.6206526052377220    0.7203356499660299 H
   0.8119744739431931    0.6278432186500964    0.7479818490763980 H
   0.6987449999999999    0.3627650000000000    0.7752700000000000 O
   0.8012400000000000    0.6372350000000000    0.7247250000000001 O
