H2 C3 O4
1.0
  13.6646980235709687    0.0000000000000000   -3.6001651246318751
  -4.6924087793611839   12.8293078953833053   -3.6120712579944607
   0.0000000000000000    0.0000000000000000   28.2659999999999982
H C O
2 3 4
direct
   0.7073000000000000    0.4690100000000000    0.1810000000000000 H
   0.6379200000000000    0.5308400000000000    0.1463350000000000 H
   0.6740900000000000    0.4086300000000000    0.0989650000000000 C
   0.8020500000000000    0.5913100000000000    0.1629300000000000 C
   0.7023500000000000    0.4999500000000000    0.1488000000000000 C
   0.5775900000000000    0.3569300000000000    0.0741550000000000 O
   0.7485100000000000    0.3864600000000000    0.0868000000000000 O
   0.8516300000000000    0.6430500000000000    0.2111700000000000 O
  -0.1736600000000001    0.6135200000000000    0.1257250000000000 O
