H4 C8 O4
1.0
  13.4169940410787394    0.0000000000000000   -0.0126452227179129
  -0.0255882520961436   13.8309763279055034   -0.0002413964888327
   0.0000000000000000    0.0000000000000000   16.1969999999999992
H C O
4 8 4
direct
   0.0349200000000000    0.2019800000000000    0.1844800000000000 H
   0.0337800000000000    0.3190800000000000    0.3033000000000000 H
   0.7161999999999999    0.1805900000000000    0.1972100000000000 H
   0.7152300000000000    0.2978700000000000    0.3159500000000000 H
   0.8760100000000000    0.1162300000000000    0.1125900000000000 C
   0.8755500000000001    0.1850700000000000    0.1836400000000000 C
   0.9653900000000000    0.2235900000000000    0.2136300000000000 C
   0.8739800000000000    0.3838600000000000    0.3874800000000000 C
   0.8744499999999999    0.3149900000000000    0.3162700000000000 C
   0.9648600000000001    0.2881300000000000    0.2794500000000000 C
   0.7851800000000000    0.2118300000000000    0.2206300000000000 C
   0.7846100000000000    0.2764000000000000    0.2864300000000000 C
   0.7891600000000000    0.4116800000000000    0.4135000000000000 O
   0.7915800000000000    0.0914900000000000    0.0830500000000000 O
   0.9585399999999999    0.4082100000000000    0.4168900000000000 O
   0.9606800000000000    0.0880800000000000    0.0863100000000000 O
