H6 O4
1.0
  13.4169940410787394    0.0000000000000000   -0.0126452227179129
  -0.0255882520961436   13.8309763279055034   -0.0002413964888327
   0.0000000000000000    0.0000000000000000   16.1969999999999992
H O
6 4
direct
   1.0179813451741810    0.3801332011115591    0.3927935124679247 H
   0.7295999767574645    0.3862904482234223    0.3872565259344867 H
   0.8733706280672483    0.3719035638916796    0.3793624759694691 H
   0.7323003720845459    0.1196642284768867    0.1073358845404899 H
   1.0201054802454828    0.1136192574681346    0.1126569908775124 H
   0.8766135548317167    0.1280348262480477    0.1207506342090773 H
   0.9585399999999999    0.4082100000000000    0.4168900000000000 O
   0.7891600000000000    0.4116800000000000    0.4135000000000000 O
   0.7915800000000000    0.0914900000000000    0.0830500000000000 O
   0.9606800000000000    0.0880800000000000    0.0863100000000000 O
