Al8 H34 C56 O32
1.0
  13.4169940410787394    0.0000000000000000   -0.0126452227179129
  -0.0255882520961436   13.8309763279055034   -0.0002413964888327
   0.0000000000000000    0.0000000000000000   16.1969999999999992
Al H C O
8 34 56 32
direct
   0.2499900000000000    0.9999900000000000    0.9999800000000000 Al
   0.7500000000000000    0.0000100000000000    0.0000100000000000 Al
   0.5000100000000000    0.0000000000000000    0.9999800000000000 Al
   0.9999900000000000    0.0000000000000000    0.0000200000000000 Al
   0.5000400000000000    0.5000200000000000    0.4999400000000000 Al
   0.9999700000000000    0.5000100000000000    0.5000700000000000 Al
   0.7500000000000000    0.5000200000000000    0.5000000000000000 Al
   0.2500000000000000    0.5000100000000000    0.5000100000000000 Al
   1.0179813451741810    0.3801332011115591    0.3927935124679247 H
   0.7295999767574645    0.3862904482234223    0.3872565259344867 H
   0.8733706280672483    0.3719035638916796    0.3793624759694691 H
   0.5349400000000000    0.2018900000000000    0.1847400000000000 H
   0.5336400000000000    0.3189400000000000    0.3035900000000000 H
   0.2161700000000000    0.1809300000000000    0.1968400000000000 H
   0.2150100000000000    0.2982400000000000    0.3155300000000000 H
   0.0000000000000000    0.7981300000000000    0.8152600000000000 H
   0.0000000000000000    0.6810700000000000    0.6964200000000000 H
   0.2837900000000000    0.8191400000000000    0.8031800000000000 H
   0.2849700000000000    0.7018200000000000    0.6844800000000000 H
   0.7323003720845459    0.1196642284768867    0.1073358845404899 H
   1.0201054802454828    0.1136192574681346    0.1126569908775124 H
   0.8766135548317167    0.1280348262480477    0.1207506342090773 H
   0.7838500000000000    0.8194200000000000    0.8028000000000000 H
   0.7848100000000000    0.7021300000000000    0.6840700000000000 H
   0.4651300000000000    0.7980800000000000    0.8155400000000000 H
   0.4662500000000000    0.6809800000000000    0.6967100000000001 H
   0.5343599999999999    0.3206600000000000    0.6997400000000000 H
   0.5338400000000000    0.2033500000000000    0.8184399999999999 H
   0.2161300000000000    0.2967400000000000    0.6819000000000000 H
   0.2157600000000000    0.1796600000000000    0.8007400000000000 H
   0.7841600000000000    0.7032000000000000    0.3177800000000000 H
   0.7842600000000000    0.8202700000000001    0.1989700000000000 H
   0.4658600000000000    0.6794300000000000    0.3005800000000000 H
   0.4661300000000000    0.7967400000000000    0.1818600000000000 H
   0.2838900000000000    0.7033000000000000    0.3181300000000000 H
   0.2842800000000000    0.8203900000000000    0.1993000000000000 H
   0.0000000000000000    0.6793500000000000    0.3002500000000000 H
   0.0000000000000000    0.7966500000000000    0.1815300000000000 H
   0.0341100000000000    0.3206400000000000    0.6994600000000000 H
   0.0338300000000000    0.2033400000000000    0.8181900000000000 H
   0.7158300000000000    0.2967700000000000    0.6821700000000001 H
   0.7157100000000000    0.1797100000000000    0.8009700000000000 H
   0.3737700000000000    0.3839500000000000    0.3874500000000000 C
   0.3760700000000000    0.1163100000000000    0.1125400000000000 C
   0.4653600000000000    0.2235800000000000    0.2137600000000000 C
   0.4647500000000000    0.2881200000000000    0.2795800000000000 C
   0.2851200000000000    0.2120700000000000    0.2204000000000000 C
   0.2844600000000000    0.2766500000000000    0.2862000000000000 C
   0.3742700000000000    0.3151000000000000    0.3162200000000000 C
   0.3755600000000000    0.1851800000000000    0.1835900000000000 C
   0.1262200000000000    0.6160900000000000    0.6125600000000000 C
   0.1238800000000000    0.8837500000000000    0.8874500000000000 C
   0.0346100000000000    0.7764500000000000    0.7862500000000000 C
   0.0352300000000000    0.7119100000000000    0.7204199999999999 C
   0.2148500000000000    0.7879800000000000    0.7796100000000000 C
   0.2155100000000000    0.7234000000000000    0.7138099999999999 C
   0.1257100000000000    0.6849400000000000    0.6837900000000000 C
   0.1244000000000000    0.8148700000000000    0.8164100000000000 C
   0.6260400000000000    0.6161900000000000    0.6125200000000000 C
   0.6240500000000000    0.8838000000000000    0.8874300000000001 C
   0.7148700000000000    0.7881800000000000    0.7793800000000000 C
   0.7154300000000000    0.7236200000000000    0.7135800000000000 C
   0.5346600000000000    0.7764600000000000    0.7863800000000000 C
   0.5351700000000000    0.7119200000000000    0.7205600000000000 C
   0.6255700000000000    0.6850500000000000    0.6837400000000000 C
   0.6245000000000001    0.8149600000000000    0.8163700000000000 C
   0.3743000000000000    0.1160700000000000    0.8874300000000001 C
   0.3757700000000000    0.3837900000000000    0.6125600000000000 C
   0.4651600000000000    0.2888900000000000    0.7220600000000000 C
   0.4648900000000000    0.2243100000000000    0.7878700000000000 C
   0.2852300000000000    0.2756500000000000    0.7121499999999999 C
   0.2849200000000000    0.2111100000000000    0.7779700000000001 C
   0.3747600000000000    0.1849700000000000    0.8162400000000000 C
   0.3753500000000000    0.3149300000000000    0.6836200000000000 C
   0.6256000000000000    0.8839200000000000    0.1125600000000000 C
   0.6245800000000000    0.6161600000000000    0.3873800000000000 C
   0.7149799999999999    0.7243100000000000    0.2876900000000000 C
   0.7151600000000000    0.7888500000000001    0.2218700000000000 C
   0.5350100000000000    0.7111499999999999    0.2781000000000000 C
   0.5351500000000000    0.7757300000000000    0.2123000000000000 C
   0.6252200000000000    0.8150300000000000    0.1837700000000000 C
   0.6249200000000000    0.6850700000000000    0.3163700000000000 C
   0.1257400000000000    0.8839399999999999    0.1125700000000000 C
   0.1242500000000000    0.6162400000000000    0.3874500000000000 C
   0.2148000000000000    0.7243900000000000    0.2878700000000000 C
   0.2151200000000000    0.7889200000000000    0.2220500000000000 C
   0.0348800000000000    0.7111200000000000    0.2779300000000000 C
   0.0351500000000000    0.7756900000000000    0.2121200000000000 C
   0.1252800000000000    0.8150500000000001    0.1837700000000000 C
   0.1246800000000000    0.6851000000000000    0.3163900000000000 C
   0.8743600000000000    0.1161200000000000    0.8874500000000000 C
   0.8754000000000000    0.3838700000000000    0.6126100000000000 C
   0.9649600000000000    0.2889000000000000    0.7219200000000000 C
   0.9648200000000000    0.2243200000000000    0.7877300000000000 C
   0.7850000000000000    0.2756900000000000    0.7122800000000000 C
   0.7848200000000000    0.2111500000000000    0.7781000000000000 C
   0.8747400000000000    0.1850000000000000    0.8162400000000000 C
   0.8750599999999999    0.3149600000000000    0.6836300000000000 C
   0.9585399999999999    0.4082100000000000    0.4168900000000000 O
   0.7891600000000000    0.4116800000000000    0.4135000000000000 O
   0.4582900000000000    0.4083800000000000    0.4168000000000000 O
   0.2889100000000000    0.4116700000000000    0.4135600000000000 O
   0.4607700000000000    0.0881900000000000    0.0862900000000000 O
   0.2916500000000000    0.0915500000000000    0.0830100000000000 O
   0.0417000000000000    0.5916600000000000    0.5832000000000001 O
   0.2110800000000000    0.5883600000000000    0.5864600000000000 O
   0.0391700000000000    0.9118700000000000    0.9137000000000000 O
   0.2083000000000000    0.9085100000000000    0.9169800000000000 O
   0.7915800000000000    0.0914900000000000    0.0830500000000000 O
   0.9606800000000000    0.0880800000000000    0.0863100000000000 O
   0.7108700000000000    0.5883800000000000    0.5864900000000000 O
   0.5414800000000000    0.5918300000000000    0.5831300000000000 O
   0.5393900000000000    0.9119500000000000    0.9137000000000000 O
   0.7084900000000000    0.9085299999999999    0.9169700000000000 O
   0.4587400000000000    0.0919800000000000    0.9169800000000000 O
   0.2894100000000000    0.0879600000000000    0.9133599999999999 O
   0.2914400000000000    0.4082600000000000    0.5829100000000000 O
   0.4605500000000000    0.4121900000000000    0.5864000000000000 O
   0.7104700000000000    0.9120700000000000    0.0866400000000000 O
   0.5411300000000000    0.9079700000000001    0.0830100000000000 O
   0.5399000000000000    0.5876400000000001    0.4135200000000000 O
   0.7089299999999999    0.5917200000000000    0.4170700000000000 O
   0.0413000000000000    0.9080600000000000    0.0830400000000000 O
   0.2106400000000000    0.9120300000000000    0.0866200000000000 O
   0.2085800000000000    0.5917800000000000    0.4171100000000000 O
   0.0394800000000000    0.5878400000000000    0.4136000000000000 O
   0.7894800000000000    0.0879900000000000    0.9133800000000000 O
   0.9588200000000000    0.0920600000000000    0.9169800000000000 O
   0.9600900000000000    0.4123800000000000    0.5864800000000000 O
   0.7910600000000000    0.4083100000000000    0.5829200000000000 O
