H4 C6 N1 O3
1.0
  27.9624446112436296    0.0000000000000000   -1.7950184854568858
   1.3139519931576071   20.5179003051715334    0.0538258926453164
   0.0000000000000000    0.0000000000000000   20.5609999999999999
H C N O
4 6 1 3
direct
   0.6025150000000000    0.3913600000000000    0.8293100000000000 H
   0.5665300000000000    0.3497700000000000    0.6359000000000000 H
   0.5748750000000000    0.5103900000000000    0.8128000000000000 H
   0.5354050000000000    0.4681500000000000    0.6127000000000000 H
   0.5535800000000000    0.4985400000000000    0.7109799999999999 C
   0.5871700000000000    0.4118400000000000    0.7830100000000000 C
   0.5664450000000000    0.3883800000000000    0.6720900000000000 C
   0.5401899999999999    0.5699600000000000    0.6970800000000000 C
   0.5719250000000000    0.4764700000000000    0.7725000000000000 C
   0.5500950000000000    0.4525500000000000    0.6609600000000000 C
   0.5854200000000001    0.3692800000000000    0.7324900000000000 N
   0.5166700000000000    0.5858600000000000    0.6454500000000000 O
   0.6039950000000001    0.3084500000000000    0.7419000000000000 O
   0.5564100000000000    0.6087200000000000    0.7418300000000000 O
