H6 O4
1.0
  27.3206250925619827    0.0000000000000000   -7.1786453145194846
  -9.3983749738716522   25.6641418962547441   -7.2650374107367925
   0.0000000000000000    0.0000000000000000   28.2439999999999998
H O
6 4
direct
   0.2236076575631691    0.3992954742600874    0.8309598299379710 H
   0.1207115607403800    0.3807945737414460    0.8139981286808574 H
   0.1006060264109182    0.2763729388564384    0.6691335716088466 H
   0.1193377632516241    0.3792741486612580    0.6860257185885897 H
   0.2211726598584417    0.3119614566571596    0.6456443564737543 H
   0.1879822371408054    0.2786715176626882    0.8544649710796864 H
   0.2113550000000000    0.4258050000000000    0.8215550000000000 O
   0.1258450000000000    0.4131100000000000    0.8067700000000000 O
   0.0740700000000000    0.2886700000000000    0.6785500000000000 O
   0.0869750000000000    0.3741500000000000    0.6932650000000000 O
