H6 C3 N6
1.0
  27.3206250925619827    0.0000000000000000   -7.1786453145194846
  -9.3983749738716522   25.6641418962547441   -7.2650374107367925
   0.0000000000000000    0.0000000000000000   28.2439999999999998
H C N
6 3 6
direct
   0.2872200000000000    0.0532650000000000    0.4107500000000000 H
   0.2538100000000000    0.8819000000000000    0.4855900000000000 H
   0.2538150000000000    0.9855499999999999    0.3817650000000000 H
   0.3728750000000000    0.0878250000000000    0.6272250000000000 H
   0.3728700000000000    0.1272000000000000    0.5878800000000000 H
   0.2872450000000000    0.9109000000000000    0.5533500000000000 H
   0.2973650000000000    0.0117400000000000    0.4597750000000000 C
   0.3398700000000000    0.0486650000000000    0.5486450000000000 C
   0.2973850000000000    0.9598599999999999    0.5117400000000000 C
   0.2817750000000000    0.0166400000000000    0.4128650000000000 N
   0.2834100000000000    0.9629950000000000    0.4629350000000000 N
   0.3262700000000000    0.0018500000000000    0.5553200000000000 N
   0.3262200000000000    0.0553200000000000    0.5018049999999999 N
   0.3685700000000000    0.0910050000000000    0.5910100000000000 N
   0.2817950000000000    0.9129900000000000    0.5166800000000000 N
