H1 O1
1.0
  27.3206250925619827    0.0000000000000000   -7.1786453145194846
  -9.3983749738716522   25.6641418962547441   -7.2650374107367925
   0.0000000000000000    0.0000000000000000   28.2439999999999998
H O
1 1
direct
   0.2934158738638690    0.9607503907289281    0.4978785902630500 H
   0.2834100000000000    0.9629950000000000    0.4629350000000000 O
