H7 O4
1.0
  18.9229999884714459    0.0000000000000000    0.0006605373085751
   0.0003307224401436   18.9489999971139049    0.0000000000000012
   0.0000000000000000    0.0000000000000000   18.9469999999999992
H O
7 4
direct
   0.5943111713817718    0.9185053892658093    0.6150290927478301 H
   0.5601782192094585    0.8906697189205262    0.5938577806108056 H
   0.5864603913005976    0.8885175640100411    0.6599134953830120 H
   0.6605053148371786    0.8885691577073728    0.5867251890312097 H
   0.8885044719018551    0.6601082261288531    0.5865153145048181 H
   0.8882113430512653    0.5861807579324767    0.6597778092673100 H
   0.8903580830991314    0.5597122119748432    0.5937880057376889 H
   0.5763900000000000    0.9269200000000000    0.6268800000000000 O
   0.6275400000000000    0.9269900000000000    0.5763800000000000 O
   0.9268700000000000    0.6270400000000000    0.5762400000000000 O
   0.9266600000000000    0.5760100000000000    0.6267700000000000 O
