H6 C8 O3
1.0
  20.6359991953811139    0.0000000000000000    0.0057626582361720
  -0.0040728879218812   15.4989031416952461    0.0546426201169533
   0.0000000000000000    0.0000000000000000   23.7220000000000013
H C O
6 8 3
direct
   0.6518900000000000    0.5735200000000000    0.5195100000000000 H
   0.7091200000000000    0.7580900000000000    0.6079700000000000 H
   0.7109700000000000    0.7540100000000000    0.7124100000000000 H
   0.6633800000000000    0.6288100000000000    0.7640000000000000 H
   0.6130400000000000    0.5081100000000000    0.7098800000000000 H
   0.6104500000000000    0.5134500000000000    0.6054000000000000 H
   0.5930000000000000    0.6855300000000000    0.5181600000000000 C
   0.6562800000000000    0.6401000000000000    0.5357400000000000 C
   0.6597100000000000    0.6360700000000000    0.5998000000000000 C
   0.6879999999999999    0.7034400000000000    0.6303600000000000 C
   0.6891699999999999    0.7008300000000000    0.6891699999999999 C
   0.6621800000000000    0.6308100000000000    0.7180600000000000 C
   0.6341300000000000    0.5632200000000001    0.6877799999999999 C
   0.6328600000000000    0.5659100000000000    0.6289000000000000 C
   0.7102100000000000    0.6819700000000000    0.5105600000000000 O
   0.5997400000000001    0.7521700000000000    0.4863500000000000 O
   0.5401800000000000    0.6554600000000000    0.5354100000000001 O
