H6 O4
1.0
  20.6359991953811139    0.0000000000000000    0.0057626582361720
  -0.0040728879218812   15.4989031416952461    0.0546426201169533
   0.0000000000000000    0.0000000000000000   23.7220000000000013
H O
6 4
direct
   0.0266230103839714    0.1096109571940085    1.0623675137176269 H
   0.2108541720676469    0.0471780599569086    1.0675329071913398 H
   0.1196044808297528    0.0707781609175581    1.0717260472047372 H
   0.2111083734718837    0.8416498207292283    0.3817777735068202 H
   0.0401394118252410    0.9491468465183412    0.3920742047698956 H
   0.1238678059075840    0.9019459212848803    0.3790373745141492 H
   0.0691400000000000    0.1150400000000000    1.0452699999999999 O
   0.1757700000000000    0.0779500000000000    1.0491400000000000 O
   0.1731400000000000    0.8512400000000000    0.4050400000000000 O
   0.0736900000000000    0.9146200000000000    0.4097800000000000 O
