P1 O4
1.0
  20.6490000000000009    0.0000000000000000    0.0000000000000013
  -0.0789577352177449   13.7087720139752260    0.0040675421219691
   0.0000000000000000    0.0000000000000000   29.8240000000000016
P O
1 4
direct
   0.6298300000000000    0.0906300000000000    0.1942500000000000 P
   0.6722200000000000    0.1330900000000000    0.1563650000000000 O
   0.6556800000000000    0.1282200000000000    0.2399000000000000 O
   0.6356700000000000    0.9792200000000000    0.1938000000000000 O
   0.5591699999999999    0.1224400000000000    0.1875650000000000 O
