Al64 P63 O252 F16
1.0
  20.6490000000000009    0.0000000000000000    0.0000000000000013
  -0.0789577352177449   13.7087720139752260    0.0040675421219691
   0.0000000000000000    0.0000000000000000   29.8240000000000016
Al P O F
64 63 252 16
direct
   0.6195000000000001    0.6595800000000001    0.4470400000000000 Al
   0.1122400000000000    0.3858800000000000    0.0480400000000000 Al
   0.6109400000000000    0.3848800000000000    0.0479800000000000 Al
   0.2549500000000000    0.7200500000000000    0.0543250000000000 Al
   0.7547900000000000    0.7198300000000000    0.0542600000000000 Al
   0.0041700000000000    0.3904000000000000    0.3789800000000000 Al
   0.5036500000000000    0.3896900000000000    0.3793000000000000 Al
   0.1317300000000000    0.8402800000000000    0.1973150000000000 Al
   0.6315100000000000    0.8404700000000001    0.1969900000000000 Al
   0.1397700000000000    0.1151100000000000    0.2979500000000000 Al
   0.6401200000000000    0.1156400000000000    0.2979050000000000 Al
   0.4964200000000000    0.7791400000000001    0.3042350000000000 Al
   0.9964100000000000    0.7790899999999999    0.3041200000000000 Al
   0.2467300000000000    0.1087100000000000    0.1290000000000000 Al
   0.7468000000000000    0.1091500000000000    0.1290400000000000 Al
   0.3824500000000000    0.3400600000000000    0.0532000000000000 Al
   0.8815400000000000    0.3401600000000000    0.0527600000000000 Al
   0.3902200000000000    0.6156199999999999    0.4521900000000000 Al
   0.8897100000000000    0.6149400000000000    0.4520000000000000 Al
   0.2462500000000000    0.2796600000000000    0.4460700000000000 Al
   0.7462100000000000    0.2787100000000000    0.4459150000000000 Al
   0.4968900000000000    0.6093499999999999    0.1210300000000000 Al
   0.9968399999999999    0.6089100000000000    0.1209700000000000 Al
   0.3693900000000000    0.1600300000000000    0.3026100000000000 Al
   0.8694900000000000    0.1596900000000000    0.3029300000000000 Al
   0.3620900000000000    0.8853799999999999    0.2020300000000000 Al
   0.8620400000000000    0.8856300000000000    0.2020000000000000 Al
   0.0049300000000000    0.2200400000000000    0.1957050000000000 Al
   0.5049000000000000    0.2201100000000000    0.1957950000000000 Al
   0.2542200000000000    0.8911000000000000    0.3711950000000000 Al
   0.7537900000000000    0.8897400000000000    0.3707400000000000 Al
   0.1194800000000000    0.6600200000000001    0.4470700000000000 Al
   0.6195000000000001    0.6595800000000001    0.9470400000000000 Al
   0.1122400000000000    0.3858800000000000    0.5480400000000000 Al
   0.6109400000000000    0.3848800000000000    0.5479800000000000 Al
   0.2549500000000000    0.7200500000000000    0.5543250000000000 Al
   0.7547900000000000    0.7198300000000000    0.5542600000000000 Al
   0.0041700000000000    0.3904000000000000    0.8789800000000000 Al
   0.5036500000000000    0.3896900000000000    0.8793000000000000 Al
   0.1317300000000000    0.8402800000000000    0.6973150000000000 Al
   0.6315100000000000    0.8404700000000001    0.6969900000000000 Al
   0.1397700000000000    0.1151100000000000    0.7979499999999999 Al
   0.6401200000000000    0.1156400000000000    0.7979050000000000 Al
   0.4964200000000000    0.7791400000000001    0.8042350000000000 Al
   0.9964100000000000    0.7790899999999999    0.8041199999999999 Al
   0.2467300000000000    0.1087100000000000    0.6290000000000000 Al
   0.7468000000000000    0.1091500000000000    0.6290400000000000 Al
   0.3824500000000000    0.3400600000000000    0.5532000000000000 Al
   0.8815400000000000    0.3401600000000000    0.5527600000000000 Al
   0.3902200000000000    0.6156199999999999    0.9521900000000000 Al
   0.8897100000000000    0.6149400000000000    0.9520000000000000 Al
   0.2462500000000000    0.2796600000000000    0.9460700000000000 Al
   0.7462100000000000    0.2787100000000000    0.9459150000000001 Al
   0.4968900000000000    0.6093499999999999    0.6210300000000000 Al
   0.9968399999999999    0.6089100000000000    0.6209700000000000 Al
   0.3693900000000000    0.1600300000000000    0.8026100000000000 Al
   0.8694900000000000    0.1596900000000000    0.8029299999999999 Al
   0.3620900000000000    0.8853799999999999    0.7020299999999999 Al
   0.8620400000000000    0.8856300000000000    0.7020000000000000 Al
   0.0049300000000000    0.2200400000000000    0.6957050000000000 Al
   0.5049000000000000    0.2201100000000000    0.6957949999999999 Al
   0.2542200000000000    0.8911000000000000    0.8711949999999999 Al
   0.7537900000000000    0.8897400000000000    0.8707400000000001 Al
   0.1194800000000000    0.6600200000000001    0.9470700000000001 Al
   0.1156400000000000    0.6176300000000000    0.0535650000000000 P
   0.6152000000000000    0.6172200000000000    0.0535000000000000 P
   0.1211200000000000    0.4095800000000000    0.4443250000000000 P
   0.6211100000000001    0.4087400000000000    0.4443400000000000 P
   0.2609100000000000    0.7356000000000000    0.4497350000000000 P
   0.7608400000000000    0.7356800000000000    0.4496850000000000 P
   0.0039100000000000    0.6247900000000000    0.3822050000000000 P
   0.5035100000000000    0.6248200000000000    0.3825200000000000 P
   0.1354400000000000    0.8829900000000001    0.3039750000000000 P
   0.6359500000000000    0.8823000000000000    0.3037000000000000 P
   0.1298600000000000    0.0904900000000000    0.1943050000000000 P
   0.4908300000000000    0.7644400000000000    0.1996200000000000 P
   0.9907899999999999    0.7645000000000000    0.1995100000000000 P
   0.2478200000000000    0.8743900000000000    0.1324000000000000 P
   0.7479200000000000    0.8748200000000000    0.1322250000000000 P
   0.3865100000000000    0.3823800000000000    0.4468800000000000 P
   0.8852900000000000    0.3828100000000000    0.4461400000000000 P
   0.3798700000000000    0.5905500000000000    0.0558400000000000 P
   0.8798800000000000    0.5904400000000000    0.0557300000000000 P
   0.2406500000000000    0.2641400000000000    0.0503850000000000 P
   0.7401500000000000    0.2648100000000000    0.0505300000000000 P
   0.4974700000000000    0.3750000000000000    0.1180000000000000 P
   0.9978900000000001    0.3744700000000000    0.1175950000000000 P
   0.3657300000000000    0.1168500000000000    0.1962350000000000 P
   0.8656400000000000    0.1173800000000000    0.1964350000000000 P
   0.3710800000000000    0.9093500000000000    0.3057450000000000 P
   0.8711800000000000    0.9091200000000000    0.3056850000000000 P
   0.0108600000000000    0.2356100000000000    0.3002950000000000 P
   0.5108200000000001    0.2357000000000000    0.3003250000000000 P
   0.2541500000000000    0.1255600000000000    0.3676600000000000 P
   0.7534900000000000    0.1248100000000000    0.3675150000000000 P
   0.1156400000000000    0.6176300000000000    0.5535650000000000 P
   0.6152000000000000    0.6172200000000000    0.5535000000000000 P
   0.1211200000000000    0.4095800000000000    0.9443250000000001 P
   0.6211100000000001    0.4087400000000000    0.9443400000000000 P
   0.2609100000000000    0.7356000000000000    0.9497350000000000 P
   0.7608400000000000    0.7356800000000000    0.9496850000000000 P
   0.0039100000000000    0.6247900000000000    0.8822050000000000 P
   0.5035100000000000    0.6248200000000000    0.8825200000000000 P
   0.1354400000000000    0.8829900000000001    0.8039750000000000 P
   0.6359500000000000    0.8823000000000000    0.8037000000000001 P
   0.1298600000000000    0.0904900000000000    0.6943049999999999 P
   0.6298300000000000    0.0906300000000000    0.6942500000000000 P
   0.4908300000000000    0.7644400000000000    0.6996200000000000 P
   0.9907899999999999    0.7645000000000000    0.6995100000000000 P
   0.2478200000000000    0.8743900000000000    0.6324000000000000 P
   0.7479200000000000    0.8748200000000000    0.6322250000000000 P
   0.3865100000000000    0.3823800000000000    0.9468799999999999 P
   0.8852900000000000    0.3828100000000000    0.9461400000000000 P
   0.3798700000000000    0.5905500000000000    0.5558400000000000 P
   0.8798800000000000    0.5904400000000000    0.5557300000000001 P
   0.2406500000000000    0.2641400000000000    0.5503850000000000 P
   0.7401500000000000    0.2648100000000000    0.5505300000000000 P
   0.4974700000000000    0.3750000000000000    0.6180000000000000 P
   0.9978900000000001    0.3744700000000000    0.6175950000000000 P
   0.3657300000000000    0.1168500000000000    0.6962349999999999 P
   0.8656400000000000    0.1173800000000000    0.6964350000000000 P
   0.3710800000000000    0.9093500000000000    0.8057449999999999 P
   0.8711800000000000    0.9091200000000000    0.8056850000000000 P
   0.0108600000000000    0.2356100000000000    0.8002950000000000 P
   0.5108200000000001    0.2357000000000000    0.8003250000000000 P
   0.2541500000000000    0.1255600000000000    0.8676600000000000 P
   0.7534900000000000    0.1248100000000000    0.8675150000000000 P
   0.0782700000000000    0.3667800000000000    0.4067850000000000 O
   0.5782800000000000    0.3668500000000000    0.4065750000000000 O
   0.0949600000000000    0.3741800000000000    0.4902200000000000 O
   0.5948400000000000    0.3722000000000000    0.4900350000000000 O
   0.1166400000000000    0.5211300000000000    0.4434550000000000 O
   0.6167500000000000    0.5203700000000000    0.4438500000000000 O
   0.2061900000000000    0.6615600000000000    0.4414900000000000 O
   0.7062500000000000    0.6613800000000000    0.4414450000000000 O
   0.2528000000000000    0.8292400000000000    0.4219500000000000 O
   0.7526800000000000    0.8293199999999999    0.4218900000000000 O
   0.2640900000000000    0.7656400000000000    0.4997250000000000 O
   0.7639200000000000    0.7656500000000001    0.4996850000000000 O
   0.3255200000000000    0.6877000000000000    0.4356900000000000 O
   0.8256000000000000    0.6882200000000001    0.4356400000000000 O
   0.4609900000000000    0.6485500000000000    0.4236450000000000 O
   0.9610100000000000    0.6450700000000000    0.4235000000000000 O
   0.4973000000000000    0.5159899999999999    0.3705450000000000 O
   0.9995900000000000    0.5164500000000000    0.3690000000000000 O
   0.4806500000000000    0.6839400000000000    0.3418950000000000 O
   0.9801400000000000    0.6849000000000000    0.3421600000000000 O
   0.0745000000000000    0.6526800000000000    0.3938300000000000 O
   0.5745400000000001    0.6506999999999999    0.3938600000000000 O
   0.1330500000000000    0.5086700000000000    0.0583500000000000 O
   0.6311500000000000    0.5078400000000000    0.0583050000000000 O
   0.0923000000000000    0.6362400000000000    0.0050850000000000 O
   0.5921100000000000    0.6363400000000000    0.0050300000000000 O
   0.0612100000000000    0.6454100000000000    0.0860400000000000 O
   0.5610700000000000    0.6460800000000000    0.0860150000000000 O
   0.1757800000000000    0.6789300000000000    0.0643750000000000 O
   0.6759900000000000    0.6770699999999999    0.0643000000000000 O
   0.1913200000000000    0.3760300000000000    0.4375950000000000 O
   0.6913200000000000    0.3752300000000000    0.4374800000000000 O
   0.1722800000000000    0.1330700000000000    0.1564200000000000 O
   0.1556900000000000    0.1278100000000000    0.2399850000000000 O
   0.1356900000000000    0.9790700000000000    0.1938450000000000 O
   0.0449000000000000    0.8397300000000000    0.1913100000000000 O
   0.5446100000000000    0.8401999999999999    0.1913400000000000 O
   0.4997700000000000    0.6711800000000000    0.1717550000000000 O
   0.9995700000000000    0.6711800000000000    0.1716350000000000 O
   0.4884600000000000    0.7339500000000000    0.2495500000000000 O
   0.9881700000000000    0.7340000000000000    0.2494550000000000 O
   0.4253900000000000    0.8103000000000000    0.1859000000000000 O
   0.9256300000000000    0.8111699999999999    0.1857600000000000 O
   0.2909400000000000    0.8549900000000000    0.1736850000000000 O
   0.7909500000000000    0.8550100000000000    0.1735100000000000 O
   0.2521200000000000    0.9827300000000000    0.1189000000000000 O
   0.7524700000000000    0.9831600000000000    0.1188450000000000 O
   0.2718200000000000    0.8135000000000000    0.0926550000000000 O
   0.7715500000000000    0.8137100000000000    0.0924350000000000 O
   0.1774400000000000    0.8461400000000000    0.1443800000000000 O
   0.6773300000000000    0.8473500000000000    0.1440600000000000 O
   0.1191800000000000    0.9923000000000000    0.3084450000000000 O
   0.6218200000000000    0.9922100000000000    0.3085400000000000 O
   0.1586900000000000    0.8642200000000000    0.2554650000000000 O
   0.6584900000000000    0.8627700000000000    0.2551500000000000 O
   0.1893800000000000    0.8544700000000000    0.3366800000000000 O
   0.6895400000000000    0.8509500000000000    0.3361950000000000 O
   0.0748400000000000    0.8227000000000000    0.3145600000000000 O
   0.5743500000000000    0.8246300000000000    0.3145600000000000 O
   0.0592200000000000    0.1223100000000000    0.1875850000000000 O
   0.4222300000000000    0.6331200000000000    0.0937400000000000 O
   0.9223000000000000    0.6330700000000000    0.0935800000000000 O
   0.4057700000000000    0.6280400000000000    0.0102050000000000 O
   0.9057300000000000    0.6274300000000000    0.0099900000000000 O
   0.3856900000000000    0.4790600000000000    0.0563350000000000 O
   0.8855700000000000    0.4789700000000000    0.0562950000000000 O
   0.2955400000000000    0.3381900000000000    0.0582150000000000 O
   0.7946299999999999    0.3395400000000000    0.0585500000000000 O
   0.2492700000000000    0.1708100000000000    0.0782500000000000 O
   0.7489600000000000    0.1714400000000000    0.0783950000000000 O
   0.2366400000000000    0.2335900000000000    0.0005000000000000 O
   0.7368100000000000    0.2342400000000000    0.0006200000000000 O
   0.1760500000000000    0.3120100000000000    0.0644850000000000 O
   0.6752000000000000    0.3118800000000000    0.0644800000000000 O
   0.0411500000000000    0.3550000000000000    0.0764000000000000 O
   0.5394300000000000    0.3546200000000000    0.0762250000000000 O
   0.0021700000000000    0.4828300000000000    0.1310200000000000 O
   0.5026400000000000    0.4833500000000000    0.1311700000000000 O
   0.0217700000000000    0.3136500000000000    0.1574350000000000 O
   0.5218200000000000    0.3139600000000000    0.1576200000000000 O
   0.4264700000000000    0.3481200000000000    0.1069550000000000 O
   0.9275300000000000    0.3461100000000000    0.1055950000000000 O
   0.3719900000000000    0.4921000000000000    0.4416350000000000 O
   0.8690700000000000    0.4921200000000000    0.4414900000000000 O
   0.4105100000000000    0.3638000000000000    0.4952350000000000 O
   0.9085800000000001    0.3644600000000000    0.4946650000000000 O
   0.4393100000000000    0.3507000000000000    0.4138100000000000 O
   0.9393000000000000    0.3541000000000000    0.4135350000000000 O
   0.3247000000000000    0.3243300000000000    0.4372050000000000 O
   0.8247300000000000    0.3223100000000000    0.4356050000000000 O
   0.3091800000000000    0.6222400000000000    0.0624700000000000 O
   0.8092800000000000    0.6224499999999999    0.0624300000000000 O
   0.3282100000000000    0.8668500000000000    0.3433400000000000 O
   0.8283700000000001    0.8668300000000000    0.3433650000000000 O
   0.3447900000000000    0.8742200000000000    0.2598550000000000 O
   0.8449200000000000    0.8735600000000000    0.2598450000000000 O
   0.3668300000000000    0.0209200000000000    0.3065850000000000 O
   0.8667899999999999    0.0206800000000000    0.3064100000000000 O
   0.4560400000000000    0.1617300000000000    0.3085400000000000 O
   0.9562400000000000    0.1613400000000000    0.3085250000000000 O
   0.0026500000000000    0.3291600000000000    0.3280950000000000 O
   0.5027199999999999    0.3293000000000000    0.3281450000000000 O
   0.0140200000000000    0.2656400000000000    0.2503050000000000 O
   0.5140600000000000    0.2658100000000000    0.2503500000000000 O
   0.0755900000000000    0.1881400000000000    0.3143850000000000 O
   0.5753900000000000    0.1876900000000000    0.3143750000000000 O
   0.2110400000000000    0.1453200000000000    0.3263700000000000 O
   0.7109500000000000    0.1485000000000000    0.3263850000000000 O
   0.2497900000000000    0.0172100000000000    0.3810200000000000 O
   0.7474300000000000    0.0159700000000000    0.3794950000000000 O
   0.2305200000000000    0.1862700000000000    0.4075550000000000 O
   0.7305300000000000    0.1837400000000000    0.4081450000000000 O
   0.3245800000000000    0.1537200000000000    0.3557850000000000 O
   0.8245000000000000    0.1508900000000000    0.3561600000000000 O
   0.3832900000000000    0.0079800000000000    0.1913900000000000 O
   0.8829700000000000    0.0083700000000000    0.1916450000000000 O
   0.3420600000000000    0.1340500000000000    0.2447800000000000 O
   0.8423000000000000    0.1358800000000000    0.2449200000000000 O
   0.3113300000000000    0.1449900000000000    0.1638250000000000 O
   0.8112300000000000    0.1453600000000000    0.1639500000000000 O
   0.4257600000000000    0.1786300000000000    0.1857500000000000 O
   0.9258100000000000    0.1786600000000000    0.1856500000000000 O
   0.4411900000000000    0.8752700000000000    0.3124250000000000 O
   0.9413800000000000    0.8754400000000000    0.3123950000000000 O
   0.0782700000000000    0.3667800000000000    0.9067850000000000 O
   0.5782800000000000    0.3668500000000000    0.9065750000000000 O
   0.0949600000000000    0.3741800000000000    0.9902200000000000 O
   0.5948400000000000    0.3722000000000000    0.9900350000000000 O
   0.1166400000000000    0.5211300000000000    0.9434549999999999 O
   0.6167500000000000    0.5203700000000000    0.9438500000000001 O
   0.2061900000000000    0.6615600000000000    0.9414899999999999 O
   0.7062500000000000    0.6613800000000000    0.9414450000000000 O
   0.2528000000000000    0.8292400000000000    0.9219500000000000 O
   0.7526800000000000    0.8293199999999999    0.9218900000000000 O
   0.2640900000000000    0.7656400000000000    0.9997250000000000 O
   0.7639200000000000    0.7656500000000001    0.9996849999999999 O
   0.3255200000000000    0.6877000000000000    0.9356900000000000 O
   0.8256000000000000    0.6882200000000001    0.9356400000000000 O
   0.4609900000000000    0.6485500000000000    0.9236450000000000 O
   0.9610100000000000    0.6450700000000000    0.9235000000000000 O
   0.4973000000000000    0.5159899999999999    0.8705450000000000 O
   0.9995900000000000    0.5164500000000000    0.8690000000000000 O
   0.4806500000000000    0.6839400000000000    0.8418950000000001 O
   0.9801400000000000    0.6849000000000000    0.8421600000000000 O
   0.0745000000000000    0.6526800000000000    0.8938300000000000 O
   0.5745400000000001    0.6506999999999999    0.8938600000000000 O
   0.1330500000000000    0.5086700000000000    0.5583500000000000 O
   0.6311500000000000    0.5078400000000000    0.5583050000000001 O
   0.0923000000000000    0.6362400000000000    0.5050850000000000 O
   0.5921100000000000    0.6363400000000000    0.5050300000000000 O
   0.0612100000000000    0.6454100000000000    0.5860400000000000 O
   0.5610700000000000    0.6460800000000000    0.5860150000000000 O
   0.1757800000000000    0.6789300000000000    0.5643750000000000 O
   0.6759900000000000    0.6770699999999999    0.5643000000000000 O
   0.1913200000000000    0.3760300000000000    0.9375950000000000 O
   0.6913200000000000    0.3752300000000000    0.9374800000000000 O
   0.1722800000000000    0.1330700000000000    0.6564200000000000 O
   0.6722200000000000    0.1330900000000000    0.6563650000000000 O
   0.1556900000000000    0.1278100000000000    0.7399850000000000 O
   0.6556800000000000    0.1282200000000000    0.7399000000000000 O
   0.1356900000000000    0.9790700000000000    0.6938450000000000 O
   0.6356700000000000    0.9792200000000000    0.6938000000000000 O
   0.0449000000000000    0.8397300000000000    0.6913100000000000 O
   0.5446100000000000    0.8401999999999999    0.6913400000000001 O
   0.4997700000000000    0.6711800000000000    0.6717550000000000 O
   0.9995700000000000    0.6711800000000000    0.6716350000000000 O
   0.4884600000000000    0.7339500000000000    0.7495499999999999 O
   0.9881700000000000    0.7340000000000000    0.7494550000000000 O
   0.4253900000000000    0.8103000000000000    0.6859000000000000 O
   0.9256300000000000    0.8111699999999999    0.6857600000000000 O
   0.2909400000000000    0.8549900000000000    0.6736850000000000 O
   0.7909500000000000    0.8550100000000000    0.6735100000000001 O
   0.2521200000000000    0.9827300000000000    0.6189000000000000 O
   0.7524700000000000    0.9831600000000000    0.6188450000000000 O
   0.2718200000000000    0.8135000000000000    0.5926550000000000 O
   0.7715500000000000    0.8137100000000000    0.5924350000000000 O
   0.1774400000000000    0.8461400000000000    0.6443800000000000 O
   0.6773300000000000    0.8473500000000000    0.6440600000000000 O
   0.1191800000000000    0.9923000000000000    0.8084450000000001 O
   0.6218200000000000    0.9922100000000000    0.8085400000000000 O
   0.1586900000000000    0.8642200000000000    0.7554650000000001 O
   0.6584900000000000    0.8627700000000000    0.7551500000000000 O
   0.1893800000000000    0.8544700000000000    0.8366800000000000 O
   0.6895400000000000    0.8509500000000000    0.8361950000000000 O
   0.0748400000000000    0.8227000000000000    0.8145600000000000 O
   0.5743500000000000    0.8246300000000000    0.8145600000000000 O
   0.0592200000000000    0.1223100000000000    0.6875850000000000 O
   0.5591699999999999    0.1224400000000000    0.6875650000000000 O
   0.4222300000000000    0.6331200000000000    0.5937400000000000 O
   0.9223000000000000    0.6330700000000000    0.5935800000000000 O
   0.4057700000000000    0.6280400000000000    0.5102050000000000 O
   0.9057300000000000    0.6274300000000000    0.5099900000000001 O
   0.3856900000000000    0.4790600000000000    0.5563350000000000 O
   0.8855700000000000    0.4789700000000000    0.5562950000000000 O
   0.2955400000000000    0.3381900000000000    0.5582150000000000 O
   0.7946299999999999    0.3395400000000000    0.5585500000000000 O
   0.2492700000000000    0.1708100000000000    0.5782500000000000 O
   0.7489600000000000    0.1714400000000000    0.5783950000000000 O
   0.2366400000000000    0.2335900000000000    0.5004999999999999 O
   0.7368100000000000    0.2342400000000000    0.5006200000000000 O
   0.1760500000000000    0.3120100000000000    0.5644850000000000 O
   0.6752000000000000    0.3118800000000000    0.5644800000000000 O
   0.0411500000000000    0.3550000000000000    0.5764000000000000 O
   0.5394300000000000    0.3546200000000000    0.5762250000000000 O
   0.0021700000000000    0.4828300000000000    0.6310200000000000 O
   0.5026400000000000    0.4833500000000000    0.6311700000000000 O
   0.0217700000000000    0.3136500000000000    0.6574350000000000 O
   0.5218200000000000    0.3139600000000000    0.6576200000000000 O
   0.4264700000000000    0.3481200000000000    0.6069550000000000 O
   0.9275300000000000    0.3461100000000000    0.6055950000000000 O
   0.3719900000000000    0.4921000000000000    0.9416350000000000 O
   0.8690700000000000    0.4921200000000000    0.9414899999999999 O
   0.4105100000000000    0.3638000000000000    0.9952350000000000 O
   0.9085800000000001    0.3644600000000000    0.9946650000000000 O
   0.4393100000000000    0.3507000000000000    0.9138100000000000 O
   0.9393000000000000    0.3541000000000000    0.9135350000000000 O
   0.3247000000000000    0.3243300000000000    0.9372050000000001 O
   0.8247300000000000    0.3223100000000000    0.9356050000000000 O
   0.3091800000000000    0.6222400000000000    0.5624700000000000 O
   0.8092800000000000    0.6224499999999999    0.5624300000000000 O
   0.3282100000000000    0.8668500000000000    0.8433400000000000 O
   0.8283700000000001    0.8668300000000000    0.8433649999999999 O
   0.3447900000000000    0.8742200000000000    0.7598549999999999 O
   0.8449200000000000    0.8735600000000000    0.7598450000000000 O
   0.3668300000000000    0.0209200000000000    0.8065850000000000 O
   0.8667899999999999    0.0206800000000000    0.8064100000000001 O
   0.4560400000000000    0.1617300000000000    0.8085400000000000 O
   0.9562400000000000    0.1613400000000000    0.8085249999999999 O
   0.0026500000000000    0.3291600000000000    0.8280950000000000 O
   0.5027199999999999    0.3293000000000000    0.8281450000000000 O
   0.0140200000000000    0.2656400000000000    0.7503050000000000 O
   0.5140600000000000    0.2658100000000000    0.7503500000000001 O
   0.0755900000000000    0.1881400000000000    0.8143850000000000 O
   0.5753900000000000    0.1876900000000000    0.8143750000000001 O
   0.2110400000000000    0.1453200000000000    0.8263700000000000 O
   0.7109500000000000    0.1485000000000000    0.8263849999999999 O
   0.2497900000000000    0.0172100000000000    0.8810200000000000 O
   0.7474300000000000    0.0159700000000000    0.8794950000000000 O
   0.2305200000000000    0.1862700000000000    0.9075550000000000 O
   0.7305300000000000    0.1837400000000000    0.9081450000000000 O
   0.3245800000000000    0.1537200000000000    0.8557850000000000 O
   0.8245000000000000    0.1508900000000000    0.8561600000000000 O
   0.3832900000000000    0.0079800000000000    0.6913899999999999 O
   0.8829700000000000    0.0083700000000000    0.6916450000000001 O
   0.3420600000000000    0.1340500000000000    0.7447800000000000 O
   0.8423000000000000    0.1358800000000000    0.7449200000000000 O
   0.3113300000000000    0.1449900000000000    0.6638250000000000 O
   0.8112300000000000    0.1453600000000000    0.6639500000000000 O
   0.4257600000000000    0.1786300000000000    0.6857500000000000 O
   0.9258100000000000    0.1786600000000000    0.6856500000000000 O
   0.4411900000000000    0.8752700000000000    0.8124250000000000 O
   0.9413800000000000    0.8754400000000000    0.8123950000000000 O
   0.8552500000000000    0.2824300000000000    0.2969800000000000 F
   0.1052900000000000    0.7827800000000000    0.4530650000000000 F
   0.6052700000000000    0.7823700000000000    0.4529900000000000 F
   0.1447500000000000    0.7175200000000000    0.2048800000000000 F
   0.6447100000000000    0.7173800000000000    0.2030300000000000 F
   0.3974200000000000    0.2175500000000000    0.0470050000000000 F
   0.8947100000000000    0.2174800000000000    0.0451300000000000 F
   0.3552900000000000    0.2824600000000000    0.2950550000000000 F
   0.8552500000000000    0.2824300000000000    0.7969800000000000 F
   0.1052900000000000    0.7827800000000000    0.9530650000000001 F
   0.6052700000000000    0.7823700000000000    0.9529900000000000 F
   0.1447500000000000    0.7175200000000000    0.7048800000000000 F
   0.6447100000000000    0.7173800000000000    0.7030300000000000 F
   0.3974200000000000    0.2175500000000000    0.5470050000000000 F
   0.8947100000000000    0.2174800000000000    0.5451300000000000 F
   0.3552900000000000    0.2824600000000000    0.7950550000000001 F
