H1 C1 O2
1.0
  10.0859944697321726    0.0000000000000000   -0.0105620325709421
  -0.0028675965892439   11.5948037764075398   -0.2256682598312030
   0.0000000000000000    0.0000000000000000   14.7929999999999993
H C O
1 1 2
direct
   0.2061800000000000    0.5041000000000000    0.5122100000000001 H
   0.2240900000000000    0.4308800000000000    0.5570400000000000 C
   0.3456100000000000    0.3973200000000000    0.5625900000000000 O
   0.1260000000000000    0.3896300000000000    0.5972600000000000 O
