H6 O4
1.0
  31.9635480181380167    0.0000000000000000   18.3131057467646734
  10.6250455941766351   30.1667911957280239   18.3028854303089048
   0.0000000000000000    0.0000000000000000   36.8500000000000014
H O
6 4
direct
   0.9432080488358199    0.3595401662461982    0.2535773935617621 H
   0.9432076410602357    0.2535780341432052    0.3595403429131335 H
   0.9470914306182586    0.3026668452176335    0.3026677879326047 H
   0.0567860832648835    0.1404558399605833    0.2464126618368949 H
   0.0567862743636208    0.2464170440856804    0.1404510747319868 H
   0.0529018544018025    0.1973289305578008    0.1973239305578008 H
   0.9332750000000001    0.3473350000000000    0.2856900000000000 O
   0.9332750000000001    0.2856900000000000    0.3473350000000000 O
   0.0667200000000000    0.1526600000000000    0.2143000000000000 O
   0.0667200000000000    0.2143050000000000    0.1526550000000000 O
