Zn64 H188 C376 O204
1.0
  31.9635480181380167    0.0000000000000000   18.3131057467646734
  10.6250455941766351   30.1667911957280239   18.3028854303089048
   0.0000000000000000    0.0000000000000000   36.8500000000000014
Zn H C O
64 188 376 204
direct
   0.1902300000000000    0.1033700000000000    0.1033700000000000 Zn
   0.1030750000000000    0.1031750000000000    0.1031700000000000 Zn
   0.1033600000000000    0.1033500000000000    0.1901800000000000 Zn
   0.3097600000000000    0.3966250000000000    0.3966200000000000 Zn
   0.3966350000000000    0.3098150000000000    0.3966450000000000 Zn
   0.3969200000000000    0.3968200000000000    0.3968200000000000 Zn
   0.3966350000000000    0.3966450000000000    0.3098100000000000 Zn
   0.1033600000000000    0.1901850000000000    0.1033450000000000 Zn
   0.6902300000000000    0.1033700000000000    0.1033700000000000 Zn
   0.6030750000000000    0.1031750000000000    0.1031700000000000 Zn
   0.6033600000000000    0.1033500000000000    0.1901800000000000 Zn
   0.8097600000000000    0.3966250000000000    0.3966200000000000 Zn
   0.8966350000000001    0.3098150000000000    0.3966450000000000 Zn
   0.8969199999999999    0.3968200000000000    0.3968200000000000 Zn
   0.8966350000000001    0.3966450000000000    0.3098100000000000 Zn
   0.6033600000000000    0.1901850000000000    0.1033450000000000 Zn
   0.1902300000000000    0.6033700000000000    0.1033700000000000 Zn
   0.1030750000000000    0.6031750000000000    0.1031700000000000 Zn
   0.1033600000000000    0.6033500000000001    0.1901800000000000 Zn
   0.3097600000000000    0.8966250000000000    0.3966200000000000 Zn
   0.3966350000000000    0.8098150000000000    0.3966450000000000 Zn
   0.3969200000000000    0.8968200000000000    0.3968200000000000 Zn
   0.3966350000000000    0.8966450000000000    0.3098100000000000 Zn
   0.1033600000000000    0.6901850000000000    0.1033450000000000 Zn
   0.6902300000000000    0.6033700000000000    0.1033700000000000 Zn
   0.6030750000000000    0.6031750000000000    0.1031700000000000 Zn
   0.6033600000000000    0.6033500000000001    0.1901800000000000 Zn
   0.8097600000000000    0.8966250000000000    0.3966200000000000 Zn
   0.8966350000000001    0.8098150000000000    0.3966450000000000 Zn
   0.8969199999999999    0.8968200000000000    0.3968200000000000 Zn
   0.8966350000000001    0.8966450000000000    0.3098100000000000 Zn
   0.6033600000000000    0.6901850000000000    0.1033450000000000 Zn
   0.1902300000000000    0.1033700000000000    0.6033700000000000 Zn
   0.1030750000000000    0.1031750000000000    0.6031700000000000 Zn
   0.1033600000000000    0.1033500000000000    0.6901800000000000 Zn
   0.3097600000000000    0.3966250000000000    0.8966200000000000 Zn
   0.3966350000000000    0.3098150000000000    0.8966450000000000 Zn
   0.3969200000000000    0.3968200000000000    0.8968200000000000 Zn
   0.3966350000000000    0.3966450000000000    0.8098099999999999 Zn
   0.1033600000000000    0.1901850000000000    0.6033450000000000 Zn
   0.6902300000000000    0.1033700000000000    0.6033700000000000 Zn
   0.6030750000000000    0.1031750000000000    0.6031700000000000 Zn
   0.6033600000000000    0.1033500000000000    0.6901800000000000 Zn
   0.8097600000000000    0.3966250000000000    0.8966200000000000 Zn
   0.8966350000000001    0.3098150000000000    0.8966450000000000 Zn
   0.8969199999999999    0.3968200000000000    0.8968200000000000 Zn
   0.8966350000000001    0.3966450000000000    0.8098099999999999 Zn
   0.6033600000000000    0.1901850000000000    0.6033450000000000 Zn
   0.1902300000000000    0.6033700000000000    0.6033700000000000 Zn
   0.1030750000000000    0.6031750000000000    0.6031700000000000 Zn
   0.1033600000000000    0.6033500000000001    0.6901800000000000 Zn
   0.3097600000000000    0.8966250000000000    0.8966200000000000 Zn
   0.3966350000000000    0.8098150000000000    0.8966450000000000 Zn
   0.3969200000000000    0.8968200000000000    0.8968200000000000 Zn
   0.3966350000000000    0.8966450000000000    0.8098099999999999 Zn
   0.1033600000000000    0.6901850000000000    0.6033450000000000 Zn
   0.6902300000000000    0.6033700000000000    0.6033700000000000 Zn
   0.6030750000000000    0.6031750000000000    0.6031700000000000 Zn
   0.6033600000000000    0.6033500000000001    0.6901800000000000 Zn
   0.8097600000000000    0.8966250000000000    0.8966200000000000 Zn
   0.8966350000000001    0.8098150000000000    0.8966450000000000 Zn
   0.8969199999999999    0.8968200000000000    0.8968200000000000 Zn
   0.8966350000000001    0.8966450000000000    0.8098099999999999 Zn
   0.6033600000000000    0.6901850000000000    0.6033450000000000 Zn
   0.0242950000000000    0.2839050000000000    0.0243050000000000 H
   0.2841050000000000    0.0240900000000000    0.1678550000000000 H
   0.0237700000000000    0.1678750000000000    0.0237950000000000 H
   0.1678050000000000    0.0241400000000000    0.2840250000000000 H
   0.0237750000000000    0.0238000000000000    0.1678650000000000 H
   0.2841050000000000    0.1678650000000000    0.0240850000000000 H
   0.0243000000000000    0.0243050000000000    0.2839000000000000 H
   0.1678050000000000    0.2840250000000000    0.0241450000000000 H
   0.2839550000000000    0.0242750000000000    0.0242750000000000 H
   0.1678200000000000    0.0238250000000000    0.0238200000000000 H
   0.2160350000000000    0.4757200000000000    0.4757200000000000 H
   0.4758800000000000    0.2159750000000000    0.3321350000000000 H
   0.3321700000000000    0.4761750000000000    0.4761700000000000 H
   0.4758800000000000    0.3321350000000000    0.2159700000000000 H
   0.4762200000000000    0.4762000000000000    0.3321250000000000 H
   0.3321850000000000    0.2159700000000000    0.4758450000000000 H
   0.4756950000000000    0.4756950000000000    0.2160900000000000 H
   0.2158900000000000    0.3321350000000000    0.4759050000000000 H
   0.3321900000000000    0.4758600000000000    0.2159650000000000 H
   0.4756950000000000    0.2160900000000000    0.4756500000000000 H
   0.2158850000000000    0.4759100000000000    0.3321350000000000 H
   0.4762200000000000    0.3321250000000000    0.4762000000000000 H
   0.5242950000000000    0.2839050000000000    0.0243050000000000 H
   0.7841050000000001    0.0240900000000000    0.1678550000000000 H
   0.5237700000000000    0.1678750000000000    0.0237950000000000 H
   0.6678050000000000    0.0241400000000000    0.2840250000000000 H
   0.5237750000000000    0.0238000000000000    0.1678650000000000 H
   0.7841050000000001    0.1678650000000000    0.0240850000000000 H
   0.5243000000000000    0.0243050000000000    0.2839000000000000 H
   0.6678050000000000    0.2840250000000000    0.0241450000000000 H
   0.5241150000000000    0.1678600000000000    0.2840200000000000 H
   0.7839550000000000    0.0242750000000000    0.0242750000000000 H
   0.5241150000000000    0.2840200000000000    0.1678550000000000 H
   0.6678200000000000    0.0238250000000000    0.0238200000000000 H
   0.7160350000000000    0.4757200000000000    0.4757200000000000 H
   0.8321700000000001    0.4761750000000000    0.4761700000000000 H
   0.9762200000000000    0.4762000000000000    0.3321250000000000 H
   0.8321850000000000    0.2159700000000000    0.4758450000000000 H
   0.9756950000000000    0.4756950000000000    0.2160900000000000 H
   0.7158900000000000    0.3321350000000000    0.4759050000000000 H
   0.8321900000000000    0.4758600000000000    0.2159650000000000 H
   0.9756950000000000    0.2160900000000000    0.4756500000000000 H
   0.7158850000000000    0.4759100000000000    0.3321350000000000 H
   0.9762200000000000    0.3321250000000000    0.4762000000000000 H
   0.0242950000000000    0.7839050000000001    0.0243050000000000 H
   0.2841050000000000    0.5240899999999999    0.1678550000000000 H
   0.0237700000000000    0.6678750000000000    0.0237950000000000 H
   0.1678050000000000    0.5241400000000001    0.2840250000000000 H
   0.0237750000000000    0.5238000000000000    0.1678650000000000 H
   0.2841050000000000    0.6678649999999999    0.0240850000000000 H
   0.0243000000000000    0.5243050000000000    0.2839000000000000 H
   0.1678050000000000    0.7840250000000000    0.0241450000000000 H
   0.0241150000000000    0.6678600000000000    0.2840200000000000 H
   0.2839550000000000    0.5242750000000000    0.0242750000000000 H
   0.0241150000000000    0.7840199999999999    0.1678550000000000 H
   0.1678200000000000    0.5238250000000000    0.0238200000000000 H
   0.2160350000000000    0.9757199999999999    0.4757200000000000 H
   0.4758800000000000    0.7159750000000000    0.3321350000000000 H
   0.3321700000000000    0.9761750000000000    0.4761700000000000 H
   0.4758800000000000    0.8321350000000001    0.2159700000000000 H
   0.4762200000000000    0.9762000000000000    0.3321250000000000 H
   0.3321850000000000    0.7159700000000000    0.4758450000000000 H
   0.4756950000000000    0.9756950000000000    0.2160900000000000 H
   0.2158900000000000    0.8321350000000001    0.4759050000000000 H
   0.3321900000000000    0.9758599999999999    0.2159650000000000 H
   0.4756950000000000    0.7160900000000000    0.4756500000000000 H
   0.2158850000000000    0.9759100000000001    0.3321350000000000 H
   0.4762200000000000    0.8321250000000000    0.4762000000000000 H
   0.5242950000000000    0.7839050000000001    0.0243050000000000 H
   0.7841050000000001    0.5240899999999999    0.1678550000000000 H
   0.5237700000000000    0.6678750000000000    0.0237950000000000 H
   0.6678050000000000    0.5241400000000001    0.2840250000000000 H
   0.5237750000000000    0.5238000000000000    0.1678650000000000 H
   0.7841050000000001    0.6678649999999999    0.0240850000000000 H
   0.5243000000000000    0.5243050000000000    0.2839000000000000 H
   0.6678050000000000    0.7840250000000000    0.0241450000000000 H
   0.5241150000000000    0.6678600000000000    0.2840200000000000 H
   0.7839550000000000    0.5242750000000000    0.0242750000000000 H
   0.5241150000000000    0.7840199999999999    0.1678550000000000 H
   0.6678200000000000    0.5238250000000000    0.0238200000000000 H
   0.7160350000000000    0.9757199999999999    0.4757200000000000 H
   0.9758800000000001    0.7159750000000000    0.3321350000000000 H
   0.8321700000000001    0.9761750000000000    0.4761700000000000 H
   0.9758800000000001    0.8321350000000001    0.2159700000000000 H
   0.9762200000000000    0.9762000000000000    0.3321250000000000 H
   0.8321850000000000    0.7159700000000000    0.4758450000000000 H
   0.9756950000000000    0.9756950000000000    0.2160900000000000 H
   0.7158900000000000    0.8321350000000001    0.4759050000000000 H
   0.8321900000000000    0.9758599999999999    0.2159650000000000 H
   0.9756950000000000    0.7160900000000000    0.4756500000000000 H
   0.7158850000000000    0.9759100000000001    0.3321350000000000 H
   0.9762200000000000    0.8321250000000000    0.4762000000000000 H
   0.0242950000000000    0.2839050000000000    0.5243050000000000 H
   0.2841050000000000    0.0240900000000000    0.6678550000000000 H
   0.0237700000000000    0.1678750000000000    0.5237950000000000 H
   0.1678050000000000    0.0241400000000000    0.7840250000000000 H
   0.0237750000000000    0.0238000000000000    0.6678649999999999 H
   0.2841050000000000    0.1678650000000000    0.5240850000000000 H
   0.0243000000000000    0.0243050000000000    0.7839000000000000 H
   0.1678050000000000    0.2840250000000000    0.5241450000000000 H
   0.0241150000000000    0.1678600000000000    0.7840199999999999 H
   0.2839550000000000    0.0242750000000000    0.5242750000000000 H
   0.0241150000000000    0.2840200000000000    0.6678550000000000 H
   0.1678200000000000    0.0238250000000000    0.5238200000000000 H
   0.2160350000000000    0.4757200000000000    0.9757199999999999 H
   0.4758800000000000    0.2159750000000000    0.8321350000000001 H
   0.3321700000000000    0.4761750000000000    0.9761700000000000 H
   0.4758800000000000    0.3321350000000000    0.7159700000000000 H
   0.4762200000000000    0.4762000000000000    0.8321250000000000 H
   0.3321850000000000    0.2159700000000000    0.9758450000000001 H
   0.4756950000000000    0.4756950000000000    0.7160900000000000 H
   0.2158900000000000    0.3321350000000000    0.9759050000000000 H
   0.3321900000000000    0.4758600000000000    0.7159650000000000 H
   0.4756950000000000    0.2160900000000000    0.9756500000000000 H
   0.2158850000000000    0.4759100000000000    0.8321350000000001 H
   0.4762200000000000    0.3321250000000000    0.9762000000000000 H
   0.5242950000000000    0.2839050000000000    0.5243050000000000 H
   0.7841050000000001    0.0240900000000000    0.6678550000000000 H
   0.5237700000000000    0.1678750000000000    0.5237950000000000 H
   0.6678050000000000    0.0241400000000000    0.7840250000000000 H
   0.5237750000000000    0.0238000000000000    0.6678649999999999 H
   0.7841050000000001    0.1678650000000000    0.5240850000000000 H
   0.5243000000000000    0.0243050000000000    0.7839000000000000 H
   0.6678050000000000    0.2840250000000000    0.5241450000000000 H
   0.5241150000000000    0.1678600000000000    0.7840199999999999 H
   0.7839550000000000    0.0242750000000000    0.5242750000000000 H
   0.5241150000000000    0.2840200000000000    0.6678550000000000 H
   0.6678200000000000    0.0238250000000000    0.5238200000000000 H
   0.7160350000000000    0.4757200000000000    0.9757199999999999 H
   0.9758800000000001    0.2159750000000000    0.8321350000000001 H
   0.8321700000000001    0.4761750000000000    0.9761700000000000 H
   0.9758800000000001    0.3321350000000000    0.7159700000000000 H
   0.9762200000000000    0.4762000000000000    0.8321250000000000 H
   0.8321850000000000    0.2159700000000000    0.9758450000000001 H
   0.9756950000000000    0.4756950000000000    0.7160900000000000 H
   0.7158900000000000    0.3321350000000000    0.9759050000000000 H
   0.8321900000000000    0.4758600000000000    0.7159650000000000 H
   0.9756950000000000    0.2160900000000000    0.9756500000000000 H
   0.7158850000000000    0.4759100000000000    0.8321350000000001 H
   0.9762200000000000    0.3321250000000000    0.9762000000000000 H
   0.0242950000000000    0.7839050000000001    0.5243050000000000 H
   0.2841050000000000    0.5240899999999999    0.6678550000000000 H
   0.0237700000000000    0.6678750000000000    0.5237950000000000 H
   0.1678050000000000    0.5241400000000001    0.7840250000000000 H
   0.0237750000000000    0.5238000000000000    0.6678649999999999 H
   0.2841050000000000    0.6678649999999999    0.5240850000000000 H
   0.0243000000000000    0.5243050000000000    0.7839000000000000 H
   0.1678050000000000    0.7840250000000000    0.5241450000000000 H
   0.0241150000000000    0.6678600000000000    0.7840199999999999 H
   0.2839550000000000    0.5242750000000000    0.5242750000000000 H
   0.0241150000000000    0.7840199999999999    0.6678550000000000 H
   0.1678200000000000    0.5238250000000000    0.5238200000000000 H
   0.2160350000000000    0.9757199999999999    0.9757199999999999 H
   0.4758800000000000    0.7159750000000000    0.8321350000000001 H
   0.3321700000000000    0.9761750000000000    0.9761700000000000 H
   0.4758800000000000    0.8321350000000001    0.7159700000000000 H
   0.4762200000000000    0.9762000000000000    0.8321250000000000 H
   0.3321850000000000    0.7159700000000000    0.9758450000000001 H
   0.4756950000000000    0.9756950000000000    0.7160900000000000 H
   0.2158900000000000    0.8321350000000001    0.9759050000000000 H
   0.3321900000000000    0.9758599999999999    0.7159650000000000 H
   0.4756950000000000    0.7160900000000000    0.9756500000000000 H
   0.2158850000000000    0.9759100000000001    0.8321350000000001 H
   0.4762200000000000    0.8321250000000000    0.9762000000000000 H
   0.5242950000000000    0.7839050000000001    0.5243050000000000 H
   0.7841050000000001    0.5240899999999999    0.6678550000000000 H
   0.5237700000000000    0.6678750000000000    0.5237950000000000 H
   0.6678050000000000    0.5241400000000001    0.7840250000000000 H
   0.5237750000000000    0.5238000000000000    0.6678649999999999 H
   0.7841050000000001    0.6678649999999999    0.5240850000000000 H
   0.5243000000000000    0.5243050000000000    0.7839000000000000 H
   0.6678050000000000    0.7840250000000000    0.5241450000000000 H
   0.5241150000000000    0.6678600000000000    0.7840199999999999 H
   0.7839550000000000    0.5242750000000000    0.5242750000000000 H
   0.5241150000000000    0.7840199999999999    0.6678550000000000 H
   0.6678200000000000    0.5238250000000000    0.5238200000000000 H
   0.7160350000000000    0.9757199999999999    0.9757199999999999 H
   0.9758800000000001    0.7159750000000000    0.8321350000000001 H
   0.8321700000000001    0.9761750000000000    0.9761700000000000 H
   0.9758800000000001    0.8321350000000001    0.7159700000000000 H
   0.9762200000000000    0.9762000000000000    0.8321250000000000 H
   0.8321850000000000    0.7159700000000000    0.9758450000000001 H
   0.9756950000000000    0.9756950000000000    0.7160900000000000 H
   0.7158900000000000    0.8321350000000001    0.9759050000000000 H
   0.8321900000000000    0.9758599999999999    0.7159650000000000 H
   0.9756950000000000    0.7160900000000000    0.9756500000000000 H
   0.7158850000000000    0.9759100000000001    0.8321350000000001 H
   0.9762200000000000    0.8321250000000000    0.9762000000000000 H
   0.0134600000000000    0.2694350000000000    0.0134650000000000 C
   0.2695550000000000    0.0133450000000000    0.2038400000000000 C
   0.0131650000000000    0.2038500000000000    0.0131800000000000 C
   0.2038100000000000    0.0133750000000000    0.2695100000000000 C
   0.0131650000000000    0.0131850000000000    0.2038450000000000 C
   0.2695550000000000    0.2038450000000000    0.0133500000000000 C
   0.0134600000000000    0.0134650000000000    0.2694300000000000 C
   0.2038150000000000    0.2695100000000000    0.0133800000000000 C
   0.2694600000000000    0.0134500000000000    0.0134500000000000 C
   0.2038200000000000    0.0131950000000000    0.0131950000000000 C
   0.2305350000000000    0.4865500000000000    0.4865450000000000 C
   0.4866300000000000    0.2304900000000000    0.2961500000000000 C
   0.2961750000000000    0.4868000000000000    0.4867950000000000 C
   0.4866300000000000    0.2961550000000000    0.2304850000000000 C
   0.4868300000000000    0.4868150000000000    0.2961450000000000 C
   0.2961800000000000    0.2304850000000000    0.4866150000000000 C
   0.4865350000000000    0.4865350000000000    0.2305600000000000 C
   0.2304400000000000    0.2961550000000000    0.4866450000000000 C
   0.2961800000000000    0.4866200000000000    0.2304500000000000 C
   0.4865350000000000    0.2305650000000000    0.4865250000000000 C
   0.2304400000000000    0.4866500000000000    0.2961500000000000 C
   0.4868300000000000    0.2961500000000000    0.4868100000000000 C
   0.0554550000000000    0.1944150000000000    0.0554950000000000 C
   0.0268050000000000    0.2231150000000000    0.0268000000000000 C
   0.1945550000000000    0.0556350000000000    0.1945350000000000 C
   0.2232000000000000    0.0269050000000000    0.2231850000000000 C
   0.0554550000000000    0.0555000000000000    0.1944100000000000 C
   0.0268000000000000    0.0268250000000000    0.2231100000000000 C
   0.1945550000000000    0.1945350000000000    0.0556350000000000 C
   0.2232000000000000    0.2231900000000000    0.0268900000000000 C
   0.1944050000000000    0.0554950000000000    0.0554950000000000 C
   0.2231100000000000    0.0268250000000000    0.0268200000000000 C
   0.3055900000000000    0.4445000000000000    0.4444950000000000 C
   0.2768850000000000    0.4731700000000000    0.4731700000000000 C
   0.4443700000000000    0.3054650000000000    0.3054500000000000 C
   0.4731050000000000    0.2768100000000000    0.2768050000000000 C
   0.4445400000000000    0.4445000000000000    0.3055800000000000 C
   0.4731900000000000    0.4731700000000000    0.2768850000000000 C
   0.3054400000000000    0.3054600000000000    0.4443550000000000 C
   0.2767900000000000    0.2768100000000000    0.4731000000000000 C
   0.3054400000000000    0.4443600000000000    0.3054500000000000 C
   0.2767950000000000    0.4731000000000000    0.2768050000000000 C
   0.4445400000000000    0.3055850000000000    0.4444950000000000 C
   0.4731850000000000    0.2768850000000000    0.4731700000000000 C
   0.5134600000000000    0.2694350000000000    0.0134650000000000 C
   0.7695550000000000    0.0133450000000000    0.2038400000000000 C
   0.5131650000000000    0.2038500000000000    0.0131800000000000 C
   0.7038100000000000    0.0133750000000000    0.2695100000000000 C
   0.5131650000000000    0.0131850000000000    0.2038450000000000 C
   0.7695550000000000    0.2038450000000000    0.0133500000000000 C
   0.5134600000000000    0.0134650000000000    0.2694300000000000 C
   0.7038150000000000    0.2695100000000000    0.0133800000000000 C
   0.5133650000000000    0.2038450000000000    0.2695100000000000 C
   0.7694600000000000    0.0134500000000000    0.0134500000000000 C
   0.5133650000000000    0.2695100000000000    0.2038400000000000 C
   0.7038200000000000    0.0131950000000000    0.0131950000000000 C
   0.7305349999999999    0.4865500000000000    0.4865450000000000 C
   0.7961750000000001    0.4868000000000000    0.4867950000000000 C
   0.9868300000000000    0.4868150000000000    0.2961450000000000 C
   0.7961800000000000    0.2304850000000000    0.4866150000000000 C
   0.9865349999999999    0.4865350000000000    0.2305600000000000 C
   0.7304400000000000    0.2961550000000000    0.4866450000000000 C
   0.7961800000000000    0.4866200000000000    0.2304500000000000 C
   0.9865349999999999    0.2305650000000000    0.4865250000000000 C
   0.7304400000000000    0.4866500000000000    0.2961500000000000 C
   0.9868300000000000    0.2961500000000000    0.4868100000000000 C
   0.5554550000000000    0.1944150000000000    0.0554950000000000 C
   0.5268050000000000    0.2231150000000000    0.0268000000000000 C
   0.6945550000000000    0.0556350000000000    0.1945350000000000 C
   0.7232000000000001    0.0269050000000000    0.2231850000000000 C
   0.5554550000000000    0.0555000000000000    0.1944100000000000 C
   0.5268000000000000    0.0268250000000000    0.2231100000000000 C
   0.6945550000000000    0.1945350000000000    0.0556350000000000 C
   0.7232000000000001    0.2231900000000000    0.0268900000000000 C
   0.5556250000000000    0.1945300000000000    0.1945300000000000 C
   0.5268900000000000    0.2231900000000000    0.2231850000000000 C
   0.6944049999999999    0.0554950000000000    0.0554950000000000 C
   0.7231100000000000    0.0268250000000000    0.0268200000000000 C
   0.8055900000000000    0.4445000000000000    0.4444950000000000 C
   0.7768850000000000    0.4731700000000000    0.4731700000000000 C
   0.9445399999999999    0.4445000000000000    0.3055800000000000 C
   0.9731900000000000    0.4731700000000000    0.2768850000000000 C
   0.8054399999999999    0.3054600000000000    0.4443550000000000 C
   0.7767900000000000    0.2768100000000000    0.4731000000000000 C
   0.8054399999999999    0.4443600000000000    0.3054500000000000 C
   0.7767950000000000    0.4731000000000000    0.2768050000000000 C
   0.9445399999999999    0.3055850000000000    0.4444950000000000 C
   0.9731850000000000    0.2768850000000000    0.4731700000000000 C
   0.0134600000000000    0.7694350000000000    0.0134650000000000 C
   0.2695550000000000    0.5133450000000001    0.2038400000000000 C
   0.0131650000000000    0.7038500000000000    0.0131800000000000 C
   0.2038100000000000    0.5133750000000000    0.2695100000000000 C
   0.0131650000000000    0.5131850000000000    0.2038450000000000 C
   0.2695550000000000    0.7038450000000001    0.0133500000000000 C
   0.0134600000000000    0.5134649999999999    0.2694300000000000 C
   0.2038150000000000    0.7695100000000000    0.0133800000000000 C
   0.0133650000000000    0.7038450000000001    0.2695100000000000 C
   0.2694600000000000    0.5134500000000000    0.0134500000000000 C
   0.0133650000000000    0.7695100000000000    0.2038400000000000 C
   0.2038200000000000    0.5131950000000000    0.0131950000000000 C
   0.2305350000000000    0.9865500000000000    0.4865450000000000 C
   0.4866300000000000    0.7304900000000000    0.2961500000000000 C
   0.2961750000000000    0.9868000000000000    0.4867950000000000 C
   0.4866300000000000    0.7961549999999999    0.2304850000000000 C
   0.4868300000000000    0.9868150000000000    0.2961450000000000 C
   0.2961800000000000    0.7304850000000001    0.4866150000000000 C
   0.4865350000000000    0.9865349999999999    0.2305600000000000 C
   0.2304400000000000    0.7961549999999999    0.4866450000000000 C
   0.2961800000000000    0.9866200000000001    0.2304500000000000 C
   0.4865350000000000    0.7305650000000000    0.4865250000000000 C
   0.2304400000000000    0.9866500000000000    0.2961500000000000 C
   0.4868300000000000    0.7961500000000000    0.4868100000000000 C
   0.0554550000000000    0.6944150000000000    0.0554950000000000 C
   0.0268050000000000    0.7231150000000000    0.0268000000000000 C
   0.1945550000000000    0.5556350000000000    0.1945350000000000 C
   0.2232000000000000    0.5269050000000000    0.2231850000000000 C
   0.0554550000000000    0.5555000000000000    0.1944100000000000 C
   0.0268000000000000    0.5268250000000000    0.2231100000000000 C
   0.1945550000000000    0.6945350000000000    0.0556350000000000 C
   0.2232000000000000    0.7231900000000000    0.0268900000000000 C
   0.0556250000000000    0.6945300000000000    0.1945300000000000 C
   0.0268900000000000    0.7231900000000000    0.2231850000000000 C
   0.1944050000000000    0.5554950000000000    0.0554950000000000 C
   0.2231100000000000    0.5268250000000000    0.0268200000000000 C
   0.3055900000000000    0.9445000000000000    0.4444950000000000 C
   0.2768850000000000    0.9731700000000000    0.4731700000000000 C
   0.4443700000000000    0.8054650000000000    0.3054500000000000 C
   0.4731050000000000    0.7768100000000000    0.2768050000000000 C
   0.4445400000000000    0.9445000000000000    0.3055800000000000 C
   0.4731900000000000    0.9731700000000000    0.2768850000000000 C
   0.3054400000000000    0.8054600000000001    0.4443550000000000 C
   0.2767900000000000    0.7768100000000000    0.4731000000000000 C
   0.3054400000000000    0.9443600000000000    0.3054500000000000 C
   0.2767950000000000    0.9731000000000001    0.2768050000000000 C
   0.4445400000000000    0.8055850000000000    0.4444950000000000 C
   0.4731850000000000    0.7768850000000000    0.4731700000000000 C
   0.5134600000000000    0.7694350000000000    0.0134650000000000 C
   0.7695550000000000    0.5133450000000001    0.2038400000000000 C
   0.5131650000000000    0.7038500000000000    0.0131800000000000 C
   0.7038100000000000    0.5133750000000000    0.2695100000000000 C
   0.5131650000000000    0.5131850000000000    0.2038450000000000 C
   0.7695550000000000    0.7038450000000001    0.0133500000000000 C
   0.5134600000000000    0.5134649999999999    0.2694300000000000 C
   0.7038150000000000    0.7695100000000000    0.0133800000000000 C
   0.5133650000000000    0.7038450000000001    0.2695100000000000 C
   0.7694600000000000    0.5134500000000000    0.0134500000000000 C
   0.5133650000000000    0.7695100000000000    0.2038400000000000 C
   0.7038200000000000    0.5131950000000000    0.0131950000000000 C
   0.7305349999999999    0.9865500000000000    0.4865450000000000 C
   0.9866300000000000    0.7304900000000000    0.2961500000000000 C
   0.7961750000000001    0.9868000000000000    0.4867950000000000 C
   0.9866300000000000    0.7961549999999999    0.2304850000000000 C
   0.9868300000000000    0.9868150000000000    0.2961450000000000 C
   0.7961800000000000    0.7304850000000001    0.4866150000000000 C
   0.9865349999999999    0.9865349999999999    0.2305600000000000 C
   0.7304400000000000    0.7961549999999999    0.4866450000000000 C
   0.7961800000000000    0.9866200000000001    0.2304500000000000 C
   0.9865349999999999    0.7305650000000000    0.4865250000000000 C
   0.7304400000000000    0.9866500000000000    0.2961500000000000 C
   0.9868300000000000    0.7961500000000000    0.4868100000000000 C
   0.5554550000000000    0.6944150000000000    0.0554950000000000 C
   0.5268050000000000    0.7231150000000000    0.0268000000000000 C
   0.6945550000000000    0.5556350000000000    0.1945350000000000 C
   0.7232000000000001    0.5269050000000000    0.2231850000000000 C
   0.5554550000000000    0.5555000000000000    0.1944100000000000 C
   0.5268000000000000    0.5268250000000000    0.2231100000000000 C
   0.6945550000000000    0.6945350000000000    0.0556350000000000 C
   0.7232000000000001    0.7231900000000000    0.0268900000000000 C
   0.5556250000000000    0.6945300000000000    0.1945300000000000 C
   0.5268900000000000    0.7231900000000000    0.2231850000000000 C
   0.6944049999999999    0.5554950000000000    0.0554950000000000 C
   0.7231100000000000    0.5268250000000000    0.0268200000000000 C
   0.8055900000000000    0.9445000000000000    0.4444950000000000 C
   0.7768850000000000    0.9731700000000000    0.4731700000000000 C
   0.9443699999999999    0.8054650000000000    0.3054500000000000 C
   0.9731050000000000    0.7768100000000000    0.2768050000000000 C
   0.9445399999999999    0.9445000000000000    0.3055800000000000 C
   0.9731900000000000    0.9731700000000000    0.2768850000000000 C
   0.8054399999999999    0.8054600000000001    0.4443550000000000 C
   0.7767900000000000    0.7768100000000000    0.4731000000000000 C
   0.8054399999999999    0.9443600000000000    0.3054500000000000 C
   0.7767950000000000    0.9731000000000001    0.2768050000000000 C
   0.9445399999999999    0.8055850000000000    0.4444950000000000 C
   0.9731850000000000    0.7768850000000000    0.4731700000000000 C