H6 C12 N6
1.0
  36.1539998017635185    0.0000000000000000   -0.0037860380196724
 -18.1252514776317746   31.3331853965365923    0.0442241887828901
   0.0000000000000000    0.0000000000000000   38.2580000000000027
H C N
6 12 6
direct
   0.4321950000000000    0.3283250000000000    0.2167750000000000 H
   0.3978650000000000    0.3601700000000000    0.2527700000000000 H
   0.2716850000000000    0.2629900000000000    0.2193900000000000 H
   0.3293100000000000    0.4324050000000000    0.2834200000000000 H
   0.3607850000000000    0.3979050000000000    0.2472300000000000 H
   0.2624200000000000    0.2719600000000000    0.2800100000000000 H
   0.3257900000000000    0.2590000000000000    0.1994150000000000 C
   0.3706950000000000    0.2772150000000000    0.1983350000000000 C
   0.3976100000000000    0.3144200000000000    0.2173600000000000 C
   0.3781100000000000    0.3318900000000000    0.2370600000000000 C
   0.3327250000000000    0.3135600000000000    0.2386100000000000 C
   0.3062900000000000    0.2769800000000000    0.2194100000000000 C
   0.2590150000000000    0.3261600000000000    0.3003000000000000 C
   0.2776050000000000    0.3710400000000000    0.3016050000000000 C
   0.3150450000000000    0.3978300000000000    0.2826650000000000 C
   0.3323050000000000    0.3782250000000000    0.2628400000000000 C
   0.3135550000000000    0.3328650000000000    0.2610500000000000 C
   0.2767550000000000    0.3065550000000000    0.2801500000000000 C
   0.3790350000000000    0.2520700000000000    0.1769400000000000 N
   0.3413850000000000    0.2201850000000000    0.1656150000000000 N
   0.3087850000000000    0.2236200000000000    0.1785800000000000 N
   0.2525450000000000    0.3794600000000000    0.3230950000000000 N
   0.2204100000000000    0.3418550000000000    0.3343100000000000 N
   0.2235700000000000    0.3092350000000000    0.3211600000000000 N
