H2 O2
1.0
  28.0779984561748641    0.0000000000000000    0.0093110172294762
   0.0034386009284066   14.0679991597912259   -0.0034374608341818
   0.0000000000000000    0.0000000000000000   29.5820000000000007
H O
2 2
direct
   0.2936372364719426    0.8142274969537772    0.8061482210861606 H
   0.3430844316801129    0.9126291474070851    0.8060257473388404 H
   0.3214300000000000    0.7880300000000000    0.8217350000000000 O
   0.3561400000000000    0.8571000000000000    0.8216200000000000 O
