H6 C4 N3
1.0
  28.0779984561748641    0.0000000000000000    0.0093110172294762
   0.0034386009284066   14.0679991597912259   -0.0034374608341818
   0.0000000000000000    0.0000000000000000   29.5820000000000007
H C N
6 4 3
direct
   0.2385950000000000    0.7045700000000000    0.8120800000000000 H
   0.2080300000000000    0.8146500000000000    0.8047750000000000 H
   0.2329100000000000    0.7574600000000000    0.7570450000000000 H
   0.3983250000000000    0.0219800000000000    0.8116099999999999 H
   0.3432700000000000    0.0834900000000000    0.8045850000000000 H
   0.3715400000000000    0.0335500000000000    0.7567100000000000 H
   0.2834500000000000    0.8238300000000000    0.8004350000000000 C
   0.2382400000000000    0.7715100000000000    0.7932150000000000 C
   0.3382950000000000    0.9330000000000001    0.8003050000000000 C
   0.3646800000000000    0.0230000000000000    0.7929200000000001 C
   0.3214300000000000    0.7880300000000000    0.8217350000000000 N
   0.3561400000000000    0.8571000000000000    0.8216200000000000 N
   0.2929550000000000    0.9142500000000000    0.7863450000000001 N
