H6 O4
1.0
  28.0779984561748641    0.0000000000000000    0.0093110172294762
   0.0034386009284066   14.0679991597912259   -0.0034374608341818
   0.0000000000000000    0.0000000000000000   29.5820000000000007
H O
6 4
direct
   0.2909272288470834    0.3654767506126041    0.5346756587607381 H
   0.2329079795721764    0.2638210642772631    0.6291300743625744 H
   0.2752869368343230    0.2873187773620942    0.5849413589686391 H
   0.1826189152669736    0.5811383067662688    0.5346736762787772 H
   0.1318898290837544    0.4655190085616306    0.6292081038033310 H
   0.1435124425185051    0.5500625392066871    0.5849974105784052 H
   0.2611700000000000    0.3828300000000000    0.5491600000000000 O
   0.2251100000000000    0.3165800000000000    0.6093650000000000 O
   0.1913900000000000    0.5218000000000000    0.5491450000000000 O
   0.1583150000000000    0.4499200000000000    0.6094200000000000 O
