H6 O4
1.0
  35.3479992247316090    0.0000000000000000   -0.0074032677538176
  -0.0399497923069582   15.6769461727753612   -0.0095765337436380
   0.0000000000000000    0.0000000000000000   38.8879999999999981
H O
6 4
direct
   0.3043403117965644    0.0220073120741312    0.3506157545611500 H
   0.2577657859837400    0.0045104020578676    0.3475671739755538 H
   0.1350916615428213    0.0059322481379802    0.4891439879823317 H
   0.2720006818371558    0.9863956196367053    0.5161324357412254 H
   0.2453267957360765    0.7081231380170350    0.4472292955965039 H
   0.2107635276112569    0.7228104661249050    0.4758941351365639 H
   0.2816750000000000    0.0186700000000000    0.3362200000000000 O
   0.1347275000000000    0.0000000000000000    0.5141900000000000 O
   0.2928125000000000    0.9471300000000000    0.5113050000000000 O
   0.2255975000000000    0.6834000000000000    0.4618200000000000 O
