Zn32 H378 C465 N124 O128
1.0
  35.3479992247316090    0.0000000000000000   -0.0074032677538176
  -0.0399497923069582   15.6769461727753612   -0.0095765337436380
   0.0000000000000000    0.0000000000000000   38.8879999999999981
Zn H C N O
32 378 465 124 128
direct
   0.2152750000000000    0.5530000000000000    0.4624100000000000 Zn
   0.4652750000000000    0.5530000000000000    0.4624100000000000 Zn
   0.9652750000000000    0.5530000000000000    0.4624100000000000 Zn
   0.7152750000000000    0.5530000000000000    0.4624100000000000 Zn
   0.1608025000000000    0.4471100000000000    0.2123050000000000 Zn
   0.4108025000000000    0.4471100000000000    0.2123050000000000 Zn
   0.6608025000000000    0.4471100000000000    0.2123050000000000 Zn
   0.9108025000000000    0.4471100000000000    0.2123050000000000 Zn
   0.7152750000000000    0.5530000000000000    0.9624100000000000 Zn
   0.9652750000000000    0.5530000000000000    0.9624100000000000 Zn
   0.2152750000000000    0.5530000000000000    0.9624100000000000 Zn
   0.4652750000000000    0.5530000000000000    0.9624100000000000 Zn
   0.4108025000000000    0.4471100000000000    0.7123050000000000 Zn
   0.1608025000000000    0.4471100000000000    0.7123050000000000 Zn
   0.6608025000000000    0.4471100000000000    0.7123050000000000 Zn
   0.9108025000000000    0.4471100000000000    0.7123050000000000 Zn
   0.7845625000000001    0.0527000000000000    0.7862549999999999 Zn
   0.5345625000000001    0.0527000000000000    0.7862549999999999 Zn
   0.2845625000000000    0.0527000000000000    0.7862549999999999 Zn
   0.0345625000000000    0.0527000000000000    0.7862549999999999 Zn
   0.8403275000000000    0.9473300000000000    0.0362500000000000 Zn
   0.0903275000000000    0.9473300000000000    0.0362500000000000 Zn
   0.5903275000000000    0.9473300000000000    0.0362500000000000 Zn
   0.3403275000000000    0.9473300000000000    0.0362500000000000 Zn
   0.7845625000000001    0.0527000000000000    0.2862550000000000 Zn
   0.5345625000000001    0.0527000000000000    0.2862550000000000 Zn
   0.2845625000000000    0.0527000000000000    0.2862550000000000 Zn
   0.0345625000000000    0.0527000000000000    0.2862550000000000 Zn
   0.5903275000000000    0.9473300000000000    0.5362500000000000 Zn
   0.3403275000000000    0.9473300000000000    0.5362500000000000 Zn
   0.8403275000000000    0.9473300000000000    0.5362500000000000 Zn
   0.0903275000000000    0.9473300000000000    0.5362500000000000 Zn
   0.2453267957360765    0.7081231380170350    0.4472292955965039 H
   0.2107635276112569    0.7228104661249050    0.4758941351365639 H
   0.0536925000000000    0.4885300000000000    0.5565200000000000 H
   0.0395750000000000    0.3886200000000000    0.5395050000000000 H
   0.0746675000000000    0.4206800000000000    0.4835900000000000 H
   0.0935150000000000    0.5321100000000000    0.6011200000000000 H
   0.2139800000000000    0.4880500000000000    0.5919850000000000 H
   0.2154200000000000    0.4665700000000000    0.6557550000000000 H
   0.0997175000000000    0.5054400000000000    0.6638200000000000 H
   0.0682525000000000    0.6341900000000000    0.5011000000000000 H
   0.1582625000000000    0.6742000000000000    0.5751900000000000 H
   0.0580150000000000    0.7910000000000000    0.5017300000000000 H
   0.1441725000000000    0.8280999999999999    0.5725800000000000 H
   0.1781150000000000    0.5274200000000000    0.5425300000000000 H
   0.3036925000000000    0.4885300000000000    0.5565200000000000 H
   0.2895750000000000    0.3886200000000000    0.5395050000000000 H
   0.3246675000000000    0.4206800000000000    0.4835900000000000 H
   0.3435150000000000    0.5321100000000000    0.6011200000000000 H
   0.4639800000000000    0.4880500000000000    0.5919850000000000 H
   0.4654200000000000    0.4665700000000000    0.6557550000000000 H
   0.3497175000000000    0.5054400000000000    0.6638200000000000 H
   0.3182525000000000    0.6341900000000000    0.5011000000000000 H
   0.4082625000000000    0.6742000000000000    0.5751900000000000 H
   0.3080150000000000    0.7910000000000000    0.5017300000000000 H
   0.3941725000000000    0.8280999999999999    0.5725800000000000 H
   0.4281150000000000    0.5274200000000000    0.5425300000000000 H
   0.8036925000000000    0.4885300000000000    0.5565200000000000 H
   0.7895750000000000    0.3886200000000000    0.5395050000000000 H
   0.8246675000000000    0.4206800000000000    0.4835900000000000 H
   0.8435150000000000    0.5321100000000000    0.6011200000000000 H
   0.9639800000000001    0.4880500000000000    0.5919850000000000 H
   0.9654199999999999    0.4665700000000000    0.6557550000000000 H
   0.8497175000000000    0.5054400000000000    0.6638200000000000 H
   0.8182525000000000    0.6341900000000000    0.5011000000000000 H
   0.9082625000000000    0.6742000000000000    0.5751900000000000 H
   0.8080150000000000    0.7910000000000000    0.5017300000000000 H
   0.8941725000000000    0.8280999999999999    0.5725800000000000 H
   0.9281150000000000    0.5274200000000000    0.5425300000000000 H
   0.5536925000000000    0.4885300000000000    0.5565200000000000 H
   0.5395750000000000    0.3886200000000000    0.5395050000000000 H
   0.5746675000000000    0.4206800000000000    0.4835900000000000 H
   0.5935150000000000    0.5321100000000000    0.6011200000000000 H
   0.7139800000000001    0.4880500000000000    0.5919850000000000 H
   0.7154199999999999    0.4665700000000000    0.6557550000000000 H
   0.5997175000000000    0.5054400000000000    0.6638200000000000 H
   0.5682525000000000    0.6341900000000000    0.5011000000000000 H
   0.6582625000000000    0.6742000000000000    0.5751900000000000 H
   0.5580150000000000    0.7910000000000000    0.5017300000000000 H
   0.6441725000000000    0.8280999999999999    0.5725800000000000 H
   0.6781150000000000    0.5274200000000000    0.5425300000000000 H
   0.3221525000000000    0.5113400000000000    0.3063950000000000 H
   0.3362625000000000    0.6112400000000000    0.2894250000000000 H
   0.3011025000000000    0.5790700000000000    0.2334850000000000 H
   0.2822950000000000    0.4685500000000000    0.3510450000000000 H
   0.1617800000000000    0.5121400000000000    0.3421450000000000 H
   0.1604700000000000    0.5333000000000000    0.4059550000000000 H
   0.2762250000000000    0.4949200000000000    0.4137850000000000 H
   0.3072700000000000    0.3654800000000000    0.2511700000000000 H
   0.2171425000000000    0.3266500000000000    0.3251900000000000 H
   0.3171300000000000    0.2085400000000000    0.2517500000000000 H
   0.2308600000000000    0.1725900000000000    0.3225450000000000 H
   0.1976025000000000    0.4729500000000000    0.2926050000000000 H
   0.5721525000000000    0.5113400000000000    0.3063950000000000 H
   0.5862625000000000    0.6112400000000000    0.2894250000000000 H
   0.5511025000000001    0.5790700000000000    0.2334850000000000 H
   0.5322950000000000    0.4685500000000000    0.3510450000000000 H
   0.4117800000000000    0.5121400000000000    0.3421450000000000 H
   0.4104700000000000    0.5333000000000000    0.4059550000000000 H
   0.5262249999999999    0.4949200000000000    0.4137850000000000 H
   0.5572700000000000    0.3654800000000000    0.2511700000000000 H
   0.4671425000000000    0.3266500000000000    0.3251900000000000 H
   0.5671300000000000    0.2085400000000000    0.2517500000000000 H
   0.4808600000000000    0.1725900000000000    0.3225450000000000 H
   0.4476025000000000    0.4729500000000000    0.2926050000000000 H
   0.8221525000000000    0.5113400000000000    0.3063950000000000 H
   0.8362625000000000    0.6112400000000000    0.2894250000000000 H
   0.8011025000000001    0.5790700000000000    0.2334850000000000 H
   0.7822950000000000    0.4685500000000000    0.3510450000000000 H
   0.6617800000000000    0.5121400000000000    0.3421450000000000 H
   0.6604700000000000    0.5333000000000000    0.4059550000000000 H
   0.7762249999999999    0.4949200000000000    0.4137850000000000 H
   0.8072700000000000    0.3654800000000000    0.2511700000000000 H
   0.7171425000000000    0.3266500000000000    0.3251900000000000 H
   0.8171300000000000    0.2085400000000000    0.2517500000000000 H
   0.7308600000000001    0.1725900000000000    0.3225450000000000 H
   0.6976025000000000    0.4729500000000000    0.2926050000000000 H
   0.0721525000000000    0.5113400000000000    0.3063950000000000 H
   0.0862625000000000    0.6112400000000000    0.2894250000000000 H
   0.0511025000000000    0.5790700000000000    0.2334850000000000 H
   0.0322950000000000    0.4685500000000000    0.3510450000000000 H
   0.9117800000000000    0.5121400000000000    0.3421450000000000 H
   0.9104700000000000    0.5333000000000000    0.4059550000000000 H
   0.0262250000000000    0.4949200000000000    0.4137850000000000 H
   0.0572700000000000    0.3654800000000000    0.2511700000000000 H
   0.9671425000000000    0.3266500000000000    0.3251900000000000 H
   0.0671300000000000    0.2085400000000000    0.2517500000000000 H
   0.9808600000000001    0.1725900000000000    0.3225450000000000 H
   0.9476025000000000    0.4729500000000000    0.2926050000000000 H
   0.5536925000000000    0.4885300000000000    0.0565200000000000 H
   0.5395750000000000    0.3886200000000000    0.0395050000000000 H
   0.5746675000000000    0.4206800000000000    0.9835900000000000 H
   0.5935150000000000    0.5321100000000000    0.1011200000000000 H
   0.7139800000000001    0.4880500000000000    0.0919850000000000 H
   0.7154199999999999    0.4665700000000000    0.1557550000000000 H
   0.5997175000000000    0.5054400000000000    0.1638200000000000 H
   0.5682525000000000    0.6341900000000000    0.0011000000000000 H
   0.6582625000000000    0.6742000000000000    0.0751900000000000 H
   0.5580150000000000    0.7910000000000000    0.0017300000000000 H
   0.6441725000000000    0.8280999999999999    0.0725800000000000 H
   0.6781150000000000    0.5274200000000000    0.0425300000000000 H
   0.8036925000000000    0.4885300000000000    0.0565200000000000 H
   0.7895750000000000    0.3886200000000000    0.0395050000000000 H
   0.8246675000000000    0.4206800000000000    0.9835900000000000 H
   0.8435150000000000    0.5321100000000000    0.1011200000000000 H
   0.9639800000000001    0.4880500000000000    0.0919850000000000 H
   0.9654199999999999    0.4665700000000000    0.1557550000000000 H
   0.8497175000000000    0.5054400000000000    0.1638200000000000 H
   0.8182525000000000    0.6341900000000000    0.0011000000000000 H
   0.9082625000000000    0.6742000000000000    0.0751900000000000 H
   0.8080150000000000    0.7910000000000000    0.0017300000000000 H
   0.8941725000000000    0.8280999999999999    0.0725800000000000 H
   0.9281150000000000    0.5274200000000000    0.0425300000000000 H
   0.0536925000000000    0.4885300000000000    0.0565200000000000 H
   0.0395750000000000    0.3886200000000000    0.0395050000000000 H
   0.0746675000000000    0.4206800000000000    0.9835900000000000 H
   0.0935150000000000    0.5321100000000000    0.1011200000000000 H
   0.2139800000000000    0.4880500000000000    0.0919850000000000 H
   0.2154200000000000    0.4665700000000000    0.1557550000000000 H
   0.0997175000000000    0.5054400000000000    0.1638200000000000 H
   0.0682525000000000    0.6341900000000000    0.0011000000000000 H
   0.1582625000000000    0.6742000000000000    0.0751900000000000 H
   0.0580150000000000    0.7910000000000000    0.0017300000000000 H
   0.1441725000000000    0.8280999999999999    0.0725800000000000 H
   0.1781150000000000    0.5274200000000000    0.0425300000000000 H
   0.3036925000000000    0.4885300000000000    0.0565200000000000 H
   0.2895750000000000    0.3886200000000000    0.0395050000000000 H
   0.3246675000000000    0.4206800000000000    0.9835900000000000 H
   0.3435150000000000    0.5321100000000000    0.1011200000000000 H
   0.4639800000000000    0.4880500000000000    0.0919850000000000 H
   0.4654200000000000    0.4665700000000000    0.1557550000000000 H
   0.3497175000000000    0.5054400000000000    0.1638200000000000 H
   0.3182525000000000    0.6341900000000000    0.0011000000000000 H
   0.4082625000000000    0.6742000000000000    0.0751900000000000 H
   0.3080150000000000    0.7910000000000000    0.0017300000000000 H
   0.3941725000000000    0.8280999999999999    0.0725800000000000 H
   0.4281150000000000    0.5274200000000000    0.0425300000000000 H
   0.5721525000000000    0.5113400000000000    0.8063950000000000 H
   0.5862625000000000    0.6112400000000000    0.7894250000000000 H
   0.5511025000000001    0.5790700000000000    0.7334849999999999 H
   0.5322950000000000    0.4685500000000000    0.8510450000000001 H
   0.4117800000000000    0.5121400000000000    0.8421449999999999 H
   0.4104700000000000    0.5333000000000000    0.9059550000000001 H
   0.5262249999999999    0.4949200000000000    0.9137850000000001 H
   0.5572700000000000    0.3654800000000000    0.7511700000000000 H
   0.4671425000000000    0.3266500000000000    0.8251900000000000 H
   0.5671300000000000    0.2085400000000000    0.7517499999999999 H
   0.4808600000000000    0.1725900000000000    0.8225450000000001 H
   0.4476025000000000    0.4729500000000000    0.7926050000000000 H
   0.3221525000000000    0.5113400000000000    0.8063950000000000 H
   0.3362625000000000    0.6112400000000000    0.7894250000000000 H
   0.3011025000000000    0.5790700000000000    0.7334849999999999 H
   0.2822950000000000    0.4685500000000000    0.8510450000000001 H
   0.1617800000000000    0.5121400000000000    0.8421449999999999 H
   0.1604700000000000    0.5333000000000000    0.9059550000000001 H
   0.2762250000000000    0.4949200000000000    0.9137850000000001 H
   0.3072700000000000    0.3654800000000000    0.7511700000000000 H
   0.2171425000000000    0.3266500000000000    0.8251900000000000 H
   0.3171300000000000    0.2085400000000000    0.7517499999999999 H
   0.2308600000000000    0.1725900000000000    0.8225450000000001 H
   0.1976025000000000    0.4729500000000000    0.7926050000000000 H
   0.8221525000000000    0.5113400000000000    0.8063950000000000 H
   0.8362625000000000    0.6112400000000000    0.7894250000000000 H
   0.8011025000000001    0.5790700000000000    0.7334849999999999 H
   0.7822950000000000    0.4685500000000000    0.8510450000000001 H
   0.6617800000000000    0.5121400000000000    0.8421449999999999 H
   0.6604700000000000    0.5333000000000000    0.9059550000000001 H
   0.7762249999999999    0.4949200000000000    0.9137850000000001 H
   0.8072700000000000    0.3654800000000000    0.7511700000000000 H
   0.7171425000000000    0.3266500000000000    0.8251900000000000 H
   0.8171300000000000    0.2085400000000000    0.7517499999999999 H
   0.7308600000000001    0.1725900000000000    0.8225450000000001 H
   0.6976025000000000    0.4729500000000000    0.7926050000000000 H
   0.0721525000000000    0.5113400000000000    0.8063950000000000 H
   0.0862625000000000    0.6112400000000000    0.7894250000000000 H
   0.0511025000000000    0.5790700000000000    0.7334849999999999 H
   0.0322950000000000    0.4685500000000000    0.8510450000000001 H
   0.9117800000000000    0.5121400000000000    0.8421449999999999 H
   0.9104700000000000    0.5333000000000000    0.9059550000000001 H
   0.0262250000000000    0.4949200000000000    0.9137850000000001 H
   0.0572700000000000    0.3654800000000000    0.7511700000000000 H
   0.9671425000000000    0.3266500000000000    0.8251900000000000 H
   0.0671300000000000    0.2085400000000000    0.7517499999999999 H
   0.9808600000000001    0.1725900000000000    0.8225450000000001 H
   0.9476025000000000    0.4729500000000000    0.7926050000000000 H
   0.9459800000000000    0.9888000000000000    0.6923800000000000 H
   0.9595050000000001    0.8882700000000000    0.7089250000000000 H
   0.9245650000000000    0.9197500000000000    0.7650300000000000 H
   0.9066275000000000    0.0328400000000000    0.6480000000000000 H
   0.7861500000000000    0.9866100000000000    0.6562900000000000 H
   0.7852625000000000    0.9652900000000000    0.5925000000000000 H
   0.9009850000000000    0.0061600000000000    0.5852450000000000 H
   0.9316825000000000    0.1341500000000000    0.7478450000000000 H
   0.8419575000000000    0.1740200000000000    0.6735650000000000 H
   0.9424574999999999    0.2909300000000000    0.7470749999999999 H
   0.8565950000000000    0.3278600000000000    0.6760050000000000 H
   0.8216675000000000    0.0265800000000000    0.7060800000000000 H
   0.6959800000000000    0.9888000000000000    0.6923800000000000 H
   0.7095050000000001    0.8882700000000000    0.7089250000000000 H
   0.6745650000000000    0.9197500000000000    0.7650300000000000 H
   0.6566275000000000    0.0328400000000000    0.6480000000000000 H
   0.5361500000000000    0.9866100000000000    0.6562900000000000 H
   0.5352625000000000    0.9652900000000000    0.5925000000000000 H
   0.6509850000000000    0.0061600000000000    0.5852450000000000 H
   0.6816825000000000    0.1341500000000000    0.7478450000000000 H
   0.5919575000000000    0.1740200000000000    0.6735650000000000 H
   0.6924574999999999    0.2909300000000000    0.7470749999999999 H
   0.6065950000000000    0.3278600000000000    0.6760050000000000 H
   0.5716675000000000    0.0265800000000000    0.7060800000000000 H
   0.4459800000000000    0.9888000000000000    0.6923800000000000 H
   0.4595050000000000    0.8882700000000000    0.7089250000000000 H
   0.4245650000000000    0.9197500000000000    0.7650300000000000 H
   0.4066275000000000    0.0328400000000000    0.6480000000000000 H
   0.2861500000000000    0.9866100000000000    0.6562900000000000 H
   0.2852625000000000    0.9652900000000000    0.5925000000000000 H
   0.4009850000000000    0.0061600000000000    0.5852450000000000 H
   0.4316825000000000    0.1341500000000000    0.7478450000000000 H
   0.3419575000000000    0.1740200000000000    0.6735650000000000 H
   0.4424575000000000    0.2909300000000000    0.7470749999999999 H
   0.3565950000000000    0.3278600000000000    0.6760050000000000 H
   0.3216675000000000    0.0265800000000000    0.7060800000000000 H
   0.1959800000000000    0.9888000000000000    0.6923800000000000 H
   0.2095050000000000    0.8882700000000000    0.7089250000000000 H
   0.1745650000000000    0.9197500000000000    0.7650300000000000 H
   0.1566275000000000    0.0328400000000000    0.6480000000000000 H
   0.0361500000000000    0.9866100000000000    0.6562900000000000 H
   0.0352625000000000    0.9652900000000000    0.5925000000000000 H
   0.1509850000000000    0.0061600000000000    0.5852450000000000 H
   0.1816825000000000    0.1341500000000000    0.7478450000000000 H
   0.0919575000000000    0.1740200000000000    0.6735650000000000 H
   0.1924575000000000    0.2909300000000000    0.7470749999999999 H
   0.1065950000000000    0.3278600000000000    0.6760050000000000 H
   0.0716675000000000    0.0265800000000000    0.7060800000000000 H
   0.6788850000000000    0.0120700000000000    0.9424200000000000 H
   0.6653050000000000    0.1123000000000000    0.9592600000000000 H
   0.7003025000000000    0.0803400000000000    0.0152200000000000 H
   0.7182125000000000    0.9675300000000000    0.8979699999999999 H
   0.8386625000000000    0.0141100000000000    0.9063399999999999 H
   0.8395675000000000    0.0351500000000000    0.8425450000000000 H
   0.7238725000000000    0.9939300000000000    0.8352100000000000 H
   0.6933975000000000    0.8657600000000000    0.9978050000000001 H
   0.7831925000000000    0.8268300000000000    0.9235350000000000 H
   0.6831300000000000    0.7088100000000001    0.0000000000000000 H
   0.7690600000000000    0.6728000000000000    0.9260800000000000 H
   0.8031775000000000    0.9740100000000000    0.9560649999999999 H
   0.9288850000000000    0.0120700000000000    0.9424200000000000 H
   0.9153050000000000    0.1123000000000000    0.9592600000000000 H
   0.9503025000000000    0.0803400000000000    0.0152200000000000 H
   0.9682125000000000    0.9675300000000000    0.8979699999999999 H
   0.0886625000000000    0.0141100000000000    0.9063399999999999 H
   0.0895675000000000    0.0351500000000000    0.8425450000000000 H
   0.9738725000000000    0.9939300000000000    0.8352100000000000 H
   0.9433975000000000    0.8657600000000000    0.9978050000000001 H
   0.0331925000000000    0.8268300000000000    0.9235350000000000 H
   0.9331300000000000    0.7088100000000001    0.0000000000000000 H
   0.0190600000000000    0.6728000000000000    0.9260800000000000 H
   0.0531775000000000    0.9740100000000000    0.9560649999999999 H
   0.4288850000000000    0.0120700000000000    0.9424200000000000 H
   0.4153050000000000    0.1123000000000000    0.9592600000000000 H
   0.4503025000000000    0.0803400000000000    0.0152200000000000 H
   0.4682125000000000    0.9675300000000000    0.8979699999999999 H
   0.5886625000000000    0.0141100000000000    0.9063399999999999 H
   0.5895675000000000    0.0351500000000000    0.8425450000000000 H
   0.4738725000000000    0.9939300000000000    0.8352100000000000 H
   0.4433975000000000    0.8657600000000000    0.9978050000000001 H
   0.5331925000000000    0.8268300000000000    0.9235350000000000 H
   0.4331300000000000    0.7088100000000001    0.0000000000000000 H
   0.5190600000000000    0.6728000000000000    0.9260800000000000 H
   0.5531775000000000    0.9740100000000000    0.9560649999999999 H
   0.1788850000000000    0.0120700000000000    0.9424200000000000 H
   0.1653050000000000    0.1123000000000000    0.9592600000000000 H
   0.2003025000000000    0.0803400000000000    0.0152200000000000 H
   0.2182125000000000    0.9675300000000000    0.8979699999999999 H
   0.3386625000000000    0.0141100000000000    0.9063399999999999 H
   0.3395675000000000    0.0351500000000000    0.8425450000000000 H
   0.2238725000000000    0.9939300000000000    0.8352100000000000 H
   0.1933975000000000    0.8657600000000000    0.9978050000000001 H
   0.2831925000000000    0.8268300000000000    0.9235350000000000 H
   0.1831300000000000    0.7088100000000001    0.0000000000000000 H
   0.2690600000000000    0.6728000000000000    0.9260800000000000 H
   0.3031775000000000    0.9740100000000000    0.9560649999999999 H
   0.3043403117965644    0.0220073120741312    0.3506157545611500 H
   0.2577657859837400    0.0045104020578676    0.3475671739755538 H
   0.9459800000000000    0.9888000000000000    0.1923800000000000 H
   0.9595050000000001    0.8882700000000000    0.2089250000000000 H
   0.9245650000000000    0.9197500000000000    0.2650300000000000 H
   0.9066275000000000    0.0328400000000000    0.1480000000000000 H
   0.7861500000000000    0.9866100000000000    0.1562900000000000 H
   0.7852625000000000    0.9652900000000000    0.0925000000000000 H
   0.9009850000000000    0.0061600000000000    0.0852450000000000 H
   0.9316825000000000    0.1341500000000000    0.2478450000000000 H
   0.8419575000000000    0.1740200000000000    0.1735650000000000 H
   0.9424574999999999    0.2909300000000000    0.2470750000000000 H
   0.8565950000000000    0.3278600000000000    0.1760050000000000 H
   0.8216675000000000    0.0265800000000000    0.2060800000000000 H
   0.6959800000000000    0.9888000000000000    0.1923800000000000 H
   0.7095050000000001    0.8882700000000000    0.2089250000000000 H
   0.6745650000000000    0.9197500000000000    0.2650300000000000 H
   0.6566275000000000    0.0328400000000000    0.1480000000000000 H
   0.5361500000000000    0.9866100000000000    0.1562900000000000 H
   0.5352625000000000    0.9652900000000000    0.0925000000000000 H
   0.6509850000000000    0.0061600000000000    0.0852450000000000 H
   0.6816825000000000    0.1341500000000000    0.2478450000000000 H
   0.5919575000000000    0.1740200000000000    0.1735650000000000 H
   0.6924574999999999    0.2909300000000000    0.2470750000000000 H
   0.6065950000000000    0.3278600000000000    0.1760050000000000 H
   0.5716675000000000    0.0265800000000000    0.2060800000000000 H
   0.4459800000000000    0.9888000000000000    0.1923800000000000 H
   0.4595050000000000    0.8882700000000000    0.2089250000000000 H
   0.4245650000000000    0.9197500000000000    0.2650300000000000 H
   0.4066275000000000    0.0328400000000000    0.1480000000000000 H
   0.2861500000000000    0.9866100000000000    0.1562900000000000 H
   0.2852625000000000    0.9652900000000000    0.0925000000000000 H
   0.4009850000000000    0.0061600000000000    0.0852450000000000 H
   0.4316825000000000    0.1341500000000000    0.2478450000000000 H
   0.3419575000000000    0.1740200000000000    0.1735650000000000 H
   0.4424575000000000    0.2909300000000000    0.2470750000000000 H
   0.3565950000000000    0.3278600000000000    0.1760050000000000 H
   0.3216675000000000    0.0265800000000000    0.2060800000000000 H
   0.1959800000000000    0.9888000000000000    0.1923800000000000 H
   0.2095050000000000    0.8882700000000000    0.2089250000000000 H
   0.1745650000000000    0.9197500000000000    0.2650300000000000 H
   0.1566275000000000    0.0328400000000000    0.1480000000000000 H
   0.0361500000000000    0.9866100000000000    0.1562900000000000 H
   0.0352625000000000    0.9652900000000000    0.0925000000000000 H
   0.1509850000000000    0.0061600000000000    0.0852450000000000 H
   0.1816825000000000    0.1341500000000000    0.2478450000000000 H
   0.0919575000000000    0.1740200000000000    0.1735650000000000 H
   0.1924575000000000    0.2909300000000000    0.2470750000000000 H
   0.1065950000000000    0.3278600000000000    0.1760050000000000 H
   0.0716675000000000    0.0265800000000000    0.2060800000000000 H
   0.4288850000000000    0.0120700000000000    0.4424200000000000 H
   0.4153050000000000    0.1123000000000000    0.4592600000000000 H
   0.4503025000000000    0.0803400000000000    0.5152200000000000 H
   0.4682125000000000    0.9675300000000000    0.3979700000000000 H
   0.5886625000000000    0.0141100000000000    0.4063400000000000 H
   0.5895675000000000    0.0351500000000000    0.3425450000000000 H
   0.4738725000000000    0.9939300000000000    0.3352100000000000 H
   0.4433975000000000    0.8657600000000000    0.4978050000000000 H
   0.5331925000000000    0.8268300000000000    0.4235350000000000 H
   0.4331300000000000    0.7088100000000001    0.5000000000000000 H
   0.5190600000000000    0.6728000000000000    0.4260800000000000 H
   0.5531775000000000    0.9740100000000000    0.4560650000000000 H
   0.2720006818371558    0.9863956196367053    0.5161324357412254 H
   0.6788850000000000    0.0120700000000000    0.4424200000000000 H
   0.6653050000000000    0.1123000000000000    0.4592600000000000 H
   0.7003025000000000    0.0803400000000000    0.5152200000000000 H
   0.7182125000000000    0.9675300000000000    0.3979700000000000 H
   0.8386625000000000    0.0141100000000000    0.4063400000000000 H
   0.8395675000000000    0.0351500000000000    0.3425450000000000 H
   0.7238725000000000    0.9939300000000000    0.3352100000000000 H
   0.6933975000000000    0.8657600000000000    0.4978050000000000 H
   0.7831925000000000    0.8268300000000000    0.4235350000000000 H
   0.6831300000000000    0.7088100000000001    0.5000000000000000 H
   0.7690600000000000    0.6728000000000000    0.4260800000000000 H
   0.8031775000000000    0.9740100000000000    0.4560650000000000 H
   0.1350916615428213    0.0059322481379802    0.4891439879823317 H
   0.9288850000000000    0.0120700000000000    0.4424200000000000 H
   0.9153050000000000    0.1123000000000000    0.4592600000000000 H
   0.9503025000000000    0.0803400000000000    0.5152200000000000 H
   0.9682125000000000    0.9675300000000000    0.3979700000000000 H
   0.0886625000000000    0.0141100000000000    0.4063400000000000 H
   0.0895675000000000    0.0351500000000000    0.3425450000000000 H
   0.9738725000000000    0.9939300000000000    0.3352100000000000 H
   0.9433975000000000    0.8657600000000000    0.4978050000000000 H
   0.0331925000000000    0.8268300000000000    0.4235350000000000 H
   0.9331300000000000    0.7088100000000001    0.5000000000000000 H
   0.0190600000000000    0.6728000000000000    0.4260800000000000 H
   0.0531775000000000    0.9740100000000000    0.4560650000000000 H
   0.0100925000000000    0.4937500000000000    0.5178250000000000 C
   0.1392250000000000    0.5019200000000000    0.4807400000000000 C
   0.0467475000000000    0.4549700000000000    0.5325650000000000 C
   0.0784375000000000    0.4561800000000000    0.5074850000000000 C
   0.1108200000000000    0.5005500000000001    0.5097699999999999 C
   0.1208700000000000    0.5156200000000000    0.6120099999999999 C
   0.1881400000000000    0.4908000000000000    0.6072250000000000 C
   0.1889175000000000    0.4778900000000000    0.6422200000000000 C
   0.1242825000000000    0.5008500000000000    0.6469350000000000 C
   0.0857300000000000    0.6748700000000000    0.5173400000000000 C
   0.1356925000000000    0.6968500000000000    0.5585950000000000 C
   0.0799750000000000    0.7621000000000000    0.5175149999999999 C
   0.1279100000000000    0.7831300000000000    0.5570600000000000 C
   0.1533575000000000    0.5101100000000000    0.5909600000000000 C
   0.1143725000000000    0.6397600000000000    0.5382600000000000 C
   0.2600925000000000    0.4937500000000000    0.5178250000000000 C
   0.3892250000000000    0.5019200000000000    0.4807400000000000 C
   0.2967475000000000    0.4549700000000000    0.5325650000000000 C
   0.3284375000000000    0.4561800000000000    0.5074850000000000 C
   0.3608200000000000    0.5005500000000001    0.5097699999999999 C
   0.3708700000000000    0.5156200000000000    0.6120099999999999 C
   0.4381400000000000    0.4908000000000000    0.6072250000000000 C
   0.4389175000000000    0.4778900000000000    0.6422200000000000 C
   0.3742825000000000    0.5008500000000000    0.6469350000000000 C
   0.3357300000000000    0.6748700000000000    0.5173400000000000 C
   0.3856925000000000    0.6968500000000000    0.5585950000000000 C