H8 O5
1.0
  13.5689976109215920    0.0000000000000000    0.0080520062183375
  -0.0066238906441185   27.1419957150707809   -0.0137378001151457
   0.0000000000000000    0.0000000000000000   23.1870000000000012
H O
8 5
direct
   1.0490913670274189    0.9097941897549485    0.4511076844926583 H
   0.9621525390049299    0.9243349665807356    0.6137516038366310 H
   1.0165428945527777    0.9171627564183502    0.5346124222913931 H
   0.3636783031120837    0.8773044643918936    0.4175299324592369 H
   0.4819004709415248    0.8796288986757457    0.3948000462116603 H
   0.6190420983830803    0.9393982404862694    0.5402573476482935 H
   0.6959282682795662    0.8769652188290143    0.3899326925554333 H
   0.6489292537416108    0.9072688429588794    0.4620090217468673 H
   0.9975500000000000    0.9126600000000000    0.4799200000000000 O
   0.9479800000000000    0.9209750000000000    0.5729400000000000 O
   0.4123200000000000    0.8731249999999999    0.3867400000000000 O
   0.6667900000000000    0.9267799999999999    0.5128300000000000 O
   0.7091100000000000    0.8913650000000000    0.4274400000000000 O
