Cu16 H240 C240 S30 Br16
1.0
  14.3640000000000008    0.0000000000000000    0.0000000000000009
  -0.0221051854694264   24.8339901618885115    0.0000000000000015
   0.0000000000000000    0.0000000000000000   20.7609999999999992
Cu H C S Br
16 240 240 30 16
direct
   0.6253300000000001    0.1669000000000000    0.2499900000000000 Cu
   0.1248500000000000    0.4170100000000000    0.7499800000000000 Cu
   0.6246800000000000    0.4169200000000000    0.7499800000000000 Cu
   0.3746400000000000    0.3331150000000000    0.7499800000000000 Cu
   0.8746900000000000    0.3331100000000000    0.7499800000000000 Cu
   0.3752900000000000    0.0830900000000000    0.2499900000000000 Cu
   0.8751200000000000    0.0830000000000000    0.2499900000000000 Cu
   0.1252800000000000    0.1669000000000000    0.2499900000000000 Cu
   0.6253300000000001    0.6669000000000000    0.2499900000000000 Cu
   0.1248500000000000    0.9170100000000000    0.7499800000000000 Cu
   0.6246800000000000    0.9169200000000000    0.7499800000000000 Cu
   0.3746400000000000    0.8331150000000000    0.7499800000000000 Cu
   0.8746900000000000    0.8331100000000000    0.7499800000000000 Cu
   0.3752900000000000    0.5830900000000000    0.2499900000000000 Cu
   0.8751200000000000    0.5830000000000000    0.2499900000000000 Cu
   0.1252800000000000    0.6669000000000000    0.2499900000000000 Cu
   0.2409700000000000    0.1220450000000000    0.5121400000000000 H
   0.7413600000000000    0.1219400000000000    0.5122000000000000 H
   0.3149200000000000    0.1625250000000000    0.6082000000000000 H
   0.8154200000000000    0.1624150000000000    0.6083000000000000 H
   0.4253400000000000    0.2897700000000000    0.4902000000000000 H
   0.9254700000000000    0.2897500000000000    0.4903000000000000 H
   0.3556300000000000    0.2476500000000000    0.3936500000000000 H
   0.8557300000000000    0.2476150000000000    0.3937600000000000 H
   0.1867900000000000    0.1312350000000000    0.4038900000000000 H
   0.6870000000000001    0.1311600000000000    0.4040000000000000 H
   0.2862800000000000    0.1393500000000000    0.3546600000000000 H
   0.7864900000000000    0.1392150000000000    0.3548100000000000 H
   0.0563900000000000    0.2661700000000000    0.3503300000000000 H
   0.5567600000000000    0.2661300000000000    0.3504100000000000 H
   0.0431500000000000    0.2078900000000000    0.3981800000000000 H
   0.5434200000000000    0.2078650000000000    0.3982000000000000 H
   0.0088600000000000    0.3720650000000000    0.4878500000000000 H
   0.5087400000000000    0.3720450000000000    0.4876300000000000 H
   0.4346100000000000    0.4124950000000000    0.3916600000000000 H
   0.9346500000000000    0.4124350000000000    0.3918600000000000 H
   0.3246200000000000    0.0396400000000000    0.5097600000000000 H
   0.8245300000000000    0.0396000000000000    0.5098700000000000 H
   0.3944300000000000    0.4975200000000000    0.6062900000000000 H
   0.8944100000000000    0.4975550000000000    0.6064200000000000 H
   0.0631600000000000    0.3812800000000000    0.5960900000000000 H
   0.5631200000000000    0.3812300000000000    0.5958700000000000 H
   0.4636400000000000    0.3891850000000000    0.6451300000000000 H
   0.9637400000000000    0.3893700000000000    0.6453900000000000 H
   0.1938000000000000    0.0163450000000000    0.6493300000000000 H
   0.6935700000000000    0.0162000000000000    0.6495400000000000 H
   0.2068400000000000    0.4580600000000000    0.6015100000000000 H
   0.7067300000000000    0.4579650000000000    0.6016500000000000 H
   0.2586000000000000    0.3780700000000000    0.0122800000000000 H
   0.7589900000000001    0.3779650000000000    0.0121500000000000 H
   0.1845400000000000    0.3376000000000000    0.1083100000000000 H
   0.6850500000000000    0.3374900000000000    0.1082000000000000 H
   0.0744900000000000    0.2102600000000000    0.9903400000000000 H
   0.5746300000000000    0.2102400000000000    0.9902000000000000 H
   0.1442400000000000    0.2523950000000000    0.8937500000000000 H
   0.6443400000000000    0.2523650000000000    0.8936400000000000 H
   0.3129700000000000    0.3688550000000000    0.9040000000000000 H
   0.8131800000000000    0.3687750000000000    0.9038800000000000 H
   0.2134800000000000    0.3607950000000000    0.8548000000000000 H
   0.7136900000000000    0.3606600000000000    0.8546000000000000 H
   0.4432100000000000    0.2338800000000000    0.8504000000000000 H
   0.9435800000000000    0.2338450000000000    0.8503200000000000 H
   0.4565500000000000    0.2921450000000000    0.8982000000000000 H
   0.9568100000000000    0.2921200000000000    0.8981700000000000 H
   0.4912300000000000    0.1279650000000000    0.9876200000000001 H
   0.9911100000000000    0.1279450000000000    0.9878400000000001 H
   0.0653200000000000    0.0875750000000000    0.8918500000000000 H
   0.5653600000000000    0.0875150000000000    0.8916500000000001 H
   0.1754400000000000    0.4604150000000000    0.0098800000000000 H
   0.6753400000000001    0.4603750000000000    0.0097700000000000 H
   0.1055600000000000    0.0024550000000000    0.1064300000000000 H
   0.6055400000000000    0.0024900000000000    0.1063000000000000 H
   0.4368500000000000    0.1187800000000000    0.0958800000000000 H
   0.9368000000000000    0.1187300000000000    0.0961000000000000 H
   0.0362300000000000    0.1106450000000000    0.1454000000000000 H
   0.5363200000000000    0.1108250000000000    0.1451400000000000 H
   0.3063900000000000    0.4838100000000000    0.1495500000000000 H
   0.8061700000000001    0.4836650000000000    0.1493400000000000 H
   0.2932400000000000    0.0420450000000000    0.1016600000000000 H
   0.7931300000000000    0.0419500000000000    0.1015200000000000 H
   0.2586000000000000    0.3780700000000000    0.4877000000000000 H
   0.7589900000000001    0.3779650000000000    0.4878300000000000 H
   0.1845400000000000    0.3376000000000000    0.3916700000000000 H
   0.6850400000000000    0.3374900000000000    0.3917700000000000 H
   0.0744900000000000    0.2102600000000000    0.5096000000000001 H
   0.5746300000000000    0.2102400000000000    0.5097100000000000 H
   0.1442400000000000    0.2523950000000000    0.6062100000000000 H
   0.6443400000000000    0.2523650000000000    0.6063200000000000 H
   0.3129700000000000    0.3688550000000000    0.5959300000000000 H
   0.8131800000000000    0.3687750000000000    0.5960800000000001 H
   0.2134800000000000    0.3607950000000000    0.6451600000000000 H
   0.7136900000000000    0.3606600000000000    0.6453100000000001 H
   0.4432100000000000    0.2338850000000000    0.6495000000000000 H
   0.9435800000000000    0.2338450000000000    0.6496400000000000 H
   0.4565500000000000    0.2921450000000000    0.6017100000000000 H
   0.9568100000000000    0.2921200000000000    0.6010000000000000 H
   0.4912300000000000    0.1279650000000000    0.5123400000000000 H
   0.9911100000000000    0.1279450000000000    0.5121200000000000 H
   0.0653200000000000    0.0875750000000000    0.6081000000000000 H
   0.5653500000000000    0.0875150000000000    0.6083100000000000 H
   0.1754400000000000    0.4604150000000000    0.4901000000000000 H
   0.6753400000000001    0.4603750000000000    0.4902100000000000 H
   0.1055600000000000    0.0024550000000000    0.3935500000000000 H
   0.6055400000000000    0.0024900000000000    0.3936800000000000 H
   0.4368500000000000    0.1187800000000000    0.4041000000000000 H
   0.9368000000000000    0.1187300000000000    0.4038800000000000 H
   0.0362300000000000    0.1106450000000000    0.3545800000000000 H
   0.5363200000000000    0.1108250000000000    0.3548400000000000 H
   0.3063900000000000    0.4838100000000000    0.3504300000000000 H
   0.8061700000000001    0.4836650000000000    0.3506400000000000 H
   0.2932400000000000    0.0420450000000000    0.3983200000000000 H
   0.7931300000000000    0.0419500000000000    0.3984600000000000 H
   0.2409700000000000    0.1220450000000000    0.9878200000000000 H
   0.7413600000000000    0.1219400000000000    0.9876900000000000 H
   0.3149200000000000    0.1625250000000000    0.8917600000000000 H
   0.8154200000000000    0.1624150000000000    0.8916600000000000 H
   0.4253400000000000    0.2897700000000000    0.0097000000000000 H
   0.9254800000000000    0.2897500000000000    0.0096000000000000 H
   0.3556300000000000    0.2476500000000000    0.1063300000000000 H
   0.8557300000000000    0.2476150000000000    0.1062200000000000 H
   0.1867900000000000    0.1312350000000000    0.0960900000000000 H
   0.6870000000000001    0.1311600000000000    0.0959000000000000 H
   0.2862800000000000    0.1393500000000000    0.1453200000000000 H
   0.7864900000000000    0.1392150000000000    0.1451700000000000 H
   0.0563900000000000    0.2661650000000000    0.1496500000000000 H
   0.5567600000000000    0.2661300000000000    0.1495700000000000 H
   0.0431500000000000    0.2078900000000000    0.1018000000000000 H
   0.5434200000000000    0.2078650000000000    0.1017200000000000 H
   0.0088600000000000    0.3720650000000000    0.0121300000000000 H
   0.5087300000000000    0.3720450000000000    0.0123500000000000 H
   0.4346100000000000    0.4124950000000000    0.1083200000000000 H
   0.9346500000000000    0.4124350000000000    0.1081000000000000 H
   0.3246200000000000    0.0396400000000000    0.9902000000000000 H
   0.8245300000000000    0.0396000000000000    0.9900900000000000 H
   0.3944300000000000    0.4975200000000000    0.8936700000000000 H
   0.8944100000000000    0.4975550000000000    0.8935400000000000 H
   0.0631600000000000    0.3812800000000000    0.9038700000000000 H
   0.5631200000000000    0.3812300000000000    0.9040899999999999 H
   0.4636400000000000    0.3891850000000000    0.8548300000000000 H
   0.9637400000000000    0.3893700000000000    0.8545700000000001 H
   0.1938000000000000    0.0163450000000000    0.8506300000000000 H
   0.6935700000000000    0.0162000000000000    0.8504200000000000 H
   0.2068400000000000    0.4580600000000000    0.8984500000000000 H
   0.7067300000000000    0.4579650000000000    0.8983100000000001 H
   0.2409700000000000    0.6220450000000000    0.5121400000000000 H
   0.7413600000000000    0.6219400000000000    0.5122000000000000 H
   0.3149200000000000    0.6625250000000000    0.6082000000000000 H
   0.8154200000000000    0.6624150000000000    0.6083000000000000 H
   0.4253400000000000    0.7897700000000001    0.4902000000000000 H
   0.9254700000000000    0.7897500000000000    0.4903000000000000 H
   0.3556300000000000    0.7476500000000000    0.3936500000000000 H
   0.8557300000000000    0.7476150000000000    0.3937600000000000 H
   0.1867900000000000    0.6312350000000000    0.4038900000000000 H
   0.6870000000000001    0.6311599999999999    0.4040000000000000 H
   0.2862800000000000    0.6393500000000000    0.3546600000000000 H
   0.7864900000000000    0.6392150000000000    0.3548100000000000 H
   0.0563900000000000    0.7661700000000000    0.3503300000000000 H
   0.5567600000000000    0.7661300000000000    0.3504100000000000 H
   0.0431500000000000    0.7078900000000000    0.3981800000000000 H
   0.5434200000000000    0.7078650000000000    0.3982000000000000 H
   0.0088600000000000    0.8720650000000000    0.4878500000000000 H
   0.5087400000000000    0.8720450000000000    0.4876300000000000 H
   0.4346100000000000    0.9124950000000001    0.3916600000000000 H
   0.9346500000000000    0.9124350000000000    0.3918600000000000 H
   0.3246200000000000    0.5396400000000000    0.5097600000000000 H
   0.8245300000000000    0.5396000000000000    0.5098700000000000 H
   0.3944300000000000    0.9975200000000000    0.6062900000000000 H
   0.8944100000000000    0.9975550000000000    0.6064200000000000 H
   0.0631600000000000    0.8812800000000001    0.5960900000000000 H
   0.5631200000000000    0.8812300000000000    0.5958700000000000 H
   0.4636400000000000    0.8891850000000000    0.6451300000000000 H
   0.9637400000000000    0.8893700000000000    0.6453900000000000 H
   0.1938000000000000    0.5163450000000001    0.6493300000000000 H
   0.6935700000000000    0.5162000000000000    0.6495400000000000 H
   0.2068400000000000    0.9580600000000000    0.6015100000000000 H
   0.7067300000000000    0.9579650000000000    0.6016500000000000 H
   0.7589900000000001    0.8779650000000000    0.0121500000000000 H
   0.6850500000000000    0.8374900000000001    0.1082000000000000 H
   0.5746300000000000    0.7102400000000000    0.9902000000000000 H
   0.6443400000000000    0.7523650000000000    0.8936400000000000 H
   0.8131800000000000    0.8687750000000001    0.9038800000000000 H
   0.7136900000000000    0.8606600000000000    0.8546000000000000 H
   0.9435800000000000    0.7338450000000000    0.8503200000000000 H
   0.9568100000000000    0.7921199999999999    0.8981700000000000 H
   0.4912300000000000    0.6279650000000000    0.9876200000000001 H
   0.9911100000000000    0.6279450000000000    0.9878400000000001 H
   0.0653200000000000    0.5875750000000000    0.8918500000000000 H
   0.5653600000000000    0.5875150000000000    0.8916500000000001 H
   0.1754400000000000    0.9604150000000000    0.0098800000000000 H
   0.6753400000000001    0.9603750000000000    0.0097700000000000 H
   0.1055600000000000    0.5024550000000000    0.1064300000000000 H
   0.6055400000000000    0.5024900000000000    0.1063000000000000 H
   0.4368500000000000    0.6187800000000000    0.0958800000000000 H
   0.9368000000000000    0.6187300000000000    0.0961000000000000 H
   0.0362300000000000    0.6106450000000000    0.1454000000000000 H
   0.5363200000000000    0.6108250000000000    0.1451400000000000 H
   0.3063900000000000    0.9838100000000001    0.1495500000000000 H
   0.8061700000000001    0.9836650000000000    0.1493400000000000 H
   0.2932400000000000    0.5420450000000000    0.1016600000000000 H
   0.7931300000000000    0.5419500000000000    0.1015200000000000 H
   0.2586000000000000    0.8780700000000000    0.4877000000000000 H
   0.7589900000000001    0.8779650000000000    0.4878300000000000 H
   0.1845400000000000    0.8376000000000000    0.3916700000000000 H
   0.6850400000000000    0.8374900000000001    0.3917700000000000 H
   0.0744900000000000    0.7102600000000000    0.5096000000000001 H
   0.5746300000000000    0.7102400000000000    0.5097100000000000 H
   0.1442400000000000    0.7523949999999999    0.6062100000000000 H
   0.6443400000000000    0.7523650000000000    0.6063200000000000 H
   0.3129700000000000    0.8688549999999999    0.5959300000000000 H
   0.8131800000000000    0.8687750000000001    0.5960800000000001 H
   0.2134800000000000    0.8607950000000000    0.6451600000000000 H
   0.7136900000000000    0.8606600000000000    0.6453100000000001 H
   0.4432100000000000    0.7338850000000000    0.6495000000000000 H
   0.9435800000000000    0.7338450000000000    0.6496400000000000 H
   0.4565500000000000    0.7921450000000000    0.6017100000000000 H
   0.9568100000000000    0.7921199999999999    0.6010000000000000 H
   0.4912300000000000    0.6279650000000000    0.5123400000000000 H
   0.9911100000000000    0.6279450000000000    0.5121200000000000 H
   0.0653200000000000    0.5875750000000000    0.6081000000000000 H
   0.5653500000000000    0.5875150000000000    0.6083100000000000 H
   0.1754400000000000    0.9604150000000000    0.4901000000000000 H
   0.6753400000000001    0.9603750000000000    0.4902100000000000 H
   0.1055600000000000    0.5024550000000000    0.3935500000000000 H
   0.6055400000000000    0.5024900000000000    0.3936800000000000 H
   0.4368500000000000    0.6187800000000000    0.4041000000000000 H
   0.9368000000000000    0.6187300000000000    0.4038800000000000 H
   0.0362300000000000    0.6106450000000000    0.3545800000000000 H
   0.5363200000000000    0.6108250000000000    0.3548400000000000 H
   0.3063900000000000    0.9838100000000001    0.3504300000000000 H
   0.8061700000000001    0.9836650000000000    0.3506400000000000 H
   0.2932400000000000    0.5420450000000000    0.3983200000000000 H
   0.7931300000000000    0.5419500000000000    0.3984600000000000 H
   0.7413600000000000    0.6219400000000000    0.9876900000000000 H
   0.8154200000000000    0.6624150000000000    0.8916600000000000 H
   0.9254800000000000    0.7897500000000000    0.0096000000000000 H
   0.8557300000000000    0.7476150000000000    0.1062200000000000 H
   0.6870000000000001    0.6311599999999999    0.0959000000000000 H
   0.7864900000000000    0.6392150000000000    0.1451700000000000 H
   0.5567600000000000    0.7661300000000000    0.1495700000000000 H
   0.5434200000000000    0.7078650000000000    0.1017200000000000 H
   0.0088600000000000    0.8720650000000000    0.0121300000000000 H
   0.5087300000000000    0.8720450000000000    0.0123500000000000 H
   0.4346100000000000    0.9124950000000001    0.1083200000000000 H
   0.9346500000000000    0.9124350000000000    0.1081000000000000 H
   0.3246200000000000    0.5396400000000000    0.9902000000000000 H
   0.8245300000000000    0.5396000000000000    0.9900900000000000 H
   0.3944300000000000    0.9975200000000000    0.8936700000000000 H
   0.8944100000000000    0.9975550000000000    0.8935400000000000 H
   0.0631600000000000    0.8812800000000001    0.9038700000000000 H
   0.5631200000000000    0.8812300000000000    0.9040899999999999 H
   0.4636400000000000    0.8891850000000000    0.8548300000000000 H
   0.9637400000000000    0.8893700000000000    0.8545700000000001 H
   0.1938000000000000    0.5163450000000001    0.8506300000000000 H
   0.6935700000000000    0.5162000000000000    0.8504200000000000 H
   0.2068400000000000    0.9580600000000000    0.8984500000000000 H
   0.7067300000000000    0.9579650000000000    0.8983100000000001 H
   0.8419800000000000    0.0097800000000000    0.1144300000000000 C
   0.2155100000000000    0.3421300000000000    0.4930800000000000 C
   0.7158500000000000    0.3420450000000000    0.4932000000000000 C
   0.1741600000000000    0.3190800000000000    0.4388000000000000 C
   0.4021500000000000    0.4784250000000000    0.9406000000000000 C
   0.9021400000000001    0.4784400000000000    0.9405000000000000 C
   0.4574200000000000    0.4322450000000000    0.9461500000000000 C
   0.9574500000000000    0.4322800000000000    0.9459800000000000 C
   0.0099300000000000    0.4103850000000000    0.8888600000000000 C
   0.2841200000000000    0.1579650000000000    0.5067700000000001 C
   0.7844600000000000    0.1578800000000000    0.5068900000000000 C
   0.3254100000000000    0.1810150000000000    0.5610400000000000 C
   0.8258100000000000    0.1809300000000000    0.5611000000000000 C
   0.3744500000000000    0.2297100000000000    0.5562800000000000 C
   0.8747700000000000    0.2296450000000000    0.5563700000000000 C
   0.3868300000000000    0.2521750000000000    0.4949800000000000 C
   0.8870200000000000    0.2521350000000000    0.4950700000000000 C
   0.3478000000000000    0.2285300000000000    0.4406100000000000 C
   0.8479800000000000    0.2284800000000000    0.4407100000000000 C
   0.2924600000000000    0.1823150000000000    0.4460500000000000 C
   0.7927000000000000    0.1822400000000000    0.4461600000000000 C
   0.2400900000000000    0.1603600000000000    0.3889000000000000 C
   0.7403100000000000    0.1602650000000000    0.3890300000000000 C
   0.0920700000000000    0.2400950000000000    0.3853200000000000 C
   0.5923900000000000    0.2400400000000000    0.3854000000000000 C
   0.4656300000000000    0.4079300000000000    0.4930600000000000 C
   0.9656900000000000    0.4079400000000000    0.4932600000000000 C
   0.4242500000000000    0.4309700000000000    0.4388500000000000 C
   0.9242700000000000    0.4309350000000000    0.4390200000000000 C
   0.3752900000000000    0.4796350000000000    0.4436700000000000 C
   0.8752500000000000    0.4795800000000000    0.4438100000000000 C
   0.3630700000000000    0.0000000000000000    0.5049900000000000 C
   0.8630200000000000    0.0000000000000000    0.5051200000000000 C
   0.4021500000000000    0.4784250000000000    0.5593200000000000 C
   0.9021400000000001    0.4784400000000000    0.5594600000000000 C
   0.4574200000000000    0.4322450000000000    0.5538100000000000 C
   0.9574500000000000    0.4322800000000000    0.5539800000000000 C
   0.0099300000000000    0.4103850000000000    0.6111000000000000 C
   0.5098200000000001    0.4102850000000000    0.6109200000000000 C
   0.1579800000000000    0.4902300000000000    0.6143999999999999 C
   0.6578400000000000    0.4901200000000000    0.6145600000000000 C
   0.2155100000000000    0.3421300000000000    0.0069000000000000 C
   0.7158500000000000    0.3420450000000000    0.0067800000000000 C
   0.1741600000000000    0.3190800000000000    0.0611000000000000 C
   0.6745500000000000    0.3189950000000000    0.0610500000000000 C
   0.1252000000000000    0.2703650000000000    0.0563800000000000 C
   0.6255200000000000    0.2703000000000000    0.0562900000000000 C
   0.1129400000000000    0.2478750000000000    0.9950599999999999 C
   0.6131400000000000    0.2478350000000000    0.9949700000000000 C
   0.1519900000000000    0.2715300000000000    0.9407000000000000 C
   0.6521700000000000    0.2714800000000000    0.9406000000000000 C
   0.2072600000000000    0.3177750000000000    0.9461500000000000 C
   0.7075100000000000    0.3177000000000000    0.9460400000000000 C
   0.2596500000000000    0.3397450000000000    0.8890200000000000 C
   0.7598800000000000    0.3396500000000000    0.8880000000000000 C
   0.4075800000000000    0.2599750000000000    0.8853900000000000 C
   0.9078900000000000    0.2599200000000000    0.8853100000000000 C
   0.0342800000000000    0.0920750000000000    0.9932500000000000 C
   0.5343300000000000    0.0920800000000000    0.9930500000000000 C
   0.0757000000000000    0.0690800000000000    0.9390100000000000 C
   0.5757200000000000    0.0690400000000000    0.9388400000000000 C
   0.1247100000000000    0.0204300000000000    0.9438000000000000 C
   0.6246699999999999    0.0203750000000000    0.9436600000000001 C
   0.1369500000000000    0.4979600000000000    0.0051300000000000 C
   0.6369000000000000    0.4979350000000000    0.0050000000000000 C
   0.0978300000000000    0.0215700000000000    0.0594700000000000 C
   0.5978200000000000    0.0215850000000000    0.0593000000000000 C
   0.0425200000000000    0.0677300000000000    0.0539900000000000 C
   0.5425500000000000    0.0677700000000000    0.0538200000000000 C
   0.4901500000000000    0.0897250000000000    0.1109300000000000 C
   0.9900400000000000    0.0896250000000000    0.1111100000000000 C
   0.3421300000000000    0.0098900000000000    0.1145700000000000 C
   0.6745500000000000    0.3189950000000000    0.4389300000000000 C
   0.1252000000000000    0.2703650000000000    0.4436000000000000 C
   0.6255200000000000    0.2703000000000000    0.4436900000000000 C
   0.1129400000000000    0.2478750000000000    0.5049000000000000 C
   0.6131400000000000    0.2478350000000000    0.5049900000000000 C
   0.1519900000000000    0.2715300000000000    0.5592600000000000 C
   0.6521700000000000    0.2714800000000000    0.5593600000000000 C
   0.2072600000000000    0.3177750000000000    0.5538100000000000 C
   0.7075000000000000    0.3177000000000000    0.5539200000000000 C
   0.2596500000000000    0.3397450000000000    0.6109000000000000 C
   0.7598700000000000    0.3396500000000000    0.6110700000000000 C
   0.4075800000000000    0.2599750000000000    0.6145699999999999 C
   0.9078900000000000    0.2599150000000000    0.6146500000000000 C
   0.0342800000000000    0.0920750000000000    0.5067000000000000 C
   0.5343300000000000    0.0920800000000000    0.5069100000000000 C
   0.0757000000000000    0.0690800000000000    0.5609499999999999 C
   0.5757200000000000    0.0690400000000000    0.5611200000000000 C
   0.1247100000000000    0.0204300000000000    0.5561600000000000 C
   0.6246800000000000    0.0203750000000000    0.5563000000000000 C
   0.1369500000000000    0.4979600000000000    0.4948500000000000 C
   0.6369000000000000    0.4979350000000000    0.4949800000000000 C
   0.0978300000000000    0.0215700000000000    0.4405100000000000 C
   0.5978200000000000    0.0215850000000000    0.4406000000000000 C
   0.0425200000000000    0.0677300000000000    0.4459900000000000 C
   0.5425500000000000    0.0677650000000000    0.4461600000000000 C
   0.4901500000000000    0.0897250000000000    0.3890500000000000 C
   0.9900400000000000    0.0896250000000000    0.3888700000000000 C
   0.3421300000000000    0.0098900000000000    0.3854100000000000 C
   0.8419800000000000    0.0097800000000000    0.3855500000000000 C
   0.2841100000000000    0.1579650000000000    0.9931900000000000 C
   0.7844600000000000    0.1578800000000000    0.9930000000000000 C
   0.3254100000000000    0.1810150000000000    0.9389200000000000 C
   0.8258100000000000    0.1809300000000000    0.9388300000000001 C
   0.3744500000000000    0.2297100000000000    0.9436800000000000 C
   0.8747700000000000    0.2296450000000000    0.9435900000000000 C
   0.3868300000000000    0.2521750000000000    0.0050000000000000 C
   0.8870300000000000    0.2521350000000000    0.0049100000000000 C
   0.3478000000000000    0.2285300000000000    0.0593700000000000 C
   0.8479800000000000    0.2284800000000000    0.0592700000000000 C
   0.2924600000000000    0.1823150000000000    0.0539300000000000 C
   0.7927100000000000    0.1822400000000000    0.0538200000000000 C
   0.2400900000000000    0.1603600000000000    0.1110800000000000 C
   0.7403200000000000    0.1602650000000000    0.1109500000000000 C
   0.0920700000000000    0.2400950000000000    0.1146600000000000 C
   0.5923900000000000    0.2400400000000000    0.1145800000000000 C
   0.4656300000000000    0.4079300000000000    0.0069200000000000 C
   0.9656900000000000    0.4079400000000000    0.0067000000000000 C
   0.4242500000000000    0.4309700000000000    0.0611300000000000 C
   0.9242700000000000    0.4309350000000000    0.0609600000000000 C
   0.3752900000000000    0.4796350000000000    0.0563100000000000 C
   0.8752500000000000    0.4795800000000000    0.0561700000000000 C
   0.3630700000000000    0.0000000000000000    0.9949700000000000 C
   0.8630200000000000    0.0000000000000000    0.9948399999999999 C
   0.5098200000000001    0.4102850000000000    0.8890400000000001 C
   0.1579800000000000    0.4902300000000000    0.8855400000000000 C
   0.6578400000000000    0.4901200000000000    0.8854000000000000 C
   0.8419800000000000    0.5097800000000000    0.1144300000000000 C
   0.2155100000000000    0.8421300000000000    0.4930800000000000 C
   0.7158500000000000    0.8420449999999999    0.4932000000000000 C
   0.1741600000000000    0.8190800000000000    0.4388000000000000 C
   0.4021500000000000    0.9784250000000000    0.9406000000000000 C
   0.9021400000000001    0.9784400000000000    0.9405000000000000 C
   0.4574200000000000    0.9322450000000000    0.9461500000000000 C
   0.9574500000000000    0.9322800000000000    0.9459800000000000 C
   0.0099300000000000    0.9103850000000000    0.8888600000000000 C
   0.2841200000000000    0.6579650000000000    0.5067700000000001 C
   0.7844600000000000    0.6578800000000000    0.5068900000000000 C
   0.3254100000000000    0.6810150000000000    0.5610400000000000 C
   0.8258100000000000    0.6809300000000000    0.5611000000000000 C
   0.3744500000000000    0.7297100000000000    0.5562800000000000 C
   0.8747700000000000    0.7296450000000000    0.5563700000000000 C
   0.3868300000000000    0.7521750000000000    0.4949800000000000 C
   0.8870200000000000    0.7521350000000000    0.4950700000000000 C
   0.3478000000000000    0.7285300000000000    0.4406100000000000 C
   0.8479800000000000    0.7284800000000000    0.4407100000000000 C
   0.2924600000000000    0.6823150000000000    0.4460500000000000 C
   0.7927000000000000    0.6822400000000000    0.4461600000000000 C
   0.2400900000000000    0.6603600000000001    0.3889000000000000 C
   0.7403100000000000    0.6602650000000000    0.3890300000000000 C
   0.0920700000000000    0.7400949999999999    0.3853200000000000 C
   0.5923900000000000    0.7400400000000000    0.3854000000000000 C
   0.4656300000000000    0.9079300000000000    0.4930600000000000 C
   0.9656900000000000    0.9079400000000000    0.4932600000000000 C
   0.4242500000000000    0.9309700000000001    0.4388500000000000 C
   0.9242700000000000    0.9309350000000001    0.4390200000000000 C
   0.3752900000000000    0.9796350000000000    0.4436700000000000 C
   0.8752500000000000    0.9795800000000000    0.4438100000000000 C
   0.3630700000000000    0.5000000000000000    0.5049900000000000 C
   0.8630200000000000    0.5000000000000000    0.5051200000000000 C
   0.4021500000000000    0.9784250000000000    0.5593200000000000 C
   0.9021400000000001    0.9784400000000000    0.5594600000000000 C
   0.4574200000000000    0.9322450000000000    0.5538100000000000 C
   0.9574500000000000    0.9322800000000000    0.5539800000000000 C
   0.0099300000000000    0.9103850000000000    0.6111000000000000 C
   0.5098200000000001    0.9102850000000000    0.6109200000000000 C
   0.1579800000000000    0.9902299999999999    0.6143999999999999 C
   0.6578400000000000    0.9901200000000000    0.6145600000000000 C
   0.7158500000000000    0.8420449999999999    0.0067800000000000 C
   0.6745500000000000    0.8189949999999999    0.0610500000000000 C
   0.6255200000000000    0.7703000000000000    0.0562900000000000 C
   0.6131400000000000    0.7478350000000000    0.9949700000000000 C
   0.6521700000000000    0.7714799999999999    0.9406000000000000 C
   0.7075100000000000    0.8177000000000000    0.9460400000000000 C
   0.7598800000000000    0.8396500000000000    0.8880000000000000 C
   0.9078900000000000    0.7599199999999999    0.8853100000000000 C
   0.0342800000000000    0.5920750000000000    0.9932500000000000 C
   0.5343300000000000    0.5920799999999999    0.9930500000000000 C
   0.0757000000000000    0.5690800000000000    0.9390100000000000 C
   0.5757200000000000    0.5690400000000000    0.9388400000000000 C