H4 C8 O4
1.0
  37.3241431077497694    0.0000000000000000    9.9514182543100631
   4.7094039596726036   17.3575622867480845   11.5972645829212873
   0.0000000000000000    0.0000000000000000   26.0040000000000013
H C O
4 8 4
direct
   0.0024450000000000    0.7336500000000000    0.2120100000000000 H
   0.8696950000000000    0.8152800000000000    0.1754900000000000 H
   0.9113300000000000    0.6939500000000000    0.1779900000000000 H
   0.9608850000000000    0.8534800000000000    0.2113000000000000 H
   0.8859950000000000    0.9048000000000000    0.2040100000000000 C
   0.9123550000000000    0.8403900000000000    0.1953400000000000 C
   0.8988250000000000    0.7967700000000000    0.1835800000000000 C
   0.9219600000000000    0.7289900000000000    0.1854700000000000 C
   0.9590050000000000    0.7041800000000000    0.1987900000000000 C
   0.9732450000000000    0.7515900000000000    0.2048200000000000 C
   0.9500900000000000    0.8187500000000000    0.2037800000000000 C
   0.9826750000000000    0.6255500000000001    0.2112900000000000 C
   0.0160700000000000    0.6065300000000000    0.2237000000000000 O
   0.8519749999999999   -0.0759999999999999    0.1955400000000000 O
   0.8976400000000000    0.9369900000000000    0.2239000000000000 O
   0.9683999999999999    0.5806500000000000    0.2107800000000000 O
