La32 H188 C376 O188
1.0
  37.3241431077497694    0.0000000000000000    9.9514182543100631
   4.7094039596726036   17.3575622867480845   11.5972645829212873
   0.0000000000000000    0.0000000000000000   26.0040000000000013
La H C O
32 188 376 188
direct
   0.0728100000000000    0.0026200000000000    0.7468300000000000 La
   0.0728250000000000    0.5025700000000000    0.2468600000000000 La
   0.0728150000000000    0.5026300000000000    0.7468100000000000 La
   0.3228350000000000    0.0026400000000000    0.2467500000000000 La
   0.3228100000000000    0.0026300000000000    0.7468000000000000 La
   0.3228300000000000    0.5025700000000000    0.2468500000000000 La
   0.3228150000000000    0.5026400000000000    0.7468100000000000 La
   0.1772300000000000    0.4974300000000000    0.2531700000000000 La
   0.1772200000000000    0.4975000000000000    0.7531200000000000 La
   0.1772350000000000    0.9974400000000000    0.2531400000000000 La
   0.1772050000000000    0.9974300000000000    0.7532100000000000 La
   0.4272300000000000    0.4974400000000000    0.2531600000000000 La
   0.4272200000000000    0.4975000000000000    0.7531200000000000 La
   0.4272350000000000    0.9974499999999999    0.2531400000000000 La
   0.4272100000000000    0.9974400000000000    0.7532100000000000 La
   0.0728350000000000    0.0026400000000000    0.2467600000000000 La
   0.5728100000000000    0.0026200000000000    0.7468300000000000 La
   0.5728250000000000    0.5025700000000000    0.2468600000000000 La
   0.5728150000000000    0.5026300000000000    0.7468100000000000 La
   0.8228350000000000    0.0026400000000000    0.2467500000000000 La
   0.8228100000000000    0.0026300000000000    0.7468000000000000 La
   0.8228300000000000    0.5025700000000000    0.2468500000000000 La
   0.8228150000000001    0.5026400000000000    0.7468100000000000 La
   0.6772300000000000    0.4974300000000000    0.2531700000000000 La
   0.6772199999999999    0.4975000000000000    0.7531200000000000 La
   0.6772350000000000    0.9974400000000000    0.2531400000000000 La
   0.6772050000000001    0.9974300000000000    0.7532100000000000 La
   0.9272300000000000    0.4974400000000000    0.2531600000000000 La
   0.9272199999999999    0.4975000000000000    0.7531200000000000 La
   0.9272350000000000    0.9974499999999999    0.2531400000000000 La
   0.9272100000000000    0.9974400000000000    0.7532100000000000 La
   0.5728350000000000    0.0026400000000000    0.2467600000000000 La
   0.1196500000000000    0.3152400000000000    0.1755000000000000 H
   0.1196350000000000    0.3152600000000000    0.6755500000000000 H
   0.1196900000000000    0.8152800000000000    0.1754900000000000 H
   0.1196700000000000    0.8153100000000000    0.6755100000000001 H
   0.3696550000000000    0.3152500000000000    0.1755400000000000 H
   0.3696400000000000    0.3152600000000000    0.6755500000000000 H
   0.3696950000000000    0.8152800000000000    0.1754900000000000 H
   0.3696700000000000    0.8153200000000000    0.6755100000000001 H
   0.1612950000000000    0.1939600000000000    0.1779700000000000 H
   0.1612750000000000    0.1939600000000000    0.6780100000000000 H
   0.1613250000000000    0.6939500000000000    0.1779900000000000 H
   0.1613100000000000    0.6940100000000000    0.6779700000000000 H
   0.4113000000000000    0.1939700000000000    0.1779000000000000 H
   0.4112800000000000    0.1939600000000000    0.6780100000000000 H
   0.4113300000000000    0.6939500000000000    0.1779900000000000 H
   0.4113150000000000    0.6940100000000000    0.6779700000000000 H
   0.0024200000000000    0.2336800000000000    0.2119600000000000 H
   0.0024000000000000    0.2336900000000000    0.7119799999999999 H
   0.0024250000000000    0.7337000000000000    0.7120100000000000 H
   0.2524150000000000    0.2336800000000000    0.2119600000000000 H
   0.2524000000000000    0.2336900000000000    0.7119000000000000 H
   0.2524400000000000    0.7336500000000000    0.2120100000000000 H
   0.2524200000000000    0.7337000000000000    0.7120100000000000 H
   0.2108500000000000    0.3534500000000000    0.2114100000000000 H
   0.2108350000000000    0.3534900000000000    0.7110000000000000 H
   0.2108800000000000    0.8534800000000000    0.2113900000000000 H
   0.2108550000000000    0.8535000000000000    0.7114300000000000 H
   0.4608550000000000    0.3534600000000000    0.2114100000000000 H
   0.4608400000000000    0.3534900000000000    0.7113900000000000 H
   0.4608850000000000    0.8534800000000000    0.2113000000000000 H
   0.4608600000000000    0.8535000000000000    0.7114200000000001 H
   0.1791950000000000    0.3063400000000000    0.4524300000000000 H
   0.1791900000000000    0.3064100000000000    0.9523600000000000 H
   0.1791850000000000    0.8063200000000000    0.4523500000000000 H
   0.1791700000000000    0.8063200000000000    0.9524100000000000 H
   0.4291950000000000    0.3063500000000000    0.4524000000000000 H
   0.4291950000000000    0.3064100000000000    0.9523600000000000 H
   0.4291900000000000    0.8063200000000000    0.4523500000000000 H
   0.4291750000000000    0.8063200000000000    0.9524000000000000 H
   0.0712850000000000    0.3037000000000000    0.4390000000000000 H
   0.0712850000000000    0.3037300000000000    0.9389600000000000 H
   0.0712750000000000    0.8036700000000000    0.4389400000000000 H
   0.0712600000000000    0.8036400000000000    0.9390200000000000 H
   0.3212900000000000    0.3037000000000000    0.4390000000000000 H
   0.3212900000000000    0.3037300000000000    0.9389600000000000 H
   0.3212800000000000    0.8036799999999999    0.4389400000000000 H
   0.3212650000000000    0.8036400000000000    0.9390200000000000 H
   0.1303750000000000    0.1847500000000000    0.3244600000000000 H
   0.1303500000000000    0.1847800000000000    0.8244800000000000 H
   0.1304050000000000    0.6848100000000000    0.3244300000000000 H
   0.1303900000000000    0.6848300000000000    0.8244300000000000 H
   0.3803750000000000    0.1847500000000000    0.3244600000000000 H
   0.3803550000000000    0.1847900000000000    0.8244800000000000 H
   0.3804050000000000    0.6848100000000000    0.3244200000000000 H
   0.3803900000000000    0.6848300000000000    0.8244300000000000 H
   0.0887350000000000    0.3060500000000000    0.3220000000000000 H
   0.0887150000000000    0.3061100000000000    0.8219900000000000 H
   0.0887650000000000    0.8061100000000000    0.3219600000000000 H
   0.0887400000000000    0.8061100000000000    0.8220100000000000 H
   0.3387350000000000    0.3060500000000000    0.3220000000000000 H
   0.3387200000000000    0.3061100000000000    0.8219800000000000 H
   0.3387650000000000    0.8061199999999999    0.3219600000000000 H
   0.3387450000000000    0.8061100000000000    0.8220000000000000 H
   0.2476200000000000    0.2663600000000000    0.2879700000000000 H
   0.2476000000000000    0.2664100000000000    0.7879000000000000 H
   0.2476450000000000    0.7663800000000000    0.2879900000000000 H
   0.2476300000000000    0.7663900000000000    0.7880100000000000 H
   0.4976200000000000    0.2663600000000000    0.2879700000000000 H
   0.4976000000000000    0.2664100000000000    0.7879800000000000 H
   0.4976450000000000    0.7663800000000000    0.2879900000000000 H
   0.4976250000000000    0.7663900000000000    0.7880100000000000 H
   0.0391800000000000    0.1465600000000000    0.2885500000000000 H
   0.0391550000000000    0.1465900000000000    0.7885900000000000 H
   0.0392050000000000    0.6465800000000000    0.2885800000000000 H
   0.0391900000000000    0.6466100000000000    0.7885700000000000 H
   0.2891850000000000    0.1465700000000000    0.2885500000000000 H
   0.2891600000000000    0.1465900000000000    0.7885900000000000 H
   0.2892100000000000    0.6465800000000000    0.2885800000000000 H
   0.2891950000000000    0.6466100000000000    0.7885700000000000 H
   0.0708700000000000    0.1937500000000000    0.0475600000000000 H
   0.0708550000000000    0.1937500000000000    0.5476100000000000 H
   0.0708450000000000    0.6936600000000001    0.0476200000000000 H
   0.0708450000000000    0.6937300000000000    0.5475600000000000 H
   0.3208750000000000    0.1937500000000000    0.0475000000000000 H
   0.3208600000000000    0.1937500000000000    0.5476100000000000 H
   0.3208500000000000    0.6936700000000000    0.0476200000000000 H
   0.3208500000000000    0.6937300000000000    0.5475500000000000 H
   0.1787750000000000    0.1964300000000000    0.0609600000000000 H
   0.1787600000000000    0.1964000000000000    0.5610400000000000 H
   0.1787600000000000    0.6963400000000000    0.0610000000000000 H
   0.1787600000000000    0.6963700000000000    0.5609700000000000 H
   0.4287800000000000    0.1964400000000000    0.0609600000000000 H
   0.4287650000000000    0.1964000000000000    0.5610400000000000 H
   0.4287650000000000    0.6963400000000000    0.0610000000000000 H
   0.4287600000000000    0.6963800000000000    0.5609600000000000 H
   0.6196500000000000    0.3152400000000000    0.1755000000000000 H
   0.6196350000000000    0.3152600000000000    0.6755500000000000 H
   0.6196900000000000    0.8152800000000000    0.1754900000000000 H
   0.6196699999999999    0.8153100000000000    0.6755100000000001 H
   0.8696550000000001    0.3152500000000000    0.1755400000000000 H
   0.8696400000000000    0.3152600000000000    0.6755500000000000 H
   0.8696699999999999    0.8153200000000000    0.6755100000000001 H
   0.6612950000000000    0.1939600000000000    0.1779700000000000 H
   0.6612750000000001    0.1939600000000000    0.6780100000000000 H
   0.6613249999999999    0.6939500000000000    0.1779900000000000 H
   0.6613100000000001    0.6940100000000000    0.6779700000000000 H
   0.9113000000000000    0.1939700000000000    0.1779000000000000 H
   0.9112800000000000    0.1939600000000000    0.6780100000000000 H
   0.9113150000000000    0.6940100000000000    0.6779700000000000 H
   0.5024200000000000    0.2336800000000000    0.2119600000000000 H
   0.5024000000000000    0.2336900000000000    0.7119799999999999 H
   0.5024450000000000    0.7336500000000000    0.2120100000000000 H
   0.5024250000000000    0.7337000000000000    0.7120100000000000 H
   0.7524150000000001    0.2336800000000000    0.2119600000000000 H
   0.7524000000000000    0.2336900000000000    0.7119000000000000 H
   0.7524400000000000    0.7336500000000000    0.2120100000000000 H
   0.7524200000000000    0.7337000000000000    0.7120100000000000 H
   0.7108500000000000    0.3534500000000000    0.2114100000000000 H
   0.7108350000000000    0.3534900000000000    0.7110000000000000 H
   0.7108800000000000    0.8534800000000000    0.2113900000000000 H
   0.7108550000000000    0.8535000000000000    0.7114300000000000 H
   0.9608550000000000    0.3534600000000000    0.2114100000000000 H
   0.9608400000000000    0.3534900000000000    0.7113900000000000 H
   0.9608600000000000    0.8535000000000000    0.7114200000000001 H
   0.6791950000000000    0.3063400000000000    0.4524300000000000 H
   0.6791900000000000    0.3064100000000000    0.9523600000000000 H
   0.6791850000000000    0.8063200000000000    0.4523500000000000 H
   0.6791700000000001    0.8063200000000000    0.9524100000000000 H
   0.9291950000000000    0.3063500000000000    0.4524000000000000 H
   0.9291950000000000    0.3064100000000000    0.9523600000000000 H
   0.9291900000000000    0.8063200000000000    0.4523500000000000 H
   0.9291750000000000    0.8063200000000000    0.9524000000000000 H
   0.5712850000000000    0.3037000000000000    0.4390000000000000 H
   0.5712850000000000    0.3037300000000000    0.9389600000000000 H
   0.5712750000000000    0.8036700000000000    0.4389400000000000 H
   0.5712600000000000    0.8036400000000000    0.9390200000000000 H
   0.8212900000000001    0.3037000000000000    0.4390000000000000 H
   0.8212900000000001    0.3037300000000000    0.9389600000000000 H
   0.8212800000000000    0.8036799999999999    0.4389400000000000 H
   0.8212650000000000    0.8036400000000000    0.9390200000000000 H
   0.6303750000000000    0.1847500000000000    0.3244600000000000 H
   0.6303500000000000    0.1847800000000000    0.8244800000000000 H
   0.6304050000000000    0.6848100000000000    0.3244300000000000 H
   0.6303900000000000    0.6848300000000000    0.8244300000000000 H
   0.8803750000000000    0.1847500000000000    0.3244600000000000 H
   0.8803550000000000    0.1847900000000000    0.8244800000000000 H
   0.8804050000000000    0.6848100000000000    0.3244200000000000 H
   0.8803900000000000    0.6848300000000000    0.8244300000000000 H
   0.5887350000000000    0.3060500000000000    0.3220000000000000 H
   0.5887150000000000    0.3061100000000000    0.8219900000000000 H
   0.5887650000000000    0.8061100000000000    0.3219600000000000 H
   0.5887400000000000    0.8061100000000000    0.8220100000000000 H
   0.8387350000000000    0.3060500000000000    0.3220000000000000 H
   0.8387200000000000    0.3061100000000000    0.8219800000000000 H
   0.8387650000000000    0.8061199999999999    0.3219600000000000 H
   0.8387450000000001    0.8061100000000000    0.8220000000000000 H
   0.7476200000000000    0.2663600000000000    0.2879700000000000 H
   0.7476000000000000    0.2664100000000000    0.7879000000000000 H
   0.7476450000000000    0.7663800000000000    0.2879900000000000 H
   0.7476300000000000    0.7663900000000000    0.7880100000000000 H
   0.9976200000000000    0.2663600000000000    0.2879700000000000 H
   0.9976000000000000    0.2664100000000000    0.7879800000000000 H
   0.9976450000000000    0.7663800000000000    0.2879900000000000 H
   0.9976250000000000    0.7663900000000000    0.7880100000000000 H
   0.5391800000000000    0.1465600000000000    0.2885500000000000 H
   0.5391550000000001    0.1465900000000000    0.7885900000000000 H
   0.5392050000000000    0.6465800000000000    0.2885800000000000 H
   0.5391900000000001    0.6466100000000000    0.7885700000000000 H
   0.7891850000000000    0.1465700000000000    0.2885500000000000 H
   0.7891600000000000    0.1465900000000000    0.7885900000000000 H
   0.7892100000000000    0.6465800000000000    0.2885800000000000 H
   0.7891950000000000    0.6466100000000000    0.7885700000000000 H
   0.5708700000000000    0.1937500000000000    0.0475600000000000 H
   0.5708550000000000    0.1937500000000000    0.5476100000000000 H
   0.5708450000000000    0.6936600000000001    0.0476200000000000 H
   0.5708450000000000    0.6937300000000000    0.5475600000000000 H
   0.8208750000000000    0.1937500000000000    0.0475000000000000 H
   0.8208599999999999    0.1937500000000000    0.5476100000000000 H
   0.8208500000000001    0.6936700000000000    0.0476200000000000 H
   0.8208500000000001    0.6937300000000000    0.5475500000000000 H
   0.6787750000000000    0.1964300000000000    0.0609600000000000 H
   0.6787600000000000    0.1964000000000000    0.5610400000000000 H
   0.6787600000000000    0.6963400000000000    0.0610000000000000 H
   0.6787600000000000    0.6963700000000000    0.5609700000000000 H
   0.9287799999999999    0.1964400000000000    0.0609600000000000 H
   0.9287650000000001    0.1964000000000000    0.5610400000000000 H
   0.9287650000000001    0.6963400000000000    0.0610000000000000 H
   0.9287600000000000    0.6963800000000000    0.5609600000000000 H
   0.4056200000000000    0.7812000000000000    0.9737500000000000 C
   0.0946550000000000    0.2797300000000000    0.4661500000000000 C
   0.0946600000000000    0.2797700000000000    0.9661000000000000 C
   0.0946500000000000    0.7797100000000000    0.4660900000000000 C
   0.1359450000000000    0.4047300000000000    0.2041100000000000 C
   0.1359350000000000    0.4047800000000000    0.7040800000000000 C
   0.1359900000000000    0.9048000000000000    0.2040000000000000 C
   0.1359650000000000    0.9048100000000000    0.7040700000000000 C
   0.3859500000000000    0.4047300000000000    0.2041100000000000 C
   0.3859350000000000    0.4047800000000000    0.7040800000000000 C
   0.3859950000000000    0.9048000000000000    0.2040100000000000 C
   0.3859700000000000    0.9048100000000000    0.7040700000000000 C
   0.1623150000000000    0.3403600000000000    0.1954000000000000 C
   0.1623000000000000    0.3403900000000000    0.6953900000000000 C
   0.1623550000000000    0.8403900000000000    0.1953500000000000 C
   0.1623300000000000    0.8404100000000000    0.6953800000000000 C
   0.4123200000000000    0.3403600000000000    0.1953900000000000 C
   0.4123050000000000    0.3403900000000000    0.6953900000000000 C
   0.4123550000000000    0.8403900000000000    0.1953400000000000 C
   0.4123300000000000    0.8404199999999999    0.6953800000000000 C
   0.0499750000000000    0.1812900000000000    0.2961700000000000 C
   0.0499500000000000    0.1813200000000000    0.7962000000000000 C
   0.0500000000000000    0.6813100000000000    0.2961800000000000 C
   0.0499850000000000    0.6813300000000000    0.7961800000000000 C
   0.2999750000000000    0.1812900000000000    0.2961700000000000 C
   0.1487850000000000    0.2967500000000000    0.1836200000000000 C
   0.1487700000000000    0.2967600000000000    0.6836300000000000 C
   0.1488200000000000    0.7967700000000000    0.1835900000000000 C
   0.1488000000000000    0.7968100000000000    0.6836000000000000 C
   0.3987900000000000    0.2967500000000000    0.1836000000000000 C
   0.3987750000000000    0.2967700000000000    0.6836300000000000 C
   0.3988250000000000    0.7967700000000000    0.1835800000000000 C
   0.3988050000000000    0.7968100000000000    0.6836000000000000 C
   0.1719300000000000    0.2289900000000000    0.1854000000000000 C
   0.1719100000000000    0.2290000000000000    0.6855000000000000 C
   0.1719600000000000    0.7289900000000000    0.1854700000000000 C
   0.1719400000000000    0.7290400000000000    0.6854700000000000 C
   0.4219300000000000    0.2290000000000000    0.1854600000000000 C
   0.4219100000000000    0.2290000000000000    0.6850000000000001 C
   0.4219600000000000    0.7289900000000000    0.1854700000000000 C
   0.4219450000000000    0.7290400000000000    0.6854000000000000 C
   0.2089750000000000    0.2042000000000000    0.1987600000000000 C
   0.2089600000000000    0.2042000000000000    0.6987900000000000 C
   0.2090000000000000    0.7041800000000000    0.1987900000000000 C
   0.2089850000000000    0.7042300000000000    0.6987800000000000 C
   0.4589800000000000    0.2042000000000000    0.1987500000000000 C
   0.4589600000000000    0.2042000000000000    0.6987900000000000 C
   0.4590050000000000    0.7041800000000000    0.1987900000000000 C
   0.4589850000000000    0.7042400000000000    0.6987800000000000 C
   0.2232150000000000    0.2516000000000000    0.2048000000000000 C
   0.2231950000000000    0.2516200000000000    0.7048200000000000 C
   0.2232400000000000    0.7515900000000000    0.2048200000000000 C
   0.2232200000000000    0.7516400000000000    0.7048300000000000 C
   0.4732200000000000    0.2516100000000000    0.2040000000000000 C
   0.4732000000000000    0.2516200000000000    0.7048200000000000 C
   0.4732450000000000    0.7515900000000000    0.2048200000000000 C
   0.4732250000000000    0.7516400000000000    0.7048300000000000 C
   0.2000550000000000    0.3187300000000000    0.2038000000000000 C
   0.2000400000000000    0.3187600000000000    0.7038000000000000 C
   0.2000900000000000    0.8187400000000000    0.2037800000000000 C
   0.2000650000000000    0.8187800000000000    0.7038100000000000 C
   0.4500600000000000    0.3187300000000000    0.2030000000000000 C
   0.4500450000000000    0.3187600000000000    0.7037900000000000 C
   0.4500900000000000    0.8187500000000000    0.2037800000000000 C
   0.4500700000000000    0.8187800000000000    0.7038100000000000 C
   0.0173850000000000    0.3744500000000000    0.2887200000000000 C
   0.0173700000000000    0.3745100000000000    0.7886900000000000 C
   0.0174050000000000    0.8745000000000001    0.2887000000000000 C
   0.0173850000000000    0.8744900000000000    0.7887500000000000 C
   0.2673850000000000    0.3744500000000000    0.2887200000000000 C
   0.2673700000000000    0.3745200000000000    0.7886900000000000 C
   0.2674100000000000    0.8745000000000001    0.2887000000000000 C
   0.2673850000000000    0.8745000000000001    0.7887500000000000 C
   0.1255800000000000    0.3768300000000000    0.3747000000000000 C
   0.1255700000000000    0.3768900000000000    0.8746500000000000 C
   0.1255700000000000    0.8768100000000000    0.3746300000000000 C
   0.1255400000000000    0.8768000000000000    0.8747000000000000 C
   0.3755850000000000    0.3768400000000000    0.3746900000000000 C
   0.3755750000000000    0.3769000000000000    0.8746500000000000 C
   0.3755700000000000    0.8768200000000000    0.3746000000000000 C
   0.3755450000000000    0.8768100000000000    0.8747000000000000 C
   0.1252700000000000    0.3114100000000000    0.4394500000000000 C
   0.1252700000000000    0.3114600000000000    0.9389999999999999 C
   0.1252650000000000    0.8113800000000000    0.4393800000000000 C
   0.1252500000000000    0.8113600000000000    0.9394500000000000 C
   0.3752750000000000    0.3114100000000000    0.4394400000000000 C
   0.3752750000000000    0.3114600000000000    0.9393899999999999 C
   0.3752650000000000    0.8113800000000000    0.4393800000000000 C
   0.3752500000000000    0.8113700000000000    0.9394400000000001 C
   0.1556350000000000    0.2812300000000000    0.4737700000000000 C
   0.1556400000000000    0.2812900000000000    0.9737100000000000 C
   0.1556300000000000    0.7812100000000000    0.4737000000000000 C
   0.1556200000000000    0.7811900000000001    0.9737600000000000 C
   0.4056400000000000    0.2812400000000000    0.4737700000000000 C
   0.4056450000000000    0.2812900000000000    0.9737100000000000 C
   0.4056350000000000    0.7812100000000000    0.4737000000000000 C
   0.0946350000000000    0.7796700000000000    0.9661600000000000 C
   0.3446600000000000    0.2797400000000000    0.4661500000000000 C
   0.3446600000000000    0.2797700000000000    0.9661000000000000 C
   0.3446550000000000    0.7797100000000000    0.4660800000000000 C
   0.3446400000000000    0.7796800000000000    0.9661600000000000 C
   0.1140750000000000    0.0952600000000000    0.2959000000000000 C
   0.1140450000000000    0.0952700000000000    0.7959600000000000 C
   0.1141100000000000    0.5952900000000000    0.2950000000000000 C
   0.1140950000000000    0.5953400000000000    0.7958700000000000 C
   0.3640800000000000    0.0952600000000000    0.2959000000000000 C
   0.3640500000000000    0.0952700000000000    0.7959000000000001 C
   0.3641150000000000    0.5953000000000001    0.2958900000000000 C
   0.3641000000000000    0.5953400000000000    0.7958000000000000 C
   0.0877100000000000    0.1596500000000000    0.3046000000000000 C
   0.0876850000000000    0.1596800000000000    0.8046300000000000 C
   0.0877400000000000    0.6596800000000000    0.3045900000000000 C
   0.0877250000000000    0.6597100000000000    0.8045000000000000 C
   0.3377150000000000    0.1596500000000000    0.3045900000000000 C
   0.3376900000000000    0.1596800000000000    0.8046300000000000 C
   0.3377450000000000    0.6596800000000000    0.3045900000000000 C
   0.3377300000000000    0.6597100000000000    0.8045800000000000 C
   0.1012400000000000    0.2032500000000000    0.3163800000000000 C
   0.1012200000000000    0.2032900000000000    0.8163899999999999 C
   0.1012700000000000    0.7033100000000000    0.3163500000000000 C
   0.1012550000000000    0.7033199999999999    0.8163600000000000 C
   0.3512450000000000    0.2032600000000000    0.3163700000000000 C
   0.3512250000000000    0.2032900000000000    0.8163899999999999 C
   0.3512750000000000    0.7033100000000000    0.3163400000000000 C
   0.3512600000000000    0.7033199999999999    0.8163600000000000 C
   0.0781000000000000    0.2710200000000000    0.3145100000000000 C
   0.0780850000000000    0.2710700000000000    0.8145000000000000 C
   0.0781300000000000    0.7710700000000000    0.3144800000000000 C
   0.0781100000000000    0.7710800000000000    0.8145100000000000 C
   0.3281050000000000    0.2710200000000000    0.3145100000000000 C
   0.3280850000000000    0.2710700000000000    0.8145000000000000 C
   0.3281350000000000    0.7710800000000000    0.3144700000000000 C
   0.3281150000000000    0.7710800000000000    0.8145100000000000 C
   0.0410550000000000    0.2958300000000000    0.3012000000000000 C
   0.0410400000000000    0.2958800000000000    0.8011900000000000 C
   0.0410850000000000    0.7958700000000000    0.3011800000000000 C
   0.0410650000000000    0.7958700000000000    0.8012200000000000 C
   0.2910600000000000    0.2958300000000000    0.3012000000000000 C
   0.2910400000000000    0.2958800000000000    0.8011900000000000 C
   0.2910850000000000    0.7958700000000000    0.3011800000000000 C
   0.2910650000000000    0.7958800000000000    0.8012100000000000 C
   0.0268200000000000    0.2484200000000000    0.2951500000000000 C
   0.0268000000000000    0.2484700000000000    0.7951600000000000 C
   0.0268450000000000    0.7484499999999999    0.2951600000000000 C
   0.0268250000000000    0.7484600000000000    0.7951800000000000 C
   0.2768200000000000    0.2484200000000000    0.2951500000000000 C
   0.2768000000000000    0.2484700000000000    0.7951600000000000 C
   0.2768500000000000    0.7484499999999999    0.2951600000000000 C
   0.2768300000000000    0.7484700000000000    0.7951800000000000 C
   0.2999500000000000    0.1813200000000000    0.7962000000000000 C
   0.3000050000000000    0.6813100000000000    0.2961800000000000 C
   0.2999900000000000    0.6813399999999999    0.7961800000000000 C
   0.2326600000000000    0.1255800000000000    0.2112100000000000 C
   0.2326350000000000    0.1255700000000000    0.7112700000000000 C
   0.2326750000000000    0.6255500000000001    0.2112900000000000 C
   0.2326600000000000    0.6256100000000000    0.7112000000000001 C
   0.4826600000000000    0.1255800000000000    0.2112100000000000 C
   0.4826400000000000    0.1255800000000000    0.7112700000000000 C
   0.4826750000000000    0.6255500000000001    0.2112900000000000 C
   0.4826600000000000    0.6256100000000000    0.7112600000000000 C
   0.1244950000000000    0.1232600000000000    0.1252700000000000 C
   0.1244700000000000    0.1232500000000000    0.6253400000000000 C
   0.1244750000000000    0.6231800000000000    0.1253300000000000 C
   0.1244650000000000    0.6232400000000000    0.6252799999999999 C
   0.3745000000000000    0.1232600000000000    0.1252700000000000 C
   0.3744750000000000    0.1232600000000000    0.6253400000000000 C
   0.3744800000000000    0.6231800000000000    0.1253000000000000 C
   0.3744650000000000    0.6232400000000000    0.6252799999999999 C
   0.1247900000000000    0.1887100000000000    0.0605300000000000 C
   0.1247750000000000    0.1886900000000000    0.5600000000000001 C
   0.1247700000000000    0.6886200000000000    0.0605800000000000 C
   0.1247700000000000    0.6886600000000000    0.5605300000000000 C
   0.3747950000000000    0.1887100000000000    0.0605200000000000 C
   0.3747800000000000    0.1886900000000000    0.5605900000000000 C
   0.3747750000000000    0.6886200000000000    0.0605800000000000 C
   0.3747750000000000    0.6886700000000000    0.5605300000000000 C
   0.0944200000000000    0.2188800000000000    0.0262100000000000 C
   0.0944100000000000    0.2188600000000000    0.5262700000000000 C
   0.0944000000000000    0.7187900000000000    0.0262700000000000 C
   0.0944000000000000    0.7188400000000000    0.5262100000000000 C
   0.3444250000000000    0.2188800000000000    0.0262100000000000 C
   0.3444150000000000    0.2188700000000000    0.5262700000000000 C
   0.3444050000000000    0.7187900000000000    0.0262700000000000 C
   0.3444050000000000    0.7188400000000000    0.5262100000000000 C
   0.1554000000000000    0.2204000000000000    0.0338200000000000 C
   0.1553900000000000    0.2203700000000000    0.5338900000000000 C
   0.1553800000000000    0.7203000000000001    0.0338700000000000 C
   0.1553850000000000    0.7203400000000000    0.5338200000000000 C
   0.4054050000000000    0.2204000000000000    0.0338200000000000 C
   0.4053900000000000    0.2203700000000000    0.5338900000000000 C
   0.4053850000000000    0.7203000000000001    0.0338600000000000 C
   0.4053900000000000    0.7203400000000000    0.5338200000000000 C
   0.9056200000000000    0.7812000000000000    0.9737500000000000 C
   0.5946550000000000    0.2797300000000000    0.4661500000000000 C
   0.5946600000000000    0.2797700000000000    0.9661000000000000 C
   0.5946500000000000    0.7797100000000000    0.4660900000000000 C
   0.6359450000000000    0.4047300000000000    0.2041100000000000 C
   0.6359350000000000    0.4047800000000000    0.7040800000000000 C
   0.6359900000000001    0.9048000000000000    0.2040000000000000 C
   0.6359650000000000    0.9048100000000000    0.7040700000000000 C
   0.8859500000000000    0.4047300000000000    0.2041100000000000 C
   0.8859349999999999    0.4047800000000000    0.7040800000000000 C
   0.8859699999999999    0.9048100000000000    0.7040700000000000 C
   0.6623150000000000    0.3403600000000000    0.1954000000000000 C
   0.6623000000000000    0.3403900000000000    0.6953900000000000 C
   0.6623550000000000    0.8403900000000000    0.1953500000000000 C
   0.6623300000000000    0.8404100000000000    0.6953800000000000 C
   0.9123200000000000    0.3403600000000000    0.1953900000000000 C
   0.9123049999999999    0.3403900000000000    0.6953900000000000 C
   0.9123300000000000    0.8404199999999999    0.6953800000000000 C
   0.5499750000000000    0.1812900000000000    0.2961700000000000 C
   0.5499500000000000    0.1813200000000000    0.7962000000000000 C
   0.5500000000000000    0.6813100000000000    0.2961800000000000 C
   0.5499849999999999    0.6813300000000000    0.7961800000000000 C
   0.7999750000000000    0.1812900000000000    0.2961700000000000 C
   0.6487849999999999    0.2967500000000000    0.1836200000000000 C