H4 C6 N1 O2
1.0
  36.1339997303273748    0.0000000000000000    0.0044146008924339
  -0.0097136715247881   20.6109961916523652    0.0079140556723637
   0.0000000000000000    0.0000000000000000   37.7760000000000034
H C N O
4 6 1 2
direct
   0.8687950000000000    0.1584700000000000    0.6462300000000000 H
   0.8376300000000000    0.2368200000000000    0.6052500000000000 H
   0.7749300000000000    0.0902000000000000    0.5597500000000000 H
   0.8032049999999999    0.0062300000000000    0.6000350000000000 H
   0.8558399999999999    0.0277100000000000    0.6508450000000000 C
   0.8480950000000000    0.1418000000000000    0.6274100000000000 C
   0.8382750000000000    0.0762500000000000    0.6261000000000000 C
   0.8308800000000001    0.1852700000000000    0.6047800000000000 C
   0.7955600000000000    0.1030900000000000    0.5795700000000000 C
   0.8113500000000000    0.0569800000000000    0.6017200000000000 C
   0.8051150000000000    0.1663500000000000    0.5810000000000000 N
   0.8844449999999999    0.0499500000000000    0.6680800000000000 O
   0.8426450000000000    0.9723200000000000    0.6541000000000000 O
