H4 C5 N5
1.0
  36.1339997303273748    0.0000000000000000    0.0044146008924339
  -0.0097136715247881   20.6109961916523652    0.0079140556723637
   0.0000000000000000    0.0000000000000000   37.7760000000000034
H C N
4 5 5
direct
   0.2049400000000000    0.4723300000000000    0.7666999999999999 H
   0.3091600000000000    0.6902700000000001    0.6961150000000000 H
   0.2086700000000000    0.6526300000000000    0.6313200000000000 H
   0.1793850000000000    0.5983200000000000    0.6545000000000000 H
   0.2176200000000000    0.5104600000000000    0.7509900000000000 C
   0.2858350000000000    0.6573200000000000    0.7001900000000000 C
   0.2301250000000000    0.6185300000000000    0.6777100000000000 C
   0.2278400000000000    0.5784400000000000    0.7081150000000000 C
   0.2569700000000000    0.5827700000000000    0.7327000000000000 C
   0.2499500000000000    0.5393800000000000    0.7598150000000000 N
   0.2868250000000000    0.6217700000000000    0.7299450000000001 N
   0.2029100000000000    0.5317800000000000    0.7203400000000000 N
   0.2600300000000000    0.6579700000000001    0.6745700000000000 N
   0.2050200000000000    0.6185900000000000    0.6509250000000000 N
