H1 O1
1.0
  36.1339997303273748    0.0000000000000000    0.0044146008924339
  -0.0097136715247881   20.6109961916523652    0.0079140556723637
   0.0000000000000000    0.0000000000000000   37.7760000000000034
H O
1 1
direct
   0.2265681529866058    0.5184643484185785    0.7534325440800123 H
   0.2499500000000000    0.5393800000000000    0.7598150000000000 O
