H3 C9 O6
1.0
  16.4080537797401114    0.0000000000000000    9.4644141478041934
   5.4673832078300961   15.4798751441550326    9.4848714477376355
   0.0000000000000000    0.0000000000000000   18.9649999999999999
H C O
3 9 6
direct
   0.7666200000000000    0.9934900000000000    0.4728700000000000 H
   0.9939000000000000    0.7665600000000000    0.4728900000000000 H
   0.7668199999999999    0.7664600000000000    0.4725900000000000 H
   0.6648900000000000    0.9291199999999999    0.4761400000000000 C
   0.7574800000000000    0.8851599999999999    0.4715900000000000 C
   0.9293500000000000    0.9291700000000001    0.4765400000000000 C
   0.8854300000000001    0.8852200000000000    0.4718000000000000 C
   0.9296600000000000    0.6647600000000000    0.4762200000000000 C
   0.8855600000000000    0.7572800000000000    0.4716200000000000 C
   0.8001900000000000    0.9276900000000000    0.4716500000000000 C
   0.9280400000000000    0.8000500000000000    0.4716600000000000 C
   0.8003100000000000    0.7999800000000000    0.4714000000000000 C
   0.6286700000000000    0.0060300000000000    0.4786600000000000 O
   0.0062900000000000    0.8859900000000001    0.4791800000000000 O
   0.8865499999999999    0.6283800000000000    0.4787700000000000 O
   0.0065700000000000    0.6285700000000000    0.4789000000000000 O
   0.8861200000000000    0.0060300000000000    0.4792000000000000 O
   0.6284900000000000    0.8860000000000000    0.4787600000000000 O
