Zn64 H188 C376 O204
1.0
  31.9726325507830325    0.0000000000000000   18.3012668351840979
  10.6129813426952868   30.1660026570641904   18.3312986641317330
   0.0000000000000000    0.0000000000000000   36.8519999999999968
Zn H C O
64 188 376 204
direct
   0.1466500000000000    0.0598600000000000    0.3965800000000000 Zn
   0.0598100000000000    0.1466650000000000    0.3967050000000000 Zn
   0.3533450000000000    0.4401350000000000    0.1034150000000000 Zn
   0.3532950000000000    0.3534100000000000    0.1901450000000000 Zn
   0.3531650000000000    0.3530450000000000    0.1030750000000000 Zn
   0.1467000000000000    0.1465850000000000    0.3098500000000000 Zn
   0.1468250000000000    0.1469500000000000    0.3969250000000000 Zn
   0.4401800000000000    0.3533300000000000    0.1032900000000000 Zn
   0.6466499999999999    0.0598600000000000    0.3965800000000000 Zn
   0.5598100000000000    0.1466650000000000    0.3967050000000000 Zn
   0.8533450000000000    0.4401350000000000    0.1034150000000000 Zn
   0.8532950000000000    0.3534100000000000    0.1901450000000000 Zn
   0.8531650000000000    0.3530450000000000    0.1030750000000000 Zn
   0.6467000000000001    0.1465850000000000    0.3098500000000000 Zn
   0.6468250000000000    0.1469500000000000    0.3969250000000000 Zn
   0.9401800000000000    0.3533300000000000    0.1032900000000000 Zn
   0.1466500000000000    0.5598600000000000    0.3965800000000000 Zn
   0.0598100000000000    0.6466650000000000    0.3967050000000000 Zn
   0.3533450000000000    0.9401349999999999    0.1034150000000000 Zn
   0.3532950000000000    0.8534100000000000    0.1901450000000000 Zn
   0.3531650000000000    0.8530450000000001    0.1030750000000000 Zn
   0.1467000000000000    0.6465850000000000    0.3098500000000000 Zn
   0.1468250000000000    0.6469500000000000    0.3969250000000000 Zn
   0.4401800000000000    0.8533299999999999    0.1032900000000000 Zn
   0.6466499999999999    0.5598600000000000    0.3965800000000000 Zn
   0.5598100000000000    0.6466650000000000    0.3967050000000000 Zn
   0.8533450000000000    0.9401349999999999    0.1034150000000000 Zn
   0.8532950000000000    0.8534100000000000    0.1901450000000000 Zn
   0.8531650000000000    0.8530450000000001    0.1030750000000000 Zn
   0.6467000000000001    0.6465850000000000    0.3098500000000000 Zn
   0.6468250000000000    0.6469500000000000    0.3969250000000000 Zn
   0.9401800000000000    0.8533299999999999    0.1032900000000000 Zn
   0.1466500000000000    0.0598600000000000    0.8965799999999999 Zn
   0.0598100000000000    0.1466650000000000    0.8967050000000000 Zn
   0.3533450000000000    0.4401350000000000    0.6034150000000000 Zn
   0.3532950000000000    0.3534100000000000    0.6901450000000000 Zn
   0.3531650000000000    0.3530450000000000    0.6030750000000000 Zn
   0.1467000000000000    0.1465850000000000    0.8098500000000000 Zn
   0.1468250000000000    0.1469500000000000    0.8969250000000000 Zn
   0.4401800000000000    0.3533300000000000    0.6032900000000000 Zn
   0.6466499999999999    0.0598600000000000    0.8965799999999999 Zn
   0.5598100000000000    0.1466650000000000    0.8967050000000000 Zn
   0.8533450000000000    0.4401350000000000    0.6034150000000000 Zn
   0.8532950000000000    0.3534100000000000    0.6901450000000000 Zn
   0.8531650000000000    0.3530450000000000    0.6030750000000000 Zn
   0.6467000000000001    0.1465850000000000    0.8098500000000000 Zn
   0.6468250000000000    0.1469500000000000    0.8969250000000000 Zn
   0.9401800000000000    0.3533300000000000    0.6032900000000000 Zn
   0.1466500000000000    0.5598600000000000    0.8965799999999999 Zn
   0.0598100000000000    0.6466650000000000    0.8967050000000000 Zn
   0.3533450000000000    0.9401349999999999    0.6034150000000000 Zn
   0.3532950000000000    0.8534100000000000    0.6901450000000000 Zn
   0.3531650000000000    0.8530450000000001    0.6030750000000000 Zn
   0.1467000000000000    0.6465850000000000    0.8098500000000000 Zn
   0.1468250000000000    0.6469500000000000    0.8969250000000000 Zn
   0.4401800000000000    0.8533299999999999    0.6032900000000000 Zn
   0.6466499999999999    0.5598600000000000    0.8965799999999999 Zn
   0.5598100000000000    0.6466650000000000    0.8967050000000000 Zn
   0.8533450000000000    0.9401349999999999    0.6034150000000000 Zn
   0.8532950000000000    0.8534100000000000    0.6901450000000000 Zn
   0.8531650000000000    0.8530450000000001    0.6030750000000000 Zn
   0.6467000000000001    0.6465850000000000    0.8098500000000000 Zn
   0.6468250000000000    0.6469500000000000    0.8969250000000000 Zn
   0.9401800000000000    0.8533299999999999    0.6032900000000000 Zn
   0.2734050000000000    0.4178600000000000    0.2840800000000000 H
   0.2739950000000000    0.0337650000000000    0.0247000000000000 H
   0.2740650000000000    0.4178800000000000    0.0234000000000000 H
   0.0340850000000000    0.4178650000000000    0.0241000000000000 H
   0.4659400000000000    0.2251200000000000    0.3321000000000000 H
   0.0821500000000000    0.2264950000000000    0.2159750000000000 H
   0.4660900000000000    0.2260350000000000    0.4753600000000000 H
   0.0821450000000000    0.2259200000000000    0.4765400000000000 H
   0.0821550000000000    0.4659850000000000    0.4758000000000000 H
   0.2251050000000000    0.4659300000000000    0.3321350000000000 H
   0.2260000000000000    0.4662300000000000    0.4752600000000000 H
   0.2259300000000000    0.0821150000000000    0.4765950000000000 H
   0.4659100000000000    0.0821300000000000    0.4758850000000000 H
   0.0340500000000000    0.2748750000000000    0.1678650000000000 H
   0.4178400000000000    0.2735000000000000    0.2840200000000000 H
   0.0339050000000000    0.2739600000000000    0.0246350000000000 H
   0.4178500000000000    0.2740750000000000    0.0234550000000000 H
   0.4178400000000000    0.0340100000000000    0.0241950000000000 H
   0.2737200000000000    0.2737250000000000    0.1678700000000000 H
   0.2743250000000000    0.2744050000000000    0.2837700000000000 H
   0.2262700000000000    0.2262700000000000    0.3321250000000000 H
   0.2256650000000000    0.2255900000000000    0.2162250000000000 H
   0.7748900000000001    0.0340650000000000    0.1678600000000000 H
   0.7734050000000000    0.4178600000000000    0.2840800000000000 H
   0.7739950000000000    0.0337650000000000    0.0247000000000000 H
   0.7740650000000000    0.4178800000000000    0.0234000000000000 H
   0.5340850000000000    0.4178650000000000    0.0241000000000000 H
   0.9659400000000000    0.2251200000000000    0.3321000000000000 H
   0.5821499999999999    0.2264950000000000    0.2159750000000000 H
   0.9660900000000000    0.2260350000000000    0.4753600000000000 H
   0.5821450000000000    0.2259200000000000    0.4765400000000000 H
   0.5821550000000000    0.4659850000000000    0.4758000000000000 H
   0.7251050000000000    0.4659300000000000    0.3321350000000000 H
   0.7265900000000001    0.0821350000000000    0.2159150000000000 H
   0.7260000000000000    0.4662300000000000    0.4752600000000000 H
   0.7259300000000000    0.0821150000000000    0.4765950000000000 H
   0.9659100000000000    0.0821300000000000    0.4758850000000000 H
   0.5340500000000000    0.2748750000000000    0.1678650000000000 H
   0.9178400000000000    0.2735000000000000    0.2840200000000000 H
   0.5339050000000000    0.2739600000000000    0.0246350000000000 H
   0.9178500000000001    0.2740750000000000    0.0234550000000000 H
   0.9178400000000000    0.0340100000000000    0.0241950000000000 H
   0.7737200000000000    0.2737250000000000    0.1678700000000000 H
   0.7743249999999999    0.2744050000000000    0.2837700000000000 H
   0.7262700000000000    0.2262700000000000    0.3321250000000000 H
   0.7256650000000000    0.2255900000000000    0.2162250000000000 H
   0.2748900000000000    0.5340650000000000    0.1678600000000000 H
   0.2739950000000000    0.5337650000000000    0.0247000000000000 H
   0.2740650000000000    0.9178800000000000    0.0234000000000000 H
   0.0340850000000000    0.9178649999999999    0.0241000000000000 H
   0.4659400000000000    0.7251200000000000    0.3321000000000000 H
   0.0821500000000000    0.7264950000000000    0.2159750000000000 H
   0.4660900000000000    0.7260350000000000    0.4753600000000000 H
   0.0821450000000000    0.7259200000000000    0.4765400000000000 H
   0.0821550000000000    0.9659850000000000    0.4758000000000000 H
   0.2265900000000000    0.5821350000000000    0.2159150000000000 H
   0.2260000000000000    0.9662299999999999    0.4752600000000000 H
   0.2259300000000000    0.5821149999999999    0.4765950000000000 H
   0.4659100000000000    0.5821300000000000    0.4758850000000000 H
   0.0340500000000000    0.7748750000000000    0.1678650000000000 H
   0.4178400000000000    0.7735000000000001    0.2840200000000000 H
   0.0339050000000000    0.7739600000000000    0.0246350000000000 H
   0.4178500000000000    0.7740750000000001    0.0234550000000000 H
   0.4178400000000000    0.5340100000000000    0.0241950000000000 H
   0.2737200000000000    0.7737250000000000    0.1678700000000000 H
   0.2743250000000000    0.7744050000000000    0.2837700000000000 H
   0.2262700000000000    0.7262700000000000    0.3321250000000000 H
   0.2256650000000000    0.7255900000000000    0.2162250000000000 H
   0.7748900000000001    0.5340650000000000    0.1678600000000000 H
   0.7734050000000000    0.9178600000000000    0.2840800000000000 H
   0.7739950000000000    0.5337650000000000    0.0247000000000000 H
   0.7740650000000000    0.9178800000000000    0.0234000000000000 H
   0.5340850000000000    0.9178649999999999    0.0241000000000000 H
   0.9659400000000000    0.7251200000000000    0.3321000000000000 H
   0.5821499999999999    0.7264950000000000    0.2159750000000000 H
   0.9660900000000000    0.7260350000000000    0.4753600000000000 H
   0.5821450000000000    0.7259200000000000    0.4765400000000000 H
   0.5821550000000000    0.9659850000000000    0.4758000000000000 H
   0.7251050000000000    0.9659300000000000    0.3321350000000000 H
   0.7265900000000001    0.5821350000000000    0.2159150000000000 H
   0.7260000000000000    0.9662299999999999    0.4752600000000000 H
   0.7259300000000000    0.5821149999999999    0.4765950000000000 H
   0.9659100000000000    0.5821300000000000    0.4758850000000000 H
   0.5340500000000000    0.7748750000000000    0.1678650000000000 H
   0.9178400000000000    0.7735000000000001    0.2840200000000000 H
   0.5339050000000000    0.7739600000000000    0.0246350000000000 H
   0.9178500000000001    0.7740750000000001    0.0234550000000000 H
   0.9178400000000000    0.5340100000000000    0.0241950000000000 H
   0.7737200000000000    0.7737250000000000    0.1678700000000000 H
   0.7743249999999999    0.7744050000000000    0.2837700000000000 H
   0.7262700000000000    0.7262700000000000    0.3321250000000000 H
   0.7256650000000000    0.7255900000000000    0.2162250000000000 H
   0.2748900000000000    0.0340650000000000    0.6678600000000000 H
   0.2734050000000000    0.4178600000000000    0.7840800000000000 H
   0.2739950000000000    0.0337650000000000    0.5246999999999999 H
   0.2740650000000000    0.4178800000000000    0.5234000000000000 H
   0.0340850000000000    0.4178650000000000    0.5241000000000000 H
   0.4659400000000000    0.2251200000000000    0.8321000000000001 H
   0.0821500000000000    0.2264950000000000    0.7159750000000000 H
   0.4660900000000000    0.2260350000000000    0.9753600000000000 H
   0.0821450000000000    0.2259200000000000    0.9765400000000000 H
   0.0821550000000000    0.4659850000000000    0.9758000000000000 H
   0.2251050000000000    0.4659300000000000    0.8321350000000001 H
   0.2265900000000000    0.0821350000000000    0.7159150000000000 H
   0.2260000000000000    0.4662300000000000    0.9752600000000000 H
   0.2259300000000000    0.0821150000000000    0.9765950000000000 H
   0.4659100000000000    0.0821300000000000    0.9758850000000000 H
   0.0340500000000000    0.2748750000000000    0.6678649999999999 H
   0.4178400000000000    0.2735000000000000    0.7840199999999999 H
   0.0339050000000000    0.2739600000000000    0.5246350000000000 H
   0.4178500000000000    0.2740750000000000    0.5234550000000000 H
   0.4178400000000000    0.0340100000000000    0.5241950000000000 H
   0.2737200000000000    0.2737250000000000    0.6678700000000000 H
   0.2743250000000000    0.2744050000000000    0.7837700000000001 H
   0.2262700000000000    0.2262700000000000    0.8321250000000000 H
   0.2256650000000000    0.2255900000000000    0.7162250000000000 H
   0.7748900000000001    0.0340650000000000    0.6678600000000000 H
   0.7734050000000000    0.4178600000000000    0.7840800000000000 H
   0.7739950000000000    0.0337650000000000    0.5246999999999999 H
   0.7740650000000000    0.4178800000000000    0.5234000000000000 H
   0.5340850000000000    0.4178650000000000    0.5241000000000000 H
   0.9659400000000000    0.2251200000000000    0.8321000000000001 H
   0.5821499999999999    0.2264950000000000    0.7159750000000000 H
   0.9660900000000000    0.2260350000000000    0.9753600000000000 H
   0.5821450000000000    0.2259200000000000    0.9765400000000000 H
   0.5821550000000000    0.4659850000000000    0.9758000000000000 H
   0.7251050000000000    0.4659300000000000    0.8321350000000001 H
   0.7265900000000001    0.0821350000000000    0.7159150000000000 H
   0.7260000000000000    0.4662300000000000    0.9752600000000000 H
   0.7259300000000000    0.0821150000000000    0.9765950000000000 H
   0.9659100000000000    0.0821300000000000    0.9758850000000000 H
   0.5340500000000000    0.2748750000000000    0.6678649999999999 H
   0.9178400000000000    0.2735000000000000    0.7840199999999999 H
   0.5339050000000000    0.2739600000000000    0.5246350000000000 H
   0.9178500000000001    0.2740750000000000    0.5234550000000000 H
   0.9178400000000000    0.0340100000000000    0.5241950000000000 H
   0.7737200000000000    0.2737250000000000    0.6678700000000000 H
   0.7743249999999999    0.2744050000000000    0.7837700000000001 H
   0.7262700000000000    0.2262700000000000    0.8321250000000000 H
   0.7256650000000000    0.2255900000000000    0.7162250000000000 H
   0.2748900000000000    0.5340650000000000    0.6678600000000000 H
   0.2734050000000000    0.9178600000000000    0.7840800000000000 H
   0.2739950000000000    0.5337650000000000    0.5246999999999999 H
   0.2740650000000000    0.9178800000000000    0.5234000000000000 H
   0.0340850000000000    0.9178649999999999    0.5241000000000000 H
   0.4659400000000000    0.7251200000000000    0.8321000000000001 H
   0.0821500000000000    0.7264950000000000    0.7159750000000000 H
   0.4660900000000000    0.7260350000000000    0.9753600000000000 H
   0.0821450000000000    0.7259200000000000    0.9765400000000000 H
   0.0821550000000000    0.9659850000000000    0.9758000000000000 H
   0.2251050000000000    0.9659300000000000    0.8321350000000001 H
   0.2265900000000000    0.5821350000000000    0.7159150000000000 H
   0.2260000000000000    0.9662299999999999    0.9752600000000000 H
   0.2259300000000000    0.5821149999999999    0.9765950000000000 H
   0.4659100000000000    0.5821300000000000    0.9758850000000000 H
   0.0340500000000000    0.7748750000000000    0.6678649999999999 H
   0.4178400000000000    0.7735000000000001    0.7840199999999999 H
   0.0339050000000000    0.7739600000000000    0.5246350000000000 H
   0.4178500000000000    0.7740750000000001    0.5234550000000000 H
   0.4178400000000000    0.5340100000000000    0.5241950000000000 H
   0.2737200000000000    0.7737250000000000    0.6678700000000000 H
   0.2743250000000000    0.7744050000000000    0.7837700000000001 H
   0.2262700000000000    0.7262700000000000    0.8321250000000000 H
   0.2256650000000000    0.7255900000000000    0.7162250000000000 H
   0.7748900000000001    0.5340650000000000    0.6678600000000000 H
   0.7734050000000000    0.9178600000000000    0.7840800000000000 H
   0.7739950000000000    0.5337650000000000    0.5246999999999999 H
   0.7740650000000000    0.9178800000000000    0.5234000000000000 H
   0.5340850000000000    0.9178649999999999    0.5241000000000000 H
   0.9659400000000000    0.7251200000000000    0.8321000000000001 H
   0.5821499999999999    0.7264950000000000    0.7159750000000000 H
   0.9660900000000000    0.7260350000000000    0.9753600000000000 H
   0.5821450000000000    0.7259200000000000    0.9765400000000000 H
   0.5821550000000000    0.9659850000000000    0.9758000000000000 H
   0.7251050000000000    0.9659300000000000    0.8321350000000001 H
   0.7265900000000001    0.5821350000000000    0.7159150000000000 H
   0.7260000000000000    0.9662299999999999    0.9752600000000000 H
   0.7259300000000000    0.5821149999999999    0.9765950000000000 H
   0.9659100000000000    0.5821300000000000    0.9758850000000000 H
   0.5340500000000000    0.7748750000000000    0.6678649999999999 H
   0.9178400000000000    0.7735000000000001    0.7840199999999999 H
   0.5339050000000000    0.7739600000000000    0.5246350000000000 H
   0.9178500000000001    0.7740750000000001    0.5234550000000000 H
   0.9178400000000000    0.5340100000000000    0.5241950000000000 H
   0.7737200000000000    0.7737250000000000    0.6678700000000000 H
   0.7743249999999999    0.7744050000000000    0.7837700000000001 H
   0.7262700000000000    0.7262700000000000    0.8321250000000000 H
   0.7256650000000000    0.7255900000000000    0.7162250000000000 H
   0.3056500000000000    0.4445350000000000    0.1945600000000000 C
   0.2769300000000000    0.4731900000000000    0.2232000000000000 C
   0.2629500000000000    0.4538450000000000    0.2695300000000000 C
   0.3054550000000000    0.4442900000000000    0.0555000000000000 C
   0.2768000000000000    0.4730450000000000    0.0268350000000000 C
   0.2632900000000000    0.0193600000000000    0.0137050000000000 C
   0.2633300000000000    0.4538550000000000    0.0129550000000000 C
   0.0195350000000000    0.4538450000000000    0.0133500000000000 C
   0.0554800000000000    0.1942750000000000    0.3054500000000000 C
   0.0268150000000000    0.2230450000000000    0.2768250000000000 C
   0.4804750000000000    0.2362100000000000    0.2961500000000000 C
   0.0461650000000000    0.2369800000000000    0.2300000000000000 C
   0.0556050000000000    0.1945850000000000    0.4445200000000000 C
   0.0268950000000000    0.2232100000000000    0.4731850000000000 C
   0.4805600000000000    0.2367300000000000    0.4863400000000000 C
   0.0461600000000000    0.2366650000000000    0.4870000000000000 C
   0.0461650000000000    0.4805000000000000    0.4865000000000000 C
   0.2362050000000000    0.4804750000000000    0.2961550000000000 C
   0.1945350000000000    0.0557100000000000    0.4444500000000000 C
   0.2232000000000000    0.0269500000000000    0.4731550000000000 C
   0.2367000000000000    0.4806350000000000    0.4862900000000000 C
   0.2366600000000000    0.0461400000000000    0.4870400000000000 C
   0.4804550000000000    0.0461500000000000    0.4866500000000000 C
   0.4445150000000000    0.3057100000000000    0.1945050000000000 C
   0.4731750000000000    0.2769600000000000    0.2231500000000000 C
   0.0195200000000000    0.2637800000000000    0.2038450000000000 C
   0.4538300000000000    0.2630150000000000    0.2695000000000000 C
   0.4443900000000000    0.3054100000000000    0.0554750000000000 C
   0.4730950000000000    0.2767900000000000    0.0268050000000000 C
   0.0194350000000000    0.2632650000000000    0.0136600000000000 C
   0.4538300000000000    0.2633250000000000    0.0129950000000000 C
   0.4538300000000000    0.0194950000000000    0.0134000000000000 C
   0.3054500000000000    0.3054950000000000    0.1942900000000000 C
   0.2767950000000000    0.2768300000000000    0.2230400000000000 C
   0.2631350000000000    0.2631400000000000    0.2038500000000000 C
   0.2634700000000000    0.2635200000000000    0.2693600000000000 C
   0.4445450000000000    0.4444950000000000    0.0556400000000000 C
   0.4731950000000000    0.4731650000000000    0.0269200000000000 C
   0.1945400000000000    0.1945000000000000    0.3057050000000000 C
   0.2232000000000000    0.2231700000000000    0.2769550000000000 C
   0.2368550000000000    0.2368550000000000    0.2961500000000000 C
   0.2365200000000000    0.2364750000000000    0.2306350000000000 C
   0.0554450000000000    0.0555000000000000    0.4443650000000000 C
   0.0268000000000000    0.0268300000000000    0.4730700000000000 C
   0.8056500000000000    0.4445350000000000    0.1945600000000000 C
   0.7769300000000000    0.4731900000000000    0.2232000000000000 C
   0.7637900000000000    0.0195200000000000    0.2038000000000000 C
   0.7629500000000000    0.4538450000000000    0.2695300000000000 C
   0.8054550000000000    0.4442900000000000    0.0555000000000000 C
   0.7767999999999999    0.4730450000000000    0.0268350000000000 C
   0.7632900000000000    0.0193600000000000    0.0137050000000000 C
   0.7633300000000001    0.4538550000000000    0.0129550000000000 C
   0.5195350000000000    0.4538450000000000    0.0133500000000000 C
   0.5554800000000000    0.1942750000000000    0.3054500000000000 C
   0.5268150000000000    0.2230450000000000    0.2768250000000000 C
   0.9804750000000000    0.2362100000000000    0.2961500000000000 C
   0.5461650000000000    0.2369800000000000    0.2300000000000000 C
   0.5556050000000000    0.1945850000000000    0.4445200000000000 C
   0.5268950000000000    0.2232100000000000    0.4731850000000000 C
   0.9805600000000000    0.2367300000000000    0.4863400000000000 C
   0.5461600000000000    0.2366650000000000    0.4870000000000000 C
   0.5461650000000000    0.4805000000000000    0.4865000000000000 C
   0.6943400000000000    0.0554600000000000    0.3054350000000000 C
   0.7230650000000001    0.0268050000000000    0.2767950000000000 C
   0.7362050000000000    0.4804750000000000    0.2961550000000000 C
   0.7370400000000000    0.0461500000000000    0.2304650000000000 C
   0.6945350000000000    0.0557100000000000    0.4444500000000000 C
   0.7232000000000001    0.0269500000000000    0.4731550000000000 C
   0.7367000000000000    0.4806350000000000    0.4862900000000000 C
   0.7366600000000000    0.0461400000000000    0.4870400000000000 C
   0.9804550000000001    0.0461500000000000    0.4866500000000000 C
   0.9445150000000000    0.3057100000000000    0.1945050000000000 C
   0.9731750000000000    0.2769600000000000    0.2231500000000000 C
   0.5195200000000000    0.2637800000000000    0.2038450000000000 C
   0.9538300000000000    0.2630150000000000    0.2695000000000000 C
   0.9443900000000001    0.3054100000000000    0.0554750000000000 C
   0.9730950000000000    0.2767900000000000    0.0268050000000000 C
   0.5194350000000000    0.2632650000000000    0.0136600000000000 C
   0.9538300000000000    0.2633250000000000    0.0129950000000000 C
   0.9538300000000000    0.0194950000000000    0.0134000000000000 C
   0.8054500000000000    0.3054950000000000    0.1942900000000000 C
   0.7767950000000000    0.2768300000000000    0.2230400000000000 C
   0.7631350000000000    0.2631400000000000    0.2038500000000000 C
   0.7634700000000000    0.2635200000000000    0.2693600000000000 C
   0.9445450000000000    0.4444950000000000    0.0556400000000000 C
   0.9731950000000000    0.4731650000000000    0.0269200000000000 C
   0.6945399999999999    0.1945000000000000    0.3057050000000000 C
   0.7232000000000001    0.2231700000000000    0.2769550000000000 C
   0.7368550000000000    0.2368550000000000    0.2961500000000000 C
   0.7365200000000001    0.2364750000000000    0.2306350000000000 C
   0.5554450000000000    0.0555000000000000    0.4443650000000000 C
   0.5268000000000000    0.0268300000000000    0.4730700000000000 C
   0.2637900000000000    0.5195200000000000    0.2038000000000000 C
   0.3054550000000000    0.9442900000000001    0.0555000000000000 C
   0.2768000000000000    0.9730449999999999    0.0268350000000000 C
   0.2632900000000000    0.5193600000000000    0.0137050000000000 C
   0.2633300000000000    0.9538550000000000    0.0129550000000000 C
   0.0195350000000000    0.9538450000000001    0.0133500000000000 C
   0.0554800000000000    0.6942750000000000    0.3054500000000000 C
   0.0268150000000000    0.7230449999999999    0.2768250000000000 C
   0.4804750000000000    0.7362100000000000    0.2961500000000000 C
   0.0461650000000000    0.7369800000000000    0.2300000000000000 C
   0.0556050000000000    0.6945850000000000    0.4445200000000000 C
   0.0268950000000000    0.7232100000000000    0.4731850000000000 C
   0.4805600000000000    0.7367300000000000    0.4863400000000000 C
   0.0461600000000000    0.7366650000000000    0.4870000000000000 C
   0.0461650000000000    0.9804999999999999    0.4865000000000000 C
   0.1943400000000000    0.5554600000000000    0.3054350000000000 C
   0.2230650000000000    0.5268050000000000    0.2767950000000000 C
   0.2370400000000000    0.5461500000000000    0.2304650000000000 C
   0.1945350000000000    0.5557100000000000    0.4444500000000000 C
   0.2232000000000000    0.5269500000000000    0.4731550000000000 C
   0.2367000000000000    0.9806349999999999    0.4862900000000000 C
   0.2366600000000000    0.5461400000000000    0.4870400000000000 C
   0.4804550000000000    0.5461500000000000    0.4866500000000000 C
   0.4445150000000000    0.8057099999999999    0.1945050000000000 C
   0.4731750000000000    0.7769600000000000    0.2231500000000000 C
   0.0195200000000000    0.7637800000000000    0.2038450000000000 C
   0.4538300000000000    0.7630150000000000    0.2695000000000000 C
   0.4443900000000000    0.8054100000000000    0.0554750000000000 C
   0.4730950000000000    0.7767900000000000    0.0268050000000000 C
   0.0194350000000000    0.7632650000000001    0.0136600000000000 C
   0.4538300000000000    0.7633250000000000    0.0129950000000000 C
   0.4538300000000000    0.5194950000000000    0.0134000000000000 C
   0.3054500000000000    0.8054950000000001    0.1942900000000000 C
   0.2767950000000000    0.7768300000000000    0.2230400000000000 C
   0.2631350000000000    0.7631399999999999    0.2038500000000000 C
   0.2634700000000000    0.7635200000000000    0.2693600000000000 C
   0.4445450000000000    0.9444950000000000    0.0556400000000000 C
   0.4731950000000000    0.9731650000000001    0.0269200000000000 C
   0.1945400000000000    0.6945000000000000    0.3057050000000000 C
   0.2232000000000000    0.7231700000000000    0.2769550000000000 C
   0.2368550000000000    0.7368550000000000    0.2961500000000000 C
   0.2365200000000000    0.7364750000000000    0.2306350000000000 C
   0.0554450000000000    0.5555000000000000    0.4443650000000000 C
   0.0268000000000000    0.5268300000000000    0.4730700000000000 C
   0.8056500000000000    0.9445350000000000    0.1945600000000000 C
   0.7769300000000000    0.9731900000000000    0.2232000000000000 C
   0.7637900000000000    0.5195200000000000    0.2038000000000000 C
   0.7629500000000000    0.9538450000000001    0.2695300000000000 C
   0.8054550000000000    0.9442900000000001    0.0555000000000000 C
   0.7767999999999999    0.9730449999999999    0.0268350000000000 C
   0.7632900000000000    0.5193600000000000    0.0137050000000000 C
   0.7633300000000001    0.9538550000000000    0.0129550000000000 C
   0.5195350000000000    0.9538450000000001    0.0133500000000000 C
   0.5554800000000000    0.6942750000000000    0.3054500000000000 C
   0.5268150000000000    0.7230449999999999    0.2768250000000000 C
   0.9804750000000000    0.7362100000000000    0.2961500000000000 C
   0.5461650000000000    0.7369800000000000    0.2300000000000000 C
   0.5556050000000000    0.6945850000000000    0.4445200000000000 C
   0.5268950000000000    0.7232100000000000    0.4731850000000000 C
   0.9805600000000000    0.7367300000000000    0.4863400000000000 C
   0.5461600000000000    0.7366650000000000    0.4870000000000000 C
   0.5461650000000000    0.9804999999999999    0.4865000000000000 C
   0.6943400000000000    0.5554600000000000    0.3054350000000000 C
   0.7230650000000001    0.5268050000000000    0.2767950000000000 C
   0.7362050000000000    0.9804750000000000    0.2961550000000000 C
   0.7370400000000000    0.5461500000000000    0.2304650000000000 C
   0.6945350000000000    0.5557100000000000    0.4444500000000000 C
   0.7232000000000001    0.5269500000000000    0.4731550000000000 C
   0.7367000000000000    0.9806349999999999    0.4862900000000000 C
   0.7366600000000000    0.5461400000000000    0.4870400000000000 C
   0.9804550000000001    0.5461500000000000    0.4866500000000000 C
   0.9445150000000000    0.8057099999999999    0.1945050000000000 C
   0.9731750000000000    0.7769600000000000    0.2231500000000000 C
   0.5195200000000000    0.7637800000000000    0.2038450000000000 C
   0.9538300000000000    0.7630150000000000    0.2695000000000000 C
   0.9443900000000001    0.8054100000000000    0.0554750000000000 C
   0.9730950000000000    0.7767900000000000    0.0268050000000000 C
   0.5194350000000000    0.7632650000000001    0.0136600000000000 C
   0.9538300000000000    0.7633250000000000    0.0129950000000000 C
   0.9538300000000000    0.5194950000000000    0.0134000000000000 C
   0.8054500000000000    0.8054950000000001    0.1942900000000000 C
   0.7767950000000000    0.7768300000000000    0.2230400000000000 C
   0.7631350000000000    0.7631399999999999    0.2038500000000000 C
   0.7634700000000000    0.7635200000000000    0.2693600000000000 C
   0.9445450000000000    0.9444950000000000    0.0556400000000000 C
   0.9731950000000000    0.9731650000000001    0.0269200000000000 C
   0.6945399999999999    0.6945000000000000    0.3057050000000000 C
   0.7232000000000001    0.7231700000000000    0.2769550000000000 C
   0.7368550000000000    0.7368550000000000    0.2961500000000000 C
   0.7365200000000001    0.7364750000000000    0.2306350000000000 C
   0.5554450000000000    0.5555000000000000    0.4443650000000000 C
   0.5268000000000000    0.5268300000000000    0.4730700000000000 C