Cd96 H576 C567 O384
1.0
  24.1649998675005619    0.0000000000000000   -0.0025305528778388
  -0.9281509098353474   30.7479550549447467    0.0493946117483197
   0.0000000000000000    0.0000000000000000   34.0859999999999985
Cd H C O
96 576 567 384
direct
   0.3435500000000000    0.8511150000000001    0.0720900000000000 Cd
   0.4065800000000000    0.8988149999999999    0.8222450000000000 Cd
   0.3435500000000000    0.8511150000000001    0.5720900000000000 Cd
   0.4065800000000000    0.8988149999999999    0.3222450000000000 Cd
   0.2134600000000000    0.8865700000000001    0.0974850000000000 Cd
   0.2134600000000000    0.8865700000000001    0.5974850000000000 Cd
   0.5365500000000000    0.8632649999999999    0.3474050000000000 Cd
   0.5365500000000000    0.8632649999999999    0.8474050000000000 Cd
   0.3706400000000000    0.7462299999999999    0.1047300000000000 Cd
   0.3706400000000000    0.7462299999999999    0.6047300000000000 Cd
   0.5934199999999999    0.1011900000000000    0.6777500000000000 Cd
   0.6564600000000000    0.1488950000000000    0.9279150000000000 Cd
   0.5934199999999999    0.1011900000000000    0.1777500000000000 Cd
   0.6564600000000000    0.1488950000000000    0.4279150000000000 Cd
   0.4634600000000000    0.1367350000000000    0.1525900000000000 Cd
   0.4634600000000000    0.1367350000000000    0.6525900000000000 Cd
   0.7865500000000000    0.1134300000000000    0.4025150000000000 Cd
   0.7865500000000000    0.1134300000000000    0.9025150000000000 Cd
   0.6208399999999999    0.9959600000000000    0.1456900000000000 Cd
   0.6208399999999999    0.9959600000000000    0.6456900000000000 Cd
   0.6293700000000000    0.2537600000000000    0.8952500000000000 Cd
   0.6293700000000000    0.2537600000000000    0.3952500000000000 Cd
   0.3791600000000000    0.0000000000000000    0.3543000000000000 Cd
   0.3791600000000000    0.0000000000000000    0.8543000000000001 Cd
   0.8435400000000000    0.3511300000000000    0.5720900000000000 Cd
   0.9065800000000001    0.3988150000000000    0.3222400000000000 Cd
   0.8435400000000000    0.3511300000000000    0.0720900000000000 Cd
   0.9065800000000001    0.3988150000000000    0.8222400000000001 Cd
   0.0365600000000000    0.3632750000000000    0.3474050000000000 Cd
   0.0365600000000000    0.3632750000000000    0.8474050000000000 Cd
   0.7134400000000000    0.3865700000000000    0.0974900000000000 Cd
   0.7134400000000000    0.3865700000000000    0.5974900000000000 Cd
   0.8707600000000000    0.2461650000000000    0.1046800000000000 Cd
   0.8707600000000000    0.2461650000000000    0.6046800000000000 Cd
   0.1564600000000000    0.6488800000000000    0.9279100000000000 Cd
   0.0934200000000000    0.6011900000000000    0.1777600000000000 Cd
   0.1564600000000000    0.6488800000000000    0.4279100000000000 Cd
   0.0934200000000000    0.6011900000000000    0.6777600000000000 Cd
   0.9634400000000000    0.6367250000000000    0.1525950000000000 Cd
   0.9634400000000000    0.6367250000000000    0.6525950000000000 Cd
   0.2865700000000000    0.6134350000000000    0.9025099999999999 Cd
   0.2865700000000000    0.6134350000000000    0.4025100000000000 Cd
   0.1208400000000000    0.4959750000000000    0.1457000000000000 Cd
   0.1208400000000000    0.4959750000000000    0.6456999999999999 Cd
   0.1292600000000000    0.7538250000000000    0.3953100000000000 Cd
   0.1292600000000000    0.7538250000000000    0.8953100000000001 Cd
   0.8791500000000000    0.5000000000000000    0.3543000000000000 Cd
   0.8791500000000000    0.5000000000000000    0.8543000000000001 Cd
   0.3435500000000000    0.3511150000000000    0.0720900000000000 Cd
   0.4065800000000000    0.3988150000000000    0.8222450000000000 Cd
   0.3435500000000000    0.3511150000000000    0.5720900000000000 Cd
   0.4065800000000000    0.3988150000000000    0.3222450000000000 Cd
   0.2134600000000000    0.3865700000000000    0.0974850000000000 Cd
   0.2134600000000000    0.3865700000000000    0.5974850000000000 Cd
   0.5365500000000000    0.3632650000000000    0.3474050000000000 Cd
   0.5365500000000000    0.3632650000000000    0.8474050000000000 Cd
   0.3706400000000000    0.2462300000000000    0.6047300000000000 Cd
   0.3706400000000000    0.2462300000000000    0.1047300000000000 Cd
   0.5934199999999999    0.6011900000000000    0.1777500000000000 Cd
   0.6564600000000000    0.6488950000000000    0.4279150000000000 Cd
   0.5934199999999999    0.6011900000000000    0.6777500000000000 Cd
   0.6564600000000000    0.6488950000000000    0.9279150000000000 Cd
   0.4634600000000000    0.6367350000000001    0.1525900000000000 Cd
   0.4634600000000000    0.6367350000000001    0.6525900000000000 Cd
   0.7865500000000000    0.6134300000000000    0.4025150000000000 Cd
   0.7865500000000000    0.6134300000000000    0.9025150000000000 Cd
   0.6208399999999999    0.4959600000000000    0.1456900000000000 Cd
   0.6208399999999999    0.4959600000000000    0.6456900000000000 Cd
   0.6293700000000000    0.7537600000000000    0.3952500000000000 Cd
   0.6293700000000000    0.7537600000000000    0.8952500000000000 Cd
   0.3791600000000000    0.5000000000000000    0.3543000000000000 Cd
   0.3791600000000000    0.5000000000000000    0.8543000000000001 Cd
   0.8435400000000000    0.8511299999999999    0.5720900000000000 Cd
   0.9065800000000001    0.8988149999999999    0.3222400000000000 Cd
   0.8435400000000000    0.8511299999999999    0.0720900000000000 Cd
   0.9065800000000001    0.8988149999999999    0.8222400000000001 Cd
   0.0365600000000000    0.8632750000000000    0.3474050000000000 Cd
   0.0365600000000000    0.8632750000000000    0.8474050000000000 Cd
   0.7134400000000000    0.8865700000000001    0.0974900000000000 Cd
   0.7134400000000000    0.8865700000000001    0.5974900000000000 Cd
   0.8707600000000000    0.7461650000000000    0.1046800000000000 Cd
   0.8707600000000000    0.7461650000000000    0.6046800000000000 Cd
   0.1564600000000000    0.1488800000000000    0.9279100000000000 Cd
   0.0934200000000000    0.1011900000000000    0.1777600000000000 Cd
   0.1564600000000000    0.1488800000000000    0.4279100000000000 Cd
   0.0934200000000000    0.1011900000000000    0.6777600000000000 Cd
   0.9634400000000000    0.1367250000000000    0.6525950000000000 Cd
   0.9634400000000000    0.1367250000000000    0.1525950000000000 Cd
   0.2865700000000000    0.1134350000000000    0.9025099999999999 Cd
   0.2865700000000000    0.1134350000000000    0.4025100000000000 Cd
   0.1208400000000000    0.9959750000000001    0.1457000000000000 Cd
   0.1208400000000000    0.9959750000000001    0.6456999999999999 Cd
   0.1292600000000000    0.2538250000000000    0.3953100000000000 Cd
   0.1292600000000000    0.2538250000000000    0.8953100000000001 Cd
   0.8791500000000000    0.0000000000000000    0.3543000000000000 Cd
   0.8791500000000000    0.0000000000000000    0.8543000000000001 Cd
   0.4856600000000000    0.1405300000000000    0.3919950000000000 H
   0.4580500000000000    0.1782800000000000    0.3584250000000000 H
   0.4621000000000000    0.0797450000000000    0.3462550000000000 H
   0.5696000000000000    0.1604850000000000    0.2811600000000000 H
   0.5108800000000000    0.1911800000000000    0.2911900000000000 H
   0.5579300000000000    0.1209050000000000    0.3449500000000000 H
   0.4105500000000000    0.0924650000000000    0.2843600000000000 H
   0.4125300000000000    0.1491700000000000    0.2930300000000000 H
   0.5134200000000000    0.0924150000000000    0.2799000000000000 H
   0.9855400000000000    0.6405400000000000    0.3920000000000000 H
   0.9578800000000000    0.6782750000000000    0.3584350000000000 H
   0.9620800000000000    0.5797500000000000    0.3462500000000000 H
   0.0695200000000000    0.6606000000000000    0.2811950000000000 H
   0.0107400000000000    0.6912350000000000    0.2912050000000000 H
   0.0579000000000000    0.6210400000000000    0.3450000000000000 H
   0.9105600000000000    0.5924500000000000    0.2843400000000000 H
   0.9124700000000000    0.6491500000000000    0.2930150000000000 H
   0.0134400000000000    0.5924750000000000    0.2799500000000000 H
   0.9855400000000000    0.6405400000000000    0.8920000000000000 H
   0.9578800000000000    0.6782750000000000    0.8584350000000001 H
   0.9620800000000000    0.5797500000000000    0.8462499999999999 H
   0.0695200000000000    0.6606000000000000    0.7811950000000000 H
   0.0107400000000000    0.6912350000000000    0.7912049999999999 H
   0.0579000000000000    0.6210400000000000    0.8450000000000000 H
   0.9105600000000000    0.5924500000000000    0.7843400000000000 H
   0.9124700000000000    0.6491500000000000    0.7930150000000000 H
   0.0134400000000000    0.5924750000000000    0.7799499999999999 H
   0.2646800000000000    0.6095600000000000    0.6420750000000000 H
   0.2924700000000000    0.5718100000000000    0.6086900000000000 H
   0.2879500000000000    0.6702950000000000    0.5960000000000000 H
   0.1807400000000000    0.5889550000000000    0.5313600000000001 H
   0.2397200000000000    0.5585450000000000    0.5415300000000000 H
   0.1922100000000000    0.6287650000000000    0.5949800000000000 H
   0.3394300000000000    0.6575650000000000    0.5341850000000000 H
   0.3377300000000000    0.6008800000000000    0.5431150000000000 H
   0.2364800000000000    0.6572700000000000    0.5298950000000000 H
   0.2646800000000000    0.6095600000000000    0.1420750000000000 H
   0.2924700000000000    0.5718100000000000    0.1086900000000000 H
   0.2879500000000000    0.6702950000000000    0.0960000000000000 H
   0.1807400000000000    0.5889550000000000    0.0313600000000000 H
   0.2397200000000000    0.5585450000000000    0.0415300000000000 H
   0.1922100000000000    0.6287650000000000    0.0949800000000000 H
   0.3394300000000000    0.6575650000000000    0.0341850000000000 H
   0.3377300000000000    0.6008800000000000    0.0431150000000000 H
   0.2364800000000000    0.6572700000000000    0.0298950000000000 H
   0.4130400000000000    0.0492750000000000    0.1597300000000000 H
   0.4368800000000000    0.9548550000000000    0.1384950000000000 H
   0.4098200000000000    0.9942000000000000    0.1066800000000000 H
   0.3248800000000000    0.9985700000000000    0.1478650000000000 H
   0.4531500000000000    0.0334200000000000    0.2247450000000000 H
   0.4636500000000000    0.9785699999999999    0.2107650000000000 H
   0.3521400000000000    0.0224950000000000    0.2195650000000000 H
   0.3093200000000000    0.9496249999999999    0.2043300000000000 H
   0.3758500000000000    0.9277550000000000    0.1987650000000000 H
   0.3367700000000000    0.7004950000000000    0.9102399999999999 H
   0.3134100000000000    0.7948950000000000    0.8883850000000000 H
   0.3402400000000000    0.7553000000000001    0.8568249999999999 H
   0.4251200000000000    0.7507900000000001    0.8980250000000001 H
   0.2965200000000000    0.7167749999999999    0.9750900000000000 H
   0.2864300000000000    0.7716050000000000    0.9607000000000000 H
   0.4409800000000000    0.7998300000000000    0.9542500000000000 H
   0.3746300000000000    0.8220200000000000    0.9485150000000000 H
   0.3976200000000000    0.7272500000000000    0.9699550000000000 H
   0.4130400000000000    0.0492750000000000    0.6597300000000000 H
   0.4368800000000000    0.9548550000000000    0.6384950000000000 H
   0.4098200000000000    0.9942000000000000    0.6066800000000000 H
   0.3248800000000000    0.9985700000000000    0.6478650000000000 H
   0.4531500000000000    0.0334200000000000    0.7247450000000000 H
   0.4636500000000000    0.9785699999999999    0.7107650000000000 H
   0.3521400000000000    0.0224950000000000    0.7195650000000000 H
   0.3093200000000000    0.9496249999999999    0.7043300000000000 H
   0.3758500000000000    0.9277550000000000    0.6987650000000000 H
   0.3367700000000000    0.7004950000000000    0.4102400000000000 H
   0.3134100000000000    0.7948950000000000    0.3883850000000000 H
   0.3402400000000000    0.7553000000000001    0.3568250000000000 H
   0.4251200000000000    0.7507900000000001    0.3980250000000000 H
   0.2965200000000000    0.7167749999999999    0.4750900000000000 H
   0.2864300000000000    0.7716050000000000    0.4607000000000000 H
   0.4409800000000000    0.7998300000000000    0.4542500000000000 H
   0.3746300000000000    0.8220200000000000    0.4485150000000000 H
   0.3976200000000000    0.7272500000000000    0.4699550000000000 H
   0.5143500000000000    0.8594649999999999    0.1080000000000000 H
   0.5419700000000000    0.8217200000000000    0.1415700000000000 H
   0.5379000000000000    0.9202550000000000    0.1537400000000000 H
   0.4304000000000000    0.8395000000000000    0.2188350000000000 H
   0.4891400000000000    0.8088150000000001    0.2088100000000000 H
   0.4420600000000000    0.8790750000000001    0.1550100000000000 H
   0.5894300000000000    0.9075450000000000    0.2156350000000000 H
   0.5874800000000000    0.8508450000000001    0.2069700000000000 H
   0.4865700000000000    0.9075800000000001    0.2200550000000000 H
   0.7353100000000000    0.3904450000000000    0.8579250000000000 H
   0.7075200000000000    0.4281900000000000    0.8913150000000001 H
   0.7120500000000000    0.3297050000000000    0.9039550000000001 H
   0.8192500000000000    0.4110550000000000    0.9686350000000000 H
   0.7602700000000000    0.4414600000000000    0.9584650000000000 H
   0.8077800000000001    0.3712350000000000    0.9050199999999999 H
   0.6605600000000000    0.3424350000000000    0.9658150000000000 H
   0.6622700000000000    0.3991200000000000    0.9568850000000000 H
   0.7635100000000000    0.3427350000000000    0.9701050000000000 H
   0.7353100000000000    0.3904450000000000    0.3579250000000000 H
   0.7075200000000000    0.4281900000000000    0.3913150000000000 H
   0.7120500000000000    0.3297050000000000    0.4039550000000000 H
   0.8192500000000000    0.4110550000000000    0.4686350000000000 H
   0.7602700000000000    0.4414600000000000    0.4584650000000000 H
   0.8077800000000001    0.3712350000000000    0.4050200000000000 H
   0.6605600000000000    0.3424350000000000    0.4658150000000000 H
   0.6622700000000000    0.3991200000000000    0.4568850000000000 H
   0.7635100000000000    0.3427350000000000    0.4701050000000000 H
   0.6632400000000001    0.2995100000000000    0.5897600000000001 H
   0.6865800000000000    0.2051100000000000    0.6116100000000000 H
   0.6597600000000000    0.2447050000000000    0.6431500000000000 H
   0.5748900000000000    0.2492200000000000    0.6019750000000000 H
   0.7034800000000000    0.2832300000000000    0.5249050000000000 H
   0.7135700000000000    0.2284000000000000    0.5392600000000000 H
   0.5590200000000000    0.2001850000000000    0.5457500000000000 H
   0.6253600000000000    0.1779900000000000    0.5514800000000000 H
   0.6023800000000000    0.2727600000000000    0.5300350000000000 H
   0.5958646118487757    0.0818699524281384    0.7480508319079825 H
   0.6404555397699597    0.9613815918649282    0.7143090093685807 H
   0.6189632943416629    1.0195821923640396    0.7340273636222147 H
   0.5143500000000000    0.8594649999999999    0.6080000000000000 H
   0.5419700000000000    0.8217200000000000    0.6415700000000000 H
   0.5379000000000000    0.9202550000000000    0.6537400000000000 H
   0.4304000000000000    0.8395000000000000    0.7188350000000000 H
   0.4891400000000000    0.8088150000000001    0.7088099999999999 H
   0.4420600000000000    0.8790750000000001    0.6550100000000000 H
   0.5894300000000000    0.9075450000000000    0.7156350000000000 H
   0.5874800000000000    0.8508450000000001    0.7069700000000000 H
   0.4865700000000000    0.9075800000000001    0.7200550000000000 H
   0.5247983759292567    0.9397526796755156    0.8496529023138587 H
   0.6010485989973400    0.0903203330020207    0.8915114104981924 H
   0.7528716254052811    0.0530400818650353    0.8564505965986470 H
   0.6749490631010894    0.0689929516973173    0.8721180880788785 H
   0.5076223757043731    1.0091169411539442    0.8528655362396205 H
   0.4805102508016464    0.0310178685576379    0.8543755075131885 H
   0.4856600000000000    0.1405300000000000    0.8919950000000000 H
   0.4580500000000000    0.1782800000000000    0.8584250000000000 H
   0.4621000000000000    0.0797450000000000    0.8462550000000000 H
   0.5696000000000000    0.1604850000000000    0.7811600000000001 H
   0.5108800000000000    0.1911800000000000    0.7911900000000001 H
   0.5579300000000000    0.1209050000000000    0.8449500000000000 H
   0.4105500000000000    0.0924650000000000    0.7843599999999999 H
   0.4125300000000000    0.1491700000000000    0.7930300000000000 H
   0.5134200000000000    0.0924150000000000    0.7799000000000000 H
   0.6632400000000001    0.2995100000000000    0.0897600000000000 H
   0.6865800000000000    0.2051100000000000    0.1116100000000000 H
   0.6597600000000000    0.2447050000000000    0.1431500000000000 H
   0.5748900000000000    0.2492200000000000    0.1019750000000000 H
   0.7034800000000000    0.2832300000000000    0.0249050000000000 H
   0.7135700000000000    0.2284000000000000    0.0392600000000000 H
   0.5590200000000000    0.2001850000000000    0.0457500000000000 H
   0.6253600000000000    0.1779900000000000    0.0514800000000000 H
   0.6023800000000000    0.2727600000000000    0.0300350000000000 H
   0.5869600000000000    0.9507300000000001    0.3402500000000000 H
   0.5631200000000000    0.0451500000000000    0.3615050000000000 H
   0.5901800000000000    0.0000000000000000    0.3933200000000000 H
   0.6751100000000000    0.0000000000000000    0.3521000000000000 H
   0.5468400000000000    0.9665850000000000    0.2752550000000000 H
   0.5363400000000000    0.0214350000000000    0.2892400000000000 H
   0.6906700000000000    0.0503850000000000    0.2956500000000000 H
   0.6241400000000000    0.0722550000000000    0.3012400000000000 H
   0.6478500000000000    0.9775150000000000    0.2804400000000000 H
   0.7646800000000000    0.1095250000000000    0.6420650000000000 H
   0.7924500000000000    0.0717800000000000    0.6086700000000000 H
   0.6807299999999999    0.0889550000000000    0.5313550000000000 H
   0.7396900000000000    0.0585400000000000    0.5415200000000000 H
   0.6922100000000000    0.1287600000000000    0.5949500000000000 H
   0.7364700000000000    0.1572650000000000    0.5298500000000000 H
   0.8394100000000000    0.1575600000000000    0.5341850000000000 H
   0.8377100000000000    0.1008700000000000    0.5430950000000000 H
   0.7879600000000000    0.1702700000000000    0.5960550000000000 H
   0.7646800000000000    0.1095250000000000    0.1420650000000000 H
   0.7924500000000000    0.0717800000000000    0.1086700000000000 H
   0.6807299999999999    0.0889550000000000    0.0313550000000000 H
   0.7396900000000000    0.0585400000000000    0.0415200000000000 H
   0.6922100000000000    0.1287600000000000    0.0949500000000000 H
   0.7364700000000000    0.1572650000000000    0.0298500000000000 H
   0.8394100000000000    0.1575600000000000    0.0341850000000000 H
   0.8377100000000000    0.1008700000000000    0.0430950000000000 H
   0.7879600000000000    0.1702700000000000    0.0960550000000000 H
   0.9130500000000000    0.5492700000000000    0.6597200000000000 H
   0.9368800000000000    0.4548450000000000    0.6385000000000001 H
   0.9098500000000000    0.4941900000000000    0.6066750000000000 H
   0.8249000000000000    0.4985850000000000    0.6478500000000000 H
   0.9531400000000000    0.5334200000000000    0.7247399999999999 H
   0.9636500000000000    0.4785700000000000    0.7107650000000000 H
   0.8093200000000000    0.4496150000000000    0.7043100000000000 H
   0.8758500000000000    0.4277500000000000    0.6987400000000000 H
   0.8521300000000001    0.5224850000000000    0.7195500000000000 H
   0.8368100000000001    0.2004750000000000    0.4102350000000000 H
   0.8134400000000001    0.2948650000000000    0.3883500000000000 H
   0.8403000000000000    0.2552750000000000    0.3568100000000000 H
   0.9251700000000000    0.2508150000000000    0.3980250000000000 H
   0.7965600000000000    0.2167750000000000    0.4750750000000000 H
   0.7864500000000000    0.2716000000000000    0.4607050000000000 H
   0.9409700000000000    0.2998700000000000    0.4542400000000000 H
   0.8746200000000000    0.3220300000000000    0.4484950000000000 H
   0.8976499999999999    0.2272650000000000    0.4699350000000000 H
   0.9130500000000000    0.5492700000000000    0.1597200000000000 H
   0.9368800000000000    0.4548450000000000    0.1385000000000000 H
   0.9098500000000000    0.4941900000000000    0.1066750000000000 H
   0.8249000000000000    0.4985850000000000    0.1478500000000000 H
   0.9531400000000000    0.5334200000000000    0.2247400000000000 H
   0.9636500000000000    0.4785700000000000    0.2107650000000000 H
   0.8093200000000000    0.4496150000000000    0.2043100000000000 H
   0.8758500000000000    0.4277500000000000    0.1987400000000000 H
   0.8521300000000001    0.5224850000000000    0.2195500000000000 H
   0.8368100000000001    0.2004750000000000    0.9102350000000000 H
   0.8134400000000001    0.2948650000000000    0.8883500000000000 H
   0.8403000000000000    0.2552750000000000    0.8568100000000001 H
   0.9251700000000000    0.2508150000000000    0.8980250000000001 H
   0.7965600000000000    0.2167750000000000    0.9750750000000000 H
   0.7864500000000000    0.2716000000000000    0.9607049999999999 H
   0.9409700000000000    0.2998700000000000    0.9542400000000000 H
   0.8746200000000000    0.3220300000000000    0.9484950000000000 H
   0.8976499999999999    0.2272650000000000    0.9699350000000000 H
   0.0144800000000000    0.3594650000000000    0.1079950000000000 H
   0.0421400000000000    0.3217350000000000    0.1415600000000000 H
   0.0379300000000000    0.4202550000000000    0.1537450000000000 H
   0.9304900000000000    0.3393950000000000    0.2187900000000000 H
   0.9892800000000000    0.3087650000000000    0.2087900000000000 H
   0.9421000000000000    0.3789450000000000    0.1549550000000000 H
   0.0894300000000000    0.4075650000000000    0.2156600000000000 H
   0.0875400000000000    0.3508650000000000    0.2069850000000000 H
   0.9865500000000000    0.4075250000000000    0.2200250000000000 H
   0.0144800000000000    0.3594650000000000    0.6079950000000000 H
   0.0421400000000000    0.3217350000000000    0.6415600000000000 H
   0.0379300000000000    0.4202550000000000    0.6537450000000000 H
   0.9304900000000000    0.3393950000000000    0.7187900000000000 H
   0.9892800000000000    0.3087650000000000    0.7087900000000000 H
   0.9421000000000000    0.3789450000000000    0.6549550000000000 H
   0.0894300000000000    0.4075650000000000    0.7156600000000000 H
   0.0875400000000000    0.3508650000000000    0.7069850000000000 H
   0.9865500000000000    0.4075250000000000    0.7200250000000000 H
   0.2353200000000000    0.8904799999999999    0.8579350000000000 H
   0.2075400000000000    0.9282200000000000    0.8913350000000000 H
   0.2120400000000000    0.8297300000000001    0.9039450000000000 H
   0.3192700000000000    0.9110549999999999    0.9686450000000000 H
   0.2603000000000000    0.9414650000000000    0.9584800000000000 H
   0.3077800000000000    0.8712400000000000    0.9050250000000000 H
   0.1605800000000000    0.8424400000000001    0.9658150000000000 H
   0.1622800000000000    0.8991300000000000    0.9569050000000000 H
   0.2635300000000000    0.8427400000000000    0.9701050000000000 H
   0.2353200000000000    0.8904799999999999    0.3579350000000000 H
   0.2075400000000000    0.9282200000000000    0.3913350000000000 H
   0.2120400000000000    0.8297300000000001    0.4039450000000000 H
   0.3192700000000000    0.9110549999999999    0.4686450000000000 H
   0.2603000000000000    0.9414650000000000    0.4584800000000000 H
   0.3077800000000000    0.8712400000000000    0.4050250000000000 H
   0.1605800000000000    0.8424400000000001    0.4658150000000000 H
   0.1622800000000000    0.8991300000000000    0.4569050000000000 H
   0.2635300000000000    0.8427400000000000    0.4701050000000000 H
   0.0869600000000000    0.4507350000000000    0.8402800000000000 H
   0.0631100000000000    0.5451600000000000    0.8614999999999999 H
   0.0901500000000000    0.5000000000000000    0.8933249999999999 H
   0.1751000000000000    0.5000000000000000    0.8520000000000000 H
   0.0468600000000000    0.4665850000000000    0.7752600000000001 H
   0.0363400000000000    0.5214350000000000    0.7892350000000000 H
   0.1906700000000000    0.5503950000000000    0.7956900000000000 H
   0.1241400000000000    0.5722600000000000    0.8012600000000000 H
   0.1478600000000000    0.4775250000000000    0.7804500000000000 H
   0.1632000000000000    0.7995300000000001    0.0897650000000000 H
   0.1865600000000000    0.7051350000000001    0.1116000000000000 H
   0.1597000000000000    0.7447300000000000    0.1431900000000000 H
   0.0748300000000000    0.7491950000000001    0.1019750000000000 H
   0.2034500000000000    0.7832300000000000    0.0249200000000000 H
   0.2135500000000000    0.7284050000000000    0.0392900000000000 H
   0.0590200000000000    0.7001450000000000    0.0457600000000000 H
   0.1253700000000000    0.6779800000000000    0.0515000000000000 H
   0.1023500000000000    0.7727400000000000    0.0300600000000000 H
   0.0869600000000000    0.4507350000000000    0.3402800000000000 H
   0.0631100000000000    0.5451600000000000    0.3615000000000000 H
   0.0901500000000000    0.5000000000000000    0.3933250000000000 H
   0.1751000000000000    0.5000000000000000    0.3520000000000000 H
   0.0468600000000000    0.4665850000000000    0.2752600000000000 H
   0.0363400000000000    0.5214350000000000    0.2892350000000000 H
   0.1906700000000000    0.5503950000000000    0.2956900000000000 H
   0.1241400000000000    0.5722600000000000    0.3012600000000000 H
   0.1478600000000000    0.4775250000000000    0.2804500000000000 H
   0.1632000000000000    0.7995300000000001    0.5897650000000000 H
   0.1865600000000000    0.7051350000000001    0.6116000000000000 H
   0.1597000000000000    0.7447300000000000    0.6431900000000000 H
   0.0748300000000000    0.7491950000000001    0.6019750000000000 H
   0.2034500000000000    0.7832300000000000    0.5249200000000001 H
   0.2135500000000000    0.7284050000000000    0.5392900000000000 H
   0.0590200000000000    0.7001450000000000    0.5457600000000000 H
   0.1253700000000000    0.6779800000000000    0.5515000000000000 H
   0.1023500000000000    0.7727400000000000    0.5300600000000000 H
   0.4856600000000000    0.6405300000000000    0.3919950000000000 H
   0.4580500000000000    0.6782800000000000    0.3584250000000000 H
   0.4621000000000000    0.5797450000000000    0.3462550000000000 H
   0.5696000000000000    0.6604850000000000    0.2811600000000000 H
   0.5108800000000000    0.6911800000000000    0.2911900000000000 H
   0.5579300000000000    0.6209050000000000    0.3449500000000000 H
   0.4105500000000000    0.5924650000000000    0.2843600000000000 H
   0.4125300000000000    0.6491700000000000    0.2930300000000000 H
   0.5134200000000000    0.5924150000000000    0.2799000000000000 H
   0.4856600000000000    0.6405300000000000    0.8919950000000000 H
   0.4580500000000000    0.6782800000000000    0.8584250000000000 H
   0.4621000000000000    0.5797450000000000    0.8462550000000000 H
   0.5696000000000000    0.6604850000000000    0.7811600000000001 H
   0.5108800000000000    0.6911800000000000    0.7911900000000001 H
   0.5579300000000000    0.6209050000000000    0.8449500000000000 H
   0.4105500000000000    0.5924650000000000    0.7843599999999999 H
   0.4125300000000000    0.6491700000000000    0.7930300000000000 H
   0.5134200000000000    0.5924150000000000    0.7799000000000000 H
   0.9855400000000000    0.1405400000000000    0.8920000000000000 H
   0.9578800000000000    0.1782750000000000    0.8584350000000001 H
   0.9620800000000000    0.0797500000000000    0.8462499999999999 H
   0.0695200000000000    0.1606000000000000    0.7811950000000000 H
   0.0107400000000000    0.1912350000000000    0.7912049999999999 H
   0.0579000000000000    0.1210400000000000    0.8450000000000000 H
   0.9105600000000000    0.0924500000000000    0.7843400000000000 H
   0.9124700000000000    0.1491500000000000    0.7930150000000000 H
   0.0134400000000000    0.0924750000000000    0.7799499999999999 H
   0.9855400000000000    0.1405400000000000    0.3920000000000000 H
   0.9578800000000000    0.1782750000000000    0.3584350000000000 H
   0.9620800000000000    0.0797500000000000    0.3462500000000000 H
   0.0695200000000000    0.1606000000000000    0.2811950000000000 H
   0.0107400000000000    0.1912350000000000    0.2912050000000000 H
   0.0579000000000000    0.1210400000000000    0.3450000000000000 H
   0.9105600000000000    0.0924500000000000    0.2843400000000000 H
   0.9124700000000000    0.1491500000000000    0.2930150000000000 H
   0.0134400000000000    0.0924750000000000    0.2799500000000000 H
   0.2646800000000000    0.1095600000000000    0.1420750000000000 H
   0.2924700000000000    0.0718100000000000    0.1086900000000000 H
   0.2879500000000000    0.1702950000000000    0.0960000000000000 H
   0.1807400000000000    0.0889550000000000    0.0313600000000000 H
   0.2397200000000000    0.0585450000000000    0.0415300000000000 H
   0.1922100000000000    0.1287650000000000    0.0949800000000000 H
   0.3394300000000000    0.1575650000000000    0.0341850000000000 H
   0.3377300000000000    0.1008800000000000    0.0431150000000000 H
   0.2364800000000000    0.1572700000000000    0.0298950000000000 H
   0.2646800000000000    0.1095600000000000    0.6420750000000000 H
   0.2924700000000000    0.0718100000000000    0.6086900000000000 H
   0.2879500000000000    0.1702950000000000    0.5960000000000000 H
   0.1807400000000000    0.0889550000000000    0.5313600000000001 H
   0.2397200000000000    0.0585450000000000    0.5415300000000000 H
   0.1922100000000000    0.1287650000000000    0.5949800000000000 H
   0.3394300000000000    0.1575650000000000    0.5341850000000000 H