H9 O6
1.0
  24.1649998675005619    0.0000000000000000   -0.0025305528778388
  -0.9281509098353474   30.7479550549447467    0.0493946117483197
   0.0000000000000000    0.0000000000000000   34.0859999999999985
H O
9 6
direct
   0.5958646118487757    0.0818699524281384    0.7480508319079825 H
   0.6404555397699597    0.9613815918649282    0.7143090093685807 H
   0.6189632943416629    1.0195821923640396    0.7340273636222147 H
   0.6010485989973400    0.0903203330020207    0.8915114104981924 H
   0.7528716254052811    0.0530400818650353    0.8564505965986470 H
   0.6749490631010894    0.0689929516973173    0.8721180880788785 H
   0.5076223757043731    1.0091169411539442    0.8528655362396205 H
   0.4805102508016464    0.0310178685576379    0.8543755075131885 H
   0.5247983759292567    0.9397526796755156    0.8496529023138587 H
   0.6041299999999999    0.0590850000000000    0.7295000000000000 O
   0.6292700000000000    0.9911700000000000    0.7108950000000001 O
   0.6411700000000000    0.0914700000000000    0.8902950000000001 O
   0.7266700000000000    0.0704750000000000    0.8705499999999999 O
   0.4721700000000000    0.0000000000000000    0.8533050000000000 O
   0.4863100000000000    0.9298550000000000    0.8501300000000001 O
