H6 O4
1.0
  13.6646980235709687    0.0000000000000000   -3.6001651246318751
  -4.6924087793611839   12.8293078953833053   -3.6120712579944607
   0.0000000000000000    0.0000000000000000   14.1329999999999991
H O
6 4
direct
   0.4037917301256650    0.1637566292661458    0.5398006170314266 H
   0.4378946691554466    1.1992544605662701    0.8179827952952680 H
   0.4471999309620520    1.1934228772308637    0.6995066370737190 H
   0.5961905976308043    0.4603967317571987    0.8366069497207768 H
   0.5620906431141723    0.1820692552602088    0.8009002547915864 H
   0.5528023966449443    0.3005703407355220    0.8068606944672182 H
   0.3568700000000000    0.1485000000000000    0.5777500000000000 O
   0.3864500000000000    1.1736700000000000    0.7486400000000000 O
   0.6431100000000000    0.4224700000000000    0.8517600000000000 O
   0.6135200000000000    0.2514900000000000    0.8264700000000000 O
