H1 O1
1.0
  13.6646980235709687    0.0000000000000000   -3.6001651246318751
  -4.6924087793611839   12.8293078953833053   -3.6120712579944607
   0.0000000000000000    0.0000000000000000   14.1329999999999991
H O
1 1
direct
   0.6105237833310884   -0.0574913194781182    0.0472208618170117 H
   0.6522100000000000    0.0033400000000000    0.1100000000000000 O
