H6 C3 N6
1.0
  13.6646980235709687    0.0000000000000000   -3.6001651246318751
  -4.6924087793611839   12.8293078953833053   -3.6120712579944607
   0.0000000000000000    0.0000000000000000   14.1329999999999991
H C N
6 3 6
direct
   0.5743800000000000    0.8212500000000000    0.1064400000000000 H
   0.5076800000000000    0.7633700000000000    0.9710900000000000 H
   0.7447700000000000    0.1753600000000000    0.2540800000000000 H
   0.5743800000000000    0.1064900000000000    0.8215200000000000 H
   0.5076700000000000    0.9710000000000000    0.7636500000000001 H
   0.7447400000000000    0.2541800000000000    0.1753000000000000 H
   0.5946399999999999    0.9193300000000000    0.0233000000000000 C
   0.5946300000000000    0.0233000000000000    0.9195000000000000 C
   0.6791600000000000    0.0970500000000000    0.0970300000000000 C
   0.5636100000000001    0.8254899999999999    0.0331700000000000 N
   0.6522100000000000    0.0033400000000000    0.1100000000000000 N
   0.5636200000000000    0.0331800000000000    0.8257000000000000 N
   0.6521700000000000    0.1104400000000000    0.0034000000000000 N
   0.5667400000000000    0.9257200000000000    0.9258500000000000 N
   0.7360600000000000    0.1817700000000000    0.1817000000000000 N
