H2 C3 O4
1.0
  13.6646980235709687    0.0000000000000000   -3.6001651246318751
  -4.6924087793611839   12.8293078953833053   -3.6120712579944607
   0.0000000000000000    0.0000000000000000   14.1329999999999991
H C O
2 3 4
direct
   0.4693600000000000    0.3621100000000000    0.7074000000000000 H
   0.5311100000000000    0.2925300000000000    0.6381200000000000 H
   0.4086500000000000    0.1979900000000000    0.6742400000000000 C
   0.5914100000000000    0.3259200000000000    0.8021000000000000 C
   0.5001400000000000    0.2976000000000000    0.7025300000000000 C
   0.3568700000000000    0.1485000000000000    0.5777500000000000 O
   0.3864500000000000    1.1736700000000000    0.7486400000000000 O
   0.6431100000000000    0.4224700000000000    0.8517600000000000 O
   0.6135200000000000    0.2514900000000000    0.8264700000000000 O
