H1 O1
1.0
  31.2123074030390697    0.0000000000000000   10.2427714305354076
  -2.0131201314028822   11.4378131485210215    6.2318679154856964
   0.0000000000000000    0.0000000000000000   27.6419999999999995
H O
1 1
direct
   0.3571688939602746    0.9768610397737262    0.9416910257308132 H
   0.3259700000000000    0.9513700000000000    0.9536800000000001 O
