H4 O2
1.0
  31.2123074030390697    0.0000000000000000   10.2427714305354076
  -2.0131201314028822   11.4378131485210215    6.2318679154856964
   0.0000000000000000    0.0000000000000000   27.6419999999999995
H O
4 2
direct
   0.0683012998647946    0.1923949615444783    0.0770018934980677 H
   0.1157249856767821    0.1435927701889512    0.0769016727711203 H
   0.5511672356640501    0.8567020799339636    0.4226584491012420 H
   0.5985205925835320    0.8075623278988566    0.4227427057542697 H
   0.0910600000000000    0.1542300000000000    0.0632850000000000 O
   0.5757866666666667    0.8458900000000000    0.4363700000000000 O
