C1 S1 N1
1.0
  31.2123074030390697    0.0000000000000000   10.2427714305354076
  -2.0131201314028822   11.4378131485210215    6.2318679154856964
   0.0000000000000000    0.0000000000000000   27.6419999999999995
C S N
1 1 1
direct
   0.3637033333333333    0.9822000000000000    0.9391800000000000 C
   0.4163233333333333    0.0244700000000000    0.9170900000000000 S
   0.3259700000000000    0.9513700000000000    0.9536800000000001 N
