H8 C10 N2
1.0
  37.6469999999999985    0.0000000000000000    0.0000000000000023
   0.0004006228764851   22.9539999965039065    0.0000000000000014
   0.0000000000000000    0.0000000000000000   14.8399999999999999
H C N
8 10 2
direct
   0.2214233333333333    0.4586100000000000    0.2077400000000000 H
   0.2186933333333333    0.3507500000000000    0.2018500000000000 H
   0.1131900000000000    0.3486600000000000    0.2792000000000000 H
   0.1103233333333333    0.4564900000000000    0.2862900000000000 H
   0.2214233333333333    0.5414000000000000    0.2922600000000000 H
   0.2186966666666667    0.6492599999999999    0.2981500000000000 H
   0.1131900000000000    0.6513600000000001    0.2207900000000000 H
   0.1103233333333333    0.5435300000000000    0.2137000000000000 H
   0.1363733333333333    0.6249600000000000    0.2372100000000000 C
   0.1954600000000000    0.3761800000000000    0.2212000000000000 C
   0.1966533333333333    0.4366400000000000    0.2246000000000000 C
   0.1658833333333333    0.4678100000000000    0.2478000000000000 C
   0.1351033333333333    0.4354900000000000    0.2667000000000000 C
   0.1363700000000000    0.3750500000000000    0.2627900000000000 C
   0.1954633333333333    0.6238300000000000    0.2780000000000000 C
   0.1966533333333333    0.5633700000000000    0.2754000000000000 C
   0.1658833333333333    0.5322000000000000    0.2521800000000000 C
   0.1351033333333333    0.5645300000000000    0.2332400000000000 C
   0.1659400000000000    0.3453400000000000    0.2402000000000000 N
   0.1659433333333333    0.6546800000000000    0.2597000000000000 N
