H4 O2
1.0
  37.6469999999999985    0.0000000000000000    0.0000000000000023
   0.0004006228764851   22.9539999965039065    0.0000000000000014
   0.0000000000000000    0.0000000000000000   14.8399999999999999
H O
4 2
direct
   0.1444716832866584    0.3669099590650449    0.2566007194641322 H
   0.1873777077762235    0.3677363044654042    0.2264020173527017 H
   0.1874134647164201    0.6322425490119165    0.2730097359183770 H
   0.1444713130861878    0.6330990584462237    0.2433690654258268 H
   0.1659400000000000    0.3453400000000000    0.2402000000000000 O
   0.1659433333333333    0.6546800000000000    0.2597000000000000 O
