H3 O2
1.0
  35.4119824763378901    0.0000000000000000   -0.0352291858877590
   3.0785329689827856   22.6679041090103510    0.0115785835765239
   0.0000000000000000    0.0000000000000000   27.3270000000000017
H O
3 2
direct
   0.1356886396225514    0.8266534857038491    0.8436327080617541 H
   0.1311825581478045    0.9009183636042074    0.8365744119993780 H
   0.2024999837100006    0.8552182493251461    0.7258733884370544 H
   0.1241266666666667    0.8661950000000000    0.8533800000000000 O
   0.2057366666666667    0.8914500000000001    0.7082400000000000 O
