La32 H257 C496 N31 O192
1.0
  28.0267934258978926    0.0000000000000000    0.7926501511049237
   0.3507140160052327   26.2595601920178972  -12.8337600959643332
   0.0000000000000000    0.0000000000000000   33.3419999999999987
La H C N O
32 257 496 31 192
direct
   0.7547699999999999    0.5505250000000000    0.8128250000000000 La
   0.2452550000000000    0.4494650000000000    0.1872000000000000 La
   0.2547700000000000    0.5505250000000000    0.3128250000000000 La
   0.7452550000000000    0.4494650000000000    0.6872000000000000 La
   0.0044650000000000    0.2620350000000000    0.8127249999999999 La
   0.4955900000000000    0.7379700000000000    0.1872950000000000 La
   0.5044650000000001    0.7620350000000000    0.3127250000000000 La
   0.9955900000000000    0.2379700000000000    0.6872950000000000 La
   0.5044650000000001    0.2620350000000000    0.3127250000000000 La
   0.9955900000000000    0.7379700000000000    0.6872950000000000 La
   0.0044650000000000    0.7620350000000000    0.8127249999999999 La
   0.4955900000000000    0.2379700000000000    0.1872950000000000 La
   0.2547700000000000    0.0505250000000000    0.3128250000000000 La
   0.7452550000000000    0.9494650000000000    0.6872000000000000 La
   0.7547699999999999    0.0505250000000000    0.8128250000000000 La
   0.2452550000000000    0.9494650000000000    0.1872000000000000 La
   0.0044650000000000    0.7620350000000000    0.3127250000000000 La
   0.4955900000000000    0.2379700000000000    0.6872950000000000 La
   0.5044650000000001    0.2620350000000000    0.8127249999999999 La
   0.9955900000000000    0.7379700000000000    0.1872950000000000 La
   0.2547700000000000    0.5505250000000000    0.8128250000000000 La
   0.7452550000000000    0.4494650000000000    0.1872000000000000 La
   0.7547699999999999    0.5505250000000000    0.3128250000000000 La
   0.2452550000000000    0.4494650000000000    0.6872000000000000 La
   0.0044650000000000    0.2620350000000000    0.3127250000000000 La
   0.5044650000000001    0.7620350000000000    0.8127249999999999 La
   0.9955900000000000    0.2379700000000000    0.1872950000000000 La
   0.4955900000000000    0.7379700000000000    0.6872950000000000 La
   0.7547699999999999    0.0505250000000000    0.3128250000000000 La
   0.2452550000000000    0.9494650000000000    0.6872000000000000 La
   0.2547700000000000    0.0505250000000000    0.8128250000000000 La
   0.7452550000000000    0.9494650000000000    0.1872000000000000 La
   0.7410654959470042    0.5620358643621396    0.7160273541977041 H
   0.7134413428016392    0.6478409624142227    0.7991468383350324 H
   0.7359647657888799    0.6637017755602628    0.7556027472130639 H
   0.5531200000000001    0.5543000000000000    0.8894350000000000 H
   0.6234600000000000    0.5130550000000000    0.8511250000000000 H
   0.6062200000000000    0.3845300000000000    0.7237350000000000 H
   0.5239549999999999    0.3960750000000000    0.8395800000000000 H
   0.5171800000000000    0.5678600000000000    0.0596500000000000 H
   0.5394250000000000    0.5085950000000000    0.9799350000000000 H
   0.5119250000000000    0.6935100000000000    0.0257200000000000 H
   0.5328900000000000    0.6345850000000000    0.9459900000000000 H
   0.4468750000000000    0.4457000000000000    0.1105850000000000 H
   0.3765500000000000    0.4869550000000000    0.1489100000000000 H
   0.3938000000000000    0.6154900000000000    0.2762900000000000 H
   0.4760600000000000    0.6039250000000000    0.1604350000000000 H
   0.4605800000000000    0.4914050000000000    0.0200850000000000 H
   0.4828250000000000    0.4321450000000000    0.9403500000000000 H
   0.4880700000000000    0.3064900000000000    0.9740000000000000 H
   0.4671000000000000    0.3654150000000000    0.0540300000000000 H
   0.0531200000000000    0.5543000000000000    0.3894350000000000 H
   0.1234600000000000    0.5130550000000000    0.3511250000000000 H
   0.1062200000000000    0.3845300000000000    0.2237350000000000 H
   0.0239550000000000    0.3960750000000000    0.3395800000000000 H
   0.0171800000000000    0.5678600000000000    0.5596500000000000 H
   0.0394250000000000    0.5085950000000000    0.4799350000000000 H
   0.0119250000000000    0.6935100000000000    0.5257200000000000 H
   0.0328900000000000    0.6345850000000000    0.4459900000000000 H
   0.9468750000000000    0.4457000000000000    0.6105850000000000 H
   0.8765499999999999    0.4869550000000000    0.6489100000000000 H
   0.8937999999999999    0.6154900000000000    0.7762899999999999 H
   0.9760599999999999    0.6039250000000000    0.6604350000000000 H
   0.9605800000000000    0.4914050000000000    0.5200850000000000 H
   0.9828250000000001    0.4321450000000000    0.4403500000000000 H
   0.9880700000000000    0.3064900000000000    0.4740000000000000 H
   0.9671000000000001    0.3654150000000000    0.5540300000000000 H
   0.8032500000000000    0.3354500000000000    0.8893650000000000 H
   0.7722650000000000    0.4429100000000000    0.8393550000000001 H
   0.8738600000000001    0.3396600000000000    0.8513750000000000 H
   0.8559850000000000    0.3400750000000000    0.7238550000000000 H
   0.7894250000000000    0.4716450000000000    0.9801150000000001 H
   0.7673400000000000    0.4919850000000000    0.0598200000000000 H
   0.7620300000000000    0.3322150000000000    0.0254550000000000 H
   0.7828550000000001    0.3115450000000000    0.9457550000000000 H
   0.6968250000000000    0.6645550000000000    0.1106700000000000 H
   0.7277750000000001    0.5570800000000000    0.1606800000000000 H
   0.6262150000000000    0.6603500000000000    0.1486450000000000 H
   0.6440500000000000    0.6599300000000000    0.2761700000000000 H
   0.7327250000000000    0.5080200000000000    0.9402150000000000 H
   0.7106650000000000    0.5283600000000001    0.0199250000000000 H
   0.7379950000000000    0.6677850000000000    0.9745699999999999 H
   0.7171950000000000    0.6884600000000000    0.0542750000000000 H
   0.3032500000000000    0.8354500000000000    0.3893650000000000 H
   0.2722650000000000    0.9429100000000000    0.3393550000000000 H
   0.3738600000000000    0.8396600000000001    0.3513750000000000 H
   0.3559850000000000    0.8400750000000000    0.2238550000000000 H
   0.2894250000000000    0.9716450000000000    0.4801150000000000 H
   0.2673400000000000    0.9919850000000000    0.5598200000000000 H
   0.2620300000000000    0.8322149999999999    0.5254550000000000 H
   0.2828550000000000    0.8115450000000000    0.4457550000000000 H
   0.1968250000000000    0.1645550000000000    0.6106700000000000 H
   0.2277750000000000    0.0570800000000000    0.6606799999999999 H
   0.1262150000000000    0.1603500000000000    0.6486450000000000 H
   0.1440500000000000    0.1599300000000000    0.7761700000000000 H
   0.2327250000000000    0.0080200000000000    0.4402150000000000 H
   0.2106650000000000    0.0283600000000000    0.5199250000000000 H
   0.2379950000000000    0.1677850000000000    0.4745700000000000 H
   0.2171950000000000    0.1884600000000000    0.5542750000000000 H
   0.3032500000000000    0.3354500000000000    0.3893650000000000 H
   0.2722650000000000    0.4429100000000000    0.3393550000000000 H
   0.3738600000000000    0.3396600000000000    0.3513750000000000 H
   0.3559850000000000    0.3400750000000000    0.2238550000000000 H
   0.2894250000000000    0.4716450000000000    0.4801150000000000 H
   0.2673400000000000    0.4919850000000000    0.5598200000000000 H
   0.2620300000000000    0.3322150000000000    0.5254550000000000 H
   0.2828550000000000    0.3115450000000000    0.4457550000000000 H
   0.1968250000000000    0.6645550000000000    0.6106700000000000 H
   0.2277750000000000    0.5570800000000000    0.6606799999999999 H
   0.1262150000000000    0.6603500000000000    0.6486450000000000 H
   0.1440500000000000    0.6599300000000000    0.7761700000000000 H
   0.2327250000000000    0.5080200000000000    0.4402150000000000 H
   0.2106650000000000    0.5283600000000001    0.5199250000000000 H
   0.2379950000000000    0.6677850000000000    0.4745700000000000 H
   0.2171950000000000    0.6884600000000000    0.5542750000000000 H
   0.8032500000000000    0.8354500000000000    0.8893650000000000 H
   0.7722650000000000    0.9429100000000000    0.8393550000000001 H
   0.8738600000000001    0.8396600000000001    0.8513750000000000 H
   0.8559850000000000    0.8400750000000000    0.7238550000000000 H
   0.7894250000000000    0.9716450000000000    0.9801150000000001 H
   0.7673400000000000    0.9919850000000000    0.0598200000000000 H
   0.7620300000000000    0.8322149999999999    0.0254550000000000 H
   0.7828550000000001    0.8115450000000000    0.9457550000000000 H
   0.6968250000000000    0.1645550000000000    0.1106700000000000 H
   0.7277750000000001    0.0570800000000000    0.1606800000000000 H
   0.6262150000000000    0.1603500000000000    0.1486450000000000 H
   0.6440500000000000    0.1599300000000000    0.2761700000000000 H
   0.7327250000000000    0.0080200000000000    0.9402150000000000 H
   0.7106650000000000    0.0283600000000000    0.0199250000000000 H
   0.7379950000000000    0.1677850000000000    0.9745699999999999 H
   0.7171950000000000    0.1884600000000000    0.0542750000000000 H
   0.0531200000000000    0.0543000000000000    0.3894350000000000 H
   0.1234600000000000    0.0130550000000000    0.3511250000000000 H
   0.1062200000000000    0.8845300000000000    0.2237350000000000 H
   0.0239550000000000    0.8960750000000000    0.3395800000000000 H
   0.0171800000000000    0.0678600000000000    0.5596500000000000 H
   0.0394250000000000    0.0085950000000000    0.4799350000000000 H
   0.0119250000000000    0.1935100000000000    0.5257200000000000 H
   0.0328900000000000    0.1345850000000000    0.4459900000000000 H
   0.9468750000000000    0.9457000000000000    0.6105850000000000 H
   0.8765499999999999    0.9869550000000000    0.6489100000000000 H
   0.8937999999999999    0.1154900000000000    0.7762899999999999 H
   0.9760599999999999    0.1039250000000000    0.6604350000000000 H
   0.9605800000000000    0.9914050000000000    0.5200850000000000 H
   0.9828250000000001    0.9321450000000000    0.4403500000000000 H
   0.9880700000000000    0.8064899999999999    0.4740000000000000 H
   0.9671000000000001    0.8654150000000000    0.5540300000000000 H
   0.5531200000000001    0.0543000000000000    0.8894350000000000 H
   0.6234600000000000    0.0130550000000000    0.8511250000000000 H
   0.6062200000000000    0.8845300000000000    0.7237350000000000 H
   0.5239549999999999    0.8960750000000000    0.8395800000000000 H
   0.5171800000000000    0.0678600000000000    0.0596500000000000 H
   0.5394250000000000    0.0085950000000000    0.9799350000000000 H
   0.5119250000000000    0.1935100000000000    0.0257200000000000 H
   0.5328900000000000    0.1345850000000000    0.9459900000000000 H
   0.4468750000000000    0.9457000000000000    0.1105850000000000 H
   0.3765500000000000    0.9869550000000000    0.1489100000000000 H
   0.3938000000000000    0.1154900000000000    0.2762900000000000 H
   0.4760600000000000    0.1039250000000000    0.1604350000000000 H
   0.4605800000000000    0.9914050000000000    0.0200850000000000 H
   0.4828250000000000    0.9321450000000000    0.9403500000000000 H
   0.4880700000000000    0.8064899999999999    0.9740000000000000 H
   0.4671000000000000    0.8654150000000000    0.0540300000000000 H
   0.8032500000000000    0.8354500000000000    0.3893650000000000 H
   0.7722650000000000    0.9429100000000000    0.3393550000000000 H
   0.8738600000000001    0.8396600000000001    0.3513750000000000 H
   0.8559850000000000    0.8400750000000000    0.2238550000000000 H
   0.7894250000000000    0.9716450000000000    0.4801150000000000 H
   0.7673400000000000    0.9919850000000000    0.5598200000000000 H
   0.7620300000000000    0.8322149999999999    0.5254550000000000 H
   0.7828550000000001    0.8115450000000000    0.4457550000000000 H
   0.6968250000000000    0.1645550000000000    0.6106700000000000 H
   0.7277750000000001    0.0570800000000000    0.6606799999999999 H
   0.6262150000000000    0.1603500000000000    0.6486450000000000 H
   0.6440500000000000    0.1599300000000000    0.7761700000000000 H
   0.7327250000000000    0.0080200000000000    0.4402150000000000 H
   0.7106650000000000    0.0283600000000000    0.5199250000000000 H
   0.7379950000000000    0.1677850000000000    0.4745700000000000 H
   0.7171950000000000    0.1884600000000000    0.5542750000000000 H
   0.3032500000000000    0.3354500000000000    0.8893650000000000 H
   0.2722650000000000    0.4429100000000000    0.8393550000000001 H
   0.3738600000000000    0.3396600000000000    0.8513750000000000 H
   0.3559850000000000    0.3400750000000000    0.7238550000000000 H
   0.2894250000000000    0.4716450000000000    0.9801150000000001 H
   0.2673400000000000    0.4919850000000000    0.0598200000000000 H
   0.2620300000000000    0.3322150000000000    0.0254550000000000 H
   0.2828550000000000    0.3115450000000000    0.9457550000000000 H
   0.1968250000000000    0.6645550000000000    0.1106700000000000 H
   0.2277750000000000    0.5570800000000000    0.1606800000000000 H
   0.1262150000000000    0.6603500000000000    0.1486450000000000 H
   0.1440500000000000    0.6599300000000000    0.2761700000000000 H
   0.2327250000000000    0.5080200000000000    0.9402150000000000 H
   0.2106650000000000    0.5283600000000001    0.0199250000000000 H
   0.2379950000000000    0.6677850000000000    0.9745699999999999 H
   0.2171950000000000    0.6884600000000000    0.0542750000000000 H
   0.0531200000000000    0.5543000000000000    0.8894350000000000 H
   0.1234600000000000    0.5130550000000000    0.8511250000000000 H
   0.1062200000000000    0.3845300000000000    0.7237350000000000 H
   0.0239550000000000    0.3960750000000000    0.8395800000000000 H
   0.0171800000000000    0.5678600000000000    0.0596500000000000 H
   0.0394250000000000    0.5085950000000000    0.9799350000000000 H
   0.0119250000000000    0.6935100000000000    0.0257200000000000 H
   0.0328900000000000    0.6345850000000000    0.9459900000000000 H
   0.9468750000000000    0.4457000000000000    0.1105850000000000 H
   0.8765499999999999    0.4869550000000000    0.1489100000000000 H
   0.8937999999999999    0.6154900000000000    0.2762900000000000 H
   0.9760599999999999    0.6039250000000000    0.1604350000000000 H
   0.9605800000000000    0.4914050000000000    0.0200850000000000 H
   0.9828250000000001    0.4321450000000000    0.9403500000000000 H
   0.9880700000000000    0.3064900000000000    0.9740000000000000 H
   0.9671000000000001    0.3654150000000000    0.0540300000000000 H
   0.5531200000000001    0.5543000000000000    0.3894350000000000 H
   0.6234600000000000    0.5130550000000000    0.3511250000000000 H
   0.6062200000000000    0.3845300000000000    0.2237350000000000 H
   0.5239549999999999    0.3960750000000000    0.3395800000000000 H
   0.5171800000000000    0.5678600000000000    0.5596500000000000 H
   0.5394250000000000    0.5085950000000000    0.4799350000000000 H
   0.5119250000000000    0.6935100000000000    0.5257200000000000 H
   0.5328900000000000    0.6345850000000000    0.4459900000000000 H
   0.4468750000000000    0.4457000000000000    0.6105850000000000 H
   0.3765500000000000    0.4869550000000000    0.6489100000000000 H
   0.3938000000000000    0.6154900000000000    0.7762899999999999 H
   0.4760600000000000    0.6039250000000000    0.6604350000000000 H
   0.4605800000000000    0.4914050000000000    0.5200850000000000 H
   0.4828250000000000    0.4321450000000000    0.4403500000000000 H
   0.4880700000000000    0.3064900000000000    0.4740000000000000 H
   0.4671000000000000    0.3654150000000000    0.5540300000000000 H
   0.7544237077440241    0.6472441598531986    0.4115492150279192 H
   0.7506770735071666    0.4968678708357437    0.3805944680947463 H
   0.7524834248916727    0.5726878739098956    0.3985671179725670 H
   0.8032500000000000    0.3354500000000000    0.3893650000000000 H
   0.7722650000000000    0.4429100000000000    0.3393550000000000 H
   0.8738600000000001    0.3396600000000000    0.3513750000000000 H
   0.8559850000000000    0.3400750000000000    0.2238550000000000 H
   0.7894250000000000    0.4716450000000000    0.4801150000000000 H
   0.7673400000000000    0.4919850000000000    0.5598200000000000 H
   0.7620300000000000    0.3322150000000000    0.5254550000000000 H
   0.7828550000000001    0.3115450000000000    0.4457550000000000 H
   0.3032500000000000    0.8354500000000000    0.8893650000000000 H
   0.2722650000000000    0.9429100000000000    0.8393550000000001 H
   0.3738600000000000    0.8396600000000001    0.8513750000000000 H
   0.3559850000000000    0.8400750000000000    0.7238550000000000 H
   0.2894250000000000    0.9716450000000000    0.9801150000000001 H
   0.2673400000000000    0.9919850000000000    0.0598200000000000 H
   0.2620300000000000    0.8322149999999999    0.0254550000000000 H
   0.2828550000000000    0.8115450000000000    0.9457550000000000 H
   0.1968250000000000    0.1645550000000000    0.1106700000000000 H
   0.2277750000000000    0.0570800000000000    0.1606800000000000 H
   0.1262150000000000    0.1603500000000000    0.1486450000000000 H
   0.1440500000000000    0.1599300000000000    0.2761700000000000 H
   0.2327250000000000    0.0080200000000000    0.9402150000000000 H
   0.2106650000000000    0.0283600000000000    0.0199250000000000 H
   0.2379950000000000    0.1677850000000000    0.9745699999999999 H
   0.2171950000000000    0.1884600000000000    0.0542750000000000 H
   0.6027178847571300    0.7214675431405007    0.6937927619349620 H
   0.6081376774862449    0.7243114113104456    0.7872777216453860 H
   0.6575389553221752    0.7326660088667561    0.7442289713453281 H
   0.5531200000000001    0.0543000000000000    0.3894350000000000 H
   0.6234600000000000    0.0130550000000000    0.3511250000000000 H
   0.6062200000000000    0.8845300000000000    0.2237350000000000 H
   0.5239549999999999    0.8960750000000000    0.3395800000000000 H
   0.5171800000000000    0.0678600000000000    0.5596500000000000 H
   0.5394250000000000    0.0085950000000000    0.4799350000000000 H
   0.5119250000000000    0.1935100000000000    0.5257200000000000 H
   0.5328900000000000    0.1345850000000000    0.4459900000000000 H
   0.4468750000000000    0.9457000000000000    0.6105850000000000 H
   0.3765500000000000    0.9869550000000000    0.6489100000000000 H
   0.3938000000000000    0.1154900000000000    0.7762899999999999 H
   0.4760600000000000    0.1039250000000000    0.6604350000000000 H
   0.4605800000000000    0.9914050000000000    0.5200850000000000 H
   0.4828250000000000    0.9321450000000000    0.4403500000000000 H
   0.4880700000000000    0.8064899999999999    0.4740000000000000 H
   0.4671000000000000    0.8654150000000000    0.5540300000000000 H
   0.0531200000000000    0.0543000000000000    0.8894350000000000 H
   0.1234600000000000    0.0130550000000000    0.8511250000000000 H
   0.1062200000000000    0.8845300000000000    0.7237350000000000 H
   0.0239550000000000    0.8960750000000000    0.8395800000000000 H
   0.0171800000000000    0.0678600000000000    0.0596500000000000 H
   0.0394250000000000    0.0085950000000000    0.9799350000000000 H
   0.0119250000000000    0.1935100000000000    0.0257200000000000 H
   0.0328900000000000    0.1345850000000000    0.9459900000000000 H
   0.9468750000000000    0.9457000000000000    0.1105850000000000 H
   0.8765499999999999    0.9869550000000000    0.1489100000000000 H
   0.8937999999999999    0.1154900000000000    0.2762900000000000 H
   0.9760599999999999    0.1039250000000000    0.1604350000000000 H
   0.9605800000000000    0.9914050000000000    0.0200850000000000 H
   0.9828250000000001    0.9321450000000000    0.9403500000000000 H
   0.9880700000000000    0.8064899999999999    0.9740000000000000 H
   0.9671000000000001    0.8654150000000000    0.0540300000000000 H
   0.6581900000000001    0.4715150000000000    0.7674350000000000 C
   0.5015750000000000    0.6691350000000000    0.0945650000000000 C
   0.5399950000000000    0.3359150000000000    0.7504000000000000 C
   0.5493550000000000    0.5347950000000000    0.9112000000000000 C
   0.6050750000000000    0.4779850000000000    0.8308400000000000 C
   0.5964250000000000    0.4053150000000000    0.7590350000000000 C
   0.6186900000000000    0.4510750000000000    0.7856350000000000 C
   0.5497300000000001    0.4117200000000000    0.8240700000000001 C
   0.5623899999999999    0.3854800000000000    0.7785800000000000 C
   0.5696550000000000    0.4593950000000000    0.8501700000000000 C
   0.5209800000000000    0.5817900000000000    0.0343400000000000 C
   0.5329900000000000    0.5490200000000000    0.9902750000000000 C
   0.5177850000000001    0.6529650000000000    0.0151800000000000 C
   0.5295150000000000    0.6200400000000000    0.9709950000000001 C
   0.5133850000000000    0.6339950000000000    0.0470800000000000 C
   0.5371750000000000    0.5677850000000000    0.9579949999999999 C
   0.3418250000000000    0.5284950000000000    0.2325950000000000 C
   0.4984400000000000    0.3308700000000000    0.9054550000000000 C
   0.4600300000000000    0.6640950000000000    0.2495500000000000 C
   0.4506450000000000    0.4652050000000000    0.0888200000000000 C
   0.3949400000000000    0.5220200000000000    0.1691900000000000 C
   0.4035950000000000    0.5946950000000000    0.2409900000000000 C
   0.3813250000000000    0.5489350000000000    0.2143900000000000 C
   0.4502850000000000    0.5882849999999999    0.1759500000000000 C
   0.4376300000000000    0.6145300000000000    0.2214400000000000 C
   0.4303600000000000    0.5406100000000000    0.1498500000000000 C
   0.4670100000000000    0.4509850000000000    0.0097450000000000 C
   0.4790250000000000    0.4182100000000000    0.9656800000000000 C
   0.4822100000000000    0.3470350000000000    0.9848399999999999 C
   0.4704800000000000    0.3799550000000000    0.0290250000000000 C
   0.4866150000000000    0.3660050000000000    0.9529400000000000 C
   0.4628200000000000    0.4322150000000000    0.0420250000000000 C
   0.1581900000000000    0.4715150000000000    0.2674350000000000 C
   0.0015750000000000    0.6691350000000000    0.5945650000000000 C
   0.0399950000000000    0.3359150000000000    0.2504000000000000 C
   0.0493550000000000    0.5347950000000000    0.4112000000000000 C
   0.1050750000000000    0.4779850000000000    0.3308400000000000 C
   0.0964250000000000    0.4053150000000000    0.2590350000000000 C
   0.1186900000000000    0.4510750000000000    0.2856350000000000 C
   0.0497300000000000    0.4117200000000000    0.3240700000000000 C
   0.0623900000000000    0.3854800000000000    0.2785800000000000 C
   0.0696550000000000    0.4593950000000000    0.3501700000000000 C
   0.0209800000000000    0.5817900000000000    0.5343400000000000 C
   0.0329900000000000    0.5490200000000000    0.4902750000000000 C
   0.0177850000000000    0.6529650000000000    0.5151800000000000 C
   0.0295150000000000    0.6200400000000000    0.4709950000000000 C
   0.0133850000000000    0.6339950000000000    0.5470800000000000 C
   0.0371750000000000    0.5677850000000000    0.4579950000000000 C
   0.8418250000000000    0.5284950000000000    0.7325950000000000 C
   0.9984400000000000    0.3308700000000000    0.4054550000000000 C
   0.9600299999999999    0.6640950000000000    0.7495499999999999 C
   0.9506450000000000    0.4652050000000000    0.5888200000000000 C
   0.8949400000000001    0.5220200000000000    0.6691900000000000 C
   0.9035949999999999    0.5946950000000000    0.7409900000000000 C
   0.8813250000000000    0.5489350000000000    0.7143900000000000 C
   0.9502850000000000    0.5882849999999999    0.6759500000000001 C
   0.9376300000000000    0.6145300000000000    0.7214400000000000 C
   0.9303600000000001    0.5406100000000000    0.6498500000000000 C
   0.9670099999999999    0.4509850000000000    0.5097450000000000 C
   0.9790250000000000    0.4182100000000000    0.4656800000000000 C
   0.9822100000000000    0.3470350000000000    0.4848400000000000 C
   0.9704800000000000    0.3799550000000000    0.5290250000000000 C
   0.9866150000000000    0.3660050000000000    0.4529400000000000 C
   0.9628200000000000    0.4322150000000000    0.5420250000000000 C
   0.9089650000000000    0.2979150000000000    0.7678199999999999 C
   0.7516849999999999    0.4254500000000000    0.0944750000000000 C
   0.7883300000000000    0.4140250000000000    0.7503050000000000 C
   0.7991850000000000    0.3767150000000000    0.9111650000000000 C
   0.7985550000000000    0.4122550000000000    0.8239600000000000 C
   0.8113200000000000    0.3931100000000000    0.7785050000000000 C
   0.8551100000000000    0.3539900000000000    0.8309900000000000 C
   0.8460750000000000    0.3544550000000000    0.7591150000000000 C
   0.8688800000000000    0.3358700000000000    0.7858000000000001 C
   0.8190800000000000    0.3912400000000000    0.8501799999999999 C
   0.7830150000000000    0.4414900000000000    0.9903500000000001 C
   0.7710950000000000    0.4527150000000000    0.0344050000000000 C
   0.7678700000000001    0.3622950000000000    0.0150150000000000 C
   0.7795200000000000    0.3510950000000000    0.9708450000000000 C
   0.7635100000000000    0.4131700000000000    0.0470200000000000 C
   0.7871250000000001    0.3904400000000000    0.9579599999999999 C
   0.5911000000000000    0.7021050000000000    0.2321950000000000 C
   0.7483350000000000    0.5745500000000000    0.9055500000000001 C
   0.7116950000000000    0.5859700000000000    0.2497000000000000 C
   0.7008900000000000    0.6232900000000000    0.0888700000000000 C
   0.7014850000000000    0.5877400000000000    0.1760700000000000 C
   0.6887200000000000    0.6068850000000000    0.2215200000000000 C
   0.6449500000000000    0.6460100000000000    0.1690000000000000 C
   0.6539650000000000    0.6455450000000000    0.2409100000000000 C
   0.6311800000000000    0.6641350000000000    0.2141900000000000 C
   0.6809800000000000    0.6087600000000000    0.1498450000000000 C
   0.7289750000000000    0.5472850000000000    0.9656300000000000 C
   0.7170600000000000    0.5585150000000000    0.0096500000000000 C
   0.7321750000000000    0.6377100000000000    0.9850150000000000 C
   0.7205300000000000    0.6489100000000000    0.0291850000000000 C
   0.7365349999999999    0.5868350000000000    0.9530100000000000 C
   0.7129449999999999    0.6095650000000000    0.0420500000000000 C
   0.4089650000000000    0.7979149999999999    0.2678200000000000 C
   0.2516850000000000    0.9254500000000000    0.5944750000000000 C
   0.2883300000000000    0.9140250000000000    0.2503050000000000 C
   0.2991850000000000    0.8767150000000000    0.4111650000000000 C
   0.2985550000000000    0.9122550000000000    0.3239600000000000 C
   0.3113200000000000    0.8931100000000001    0.2785050000000000 C
   0.3551100000000000    0.8539900000000000    0.3309900000000000 C
   0.3460750000000000    0.8544550000000000    0.2591150000000000 C
   0.3688800000000000    0.8358700000000000    0.2858000000000000 C
   0.3190800000000000    0.8912400000000000    0.3501800000000000 C
   0.2830150000000000    0.9414899999999999    0.4903500000000000 C
   0.2710950000000000    0.9527150000000000    0.5344050000000000 C
   0.2678700000000000    0.8622950000000000    0.5150150000000000 C
   0.2795200000000000    0.8510949999999999    0.4708450000000000 C
   0.2635100000000000    0.9131700000000000    0.5470200000000000 C
   0.2871250000000000    0.8904400000000000    0.4579600000000000 C
   0.0911000000000000    0.2021050000000000    0.7321950000000000 C
   0.2483350000000000    0.0745500000000000    0.4055500000000000 C
   0.2116950000000000    0.0859700000000000    0.7497000000000000 C
   0.2008900000000000    0.1232900000000000    0.5888700000000000 C
   0.2014850000000000    0.0877400000000000    0.6760699999999999 C
   0.1887200000000000    0.1068850000000000    0.7215199999999999 C
   0.1449500000000000    0.1460100000000000    0.6690000000000000 C
   0.1539650000000000    0.1455450000000000    0.7409100000000000 C
   0.1311800000000000    0.1641350000000000    0.7141900000000000 C
   0.1809800000000000    0.1087600000000000    0.6498450000000000 C
   0.2289750000000000    0.0472850000000000    0.4656300000000000 C
   0.2170600000000000    0.0585150000000000    0.5096500000000000 C
   0.2321750000000000    0.1377100000000000    0.4850150000000000 C
   0.2205300000000000    0.1489100000000000    0.5291850000000000 C
   0.2365350000000000    0.0868350000000000    0.4530100000000000 C
   0.2129450000000000    0.1095650000000000    0.5420500000000000 C
   0.4089650000000000    0.2979150000000000    0.2678200000000000 C
   0.2516850000000000    0.4254500000000000    0.5944750000000000 C
   0.2883300000000000    0.4140250000000000    0.2503050000000000 C
   0.2991850000000000    0.3767150000000000    0.4111650000000000 C
   0.2985550000000000    0.4122550000000000    0.3239600000000000 C
   0.3113200000000000    0.3931100000000000    0.2785050000000000 C
   0.3551100000000000    0.3539900000000000    0.3309900000000000 C
   0.3460750000000000    0.3544550000000000    0.2591150000000000 C
   0.3688800000000000    0.3358700000000000    0.2858000000000000 C
   0.3190800000000000    0.3912400000000000    0.3501800000000000 C
   0.2830150000000000    0.4414900000000000    0.4903500000000000 C
   0.2710950000000000    0.4527150000000000    0.5344050000000000 C
   0.2678700000000000    0.3622950000000000    0.5150150000000000 C
   0.2795200000000000    0.3510950000000000    0.4708450000000000 C
   0.2635100000000000    0.4131700000000000    0.5470200000000000 C
   0.2871250000000000    0.3904400000000000    0.4579600000000000 C
   0.0911000000000000    0.7021050000000000    0.7321950000000000 C
   0.2483350000000000    0.5745500000000000    0.4055500000000000 C
   0.2116950000000000    0.5859700000000000    0.7497000000000000 C