H12 O8
1.0
  23.7309809441672073    0.0000000000000000    1.5260876211977381
   0.0561195399474486    7.4737376590140032    0.0277849144677412
   0.0000000000000000    0.0000000000000000   31.1722000000000001
H O
12 8
direct
   0.4745573717374491    0.2067057311656242    0.4422088125961645 H
   0.3168550148593686    0.2667172216576551    0.4069304165457418 H
   0.3896391267081868    0.2480882265382572    0.4256266599592659 H
   0.4081026496654944    0.2296711796214616    0.4538094428369954 H
   0.3749718507601062    0.7052646814125031    0.3912688488072678 H
   0.4067111735886277   -0.2642105892770146    0.4348410515264685 H
   0.3750159386399223    0.3103545236933625    0.6087521112446096 H
   0.3432739365889003    0.2798277643368707    0.5651739571994151 H
   0.4191653984644431    0.7779090084234138    0.5676799301659895 H
   0.3303386674137426    0.8167202498136704    0.5496977112923535 H
   0.3418774777284102    0.7859466993579075    0.5462088173011793 H
   0.2772424793864678   -0.1554449465822865    0.5551184517053362 H
   0.4432275000000000    0.1799400000000000    0.4249000000000000 O
   0.3548650000000000    0.2183800000000000    0.4064150000000000 O
   0.3716600000000000    0.5857700000000000    0.3797050000000000 O
   0.3970350000000000   -0.1696600000000000    0.4151650000000000 O
   0.3783300000000000    0.4298500000000000    0.6203149999999999 O
   0.3529525000000000    0.1852800000000000    0.5848500000000000 O
   0.3951225000000000    0.7972399999999999    0.5936000000000000 O
   0.3067575000000000   -0.1643200000000000    0.5751200000000000 O
