Zn32 H30 C150 O120
1.0
  23.7309809441672073    0.0000000000000000    1.5260876211977381
   0.0561195399474486    7.4737376590140032    0.0277849144677412
   0.0000000000000000    0.0000000000000000   31.1722000000000001
Zn H C O
32 30 150 120
direct
   0.0626725000000000    0.0154900000000000    0.1249100000000000 Zn
   0.0625025000000000    0.3988000000000000    0.3749600000000000 Zn
   0.1874950000000000    0.6168200000000000    0.1250550000000000 Zn
   0.1873125000000000    0.0001300000000000    0.3751050000000000 Zn
   0.3126725000000000    0.0154900000000000    0.1249100000000000 Zn
   0.3125025000000000    0.3988000000000000    0.3749600000000000 Zn
   0.4374950000000000    0.6168200000000000    0.1250550000000000 Zn
   0.4373125000000000    0.0001300000000000    0.3751050000000000 Zn
   0.5626725000000000    0.0154900000000000    0.1249100000000000 Zn
   0.5625025000000000    0.3988000000000000    0.3749600000000000 Zn
   0.6874950000000000    0.6168200000000000    0.1250550000000000 Zn
   0.6873125000000000    0.0001300000000000    0.3751050000000000 Zn
   0.8126725000000000    0.0154900000000000    0.1249100000000000 Zn
   0.8125025000000000    0.3988000000000000    0.3749600000000000 Zn
   0.9374950000000000    0.6168200000000000    0.1250550000000000 Zn
   0.9373125000000000    0.0001300000000000    0.3751050000000000 Zn
   0.0626725000000000    0.0154900000000000    0.6249100000000000 Zn
   0.0625025000000000    0.3988000000000000    0.8749600000000000 Zn
   0.1874950000000000    0.6168200000000000    0.6250550000000000 Zn
   0.1873125000000000    0.0001300000000000    0.8751050000000000 Zn
   0.3126725000000000    0.0154900000000000    0.6249100000000000 Zn
   0.3125025000000000    0.3988000000000000    0.8749600000000000 Zn
   0.4374950000000000    0.6168200000000000    0.6250550000000000 Zn
   0.4373125000000000    0.0001300000000000    0.8751050000000000 Zn
   0.5626725000000000    0.0154900000000000    0.6249100000000000 Zn
   0.5625025000000000    0.3988000000000000    0.8749600000000000 Zn
   0.6874950000000000    0.6168200000000000    0.6250550000000000 Zn
   0.6873125000000000    0.0001300000000000    0.8751050000000000 Zn
   0.8126725000000000    0.0154900000000000    0.6249100000000000 Zn
   0.8125025000000000    0.3988000000000000    0.8749600000000000 Zn
   0.9374950000000000    0.6168200000000000    0.6250550000000000 Zn
   0.9373125000000000    0.0001300000000000    0.8751050000000000 Zn
   0.2333075000000000    0.1856700000000000    0.2393900000000000 H
   0.1423275000000000    0.1856200000000000    0.0116650000000000 H
   0.1076600000000000    0.8299900000000000    0.4883500000000000 H
   0.0166775000000000    0.8299500000000000    0.2606300000000000 H
   0.4833075000000000    0.1856700000000000    0.2393900000000000 H
   0.3923275000000000    0.1856200000000000    0.0116650000000000 H
   0.2666775000000000    0.8299500000000000    0.2606300000000000 H
   0.7333075000000000    0.1856700000000000    0.2393900000000000 H
   0.6423274999999999    0.1856200000000000    0.0116650000000000 H
   0.6076600000000000    0.8299900000000000    0.4883500000000000 H
   0.5166775000000000    0.8299500000000000    0.2606300000000000 H
   0.9833075000000000    0.1856700000000000    0.2393900000000000 H
   0.8923274999999999    0.1856200000000000    0.0116650000000000 H
   0.8576600000000000    0.8299900000000000    0.4883500000000000 H
   0.7666775000000000    0.8299500000000000    0.2606300000000000 H
   0.2333075000000000    0.1856700000000000    0.7393900000000000 H
   0.1423275000000000    0.1856200000000000    0.5116650000000000 H
   0.1076600000000000    0.8299900000000000    0.9883500000000001 H
   0.0166775000000000    0.8299500000000000    0.7606299999999999 H
   0.4833075000000000    0.1856700000000000    0.7393900000000000 H
   0.3576600000000000    0.8299900000000000    0.9883500000000001 H
   0.2666775000000000    0.8299500000000000    0.7606299999999999 H
   0.7333075000000000    0.1856700000000000    0.7393900000000000 H
   0.6423274999999999    0.1856200000000000    0.5116650000000000 H
   0.6076600000000000    0.8299900000000000    0.9883500000000001 H
   0.5166775000000000    0.8299500000000000    0.7606299999999999 H
   0.9833075000000000    0.1856700000000000    0.7393900000000000 H
   0.8923274999999999    0.1856200000000000    0.5116650000000000 H
   0.8576600000000000    0.8299900000000000    0.9883500000000001 H
   0.7666775000000000    0.8299500000000000    0.7606299999999999 H
   0.2403525000000000    0.3276700000000000    0.2442150000000000 C
   0.1350025000000000    0.3276800000000000    0.0063850000000000 C
   0.1362425000000000    0.3946200000000000    0.4644050000000000 C
   0.0017000000000000    0.4357800000000000    0.2079550000000000 C
   0.1262650000000000    0.5785300000000000    0.4576800000000000 C
   0.0113225000000000    0.6195300000000000    0.2140850000000000 C
   0.1314825000000000    0.6685000000000000    0.4141450000000000 C
   0.0211575000000000    0.7532300000000000    0.1784050000000000 C
   0.1460575000000000    0.2595300000000000    0.4291600000000000 C
   0.0071375000000000    0.3453700000000000    0.1646600000000000 C
   0.1149825000000000    0.6879300000000000    0.4936350000000000 C
   0.0096325000000000    0.6879400000000000    0.2558000000000000 C
   0.2482875000000000    0.5798300000000000    0.2920650000000000 C
   0.1137425000000000    0.6209900000000000    0.0356150000000000 C
   0.2386625000000000    0.3960900000000000    0.2859350000000000 C
   0.1237200000000000    0.4370900000000000    0.0423400000000000 C
   0.2288300000000000    0.2623900000000000    0.3216100000000000 C
   0.1185050000000000    0.3471200000000000    0.0858750000000000 C
   0.2428475000000000    0.6702399999999999    0.3353550000000000 C
   0.1039300000000000    0.7560800000000000    0.0708600000000000 C
   0.4903525000000000    0.3276700000000000    0.2442150000000000 C
   0.3850025000000000    0.3276800000000000    0.0063850000000000 C
   0.2517000000000000    0.4357800000000000    0.2079550000000000 C
   0.2613225000000000    0.6195300000000000    0.2140850000000000 C
   0.2711575000000000    0.7532300000000000    0.1784050000000000 C
   0.2571375000000000    0.3453700000000000    0.1646600000000000 C
   0.2596325000000000    0.6879400000000000    0.2558000000000000 C
   0.4982875000000000    0.5798300000000000    0.2920650000000000 C
   0.3637425000000000    0.6209900000000000    0.0356150000000000 C
   0.4886625000000000    0.3960900000000000    0.2859350000000000 C
   0.3737200000000000    0.4370900000000000    0.0423400000000000 C
   0.4788300000000000    0.2623900000000000    0.3216100000000000 C
   0.3685050000000000    0.3471200000000000    0.0858750000000000 C
   0.4928475000000000    0.6702399999999999    0.3353550000000000 C
   0.3539300000000000    0.7560800000000000    0.0708600000000000 C
   0.7403525000000000    0.3276700000000000    0.2442150000000000 C
   0.6350025000000000    0.3276800000000000    0.0063850000000000 C
   0.6362425000000000    0.3946200000000000    0.4644050000000000 C
   0.5017000000000000    0.4357800000000000    0.2079550000000000 C
   0.6262650000000000    0.5785300000000000    0.4576800000000000 C
   0.5113225000000000    0.6195300000000000    0.2140850000000000 C
   0.6314824999999999    0.6685000000000000    0.4141450000000000 C
   0.5211575000000001    0.7532300000000000    0.1784050000000000 C
   0.6460575000000000    0.2595300000000000    0.4291600000000000 C
   0.5071375000000000    0.3453700000000000    0.1646600000000000 C
   0.6149825000000000    0.6879300000000000    0.4936350000000000 C
   0.5096325000000000    0.6879400000000000    0.2558000000000000 C
   0.7482875000000000    0.5798300000000000    0.2920650000000000 C
   0.6137425000000000    0.6209900000000000    0.0356150000000000 C
   0.7386625000000000    0.3960900000000000    0.2859350000000000 C
   0.6237200000000001    0.4370900000000000    0.0423400000000000 C
   0.7288300000000000    0.2623900000000000    0.3216100000000000 C
   0.6185050000000000    0.3471200000000000    0.0858750000000000 C
   0.7428475000000000    0.6702399999999999    0.3353550000000000 C
   0.6039300000000000    0.7560800000000000    0.0708600000000000 C
   0.9903525000000000    0.3276700000000000    0.2442150000000000 C
   0.8850025000000000    0.3276800000000000    0.0063850000000000 C
   0.8862425000000000    0.3946200000000000    0.4644050000000000 C
   0.7517000000000000    0.4357800000000000    0.2079550000000000 C
   0.8762650000000000    0.5785300000000000    0.4576800000000000 C
   0.7613225000000000    0.6195300000000000    0.2140850000000000 C
   0.8814824999999999    0.6685000000000000    0.4141450000000000 C
   0.7711575000000001    0.7532300000000000    0.1784050000000000 C
   0.8960575000000000    0.2595300000000000    0.4291600000000000 C
   0.7571375000000000    0.3453700000000000    0.1646600000000000 C
   0.8649825000000000    0.6879300000000000    0.4936350000000000 C
   0.7596325000000000    0.6879400000000000    0.2558000000000000 C
   0.9982875000000000    0.5798300000000000    0.2920650000000000 C
   0.8637425000000000    0.6209900000000000    0.0356150000000000 C
   0.9886625000000000    0.3960900000000000    0.2859350000000000 C
   0.8737200000000001    0.4370900000000000    0.0423400000000000 C
   0.9788300000000000    0.2623900000000000    0.3216100000000000 C
   0.8685050000000000    0.3471200000000000    0.0858750000000000 C
   0.9928475000000000    0.6702399999999999    0.3353550000000000 C
   0.8539300000000000    0.7560800000000000    0.0708600000000000 C
   0.2403525000000000    0.3276700000000000    0.7442150000000000 C
   0.1350025000000000    0.3276800000000000    0.5063850000000000 C
   0.1362425000000000    0.3946200000000000    0.9644050000000000 C
   0.0017000000000000    0.4357800000000000    0.7079550000000000 C
   0.1262650000000000    0.5785300000000000    0.9576800000000000 C
   0.0113225000000000    0.6195300000000000    0.7140850000000000 C
   0.1314825000000000    0.6685000000000000    0.9141450000000000 C
   0.0211575000000000    0.7532300000000000    0.6784050000000000 C
   0.1460575000000000    0.2595300000000000    0.9291600000000000 C
   0.0071375000000000    0.3453700000000000    0.6646600000000000 C
   0.1149825000000000    0.6879300000000000    0.9936350000000000 C
   0.0096325000000000    0.6879400000000000    0.7558000000000000 C
   0.2482875000000000    0.5798300000000000    0.7920650000000000 C
   0.1137425000000000    0.6209900000000000    0.5356150000000000 C
   0.2386625000000000    0.3960900000000000    0.7859350000000001 C
   0.1237200000000000    0.4370900000000000    0.5423400000000000 C
   0.2288300000000000    0.2623900000000000    0.8216100000000000 C
   0.1185050000000000    0.3471200000000000    0.5858750000000000 C
   0.2428475000000000    0.6702399999999999    0.8353550000000001 C
   0.1039300000000000    0.7560800000000000    0.5708600000000000 C
   0.4903525000000000    0.3276700000000000    0.7442150000000000 C
   0.3862425000000000    0.3946200000000000    0.9644050000000000 C
   0.2517000000000000    0.4357800000000000    0.7079550000000000 C
   0.3762650000000000    0.5785300000000000    0.9576800000000000 C
   0.2613225000000000    0.6195300000000000    0.7140850000000000 C
   0.3814825000000000    0.6685000000000000    0.9141450000000000 C
   0.2711575000000000    0.7532300000000000    0.6784050000000000 C
   0.3960575000000000    0.2595300000000000    0.9291600000000000 C
   0.2571375000000000    0.3453700000000000    0.6646600000000000 C
   0.3649825000000000    0.6879300000000000    0.9936350000000000 C
   0.2596325000000000    0.6879400000000000    0.7558000000000000 C
   0.4982875000000000    0.5798300000000000    0.7920650000000000 C
   0.4886625000000000    0.3960900000000000    0.7859350000000001 C
   0.4788300000000000    0.2623900000000000    0.8216100000000000 C
   0.4928475000000000    0.6702399999999999    0.8353550000000001 C
   0.7403525000000000    0.3276700000000000    0.7442150000000000 C
   0.6350025000000000    0.3276800000000000    0.5063850000000000 C
   0.6362425000000000    0.3946200000000000    0.9644050000000000 C
   0.5017000000000000    0.4357800000000000    0.7079550000000000 C
   0.6262650000000000    0.5785300000000000    0.9576800000000000 C
   0.5113225000000000    0.6195300000000000    0.7140850000000000 C
   0.6314824999999999    0.6685000000000000    0.9141450000000000 C
   0.5211575000000001    0.7532300000000000    0.6784050000000000 C
   0.6460575000000000    0.2595300000000000    0.9291600000000000 C
   0.5071375000000000    0.3453700000000000    0.6646600000000000 C
   0.6149825000000000    0.6879300000000000    0.9936350000000000 C
   0.5096325000000000    0.6879400000000000    0.7558000000000000 C
   0.7482875000000000    0.5798300000000000    0.7920650000000000 C
   0.6137425000000000    0.6209900000000000    0.5356150000000000 C
   0.7386625000000000    0.3960900000000000    0.7859350000000001 C
   0.6237200000000001    0.4370900000000000    0.5423400000000000 C
   0.7288300000000000    0.2623900000000000    0.8216100000000000 C
   0.6185050000000000    0.3471200000000000    0.5858750000000000 C
   0.7428475000000000    0.6702399999999999    0.8353550000000001 C
   0.6039300000000000    0.7560800000000000    0.5708600000000000 C
   0.9903525000000000    0.3276700000000000    0.7442150000000000 C
   0.8850025000000000    0.3276800000000000    0.5063850000000000 C
   0.8862425000000000    0.3946200000000000    0.9644050000000000 C
   0.7517000000000000    0.4357800000000000    0.7079550000000000 C
   0.8762650000000000    0.5785300000000000    0.9576800000000000 C
   0.7613225000000000    0.6195300000000000    0.7140850000000000 C
   0.8814824999999999    0.6685000000000000    0.9141450000000000 C
   0.7711575000000001    0.7532300000000000    0.6784050000000000 C
   0.8960575000000000    0.2595300000000000    0.9291600000000000 C
   0.7571375000000000    0.3453700000000000    0.6646600000000000 C
   0.8649825000000000    0.6879300000000000    0.9936350000000000 C
   0.7596325000000000    0.6879400000000000    0.7558000000000000 C
   0.9982875000000000    0.5798300000000000    0.7920650000000000 C
   0.8637425000000000    0.6209900000000000    0.5356150000000000 C
   0.9886625000000000    0.3960900000000000    0.7859350000000001 C
   0.8737200000000001    0.4370900000000000    0.5423400000000000 C
   0.9788300000000000    0.2623900000000000    0.8216100000000000 C
   0.8685050000000000    0.3471200000000000    0.5858750000000000 C
   0.9928475000000000    0.6702399999999999    0.8353550000000001 C
   0.8539300000000000    0.7560800000000000    0.5708600000000000 C
   0.1932275000000000    0.1799400000000000    0.4249000000000000 O
   0.0228375000000000    0.1828100000000000    0.1659800000000000 O
   0.1048650000000000    0.2183800000000000    0.4064150000000000 O
   0.2473400000000000    0.4287900000000000    0.1300950000000000 O
   0.1470350000000000    0.8303400000000000    0.4151650000000000 O
   0.0685025000000000    0.8293300000000000    0.1737400000000000 O
   0.1216600000000000    0.5857700000000000    0.3797050000000000 O
   0.2297600000000000    0.7969900000000000    0.1558800000000000 O
   0.2271475000000000    0.8328000000000000    0.3340400000000000 O
   0.0567575000000000    0.8356800000000000    0.0751200000000000 O
   0.0026500000000000    0.5868300000000000    0.3699200000000000 O
   0.1451225000000000    0.7972399999999999    0.0936000000000000 O
   0.1814850000000000    0.1862800000000000    0.3262800000000000 O
   0.1029525000000000    0.1852800000000000    0.0848500000000000 O
   0.0202275000000000    0.2186300000000000    0.3441350000000000 O
   0.1283300000000000    0.4298500000000000    0.1203150000000000 O
   0.2728375000000000    0.1828100000000000    0.1659800000000000 O
   0.4973400000000000    0.4287900000000000    0.1300950000000000 O
   0.3185025000000000    0.8293300000000000    0.1737400000000000 O
   0.4797600000000000    0.7969900000000000    0.1558800000000000 O
   0.4771475000000000    0.8328000000000000    0.3340400000000000 O
   0.3067575000000000    0.8356800000000000    0.0751200000000000 O
   0.2526500000000000    0.5868300000000000    0.3699200000000000 O
   0.3951225000000000    0.7972399999999999    0.0936000000000000 O
   0.4314850000000000    0.1862800000000000    0.3262800000000000 O
   0.3529525000000000    0.1852800000000000    0.0848500000000000 O
   0.2702275000000000    0.2186300000000000    0.3441350000000000 O
   0.3783300000000000    0.4298500000000000    0.1203150000000000 O
   0.6932275000000000    0.1799400000000000    0.4249000000000000 O
   0.5228375000000000    0.1828100000000000    0.1659800000000000 O
   0.6048650000000000    0.2183800000000000    0.4064150000000000 O
   0.7473400000000000    0.4287900000000000    0.1300950000000000 O
   0.6470350000000000    0.8303400000000000    0.4151650000000000 O
   0.5685025000000000    0.8293300000000000    0.1737400000000000 O
   0.6216600000000000    0.5857700000000000    0.3797050000000000 O
   0.7297600000000000    0.7969900000000000    0.1558800000000000 O
   0.7271475000000001    0.8328000000000000    0.3340400000000000 O
   0.5567575000000000    0.8356800000000000    0.0751200000000000 O
   0.5026500000000000    0.5868300000000000    0.3699200000000000 O
   0.6451225000000000    0.7972399999999999    0.0936000000000000 O
   0.6814850000000000    0.1862800000000000    0.3262800000000000 O
   0.6029525000000000    0.1852800000000000    0.0848500000000000 O
   0.5202275000000000    0.2186300000000000    0.3441350000000000 O
   0.6283300000000001    0.4298500000000000    0.1203150000000000 O
   0.9432275000000000    0.1799400000000000    0.4249000000000000 O
   0.7728375000000000    0.1828100000000000    0.1659800000000000 O
   0.8548650000000000    0.2183800000000000    0.4064150000000000 O
   0.9973400000000000    0.4287900000000000    0.1300950000000000 O
   0.8970350000000000    0.8303400000000000    0.4151650000000000 O
   0.8185025000000000    0.8293300000000000    0.1737400000000000 O
   0.8716600000000000    0.5857700000000000    0.3797050000000000 O
   0.9797600000000000    0.7969900000000000    0.1558800000000000 O
   0.9771475000000001    0.8328000000000000    0.3340400000000000 O
   0.8067575000000000    0.8356800000000000    0.0751200000000000 O
   0.7526500000000000    0.5868300000000000    0.3699200000000000 O
   0.8951225000000000    0.7972399999999999    0.0936000000000000 O
   0.9314850000000000    0.1862800000000000    0.3262800000000000 O
   0.8529525000000000    0.1852800000000000    0.0848500000000000 O
   0.7702275000000000    0.2186300000000000    0.3441350000000000 O
   0.8783300000000001    0.4298500000000000    0.1203150000000000 O
   0.1932275000000000    0.1799400000000000    0.9249000000000001 O
   0.0228375000000000    0.1828100000000000    0.6659800000000000 O
   0.1048650000000000    0.2183800000000000    0.9064150000000000 O
   0.2473400000000000    0.4287900000000000    0.6300950000000000 O
   0.1470350000000000    0.8303400000000000    0.9151650000000000 O
   0.0685025000000000    0.8293300000000000    0.6737400000000000 O
   0.1216600000000000    0.5857700000000000    0.8797050000000000 O
   0.2297600000000000    0.7969900000000000    0.6558800000000000 O
   0.2271475000000000    0.8328000000000000    0.8340400000000000 O
   0.0567575000000000    0.8356800000000000    0.5751200000000000 O
   0.0026500000000000    0.5868300000000000    0.8699200000000000 O
   0.1451225000000000    0.7972399999999999    0.5936000000000000 O
   0.1814850000000000    0.1862800000000000    0.8262800000000000 O
   0.1029525000000000    0.1852800000000000    0.5848500000000000 O
   0.0202275000000000    0.2186300000000000    0.8441350000000001 O
   0.1283300000000000    0.4298500000000000    0.6203149999999999 O
   0.4432275000000000    0.1799400000000000    0.9249000000000001 O
   0.2728375000000000    0.1828100000000000    0.6659800000000000 O
   0.3548650000000000    0.2183800000000000    0.9064150000000000 O
   0.4973400000000000    0.4287900000000000    0.6300950000000000 O
   0.3970350000000000    0.8303400000000000    0.9151650000000000 O
   0.3185025000000000    0.8293300000000000    0.6737400000000000 O
   0.3716600000000000    0.5857700000000000    0.8797050000000000 O
   0.4797600000000000    0.7969900000000000    0.6558800000000000 O
   0.4771475000000000    0.8328000000000000    0.8340400000000000 O
   0.2526500000000000    0.5868300000000000    0.8699200000000000 O
   0.4314850000000000    0.1862800000000000    0.8262800000000000 O
   0.2702275000000000    0.2186300000000000    0.8441350000000001 O
   0.6932275000000000    0.1799400000000000    0.9249000000000001 O
   0.5228375000000000    0.1828100000000000    0.6659800000000000 O
   0.6048650000000000    0.2183800000000000    0.9064150000000000 O
   0.7473400000000000    0.4287900000000000    0.6300950000000000 O
   0.6470350000000000    0.8303400000000000    0.9151650000000000 O
   0.5685025000000000    0.8293300000000000    0.6737400000000000 O
   0.6216600000000000    0.5857700000000000    0.8797050000000000 O
   0.7297600000000000    0.7969900000000000    0.6558800000000000 O
   0.7271475000000001    0.8328000000000000    0.8340400000000000 O
   0.5567575000000000    0.8356800000000000    0.5751200000000000 O
   0.5026500000000000    0.5868300000000000    0.8699200000000000 O
   0.6451225000000000    0.7972399999999999    0.5936000000000000 O
   0.6814850000000000    0.1862800000000000    0.8262800000000000 O
   0.6029525000000000    0.1852800000000000    0.5848500000000000 O
   0.5202275000000000    0.2186300000000000    0.8441350000000001 O
   0.6283300000000001    0.4298500000000000    0.6203149999999999 O
   0.9432275000000000    0.1799400000000000    0.9249000000000001 O
   0.7728375000000000    0.1828100000000000    0.6659800000000000 O
   0.8548650000000000    0.2183800000000000    0.9064150000000000 O
   0.9973400000000000    0.4287900000000000    0.6300950000000000 O
   0.8970350000000000    0.8303400000000000    0.9151650000000000 O
   0.8185025000000000    0.8293300000000000    0.6737400000000000 O
   0.8716600000000000    0.5857700000000000    0.8797050000000000 O
   0.9797600000000000    0.7969900000000000    0.6558800000000000 O
   0.9771475000000001    0.8328000000000000    0.8340400000000000 O
   0.8067575000000000    0.8356800000000000    0.5751200000000000 O
   0.7526500000000000    0.5868300000000000    0.8699200000000000 O
   0.8951225000000000    0.7972399999999999    0.5936000000000000 O
   0.9314850000000000    0.1862800000000000    0.8262800000000000 O
   0.8529525000000000    0.1852800000000000    0.5848500000000000 O
   0.7702275000000000    0.2186300000000000    0.8441350000000001 O
   0.8783300000000001    0.4298500000000000    0.6203149999999999 O
