H18 C20 N4
1.0
  36.6741602771178421    0.0000000000000000   15.0576224208296594
   6.1161374456426536   16.1048957569381734    2.5027303898267936
   0.0000000000000000    0.0000000000000000   34.8179999999999978
H C N
18 20 4
direct
   0.9318366666666666    0.8137500000000000    0.0225000000000000 H
   0.9162800000000000    0.8465700000000000    0.0739600000000000 H
   0.9057633333333333    0.9926100000000000    0.0515750000000000 H
   0.9536266666666666    0.9290000000000000    0.0226150000000000 H
   0.7348666666666667    0.9548800000000000    0.0931800000000000 H
   0.7504299999999999    0.8519700000000000    0.0767750000000000 H
   0.7608966666666667    0.8967300000000000    0.0037650000000000 H
   0.7130400000000000    0.9546300000000000    0.0356000000000000 H
   0.7328333333333333    0.0727900000000000    0.0364500000000000 H
   0.7348333333333332    0.1862600000000000    0.9775100000000000 H
   0.7503700000000000    0.1534800000000000    0.9260550000000001 H
   0.7608866666666666    0.0074300000000000    0.9484000000000000 H
   0.7130266666666666    0.0710300000000000    0.9773950000000000 H
   0.9317933333333333    0.0451300000000000    0.9068149999999999 H
   0.9162333333333332    0.1480400000000000    0.9232199999999999 H
   0.9057599999999999    0.1032900000000000    0.9962299999999999 H
   0.9536199999999999    0.0453800000000000    0.9643950000000000 H
   0.9338333333333333    0.9272100000000000    0.9635500000000000 H
   0.8709199999999999    0.8804700000000000    0.0490500000000000 C
   0.8530166666666666    0.9410300000000000    0.0235650000000000 C
   0.9121066666666666    0.8662700000000000    0.0441100000000000 C
   0.9227466666666666    0.9434700000000000    0.0277500000000000 C
   0.7957766666666666    0.9018500000000000    0.0597850000000000 C
   0.8136633333333333    0.9528400000000000    0.0294900000000000 C
   0.7545900000000000    0.9116900000000000    0.0669150000000000 C
   0.7439266666666666    0.9443800000000000    0.0283350000000000 C
   0.7936133333333333    0.0122000000000000    0.0061250000000000 C
   0.7521500000000000    0.0243500000000000    0.0122300000000000 C
   0.7957399999999999    0.1195500000000000    0.9509500000000000 C
   0.8136500000000000    0.0589600000000000    0.9764250000000000 C
   0.7545533333333333    0.1337500000000000    0.9559000000000000 C
   0.7439100000000000    0.0565600000000000    0.9722500000000001 C
   0.8708866666666666    0.0981500000000000    0.9402100000000000 C
   0.8530000000000000    0.0471600000000000    0.9705050000000000 C
   0.9120699999999999    0.0883200000000000    0.9330800000000000 C
   0.9227366666666665    0.0556300000000000    0.9716600000000000 C
   0.8730499999999999    0.9878000000000000    0.9938700000000000 C
   0.9145099999999999    0.9756600000000000    0.9877700000000000 C
   0.8523700000000000    0.8356900000000000    0.0771500000000000 N
   0.8143366666666666    0.8455800000000000    0.0821600000000000 N
   0.8142933333333333    0.1643100000000000    0.9228050000000000 N
   0.8523200000000000    0.1544400000000000    0.9175000000000000 N
