H6 O4
1.0
  11.1707573711239725    0.0000000000000000   -3.2287093017921968
  -4.1392704667194566   12.2525976893914930   -1.3387657992578004
   0.0000000000000000    0.0000000000000000   39.0090000000000003
H O
6 4
direct
   0.0496364828039994    0.8991703078062390    0.7179152329899599 H
   0.4149765306906963    1.0296072291148004    0.7626211717447602 H
   0.2316176978117741    0.9795842997850722    0.7404286103026055 H
   0.4507452893523738    0.6637910869953784    0.7597914912096394 H
   0.0851071575884725    0.5346228212839702    0.7169158741728626 H
   0.2688733056898125    0.5838110882921732    0.7381992728483042 H
   0.1306200000000000    0.8875900000000000    0.7271833333333333 O
   0.3426300000000000    0.9637100000000000    0.7531333333333333 O
   0.3699100000000000    0.6759700000000000    0.7510000000000000 O
   0.1574400000000000    0.6006000000000000    0.7260799999999999 O
