H10 C12 N2
1.0
  11.1707573711239725    0.0000000000000000   -3.2287093017921968
  -4.1392704667194566   12.2525976893914930   -1.3387657992578004
   0.0000000000000000    0.0000000000000000   39.0090000000000003
H C N
10 12 2
direct
   0.4215900000000000    0.1220900000000000    0.6099133333333333 H
   0.1862800000000000    0.0598500000000000    0.5871333333333333 H
   0.2100700000000000    0.0462300000000000    0.4781400000000000 H
   0.4421900000000000    0.1060400000000000    0.5055466666666666 H
   0.9940300000000000    0.0000000000000000    0.5391166666666667 H
   0.5783700000000001    0.8779900000000000    0.3900933333333333 H
   0.8136700000000000    0.9401000000000000    0.4128666666666667 H
   0.7898800000000000    0.9533800000000000    0.5218600000000000 H
   0.5577700000000000    0.8937000000000000    0.4944566666666667 H
   0.0000000000000000    0.9921700000000000    0.4608833333333333 H
   0.3702500000000000    0.1041600000000000    0.5809100000000000 C
   0.2393700000000000    0.0699200000000000    0.5679666666666666 C
   0.1748900000000000    0.0476600000000000    0.5303466666666666 C
   0.2512900000000000    0.0617200000000000    0.5076200000000000 C
   0.3817300000000000    0.0955000000000000    0.5226633333333333 C
   0.0375200000000000    0.0126000000000000    0.5175733333333333 C
   0.6297100000000000    0.8958199999999999    0.4190666666666666 C
   0.7605800000000000    0.9299900000000000    0.4320400000000000 C
   0.8250500000000000    0.9521300000000000    0.4696333333333333 C
   0.7486600000000000    0.9380100000000000    0.4923833333333333 C
   0.6182200000000000    0.9042900000000000    0.4773400000000000 C
   0.9624300000000000    0.9871600000000000    0.4824300000000000 C
   0.4427100000000000    0.1172300000000000    0.5589566666666667 N
   0.5572400000000000    0.8826800000000000    0.4410499999999999 N
