H6 C12 O4
1.0
  11.1707573711239725    0.0000000000000000   -3.2287093017921968
  -4.1392704667194566   12.2525976893914930   -1.3387657992578004
   0.0000000000000000    0.0000000000000000   39.0090000000000003
H C O
6 12 4
direct
   0.4087300000000000    0.1674300000000000    0.7701899999999999 H
   0.5018200000000000    0.3691500000000000    0.7831933333333333 H
   0.4777200000000000    0.5506500000000000    0.7756666666666666 H
   0.0904600000000000    0.3968800000000000    0.7085899999999999 H
   0.9999100000000000    0.1944000000000000    0.6936599999999999 H
   0.0237500000000000    0.0134100000000000    0.7011100000000000 H
   0.2183000000000000    0.0794100000000000    0.7364733333333333 C
   0.3193600000000000    0.1736300000000000    0.7537400000000000 C
   0.3086900000000000    0.2779700000000000    0.7502166666666666 C
   0.4117900000000000    0.3754000000000000    0.7670333333333332 C
   0.3988900000000000    0.4758800000000000    0.7629633333333333 C
   0.2812800000000000    0.4842900000000000    0.7421966666666666 C
   0.1795000000000000    0.3903800000000000    0.7252033333333333 C
   0.1904600000000000    0.2860200000000000    0.7285233333333333 C
   0.0883800000000000    0.1883200000000000    0.7109133333333333 C
   0.1016300000000000    0.0879700000000000    0.7149133333333333 C
   0.2317600000000000    0.9701500000000000    0.7393133333333333 C
   0.2685500000000000    0.5939300000000000    0.7394200000000000 C
   0.1306200000000000    0.8875900000000000    0.7271833333333333 O
   0.3426300000000000    0.9637100000000000    0.7531333333333333 O
   0.1574400000000000    0.6006000000000000    0.7260799999999999 O
   0.3699100000000000    0.6759700000000000    0.7510000000000000 O
