H4 O2
1.0
  14.1188470446460492    0.0000000000000000    2.4567700604430809
   0.4898248742983982   14.1105498321558720    2.4730570205242897
   0.0000000000000000    0.0000000000000000   26.5279999999999987
H O
4 2
direct
   0.8367355085206329   -0.0105606422355939    0.1120741271329373 H
   0.8666251679096020    0.0167957327592596    0.0474887379103168 H
   0.8125534873182250    0.5742193268170028    0.0947584927428703 H
   0.8686855557479668    0.5954924395006129    0.0330816656773683 H
   0.8538400000000000    0.0374900000000000    0.0813600000000000 O
   0.8424800000000000    0.5500000000000000    0.0633400000000000 O
