H6 C18 O8
1.0
  14.9711040816897860    0.0000000000000000   -3.3393058523009560
  -4.0711752886072476   14.3945932201136593   -3.2348481876112154
   0.0000000000000000    0.0000000000000000   30.6679999999999993
H C O
6 18 8
direct
   0.7004300000000000    0.9852900000000000    0.7579700000000000 H
   0.4841300000000000    0.0145500000000000    0.6497999999999999 H
   0.2996300000000000    0.0148200000000000    0.7420150000000000 H
   0.5158000000000000    0.9853200000000000    0.8501700000000000 H
   0.7477700000000000    0.0000300000000000    0.6261050000000000 H
   0.2521800000000000    0.0000000000000000    0.8738550000000000 H
   0.8310800000000000    0.9884900000000000    0.7121850000000001 C
   0.7337300000000000    0.9924800000000000    0.6939649999999999 C
   0.6751800000000000    0.9916300000000000    0.7230850000000000 C
   0.5755800000000000    0.0114000000000000    0.5844400000000000 C
   0.6120800000000000    0.0074200000000000    0.6331249999999999 C
   0.5538900000000000    0.0082400000000000    0.6624000000000000 C
   0.1689100000000000    0.0115300000000000    0.7877650000000000 C
   0.2662600000000000    0.0075500000000000    0.8060000000000000 C
   0.3248400000000000    0.0084200000000000    0.7768950000000000 C
   0.4243300000000000    0.9885300000000000    0.9155249999999999 C
   0.3878700000000000    0.9925500000000000    0.8668400000000001 C
   0.4460600000000000    0.9916900000000000    0.8375450000000000 C
   0.7023400000000000    0.0000000000000000    0.6488300000000000 C
   0.5846700000000000    0.9999600000000000    0.7077000000000000 C
   0.5255100000000000    0.9999800000000000    0.7372850000000000 C
   0.2976200000000000    0.0000200000000000    0.8511350000000000 C
   0.4153300000000000    0.0000600000000000    0.7922800000000000 C
   0.4745100000000000    0.0000300000000000    0.7627050000000000 C
   0.8511500000000000    0.9701100000000000    0.7513799999999999 O
  -0.1130600000000001    0.0057500000000000    0.6877200000000000 O
   0.4971200000000000    0.0295100000000000    0.5743800000000000 O
   0.6245100000000000    0.9942800000000001    0.5565250000000000 O
   0.1488200000000000    0.0298000000000000    0.7484999999999999 O
   1.1130599999999999    0.9942900000000000    0.8122350000000000 O
   0.5028100000000000    0.9704400000000000    0.9255900000000000 O
   0.3753800000000000    0.0056100000000000    0.9434300000000000 O
