H2 C7 O4
1.0
  14.9711040816897860    0.0000000000000000   -3.3393058523009560
  -4.0711752886072476   14.3945932201136593   -3.2348481876112154
   0.0000000000000000    0.0000000000000000   30.6679999999999993
H C O
2 7 4
direct
   0.5145999999999999    0.7000000000000000    0.4923000000000000 H
   0.2997300000000000    0.4843800000000000    0.5078150000000000 H
   0.4232000000000000    0.8310999999999999    0.4939400000000000 C
   0.3868300000000000    0.7337700000000000    0.4960750000000000 C
   0.4451100000000000    0.6749600000000000    0.4956550000000000 C
   0.1687500000000000    0.5760800000000000    0.5060850000000000 C
   0.2659000000000000    0.6124400000000000    0.5039800000000000 C
   0.3246400000000000    0.5540600000000000    0.5044450000000000 C
   0.4148400000000000    0.5845300000000000    0.5000500000000000 C
   0.5017200000000001    0.8508300000000000    0.4850750000000000 O
   1.1126600000000000    0.6251800000000000    0.4975950000000000 O
   0.3743200000000000   -0.1126899999999999    0.5022450000000001 O
   0.1489900000000000    0.4974400000000000    0.5150749999999999 O
