H6 O4
1.0
  14.9711040816897860    0.0000000000000000   -3.3393058523009560
  -4.0711752886072476   14.3945932201136593   -3.2348481876112154
   0.0000000000000000    0.0000000000000000   30.6679999999999993
H O
6 4
direct
   0.8044245443476102    0.5346221935898640    0.9766426869051803 H
  -0.1313538257706405    0.3136922539713540    0.0072977961962312 H
   0.8250975406538485    0.4179117544342273    0.9915124828613117 H
   0.4661064950109175    0.1957388628268003    0.0228881460858894 H
   0.6866893219500403    1.1312630255898057    0.9930665961369235 H
   0.5827488800926603    1.1749065558823029    1.0084266175185344 H
   0.8509600000000000    0.5023800000000000    0.9848300000000000 O
  -0.1126500000000001    0.3747800000000000    0.0024650000000000 O
   0.4982000000000000    0.1491000000000000    0.0148750000000000 O
   0.6256100000000000    1.1126199999999999    0.9977250000000000 O
