H3 C9 O4
1.0
  14.9711040816897860    0.0000000000000000   -3.3393058523009560
  -4.0711752886072476   14.3945932201136593   -3.2348481876112154
   0.0000000000000000    0.0000000000000000   30.6679999999999993
H C O
3 9 4
direct
   0.4853500000000000    0.2999600000000000    0.0076600000000000 H
   0.7486600000000000    0.2517100000000000    0.0000000000000000 H
   0.7002900000000000    0.5155600000000000    0.9921800000000001 H
   0.5767400000000000    0.1688400000000000    0.0060400000000000 C
   0.6131200000000000    0.2661600000000000    0.0038900000000000 C
   0.5548600000000000    0.3249900000000000    0.0043200000000000 C
   0.8312300000000000    0.4238300000000000    0.9939100000000001 C
   0.7340800000000000    0.3874800000000000    0.9960050000000000 C
   0.6753700000000000    0.4458900000000000    0.9955499999999999 C
   0.7031200000000000    0.2972900000000000    0.9999850000000000 C
   0.5851700000000000    0.4154300000000000    0.9999350000000000 C
   0.5257400000000000    0.4746700000000000    0.9999650000000000 C
   0.4982000000000000    0.1491000000000000    0.0148750000000000 O
  -0.1126500000000001    0.3747800000000000    0.0024650000000000 O
   0.6256100000000000    1.1126199999999999    0.9977250000000000 O
   0.8509600000000000    0.5023800000000000    0.9848300000000000 O
