H12 O8
1.0
  14.9711040816897860    0.0000000000000000   -3.3393058523009560
  -4.0711752886072476   14.3945932201136593   -3.2348481876112154
   0.0000000000000000    0.0000000000000000   30.6679999999999993
H O
12 8
direct
   0.1951325064537002    0.0460888526628694    0.7323718366427833 H
   1.1320844359672557    0.9843955482528182    0.8426984649702052 H
   1.1751246895914027    1.0161191485763521    0.7906211956716637 H
   0.3655410904982070    0.0136237856263904    0.9123522469738433 H
   0.5263901161264724    0.9678017142904888    0.8985846388737818 H
   0.4730463143943862   -0.0053174967173745    0.8315766878305089 H
   0.8048085497524684    0.9537707598135109    0.7674851328622136 H
  -0.1320636954904581    0.0157038516208702    0.6572686646283683 H
  -0.1751186558335903   -0.0161308707517674    0.7092873633887538 H
   0.6343448218838051    0.9862559396395404    0.5876007558915320 H
   0.4735454247904868    0.0321556438078082    0.6013872940332716 H
   0.5268698523662891    1.0052376121599156    0.6683826327742929 H
   0.1488200000000000    0.0298000000000000    0.7484999999999999 O
   1.1130599999999999    0.9942900000000000    0.8122350000000000 O
   0.3753800000000000    0.0056100000000000    0.9434300000000000 O
   0.5028100000000000    0.9704400000000000    0.9255900000000000 O
   0.8511500000000000    0.9701100000000000    0.7513799999999999 O
  -0.1130600000000001    0.0057500000000000    0.6877200000000000 O
   0.6245100000000000    0.9942800000000001    0.5565250000000000 O
   0.4971200000000000    0.0295100000000000    0.5743800000000000 O
