Cu12 H40 C86 O48
1.0
  14.9711040816897860    0.0000000000000000   -3.3393058523009560
  -4.0711752886072476   14.3945932201136593   -3.2348481876112154
   0.0000000000000000    0.0000000000000000   30.6679999999999993
Cu H C O
12 40 86 48
direct
   0.0194800000000000    0.0201400000000000    0.7159450000000001 Cu
   0.5680800000000000    0.9800300000000000    0.4902500000000000 Cu
   0.0198000000000000    0.4317700000000000    0.5100000000000000 Cu
   0.4318400000000000    0.0198900000000000    0.0097100000000000 Cu
   0.9801700000000000    0.5681400000000000    0.9899750000000000 Cu
   0.9804900000000000    0.9798000000000000    0.7840100000000000 Cu
   0.0198000000000000    0.4317700000000000    0.0100000000000000 Cu
   0.0194800000000000    0.0201400000000000    0.2159450000000000 Cu
   0.9804900000000000    0.9798000000000000    0.2840100000000000 Cu
   0.5680800000000000    0.9800300000000000    0.9902500000000001 Cu
   0.4318400000000000    0.0198900000000000    0.5097100000000000 Cu
   0.9801700000000000    0.5681400000000000    0.4899750000000000 Cu
   0.4735454247904868    0.0321556438078082    0.6013872940332716 H
   0.5263901161264724    0.9678017142904888    0.8985846388737818 H
   0.8048085497524684    0.9537707598135109    0.7674851328622136 H
  -0.1320636954904581    0.0157038516208702    0.6572686646283683 H
  -0.1751186558335903   -0.0161308707517674    0.7092873633887538 H
   0.6343448218838051    0.9862559396395404    0.5876007558915320 H
   0.4853500000000000    0.2999600000000000    0.5076600000000000 H
   0.7486600000000000    0.2517100000000000    0.5000000000000000 H
   0.7002900000000000    0.5155600000000000    0.4921800000000000 H
   0.9853000000000000    0.7002500000000000    0.2573150000000000 H
   0.9998500000000000    0.7485700000000000    0.1254900000000000 H
   0.0146800000000000    0.4844700000000000    0.1496950000000000 H
   0.0147000000000000    0.2996600000000000    0.2426600000000000 H
   0.0001700000000000    0.2513700000000000    0.3744950000000000 H
   0.9853200000000000    0.5154500000000000    0.3502750000000000 H
   0.3655410904982070    0.0136237856263904    0.9123522469738433 H
   0.2997300000000000    0.4843800000000000    0.0078150000000000 H
   0.5145999999999999    0.7000000000000000    0.9923000000000000 H
   0.1951325064537002    0.0460888526628694    0.7323718366427833 H
   1.1320844359672557    0.9843955482528182    0.8426984649702052 H
   1.1751246895914027    1.0161191485763521    0.7906211956716637 H
   0.9853000000000000    0.7002500000000000    0.7573150000000000 H
   0.9998500000000000    0.7485700000000000    0.6254900000000000 H
   0.0146800000000000    0.4844700000000000    0.6496950000000000 H
   0.0147000000000000    0.2996600000000000    0.7426600000000000 H
   0.0001700000000000    0.2513700000000000    0.8744950000000000 H
   0.9853200000000000    0.5154500000000000    0.8502750000000000 H
   0.4853500000000000    0.2999600000000000    0.0076600000000000 H
   0.7486600000000000    0.2517100000000000    0.0000000000000000 H
   0.7002900000000000    0.5155600000000000    0.9921800000000001 H
   0.5158000000000000    0.9853200000000000    0.3501700000000000 H
   0.2521800000000000    0.0000000000000000    0.3738550000000000 H
   0.2996300000000000    0.0148200000000000    0.2420150000000000 H
   0.7004300000000000    0.9852900000000000    0.2579700000000000 H
   0.7477700000000000    0.0000300000000000    0.1261050000000000 H
   0.4841300000000000    0.0145500000000000    0.1498000000000000 H
   0.2997300000000000    0.4843800000000000    0.5078150000000000 H
   0.5145999999999999    0.7000000000000000    0.4923000000000000 H
   0.5268698523662891    1.0052376121599156    0.6683826327742929 H
   0.4730463143943862   -0.0053174967173745    0.8315766878305089 H
   0.8312300000000000    0.4238300000000000    0.4939100000000000 C
   0.5767400000000000    0.1688400000000000    0.5060400000000000 C
   0.5548600000000000    0.3249900000000000    0.5043200000000000 C
   0.6131200000000000    0.2661600000000000    0.5038899999999999 C
   0.7031200000000000    0.2972900000000000    0.4999850000000000 C
   0.6753700000000000    0.4458900000000000    0.4955500000000000 C
   0.7340800000000000    0.3874800000000000    0.4960050000000000 C
   0.5851700000000000    0.4154300000000000    0.4999350000000000 C
   0.5257400000000000    0.4746700000000000    0.4999650000000000 C
   0.9883800000000000    0.4235800000000000    0.4157400000000000 C
   0.0118700000000000    0.1686200000000000    0.2884850000000000 C
   0.0116000000000000    0.5763500000000000    0.0842350000000000 C
   0.9881200000000000    0.8313000000000000    0.2114950000000000 C
   0.9916300000000000    0.6751700000000000    0.2225150000000000 C
   0.9923500000000000    0.7340300000000000    0.1933200000000000 C
   0.9998899999999999    0.7029500000000000    0.1482500000000000 C
   0.0083100000000000    0.5542100000000000    0.1621950000000000 C
   0.0074700000000000    0.6126900000000000    0.1328000000000000 C
   0.0000000000000000    0.5846600000000000    0.2073500000000000 C
   0.9999700000000000    0.4745700000000000    0.2628500000000000 C
   0.0000000000000000    0.5253500000000000    0.2371200000000000 C
   0.0083800000000000    0.3247500000000000    0.2774600000000000 C
   0.0076800000000000    0.2659100000000000    0.3066600000000000 C
   0.0001200000000000    0.2969900000000000    0.3516900000000000 C
   0.9916900000000000    0.4457200000000000    0.3377800000000000 C
   0.9925400000000000    0.3872400000000000    0.3671750000000000 C
   0.0000000000000000    0.4152600000000000    0.2926150000000000 C
   0.1687500000000000    0.5760800000000000    0.0060850000000000 C
   0.4232000000000000    0.8310999999999999    0.9939400000000000 C
   0.3246400000000000    0.5540600000000000    0.0044450000000000 C
   0.2659000000000000    0.6124400000000000    0.0039800000000000 C
   0.4451100000000000    0.6749600000000000    0.9956550000000000 C
   0.3868300000000000    0.7337700000000000    0.9960750000000000 C
   0.4148400000000000    0.5845300000000000    0.0000500000000000 C
   0.9883800000000000    0.4235800000000000    0.9157400000000000 C
   0.0118700000000000    0.1686200000000000    0.7884850000000000 C
   0.0116000000000000    0.5763500000000000    0.5842350000000001 C
   0.9881200000000000    0.8313000000000000    0.7114950000000000 C
   0.9916300000000000    0.6751700000000000    0.7225150000000000 C
   0.9923500000000000    0.7340300000000000    0.6933199999999999 C
   0.9998899999999999    0.7029500000000000    0.6482500000000000 C
   0.0083100000000000    0.5542100000000000    0.6621950000000000 C
   0.0074700000000000    0.6126900000000000    0.6328000000000000 C
   0.0000000000000000    0.5846600000000000    0.7073500000000000 C
   0.9999700000000000    0.4745700000000000    0.7628500000000000 C
   0.0000000000000000    0.5253500000000000    0.7371200000000000 C
   0.0083800000000000    0.3247500000000000    0.7774600000000000 C
   0.0076800000000000    0.2659100000000000    0.8066599999999999 C
   0.0001200000000000    0.2969900000000000    0.8516900000000001 C
   0.9916900000000000    0.4457200000000000    0.8377800000000000 C
   0.9925400000000000    0.3872400000000000    0.8671750000000000 C
   0.0000000000000000    0.4152600000000000    0.7926150000000001 C
   0.8312300000000000    0.4238300000000000    0.9939100000000001 C
   0.5767400000000000    0.1688400000000000    0.0060400000000000 C
   0.5548600000000000    0.3249900000000000    0.0043200000000000 C
   0.6131200000000000    0.2661600000000000    0.0038900000000000 C
   0.7031200000000000    0.2972900000000000    0.9999850000000000 C
   0.6753700000000000    0.4458900000000000    0.9955499999999999 C
   0.7340800000000000    0.3874800000000000    0.9960050000000000 C
   0.5851700000000000    0.4154300000000000    0.9999350000000000 C
   0.5257400000000000    0.4746700000000000    0.9999650000000000 C
   0.1689100000000000    0.0115300000000000    0.2877650000000000 C
   0.8310800000000000    0.9884900000000000    0.2121850000000000 C
   0.4243300000000000    0.9885300000000000    0.4155250000000000 C
   0.5755800000000000    0.0114000000000000    0.0844400000000000 C
   0.4460600000000000    0.9916900000000000    0.3375450000000000 C
   0.3878700000000000    0.9925500000000000    0.3668400000000000 C
   0.2976200000000000    0.0000200000000000    0.3511350000000000 C
   0.3248400000000000    0.0084200000000000    0.2768950000000000 C
   0.2662600000000000    0.0075500000000000    0.3060000000000000 C
   0.4153300000000000    0.0000600000000000    0.2922800000000000 C
   0.5255100000000000    0.9999800000000000    0.2372850000000000 C
   0.4745100000000000    0.0000300000000000    0.2627050000000000 C
   0.6751800000000000    0.9916300000000000    0.2230850000000000 C
   0.7337300000000000    0.9924800000000000    0.1939650000000000 C
   0.7023400000000000    0.0000000000000000    0.1488300000000000 C
   0.5538900000000000    0.0082400000000000    0.1624000000000000 C
   0.6120800000000000    0.0074200000000000    0.1331250000000000 C
   0.5846700000000000    0.9999600000000000    0.2077000000000000 C
   0.1687500000000000    0.5760800000000000    0.5060850000000000 C
   0.4232000000000000    0.8310999999999999    0.4939400000000000 C
   0.3246400000000000    0.5540600000000000    0.5044450000000000 C
   0.2659000000000000    0.6124400000000000    0.5039800000000000 C
   0.4451100000000000    0.6749600000000000    0.4956550000000000 C
   0.3868300000000000    0.7337700000000000    0.4960750000000000 C
   0.4148400000000000    0.5845300000000000    0.5000500000000000 C
   0.4971200000000000    0.0295100000000000    0.5743800000000000 O
   0.5028100000000000    0.9704400000000000    0.9255900000000000 O
   0.8511500000000000    0.9701100000000000    0.7513799999999999 O
  -0.1130600000000001    0.0057500000000000    0.6877200000000000 O
   0.6245100000000000    0.9942800000000001    0.5565250000000000 O
   0.8873500000000000    0.3747800000000000    0.5024650000000001 O
   0.8509600000000000    0.5023800000000000    0.4848300000000000 O
   0.6256100000000000    0.1126200000000000    0.4977250000000000 O
   0.4982000000000000    0.1491000000000000    0.5148750000000000 O
   0.0052300000000000    0.3745200000000000    0.4438550000000000 O
   0.9704000000000000    0.5021600000000001    0.4255150000000000 O
   0.9952100000000000    0.1122200000000000    0.3128950000000000 O
   0.0297300000000000    0.1491400000000000    0.2492500000000000 O
   0.9945700000000000    0.6253400000000000    0.0561050000000000 O
   0.0297100000000000    0.4978300000000000    0.0744700000000000 O
   0.0046900000000000    0.8876900000000000    0.1870650000000000 O
   0.9703100000000000    0.8508000000000000    0.2507300000000000 O
   0.3753800000000000    0.0056100000000000    0.9434300000000000 O
   0.1126600000000000    0.6251800000000000    0.9975950000000000 O
   0.1489900000000000    0.4974400000000000    0.0150750000000000 O
   0.3743200000000000    0.8873100000000000    0.0022450000000000 O
   0.5017200000000001    0.8508300000000000    0.9850749999999999 O
   0.1488200000000000    0.0298000000000000    0.7484999999999999 O
   1.1130599999999999    0.9942900000000000    0.8122350000000000 O
   0.0052300000000000    0.3745200000000000    0.9438550000000000 O
   0.9704000000000000    0.5021600000000001    0.9255150000000000 O
   0.9952100000000000    0.1122200000000000    0.8128949999999999 O
   0.0297300000000000    0.1491400000000000    0.7492500000000000 O
   0.9945700000000000    0.6253400000000000    0.5561050000000000 O
   0.0297100000000000    0.4978300000000000    0.5744700000000000 O
   0.0046900000000000    0.8876900000000000    0.6870650000000000 O
   0.9703100000000000    0.8508000000000000    0.7507300000000000 O
   0.8873500000000000    0.3747800000000000    0.0024650000000000 O
   0.8509600000000000    0.5023800000000000    0.9848300000000000 O
   0.6256100000000000    0.1126200000000000    0.9977250000000000 O
   0.4982000000000000    0.1491000000000000    0.0148750000000000 O
   0.1130600000000000    0.9942900000000000    0.3122350000000000 O
   0.1488200000000000    0.0298000000000000    0.2485000000000000 O
   0.8869400000000000    0.0057500000000000    0.1877200000000000 O
   0.8511500000000000    0.9701100000000000    0.2513800000000000 O
   0.3753800000000000    0.0056100000000000    0.4434300000000000 O
   0.5028100000000000    0.9704400000000000    0.4255900000000000 O
   0.6245100000000000    0.9942800000000001    0.0565250000000000 O
   0.4971200000000000    0.0295100000000000    0.0743800000000000 O
   0.1126600000000000    0.6251800000000000    0.4975950000000000 O
   0.1489900000000000    0.4974400000000000    0.5150749999999999 O
   0.3743200000000000    0.8873100000000000    0.5022450000000001 O
   0.5017200000000001    0.8508300000000000    0.4850750000000000 O
