H2 O2
1.0
  13.1279957690397264    0.0000000000000000   -0.0105398327810068
  -0.0290127886338279   13.9689698710425905    0.0000000000000009
   0.0000000000000000    0.0000000000000000   33.9799999999999969
H O
2 2
direct
   0.9712633461345113    0.1924863348261378    0.0117563966760294 H
   0.0239692163470227    0.1681270727566487    0.9591574094130941 H
   0.9762000000000000    0.1228600000000000    0.0092700000000000 O
   0.0141500000000000    0.1055600000000000    0.9715549999999999 O
