H1 O1
1.0
  16.5009999095231450    0.0000000000000000    0.0017279806760714
  -0.0133018165003258   19.5419954728701590    0.0000000000000012
   0.0000000000000000    0.0000000000000000   39.0799999999999983
H O
1 1
direct
   0.4505804340960280    0.6812691862808936    0.4386541077585083 H
   0.4320900000000000    0.6397800000000000    0.4270000000000000 O
