Zn32 H189 C189 N126
1.0
  16.5009999095231450    0.0000000000000000    0.0017279806760714
  -0.0133018165003258   19.5419954728701590    0.0000000000000012
   0.0000000000000000    0.0000000000000000   39.0799999999999983
Zn H C N
32 189 189 126
direct
   0.8161300000000000    0.1167900000000000    0.3332200000000000 Zn
   0.3161400000000000    0.1664500000000000    0.1916100000000000 Zn
   0.3161200000000000    0.8336000000000000    0.3083950000000000 Zn
   0.6838600000000000    0.6167600000000000    0.4168000000000000 Zn
   0.6838600000000000    0.3832100000000000    0.0832150000000000 Zn
   0.1838500000000000    0.3335600000000000    0.4416200000000000 Zn
   0.1838700000000000    0.6663900000000000    0.0583900000000000 Zn
   0.1838600000000000    0.1167600000000000    0.3332150000000000 Zn
   0.1838600000000000    0.8832100000000001    0.1667850000000000 Zn
   0.6838500000000000    0.8335500000000000    0.3083950000000000 Zn
   0.6838700000000000    0.1663900000000000    0.1916000000000000 Zn
   0.3161300000000000    0.3832400000000000    0.0832000000000000 Zn
   0.3161300000000000    0.6167899999999999    0.4167900000000000 Zn
   0.8161400000000000    0.6664400000000000    0.0583900000000000 Zn
   0.8161200000000000    0.3336100000000000    0.4416150000000000 Zn
   0.8161300000000000    0.8832400000000000    0.1667900000000000 Zn
   0.8161300000000000    0.1167900000000000    0.8332200000000001 Zn
   0.3161400000000000    0.1664500000000000    0.6916100000000001 Zn
   0.3161200000000000    0.8336000000000000    0.8083950000000000 Zn
   0.6838600000000000    0.6167600000000000    0.9168000000000001 Zn
   0.6838600000000000    0.3832100000000000    0.5832150000000000 Zn
   0.1838500000000000    0.3335600000000000    0.9416200000000000 Zn
   0.1838700000000000    0.6663900000000000    0.5583899999999999 Zn
   0.1838600000000000    0.1167600000000000    0.8332150000000000 Zn
   0.1838600000000000    0.8832100000000001    0.6667850000000000 Zn
   0.6838500000000000    0.8335500000000000    0.8083950000000000 Zn
   0.6838700000000000    0.1663900000000000    0.6916000000000000 Zn
   0.3161300000000000    0.3832400000000000    0.5831999999999999 Zn
   0.3161300000000000    0.6167899999999999    0.9167900000000000 Zn
   0.8161400000000000    0.6664400000000000    0.5583899999999999 Zn
   0.8161200000000000    0.3336100000000000    0.9416150000000000 Zn
   0.8161300000000000    0.8832400000000000    0.6667900000000000 Zn
   0.9155600000000000    0.7645800000000000    0.2040750000000000 H
   0.6785099999999999    0.8867200000000000    0.1068900000000000 H
   0.8815100000000000    0.0120800000000000    0.1218550000000000 H
   0.6763200000000000    0.7708800000000000    0.1786350000000000 H
   0.7075600000000000    0.0015500000000000    0.2006000000000000 H
   0.9158300000000000    0.2354500000000000    0.2959300000000000 H
   0.6784000000000000    0.1132500000000000    0.3930700000000000 H
   0.8814100000000000    0.9880700000000000    0.3781850000000000 H
   0.6765099999999999    0.2291200000000000    0.3213700000000000 H
   0.7076100000000000    0.9983500000000000    0.2993750000000000 H
   0.4156500000000000    0.0918900000000000    0.1322600000000000 H
   0.1785200000000000    0.2861300000000000    0.1934050000000000 H
   0.3815600000000000    0.2563400000000000    0.2560000000000000 H
   0.1764100000000000    0.1427000000000000    0.1354350000000000 H
   0.2075900000000000    0.0987400000000000    0.2508050000000000 H
   0.4157500000000000    0.9082100000000000    0.3677250000000000 H
   0.1784000000000000    0.7138099999999999    0.3066550000000000 H
   0.3813500000000000    0.7437000000000000    0.2440000000000000 H
   0.1763800000000000    0.8572400000000000    0.3645550000000000 H
   0.2076200000000000    0.9012800000000000    0.2492050000000000 H
   0.8214800000000000    0.6132800000000000    0.3568900000000000 H
   0.6185100000000000    0.4879300000000000    0.3718650000000000 H
   0.8236500000000000    0.7291200000000000    0.4286350000000000 H
   0.7924300000000000    0.4984500000000000    0.4506300000000000 H
   0.5841800000000000    0.2645400000000000    0.0459300000000000 H
   0.8215600000000000    0.3867800000000000    0.1430700000000000 H
   0.6185300000000000    0.5119300000000000    0.1281800000000000 H
   0.8234700000000000    0.2708600000000000    0.0713600000000000 H
   0.7923900000000000    0.5016400000000000    0.0493750000000000 H
   0.0843800000000000    0.4081100000000000    0.3822700000000000 H
   0.3214600000000000    0.2138600000000000    0.4434050000000000 H
   0.1184200000000000    0.2436800000000000    0.0060050000000000 H
   0.3236000000000000    0.3573100000000000    0.3854350000000000 H
   0.2924100000000000    0.4012600000000000    0.0007900000000000 H
   0.0842000000000000    0.5918000000000000    0.1177250000000000 H
   0.3216000000000000    0.7861700000000000    0.0566450000000000 H
   0.1186400000000000    0.7563100000000000    0.4940150000000000 H
   0.3235600000000000    0.6427500000000000    0.1145550000000000 H
   0.2923500000000000    0.5987100000000000    0.4992000000000000 H
   0.0844200000000000    0.2354200000000000    0.2959000000000000 H
   0.3214700000000000    0.1132800000000000    0.3931150000000000 H
   0.1184600000000000    0.9879200000000000    0.3781450000000000 H
   0.3236600000000000    0.2291300000000000    0.3213700000000000 H
   0.2924300000000000    0.9984499999999999    0.2993800000000000 H
   0.0841600000000000    0.7645400000000000    0.2040700000000000 H
   0.3215800000000000    0.8867600000000000    0.1069300000000000 H
   0.1185700000000000    0.0119300000000000    0.1218200000000000 H
   0.3234800000000000    0.7708700000000001    0.1786350000000000 H
   0.2923900000000000    0.0016500000000000    0.2006300000000000 H
   0.5843400000000000    0.9081200000000000    0.3677400000000000 H
   0.8214600000000000    0.7138600000000001    0.3066000000000000 H
   0.6184100000000000    0.7436700000000001    0.2440050000000000 H
   0.8235700000000000    0.8573000000000000    0.3645750000000000 H
   0.7924000000000000    0.9012600000000000    0.2492050000000000 H
   0.5842400000000000    0.0918000000000000    0.1322800000000000 H
   0.8215900000000000    0.2861900000000000    0.1933550000000000 H
   0.6186300000000000    0.2563000000000000    0.2560050000000000 H
   0.8235900000000000    0.1427600000000000    0.1354450000000000 H
   0.7923700000000000    0.0987200000000000    0.2508000000000000 H
   0.4155900000000000    0.2645900000000000    0.0459000000000000 H
   0.1785000000000000    0.3867100000000000    0.1431000000000000 H
   0.3814800000000000    0.5120700000000000    0.1281450000000000 H
   0.1763300000000000    0.2708900000000000    0.0713700000000000 H
   0.2075600000000000    0.5015500000000001    0.0493750000000000 H
   0.1784200000000000    0.6132200000000000    0.3569400000000000 H
   0.3814400000000000    0.4880700000000000    0.3718200000000000 H
   0.1765100000000000    0.7291299999999999    0.4286450000000000 H
   0.2076000000000000    0.4983500000000000    0.4506350000000000 H
   0.9156100000000000    0.5918900000000000    0.1177350000000000 H
   0.6785300000000000    0.7861399999999999    0.0566000000000000 H
   0.8815600000000000    0.7563299999999999    0.4940000000000000 H
   0.6763800000000000    0.6426900000000000    0.1145650000000000 H
   0.7075800000000000    0.5987400000000000    0.4992150000000000 H
   0.9157900000000000    0.4081900000000000    0.3822800000000000 H
   0.6783800000000000    0.2138400000000000    0.4433550000000000 H
   0.8813400000000000    0.2436800000000000    0.0059900000000000 H
   0.6764200000000000    0.3572400000000000    0.3854550000000000 H
   0.7076400000000000    0.4012900000000000    0.0008050000000000 H
   0.0000700000000000    0.9429500000000000    0.1551350000000000 H
   0.9999200000000000    0.0570500000000000    0.3448750000000000 H
   0.5000300000000000    0.1897400000000000    0.2214650000000000 H
   0.4999600000000000    0.8102500000000000    0.2785400000000000 H
   0.5000599999999999    0.4429500000000000    0.0948700000000000 H
   0.9999400000000001    0.3102700000000000    0.4714750000000000 H
   0.0000400000000000    0.6897300000000000    0.0285350000000000 H
   0.8775200000000000    0.7552200000000000    0.1224250000000000 H
   0.8775800000000000    0.2448400000000000    0.3776150000000000 H
   0.3775300000000000    0.2552300000000000    0.1275700000000000 H
   0.3775600000000000    0.7448500000000000    0.3723500000000000 H
   0.6224700000000000    0.7447700000000000    0.3724350000000000 H
   0.6224300000000000    0.2551400000000000    0.1276000000000000 H
   0.1224700000000000    0.2447800000000000    0.3775500000000000 H
   0.1224200000000000    0.7551500000000000    0.1223950000000000 H
   0.9155600000000000    0.7645800000000000    0.7040750000000000 H
   0.6785099999999999    0.8867200000000000    0.6068900000000000 H
   0.8815100000000000    0.0120800000000000    0.6218550000000000 H
   0.6763200000000000    0.7708800000000000    0.6786350000000000 H
   0.7075600000000000    0.0015500000000000    0.7006000000000000 H
   0.9158300000000000    0.2354500000000000    0.7959300000000000 H
   0.6784000000000000    0.1132500000000000    0.8930700000000000 H
   0.8814100000000000    0.9880700000000000    0.8781850000000000 H
   0.6765099999999999    0.2291200000000000    0.8213699999999999 H
   0.7076100000000000    0.9983500000000000    0.7993749999999999 H
   0.4156500000000000    0.0918900000000000    0.6322600000000000 H
   0.1785200000000000    0.2861300000000000    0.6934050000000000 H
   0.3815600000000000    0.2563400000000000    0.7560000000000000 H
   0.1764100000000000    0.1427000000000000    0.6354350000000000 H
   0.2075900000000000    0.0987400000000000    0.7508049999999999 H
   0.4157500000000000    0.9082100000000000    0.8677250000000001 H
   0.1784000000000000    0.7138099999999999    0.8066550000000000 H
   0.3813500000000000    0.7437000000000000    0.7440000000000000 H
   0.1763800000000000    0.8572400000000000    0.8645550000000000 H
   0.2076200000000000    0.9012800000000000    0.7492050000000000 H
   0.5844000000000000    0.7354200000000000    0.9540800000000000 H
   0.8214800000000000    0.6132800000000000    0.8568899999999999 H
   0.6185100000000000    0.4879300000000000    0.8718650000000000 H
   0.8236500000000000    0.7291200000000000    0.9286350000000000 H
   0.7924300000000000    0.4984500000000000    0.9506300000000000 H
   0.5841800000000000    0.2645400000000000    0.5459300000000000 H
   0.8215600000000000    0.3867800000000000    0.6430700000000000 H
   0.6185300000000000    0.5119300000000000    0.6281800000000000 H
   0.8234700000000000    0.2708600000000000    0.5713600000000000 H
   0.7923900000000000    0.5016400000000000    0.5493749999999999 H
   0.0843800000000000    0.4081100000000000    0.8822700000000000 H
   0.3214600000000000    0.2138600000000000    0.9434050000000000 H
   0.1184200000000000    0.2436800000000000    0.5060050000000000 H
   0.3236000000000000    0.3573100000000000    0.8854350000000000 H
   0.2924100000000000    0.4012600000000000    0.5007900000000000 H
   0.0842000000000000    0.5918000000000000    0.6177250000000000 H
   0.3216000000000000    0.7861700000000000    0.5566450000000001 H
   0.1186400000000000    0.7563100000000000    0.9940150000000000 H
   0.3235600000000000    0.6427500000000000    0.6145550000000000 H
   0.2923500000000000    0.5987100000000000    0.9992000000000000 H
   0.0844200000000000    0.2354200000000000    0.7959000000000001 H
   0.3214700000000000    0.1132800000000000    0.8931150000000000 H
   0.1184600000000000    0.9879200000000000    0.8781450000000000 H
   0.3236600000000000    0.2291300000000000    0.8213699999999999 H
   0.2924300000000000    0.9984499999999999    0.7993800000000000 H
   0.0841600000000000    0.7645400000000000    0.7040700000000000 H
   0.3215800000000000    0.8867600000000000    0.6069300000000000 H
   0.1185700000000000    0.0119300000000000    0.6218200000000000 H
   0.3234800000000000    0.7708700000000001    0.6786350000000000 H
   0.2923900000000000    0.0016500000000000    0.7006300000000000 H
   0.5843400000000000    0.9081200000000000    0.8677400000000000 H
   0.8214600000000000    0.7138600000000001    0.8066000000000000 H
   0.6184100000000000    0.7436700000000001    0.7440050000000000 H
   0.8235700000000000    0.8573000000000000    0.8645750000000000 H
   0.7924000000000000    0.9012600000000000    0.7492050000000000 H
   0.5842400000000000    0.0918000000000000    0.6322800000000000 H
   0.8215900000000000    0.2861900000000000    0.6933549999999999 H
   0.6186300000000000    0.2563000000000000    0.7560050000000000 H
   0.8235900000000000    0.1427600000000000    0.6354450000000000 H
   0.7923700000000000    0.0987200000000000    0.7508000000000000 H
   0.4155900000000000    0.2645900000000000    0.5459000000000001 H
   0.1785000000000000    0.3867100000000000    0.6431000000000000 H
   0.3814800000000000    0.5120700000000000    0.6281450000000000 H
   0.1763300000000000    0.2708900000000000    0.5713700000000000 H
   0.2075600000000000    0.5015500000000001    0.5493749999999999 H
   0.4158100000000000    0.7354600000000000    0.9540649999999999 H
   0.1784200000000000    0.6132200000000000    0.8569400000000000 H
   0.3814400000000000    0.4880700000000000    0.8718200000000000 H
   0.1765100000000000    0.7291299999999999    0.9286449999999999 H
   0.2076000000000000    0.4983500000000000    0.9506350000000000 H
   0.9156100000000000    0.5918900000000000    0.6177350000000000 H
   0.6785300000000000    0.7861399999999999    0.5566000000000000 H
   0.8815600000000000    0.7563299999999999    0.9940000000000000 H
   0.6763800000000000    0.6426900000000000    0.6145650000000000 H
   0.7075800000000000    0.5987400000000000    0.9992150000000000 H
   0.9157900000000000    0.4081900000000000    0.8822800000000000 H
   0.6783800000000000    0.2138400000000000    0.9433549999999999 H
   0.8813400000000000    0.2436800000000000    0.5059900000000001 H
   0.6764200000000000    0.3572400000000000    0.8854550000000000 H
   0.7076400000000000    0.4012900000000000    0.5008049999999999 H
   0.0000700000000000    0.9429500000000000    0.6551350000000000 H
   0.9999200000000000    0.0570500000000000    0.8448750000000000 H
   0.5000300000000000    0.1897400000000000    0.7214650000000000 H
   0.4999600000000000    0.8102500000000000    0.7785400000000000 H
   0.4999300000000000    0.5570500000000000    0.9051400000000001 H
   0.5000599999999999    0.4429500000000000    0.5948700000000000 H
   0.9999400000000001    0.3102700000000000    0.9714750000000000 H
   0.0000400000000000    0.6897300000000000    0.5285350000000000 H
   0.8775200000000000    0.7552200000000000    0.6224250000000000 H
   0.8775800000000000    0.2448400000000000    0.8776150000000000 H
   0.3775300000000000    0.2552300000000000    0.6275700000000000 H
   0.3775600000000000    0.7448500000000000    0.8723500000000000 H
   0.6224700000000000    0.7447700000000000    0.8724350000000001 H
   0.6224300000000000    0.2551400000000000    0.6275999999999999 H
   0.1224700000000000    0.2447800000000000    0.8775500000000001 H
   0.1224200000000000    0.7551500000000000    0.6223950000000000 H
   0.0000100000000000    0.6638400000000000    0.0530850000000000 C
   0.8229800000000000    0.7771400000000001    0.1114400000000000 C
   0.8230000000000000    0.2228900000000000    0.3885750000000000 C
   0.3229900000000000    0.2771500000000000    0.1385550000000000 C
   0.9582200000000000    0.8012500000000000    0.1935750000000000 C
   0.7195500000000000    0.8441800000000000    0.1027850000000000 C
   0.8372700000000000    0.0293000000000000    0.1404800000000000 C
   0.6915100000000000    0.7941000000000000    0.2030100000000000 C
   0.7476200000000000    0.0224300000000000    0.1812250000000000 C
   0.9584000000000000    0.1987600000000000    0.3064300000000000 C
   0.7194700000000001    0.1558100000000000    0.3971950000000000 C
   0.8372200000000000    0.9707900000000000    0.3595450000000000 C
   0.6916500000000000    0.2058900000000000    0.2969950000000000 C
   0.7476400000000000    0.9775300000000000    0.3187850000000000 C
   0.4582800000000000    0.1128700000000000    0.1506050000000000 C
   0.2195500000000000    0.2943800000000000    0.1721150000000000 C
   0.3373200000000000    0.2190700000000000    0.2646250000000000 C
   0.1915900000000000    0.0939600000000000    0.1470450000000000 C
   0.2476600000000000    0.1375500000000000    0.2612300000000000 C
   0.4583400000000000    0.8871800000000000    0.3493900000000000 C
   0.2194700000000000    0.7055900000000001    0.3279200000000000 C
   0.3371700000000000    0.7809600000000000    0.2353750000000000 C
   0.1915600000000000    0.9060000000000000    0.3529450000000000 C
   0.2476300000000000    0.8624600000000000    0.2387750000000000 C
   0.7804400000000000    0.6558200000000000    0.3527850000000000 C
   0.6627400000000000    0.4707100000000000    0.3904900000000000 C
   0.8084700000000000    0.7059000000000000    0.4530150000000000 C
   0.7523800000000000    0.4775700000000000    0.4312300000000000 C
   0.5416100000000000    0.3012300000000000    0.0564300000000000 C
   0.7805000000000000    0.3442100000000000    0.1471950000000000 C
   0.6627400000000000    0.5292100000000000    0.1095400000000000 C
   0.8083300000000000    0.2941000000000000    0.0469850000000000 C
   0.7523500000000000    0.5224700000000000    0.0687800000000000 C
   0.0417400000000000    0.3871300000000000    0.4006150000000000 C
   0.2804300000000000    0.2056100000000000    0.4221200000000000 C
   0.1626600000000000    0.2809500000000000    0.0146300000000000 C
   0.3084200000000000    0.4060500000000000    0.3970450000000000 C
   0.2523400000000000    0.3624500000000000    0.0112200000000000 C
   0.0416200000000000    0.6128300000000000    0.0993850000000000 C
   0.2805200000000000    0.7944000000000000    0.0779150000000000 C
   0.1628200000000000    0.7190500000000000    0.4853900000000000 C
   0.3083900000000000    0.5940000000000000    0.1029450000000000 C
   0.2523500000000000    0.6375300000000000    0.4887800000000000 C
   0.0417700000000000    0.1987500000000000    0.3064300000000000 C
   0.2804400000000000    0.1558200000000000    0.3972250000000000 C
   0.1627000000000000    0.9707000000000000    0.3595200000000000 C
   0.3084700000000000    0.2059100000000000    0.2969950000000000 C
   0.2523700000000000    0.9775600000000000    0.3187800000000000 C
   0.0415900000000000    0.8012300000000000    0.1935700000000000 C
   0.2805100000000000    0.8442000000000000    0.1028050000000000 C
   0.1627700000000000    0.0292100000000000    0.1404600000000000 C
   0.3083300000000000    0.7941000000000000    0.2030100000000000 C
   0.2523500000000000    0.0224700000000000    0.1812200000000000 C
   0.5417100000000000    0.8871400000000000    0.3493950000000000 C
   0.7804300000000000    0.7056100000000000    0.3278850000000000 C
   0.6626600000000000    0.7809400000000000    0.2353800000000000 C
   0.8084000000000000    0.9060400000000000    0.3529650000000000 C
   0.7523300000000001    0.8624400000000000    0.2387750000000000 C
   0.5416500000000000    0.1128300000000000    0.1506150000000000 C
   0.7805100000000000    0.2944100000000000    0.1720850000000000 C
   0.6628200000000000    0.2190400000000000    0.2646300000000000 C
   0.8084200000000000    0.0940000000000000    0.1470550000000000 C
   0.7523600000000000    0.1375400000000000    0.2612300000000000 C
   0.4582300000000000    0.3012600000000000    0.0564200000000000 C
   0.2195400000000000    0.3441800000000000    0.1472200000000000 C
   0.3372500000000000    0.5292900000000000    0.1095150000000000 C
   0.1915100000000000    0.2941100000000000    0.0469500000000000 C
   0.2476100000000000    0.5224299999999999    0.0687750000000000 C
   0.2194800000000000    0.6557900000000000    0.3528150000000000 C
   0.3372400000000000    0.4707900000000000    0.3904600000000000 C
   0.1916500000000000    0.7059000000000000    0.4530200000000000 C
   0.2476500000000000    0.4775300000000000    0.4312250000000000 C
   0.9582500000000000    0.6128700000000000    0.0993900000000000 C
   0.7195600000000000    0.7943900000000000    0.0778850000000000 C
   0.8373200000000000    0.7190600000000000    0.4853800000000000 C
   0.6915600000000000    0.5939500000000000    0.1029550000000000 C
   0.7476500000000000    0.6375500000000000    0.4887850000000000 C
   0.9583700000000001    0.3871700000000000    0.4006200000000000 C
   0.7194600000000000    0.2056100000000000    0.4220900000000000 C
   0.8371600000000000    0.2809500000000000    0.0146000000000000 C
   0.6915900000000000    0.4060000000000000    0.3970650000000000 C
   0.7476400000000000    0.3624700000000000    0.0112250000000000 C
   0.0000100000000000    0.8938400000000000    0.1680800000000000 C
   0.9999800000000000    0.1061600000000000    0.3319300000000000 C
   0.5000100000000000    0.1638500000000000    0.1969150000000000 C
   0.4999800000000000    0.8361499999999999    0.3030950000000000 C
   0.5000100000000000    0.3938400000000000    0.0819250000000000 C
   0.9999800000000000    0.3361600000000000    0.4469200000000000 C
   0.3229900000000000    0.7228900000000000    0.3614350000000000 C
   0.6770000000000000    0.7228500000000000    0.3614500000000000 C
   0.6770000000000000    0.2771000000000000    0.1385750000000000 C
   0.1770000000000000    0.2228500000000000    0.3885650000000000 C
   0.1770000000000000    0.7771000000000000    0.1114300000000000 C
   0.0000100000000000    0.6638400000000000    0.5530850000000000 C
   0.8229800000000000    0.7771400000000001    0.6114400000000000 C
   0.8230000000000000    0.2228900000000000    0.8885750000000000 C
   0.3229900000000000    0.2771500000000000    0.6385550000000000 C
   0.9582200000000000    0.8012500000000000    0.6935750000000001 C
   0.7195500000000000    0.8441800000000000    0.6027850000000000 C
   0.8372700000000000    0.0293000000000000    0.6404799999999999 C
   0.6915100000000000    0.7941000000000000    0.7030100000000000 C
   0.7476200000000000    0.0224300000000000    0.6812250000000000 C
   0.9584000000000000    0.1987600000000000    0.8064300000000000 C
   0.7194700000000001    0.1558100000000000    0.8971950000000000 C
   0.8372200000000000    0.9707900000000000    0.8595450000000000 C
   0.6916500000000000    0.2058900000000000    0.7969950000000000 C
   0.7476400000000000    0.9775300000000000    0.8187850000000000 C
   0.4582800000000000    0.1128700000000000    0.6506050000000000 C
   0.2195500000000000    0.2943800000000000    0.6721150000000000 C
   0.3373200000000000    0.2190700000000000    0.7646250000000000 C
   0.1915900000000000    0.0939600000000000    0.6470450000000000 C
   0.2476600000000000    0.1375500000000000    0.7612300000000001 C
   0.4583400000000000    0.8871800000000000    0.8493900000000000 C
   0.2194700000000000    0.7055900000000001    0.8279200000000000 C
   0.3371700000000000    0.7809600000000000    0.7353750000000000 C
   0.1915600000000000    0.9060000000000000    0.8529450000000001 C
   0.2476300000000000    0.8624600000000000    0.7387750000000000 C
   0.5417500000000000    0.6987500000000000    0.9435800000000000 C
   0.7804400000000000    0.6558200000000000    0.8527850000000000 C
   0.6627400000000000    0.4707100000000000    0.8904900000000000 C
   0.8084700000000000    0.7059000000000000    0.9530149999999999 C
   0.7523800000000000    0.4775700000000000    0.9312300000000000 C
   0.5416100000000000    0.3012300000000000    0.5564300000000000 C
   0.7805000000000000    0.3442100000000000    0.6471950000000000 C
   0.6627400000000000    0.5292100000000000    0.6095400000000000 C
   0.8083300000000000    0.2941000000000000    0.5469850000000001 C
   0.7523500000000000    0.5224700000000000    0.5687800000000000 C
   0.0417400000000000    0.3871300000000000    0.9006149999999999 C
   0.2804300000000000    0.2056100000000000    0.9221200000000001 C
   0.1626600000000000    0.2809500000000000    0.5146300000000000 C
   0.3084200000000000    0.4060500000000000    0.8970450000000000 C
   0.2523400000000000    0.3624500000000000    0.5112200000000000 C
   0.0416200000000000    0.6128300000000000    0.5993850000000001 C
   0.2805200000000000    0.7944000000000000    0.5779150000000000 C
   0.1628200000000000    0.7190500000000000    0.9853900000000000 C
   0.3083900000000000    0.5940000000000000    0.6029450000000000 C
   0.2523500000000000    0.6375300000000000    0.9887800000000000 C
   0.0417700000000000    0.1987500000000000    0.8064300000000000 C
   0.2804400000000000    0.1558200000000000    0.8972249999999999 C
   0.1627000000000000    0.9707000000000000    0.8595200000000001 C
   0.3084700000000000    0.2059100000000000    0.7969950000000000 C
   0.2523700000000000    0.9775600000000000    0.8187800000000001 C
   0.0415900000000000    0.8012300000000000    0.6935700000000000 C
   0.2805100000000000    0.8442000000000000    0.6028050000000000 C
   0.1627700000000000    0.0292100000000000    0.6404600000000000 C
   0.3083300000000000    0.7941000000000000    0.7030100000000000 C
   0.2523500000000000    0.0224700000000000    0.6812199999999999 C
   0.5417100000000000    0.8871400000000000    0.8493950000000000 C
   0.7804300000000000    0.7056100000000000    0.8278850000000000 C
   0.6626600000000000    0.7809400000000000    0.7353800000000000 C
   0.8084000000000000    0.9060400000000000    0.8529650000000000 C
   0.7523300000000001    0.8624400000000000    0.7387750000000000 C
   0.5416500000000000    0.1128300000000000    0.6506149999999999 C
   0.7805100000000000    0.2944100000000000    0.6720850000000000 C
   0.6628200000000000    0.2190400000000000    0.7646299999999999 C
   0.8084200000000000    0.0940000000000000    0.6470549999999999 C
   0.7523600000000000    0.1375400000000000    0.7612300000000001 C
   0.4582300000000000    0.3012600000000000    0.5564200000000000 C
   0.2195400000000000    0.3441800000000000    0.6472200000000000 C
   0.3372500000000000    0.5292900000000000    0.6095150000000000 C
   0.1915100000000000    0.2941100000000000    0.5469500000000000 C
   0.2476100000000000    0.5224299999999999    0.5687750000000000 C
   0.4583800000000000    0.6987700000000000    0.9435700000000000 C
   0.2194800000000000    0.6557900000000000    0.8528150000000000 C
   0.3372400000000000    0.4707900000000000    0.8904600000000000 C
   0.1916500000000000    0.7059000000000000    0.9530200000000000 C
   0.2476500000000000    0.4775300000000000    0.9312250000000000 C
   0.9582500000000000    0.6128700000000000    0.5993900000000000 C
   0.7195600000000000    0.7943900000000000    0.5778850000000000 C
   0.8373200000000000    0.7190600000000000    0.9853799999999999 C
   0.6915600000000000    0.5939500000000000    0.6029550000000000 C
   0.7476500000000000    0.6375500000000000    0.9887850000000000 C
   0.9583700000000001    0.3871700000000000    0.9006200000000000 C
   0.7194600000000000    0.2056100000000000    0.9220900000000001 C
   0.8371600000000000    0.2809500000000000    0.5145999999999999 C
   0.6915900000000000    0.4060000000000000    0.8970650000000000 C
   0.7476400000000000    0.3624700000000000    0.5112250000000000 C
   0.0000100000000000    0.8938400000000000    0.6680800000000000 C
   0.9999800000000000    0.1061600000000000    0.8319300000000001 C
   0.5000100000000000    0.1638500000000000    0.6969150000000000 C
   0.4999800000000000    0.8361499999999999    0.8030950000000000 C
   0.4999800000000000    0.6061500000000000    0.9180850000000000 C
   0.5000100000000000    0.3938400000000000    0.5819250000000000 C
   0.9999800000000000    0.3361600000000000    0.9469200000000000 C
   0.3229900000000000    0.7228900000000000    0.8614350000000000 C
   0.6770000000000000    0.7228500000000000    0.8614500000000000 C
   0.6770000000000000    0.2771000000000000    0.6385750000000000 C
   0.1770000000000000    0.2228500000000000    0.8885650000000000 C
   0.1770000000000000    0.7771000000000000    0.6114300000000000 C
   0.4320600000000000    0.3602500000000000    0.0726450000000000 N
   0.2853700000000000    0.3330100000000000    0.1259650000000000 N
   0.2985700000000000    0.4839500000000000    0.0877150000000000 N
   0.2484800000000000    0.3459300000000000    0.0446950000000000 N
   0.9320500000000000    0.8602500000000000    0.1773500000000000 N
   0.7853800000000000    0.8330100000000000    0.1240000000000000 N
   0.7985700000000000    0.9839500000000000    0.1622850000000000 N
   0.7484700000000000    0.8459200000000000    0.2053000000000000 N
   0.9321000000000000    0.1397800000000000    0.3226600000000000 N
   0.7853599999999999    0.1670100000000000    0.3759750000000000 N
   0.7985600000000000    0.0160800000000000    0.3377350000000000 N
   0.7485400000000000    0.1540700000000000    0.2947050000000000 N
   0.4320700000000000    0.1453400000000000    0.1801000000000000 N
   0.2853900000000000    0.2519400000000000    0.1665050000000000 N
   0.2986200000000000    0.1754500000000000    0.2419700000000000 N
   0.2485000000000000    0.0894100000000000    0.1729600000000000 N
   0.4320700000000000    0.8547400000000001    0.3198900000000000 N
   0.2853400000000000    0.7480800000000000    0.3335050000000000 N
   0.2985300000000000    0.8245800000000000    0.2580350000000000 N
   0.2485200000000000    0.9106200000000000    0.3270450000000000 N
   0.7146100000000000    0.6669900000000000    0.3740400000000000 N
   0.7014200000000000    0.5160500000000000    0.4122950000000000 N
   0.7514999999999999    0.6540700000000000    0.4553100000000000 N
   0.5679000000000000    0.3602200000000000    0.0726500000000000 N
   0.7146200000000000    0.3330000000000000    0.1259700000000000 N
   0.7014200000000000    0.4839200000000000    0.0877000000000000 N