H9 O6
1.0
  23.0679999964865452    0.0000000000000000    0.0004026125518300
  -0.0005777183332476   16.5519996848752164   -0.0031777558561678
   0.0000000000000000    0.0000000000000000   33.1039999999999992
H O
9 6
direct
   0.8601483118524091    0.7801423822774008    0.0392549596408767 H
   0.9075872419310804    0.7784241293004458    0.9801725818916126 H
   0.9221034837334303    0.7970677344080024    0.9433316869579020 H
   0.0850371288799929    0.7255940838415590    0.1279492608118711 H
   0.9149324845540139    0.7255916945252242    0.1279510215191411 H
   0.9999813385177535    0.7322127087142613    0.1230719405669374 H
   0.0924103671952648    0.7784338057242400    0.9801746429514896 H
   0.0778977139960040    0.7970753662813395    0.9433338141272124 H
   0.1398363266081039    0.7801351137991875    0.0392604187483775 H
   0.8447800000000000    0.8195300000000000    0.0203900000000000 O
   0.8928400000000000    0.8162199999999999    0.9620700000000000 O
   0.0493200000000000    0.7082300000000000    0.1407450000000000 O
   0.9506500000000000    0.7082300000000000    0.1407450000000000 O
   0.1071600000000000    0.8162199999999999    0.9620750000000000 O
   0.1552100000000000    0.8195200000000000    0.0203950000000000 O
