H3 C9 O6
1.0
  23.0679999964865452    0.0000000000000000    0.0004026125518300
  -0.0005777183332476   16.5519996848752164   -0.0031777558561678
   0.0000000000000000    0.0000000000000000   33.1039999999999992
H C O
3 9 6
direct
   0.0929500000000000    0.7544800000000000    0.0777700000000000 H
   0.9070200000000000    0.7544600000000000    0.0777600000000000 H
   0.0000000000000000    0.8243700000000000    0.9702100000000000 H
   0.0524500000000000    0.7650900000000000    0.0617950000000000 C
   0.0526200000000000    0.7920900000000000    0.0217050000000000 C
   0.1083700000000000    0.8101699999999999    0.0007000000000000 C
   0.9475300000000000    0.7650900000000000    0.0617500000000000 C
   0.9473700000000000    0.7920800000000000    0.0217000000000000 C
   0.8916200000000000    0.8101600000000000    0.0007000000000000 C
   0.9999900000000000    0.7508500000000000    0.0817850000000000 C
   0.9999900000000000    0.8042300000000000    0.0015000000000000 C
   0.9999800000000000    0.7200700000000000    0.1243950000000000 C
   0.0493200000000000    0.7082300000000000    0.1407450000000000 O
   0.1552100000000000    0.8195200000000000    0.0203950000000000 O
   0.9506500000000000    0.7082300000000000    0.1407450000000000 O
   0.8447800000000000    0.8195300000000000    0.0203900000000000 O
   0.1071600000000000    0.8162199999999999    0.9620750000000000 O
   0.8928400000000000    0.8162199999999999    0.9620700000000000 O
