H4 O4
1.0
  32.1439940026315014    0.0000000000000000   -0.0196356509954392
   0.0769215406565706   37.7254416687040930   -0.1902891951420544
   0.0000000000000000    0.0000000000000000   36.7580000000000027
H O
4 4
direct
   0.6982537539662386    0.3855784162626800    0.9003087438488646 H
   0.7183499745588433    0.4291817144118106    0.9080973987951978 H
   0.5529916723356757    0.3848394036911075    0.0992229130611330 H
   0.5319808718012810    0.4282345039798742    0.0917450193852335 H
   0.7129350000000000    0.3699150000000000    0.8833150000000001 O
   0.7435900000000000    0.4344550000000000    0.8942900000000000 O
   0.5389050000000000    0.3692550000000000    0.1164650000000000 O
   0.5068049999999999    0.4333400000000000    0.1057950000000000 O
