H7 C15 O6
1.0
  38.4385174055875609    0.0000000000000000    3.5813970263491246
   6.1220653748559677   27.6424163945149317   11.3539045010182065
   0.0000000000000000    0.0000000000000000   13.4629999999999992
H C O
7 15 6
direct
   0.5440760000000000    0.0812366666666667    0.6731600000000000 H
   0.5308780000000001    0.1225133333333333    0.9480200000000000 H
   0.5198040000000000    0.2443933333333334    0.4737300000000000 H
   0.5373480000000000    0.2300633333333333    0.6354400000000000 H
   0.5865280000000000    0.1158066666666667    0.3436700000000000 H
   0.5775660000000000    0.0973500000000000    0.5379500000000000 H
   0.5314320000000000    0.2630700000000000    0.2799800000000000 H
   0.5356080000000001    0.0460100000000000    0.8843299999999999 C
   0.5373080000000000    0.0969366666666667    0.8163500000000000 C
   0.5416140000000000    0.1095900000000000    0.7055700000000000 C
   0.5338660000000001    0.1800333333333333    0.7954700000000000 C
   0.5310580000000000    0.2179300000000000    0.8424500000000000 C
   0.5339040000000000    0.1321600000000000    0.8618100000000000 C
   0.5350940000000001    0.2160733333333333    0.4463500000000000 C
   0.5372220000000001    0.1925200000000000    0.6843600000000000 C
   0.5720600000000000    0.1437633333333333    0.3731200000000000 C
   0.5595980000000000    0.1905433333333333    0.2992400000000000 C
   0.5418680000000000    0.1573266666666667    0.6376600000000000 C
   0.5664620000000000    0.1334900000000000    0.4820400000000000 C
   0.5476200000000000    0.1692800000000000    0.5211000000000000 C
   0.5411940000000001    0.2267200000000000    0.3371200000000000 C
   0.5659780000000001    0.2011033333333333    0.1821800000000000 C
   0.5439240000000001    0.0143133333333333    0.8403600000000000 O
   0.5261560000000001    0.0352633333333333   -0.0172799999999999 O
   0.5422220000000000    0.2036566666666667   -0.0585200000000001 O
   0.5183660000000000    0.2616066666666667    0.7916200000000000 O
   0.5823840000000000    0.1644266666666667    0.1577800000000000 O
   0.5556900000000000    0.2440300000000000    1.1170400000000000 O
