Cd45 H203 C435 O174
1.0
  38.4385174055875609    0.0000000000000000    3.5813970263491246
   6.1220653748559677   27.6424163945149317   11.3539045010182065
   0.0000000000000000    0.0000000000000000   13.4629999999999992
Cd H C O
45 203 435 174
direct
   0.1290840000000000    0.2802133333333333    0.9532600000000000 Cd
   0.1999960000000000    0.1666566666666667    0.0000400000000000 Cd
   0.0709140000000000    0.0530800000000000    0.0468200000000000 Cd
   0.3290840000000000    0.2802133333333333    0.9532600000000000 Cd
   0.3999960000000000    0.1666566666666667    0.0000400000000000 Cd
   0.2709140000000000    0.0530800000000000    0.0468200000000000 Cd
   0.5290840000000000    0.2802133333333333    0.9532600000000000 Cd
   0.5999960000000000    0.1666566666666667    0.0000400000000000 Cd
   0.4709140000000001    0.0530800000000000    0.0468200000000000 Cd
   0.7290840000000001    0.2802133333333333    0.9532600000000000 Cd
   0.7999960000000002    0.1666566666666667    0.0000400000000000 Cd
   0.6709140000000001    0.0530800000000000    0.0468200000000000 Cd
   0.9290840000000000    0.2802133333333333    0.9532600000000000 Cd
   0.9999960000000001    0.1666566666666667    0.0000400000000000 Cd
   0.8709140000000001    0.0530800000000000    0.0468200000000000 Cd
   0.1290840000000000    0.6135466666666667    0.9532600000000000 Cd
   0.1999960000000000    0.4999900000000000    0.0000400000000000 Cd
   0.0709140000000000    0.3864133333333333    0.0468200000000000 Cd
   0.3290840000000000    0.6135466666666667    0.9532600000000000 Cd
   0.3999960000000000    0.4999900000000000    0.0000400000000000 Cd
   0.2709140000000000    0.3864133333333333    0.0468200000000000 Cd
   0.5290840000000000    0.6135466666666667    0.9532600000000000 Cd
   0.5999960000000000    0.4999900000000000    0.0000400000000000 Cd
   0.4709140000000001    0.3864133333333333    0.0468200000000000 Cd
   0.7290840000000001    0.6135466666666667    0.9532600000000000 Cd
   0.7999960000000002    0.4999900000000000    0.0000400000000000 Cd
   0.6709140000000001    0.3864133333333333    0.0468200000000000 Cd
   0.9290840000000000    0.6135466666666667    0.9532600000000000 Cd
   0.9999960000000001    0.4999900000000000    0.0000400000000000 Cd
   0.8709140000000001    0.3864133333333333    0.0468200000000000 Cd
   0.1290840000000000    0.9468799999999999    0.9532600000000000 Cd
   0.1999960000000000    0.8333233333333333    0.0000400000000000 Cd
   0.0709140000000000    0.7197466666666666    0.0468200000000000 Cd
   0.3290840000000000    0.9468799999999999    0.9532600000000000 Cd
   0.3999960000000000    0.8333233333333333    0.0000400000000000 Cd
   0.2709140000000000    0.7197466666666666    0.0468200000000000 Cd
   0.5290840000000000    0.9468799999999999    0.9532600000000000 Cd
   0.5999960000000000    0.8333233333333333    0.0000400000000000 Cd
   0.4709140000000001    0.7197466666666666    0.0468200000000000 Cd
   0.7290840000000001    0.9468799999999999    0.9532600000000000 Cd
   0.7999960000000002    0.8333233333333333    0.0000400000000000 Cd
   0.6709140000000001    0.7197466666666666    0.0468200000000000 Cd
   0.9290840000000000    0.9468799999999999    0.9532600000000000 Cd
   0.9999960000000001    0.8333233333333333    0.0000400000000000 Cd
   0.8709140000000001    0.7197466666666666    0.0468200000000000 Cd
   0.0559060000000000    0.2520633333333333    0.3269100000000000 H
   0.0691020000000000    0.2107966666666667    0.0520400000000000 H
   0.0801860000000000    0.0889033333333333    0.5263300000000000 H
   0.0626460000000000    0.1032366666666667    0.3646200000000000 H
   0.0134640000000000    0.2174900000000000    0.6563900000000000 H
   0.0224200000000000    0.2359433333333333    0.4621100000000000 H
   0.0685620000000000    0.0702266666666667    0.7200800000000001 H
   0.1440760000000000    0.0812366666666667    0.6731600000000000 H
   0.1308780000000000    0.1225133333333333    0.9480200000000000 H
   0.1198040000000000    0.2443933333333334    0.4737300000000000 H
   0.1373480000000000    0.2300633333333333    0.6354400000000000 H
   0.1865280000000000    0.1158066666666667    0.3436700000000000 H
   0.1775660000000000    0.0973500000000000    0.5379500000000000 H
   0.1314320000000000    0.2630700000000000    0.2799800000000000 H
   0.2559060000000000    0.2520633333333333    0.3269100000000000 H
   0.2691020000000000    0.2107966666666667    0.0520400000000000 H
   0.2801860000000000    0.0889033333333333    0.5263300000000000 H
   0.2626460000000000    0.1032366666666667    0.3646200000000000 H
   0.2134640000000000    0.2174900000000000    0.6563900000000000 H
   0.2224200000000000    0.2359433333333333    0.4621100000000000 H
   0.2685620000000000    0.0702266666666667    0.7200800000000001 H
   0.3440760000000000    0.0812366666666667    0.6731600000000000 H
   0.3308780000000000    0.1225133333333333    0.9480200000000000 H
   0.3198040000000000    0.2443933333333334    0.4737300000000000 H
   0.3373480000000000    0.2300633333333333    0.6354400000000000 H
   0.3865280000000000    0.1158066666666667    0.3436700000000000 H
   0.3775660000000000    0.0973500000000000    0.5379500000000000 H
   0.3314320000000000    0.2630700000000000    0.2799800000000000 H
   0.4559060000000000    0.2520633333333333    0.3269100000000000 H
   0.4691020000000000    0.2107966666666667    0.0520400000000000 H
   0.4801860000000000    0.0889033333333333    0.5263300000000000 H
   0.4626460000000000    0.1032366666666667    0.3646200000000000 H
   0.4134640000000000    0.2174900000000000    0.6563900000000000 H
   0.4224200000000000    0.2359433333333333    0.4621100000000000 H
   0.4685620000000000    0.0702266666666667    0.7200800000000001 H
   0.6559060000000001    0.2520633333333333    0.3269100000000000 H
   0.6691020000000001    0.2107966666666667    0.0520400000000000 H
   0.6801860000000001    0.0889033333333333    0.5263300000000000 H
   0.6626460000000001    0.1032366666666667    0.3646200000000000 H
   0.6134640000000001    0.2174900000000000    0.6563900000000000 H
   0.6224200000000001    0.2359433333333333    0.4621100000000000 H
   0.6685620000000001    0.0702266666666667    0.7200800000000001 H
   0.7440760000000001    0.0812366666666667    0.6731600000000000 H
   0.7308780000000001    0.1225133333333333    0.9480200000000000 H
   0.7198040000000001    0.2443933333333334    0.4737300000000000 H
   0.7373480000000001    0.2300633333333333    0.6354400000000000 H
   0.7865280000000001    0.1158066666666667    0.3436700000000000 H
   0.7775660000000001    0.0973500000000000    0.5379500000000000 H
   0.7314320000000001    0.2630700000000000    0.2799800000000000 H
   0.8559060000000001    0.2520633333333333    0.3269100000000000 H
   0.8691020000000000    0.2107966666666667    0.0520400000000000 H
   0.8801860000000000    0.0889033333333333    0.5263300000000000 H
   0.8626460000000000    0.1032366666666667    0.3646200000000000 H
   0.8134640000000001    0.2174900000000000    0.6563900000000000 H
   0.8224200000000000    0.2359433333333333    0.4621100000000000 H
   0.8685620000000001    0.0702266666666667    0.7200800000000001 H
   0.9440760000000000    0.0812366666666667    0.6731600000000000 H
   0.9308780000000001    0.1225133333333333    0.9480200000000000 H
   0.9198040000000001    0.2443933333333334    0.4737300000000000 H
   0.9373480000000001    0.2300633333333333    0.6354400000000000 H
   0.9865280000000001    0.1158066666666667    0.3436700000000000 H
   0.9775660000000000    0.0973500000000000    0.5379500000000000 H
   0.9314320000000000    0.2630700000000000    0.2799800000000000 H
   0.0559060000000000    0.5853966666666666    0.3269100000000000 H
   0.0691020000000000    0.5441300000000000    0.0520400000000000 H
   0.0801860000000000    0.4222366666666666    0.5263300000000000 H
   0.0626460000000000    0.4365700000000000    0.3646200000000000 H
   0.0134640000000000    0.5508233333333333    0.6563900000000000 H
   0.0224200000000000    0.5692766666666667    0.4621100000000000 H
   0.0685620000000000    0.4035600000000000    0.7200800000000001 H
   0.1440760000000000    0.4145700000000000    0.6731600000000000 H
   0.1308780000000000    0.4558466666666666    0.9480200000000000 H
   0.1198040000000000    0.5777266666666667    0.4737300000000000 H
   0.1373480000000000    0.5633966666666667    0.6354400000000000 H
   0.1865280000000000    0.4491400000000000    0.3436700000000000 H
   0.1775660000000000    0.4306833333333333    0.5379500000000000 H
   0.1314320000000000    0.5964033333333333    0.2799800000000000 H
   0.2559060000000000    0.5853966666666666    0.3269100000000000 H
   0.2691020000000000    0.5441300000000000    0.0520400000000000 H
   0.2801860000000000    0.4222366666666666    0.5263300000000000 H
   0.2626460000000000    0.4365700000000000    0.3646200000000000 H
   0.2134640000000000    0.5508233333333333    0.6563900000000000 H
   0.2224200000000000    0.5692766666666667    0.4621100000000000 H
   0.2685620000000000    0.4035600000000000    0.7200800000000001 H
   0.3440760000000000    0.4145700000000000    0.6731600000000000 H
   0.3308780000000000    0.4558466666666666    0.9480200000000000 H
   0.3198040000000000    0.5777266666666667    0.4737300000000000 H
   0.3373480000000000    0.5633966666666667    0.6354400000000000 H
   0.3865280000000000    0.4491400000000000    0.3436700000000000 H
   0.3775660000000000    0.4306833333333333    0.5379500000000000 H
   0.3314320000000000    0.5964033333333333    0.2799800000000000 H
   0.4559060000000000    0.5853966666666666    0.3269100000000000 H
   0.4691020000000000    0.5441300000000000    0.0520400000000000 H
   0.4801860000000000    0.4222366666666666    0.5263300000000000 H
   0.4626460000000000    0.4365700000000000    0.3646200000000000 H
   0.4134640000000000    0.5508233333333333    0.6563900000000000 H
   0.4224200000000000    0.5692766666666667    0.4621100000000000 H
   0.4685620000000000    0.4035600000000000    0.7200800000000001 H
   0.5440760000000000    0.4145700000000000    0.6731600000000000 H
   0.5308780000000001    0.4558466666666666    0.9480200000000000 H
   0.5198040000000000    0.5777266666666667    0.4737300000000000 H
   0.5373480000000000    0.5633966666666667    0.6354400000000000 H
   0.5865280000000000    0.4491400000000000    0.3436700000000000 H
   0.5775660000000000    0.4306833333333333    0.5379500000000000 H
   0.5314320000000000    0.5964033333333333    0.2799800000000000 H
   0.6559060000000001    0.5853966666666666    0.3269100000000000 H
   0.6691020000000001    0.5441300000000000    0.0520400000000000 H
   0.6801860000000001    0.4222366666666666    0.5263300000000000 H
   0.6626460000000001    0.4365700000000000    0.3646200000000000 H
   0.6134640000000001    0.5508233333333333    0.6563900000000000 H
   0.6224200000000001    0.5692766666666667    0.4621100000000000 H
   0.6685620000000001    0.4035600000000000    0.7200800000000001 H
   0.7440760000000001    0.4145700000000000    0.6731600000000000 H
   0.7308780000000001    0.4558466666666666    0.9480200000000000 H
   0.7198040000000001    0.5777266666666667    0.4737300000000000 H
   0.7373480000000001    0.5633966666666667    0.6354400000000000 H
   0.7865280000000001    0.4491400000000000    0.3436700000000000 H
   0.7775660000000001    0.4306833333333333    0.5379500000000000 H
   0.7314320000000001    0.5964033333333333    0.2799800000000000 H
   0.8559060000000001    0.5853966666666666    0.3269100000000000 H
   0.8691020000000000    0.5441300000000000    0.0520400000000000 H
   0.8801860000000000    0.4222366666666666    0.5263300000000000 H
   0.8626460000000000    0.4365700000000000    0.3646200000000000 H
   0.8134640000000001    0.5508233333333333    0.6563900000000000 H
   0.8224200000000000    0.5692766666666667    0.4621100000000000 H
   0.8685620000000001    0.4035600000000000    0.7200800000000001 H
   0.9440760000000000    0.4145700000000000    0.6731600000000000 H
   0.9308780000000001    0.4558466666666666    0.9480200000000000 H
   0.9198040000000001    0.5777266666666667    0.4737300000000000 H
   0.9373480000000001    0.5633966666666667    0.6354400000000000 H
   0.9865280000000001    0.4491400000000000    0.3436700000000000 H
   0.9775660000000000    0.4306833333333333    0.5379500000000000 H
   0.9314320000000000    0.5964033333333333    0.2799800000000000 H
   0.0559060000000000    0.9187299999999999    0.3269100000000000 H
   0.0691020000000000    0.8774633333333333    0.0520400000000000 H
   0.0801860000000000    0.7555700000000000    0.5263300000000000 H
   0.0626460000000000    0.7699033333333333    0.3646200000000000 H
   0.0134640000000000    0.8841566666666666    0.6563900000000000 H
   0.0224200000000000    0.9026099999999999    0.4621100000000000 H
   0.0685620000000000    0.7368933333333333    0.7200800000000001 H
   0.1440760000000000    0.7479033333333333    0.6731600000000000 H
   0.1308780000000000    0.7891800000000000    0.9480200000000000 H
   0.1198040000000000    0.9110600000000000    0.4737300000000000 H
   0.1373480000000000    0.8967299999999999    0.6354400000000000 H
   0.1865280000000000    0.7824733333333334    0.3436700000000000 H
   0.1775660000000000    0.7640166666666666    0.5379500000000000 H
   0.1314320000000000    0.9297366666666667    0.2799800000000000 H
   0.2559060000000000    0.9187299999999999    0.3269100000000000 H
   0.2691020000000000    0.8774633333333333    0.0520400000000000 H
   0.2801860000000000    0.7555700000000000    0.5263300000000000 H
   0.2626460000000000    0.7699033333333333    0.3646200000000000 H
   0.2134640000000000    0.8841566666666666    0.6563900000000000 H
   0.2224200000000000    0.9026099999999999    0.4621100000000000 H
   0.2685620000000000    0.7368933333333333    0.7200800000000001 H
   0.3440760000000000    0.7479033333333333    0.6731600000000000 H
   0.3308780000000000    0.7891800000000000    0.9480200000000000 H
   0.3198040000000000    0.9110600000000000    0.4737300000000000 H
   0.3373480000000000    0.8967299999999999    0.6354400000000000 H
   0.3865280000000000    0.7824733333333334    0.3436700000000000 H
   0.3775660000000000    0.7640166666666666    0.5379500000000000 H
   0.3314320000000000    0.9297366666666667    0.2799800000000000 H
   0.4559060000000000    0.9187299999999999    0.3269100000000000 H
   0.4691020000000000    0.8774633333333333    0.0520400000000000 H
   0.4801860000000000    0.7555700000000000    0.5263300000000000 H
   0.4626460000000000    0.7699033333333333    0.3646200000000000 H
   0.4134640000000000    0.8841566666666666    0.6563900000000000 H
   0.4224200000000000    0.9026099999999999    0.4621100000000000 H
   0.4685620000000000    0.7368933333333333    0.7200800000000001 H
   0.5440760000000000    0.7479033333333333    0.6731600000000000 H
   0.5308780000000001    0.7891800000000000    0.9480200000000000 H
   0.5198040000000000    0.9110600000000000    0.4737300000000000 H
   0.5373480000000000    0.8967299999999999    0.6354400000000000 H
   0.5865280000000000    0.7824733333333334    0.3436700000000000 H
   0.5775660000000000    0.7640166666666666    0.5379500000000000 H
   0.5314320000000000    0.9297366666666667    0.2799800000000000 H
   0.6559060000000001    0.9187299999999999    0.3269100000000000 H
   0.6691020000000001    0.8774633333333333    0.0520400000000000 H
   0.6801860000000001    0.7555700000000000    0.5263300000000000 H
   0.6626460000000001    0.7699033333333333    0.3646200000000000 H
   0.6134640000000001    0.8841566666666666    0.6563900000000000 H
   0.6224200000000001    0.9026099999999999    0.4621100000000000 H
   0.6685620000000001    0.7368933333333333    0.7200800000000001 H
   0.7440760000000001    0.7479033333333333    0.6731600000000000 H
   0.7308780000000001    0.7891800000000000    0.9480200000000000 H
   0.7198040000000001    0.9110600000000000    0.4737300000000000 H
   0.7373480000000001    0.8967299999999999    0.6354400000000000 H
   0.7865280000000001    0.7824733333333334    0.3436700000000000 H
   0.7775660000000001    0.7640166666666666    0.5379500000000000 H
   0.7314320000000001    0.9297366666666667    0.2799800000000000 H
   0.8559060000000001    0.9187299999999999    0.3269100000000000 H
   0.8691020000000000    0.8774633333333333    0.0520400000000000 H
   0.8801860000000000    0.7555700000000000    0.5263300000000000 H
   0.8626460000000000    0.7699033333333333    0.3646200000000000 H
   0.8134640000000001    0.8841566666666666    0.6563900000000000 H
   0.8224200000000000    0.9026099999999999    0.4621100000000000 H
   0.8685620000000001    0.7368933333333333    0.7200800000000001 H
   0.9440760000000000    0.7479033333333333    0.6731600000000000 H
   0.9308780000000001    0.7891800000000000    0.9480200000000000 H
   0.9198040000000001    0.9110600000000000    0.4737300000000000 H
   0.9373480000000001    0.8967299999999999    0.6354400000000000 H
   0.9865280000000001    0.7824733333333334    0.3436700000000000 H
   0.9775660000000000    0.7640166666666666    0.5379500000000000 H
   0.9314320000000000    0.9297366666666667    0.2799800000000000 H
   0.0643860000000000    0.2872933333333333    0.1157600000000000 C
   0.0626660000000000    0.2363700000000000    0.1837100000000000 C
   0.0583740000000000    0.2237100000000000    0.2944900000000000 C
   0.0661120000000000    0.1532733333333333    0.2045800000000000 C
   0.0689420000000000    0.1153800000000000    0.1575800000000000 C
   0.0660880000000000    0.2011466666666666    0.1382500000000000 C
   0.0648980000000000    0.1172233333333333    0.5537100000000000 C
   0.0627740000000000    0.1407800000000000    0.3156900000000000 C
   0.0279300000000000    0.1895333333333333    0.6269400000000001 C
   0.0403980000000000    0.1427533333333333    0.7008200000000000 C
   0.0581080000000000    0.1759733333333333    0.3624000000000000 C
   0.0335280000000000    0.1998066666666666    0.5180200000000000 C
   0.0523680000000000    0.1640133333333333    0.4789600000000000 C
   0.0587980000000000    0.1065766666666667    0.6629400000000000 C
   0.0340180000000000    0.1321933333333333    0.8178800000000001 C
   0.1356080000000000    0.0460100000000000    0.8843299999999999 C
   0.1373080000000000    0.0969366666666667    0.8163500000000000 C
   0.1416140000000000    0.1095900000000000    0.7055700000000000 C
   0.1338660000000000    0.1800333333333333    0.7954700000000000 C
   0.1310580000000000    0.2179300000000000    0.8424500000000000 C
   0.1339040000000000    0.1321600000000000    0.8618100000000000 C
   0.1350940000000000    0.2160733333333333    0.4463500000000000 C
   0.1372220000000000    0.1925200000000000    0.6843600000000000 C
   0.1720600000000000    0.1437633333333333    0.3731200000000000 C
   0.1595980000000000    0.1905433333333333    0.2992400000000000 C
   0.1418680000000000    0.1573266666666667    0.6376600000000000 C
   0.1664620000000000    0.1334900000000000    0.4820400000000000 C
   0.1476200000000000    0.1692800000000000    0.5211000000000000 C
   0.1411940000000000    0.2267200000000000    0.3371200000000000 C
   0.1659780000000000    0.2011033333333333    0.1821800000000000 C
   0.2643860000000000    0.2872933333333333    0.1157600000000000 C
   0.2626660000000000    0.2363700000000000    0.1837100000000000 C
   0.2583740000000000    0.2237100000000000    0.2944900000000000 C
   0.2661120000000000    0.1532733333333333    0.2045800000000000 C
   0.2689420000000000    0.1153800000000000    0.1575800000000000 C
   0.2660880000000000    0.2011466666666666    0.1382500000000000 C
   0.2648980000000000    0.1172233333333333    0.5537100000000000 C
   0.2627740000000000    0.1407800000000000    0.3156900000000000 C
   0.2279300000000000    0.1895333333333333    0.6269400000000001 C
   0.2403980000000000    0.1427533333333333    0.7008200000000000 C
   0.2581080000000000    0.1759733333333333    0.3624000000000000 C
   0.2335280000000000    0.1998066666666666    0.5180200000000000 C
   0.2523680000000000    0.1640133333333333    0.4789600000000000 C
   0.2587980000000000    0.1065766666666667    0.6629400000000000 C
   0.2340180000000000    0.1321933333333333    0.8178800000000001 C
   0.3356080000000000    0.0460100000000000    0.8843299999999999 C
   0.3373080000000001    0.0969366666666667    0.8163500000000000 C
   0.3416140000000000    0.1095900000000000    0.7055700000000000 C
   0.3338660000000000    0.1800333333333333    0.7954700000000000 C
   0.3310580000000000    0.2179300000000000    0.8424500000000000 C
   0.3339040000000000    0.1321600000000000    0.8618100000000000 C
   0.3350940000000000    0.2160733333333333    0.4463500000000000 C
   0.3372220000000000    0.1925200000000000    0.6843600000000000 C
   0.3720600000000000    0.1437633333333333    0.3731200000000000 C
   0.3595980000000000    0.1905433333333333    0.2992400000000000 C
   0.3418680000000000    0.1573266666666667    0.6376600000000000 C
   0.3664620000000000    0.1334900000000000    0.4820400000000000 C
   0.3476200000000000    0.1692800000000000    0.5211000000000000 C
   0.3411940000000000    0.2267200000000000    0.3371200000000000 C
   0.3659780000000000    0.2011033333333333    0.1821800000000000 C
   0.4643860000000000    0.2872933333333333    0.1157600000000000 C
   0.4626660000000000    0.2363700000000000    0.1837100000000000 C
   0.4583740000000001    0.2237100000000000    0.2944900000000000 C
   0.4661120000000000    0.1532733333333333    0.2045800000000000 C
   0.4689420000000000    0.1153800000000000    0.1575800000000000 C
   0.4660880000000001    0.2011466666666666    0.1382500000000000 C
   0.4648980000000000    0.1172233333333333    0.5537100000000000 C
   0.4627740000000000    0.1407800000000000    0.3156900000000000 C
   0.4279300000000000    0.1895333333333333    0.6269400000000001 C
   0.4403980000000000    0.1427533333333333    0.7008200000000000 C
   0.4581080000000000    0.1759733333333333    0.3624000000000000 C
   0.4335280000000000    0.1998066666666666    0.5180200000000000 C
   0.4523680000000000    0.1640133333333333    0.4789600000000000 C
   0.4587980000000000    0.1065766666666667    0.6629400000000000 C
   0.4340180000000000    0.1321933333333333    0.8178800000000001 C
   0.6643860000000001    0.2872933333333333    0.1157600000000000 C
   0.6626660000000001    0.2363700000000000    0.1837100000000000 C
   0.6583740000000001    0.2237100000000000    0.2944900000000000 C
   0.6661120000000000    0.1532733333333333    0.2045800000000000 C
   0.6689420000000001    0.1153800000000000    0.1575800000000000 C
   0.6660880000000001    0.2011466666666666    0.1382500000000000 C
   0.6648980000000001    0.1172233333333333    0.5537100000000000 C
   0.6627740000000001    0.1407800000000000    0.3156900000000000 C
   0.6279300000000001    0.1895333333333333    0.6269400000000001 C
   0.6403980000000001    0.1427533333333333    0.7008200000000000 C
   0.6581080000000001    0.1759733333333333    0.3624000000000000 C
   0.6335280000000001    0.1998066666666666    0.5180200000000000 C
   0.6523680000000001    0.1640133333333333    0.4789600000000000 C
   0.6587980000000001    0.1065766666666667    0.6629400000000000 C
   0.6340180000000001    0.1321933333333333    0.8178800000000001 C
   0.7356080000000000    0.0460100000000000    0.8843299999999999 C
   0.7373080000000001    0.0969366666666667    0.8163500000000000 C
   0.7416140000000001    0.1095900000000000    0.7055700000000000 C
   0.7338660000000001    0.1800333333333333    0.7954700000000000 C
   0.7310580000000001    0.2179300000000000    0.8424500000000000 C
   0.7339040000000001    0.1321600000000000    0.8618100000000000 C
   0.7350940000000001    0.2160733333333333    0.4463500000000000 C
   0.7372220000000000    0.1925200000000000    0.6843600000000000 C
   0.7720600000000001    0.1437633333333333    0.3731200000000000 C
   0.7595980000000001    0.1905433333333333    0.2992400000000000 C
   0.7418680000000001    0.1573266666666667    0.6376600000000000 C
   0.7664620000000001    0.1334900000000000    0.4820400000000000 C
   0.7476200000000001    0.1692800000000000    0.5211000000000000 C
   0.7411940000000001    0.2267200000000000    0.3371200000000000 C
   0.7659780000000000    0.2011033333333333    0.1821800000000000 C
   0.8643860000000001    0.2872933333333333    0.1157600000000000 C
   0.8626660000000000    0.2363700000000000    0.1837100000000000 C
   0.8583740000000001    0.2237100000000000    0.2944900000000000 C
   0.8661120000000000    0.1532733333333333    0.2045800000000000 C
   0.8689420000000001    0.1153800000000000    0.1575800000000000 C
   0.8660880000000001    0.2011466666666666    0.1382500000000000 C
   0.8648980000000001    0.1172233333333333    0.5537100000000000 C
   0.8627740000000000    0.1407800000000000    0.3156900000000000 C
   0.8279300000000001    0.1895333333333333    0.6269400000000001 C
   0.8403980000000001    0.1427533333333333    0.7008200000000000 C
   0.8581080000000001    0.1759733333333333    0.3624000000000000 C
   0.8335280000000000    0.1998066666666666    0.5180200000000000 C
   0.8523680000000000    0.1640133333333333    0.4789600000000000 C
   0.8587980000000001    0.1065766666666667    0.6629400000000000 C
   0.8340180000000000    0.1321933333333333    0.8178800000000001 C
   0.9356080000000000    0.0460100000000000    0.8843299999999999 C
   0.9373080000000000    0.0969366666666667    0.8163500000000000 C
   0.9416140000000001    0.1095900000000000    0.7055700000000000 C
   0.9338660000000001    0.1800333333333333    0.7954700000000000 C
   0.9310580000000001    0.2179300000000000    0.8424500000000000 C
   0.9339040000000001    0.1321600000000000    0.8618100000000000 C
   0.9350940000000001    0.2160733333333333    0.4463500000000000 C
   0.9372220000000000    0.1925200000000000    0.6843600000000000 C
   0.9720600000000000    0.1437633333333333    0.3731200000000000 C
   0.9595980000000001    0.1905433333333333    0.2992400000000000 C
   0.9418680000000000    0.1573266666666667    0.6376600000000000 C
   0.9664620000000000    0.1334900000000000    0.4820400000000000 C
   0.9476200000000000    0.1692800000000000    0.5211000000000000 C
   0.9411940000000001    0.2267200000000000    0.3371200000000000 C
   0.9659780000000000    0.2011033333333333    0.1821800000000000 C
   0.0643860000000000    0.6206266666666667    0.1157600000000000 C
   0.0626660000000000    0.5697033333333333    0.1837100000000000 C
   0.0583740000000000    0.5570433333333333    0.2944900000000000 C
   0.0661120000000000    0.4866066666666666    0.2045800000000000 C
   0.0689420000000000    0.4487133333333333    0.1575800000000000 C
   0.0660880000000000    0.5344800000000000    0.1382500000000000 C
   0.0648980000000000    0.4505566666666666    0.5537100000000000 C
   0.0627740000000000    0.4741133333333333    0.3156900000000000 C
   0.0279300000000000    0.5228666666666666    0.6269400000000001 C
   0.0403980000000000    0.4760866666666667    0.7008200000000000 C
   0.0581080000000000    0.5093066666666666    0.3624000000000000 C
   0.0335280000000000    0.5331399999999999    0.5180200000000000 C
   0.0523680000000000    0.4973466666666666    0.4789600000000000 C
   0.0587980000000000    0.4399100000000000    0.6629400000000000 C
   0.0340180000000000    0.4655266666666666    0.8178800000000001 C
   0.1356080000000000    0.3793433333333333    0.8843299999999999 C
   0.1373080000000000    0.4302700000000000    0.8163500000000000 C
   0.1416140000000000    0.4429233333333333    0.7055700000000000 C
   0.1338660000000000    0.5133666666666666    0.7954700000000000 C
   0.1310580000000000    0.5512633333333333    0.8424500000000000 C
   0.1339040000000000    0.4654933333333333    0.8618100000000000 C
   0.1350940000000000    0.5494066666666666    0.4463500000000000 C
   0.1372220000000000    0.5258533333333333    0.6843600000000000 C
   0.1720600000000000    0.4770966666666666    0.3731200000000000 C
   0.1595980000000000    0.5238766666666667    0.2992400000000000 C
   0.1418680000000000    0.4906600000000000    0.6376600000000000 C
   0.1664620000000000    0.4668233333333333    0.4820400000000000 C
   0.1476200000000000    0.5026133333333334    0.5211000000000000 C
   0.1411940000000000    0.5600533333333333    0.3371200000000000 C
   0.1659780000000000    0.5344366666666667    0.1821800000000000 C
   0.2643860000000000    0.6206266666666667    0.1157600000000000 C
   0.2626660000000000    0.5697033333333333    0.1837100000000000 C
   0.2583740000000000    0.5570433333333333    0.2944900000000000 C
   0.2661120000000000    0.4866066666666666    0.2045800000000000 C
   0.2689420000000000    0.4487133333333333    0.1575800000000000 C
   0.2660880000000000    0.5344800000000000    0.1382500000000000 C
   0.2648980000000000    0.4505566666666666    0.5537100000000000 C
   0.2627740000000000    0.4741133333333333    0.3156900000000000 C
   0.2279300000000000    0.5228666666666666    0.6269400000000001 C
   0.2403980000000000    0.4760866666666667    0.7008200000000000 C
   0.2581080000000000    0.5093066666666666    0.3624000000000000 C
   0.2335280000000000    0.5331399999999999    0.5180200000000000 C
   0.2523680000000000    0.4973466666666666    0.4789600000000000 C
   0.2587980000000000    0.4399100000000000    0.6629400000000000 C
   0.2340180000000000    0.4655266666666666    0.8178800000000001 C
   0.3356080000000000    0.3793433333333333    0.8843299999999999 C
   0.3373080000000001    0.4302700000000000    0.8163500000000000 C
   0.3416140000000000    0.4429233333333333    0.7055700000000000 C
   0.3338660000000000    0.5133666666666666    0.7954700000000000 C
   0.3310580000000000    0.5512633333333333    0.8424500000000000 C
   0.3339040000000000    0.4654933333333333    0.8618100000000000 C
   0.3350940000000000    0.5494066666666666    0.4463500000000000 C
   0.3372220000000000    0.5258533333333333    0.6843600000000000 C