Cd24 H111 C218 N77 O78
1.0
  12.9839872366674420    0.0000000000000000    0.9541679296942297
  13.2137539249985281   36.4241684288311021    2.8691933496593998
   0.0000000000000000    0.0000000000000000   21.1170000000000009
Cd H C N O
24 111 218 77 78
direct
   0.5584400000000000    0.8563200000000000    0.5880000000000000 Cd
   0.9283600000000000    0.9788233333333333    0.8187700000000000 Cd
   0.4416000000000000    0.1436700000000000    0.4119600000000000 Cd
   0.0716700000000000    0.0211700000000000    0.1812100000000000 Cd
   0.5584400000000000    0.5229866666666667    0.5880000000000000 Cd
   0.9283600000000000    0.6454899999999999    0.8187700000000000 Cd
   0.4416000000000000    0.8103366666666666    0.4119600000000000 Cd
   0.0716700000000000    0.6878366666666667    0.1812100000000000 Cd
   0.5584400000000000    0.1896533333333333    0.5880000000000000 Cd
   0.9283600000000000    0.3121566666666666    0.8187700000000000 Cd
   0.4416000000000000    0.4770033333333333    0.4119600000000000 Cd
   0.0716700000000000    0.3545033333333333    0.1812100000000000 Cd
   0.5683400000000000    0.8530199999999999    0.0879800000000000 Cd
   0.9372200000000001    0.9758533333333332    0.3180000000000000 Cd
   0.4317000000000000    0.1469766666666666    0.9119900000000000 Cd
   0.0628200000000000    0.0241366666666667    0.6810800000000000 Cd
   0.5683400000000000    0.1863533333333333    0.0879800000000000 Cd
   0.9372200000000001    0.3091866666666667    0.3180000000000000 Cd
   0.4317000000000000    0.4803100000000000    0.9119900000000000 Cd
   0.0628200000000000    0.3574700000000000    0.6810800000000000 Cd
   0.5683400000000000    0.5196866666666666    0.0879800000000000 Cd
   0.9372200000000001    0.6425200000000000    0.3180000000000000 Cd
   0.4317000000000000    0.8136433333333333    0.9119900000000000 Cd
   0.0628200000000000    0.6908033333333333    0.6810800000000000 Cd
   0.1136000000000000    0.8945000000000000    0.2406000000000000 H
   0.1042800000000000    0.9402800000000000    0.4140300000000000 H
   0.2837200000000000    0.8414466666666667    0.2715500000000000 H
   0.2977700000000000    0.9685633333333332    0.7550600000000000 H
   0.1433500000000000    0.9558700000000000    0.5973300000000000 H
   0.4646900000000000    0.9133000000000000    0.7252200000000000 H
   0.9324300000000000    0.9862666666666666    0.5564100000000000 H
   0.7534400000000000    0.9244199999999999    0.4834500000000000 H
   0.7714000000000000    0.9270699999999999    0.6856400000000000 H
   0.8864500000000000    0.1054933333333333    0.7593000000000000 H
   0.8957600000000000    0.0597100000000000    0.5859500000000000 H
   0.7163300000000000    0.1585466666666667    0.7284000000000000 H
   0.7022600000000000    0.0314233333333333    0.2449200000000000 H
   0.8566900000000000    0.0441200000000000    0.4026400000000000 H
   0.5353500000000000    0.0866833333333333    0.2747600000000000 H
   0.0676100000000000    0.0137266666666667    0.4435700000000000 H
   0.2466000000000000    0.0755733333333333    0.5165300000000000 H
   0.2286300000000000    0.0729233333333333    0.3143400000000000 H
   0.1136000000000000    0.5611666666666666    0.2406000000000000 H
   0.1042800000000000    0.6069466666666666    0.4140300000000000 H
   0.2837200000000000    0.5081133333333333    0.2715500000000000 H
   0.2977700000000000    0.6352300000000000    0.7550600000000000 H
   0.1433500000000000    0.6225366666666666    0.5973300000000000 H
   0.4646900000000000    0.5799666666666666    0.7252200000000000 H
   0.9324300000000000    0.6529333333333334    0.5564100000000000 H
   0.7534400000000000    0.5910866666666665    0.4834500000000000 H
   0.7714000000000000    0.5937366666666666    0.6856400000000000 H
   0.8864500000000000    0.7721600000000000    0.7593000000000000 H
   0.8957600000000000    0.7263766666666667    0.5859500000000000 H
   0.7163300000000000    0.8252133333333334    0.7284000000000000 H
   0.7022600000000000    0.6980900000000000    0.2449200000000000 H
   0.8566900000000000    0.7107866666666667    0.4026400000000000 H
   0.5353500000000000    0.7533500000000000    0.2747600000000000 H
   0.0676100000000000    0.6803933333333333    0.4435700000000000 H
   0.2466000000000000    0.7422400000000000    0.5165300000000000 H
   0.2286300000000000    0.7395900000000000    0.3143400000000000 H
   0.1136000000000000    0.2278333333333333    0.2406000000000000 H
   0.1042800000000000    0.2736133333333333    0.4140300000000000 H
   0.2837200000000000    0.1747800000000000    0.2715500000000000 H
   0.2977700000000000    0.3018966666666666    0.7550600000000000 H
   0.1433500000000000    0.2892033333333333    0.5973300000000000 H
   0.4646900000000000    0.2466333333333333    0.7252200000000000 H
   0.9324300000000000    0.3196000000000000    0.5564100000000000 H
   0.7534400000000000    0.2577533333333333    0.4834500000000000 H
   0.7714000000000000    0.2604033333333333    0.6856400000000000 H
   0.8675043125702974    0.4144723676143613    0.6333329838521843 H
   0.8635684140719156    0.4329492442990103    0.7030557984337613 H
   0.7467345140646702    0.4514246511231972    0.6126967586301452 H
   0.7264812203916905    0.4720145702336532    0.6897343089465130 H
   0.6029174536819989    0.4449292207231798    0.4590270941410188 H
   0.6641914386618361    0.4426979457788709    0.4538650626464723 H
   0.6890644803314162    0.4525981160580981    0.5361548818080546 H
   0.6694225017383248    0.4206463567892805    0.3799958976655861 H
   0.7872317421914790    0.3825931583694073    0.3588231820837680 H
   0.0676100000000000    0.3470600000000000    0.4435700000000000 H
   0.2466000000000000    0.4089066666666666    0.5165300000000000 H
   0.2286300000000000    0.4062566666666667    0.3143400000000000 H
   0.6847100000000000    0.0378233333333333    0.7403300000000000 H
   0.8212200000000000    0.0347366666666667    0.9138400000000000 H
   0.5250800000000000    0.0943333333333333    0.7717200000000000 H
   0.9053200000000000    0.0996166666666667    0.2547300000000000 H
   0.8678399999999999    0.0476300000000000    0.0972800000000000 H
   0.7390200000000000    0.1552133333333333    0.2252500000000000 H
   0.9596900000000000    0.9771266666666666    0.0564000000000000 H
   0.7732200000000000    0.9178100000000000    0.9833800000000000 H
   0.7824000000000000    0.9233899999999999    0.1855900000000000 H
   0.3153300000000000    0.9621733333333333    0.2596000000000000 H
   0.1788100000000000    0.9652566666666667    0.0861400000000000 H
   0.4749500000000000    0.9056599999999999    0.2282000000000000 H
   0.0946900000000000    0.9003733333333332    0.7452500000000000 H
   0.1321800000000000    0.9523633333333332    0.9026999999999999 H
   0.2610000000000000    0.8447766666666666    0.7747300000000000 H
   0.0403400000000000    0.0228666666666667    0.9435800000000000 H
   0.2176400000000000    0.0765966666666667    0.8143800000000000 H
   0.2268100000000000    0.0821866666666667    0.0166000000000000 H
   0.6847100000000000    0.3711566666666666    0.7403300000000000 H
   0.8212200000000000    0.3680700000000000    0.9138400000000000 H
   0.5250800000000000    0.4276666666666666    0.7717200000000000 H
   0.9053200000000000    0.4329499999999999    0.2547300000000000 H
   0.8678399999999999    0.3809633333333333    0.0972800000000000 H
   0.7390200000000000    0.4885466666666666    0.2252500000000000 H
   0.9596900000000000    0.3104600000000000    0.0564000000000000 H
   0.7732200000000000    0.2511433333333333    0.9833800000000000 H
   0.7824000000000000    0.2567233333333333    0.1855900000000000 H
   0.3153300000000000    0.2955066666666666    0.2596000000000000 H
   0.1788100000000000    0.2985900000000000    0.0861400000000000 H
   0.4749500000000000    0.2389933333333333    0.2282000000000000 H
   0.0946900000000000    0.2337066666666666    0.7452500000000000 H
   0.1321800000000000    0.2856966666666667    0.9026999999999999 H
   0.2610000000000000    0.1781100000000000    0.7747300000000000 H
   0.0403400000000000    0.3562000000000000    0.9435800000000000 H
   0.2176400000000000    0.4099300000000000    0.8143800000000000 H
   0.2268100000000000    0.4155200000000000    0.0166000000000000 H
   0.6847100000000000    0.7044899999999999    0.7403300000000000 H
   0.8212200000000000    0.7014033333333333    0.9138400000000000 H
   0.5250800000000000    0.7609999999999999    0.7717200000000000 H
   0.9053200000000000    0.7662833333333333    0.2547300000000000 H
   0.8678399999999999    0.7142966666666666    0.0972800000000000 H
   0.7390200000000000    0.8218799999999999    0.2252500000000000 H
   0.9596900000000000    0.6437933333333332    0.0564000000000000 H
   0.7732200000000000    0.5844766666666666    0.9833800000000000 H
   0.7824000000000000    0.5900566666666667    0.1855900000000000 H
   0.3153300000000000    0.6288400000000000    0.2596000000000000 H
   0.1788100000000000    0.6319233333333333    0.0861400000000000 H
   0.4749500000000000    0.5723266666666667    0.2282000000000000 H
   0.0946900000000000    0.5670400000000000    0.7452500000000000 H
   0.1321800000000000    0.6190300000000000    0.9026999999999999 H
   0.2610000000000000    0.5114433333333332    0.7747300000000000 H
   0.0403400000000000    0.6895333333333333    0.9435800000000000 H
   0.2176400000000000    0.7432633333333333    0.8143800000000000 H
   0.2268100000000000    0.7488533333333333    0.0166000000000000 H
   0.1501000000000000    0.8929066666666666    0.2860400000000000 C
   0.1443100000000000    0.9183800000000000    0.3816400000000000 C
   0.2446100000000000    0.8640266666666666    0.3026400000000000 C
   0.2391500000000000    0.8893700000000000    0.3983200000000000 C
   0.3119600000000000    0.8988266666666667    0.5506700000000000 C
   0.2844700000000000    0.8878433333333333    0.4595900000000000 C
   0.3001200000000000    0.9526366666666666    0.7142500000000001 C
   0.2135100000000000    0.9458700000000000    0.6272799999999999 C
   0.3913200000000000    0.9223800000000000    0.6978000000000000 C
   0.3062100000000000    0.9160499999999999    0.6100400000000000 C
   0.8945000000000000    0.9707600000000000    0.6835800000000000 C
   0.8796800000000000    0.9647800000000000    0.4458500000000000 C
   0.6822900000000000    0.9001766666666666    0.5950800000000001 C
   0.8824900000000000    0.9687366666666666    0.5648900000000000 C
   0.7816300000000000    0.9339066666666667    0.5238100000000000 C
   0.8469600000000000    0.9559599999999999    0.5130900000000000 C
   0.7914400000000000    0.9354699999999999    0.6373000000000000 C
   0.7528500000000000    0.9237566666666666    0.5857500000000000 C
   0.8554400000000000    0.9582066666666667    0.6271500000000000 C
   0.8499400000000000    0.1070866666666667    0.7139300000000000 C
   0.8557399999999999    0.0816100000000000    0.6183300000000000 C
   0.7554300000000000    0.1359666666666667    0.6973000000000000 C
   0.7609000000000000    0.1106200000000000    0.6016500000000000 C
   0.6880800000000000    0.1011633333333333    0.4493000000000000 C
   0.7155700000000000    0.1121466666666667    0.5403800000000000 C
   0.6999200000000000    0.0473500000000000    0.2857300000000000 C
   0.7865300000000000    0.0541166666666667    0.3727000000000000 C
   0.6087100000000000    0.0776066666666667    0.3021000000000000 C
   0.6938299999999999    0.0839366666666667    0.3899400000000000 C
   0.1055400000000000    0.0292333333333333    0.3164000000000000 C
   0.1203600000000000    0.0352100000000000    0.5541300000000000 C
   0.3177400000000000    0.0998166666666667    0.4048900000000000 C
   0.1175500000000000    0.0312533333333333    0.4350900000000000 C
   0.2184100000000000    0.0660833333333333    0.4761700000000000 C
   0.1530800000000000    0.0440333333333333    0.4868900000000000 C
   0.2085900000000000    0.0645233333333333    0.3626400000000000 C
   0.2471900000000000    0.0762400000000000    0.4142300000000000 C
   0.1445900000000000    0.0417900000000000    0.3728200000000000 C
   0.1501000000000000    0.5595733333333333    0.2860400000000000 C
   0.1443100000000000    0.5850466666666667    0.3816400000000000 C
   0.2446100000000000    0.5306933333333334    0.3026400000000000 C
   0.2391500000000000    0.5560366666666666    0.3983200000000000 C
   0.3119600000000000    0.5654933333333333    0.5506700000000000 C
   0.2844700000000000    0.5545099999999999    0.4595900000000000 C
   0.3001200000000000    0.6193033333333333    0.7142500000000001 C
   0.2135100000000000    0.6125366666666666    0.6272799999999999 C
   0.3913200000000000    0.5890466666666667    0.6978000000000000 C
   0.3062100000000000    0.5827166666666667    0.6100400000000000 C
   0.8945000000000000    0.6374266666666666    0.6835800000000000 C
   0.8796800000000000    0.6314466666666667    0.4458500000000000 C
   0.6822900000000000    0.5668433333333334    0.5950800000000001 C
   0.8824900000000000    0.6354033333333333    0.5648900000000000 C
   0.7816300000000000    0.6005733333333333    0.5238100000000000 C
   0.8469600000000000    0.6226266666666667    0.5130900000000000 C
   0.7914400000000000    0.6021366666666665    0.6373000000000000 C
   0.7528500000000000    0.5904233333333333    0.5857500000000000 C
   0.8554400000000000    0.6248733333333333    0.6271500000000000 C
   0.8499400000000000    0.7737533333333333    0.7139300000000000 C
   0.8557399999999999    0.7482766666666666    0.6183300000000000 C
   0.7554300000000000    0.8026333333333333    0.6973000000000000 C
   0.7609000000000000    0.7772866666666667    0.6016500000000000 C
   0.6880800000000000    0.7678300000000000    0.4493000000000000 C
   0.7155700000000000    0.7788133333333334    0.5403800000000000 C
   0.6999200000000000    0.7140166666666666    0.2857300000000000 C
   0.7865300000000000    0.7207833333333333    0.3727000000000000 C
   0.6087100000000000    0.7442733333333333    0.3021000000000000 C
   0.6938299999999999    0.7506033333333333    0.3899400000000000 C
   0.1055400000000000    0.6959000000000000    0.3164000000000000 C
   0.1203600000000000    0.7018766666666666    0.5541300000000000 C
   0.3177400000000000    0.7664833333333333    0.4048900000000000 C
   0.1175500000000000    0.6979200000000000    0.4350900000000000 C
   0.2184100000000000    0.7327500000000000    0.4761700000000000 C
   0.1530800000000000    0.7107000000000000    0.4868900000000000 C
   0.2085900000000000    0.7311900000000000    0.3626400000000000 C
   0.2471900000000000    0.7429066666666666    0.4142300000000000 C
   0.1445900000000000    0.7084566666666666    0.3728200000000000 C
   0.1501000000000000    0.2262400000000000    0.2860400000000000 C
   0.1443100000000000    0.2517133333333333    0.3816400000000000 C
   0.2446100000000000    0.1973600000000000    0.3026400000000000 C
   0.2391500000000000    0.2227033333333333    0.3983200000000000 C
   0.3119600000000000    0.2321600000000000    0.5506700000000000 C
   0.2844700000000000    0.2211766666666666    0.4595900000000000 C
   0.3001200000000000    0.2859699999999999    0.7142500000000001 C
   0.2135100000000000    0.2792033333333333    0.6272799999999999 C
   0.3913200000000000    0.2557133333333333    0.6978000000000000 C
   0.3062100000000000    0.2493833333333333    0.6100400000000000 C
   0.8945000000000000    0.3040933333333333    0.6835800000000000 C
   0.8796800000000000    0.2981133333333333    0.4458500000000000 C
   0.6822900000000000    0.2335100000000000    0.5950800000000001 C
   0.8824900000000000    0.3020699999999999    0.5648900000000000 C
   0.7816300000000000    0.2672400000000000    0.5238100000000000 C
   0.8469600000000000    0.2892933333333333    0.5130900000000000 C
   0.7914400000000000    0.2688033333333333    0.6373000000000000 C
   0.7528500000000000    0.2570900000000000    0.5857500000000000 C
   0.8554400000000000    0.2915400000000000    0.6271500000000000 C
   0.1055400000000000    0.3625666666666666    0.3164000000000000 C
   0.1203600000000000    0.3685433333333333    0.5541300000000000 C
   0.3177400000000000    0.4331500000000000    0.4048900000000000 C
   0.1175500000000000    0.3645866666666666    0.4350900000000000 C
   0.2184100000000000    0.3994166666666666    0.4761700000000000 C
   0.1530800000000000    0.3773666666666666    0.4868900000000000 C
   0.2085900000000000    0.3978566666666666    0.3626400000000000 C
   0.2471900000000000    0.4095733333333333    0.4142300000000000 C
   0.1445900000000000    0.3751233333333333    0.3728200000000000 C
   0.6796200000000000    0.0499400000000000    0.7859000000000000 C
   0.7555700000000000    0.0480166666666667    0.8815400000000000 C
   0.5926700000000000    0.0813400000000000    0.8027500000000000 C
   0.6681800000000000    0.0795066666666667    0.8985100000000000 C
   0.6959900000000000    0.1037700000000000    0.0510300000000000 C
   0.6632100000000000    0.0945633333333333    0.9599299999999999 C
   0.8575300000000000    0.1002733333333333    0.2140900000000000 C
   0.8375700000000000    0.0711100000000000    0.1272400000000000 C
   0.7664900000000000    0.1306333333333333    0.1979100000000000 C
   0.7477500000000000    0.1019733333333333    0.1102400000000000 C
   0.9138800000000000    0.9642233333333332    0.1836100000000000 C
   0.8947400000000000    0.9597733333333333    0.9458100000000000 C
   0.7005200000000000    0.8940733333333333    0.0950500000000000 C
   0.9070500000000000    0.9605033333333333    0.0648000000000000 C
   0.8019800000000000    0.9270966666666667    0.0237600000000000 C
   0.8683300000000000    0.9488033333333332    0.0130500000000000 C
   0.8073700000000000    0.9301299999999999    0.1372900000000000 C
   0.7716600000000000    0.9174533333333332    0.0857000000000000 C
   0.8758200000000000    0.9513733333333333    0.1271300000000000 C
   0.3204100000000000    0.9500533333333333    0.2140700000000000 C
   0.2444600000000000    0.9519766666666666    0.1184400000000000 C
   0.4073600000000000    0.9186533333333333    0.1972200000000000 C
   0.3318500000000000    0.9204866666666667    0.1014600000000000 C
   0.3040400000000000    0.8962233333333333    0.9489500000000000 C
   0.3368200000000000    0.9054300000000000    0.0400500000000000 C
   0.1424900000000000    0.8997166666666666    0.7858900000000000 C
   0.1624500000000000    0.9288799999999999    0.8727000000000000 C
   0.2335300000000000    0.8693566666666666    0.8020699999999999 C
   0.2522700000000000    0.8980199999999999    0.8897400000000000 C
   0.0861600000000000    0.0357633333333333    0.8163600000000000 C
   0.1053000000000000    0.0402166666666667    0.0541000000000000 C
   0.2995200000000000    0.1059166666666667    0.9049199999999999 C
   0.0929800000000000    0.0394900000000000    0.9351100000000000 C
   0.1926600000000000    0.0698633333333333    0.8626000000000000 C
   0.1980500000000000    0.0729000000000000    0.9762200000000000 C
   0.1316900000000000    0.0511966666666667    0.9869200000000000 C
   0.2283700000000000    0.0825433333333333    0.9142800000000000 C
   0.1242200000000000    0.0486200000000000    0.8728000000000000 C
   0.6796200000000000    0.3832733333333333    0.7859000000000000 C
   0.7555700000000000    0.3813500000000000    0.8815400000000000 C
   0.5926700000000000    0.4146733333333333    0.8027500000000000 C
   0.6681800000000000    0.4128400000000000    0.8985100000000000 C
   0.6959900000000000    0.4371033333333333    0.0510300000000000 C
   0.6632100000000000    0.4278966666666666    0.9599299999999999 C
   0.8575300000000000    0.4336066666666666    0.2140900000000000 C
   0.8375700000000000    0.4044433333333333    0.1272400000000000 C
   0.7664900000000000    0.4639666666666666    0.1979100000000000 C
   0.7477500000000000    0.4353066666666666    0.1102400000000000 C
   0.9138800000000000    0.2975566666666666    0.1836100000000000 C
   0.8947400000000000    0.2931066666666666    0.9458100000000000 C
   0.7005200000000000    0.2274066666666667    0.0950500000000000 C
   0.9070500000000000    0.2938366666666666    0.0648000000000000 C
   0.8019800000000000    0.2604300000000000    0.0237600000000000 C
   0.8683300000000000    0.2821366666666666    0.0130500000000000 C
   0.8073700000000000    0.2634633333333333    0.1372900000000000 C
   0.7716600000000000    0.2507866666666667    0.0857000000000000 C
   0.8758200000000000    0.2847066666666667    0.1271300000000000 C
   0.3204100000000000    0.2833866666666667    0.2140700000000000 C
   0.2444600000000000    0.2853100000000000    0.1184400000000000 C
   0.4073600000000000    0.2519866666666666    0.1972200000000000 C
   0.3318500000000000    0.2538200000000000    0.1014600000000000 C
   0.3040400000000000    0.2295566666666667    0.9489500000000000 C
   0.3368200000000000    0.2387633333333333    0.0400500000000000 C
   0.1424900000000000    0.2330500000000000    0.7858900000000000 C
   0.1624500000000000    0.2622133333333333    0.8727000000000000 C
   0.2335300000000000    0.2026900000000000    0.8020699999999999 C
   0.2522700000000000    0.2313533333333333    0.8897400000000000 C
   0.0861600000000000    0.3690966666666666    0.8163600000000000 C
   0.1053000000000000    0.3735500000000000    0.0541000000000000 C
   0.2995200000000000    0.4392500000000000    0.9049199999999999 C
   0.0929800000000000    0.3728233333333333    0.9351100000000000 C
   0.1926600000000000    0.4031966666666666    0.8626000000000000 C
   0.1980500000000000    0.4062333333333333    0.9762200000000000 C
   0.1316900000000000    0.3845300000000000    0.9869200000000000 C
   0.2283700000000000    0.4158766666666667    0.9142800000000000 C
   0.1242200000000000    0.3819533333333333    0.8728000000000000 C
   0.6796200000000000    0.7166066666666666    0.7859000000000000 C
   0.7555700000000000    0.7146833333333333    0.8815400000000000 C
   0.5926700000000000    0.7480066666666666    0.8027500000000000 C
   0.6681800000000000    0.7461733333333334    0.8985100000000000 C
   0.6959900000000000    0.7704366666666667    0.0510300000000000 C
   0.6632100000000000    0.7612300000000000    0.9599299999999999 C
   0.8575300000000000    0.7669400000000000    0.2140900000000000 C
   0.8375700000000000    0.7377766666666666    0.1272400000000000 C
   0.7664900000000000    0.7972999999999999    0.1979100000000000 C
   0.7477500000000000    0.7686400000000000    0.1102400000000000 C
   0.9138800000000000    0.6308900000000000    0.1836100000000000 C
   0.8947400000000000    0.6264399999999999    0.9458100000000000 C
   0.7005200000000000    0.5607400000000000    0.0950500000000000 C
   0.9070500000000000    0.6271700000000000    0.0648000000000000 C
   0.8019800000000000    0.5937633333333333    0.0237600000000000 C
   0.8683300000000000    0.6154700000000000    0.0130500000000000 C
   0.8073700000000000    0.5967966666666666    0.1372900000000000 C
   0.7716600000000000    0.5841200000000000    0.0857000000000000 C
   0.8758200000000000    0.6180399999999999    0.1271300000000000 C
   0.3204100000000000    0.6167199999999999    0.2140700000000000 C
   0.2444600000000000    0.6186433333333332    0.1184400000000000 C
   0.4073600000000000    0.5853200000000000    0.1972200000000000 C
   0.3318500000000000    0.5871533333333333    0.1014600000000000 C
   0.3040400000000000    0.5628900000000000    0.9489500000000000 C
   0.3368200000000000    0.5720966666666667    0.0400500000000000 C
   0.1424900000000000    0.5663833333333333    0.7858900000000000 C
   0.1624500000000000    0.5955466666666667    0.8727000000000000 C
   0.2335300000000000    0.5360233333333333    0.8020699999999999 C
   0.2522700000000000    0.5646866666666667    0.8897400000000000 C
   0.0861600000000000    0.7024300000000000    0.8163600000000000 C
   0.1053000000000000    0.7068833333333333    0.0541000000000000 C
   0.2995200000000000    0.7725833333333333    0.9049199999999999 C
   0.0929800000000000    0.7061566666666667    0.9351100000000000 C
   0.1926600000000000    0.7365299999999999    0.8626000000000000 C
   0.1980500000000000    0.7395666666666666    0.9762200000000000 C
   0.1316900000000000    0.7178633333333333    0.9869200000000000 C
   0.2283700000000000    0.7492099999999999    0.9142800000000000 C
   0.1242200000000000    0.7152866666666666    0.8728000000000000 C
   0.1004300000000000    0.9201366666666666    0.3256900000000000 N
   0.2904200000000000    0.8623266666666666    0.3583000000000000 N
   0.2379900000000000    0.9115133333333333    0.5056000000000000 N
   0.3806400000000000    0.8620166666666667    0.4749200000000000 N
   0.3984600000000000    0.8691300000000000    0.5341399999999999 N
   0.2108800000000000    0.9640033333333333    0.6790800000000000 N
   0.3946100000000000    0.9038200000000000    0.6460600000000000 N
   0.8996200000000000    0.0798533333333333    0.6742899999999999 N
   0.7096200000000000    0.1376666666666667    0.6416400000000000 N
   0.7620600000000000    0.0884733333333333    0.4943800000000000 N
   0.6194000000000000    0.1379733333333333    0.5250500000000000 N
   0.6015800000000000    0.1308600000000000    0.4658300000000000 N
   0.7891500000000000    0.0359833333333333    0.3208900000000000 N
   0.6054200000000000    0.0961666666666667    0.3539200000000000 N
   0.1004300000000000    0.5868033333333333    0.3256900000000000 N
   0.2904200000000000    0.5289933333333333    0.3583000000000000 N
   0.2379900000000000    0.5781799999999999    0.5056000000000000 N
   0.3806400000000000    0.5286833333333333    0.4749200000000000 N
   0.3984600000000000    0.5357966666666667    0.5341399999999999 N
   0.2108800000000000    0.6306700000000000    0.6790800000000000 N
   0.3946100000000000    0.5704866666666666    0.6460600000000000 N
   0.8996200000000000    0.7465200000000000    0.6742899999999999 N
   0.7096200000000000    0.8043333333333333    0.6416400000000000 N
   0.7620600000000000    0.7551399999999999    0.4943800000000000 N
   0.6194000000000000    0.8046400000000000    0.5250500000000000 N
   0.6015800000000000    0.7975266666666666    0.4658300000000000 N
   0.7891500000000000    0.7026500000000000    0.3208900000000000 N
   0.6054200000000000    0.7628333333333333    0.3539200000000000 N
   0.1004300000000000    0.2534700000000000    0.3256900000000000 N
   0.2904200000000000    0.1956600000000000    0.3583000000000000 N
   0.2379900000000000    0.2448466666666667    0.5056000000000000 N
   0.3806400000000000    0.1953500000000000    0.4749200000000000 N
   0.3984600000000000    0.2024633333333333    0.5341399999999999 N
   0.2108800000000000    0.2973366666666666    0.6790800000000000 N
   0.3946100000000000    0.2371533333333333    0.6460600000000000 N
   0.7612400000000000    0.0334333333333333    0.8254000000000000 N
   0.5871300000000000    0.0965566666666667    0.8586200000000000 N
   0.7343300000000000    0.0791133333333333    0.0058100000000000 N
   0.5853800000000000    0.1265733333333333    0.9755000000000000 N
   0.6066000000000000    0.1325533333333333    0.0347300000000000 N
   0.8919300000000000    0.0704066666666667    0.1788800000000000 N
   0.7108200000000000    0.1315600000000000    0.1460000000000000 N
   0.2387900000000000    0.9665633333333332    0.1745400000000000 N
   0.4129000000000000    0.9034366666666667    0.1413600000000000 N
   0.2657000000000000    0.9208766666666666    0.9941700000000000 N
   0.4146500000000000    0.8734200000000000    0.0244800000000000 N
   0.3934300000000000    0.8674400000000000    0.9651999999999999 N
   0.1080900000000000    0.9295833333333332    0.8211000000000001 N
   0.2892000000000000    0.8684333333333333    0.8536800000000000 N
   0.7612400000000000    0.3667666666666666    0.8254000000000000 N
   0.5871300000000000    0.4298900000000000    0.8586200000000000 N
   0.7343300000000000    0.4124466666666666    0.0058100000000000 N
   0.5853800000000000    0.4599066666666666    0.9755000000000000 N
   0.6066000000000000    0.4658866666666667    0.0347300000000000 N
   0.8919300000000000    0.4037400000000000    0.1788800000000000 N
   0.7108200000000000    0.4648933333333333    0.1460000000000000 N
   0.2387900000000000    0.2998966666666666    0.1745400000000000 N
   0.4129000000000000    0.2367700000000000    0.1413600000000000 N
   0.2657000000000000    0.2542100000000000    0.9941700000000000 N
   0.4146500000000000    0.2067533333333333    0.0244800000000000 N
   0.3934300000000000    0.2007733333333333    0.9651999999999999 N
   0.1080900000000000    0.2629166666666666    0.8211000000000001 N
   0.2892000000000000    0.2017666666666666    0.8536800000000000 N
   0.7612400000000000    0.7000999999999999    0.8254000000000000 N
   0.5871300000000000    0.7632233333333333    0.8586200000000000 N
   0.7343300000000000    0.7457800000000000    0.0058100000000000 N
   0.5853800000000000    0.7932399999999999    0.9755000000000000 N
   0.6066000000000000    0.7992199999999999    0.0347300000000000 N
   0.8919300000000000    0.7370733333333332    0.1788800000000000 N
   0.7108200000000000    0.7982266666666666    0.1460000000000000 N
   0.2387900000000000    0.6332300000000000    0.1745400000000000 N
   0.4129000000000000    0.5701033333333333    0.1413600000000000 N
   0.2657000000000000    0.5875433333333333    0.9941700000000000 N
   0.4146500000000000    0.5400866666666666    0.0244800000000000 N
   0.3934300000000000    0.5341066666666666    0.9651999999999999 N
   0.1080900000000000    0.5962499999999999    0.8211000000000001 N
   0.2892000000000000    0.5350999999999999    0.8536800000000000 N
   0.9195000000000000    0.9997766666666666    0.6778000000000000 O
   0.8976300000000000    0.9513833333333332    0.7357300000000000 O
   0.9425300000000000    0.9837600000000000    0.4356000000000000 O
   0.8447700000000000    0.9522966666666666    0.4006200000000000 O
   0.6534799999999999    0.8904333333333333    0.6502400000000000 O
   0.6532700000000000    0.8904833333333333    0.5439800000000000 O
   0.0805300000000000    0.0002166666666667    0.3221000000000000 O