Cd16 H222 C310 N62 O65
1.0
  17.2149990534600157    0.0000000000000000   -0.0057087100792568
  -0.0425078897412841   17.3949440322249274   -0.0118403999976693
   0.0000000000000000    0.0000000000000000   36.9639999999999986
Cd H C N O
16 222 310 62 65
direct
   0.7260900000000000    0.4933000000000000    0.2610500000000000 Cd
   0.2271700000000000    0.0061300000000000    0.2390900000000000 Cd
   0.2261200000000000    0.4931700000000000    0.9889700000000000 Cd
   0.7272700000000000    0.0062800000000000    0.0106700000000000 Cd
   0.7260900000000000    0.4933000000000000    0.7610500000000000 Cd
   0.2271700000000000    0.0061300000000000    0.7390900000000000 Cd
   0.2739200000000000    0.5066900000000000    0.2388950000000000 Cd
   0.7728500000000000    0.9938700000000000    0.2609000000000000 Cd
   0.7738900000000000    0.5068200000000000    0.0110150000000000 Cd
   0.2727400000000000    0.9937000000000000    0.9893149999999999 Cd
   0.7738900000000000    0.5068200000000000    0.5110150000000000 Cd
   0.2727400000000000    0.9937000000000000    0.4893150000000000 Cd
   0.7272700000000000    0.0062800000000000    0.5106700000000000 Cd
   0.2739200000000000    0.5066900000000000    0.7388950000000000 Cd
   0.2261200000000000    0.4931700000000000    0.4889700000000000 Cd
   0.7728500000000000    0.9938700000000000    0.7609000000000000 Cd
   0.7049700000000000    0.3407300000000000    0.2012450000000000 H
   0.7985100000000001    0.4781900000000000    0.1164000000000000 H
   0.7913100000000000    0.5627500000000000    0.1801150000000000 H
   0.7484000000000000    0.1301300000000000    0.1266100000000000 H
   0.7643799999999999    0.2398000000000000    0.1690750000000000 H
   0.7148800000000000    0.2865200000000000    0.0383500000000000 H
   0.7248900000000000    0.3973200000000000    0.0805050000000000 H
   0.2986300000000000    0.0215200000000000    0.3838350000000000 H
   0.2922000000000000    0.9368700000000000    0.3201050000000000 H
   0.2056400000000000    0.1583000000000000    0.2987750000000000 H
   0.2473600000000000    0.3693200000000000    0.3729600000000000 H
   0.2643600000000000    0.2593900000000000    0.3307900000000000 H
   0.2145600000000000    0.2135100000000000    0.4615550000000000 H
   0.2250700000000000    0.1023700000000000    0.4196450000000000 H
   0.3575600000000000    0.8644100000000000    0.2565000000000000 H
   0.5261500000000000    0.9613900000000000    0.1860600000000000 H
   0.3961500000000000    0.0562200000000000    0.1892750000000000 H
   0.4985700000000000    0.6359200000000000    0.2425050000000000 H
   0.4118200000000000    0.7466900000000000    0.2309000000000000 H
   0.6977800000000000    0.7849699999999999    0.2388900000000000 H
   0.6117400000000000    0.8978500000000000    0.2294700000000000 H
   0.8570100000000000    0.6349100000000000    0.2436600000000000 H
   0.0255600000000000    0.5380900000000000    0.3139650000000000 H
   0.8952900000000000    0.4430600000000000    0.3108200000000000 H
   0.9986300000000000    0.8636900000000000    0.2578650000000000 H
   0.9116700000000000    0.7526500000000000    0.2693450000000000 H
   0.1975000000000000    0.7151300000000000    0.2612000000000000 H
   0.1112700000000000    0.6019900000000000    0.2706100000000000 H
   0.2917800000000000    0.5624900000000000    0.0700100000000000 H
   0.2988300000000000    0.4779300000000000    0.1336600000000000 H
   0.2048500000000000    0.3406600000000000    0.0487550000000000 H
   0.2484000000000000    0.1300200000000000    0.1233500000000000 H
   0.2643800000000000    0.2396000000000000    0.0809000000000000 H
   0.2147800000000000    0.2865700000000000    0.2116250000000000 H
   0.2248200000000000    0.3972900000000000    0.1694950000000000 H
   0.7056600000000000    0.1584200000000000    0.9510950000000000 H
   0.7929900000000000    0.9372600000000000    0.9296550000000000 H
   0.7991700000000000    0.0219600000000000    0.8659500000000000 H
   0.7475900000000000    0.3695700000000000    0.8770050000000000 H
   0.7645800000000000    0.2596800000000000    0.9191549999999999 H
   0.7145000000000000    0.2136200000000000    0.7883800000000001 H
   0.7251000000000000    0.1025400000000000    0.8302550000000000 H
   0.8575700000000001    0.8642400000000000    0.9934300000000000 H
   0.0261700000000000    0.9616200000000000    0.0638650000000000 H
   0.8962300000000000    0.0564800000000000    0.0605250000000000 H
   0.9985800000000000    0.6358200000000001    0.0075900000000000 H
   0.9118400000000000    0.7466400000000000    0.0191100000000000 H
   0.1977700000000000    0.7848700000000000    0.0112100000000000 H
   0.1117500000000000    0.8977900000000000    0.0205850000000000 H
   0.3570500000000000    0.6348600000000000    0.0063450000000000 H
   0.5255300000000001    0.5377600000000000    0.9360500000000000 H
   0.3952400000000000    0.4427500000000000    0.9392000000000000 H
   0.4985700000000000    0.8636800000000000    0.9918500000000000 H
   0.4116100000000000    0.7524700000000000    0.9806500000000000 H
   0.6975200000000000    0.7152200000000000    0.9885400000000000 H
   0.6113300000000000    0.6019500000000000    0.9793550000000000 H
   0.7049700000000000    0.3407300000000000    0.7012450000000000 H
   0.7985100000000001    0.4781900000000000    0.6164000000000001 H
   0.7913100000000000    0.5627500000000000    0.6801150000000000 H
   0.7484000000000000    0.1301300000000000    0.6266100000000000 H
   0.7643799999999999    0.2398000000000000    0.6690750000000000 H
   0.7148800000000000    0.2865200000000000    0.5383500000000000 H
   0.7248900000000000    0.3973200000000000    0.5805050000000000 H
   0.2986300000000000    0.0215200000000000    0.8838349999999999 H
   0.2922000000000000    0.9368700000000000    0.8201050000000000 H
   0.2056400000000000    0.1583000000000000    0.7987750000000000 H
   0.2473600000000000    0.3693200000000000    0.8729600000000000 H
   0.2643600000000000    0.2593900000000000    0.8307899999999999 H
   0.2145600000000000    0.2135100000000000    0.9615549999999999 H
   0.2250700000000000    0.1023700000000000    0.9196450000000000 H
   0.3575600000000000    0.8644100000000000    0.7565000000000000 H
   0.5261500000000000    0.9613900000000000    0.6860600000000000 H
   0.3961500000000000    0.0562200000000000    0.6892750000000000 H
   0.4985700000000000    0.6359200000000000    0.7425050000000000 H
   0.4118200000000000    0.7466900000000000    0.7309000000000000 H
   0.6977800000000000    0.7849699999999999    0.7388900000000000 H
   0.6117400000000000    0.8978500000000000    0.7294700000000001 H
   0.8570100000000000    0.6349100000000000    0.7436600000000000 H
   0.0255600000000000    0.5380900000000000    0.8139650000000000 H
   0.8952900000000000    0.4430600000000000    0.8108200000000000 H
   0.9986300000000000    0.8636900000000000    0.7578650000000000 H
   0.9116700000000000    0.7526500000000000    0.7693449999999999 H
   0.1975000000000000    0.7151300000000000    0.7612000000000000 H
   0.1112700000000000    0.6019900000000000    0.7706100000000000 H
   0.2950200000000000    0.6592600000000000    0.2987000000000000 H
   0.2086800000000000    0.4372300000000000    0.3198650000000000 H
   0.2014900000000000    0.5218000000000000    0.3835650000000000 H
   0.2516100000000000    0.8698500000000000    0.3733700000000000 H
   0.2356300000000000    0.7601900000000000    0.3309100000000000 H
   0.2851200000000000    0.7134600000000000    0.4616300000000000 H
   0.2751100000000000    0.6026600000000000    0.4194800000000000 H
   0.7943800000000000    0.8417000000000000    0.2012150000000000 H
   0.7013800000000000    0.9784800000000000    0.1161600000000000 H
   0.7078300000000000    0.0631400000000000    0.1798850000000000 H
   0.7526400000000000    0.6306700000000000    0.1270250000000000 H
   0.7356400000000000    0.7406000000000000    0.1692000000000000 H
   0.7854500000000000    0.7864900000000000    0.0384350000000000 H
   0.7749300000000000    0.8976300000000000    0.0803450000000000 H
   0.6424299999999999    0.1355700000000000    0.2434800000000000 H
   0.4738400000000000    0.0386000000000000    0.3139250000000000 H
   0.6038400000000000    0.9437600000000000    0.3107100000000000 H
   0.5014300000000000    0.3640700000000000    0.2574850000000000 H
   0.5881800000000000    0.2533000000000000    0.2690700000000000 H
   0.3022200000000000    0.2150300000000000    0.2610900000000000 H
   0.3882500000000000    0.1021400000000000    0.2705100000000000 H
   0.1430200000000000    0.3650900000000000    0.2563000000000000 H
   0.9744500000000000    0.4618900000000000    0.1860050000000000 H
   0.1047200000000000    0.5569200000000000    0.1891400000000000 H
   0.0013900000000000    0.1363200000000000    0.2421650000000000 H
   0.0883500000000000    0.2473500000000000    0.2306500000000000 H
   0.8025300000000000    0.2848800000000000    0.2387650000000000 H
   0.8887600000000000    0.3980100000000000    0.2293500000000000 H
   0.7951400000000000    0.6593300000000000    0.9512250000000000 H
   0.7082700000000000    0.4374800000000000    0.9299700000000000 H
   0.7012200000000000    0.5220399999999999    0.8663200000000000 H
   0.7852400000000000    0.7134100000000000    0.7883599999999999 H
   0.7752100000000000    0.6026899999999999    0.8304849999999999 H
   0.7515700000000000    0.8699600000000000    0.8766300000000000 H
   0.7356100000000000    0.7603700000000000    0.9190700000000001 H
   0.2943600000000000    0.8415700000000000    0.0488850000000000 H
   0.2008400000000000    0.9780100000000000    0.1339900000000000 H
   0.2070100000000000    0.0627100000000000    0.0703300000000000 H
   0.2525100000000000    0.6304100000000000    0.1229800000000000 H
   0.2355000000000000    0.7402900000000000    0.0808250000000000 H
   0.2855000000000000    0.7863700000000000    0.2116050000000000 H
   0.2748900000000000    0.8974500000000000    0.1697250000000000 H
   0.1424400000000000    0.1357500000000000    0.0065550000000000 H
   0.1037800000000000    0.9435000000000000    0.9394600000000000 H
   0.9738400000000000    0.0383600000000000    0.9361250000000000 H
   0.0014300000000000    0.3641700000000000    0.9923850000000001 H
   0.0881700000000000    0.2533500000000000    0.9808700000000000 H
   0.8022400000000000    0.2151100000000000    0.9887800000000000 H
   0.8882600000000000    0.1021900000000000    0.9794050000000001 H
   0.6429500000000000    0.3651300000000000    0.9936350000000000 H
   0.4744800000000000    0.4622200000000000    0.0639350000000000 H
   0.6047700000000000    0.5572400000000000    0.0607650000000000 H
   0.5014400000000000    0.1363100000000000    0.0081350000000000 H
   0.5883900000000000    0.2475200000000000    0.0193350000000000 H
   0.3024800000000000    0.2847600000000000    0.0114450000000000 H
   0.3886700000000000    0.3980400000000000    0.0206300000000000 H
   0.8924621821449776    0.9930784660144324    0.5399068987399747 H
   0.8772712597593223    0.9214746000685110    0.5149422774450547 H
   0.7951400000000000    0.6593300000000000    0.4512250000000000 H
   0.7082700000000000    0.4374800000000000    0.4299700000000000 H
   0.7012200000000000    0.5220399999999999    0.3663200000000000 H
   0.7852400000000000    0.7134100000000000    0.2883600000000000 H
   0.7752100000000000    0.6026899999999999    0.3304850000000000 H
   0.7515700000000000    0.8699600000000000    0.3766300000000000 H
   0.7356100000000000    0.7603700000000000    0.4190700000000000 H
   0.2950200000000000    0.6592600000000000    0.7987000000000000 H
   0.2086800000000000    0.4372300000000000    0.8198650000000001 H
   0.2014900000000000    0.5218000000000000    0.8835649999999999 H
   0.2516100000000000    0.8698500000000000    0.8733700000000000 H
   0.2356300000000000    0.7601900000000000    0.8309100000000000 H
   0.2851200000000000    0.7134600000000000    0.9616300000000000 H
   0.2751100000000000    0.6026600000000000    0.9194800000000001 H
   0.1424400000000000    0.1357500000000000    0.5065550000000000 H
   0.1037800000000000    0.9435000000000000    0.4394600000000000 H
   0.9738400000000000    0.0383600000000000    0.4361250000000000 H
   0.0014300000000000    0.3641700000000000    0.4923850000000000 H
   0.0881700000000000    0.2533500000000000    0.4808700000000000 H
   0.8022400000000000    0.2151100000000000    0.4887800000000000 H
   0.8882600000000000    0.1021900000000000    0.4794050000000000 H
   0.6429500000000000    0.3651300000000000    0.4936350000000000 H
   0.4744800000000000    0.4622200000000000    0.5639350000000000 H
   0.6047700000000000    0.5572400000000000    0.5607650000000000 H
   0.5014400000000000    0.1363100000000000    0.5081350000000000 H
   0.5883900000000000    0.2475200000000000    0.5193350000000000 H
   0.3024800000000000    0.2847600000000000    0.5114450000000000 H
   0.3886700000000000    0.3980400000000000    0.5206300000000000 H
   0.7056600000000000    0.1584200000000000    0.4510950000000000 H
   0.7929900000000000    0.9372600000000000    0.4296550000000000 H
   0.7991700000000000    0.0219600000000000    0.3659500000000000 H
   0.7475900000000000    0.3695700000000000    0.3770050000000000 H
   0.7645800000000000    0.2596800000000000    0.4191550000000000 H
   0.7145000000000000    0.2136200000000000    0.2883800000000000 H
   0.7251000000000000    0.1025400000000000    0.3302550000000000 H
   0.7943800000000000    0.8417000000000000    0.7012150000000000 H
   0.7013800000000000    0.9784800000000000    0.6161600000000000 H
   0.7078300000000000    0.0631400000000000    0.6798850000000000 H
   0.7526400000000000    0.6306700000000000    0.6270249999999999 H
   0.7356400000000000    0.7406000000000000    0.6692000000000000 H
   0.7854500000000000    0.7864900000000000    0.5384350000000000 H
   0.7749300000000000    0.8976300000000000    0.5803450000000000 H
   0.3570500000000000    0.6348600000000000    0.5063450000000000 H
   0.5255300000000001    0.5377600000000000    0.4360500000000000 H
   0.3952400000000000    0.4427500000000000    0.4392000000000000 H
   0.4985700000000000    0.8636800000000000    0.4918500000000000 H
   0.4116100000000000    0.7524700000000000    0.4806500000000000 H
   0.6975200000000000    0.7152200000000000    0.4885400000000000 H
   0.6113300000000000    0.6019500000000000    0.4793550000000000 H
   0.6424299999999999    0.1355700000000000    0.7434800000000000 H
   0.4738400000000000    0.0386000000000000    0.8139250000000000 H
   0.6038400000000000    0.9437600000000000    0.8107100000000000 H
   0.5014300000000000    0.3640700000000000    0.7574850000000000 H
   0.5881800000000000    0.2533000000000000    0.7690699999999999 H
   0.3022200000000000    0.2150300000000000    0.7610900000000000 H
   0.3882500000000000    0.1021400000000000    0.7705100000000000 H
   0.1246868322502386    0.5577675688471702    0.5139216581770080 H
   0.2381388561629762    0.6330804725130712    0.5409276731877812 H
   0.2917800000000000    0.5624900000000000    0.5700100000000000 H
   0.2988300000000000    0.4779300000000000    0.6336600000000000 H
   0.2048500000000000    0.3406600000000000    0.5487550000000000 H
   0.2484000000000000    0.1300200000000000    0.6233500000000000 H
   0.2643800000000000    0.2396000000000000    0.5809000000000000 H
   0.2147800000000000    0.2865700000000000    0.7116250000000000 H
   0.2248200000000000    0.3972900000000000    0.6694950000000000 H
   0.2116349698625823    0.5267713483226105    0.6697121235560111 H
   0.2943600000000000    0.8415700000000000    0.5488850000000000 H
   0.2008400000000000    0.9780100000000000    0.6339900000000001 H
   0.2070100000000000    0.0627100000000000    0.5703300000000000 H
   0.2525100000000000    0.6304100000000000    0.6229800000000000 H
   0.2355000000000000    0.7402900000000000    0.5808250000000000 H
   0.2855000000000000    0.7863700000000000    0.7116050000000000 H
   0.2748900000000000    0.8974500000000000    0.6697250000000000 H
   0.1430200000000000    0.3650900000000000    0.7563000000000000 H
   0.9744500000000000    0.4618900000000000    0.6860050000000000 H
   0.1047200000000000    0.5569200000000000    0.6891400000000000 H
   0.0013900000000000    0.1363200000000000    0.7421650000000000 H
   0.0883500000000000    0.2473500000000000    0.7306500000000000 H
   0.8025300000000000    0.2848800000000000    0.7387650000000000 H
   0.8887600000000000    0.3980100000000000    0.7293499999999999 H
   0.7191900000000000    0.1343600000000000    0.0547200000000000 C
   0.7306000000000000    0.3892800000000000    0.1873250000000000 C
   0.7796900000000000    0.4620300000000000    0.1433000000000000 C
   0.7757400000000000    0.5034100000000000    0.1748350000000000 C
   0.7422100000000000    0.1888600000000000    0.1169600000000000 C
   0.7508000000000000    0.2504200000000000    0.1407000000000000 C
   0.7231700000000000    0.2766800000000000    0.0671550000000000 C
   0.7304300000000000    0.3388400000000000    0.0906000000000000 C
   0.7438900000000001    0.3255200000000000    0.1274200000000000 C
   0.7276800000000000    0.2011300000000000    0.0800900000000000 C
   0.2179600000000000    0.3656300000000000    0.4447250000000000 C
   0.2800800000000000    0.0375100000000000    0.3568500000000000 C
   0.2765000000000000    0.9961000000000000    0.3250000000000000 C
   0.2312600000000000    0.1099400000000000    0.3127500000000000 C
   0.2415100000000000    0.3106200000000000    0.3827300000000000 C
   0.2506400000000000    0.2489200000000000    0.3591600000000000 C
   0.2228300000000000    0.2231300000000000    0.4327350000000000 C
   0.2304500000000000    0.1608000000000000    0.4094000000000000 C
   0.2439500000000000    0.1739000000000000    0.3726050000000000 C
   0.2269100000000000    0.2985700000000000    0.4196050000000000 C
   0.6566700000000000    0.6357000000000000    0.2454300000000000 C
   0.3854800000000000    0.9042300000000000    0.2381050000000000 C
   0.4727200000000000    0.9568000000000000    0.2013500000000000 C
   0.4082500000000000    0.0027300000000000    0.2031600000000000 C
   0.5229300000000000    0.6933500000000000    0.2392900000000000 C
   0.4742600000000000    0.7558900000000000    0.2332600000000000 C
   0.6352600000000000    0.7770300000000000    0.2365350000000000 C
   0.5871800000000000    0.8402700000000000    0.2314000000000000 C
   0.5068100000000000    0.8292800000000000    0.2294500000000000 C
   0.6037200000000000    0.7032100000000000    0.2404350000000000 C
   0.1566900000000000    0.8642200000000000    0.2546750000000000 C
   0.8848700000000000    0.5951300000000000    0.2620350000000000 C
   0.9721000000000000    0.5426200000000000    0.2987000000000000 C
   0.9074300000000000    0.4966100000000000    0.2969450000000000 C
   0.0228500000000000    0.8063000000000000    0.2609950000000000 C
   0.9740799999999999    0.7436100000000000    0.2669850000000000 C
   0.1350000000000000    0.7228800000000000    0.2636200000000000 C
   0.0867900000000000    0.6595100000000000    0.2687300000000000 C
   0.0064500000000000    0.6702800000000000    0.2707000000000000 C
   0.1036000000000000    0.7966299999999999    0.2597750000000000 C
   0.2191400000000000    0.1343800000000000    0.1952250000000000 C
   0.2760500000000000    0.5031900000000000    0.0752500000000000 C
   0.2799400000000000    0.4618100000000000    0.1067200000000000 C
   0.2306100000000000    0.3891700000000000    0.0625000000000000 C
   0.2421900000000000    0.1887600000000000    0.1330100000000000 C
   0.2508100000000000    0.2502800000000000    0.1092850000000000 C
   0.2230900000000000    0.2766800000000000    0.1828200000000000 C
   0.2304000000000000    0.3387900000000000    0.1593500000000000 C
   0.2438600000000000    0.3254000000000000    0.1225750000000000 C
   0.2276600000000000    0.2011000000000000    0.1698750000000000 C
   0.7180000000000000    0.3657200000000000    0.8052349999999999 C
   0.7314700000000000    0.1101400000000000    0.9371000000000000 C
   0.7770800000000000    0.9964499999999999    0.9244500000000000 C
   0.7805500000000000    0.0378800000000000    0.8929750000000001 C
   0.7416700000000001    0.3108500000000000    0.8672200000000000 C
   0.7508200000000000    0.2491900000000000    0.8907800000000000 C
   0.7228500000000000    0.2232800000000000    0.8171999999999999 C
   0.7305100000000000    0.1609800000000000    0.8405150000000000 C
   0.7441000000000000    0.1741600000000000    0.8773050000000000 C
   0.7270000000000000    0.2987400000000000    0.8303450000000000 C
   0.1566800000000000    0.6356100000000000    0.0046000000000000 C
   0.8855100000000000    0.9041600000000000    0.0118150000000000 C
   0.9727600000000000    0.9569500000000000    0.0485550000000000 C
   0.9083100000000000    0.0028900000000000    0.0466900000000000 C
   0.0229200000000000    0.6932600000000000    0.0107500000000000 C
   0.9742800000000000    0.7558300000000000    0.0167800000000000 C
   0.1352500000000000    0.7769500000000000    0.0135000000000000 C
   0.0871700000000000    0.8402100000000000    0.0186500000000000 C
   0.0068000000000000    0.8292400000000000    0.0205750000000000 C
   0.1037100000000000    0.7031100000000000    0.0096400000000000 C
   0.6566800000000000    0.8644200000000000    0.9947900000000001 C
   0.3849000000000000    0.5950000000000000    0.9879750000000000 C
   0.4720600000000000    0.5423500000000000    0.9513100000000000 C
   0.4074000000000000    0.4963500000000000    0.9530850000000000 C
   0.5228400000000000    0.8062900000000000    0.9887550000000001 C
   0.4740400000000000    0.7435000000000000    0.9829399999999999 C
   0.6350100000000000    0.7229200000000000    0.9861700000000000 C
   0.5868200000000000    0.6594600000000000    0.9811900000000000 C
   0.5064600000000000    0.6701700000000000    0.9792449999999999 C
   0.6036100000000000    0.7967100000000000    0.9898899999999999 C
   0.7191900000000000    0.1343600000000000    0.5547200000000000 C
   0.7306000000000000    0.3892800000000000    0.6873250000000000 C
   0.7796900000000000    0.4620300000000000    0.6433000000000000 C
   0.7757400000000000    0.5034100000000000    0.6748350000000000 C
   0.7422100000000000    0.1888600000000000    0.6169600000000000 C
   0.7508000000000000    0.2504200000000000    0.6407000000000000 C
   0.7231700000000000    0.2766800000000000    0.5671550000000000 C
   0.7304300000000000    0.3388400000000000    0.5906000000000000 C
   0.7438900000000001    0.3255200000000000    0.6274200000000000 C
   0.7276800000000000    0.2011300000000000    0.5800900000000000 C
   0.2179600000000000    0.3656300000000000    0.9447250000000000 C
   0.2800800000000000    0.0375100000000000    0.8568500000000000 C
   0.2765000000000000    0.9961000000000000    0.8250000000000000 C
   0.2312600000000000    0.1099400000000000    0.8127500000000000 C
   0.2415100000000000    0.3106200000000000    0.8827300000000000 C
   0.2506400000000000    0.2489200000000000    0.8591599999999999 C
   0.2228300000000000    0.2231300000000000    0.9327350000000000 C
   0.2304500000000000    0.1608000000000000    0.9094000000000000 C
   0.2439500000000000    0.1739000000000000    0.8726050000000001 C
   0.2269100000000000    0.2985700000000000    0.9196050000000000 C
   0.6566700000000000    0.6357000000000000    0.7454300000000000 C
   0.3854800000000000    0.9042300000000000    0.7381050000000000 C
   0.4727200000000000    0.9568000000000000    0.7013500000000000 C
   0.4082500000000000    0.0027300000000000    0.7031600000000000 C
   0.5229300000000000    0.6933500000000000    0.7392900000000000 C
   0.4742600000000000    0.7558900000000000    0.7332600000000000 C
   0.6352600000000000    0.7770300000000000    0.7365349999999999 C
   0.5871800000000000    0.8402700000000000    0.7314000000000001 C
   0.5068100000000000    0.8292800000000000    0.7294499999999999 C
   0.6037200000000000    0.7032100000000000    0.7404350000000000 C
   0.1566900000000000    0.8642200000000000    0.7546750000000000 C
   0.8848700000000000    0.5951300000000000    0.7620350000000000 C
   0.9721000000000000    0.5426200000000000    0.7987000000000000 C
   0.9074300000000000    0.4966100000000000    0.7969450000000000 C
   0.0228500000000000    0.8063000000000000    0.7609950000000000 C
   0.9740799999999999    0.7436100000000000    0.7669850000000000 C
   0.1350000000000000    0.7228800000000000    0.7636200000000000 C
   0.0867900000000000    0.6595100000000000    0.7687300000000000 C
   0.0064500000000000    0.6702800000000000    0.7706999999999999 C
   0.1036000000000000    0.7966299999999999    0.7597750000000000 C
   0.2808100000000000    0.8656199999999999    0.4452650000000000 C
   0.2693900000000000    0.6107000000000000    0.3126550000000000 C
   0.2242500000000000    0.4965700000000000    0.3251450000000000 C
   0.2203100000000000    0.5379500000000000    0.3566400000000000 C
   0.2577900000000000    0.8111300000000000    0.3830250000000000 C
   0.2492100000000000    0.7495700000000000    0.3592800000000000 C
   0.2768300000000000    0.7233100000000000    0.4328300000000000 C
   0.2695700000000000    0.6611399999999999    0.4093450000000000 C
   0.2561000000000000    0.6744700000000000    0.3725650000000000 C
   0.2723200000000000    0.7988600000000000    0.4198900000000000 C
   0.7820400000000000    0.6343700000000000    0.0552600000000000 C
   0.7687700000000000    0.8900600000000000    0.1872350000000000 C
   0.7199300000000000    0.9624800000000000    0.1431400000000000 C
   0.7235200000000001    0.0000000000000000    0.1746450000000000 C
   0.7585000000000000    0.6893700000000000    0.1172550000000000 C
   0.7493600000000000    0.7510700000000000    0.1408300000000000 C
   0.7771800000000000    0.7768600000000000    0.0672550000000000 C
   0.7695500000000000    0.8391999999999999    0.0905950000000000 C
   0.7560500000000000    0.8260900000000000    0.1273900000000000 C
   0.7731000000000000    0.7014200000000000    0.0803500000000000 C
   0.3433300000000000    0.3643000000000000    0.2545600000000000 C
   0.6145100000000000    0.0957600000000000    0.2618750000000000 C
   0.5272700000000000    0.0431900000000000    0.2986300000000000 C
   0.5917400000000000    0.9972600000000000    0.2968000000000000 C
   0.4770700000000000    0.3066400000000000    0.2605000000000000 C
   0.5257400000000000    0.2441000000000000    0.2667250000000000 C
   0.3647400000000000    0.2229600000000000    0.2634450000000000 C
   0.4128200000000000    0.1597300000000000    0.2685800000000000 C
   0.4931900000000000    0.1707100000000000    0.2705350000000000 C
   0.3962800000000000    0.2967900000000000    0.2595500000000000 C
   0.8433300000000000    0.1357800000000000    0.2453400000000000 C
   0.1151500000000000    0.4048700000000000    0.2379350000000000 C
   0.0279200000000000    0.4573700000000000    0.2012550000000000 C
   0.0925800000000000    0.5033800000000000    0.2030200000000000 C
   0.9771700000000000    0.1937000000000000    0.2390200000000000 C
   0.0259400000000000    0.2563900000000000    0.2330150000000000 C
   0.8650300000000000    0.2771200000000000    0.2363850000000000 C
   0.9132300000000000    0.3404900000000000    0.2312600000000000 C
   0.9935700000000000    0.3297100000000000    0.2292850000000000 C
   0.8964200000000000    0.2033800000000000    0.2402450000000000 C
   0.7808600000000000    0.8656100000000000    0.8047599999999999 C
   0.7694000000000000    0.6108200000000000    0.9372849999999999 C
   0.7239900000000000    0.4967800000000000    0.9247300000000001 C
   0.7201000000000000    0.5381500000000000    0.8932599999999999 C
   0.7769100000000000    0.7233100000000000    0.8171600000000000 C
   0.7696200000000000    0.6611900000000001    0.8406250000000000 C
   0.7577900000000000    0.8112100000000000    0.8669700000000000 C
   0.7491900000000000    0.7497000000000000    0.8905000000000001 C
   0.7561500000000000    0.6745800000000000    0.8774050000000000 C
   0.7723400000000000    0.7988800000000000    0.8301000000000001 C
   0.2820300000000000    0.6342700000000000    0.1945000000000000 C
   0.2685400000000000    0.8898400000000000    0.0628850000000000 C
   0.2194500000000000    0.9621000000000000    0.1070050000000000 C
   0.2229200000000000    0.0000000000000000    0.0755350000000000 C
   0.2583900000000000    0.6891300000000000    0.1327600000000000 C
   0.2492400000000000    0.7507900000000000    0.1092000000000000 C
   0.2771600000000000    0.7767100000000000    0.1827850000000000 C
   0.2695000000000000    0.8390000000000000    0.1594700000000000 C
   0.2559300000000000    0.8258200000000000    0.1226750000000000 C
   0.2730500000000000    0.7012500000000000    0.1696350000000000 C
   0.8433300000000000    0.3643800000000000    0.9953650000000001 C
   0.1145000000000000    0.0958200000000000    0.9881700000000000 C
   0.0917000000000000    0.9971000000000000    0.9530000000000001 C
   0.0272400000000000    0.0430400000000000    0.9514300000000000 C
   0.9770799999999999    0.3067300000000000    0.9891950000000000 C
   0.0257300000000000    0.2441500000000000    0.9832000000000001 C
   0.8647600000000000    0.2230400000000000    0.9864450000000000 C
   0.9128400000000000    0.1597800000000000    0.9813400000000000 C
   0.9932100000000000    0.1707500000000000    0.9794100000000000 C
   0.8962900000000000    0.2968800000000000    0.9903450000000000 C
   0.3433200000000000    0.1355600000000000    0.0051950000000000 C
   0.6151000000000000    0.4049900000000000    0.0120050000000000 C
   0.5279400000000000    0.4576400000000000    0.0486750000000000 C
   0.5926000000000000    0.5036400000000000    0.0469000000000000 C
   0.4771700000000000    0.1937000000000000    0.0112300000000000 C
   0.5259600000000000    0.2565000000000000    0.0170450000000000 C
   0.3649900000000000    0.2770600000000000    0.0138150000000000 C
   0.4131800000000000    0.3405200000000000    0.0187950000000000 C
   0.4935400000000000    0.3298200000000000    0.0207350000000000 C