H14 C20 N4
1.0
  10.1416289753551290    0.0000000000000000    1.1709153369211935
   0.5813353144476979   10.1334729539094273    1.1713587813143091
   0.0000000000000000    0.0000000000000000   16.5629999999999988
H C N
14 20 4
direct
   0.0907800000000000    0.9618800000000000    0.1974300000000000 H
   0.0548800000000000    0.3769600000000000    0.1101600000000000 H
   0.2042300000000000    0.4166200000000000    0.2141200000000000 H
   0.2898600000000000    0.2233200000000000    0.3045200000000000 H
   0.0523900000000000    0.2701500000000000    0.9859000000000000 H
   0.8697400000000000    0.9855600000000000    0.1699700000000000 H
   0.7533800000000000    0.0597500000000000    0.9251300000000000 H
   0.6460100000000000    0.9523300000000000    0.1964000000000000 H
   0.7204400000000000    0.8361499999999999    0.9515400000000001 H
   0.4357200000000000    0.6533800000000000    0.1356100000000000 H
   0.7440500000000000    0.6149500000000000    0.9240600000000000 H
   0.3286200000000000    0.6515600000000000    0.0113200000000000 H
   0.2886200000000000    0.5025800000000000    0.9072400000000000 H
   0.4819300000000000    0.4166900000000000    0.8168900000000000 H
   0.1111100000000000    0.0648000000000000    0.1997000000000000 C
   0.0595700000000000    0.1656000000000000    0.1456800000000000 C
   0.0942600000000000    0.2949400000000000    0.1501600000000000 C
   0.1772600000000000    0.3170900000000000    0.2078200000000000 C
   0.2235900000000000    0.2107800000000000    0.2591800000000000 C
   0.9814400000000000    0.1951300000000000    0.0000000000000000 C
   0.9719100000000001    0.1330200000000000    0.0866900000000000 C
   0.8793100000000000    0.0366500000000000    0.1082800000000000 C
   0.7992700000000000    0.0064500000000000    0.0505200000000000 C
   0.8156400000000000    0.0751600000000000    0.9721800000000000 C
   0.6306400000000000    0.8901200000000000    0.1493400000000000 C
   0.6994400000000000    0.9065100000000000    0.0710400000000000 C
   0.6692700000000000    0.8264899999999999    0.0132700000000000 C
   0.5729000000000000    0.7338800000000000    0.0348700000000000 C
   0.5107400000000000    0.7243400000000000    0.1149800000000000 C
   0.6409700000000000    0.5948099999999999    0.9217900000000000 C
   0.5401700000000000    0.6464400000000000    0.9758100000000000 C
   0.4106400000000000    0.6120800000000000    0.9712900000000000 C
   0.3883000000000000    0.5292800000000000    0.9136000000000000 C
   0.4946200000000000    0.4828100000000000    0.8622500000000000 C
   0.1912400000000000    0.0853800000000000    0.2557500000000000 N
   0.9052900000000000    0.1671700000000000    0.9499900000000000 N
   0.5386900000000000    0.8004000000000000    0.1715500000000000 N
   0.6202200000000000    0.5147800000000000    0.8657400000000000 N
