Cu4 H14 C20 I4 N4
1.0
  10.1416289753551290    0.0000000000000000    1.1709153369211935
   0.5813353144476979   10.1334729539094273    1.1713587813143091
   0.0000000000000000    0.0000000000000000   16.5629999999999988
Cu H C I N
4 14 20 4 4
direct
   0.7719900000000000    0.4505100000000000    0.7878400000000000 Cu
   0.2550700000000000    0.9335300000000000    0.3336700000000000 Cu
   0.4505700000000000    0.7719800000000000    0.2878500000000000 Cu
   0.9335800000000000    0.2550200000000000    0.8336300000000000 Cu
   0.9615100000000000    0.0906200000000000    0.6973900000000000 H
   0.3770800000000000    0.0536500000000000    0.6103600000000000 H
   0.4170500000000000    0.2025400000000000    0.7144600000000000 H
   0.2237000000000000    0.2885700000000000    0.8047299999999999 H
   0.2699800000000000    0.0520700000000000    0.4859500000000000 H
   0.9852400000000000    0.8693000000000000    0.6699400000000000 H
   0.0596600000000000    0.7531800000000000    0.4251100000000000 H
   0.9522800000000000    0.6456800000000000    0.6963300000000000 H
   0.8360400000000000    0.7198800000000000    0.4515000000000000 H
   0.6533000000000000    0.4352800000000000    0.6355400000000000 H
   0.6149700000000000    0.7435800000000000    0.4240600000000000 H
   0.6510300000000000    0.3284300000000000    0.5112200000000000 H
   0.5017300000000000    0.2888000000000000    0.4072200000000000 H
   0.4160100000000000    0.4821300000000000    0.3168800000000000 H
   0.0646600000000000    0.1106500000000000    0.6997000000000000 C
   0.1654900000000000    0.0589400000000000    0.6457300000000000 C
   0.2950300000000000    0.0931900000000000    0.6503200000000000 C
   0.3173600000000000    0.1759400000000000    0.7080500000000000 C
   0.2110100000000000    0.2224900000000000    0.7593400000000000 C
   0.1949500000000000    0.9811200000000000    0.5065600000000000 C
   0.1327500000000000    0.9716200000000000    0.5866600000000000 C
   0.0363900000000000    0.8790000000000000    0.6082500000000000 C
   0.0062500000000000    0.7989600000000000    0.5504700000000000 C
   0.0750200000000000    0.8153899999999999    0.4721700000000000 C
   0.8900300000000000    0.6302800000000000    0.6492800000000000 C
   0.9064400000000000    0.6990000000000000    0.5709700000000000 C
   0.8263800000000000    0.6687800000000000    0.5132000000000000 C
   0.7337600000000000    0.5724300000000000    0.5348000000000001 C
   0.7242700000000000    0.5102800000000000    0.6149000000000000 C
   0.5946500000000000    0.6406300000000000    0.4217800000000000 C
   0.6462400000000000    0.5398100000000000    0.4757700000000000 C
   0.6116100000000000    0.4104700000000000    0.4712400000000000 C
   0.5286400000000000    0.3883300000000000    0.4135600000000000 C
   0.4822700000000000    0.4946600000000000    0.3622300000000000 C
   0.7102700000000000    0.2036900000000000    0.7665200000000000 I
   0.9953000000000000    0.5018100000000000    0.8549800000000000 I
   0.2035500000000000    0.7105800000000000    0.2663800000000000 I
   0.5021400000000000    0.9948800000000000    0.3551600000000000 I
   0.0853900000000000    0.1906300000000000    0.7557700000000001 N
   0.1669700000000000    0.9051000000000000    0.4499700000000000 N
   0.8003600000000000    0.5382800000000000    0.6714700000000000 N
   0.5145300000000000    0.6200800000000000    0.3657200000000000 N
