H6 C13 N1 O4
1.0
  27.9353714421428911    0.0000000000000000    2.2520431588909200
   0.4576175856792464   15.1590840597950773    0.9055416132590927
   0.0000000000000000    0.0000000000000000   30.6340000000000003
H C N O
6 13 1 4
direct
   0.8223849999999999    0.3180000000000000    0.9410499999999999 H
   0.8260000000000001    0.9092200000000000    0.9377000000000000 H
   0.9717750000000001    0.3436000000000000    0.8991050000000000 H
   0.9816750000000001    0.1818500000000000    0.8941749999999999 H
   0.9753550000000000    0.8726200000000000    0.8972950000000000 H
   0.9830500000000000    0.0374300000000000    0.8949650000000000 H
   0.8967149999999999    0.3390900000000000    0.9215800000000001 C
   0.8929849999999999    0.4369800000000000    0.9255700000000000 C
   0.8950950000000000    0.7814500000000000    0.9196250000000000 C
   0.9001200000000000    0.8795800000000000    0.9176650000000000 C
   0.8568450000000001    0.2859400000000000    0.9316400000000000 C
   0.8611050000000000    0.9360100000000000    0.9282400000000000 C
   0.9416750000000000    0.3011400000000000    0.9080349999999999 C
   0.8616200000000001    0.1938700000000000    0.9295200000000000 C
   0.9076000000000000    0.1564600000000000    0.9162150000000000 C
   0.9089250000000000    0.0613800000000000    0.9153450000000001 C
   0.9468300000000001    0.2104600000000000    0.9051500000000000 C
   0.9447850000000000    0.9163300000000000    0.9054900000000000 C
   0.9487650000000001    0.0072300000000000    0.9043000000000000 C
   0.8647300000000000    0.0247700000000000    0.9274400000000000 N
   0.8518749999999999    0.4756700000000000    0.9257100000000000 O
   0.9325000000000000    0.4742300000000000    0.9294000000000000 O
   0.8538150000000000    0.7504300000000000    0.9296200000000000 O
   0.9336850000000000    0.7369900000000000    0.9109750000000000 O
