H6 O4
1.0
  27.9353714421428911    0.0000000000000000    2.2520431588909200
   0.4576175856792464   15.1590840597950773    0.9055416132590927
   0.0000000000000000    0.0000000000000000   30.6340000000000003
H O
6 4
direct
   0.9612757110653136    0.6254322537423737    0.5011560039153833 H
   0.8195333351923514    0.5936469114767028    0.5096152951589360 H
   0.8896350390287768    0.6094357845433815    0.5098603084032917 H
   0.8311504482965930    0.6381118738397242    0.8472105376891609 H
   0.9716135631968402    0.5812510515845515    0.8364640417899177 H
   0.9031672039060646    0.6091210262110212    0.8370933998422934 H
   0.9310450000000000    0.6184300000000000    0.4885900000000000 O
   0.8506250000000000    0.6004000000000000    0.4936450000000000 O
   0.8614500000000000    0.6253200000000000    0.8598399999999999 O
   0.9413050000000001    0.5930200000000000    0.8529900000000000 O
