H8 C10 N2
1.0
  27.9353714421428911    0.0000000000000000    2.2520431588909200
   0.4576175856792464   15.1590840597950773    0.9055416132590927
   0.0000000000000000    0.0000000000000000   30.6340000000000003
H C N
8 10 2
direct
   0.6017300000000000    0.6428100000000000    0.4920450000000000 H
   0.5303450000000000    0.5849800000000001    0.3556600000000000 H
   0.6191750000000000    0.5907700000000000    0.3540600000000000 H
   0.5140749999999999    0.6300700000000000    0.4880750000000000 H
   0.7743000000000000    0.6627500000000000    0.3607650000000000 H
   0.7613700000000000    0.5798100000000000    0.4919500000000000 H
   0.6727100000000000    0.5722200000000000    0.4930350000000000 H
   0.6855599999999999    0.6666666666666666    0.3563750000000000 H
   0.6185400000000000    0.6171300000000000    0.4232200000000000 C
   0.5879500000000000    0.6283000000000000    0.4611400000000000 C
   0.5480600000000000    0.5975000000000000    0.3849550000000000 C
   0.5974600000000000    0.6020799999999999    0.3844000000000000 C
   0.5388950000000000    0.6225200000000000    0.4592500000000000 C
   0.6710250000000000    0.6195700000000000    0.4244500000000000 C
   0.7499600000000000    0.6444500000000000    0.3891350000000000 C
   0.7427300000000000    0.5974200000000000    0.4626850000000000 C
   0.6932350000000000    0.5952800000000000    0.4630800000000000 C
   0.7006749999999999    0.6451800000000000    0.3870450000000000 C
   0.5190700000000000    0.6071299999999999    0.4218150000000000 N
   0.7708950000000000    0.6206900000000000    0.4263450000000000 N
