Zn32 H263 C436 N75 O128
1.0
  28.1179446894094447    0.0000000000000000   -6.4130169532998416
  -1.6316453436159739   14.6994119244394419   -7.1629959896892217
   0.0000000000000000    0.0000000000000000   37.9819999999999993
Zn H C N O
32 263 436 75 128
direct
   0.4001900000000000    0.1482200000000000    0.4042450000000000 Zn
   0.1230950000000000    0.5612100000000000    0.3178450000000000 Zn
   0.1501750000000000    0.6607499999999999    0.4042500000000000 Zn
   0.3769000000000000    0.4387500000000000    0.1821650000000000 Zn
   0.3498200000000000    0.3392100000000000    0.0957600000000000 Zn
   0.1268350000000000    0.9264100000000000    0.1822500000000000 Zn
   0.0998050000000000    0.8517400000000001    0.0957650000000000 Zn
   0.3731600000000000    0.0735500000000000    0.3177550000000000 Zn
   0.9001900000000000    0.1482200000000000    0.4042450000000000 Zn
   0.6230950000000000    0.5612100000000000    0.3178450000000000 Zn
   0.6501749999999999    0.6607499999999999    0.4042500000000000 Zn
   0.8769000000000000    0.4387500000000000    0.1821650000000000 Zn
   0.8498200000000000    0.3392100000000000    0.0957600000000000 Zn
   0.6268350000000000    0.9264100000000000    0.1822500000000000 Zn
   0.5998050000000000    0.8517400000000001    0.0957650000000000 Zn
   0.8731599999999999    0.0735500000000000    0.3177550000000000 Zn
   0.4001900000000000    0.1482200000000000    0.9042450000000000 Zn
   0.1230950000000000    0.5612100000000000    0.8178449999999999 Zn
   0.1501750000000000    0.6607499999999999    0.9042500000000000 Zn
   0.3769000000000000    0.4387500000000000    0.6821650000000000 Zn
   0.3498200000000000    0.3392100000000000    0.5957600000000000 Zn
   0.1268350000000000    0.9264100000000000    0.6822500000000000 Zn
   0.0998050000000000    0.8517400000000001    0.5957650000000000 Zn
   0.3731600000000000    0.0735500000000000    0.8177550000000000 Zn
   0.9001900000000000    0.1482200000000000    0.9042450000000000 Zn
   0.6230950000000000    0.5612100000000000    0.8178449999999999 Zn
   0.6501749999999999    0.6607499999999999    0.9042500000000000 Zn
   0.8769000000000000    0.4387500000000000    0.6821650000000000 Zn
   0.8498200000000000    0.3392100000000000    0.5957600000000000 Zn
   0.6268350000000000    0.9264100000000000    0.6822500000000000 Zn
   0.5998050000000000    0.8517400000000001    0.5957650000000000 Zn
   0.8731599999999999    0.0735500000000000    0.8177550000000000 Zn
   0.0283800000000000    0.0175100000000000    0.4143050000000000 H
   0.0824450000000000    0.8974200000000000    0.4140300000000000 H
   0.0217900000000000    0.7382100000000000    0.2870700000000000 H
   0.4678300000000000    0.8586300000000000    0.2874100000000000 H
   0.2518900000000000    0.4859800000000000    0.4349900000000000 H
   0.1962050000000000    0.3313500000000000    0.3071500000000000 H
   0.2511250000000000    0.2131400000000000    0.3069700000000000 H
   0.3065450000000000    0.3669100000000000    0.4349000000000000 H
   0.4280750000000000    0.0322900000000000    0.4439500000000000 H
   0.4759400000000000    0.0481600000000000    0.0106600000000000 H
   0.4712950000000000    0.3385000000000000    0.0579500000000000 H
   0.4240950000000000    0.3111200000000000    0.4890300000000000 H
   0.2783700000000000    0.8116100000000001    0.4140750000000000 H
   0.3324450000000000    0.9309500000000001    0.4137300000000000 H
   0.2717400000000000    0.8341800000000000    0.2867700000000000 H
   0.2178400000000000    0.7144400000000000    0.2871500000000000 H
   0.0024750000000000    0.3841300000000000    0.4349500000000000 H
   0.4459050000000000    0.2825500000000000    0.3072750000000000 H
   0.0006200000000000    0.4006600000000000    0.3070900000000000 H
   0.0570500000000000    0.5031600000000001    0.4348700000000000 H
   0.1789250000000000    0.8565199999999999    0.4444400000000000 H
   0.2268000000000000    0.9740900000000000    0.0114450000000000 H
   0.2207050000000000    0.7778700000000000    0.0578900000000000 H
   0.1735450000000000    0.6674099999999999    0.4887500000000000 H
   0.3395950000000000    0.1102000000000000    0.1276300000000000 H
   0.2575150000000000    0.9379500000000000    0.1775300000000000 H
   0.2906100000000000    0.9646500000000000    0.2487600000000000 H
   0.4107800000000000    0.1222600000000000    0.2615100000000000 H
   0.3846600000000000    0.0994500000000000    0.1903050000000000 H
   0.2216250000000000    0.1883600000000000    0.0859350000000000 H
   0.1675450000000000    0.0690200000000000    0.0862750000000000 H
   0.2282550000000000    0.1657700000000000    0.2132350000000000 H
   0.2821550000000000    0.2855100000000000    0.2128500000000000 H
   0.4975150000000000    0.6158200000000000    0.0650550000000000 H
   0.0540850000000000    0.7174100000000000    0.1927350000000000 H
   0.4993700000000000    0.5993000000000001    0.1929150000000000 H
   0.4429450000000000    0.4967900000000000    0.0651350000000000 H
   0.3210600000000000    0.1434400000000000    0.0555650000000000 H
   0.2731850000000000    0.0258700000000000    0.4885600000000000 H
   0.2792850000000000    0.2220900000000000    0.4421150000000000 H
   0.3264450000000000    0.3325400000000000    0.0112500000000000 H
   0.1603900000000000    0.8897500000000000    0.3723750000000000 H
   0.2424750000000000    0.0619900000000000    0.3224750000000000 H
   0.2093800000000000    0.0353000000000000    0.2512450000000000 H
   0.0892100000000000    0.8776900000000000    0.2384950000000000 H
   0.1153300000000000    0.9005000000000000    0.3095000000000000 H
   0.4716100000000000    0.9824400000000000    0.0857000000000000 H
   0.4175400000000000    0.1025300000000000    0.0859500000000000 H
   0.4781950000000000    0.2617400000000000    0.2129300000000000 H
   0.0321600000000000    0.1413300000000000    0.2125950000000000 H
   0.2481050000000000    0.5139899999999999    0.0650150000000000 H
   0.3037800000000000    0.6685900000000000    0.1928500000000000 H
   0.2488600000000000    0.7868000000000001    0.1930000000000000 H
   0.1934450000000000    0.6330500000000000    0.0650500000000000 H
   0.0719100000000000    0.9676700000000000    0.0560550000000000 H
   0.0240450000000000    0.9517900000000000    0.4893450000000000 H
   0.0287000000000000    0.6614500000000000    0.4420550000000000 H
   0.0759000000000000    0.6888300000000001    0.0109750000000000 H
   0.4109650000000000    0.8563300000000000    0.3733400000000000 H
   0.4923300000000000    0.5827300000000000    0.3225500000000000 H
   0.4592550000000000    0.4671700000000000    0.2511000000000000 H
   0.3398200000000000    0.6011400000000000    0.2386900000000000 H
   0.3659300000000000    0.7206200000000000    0.3101200000000000 H
   0.5283800000000000    0.0175100000000000    0.4143050000000000 H
   0.5824450000000000    0.8974200000000000    0.4140300000000000 H
   0.5217900000000000    0.7382100000000000    0.2870700000000000 H
   0.9678300000000000    0.8586300000000000    0.2874100000000000 H
   0.7518899999999999    0.4859800000000000    0.4349900000000000 H
   0.6962050000000000    0.3313500000000000    0.3071500000000000 H
   0.7511250000000000    0.2131400000000000    0.3069700000000000 H
   0.8065450000000001    0.3669100000000000    0.4349000000000000 H
   0.9280750000000000    0.0322900000000000    0.4439500000000000 H
   0.9240950000000000    0.3111200000000000    0.4890300000000000 H
   0.5890250000000000    0.1436200000000000    0.1266650000000000 H
   0.5076600000000000    0.4172200000000000    0.1774400000000000 H
   0.5407350000000000    0.5327800000000000    0.2489000000000000 H
   0.6601700000000000    0.3988100000000000    0.2613150000000000 H
   0.6340550000000000    0.2793300000000000    0.1898900000000000 H
   0.7783700000000000    0.8116100000000001    0.4140750000000000 H
   0.8324450000000000    0.9309500000000001    0.4137300000000000 H
   0.7717400000000000    0.8341800000000000    0.2867700000000000 H
   0.7178400000000000    0.7144400000000000    0.2871500000000000 H
   0.5024750000000000    0.3841300000000000    0.4349500000000000 H
   0.9459050000000000    0.2825500000000000    0.3072750000000000 H
   0.5006200000000000    0.4006600000000000    0.3070900000000000 H
   0.5570500000000000    0.5031600000000001    0.4348700000000000 H
   0.6789250000000000    0.8565199999999999    0.4444400000000000 H
   0.7268000000000000    0.9740900000000000    0.0114450000000000 H
   0.7207050000000000    0.7778700000000000    0.0578900000000000 H
   0.6735450000000001    0.6674099999999999    0.4887500000000000 H
   0.8395950000000000    0.1102000000000000    0.1276300000000000 H
   0.7575149999999999    0.9379500000000000    0.1775300000000000 H
   0.7906100000000000    0.9646500000000000    0.2487600000000000 H
   0.9107799999999999    0.1222600000000000    0.2615100000000000 H
   0.8846600000000000    0.0994500000000000    0.1903050000000000 H
   0.7216250000000000    0.1883600000000000    0.0859350000000000 H
   0.6675450000000001    0.0690200000000000    0.0862750000000000 H
   0.7282550000000000    0.1657700000000000    0.2132350000000000 H
   0.7821549999999999    0.2855100000000000    0.2128500000000000 H
   0.9975149999999999    0.6158200000000000    0.0650550000000000 H
   0.5540850000000000    0.7174100000000000    0.1927350000000000 H
   0.9993700000000000    0.5993000000000001    0.1929150000000000 H
   0.9429449999999999    0.4967900000000000    0.0651350000000000 H
   0.8210600000000000    0.1434400000000000    0.0555650000000000 H
   0.7731850000000000    0.0258700000000000    0.4885600000000000 H
   0.7792850000000000    0.2220900000000000    0.4421150000000000 H
   0.8264450000000000    0.3325400000000000    0.0112500000000000 H
   0.6603900000000000    0.8897500000000000    0.3723750000000000 H
   0.7424750000000000    0.0619900000000000    0.3224750000000000 H
   0.7093800000000000    0.0353000000000000    0.2512450000000000 H
   0.5892100000000000    0.8776900000000000    0.2384950000000000 H
   0.6153300000000000    0.9005000000000000    0.3095000000000000 H
   0.9716100000000000    0.9824400000000000    0.0857000000000000 H
   0.9175400000000000    0.1025300000000000    0.0859500000000000 H
   0.9781949999999999    0.2617400000000000    0.2129300000000000 H
   0.5321600000000000    0.1413300000000000    0.2125950000000000 H
   0.7481050000000000    0.5139899999999999    0.0650150000000000 H
   0.8037799999999999    0.6685900000000000    0.1928500000000000 H
   0.7488600000000000    0.7868000000000001    0.1930000000000000 H
   0.6934450000000000    0.6330500000000000    0.0650500000000000 H
   0.5719100000000000    0.9676700000000000    0.0560550000000000 H
   0.5240450000000000    0.9517900000000000    0.4893450000000000 H
   0.5286999999999999    0.6614500000000000    0.4420550000000000 H
   0.5759000000000000    0.6888300000000001    0.0109750000000000 H
   0.9109650000000000    0.8563300000000000    0.3733400000000000 H
   0.9923299999999999    0.5827300000000000    0.3225500000000000 H
   0.9592550000000000    0.4671700000000000    0.2511000000000000 H
   0.8398200000000000    0.6011400000000000    0.2386900000000000 H
   0.8659300000000000    0.7206200000000000    0.3101200000000000 H
   0.0283800000000000    0.0175100000000000    0.9143049999999999 H
   0.0824450000000000    0.8974200000000000    0.9140300000000000 H
   0.0217900000000000    0.7382100000000000    0.7870699999999999 H
   0.4678300000000000    0.8586300000000000    0.7874099999999999 H
   0.2518900000000000    0.4859800000000000    0.9349900000000000 H
   0.1962050000000000    0.3313500000000000    0.8071500000000000 H
   0.2511250000000000    0.2131400000000000    0.8069700000000000 H
   0.3065450000000000    0.3669100000000000    0.9349000000000001 H
   0.4280750000000000    0.0322900000000000    0.9439500000000001 H
   0.4759400000000000    0.0481600000000000    0.5106600000000000 H
   0.4712950000000000    0.3385000000000000    0.5579499999999999 H
   0.4240950000000000    0.3111200000000000    0.9890300000000001 H
   0.0890250000000000    0.1436200000000000    0.6266650000000000 H
   0.0076600000000000    0.4172200000000000    0.6774400000000000 H
   0.0407350000000000    0.5327800000000000    0.7489000000000000 H
   0.1601700000000000    0.3988100000000000    0.7613150000000000 H
   0.1340550000000000    0.2793300000000000    0.6898900000000000 H
   0.2783700000000000    0.8116100000000001    0.9140750000000000 H
   0.3324450000000000    0.9309500000000001    0.9137299999999999 H
   0.2717400000000000    0.8341800000000000    0.7867700000000000 H
   0.2178400000000000    0.7144400000000000    0.7871500000000000 H
   0.0024750000000000    0.3841300000000000    0.9349499999999999 H
   0.4459050000000000    0.2825500000000000    0.8072750000000000 H
   0.0006200000000000    0.4006600000000000    0.8070900000000000 H
   0.0570500000000000    0.5031600000000001    0.9348700000000000 H
   0.1789250000000000    0.8565199999999999    0.9444399999999999 H
   0.2268000000000000    0.9740900000000000    0.5114450000000000 H
   0.2207050000000000    0.7778700000000000    0.5578900000000000 H
   0.1735450000000000    0.6674099999999999    0.9887500000000000 H
   0.3395950000000000    0.1102000000000000    0.6276300000000000 H
   0.2575150000000000    0.9379500000000000    0.6775300000000000 H
   0.2906100000000000    0.9646500000000000    0.7487600000000000 H
   0.4107800000000000    0.1222600000000000    0.7615100000000000 H
   0.3846600000000000    0.0994500000000000    0.6903049999999999 H
   0.2216250000000000    0.1883600000000000    0.5859350000000000 H
   0.1675450000000000    0.0690200000000000    0.5862750000000000 H
   0.2282550000000000    0.1657700000000000    0.7132350000000001 H
   0.2821550000000000    0.2855100000000000    0.7128500000000000 H
   0.4975150000000000    0.6158200000000000    0.5650550000000000 H
   0.0540850000000000    0.7174100000000000    0.6927350000000000 H
   0.4993700000000000    0.5993000000000001    0.6929149999999999 H
   0.4429450000000000    0.4967900000000000    0.5651349999999999 H
   0.3210600000000000    0.1434400000000000    0.5555650000000000 H
   0.2731850000000000    0.0258700000000000    0.9885600000000000 H
   0.2792850000000000    0.2220900000000000    0.9421150000000000 H
   0.3264450000000000    0.3325400000000000    0.5112500000000000 H
   0.1603900000000000    0.8897500000000000    0.8723750000000000 H
   0.2424750000000000    0.0619900000000000    0.8224750000000001 H
   0.2093800000000000    0.0353000000000000    0.7512449999999999 H
   0.0892100000000000    0.8776900000000000    0.7384950000000000 H
   0.1153300000000000    0.9005000000000000    0.8095000000000000 H
   0.4716100000000000    0.9824400000000000    0.5857000000000000 H
   0.4175400000000000    0.1025300000000000    0.5859500000000000 H
   0.4781950000000000    0.2617400000000000    0.7129300000000001 H
   0.0321600000000000    0.1413300000000000    0.7125950000000000 H
   0.2481050000000000    0.5139899999999999    0.5650150000000000 H
   0.3037800000000000    0.6685900000000000    0.6928500000000000 H
   0.2488600000000000    0.7868000000000001    0.6930000000000001 H
   0.1934450000000000    0.6330500000000000    0.5650500000000001 H
   0.0719100000000000    0.9676700000000000    0.5560550000000000 H
   0.0240450000000000    0.9517900000000000    0.9893449999999999 H
   0.0287000000000000    0.6614500000000000    0.9420550000000000 H
   0.0759000000000000    0.6888300000000001    0.5109750000000000 H
   0.4109650000000000    0.8563300000000000    0.8733400000000000 H
   0.4923300000000000    0.5827300000000000    0.8225500000000000 H
   0.4592550000000000    0.4671700000000000    0.7511000000000000 H
   0.3398200000000000    0.6011400000000000    0.7386900000000001 H
   0.3659300000000000    0.7206200000000000    0.8101200000000000 H
   0.5283800000000000    0.0175100000000000    0.9143049999999999 H
   0.5824450000000000    0.8974200000000000    0.9140300000000000 H
   0.5217900000000000    0.7382100000000000    0.7870699999999999 H
   0.9678300000000000    0.8586300000000000    0.7874099999999999 H
   0.7518899999999999    0.4859800000000000    0.9349900000000000 H
   0.6962050000000000    0.3313500000000000    0.8071500000000000 H
   0.7511250000000000    0.2131400000000000    0.8069700000000000 H
   0.8065450000000001    0.3669100000000000    0.9349000000000001 H
   0.9759400000000000    0.0481600000000000    0.5106600000000000 H
   0.9712950000000000    0.3385000000000000    0.5579499999999999 H
   0.5890250000000000    0.1436200000000000    0.6266650000000000 H
   0.5076600000000000    0.4172200000000000    0.6774400000000000 H
   0.5407350000000000    0.5327800000000000    0.7489000000000000 H
   0.6601700000000000    0.3988100000000000    0.7613150000000000 H
   0.6340550000000000    0.2793300000000000    0.6898900000000000 H
   0.7783700000000000    0.8116100000000001    0.9140750000000000 H
   0.8324450000000000    0.9309500000000001    0.9137299999999999 H
   0.7717400000000000    0.8341800000000000    0.7867700000000000 H
   0.7178400000000000    0.7144400000000000    0.7871500000000000 H
   0.5024750000000000    0.3841300000000000    0.9349499999999999 H
   0.9459050000000000    0.2825500000000000    0.8072750000000000 H
   0.5006200000000000    0.4006600000000000    0.8070900000000000 H
   0.5570500000000000    0.5031600000000001    0.9348700000000000 H
   0.6789250000000000    0.8565199999999999    0.9444399999999999 H
   0.7268000000000000    0.9740900000000000    0.5114450000000000 H
   0.7207050000000000    0.7778700000000000    0.5578900000000000 H
   0.6735450000000001    0.6674099999999999    0.9887500000000000 H
   0.8395950000000000    0.1102000000000000    0.6276300000000000 H
   0.7575149999999999    0.9379500000000000    0.6775300000000000 H
   0.7906100000000000    0.9646500000000000    0.7487600000000000 H
   0.9107799999999999    0.1222600000000000    0.7615100000000000 H
   0.8846600000000000    0.0994500000000000    0.6903049999999999 H
   0.7216250000000000    0.1883600000000000    0.5859350000000000 H
   0.6675450000000001    0.0690200000000000    0.5862750000000000 H
   0.7282550000000000    0.1657700000000000    0.7132350000000001 H
   0.7821549999999999    0.2855100000000000    0.7128500000000000 H
   0.9975149999999999    0.6158200000000000    0.5650550000000000 H
   0.5540850000000000    0.7174100000000000    0.6927350000000000 H
   0.9993700000000000    0.5993000000000001    0.6929149999999999 H
   0.9429449999999999    0.4967900000000000    0.5651349999999999 H
   0.8210600000000000    0.1434400000000000    0.5555650000000000 H
   0.7731850000000000    0.0258700000000000    0.9885600000000000 H
   0.7792850000000000    0.2220900000000000    0.9421150000000000 H
   0.8264450000000000    0.3325400000000000    0.5112500000000000 H
   0.6603900000000000    0.8897500000000000    0.8723750000000000 H
   0.7424750000000000    0.0619900000000000    0.8224750000000001 H
   0.7093800000000000    0.0353000000000000    0.7512449999999999 H
   0.5892100000000000    0.8776900000000000    0.7384950000000000 H
   0.6153300000000000    0.9005000000000000    0.8095000000000000 H
   0.9716100000000000    0.9824400000000000    0.5857000000000000 H
   0.9175400000000000    0.1025300000000000    0.5859500000000000 H
   0.9781949999999999    0.2617400000000000    0.7129300000000001 H
   0.5321600000000000    0.1413300000000000    0.7125950000000000 H
   0.7481050000000000    0.5139899999999999    0.5650150000000000 H
   0.8037799999999999    0.6685900000000000    0.6928500000000000 H
   0.7488600000000000    0.7868000000000001    0.6930000000000001 H
   0.6934450000000000    0.6330500000000000    0.5650500000000001 H
   0.5719100000000000    0.9676700000000000    0.5560550000000000 H
   0.5240450000000000    0.9517900000000000    0.9893449999999999 H
   0.5286999999999999    0.6614500000000000    0.9420550000000000 H
   0.5759000000000000    0.6888300000000001    0.5109750000000000 H
   0.9109650000000000    0.8563300000000000    0.8733400000000000 H
   0.9923299999999999    0.5827300000000000    0.8225500000000000 H
   0.9592550000000000    0.4671700000000000    0.7511000000000000 H
   0.8398200000000000    0.6011400000000000    0.7386900000000001 H
   0.8659300000000000    0.7206200000000000    0.8101200000000000 H
   0.0841700000000000    0.7351000000000000    0.3515450000000000 C
   0.4579650000000000    0.0104000000000000    0.3526500000000000 C
   0.4946650000000000    0.9446099999999999    0.3509900000000000 C
   0.0277900000000000    0.9566400000000000    0.3865250000000000 C
   0.0576150000000000    0.8900800000000000    0.3863600000000000 C
   0.0549250000000000    0.8101900000000000    0.3506500000000000 C
   0.0233600000000000    0.8001100000000000    0.3147050000000000 C
   0.4934500000000000    0.8668000000000000    0.3148650000000000 C
   0.1900000000000000    0.4891500000000000    0.3703650000000000 C
   0.2210000000000000    0.4160700000000000    0.3710300000000000 C
   0.2516450000000000    0.4253800000000000    0.4071900000000000 C
   0.2203950000000000    0.3384200000000000    0.3350100000000000 C
   0.3165050000000000    0.2136500000000000    0.3698700000000000 C
   0.2818400000000000    0.2823500000000000    0.3709750000000000 C
   0.2505750000000000    0.2724900000000000    0.3349500000000000 C
   0.2817650000000000    0.3590700000000000    0.4071500000000000 C
   0.4384150000000000    0.0987600000000000    0.4698750000000000 C
   0.4653150000000000    0.1076200000000000    0.0067150000000000 C
   0.4789750000000000    0.1950900000000000    0.0384700000000000 C
   0.4628300000000000    0.2702000000000000    0.0332300000000000 C
   0.4361300000000000    0.2547300000000000    0.4952150000000000 C
   0.3341800000000000    0.9672800000000000    0.3512200000000000 C
   0.2079400000000000    0.6944700000000000    0.3525250000000000 C
   0.2446500000000000    0.7567400000000000    0.3507600000000000 C
   0.2777800000000000    0.8163700000000000    0.3862700000000000 C
   0.3076200000000000    0.8825000000000000    0.3860700000000000 C
   0.3049100000000000    0.8904200000000000    0.3503500000000000 C
   0.2733350000000000    0.8280100000000000    0.3144200000000000 C
   0.2434450000000000    0.7616600000000000    0.3146100000000000 C
   0.4402200000000000    0.2513800000000000    0.3704100000000000 C
   0.4711750000000000    0.3258300000000000    0.3710700000000000 C
   0.0020050000000000    0.3890500000000000    0.4071900000000000 C
   0.4702600000000000    0.3313600000000000    0.3351000000000000 C
   0.0664450000000000    0.5261800000000000    0.3699150000000000 C
   0.0318200000000000    0.4596500000000000    0.3710000000000000 C
   0.0003400000000000    0.3972900000000000    0.3350000000000000 C
   0.0320750000000000    0.4553300000000000    0.4071400000000000 C
   0.1889400000000000    0.8417900000000000    0.4702500000000000 C
   0.2158500000000000    0.9065900000000000    0.0072250000000000 C
   0.2291450000000000    0.8824700000000000    0.0388100000000000 C
   0.2125800000000000    0.7967800000000000    0.0332900000000000 C
   0.1859000000000000    0.7362500000000000    0.4951600000000000 C
   0.3010300000000000    0.0000000000000000    0.1360300000000000 C
   0.3139100000000000    0.0508900000000000    0.1162100000000000 C
   0.3185100000000000    0.0164000000000000    0.1777200000000000 C
   0.2919700000000000    0.9780799999999999    0.1947450000000000 C
   0.3098350000000000    0.9933999999999999    0.2343900000000000 C
   0.3773500000000000    0.0814900000000000    0.2415000000000000 C
   0.3621700000000000    0.0690100000000000    0.2019650000000000 C
   0.1658150000000000    0.0326900000000000    0.1487850000000000 C
   0.2920600000000000    0.3054900000000000    0.1474500000000000 C
   0.2553450000000000    0.2432200000000000    0.1492500000000000 C
   0.2222150000000000    0.1835900000000000    0.1137400000000000 C
   0.1923750000000000    0.1174600000000000    0.1139400000000000 C
   0.1950850000000000    0.1095300000000000    0.1496550000000000 C
   0.2266600000000000    0.1719400000000000    0.1855500000000000 C
   0.2565550000000000    0.2382900000000000    0.1854000000000000 C
   0.0597750000000000    0.7485800000000000    0.1295950000000000 C
   0.0288150000000000    0.6741300000000000    0.1289350000000000 C
   0.4979850000000000    0.6109100000000000    0.0928150000000000 C
   0.0297300000000000    0.6686000000000000    0.1649050000000000 C
   0.4335550000000000    0.4737700000000000    0.1300900000000000 C
   0.4681650000000000    0.5403200000000000    0.1289950000000000 C
   0.4996550000000000    0.6026700000000000    0.1649700000000000 C
   0.4679200000000000    0.5446200000000000    0.0928650000000000 C
   0.3110400000000000    0.1581700000000000    0.0297600000000000 C
   0.2841350000000000    0.0933600000000000    0.4927800000000000 C
   0.2708450000000000    0.1174900000000000    0.4611950000000000 C
   0.2874100000000000    0.2031700000000000    0.4667150000000000 C
   0.3140900000000000    0.2637100000000000    0.0000000000000000 C
   0.1989600000000000    0.9983100000000000    0.3639750000000000 C
   0.1860800000000000    0.9490600000000000    0.3837950000000000 C
   0.1814800000000000    0.9835500000000000    0.3222850000000000 C
   0.2080200000000000    0.0218700000000000    0.3052600000000000 C
   0.1901550000000000    0.0000000000000000    0.2656150000000000 C
   0.1226400000000000    0.9184600000000001    0.2585050000000000 C
   0.1378200000000000    0.9309400000000000    0.2980400000000000 C
   0.4158200000000000    0.2648600000000000    0.1484600000000000 C
   0.0420250000000000    0.9895500000000000    0.1473350000000000 C
   0.0000000000000000    0.0553500000000000    0.1490100000000000 C
   0.4721950000000000    0.0433100000000000    0.1134800000000000 C
   0.4423750000000000    0.1098600000000000    0.1136400000000000 C
   0.4450600000000000    0.1897500000000000    0.1493500000000000 C
   0.4766300000000000    0.1998400000000000    0.1853000000000000 C
   0.0000000000000000    0.1331500000000000    0.1851400000000000 C
   0.3099900000000000    0.5108100000000000    0.1296400000000000 C
   0.2789850000000000    0.5838800000000000    0.1289750000000000 C
   0.2483500000000000    0.5745800000000000    0.0928150000000000 C
   0.2795950000000000    0.6615300000000000    0.1649950000000000 C
   0.1834900000000000    0.7863100000000000    0.1301350000000000 C
   0.2181500000000000    0.7176100000000000    0.1290300000000000 C
   0.2494100000000000    0.7274500000000000    0.1650550000000000 C
   0.2182250000000000    0.6408900000000000    0.0928550000000000 C
   0.0615750000000000    0.9011900000000000    0.0301300000000000 C
   0.0346750000000000    0.8923300000000000    0.4932500000000000 C
   0.0210150000000000    0.8048600000000000    0.4615350000000000 C
   0.0371650000000000    0.7297500000000000    0.4667800000000000 C
   0.0638650000000000    0.7452200000000000    0.0000000000000000 C
   0.4491900000000000    0.7302500000000000    0.3644050000000000 C
   0.4365050000000000    0.8194500000000000    0.3845400000000000 C
   0.4316850000000000    0.6617000000000000    0.3225800000000000 C
   0.4580400000000000    0.5889100000000000    0.3053700000000000 C
   0.4401800000000000    0.5249900000000000    0.2656050000000000 C
   0.3730800000000000    0.5999200000000000    0.2586850000000000 C
   0.3882700000000000    0.6664700000000000    0.2983500000000000 C
   0.5841700000000000    0.7351000000000000    0.3515450000000000 C
   0.9579650000000000    0.0104000000000000    0.3526500000000000 C
   0.9946650000000000    0.9446099999999999    0.3509900000000000 C
   0.5277900000000000    0.9566400000000000    0.3865250000000000 C
   0.5576150000000000    0.8900800000000000    0.3863600000000000 C
   0.5549250000000000    0.8101900000000000    0.3506500000000000 C
   0.5233600000000000    0.8001100000000000    0.3147050000000000 C
   0.9934499999999999    0.8668000000000000    0.3148650000000000 C
   0.6899999999999999    0.4891500000000000    0.3703650000000000 C
   0.7210000000000000    0.4160700000000000    0.3710300000000000 C
   0.7516450000000000    0.4253800000000000    0.4071900000000000 C
   0.7203950000000000    0.3384200000000000    0.3350100000000000 C
   0.8165050000000000    0.2136500000000000    0.3698700000000000 C
   0.7818400000000000    0.2823500000000000    0.3709750000000000 C
   0.7505750000000000    0.2724900000000000    0.3349500000000000 C
   0.7817650000000000    0.3590700000000000    0.4071500000000000 C
   0.9384150000000000    0.0987600000000000    0.4698750000000000 C
   0.9361300000000000    0.2547300000000000    0.4952150000000000 C
   0.5508000000000000    0.2696900000000000    0.1356000000000000 C
   0.5634850000000000    0.1804900000000000    0.1154650000000000 C
   0.5683050000000001    0.3382500000000000    0.1774250000000000 C
   0.5419500000000000    0.4110400000000000    0.1946350000000000 C
   0.5598100000000000    0.4749500000000000    0.2344050000000000 C
   0.6269050000000000    0.4000300000000000    0.2413200000000000 C
   0.6117200000000000    0.3334800000000000    0.2016550000000000 C
   0.8341799999999999    0.9672800000000000    0.3512200000000000 C
   0.7079400000000000    0.6944700000000000    0.3525250000000000 C
   0.7446500000000000    0.7567400000000000    0.3507600000000000 C
   0.7777800000000000    0.8163700000000000    0.3862700000000000 C
   0.8076200000000000    0.8825000000000000    0.3860700000000000 C
   0.8049100000000000    0.8904200000000000    0.3503500000000000 C
   0.7733350000000000    0.8280100000000000    0.3144200000000000 C
   0.7434450000000000    0.7616600000000000    0.3146100000000000 C
   0.9402200000000001    0.2513800000000000    0.3704100000000000 C
   0.9711750000000000    0.3258300000000000    0.3710700000000000 C
   0.5020050000000000    0.3890500000000000    0.4071900000000000 C