Zn16 H44 C88 O48
1.0
  15.9826619768817864    0.0000000000000000    9.1670682954114202
   5.3101737797895838   15.0772936982767849    9.1729040747376374
   0.0000000000000000    0.0000000000000000   36.8620000000000019
Zn H C O
16 44 88 48
direct
   0.2936300000000000    0.2936700000000000    0.1468200000000000 Zn
   0.1195300000000000    0.2933500000000000    0.1466600000000000 Zn
   0.2933600000000000    0.1195500000000000    0.1466300000000000 Zn
   0.7066200000000000    0.7067000000000000    0.4402000000000000 Zn
   0.7063300000000000    0.7063199999999999    0.3531750000000000 Zn
   0.7066100000000000    0.8804400000000000    0.3533650000000000 Zn
   0.8804400000000000    0.7066400000000000    0.3533300000000000 Zn
   0.2933500000000000    0.2932900000000000    0.0597650000000000 Zn
   0.2936300000000000    0.2936700000000000    0.6468200000000000 Zn
   0.1195300000000000    0.2933500000000000    0.6466600000000000 Zn
   0.2933600000000000    0.1195500000000000    0.6466300000000000 Zn
   0.7066200000000000    0.7067000000000000    0.9401999999999999 Zn
   0.7063300000000000    0.7063199999999999    0.8531750000000000 Zn
   0.7066100000000000    0.8804400000000000    0.8533649999999999 Zn
   0.8804400000000000    0.7066400000000000    0.8533299999999999 Zn
   0.2933500000000000    0.2932900000000000    0.5597650000000000 Zn
   0.4518000000000000    0.4512700000000000    0.4660000000000000 H
   0.4519400000000000    0.4525500000000000    0.0821550000000000 H
   0.9318400000000000    0.1643400000000000    0.2260400000000000 H
   0.1643600000000000    0.9318400000000000    0.2257750000000000 H
   0.4518200000000000    0.9318700000000000    0.0821650000000000 H
   0.4518000000000000    0.1643400000000000    0.4659000000000000 H
   0.4519500000000000    0.1643300000000000    0.2262700000000000 H
   0.4518300000000000    0.9319900000000000    0.2256200000000000 H
   0.9318400000000000    0.4521100000000000    0.0821650000000000 H
   0.1643600000000000    0.4515100000000000    0.4659300000000000 H
   0.5481700000000000    0.5487200000000000    0.0339950000000000 H
   0.5480300000000000    0.5474400000000000    0.4178350000000000 H
   0.8356100000000000    0.0681500000000000    0.2742200000000000 H
   0.0681200000000000    0.8356400000000000    0.2739550000000000 H
   0.0681300000000000    0.5478700000000000    0.4178300000000000 H
   0.8356000000000000    0.5484800000000000    0.0340650000000000 H
   0.5481400000000000    0.0680000000000000    0.2743700000000000 H
   0.5480200000000000    0.8356600000000000    0.2737250000000000 H
   0.5481500000000000    0.0681200000000000    0.4178300000000000 H
   0.5481700000000000    0.8356500000000000    0.0340500000000000 H
   0.4518000000000000    0.4512700000000000    0.9660000000000000 H
   0.4519400000000000    0.4525500000000000    0.5821550000000000 H
   0.9318400000000000    0.1643400000000000    0.7260400000000000 H
   0.1643600000000000    0.9318400000000000    0.7257750000000001 H
   0.4518200000000000    0.9318700000000000    0.5821650000000000 H
   0.4518000000000000    0.1643400000000000    0.9659000000000000 H
   0.9318800000000000    0.4516000000000000    0.7257500000000000 H
   0.1643500000000000    0.4521900000000000    0.7261450000000000 H
   0.4519500000000000    0.1643300000000000    0.7262700000000000 H
   0.4518300000000000    0.9319900000000000    0.7256199999999999 H
   0.9318400000000000    0.4521100000000000    0.5821650000000000 H
   0.1643600000000000    0.4515100000000000    0.9659300000000000 H
   0.5481700000000000    0.5487200000000000    0.5339950000000000 H
   0.5480300000000000    0.5474400000000000    0.9178350000000000 H
   0.8356100000000000    0.0681500000000000    0.7742200000000000 H
   0.0681200000000000    0.8356400000000000    0.7739549999999999 H
   0.0681300000000000    0.5478700000000000    0.9178299999999999 H
   0.8356000000000000    0.5484800000000000    0.5340650000000000 H
   0.5481400000000000    0.0680000000000000    0.7743700000000000 H
   0.5480200000000000    0.8356600000000000    0.7737250000000000 H
   0.8356100000000000    0.5477900000000000    0.7738499999999999 H
   0.0680800000000000    0.5483900000000000    0.7742050000000000 H
   0.5481500000000000    0.0681200000000000    0.9178299999999999 H
   0.5481700000000000    0.8356500000000000    0.5340500000000000 H
   0.4732900000000000    0.4729900000000000    0.4805100000000000 C
   0.4733800000000000    0.4737100000000000    0.0461650000000000 C
   0.9609100000000000    0.0923500000000000    0.2367300000000000 C
   0.0923600000000000    0.9609100000000000    0.2365800000000000 C
   0.4733100000000000    0.9609300000000000    0.0461700000000000 C
   0.4733000000000000    0.0923500000000000    0.4800000000000000 C
   0.4733900000000000    0.0923400000000000    0.2368500000000000 C
   0.4733100000000000    0.9610200000000000    0.2364900000000000 C
   0.9609000000000000    0.4734800000000000    0.0461700000000000 C
   0.0923600000000000    0.4731400000000000    0.4804600000000000 C
   0.5266700000000000    0.5270000000000000    0.0194850000000000 C
   0.5265900000000000    0.5262700000000000    0.4538300000000000 C
   0.9076100000000000    0.0390700000000000    0.2634150000000000 C
   0.0390600000000000    0.9076400000000000    0.2632650000000000 C
   0.0390700000000000    0.5265100000000000    0.4538250000000000 C
   0.9076100000000000    0.5268500000000000    0.0195350000000000 C
   0.5266600000000000    0.0389700000000000    0.2635050000000000 C
   0.5265800000000000    0.9076500000000000    0.2631400000000000 C
   0.5266600000000000    0.0390600000000000    0.4538250000000000 C
   0.5266700000000000    0.9076400000000000    0.0195450000000000 C
   0.3890000000000000    0.3890500000000000    0.0555350000000000 C
   0.4463400000000000    0.4463700000000000    0.0268500000000000 C
   0.1109400000000000    0.1109100000000000    0.1943950000000000 C
   0.0536200000000000    0.0536000000000000    0.2231000000000000 C
   0.3888300000000000    0.1109300000000000    0.0554350000000000 C
   0.4462800000000000    0.0536200000000000    0.0267900000000000 C
   0.3890400000000000    0.1110900000000000    0.1900000000000000 C
   0.4463600000000000    0.0537100000000000    0.2231700000000000 C
   0.1109400000000000    0.3888200000000000    0.0554500000000000 C
   0.0536200000000000    0.4462800000000000    0.0268000000000000 C
   0.6109700000000000    0.6109400000000000    0.4444500000000000 C
   0.5536300000000000    0.5536200000000000    0.4731400000000000 C
   0.8890200000000000    0.8890800000000000    0.3055950000000000 C
   0.9463400000000000    0.9463800000000000    0.2768550000000000 C
   0.8890300000000000    0.6111700000000000    0.4445450000000000 C
   0.9463500000000000    0.5537000000000000    0.4731950000000000 C
   0.6109200000000000    0.8889000000000000    0.3050000000000000 C
   0.5536000000000000    0.9462699999999999    0.2768250000000000 C
   0.6111500000000000    0.8890500000000000    0.4445600000000000 C
   0.5536900000000000    0.9463600000000000    0.4732050000000000 C
   0.4732900000000000    0.4729900000000000    0.9805100000000000 C
   0.4733800000000000    0.4737100000000000    0.5461650000000000 C
   0.9609100000000000    0.0923500000000000    0.7367300000000000 C
   0.0923600000000000    0.9609100000000000    0.7365800000000000 C
   0.4733100000000000    0.9609300000000000    0.5461700000000000 C
   0.4733000000000000    0.0923500000000000    0.9800000000000000 C
   0.9609600000000000    0.4731700000000000    0.7365850000000000 C
   0.0923500000000000    0.4735100000000000    0.7367850000000000 C
   0.4733900000000000    0.0923400000000000    0.7368500000000000 C
   0.4733100000000000    0.9610200000000000    0.7364900000000000 C
   0.9609000000000000    0.4734800000000000    0.5461700000000000 C
   0.0923600000000000    0.4731400000000000    0.9804600000000000 C
   0.5266700000000000    0.5270000000000000    0.5194850000000000 C
   0.5265900000000000    0.5262700000000000    0.9538300000000000 C
   0.9076100000000000    0.0390700000000000    0.7634150000000000 C
   0.0390600000000000    0.9076400000000000    0.7632650000000001 C
   0.0390700000000000    0.5265100000000000    0.9538249999999999 C
   0.9076100000000000    0.5268500000000000    0.5195350000000000 C
   0.5266600000000000    0.0389700000000000    0.7635050000000000 C
   0.5265800000000000    0.9076500000000000    0.7631399999999999 C
   0.9076200000000000    0.5264799999999999    0.7632000000000000 C
   0.0390100000000000    0.5268200000000000    0.7634099999999999 C
   0.5266600000000000    0.0390600000000000    0.9538249999999999 C
   0.5266700000000000    0.9076400000000000    0.5195450000000000 C
   0.3890000000000000    0.3890500000000000    0.5555350000000000 C
   0.4463400000000000    0.4463700000000000    0.5268500000000000 C
   0.1109400000000000    0.1109100000000000    0.6943950000000000 C
   0.0536200000000000    0.0536000000000000    0.7231000000000000 C
   0.3888300000000000    0.1109300000000000    0.5554350000000000 C
   0.4462800000000000    0.0536200000000000    0.5267900000000000 C
   0.1110500000000000    0.3890200000000000    0.6945250000000001 C
   0.0537000000000000    0.4463400000000000    0.7231900000000000 C
   0.3890400000000000    0.1110900000000000    0.6899999999999999 C
   0.4463600000000000    0.0537100000000000    0.7231700000000000 C
   0.1109400000000000    0.3888200000000000    0.5554500000000000 C
   0.0536200000000000    0.4462800000000000    0.5268000000000000 C
   0.6109700000000000    0.6109400000000000    0.9444500000000000 C
   0.5536300000000000    0.5536200000000000    0.9731400000000000 C
   0.8890200000000000    0.8890800000000000    0.8055950000000001 C
   0.9463400000000000    0.9463800000000000    0.7768550000000001 C
   0.8890300000000000    0.6111700000000000    0.9445450000000000 C
   0.9463500000000000    0.5537000000000000    0.9731950000000000 C
   0.6109200000000000    0.8889000000000000    0.8049999999999999 C
   0.5536000000000000    0.9462699999999999    0.7768250000000000 C
   0.8889100000000000    0.6109700000000000    0.8054650000000000 C
   0.9462699999999999    0.5536500000000000    0.7767999999999999 C
   0.6111500000000000    0.8890500000000000    0.9445600000000001 C
   0.5536900000000000    0.9463600000000000    0.9732050000000000 C
   0.3667400000000000    0.3668500000000000    0.0357300000000000 O
   0.3670400000000000    0.3670800000000000    0.0974300000000000 O
   0.0713500000000000    0.1946900000000000    0.1832850000000000 O
   0.1947400000000000    0.0713100000000000    0.1833000000000000 O
   0.3666800000000000    0.0713400000000000    0.0973250000000000 O
   0.3666500000000000    0.1947200000000000    0.0356350000000000 O
   0.3671900000000000    0.1948900000000000    0.1834550000000000 O
   0.3667100000000000    0.0714800000000000    0.1834300000000000 O
   0.0713500000000000    0.3665600000000000    0.0973350000000000 O
   0.1947300000000000    0.3667600000000000    0.0356500000000000 O
   0.6332200000000000    0.6331400000000000    0.4642600000000000 O
   0.6329300000000000    0.6329100000000000    0.4025600000000000 O
   0.8052300000000000    0.9286799999999999    0.3166550000000000 O
   0.9286200000000000    0.8053000000000000    0.3167100000000000 O
   0.9286200000000000    0.6334300000000000    0.4026550000000000 O
   0.8052400000000000    0.6332300000000000    0.4643450000000000 O
   0.6332600000000000    0.9285099999999999    0.3165600000000000 O
   0.6327900000000000    0.8051000000000000    0.3165350000000000 O
   0.6332800000000000    0.9286400000000000    0.4026700000000000 O
   0.6333000000000000    0.8052700000000000    0.4643600000000000 O
   0.2500100000000000    0.2500100000000000    0.1249500000000000 O
   0.7499600000000000    0.7499800000000000    0.3750000000000000 O
   0.3667400000000000    0.3668500000000000    0.5357300000000000 O
   0.3670400000000000    0.3670800000000000    0.5974300000000000 O
   0.0713500000000000    0.1946900000000000    0.6832850000000000 O
   0.1947400000000000    0.0713100000000000    0.6833000000000000 O
   0.3666800000000000    0.0713400000000000    0.5973250000000000 O
   0.3666500000000000    0.1947200000000000    0.5356350000000000 O
   0.0714200000000000    0.3668300000000000    0.6830000000000001 O
   0.1948700000000000    0.3670300000000000    0.6835500000000000 O
   0.3671900000000000    0.1948900000000000    0.6834550000000000 O
   0.3667100000000000    0.0714800000000000    0.6834300000000000 O
   0.0713500000000000    0.3665600000000000    0.5973349999999999 O
   0.1947300000000000    0.3667600000000000    0.5356500000000000 O
   0.6332200000000000    0.6331400000000000    0.9642600000000000 O
   0.6329300000000000    0.6329100000000000    0.9025600000000000 O
   0.8052300000000000    0.9286799999999999    0.8166550000000000 O
   0.9286200000000000    0.8053000000000000    0.8167100000000000 O
   0.9286200000000000    0.6334300000000000    0.9026550000000000 O
   0.8052400000000000    0.6332300000000000    0.9643450000000000 O
   0.6332600000000000    0.9285099999999999    0.8165600000000000 O
   0.6327900000000000    0.8051000000000000    0.8165350000000000 O
   0.8050900000000000    0.6329500000000000    0.8164450000000000 O
   0.9285400000000000    0.6331599999999999    0.8166000000000000 O
   0.6332800000000000    0.9286400000000000    0.9026700000000000 O
   0.6333000000000000    0.8052700000000000    0.9643600000000000 O
   0.2500100000000000    0.2500100000000000    0.6249500000000000 O
   0.7499600000000000    0.7499800000000000    0.8750000000000000 O
