H8 C12 N1 O2
1.0
  30.2659999999999982    0.0000000000000000    0.0000000000000019
   0.0000000000000057   35.3560000000000016    0.0000000000000022
   0.0000000000000000    0.0000000000000000   35.3560000000000016
H C N O
8 12 1 2
direct
   0.3664850000000000    0.3119700000000000    0.9369250000000000 H
   0.3477600000000000    0.2439200000000000    0.9453150000000000 H
   0.2098250000000000    0.2735100000000000    0.9531000000000001 H
   0.2293900000000000    0.3412400000000000    0.9429900000000000 H
   0.2033050000000000    0.2162650000000000    0.9239550000000001 H
   0.1892300000000000    0.1470100000000000    0.9282850000000000 H
   0.3080050000000000    0.1283900000000000    0.9830749999999999 H
   0.3260750000000000    0.1970400000000000    0.9835250000000000 H
   0.3322900000000000    0.3030500000000000    0.9404049999999999 C
   0.3216450000000000    0.2651550000000000    0.9455850000000000 C
   0.2773750000000000    0.2536550000000000    0.9496550000000000 C
   0.2442650000000000    0.2816000000000000    0.9489650000000001 C
   0.2990450000000000    0.3306050000000000    0.9389900000000000 C
   0.2549150000000000    0.3195200000000000    0.9436000000000000 C
   0.2665300000000000    0.2130650000000000    0.9530350000000001 C
   0.2271650000000000    0.1980450000000000    0.9381250000000000 C
   0.2193400000000000    0.1593800000000000    0.9398650000000000 C
   0.2857100000000000    0.1490450000000000    0.9705349999999999 C
   0.2957700000000000    0.1873400000000000    0.9700700000000000 C
   0.3106000000000000    0.3715750000000000    0.9328900000000000 C
   0.2483200000000000    0.1349650000000000    0.9554400000000001 N
   0.2791750000000000    0.3946250000000000    0.9289499999999999 O
   0.3521300000000000    0.3791000000000000    0.9322900000000001 O
