H4 C3 O3
1.0
  30.2659999999999982    0.0000000000000000    0.0000000000000019
   0.0000000000000057   35.3560000000000016    0.0000000000000022
   0.0000000000000000    0.0000000000000000   35.3560000000000016
H C O
4 3 3
direct
   0.8667000000000000    0.4953900000000000    0.5517750000000000 H
   0.8322250000000000    0.4952350000000000    0.6335850000000001 H
   0.8684050000000000    0.4613200000000000    0.6120300000000000 H
   0.8871200000000000    0.5035950000000000    0.6201900000000000 H
   0.7997500000000000    0.4804700000000000    0.5642800000000000 C
   0.8582850000000000    0.4911250000000000    0.6123050000000000 C
   0.8415550000000001    0.5000000000000000    0.5730750000000000 C
   0.7625450000000000    0.4972550000000000    0.5646850000000000 O
   0.8032750000000000    0.4450850000000000    0.5583150000000000 O
   0.8329450000000000    0.5371800000000000    0.5711550000000000 O
