H9 O6
1.0
  14.2388931167538928    0.0000000000000000   -0.0551707319020580
  -0.0476656936708984   14.5417104016688050    0.0784256057942169
   0.0000000000000000    0.0000000000000000   15.0679999999999996
H O
9 6
direct
   0.6601751016272337    0.5149392747439293    1.0954507284786961 H
   0.7331965576667657    0.7348627864684906    0.9465906954673319 H
   0.7051296770477086    0.6367305751087986    1.0185541823259083 H
   0.0371627160955215    0.7998837568168006    0.2462298226100135 H
  -0.0874784687028207    0.8656084678233072    0.0244368003253118 H
  -0.0408520869484948    0.8289280114872996    0.1311623465672708 H
   0.7472950890893947    0.5001639407055157    0.3041277500390213 H
   0.9847310010733366    0.6141877657287268    0.3683984985400100 H
   0.8763531745161582    0.5737643883533768    0.3354503491267984 H
   0.6543400000000000    0.5554400000000000    1.0443799999999999 O
   0.6989000000000000    0.6799700000000000    0.9640300000000001 O
   0.0441700000000000    0.8313199999999999    0.1896900000000000 O
  -0.0323299999999999    0.8671600000000000    0.0624000000000000 O
   0.8074500000000000    0.4894400000000000    0.3327200000000000 O
   0.9421200000000000    0.5620400000000000    0.3667100000000000 O
