Ag144 H715 C572 N286
1.0
  32.8844889360125592    0.0000000000000000   -0.0269753084747077
  -0.0841880614716692   38.2739002681200091   -0.0233802546727053
   0.0000000000000000    0.0000000000000000   20.0659999999999989
Ag H C N
144 715 572 286
direct
   0.2846700000000000    0.1096166666666667    0.9650000000000000 Ag
   0.2150933333333333    0.0570400000000000    0.9650400000000000 Ag
   0.1179933333333333    0.0571100000000000    0.5349000000000000 Ag
   0.0831766666666667    0.2500633333333333    0.6751200000000001 Ag
   0.2498233333333333    0.2499633333333333    0.8251200000000000 Ag
   0.0001266666666667    0.0626433333333333    0.2497900000000000 Ag
   0.1668000000000000    0.1039800000000000    0.2500500000000000 Ag
   0.2847766666666667    0.2237833333333333    0.4648900000000000 Ag
   0.0486233333333333    0.2237400000000000    0.0349200000000000 Ag
   0.1181800000000000    0.2763266666666667    0.0349800000000000 Ag
   0.2152633333333333    0.2762033333333333    0.4651100000000000 Ag
   0.2500599999999999    0.0832500000000000    0.3248800000000000 Ag
   0.0834233333333333    0.0833966666666667    0.1748500000000000 Ag
   0.3332033333333333    0.2707000000000000    0.7501400000000000 Ag
   0.1664666666666667    0.2293666666666667    0.7499800000000000 Ag
   0.0484833333333333    0.1095366666666667    0.5350700000000000 Ag
   0.6180033333333332    0.1096166666666667    0.9650000000000000 Ag
   0.5484266666666666    0.0570400000000000    0.9650400000000000 Ag
   0.4513266666666667    0.0571100000000000    0.5349000000000000 Ag
   0.4165100000000000    0.2500633333333333    0.6751200000000001 Ag
   0.5831566666666667    0.2499633333333333    0.8251200000000000 Ag
   0.3334600000000000    0.0626433333333333    0.2497900000000000 Ag
   0.5001333333333333    0.1039800000000000    0.2500500000000000 Ag
   0.6181099999999999    0.2237833333333333    0.4648900000000000 Ag
   0.3819566666666667    0.2237400000000000    0.0349200000000000 Ag
   0.4515133333333333    0.2763266666666667    0.0349800000000000 Ag
   0.5485966666666666    0.2762033333333333    0.4651100000000000 Ag
   0.5833933333333332    0.0832500000000000    0.3248800000000000 Ag
   0.4167566666666667    0.0833966666666667    0.1748500000000000 Ag
   0.6665366666666666    0.2707000000000000    0.7501400000000000 Ag
   0.4998000000000000    0.2293666666666667    0.7499800000000000 Ag
   0.3818166666666666    0.1095366666666667    0.5350700000000000 Ag
   0.9513366666666666    0.1096166666666667    0.9650000000000000 Ag
   0.8817599999999999    0.0570400000000000    0.9650400000000000 Ag
   0.7846599999999999    0.0571100000000000    0.5349000000000000 Ag
   0.7498433333333333    0.2500633333333333    0.6751200000000001 Ag
   0.9164899999999999    0.2499633333333333    0.8251200000000000 Ag
   0.6667933333333333    0.0626433333333333    0.2497900000000000 Ag
   0.8334666666666666    0.1039800000000000    0.2500500000000000 Ag
   0.9514433333333333    0.2237833333333333    0.4648900000000000 Ag
   0.7152900000000000    0.2237400000000000    0.0349200000000000 Ag
   0.7848466666666667    0.2763266666666667    0.0349800000000000 Ag
   0.8819299999999999    0.2762033333333333    0.4651100000000000 Ag
   0.9167266666666666    0.0832500000000000    0.3248800000000000 Ag
   0.7500899999999999    0.0833966666666667    0.1748500000000000 Ag
   0.9998699999999999    0.2707000000000000    0.7501400000000000 Ag
   0.8331333333333333    0.2293666666666667    0.7499800000000000 Ag
   0.7151500000000000    0.1095366666666667    0.5350700000000000 Ag
   0.2846700000000000    0.4429500000000000    0.9650000000000000 Ag
   0.2150933333333333    0.3903733333333333    0.9650400000000000 Ag
   0.1179933333333333    0.3904433333333333    0.5349000000000000 Ag
   0.0831766666666667    0.5833966666666666    0.6751200000000001 Ag
   0.2498233333333333    0.5832966666666666    0.8251200000000000 Ag
   0.0001266666666667    0.3959766666666666    0.2497900000000000 Ag
   0.1668000000000000    0.4373133333333333    0.2500500000000000 Ag
   0.2847766666666667    0.5571166666666667    0.4648900000000000 Ag
   0.0486233333333333    0.5570733333333333    0.0349200000000000 Ag
   0.1181800000000000    0.6096600000000000    0.0349800000000000 Ag
   0.2152633333333333    0.6095366666666666    0.4651100000000000 Ag
   0.2500599999999999    0.4165833333333333    0.3248800000000000 Ag
   0.0834233333333333    0.4167300000000000    0.1748500000000000 Ag
   0.3332033333333333    0.6040333333333333    0.7501400000000000 Ag
   0.1664666666666667    0.5627000000000000    0.7499800000000000 Ag
   0.0484833333333333    0.4428700000000000    0.5350700000000000 Ag
   0.6180033333333332    0.4429500000000000    0.9650000000000000 Ag
   0.5484266666666666    0.3903733333333333    0.9650400000000000 Ag
   0.4513266666666667    0.3904433333333333    0.5349000000000000 Ag
   0.4165100000000000    0.5833966666666666    0.6751200000000001 Ag
   0.5831566666666667    0.5832966666666666    0.8251200000000000 Ag
   0.3334600000000000    0.3959766666666666    0.2497900000000000 Ag
   0.5001333333333333    0.4373133333333333    0.2500500000000000 Ag
   0.6181099999999999    0.5571166666666667    0.4648900000000000 Ag
   0.3819566666666667    0.5570733333333333    0.0349200000000000 Ag
   0.4515133333333333    0.6096600000000000    0.0349800000000000 Ag
   0.5485966666666666    0.6095366666666666    0.4651100000000000 Ag
   0.5833933333333332    0.4165833333333333    0.3248800000000000 Ag
   0.4167566666666667    0.4167300000000000    0.1748500000000000 Ag
   0.6665366666666666    0.6040333333333333    0.7501400000000000 Ag
   0.4998000000000000    0.5627000000000000    0.7499800000000000 Ag
   0.3818166666666666    0.4428700000000000    0.5350700000000000 Ag
   0.9513366666666666    0.4429500000000000    0.9650000000000000 Ag
   0.8817599999999999    0.3903733333333333    0.9650400000000000 Ag
   0.7846599999999999    0.3904433333333333    0.5349000000000000 Ag
   0.7498433333333333    0.5833966666666666    0.6751200000000001 Ag
   0.9164899999999999    0.5832966666666666    0.8251200000000000 Ag
   0.6667933333333333    0.3959766666666666    0.2497900000000000 Ag
   0.8334666666666666    0.4373133333333333    0.2500500000000000 Ag
   0.9514433333333333    0.5571166666666667    0.4648900000000000 Ag
   0.7152900000000000    0.5570733333333333    0.0349200000000000 Ag
   0.7848466666666667    0.6096600000000000    0.0349800000000000 Ag
   0.8819299999999999    0.6095366666666666    0.4651100000000000 Ag
   0.9167266666666666    0.4165833333333333    0.3248800000000000 Ag
   0.7500899999999999    0.4167300000000000    0.1748500000000000 Ag
   0.9998699999999999    0.6040333333333333    0.7501400000000000 Ag
   0.8331333333333333    0.5627000000000000    0.7499800000000000 Ag
   0.7151500000000000    0.4428700000000000    0.5350700000000000 Ag
   0.2846700000000000    0.7762833333333333    0.9650000000000000 Ag
   0.2150933333333333    0.7237066666666666    0.9650400000000000 Ag
   0.1179933333333333    0.7237766666666666    0.5349000000000000 Ag
   0.0831766666666667    0.9167299999999999    0.6751200000000001 Ag
   0.2498233333333333    0.9166299999999999    0.8251200000000000 Ag
   0.0001266666666667    0.7293099999999999    0.2497900000000000 Ag
   0.1668000000000000    0.7706466666666666    0.2500500000000000 Ag
   0.2847766666666667    0.8904500000000000    0.4648900000000000 Ag
   0.0486233333333333    0.8904066666666666    0.0349200000000000 Ag
   0.1181800000000000    0.9429933333333334    0.0349800000000000 Ag
   0.2152633333333333    0.9428699999999999    0.4651100000000000 Ag
   0.2500599999999999    0.7499166666666666    0.3248800000000000 Ag
   0.0834233333333333    0.7500633333333333    0.1748500000000000 Ag
   0.3332033333333333    0.9373666666666667    0.7501400000000000 Ag
   0.1664666666666667    0.8960333333333332    0.7499800000000000 Ag
   0.0484833333333333    0.7762033333333334    0.5350700000000000 Ag
   0.6180033333333332    0.7762833333333333    0.9650000000000000 Ag
   0.5484266666666666    0.7237066666666666    0.9650400000000000 Ag
   0.4513266666666667    0.7237766666666666    0.5349000000000000 Ag
   0.4165100000000000    0.9167299999999999    0.6751200000000001 Ag
   0.5831566666666667    0.9166299999999999    0.8251200000000000 Ag
   0.3334600000000000    0.7293099999999999    0.2497900000000000 Ag
   0.5001333333333333    0.7706466666666666    0.2500500000000000 Ag
   0.6181099999999999    0.8904500000000000    0.4648900000000000 Ag
   0.3819566666666667    0.8904066666666666    0.0349200000000000 Ag
   0.4515133333333333    0.9429933333333334    0.0349800000000000 Ag
   0.5485966666666666    0.9428699999999999    0.4651100000000000 Ag
   0.5833933333333332    0.7499166666666666    0.3248800000000000 Ag
   0.4167566666666667    0.7500633333333333    0.1748500000000000 Ag
   0.6665366666666666    0.9373666666666667    0.7501400000000000 Ag
   0.4998000000000000    0.8960333333333332    0.7499800000000000 Ag
   0.3818166666666666    0.7762033333333334    0.5350700000000000 Ag
   0.9513366666666666    0.7762833333333333    0.9650000000000000 Ag
   0.8817599999999999    0.7237066666666666    0.9650400000000000 Ag
   0.7846599999999999    0.7237766666666666    0.5349000000000000 Ag
   0.7498433333333333    0.9167299999999999    0.6751200000000001 Ag
   0.9164899999999999    0.9166299999999999    0.8251200000000000 Ag
   0.6667933333333333    0.7293099999999999    0.2497900000000000 Ag
   0.8334666666666666    0.7706466666666666    0.2500500000000000 Ag
   0.9514433333333333    0.8904500000000000    0.4648900000000000 Ag
   0.7152900000000000    0.8904066666666666    0.0349200000000000 Ag
   0.7848466666666667    0.9429933333333334    0.0349800000000000 Ag
   0.8819299999999999    0.9428699999999999    0.4651100000000000 Ag
   0.9167266666666666    0.7499166666666666    0.3248800000000000 Ag
   0.7500899999999999    0.7500633333333333    0.1748500000000000 Ag
   0.9998699999999999    0.9373666666666667    0.7501400000000000 Ag
   0.8331333333333333    0.8960333333333332    0.7499800000000000 Ag
   0.7151500000000000    0.7762033333333334    0.5350700000000000 Ag
   0.0627166666666667    0.1120633333333333    0.6986200000000000 H
   0.0783200000000000    0.1745900000000000    0.7635300000000000 H
   0.0466000000000000    0.2206400000000000    0.5392400000000001 H
   0.0986233333333333    0.2094233333333333    0.5277900000000000 H
   0.0597433333333333    0.1808533333333333    0.4986900000000000 H
   0.0036000000000000    0.0064933333333333    0.3727700000000000 H
   0.0226733333333333    0.0268400000000000    0.5019600000000000 H
   0.0225700000000000    0.1276933333333333    0.3171300000000000 H
   0.0187166666666667    0.1435066666666667    0.3999400000000000 H
   0.0668066666666667    0.1300533333333333    0.3686200000000000 H
   0.2700200000000000    0.1120066666666667    0.8016600000000000 H
   0.2543533333333333    0.1744433333333333    0.7367700000000000 H
   0.2866433333333333    0.2207200000000000    0.9609200000000000 H
   0.2346000000000000    0.2094533333333333    0.9725700000000000 H
   0.2734166666666666    0.1809466666666666    0.0015400000000000 H
   0.3297633333333333    0.0065166666666667    0.1264800000000000 H
   0.3104033333333333    0.0269600000000000    0.9975500000000000 H
   0.3114533333333333    0.1277700000000000    0.1826600000000000 H
   0.3148033333333333    0.1435766666666667    0.0998100000000000 H
   0.2669066666666666    0.1299733333333333    0.1319100000000000 H
   0.2292266666666666    0.0545066666666667    0.8015600000000001 H
   0.2449566666666667    0.3253833333333333    0.7367500000000000 H
   0.2132066666666667    0.2793800000000000    0.9611700000000000 H
   0.2653466666666666    0.2905200000000000    0.9723700000000000 H
   0.2267500000000000    0.3191600000000000    0.0016200000000000 H
   0.1703033333333333    0.1601033333333333    0.1269000000000000 H
   0.1893366666666667    0.1396833333333333    0.9978399999999999 H
   0.1891300000000000    0.0389566666666667    0.1829000000000000 H
   0.1854000000000000    0.0230900000000000    0.1000900000000000 H
   0.2334400000000000    0.0367466666666667    0.1317100000000000 H
   0.1034366666666666    0.0547766666666667    0.6982300000000000 H
   0.0878733333333333    0.3256666666666667    0.7632800000000000 H
   0.1198566666666667    0.2792600000000000    0.5393700000000000 H
   0.0678733333333333    0.2905100000000000    0.5274500000000000 H
   0.1068466666666667    0.3189966666666667    0.4985700000000000 H
   0.1631100000000000    0.1601933333333333    0.3731300000000000 H
   0.1437666666666667    0.1398333333333333    0.5021200000000000 H
   0.1448666666666666    0.0387966666666667    0.3174700000000000 H
   0.1479066666666667    0.0231300000000000    0.4004500000000000 H
   0.1001533333333333    0.0366166666666667    0.3677500000000000 H
   0.2704966666666667    0.2212466666666666    0.3013500000000000 H
   0.2548899999999999    0.1587133333333333    0.2364600000000000 H
   0.2866566666666667    0.1127133333333333    0.4607900000000000 H
   0.2346100000000000    0.1238666666666667    0.4722100000000000 H
   0.2734333333333333    0.1524900000000000    0.5013200000000000 H
   0.3297500000000000    0.3268799999999999    0.6271500000000000 H
   0.3106100000000000    0.3064800000000000    0.4979900000000000 H
   0.3107799999999999    0.2056066666666667    0.6827900000000000 H
   0.3146366666666667    0.1898066666666667    0.5999800000000000 H
   0.2665400000000000    0.2032366666666666    0.6313100000000000 H
   0.0633133333333333    0.2213633333333333    0.1982500000000000 H
   0.0789133333333333    0.1589233333333333    0.2631600000000000 H
   0.0466533333333333    0.1126033333333333    0.0390800000000000 H
   0.0986733333333333    0.1239233333333333    0.0273200000000000 H
   0.0597933333333333    0.1523833333333333    0.0000000000000000 H
   0.0036166666666667    0.3268033333333333    0.8734300000000000 H
   0.0228266666666667    0.3063900000000000    0.0024100000000000 H
   0.0218933333333333    0.2056100000000000    0.8172500000000000 H
   0.0185900000000000    0.1897933333333333    0.9000899999999999 H
   0.0664633333333333    0.2034366666666667    0.8679600000000000 H
   0.1040766666666667    0.2788600000000000    0.1984800000000000 H
   0.0883200000000000    0.0079833333333333    0.2632700000000000 H
   0.1200333333333333    0.0539466666666667    0.0387800000000000 H
   0.0678733333333333    0.0428466666666667    0.0276800000000000 H
   0.1064166666666667    0.0141733333333333    0.0000000000000000 H
   0.1629233333333333    0.1732533333333333    0.8731100000000001 H
   0.1439066666666667    0.1936866666666667    0.0021800000000000 H
   0.1442266666666667    0.2944266666666666    0.8171500000000000 H
   0.1478966666666666    0.3102733333333333    0.8999800000000000 H
   0.0998766666666667    0.2966400000000000    0.8682500000000000 H
   0.2298700000000000    0.2785266666666666    0.3018100000000000 H
   0.2454266666666667    0.0076333333333333    0.2367400000000000 H
   0.2133666666666666    0.0541033333333333    0.4605300000000000 H
   0.2653133333333333    0.0427833333333333    0.4726400000000000 H
   0.2262466666666667    0.0143533333333333    0.5014000000000000 H
   0.3960500000000000    0.1120633333333333    0.6986200000000000 H
   0.4116533333333333    0.1745900000000000    0.7635300000000000 H
   0.3799333333333333    0.2206400000000000    0.5392400000000001 H
   0.4319566666666667    0.2094233333333333    0.5277900000000000 H
   0.3930766666666666    0.1808533333333333    0.4986900000000000 H
   0.3369333333333333    0.0064933333333333    0.3727700000000000 H
   0.3560066666666666    0.0268400000000000    0.5019600000000000 H
   0.3559033333333333    0.1276933333333333    0.3171300000000000 H
   0.3520500000000000    0.1435066666666667    0.3999400000000000 H
   0.4001399999999999    0.1300533333333333    0.3686200000000000 H
   0.6033533333333333    0.1120066666666667    0.8016600000000000 H
   0.5876866666666667    0.1744433333333333    0.7367700000000000 H
   0.6199766666666666    0.2207200000000000    0.9609200000000000 H
   0.5679333333333333    0.2094533333333333    0.9725700000000000 H
   0.6067499999999999    0.1809466666666666    0.0015400000000000 H
   0.6630966666666667    0.0065166666666667    0.1264800000000000 H
   0.6437366666666666    0.0269600000000000    0.9975500000000000 H
   0.6447866666666666    0.1277700000000000    0.1826600000000000 H
   0.6481366666666666    0.1435766666666667    0.0998100000000000 H
   0.6002399999999999    0.1299733333333333    0.1319100000000000 H
   0.5625599999999999    0.0545066666666667    0.8015600000000001 H
   0.5782900000000000    0.3253833333333333    0.7367500000000000 H
   0.5465400000000000    0.2793800000000000    0.9611700000000000 H
   0.5986799999999999    0.2905200000000000    0.9723700000000000 H
   0.5600833333333333    0.3191600000000000    0.0016200000000000 H
   0.5036366666666666    0.1601033333333333    0.1269000000000000 H
   0.5226700000000000    0.1396833333333333    0.9978399999999999 H
   0.5224633333333333    0.0389566666666667    0.1829000000000000 H
   0.5187333333333333    0.0230900000000000    0.1000900000000000 H
   0.5667733333333334    0.0367466666666667    0.1317100000000000 H
   0.4367700000000000    0.0547766666666667    0.6982300000000000 H
   0.4212066666666666    0.3256666666666667    0.7632800000000000 H
   0.4531900000000000    0.2792600000000000    0.5393700000000000 H
   0.4012066666666667    0.2905100000000000    0.5274500000000000 H
   0.4401800000000000    0.3189966666666667    0.4985700000000000 H
   0.4964433333333333    0.1601933333333333    0.3731300000000000 H
   0.4771000000000000    0.1398333333333333    0.5021200000000000 H
   0.4782000000000000    0.0387966666666667    0.3174700000000000 H
   0.4812400000000000    0.0231300000000000    0.4004500000000000 H
   0.4334866666666666    0.0366166666666667    0.3677500000000000 H
   0.6038300000000000    0.2212466666666666    0.3013500000000000 H
   0.5882233333333333    0.1587133333333333    0.2364600000000000 H
   0.6199900000000000    0.1127133333333333    0.4607900000000000 H
   0.5679433333333332    0.1238666666666667    0.4722100000000000 H
   0.6067666666666667    0.1524900000000000    0.5013200000000000 H
   0.6630833333333332    0.3268799999999999    0.6271500000000000 H
   0.6439433333333333    0.3064800000000000    0.4979900000000000 H
   0.6441133333333333    0.2056066666666667    0.6827900000000000 H
   0.6479699999999999    0.1898066666666667    0.5999800000000000 H
   0.5998733333333333    0.2032366666666666    0.6313100000000000 H
   0.3966466666666666    0.2213633333333333    0.1982500000000000 H
   0.4122466666666667    0.1589233333333333    0.2631600000000000 H
   0.3799866666666666    0.1126033333333333    0.0390800000000000 H
   0.4320066666666666    0.1239233333333333    0.0273200000000000 H
   0.3931266666666666    0.1523833333333333    0.0000000000000000 H
   0.3369500000000000    0.3268033333333333    0.8734300000000000 H
   0.3561600000000000    0.3063900000000000    0.0024100000000000 H
   0.3552266666666666    0.2056100000000000    0.8172500000000000 H
   0.3519233333333333    0.1897933333333333    0.9000899999999999 H
   0.3997966666666666    0.2034366666666667    0.8679600000000000 H
   0.4374100000000000    0.2788600000000000    0.1984800000000000 H
   0.4216533333333333    0.0079833333333333    0.2632700000000000 H
   0.4533666666666666    0.0539466666666667    0.0387800000000000 H
   0.4012066666666667    0.0428466666666667    0.0276800000000000 H
   0.4397500000000000    0.0141733333333333    0.0000000000000000 H
   0.4962566666666666    0.1732533333333333    0.8731100000000001 H
   0.4772400000000000    0.1936866666666667    0.0021800000000000 H
   0.4775600000000000    0.2944266666666666    0.8171500000000000 H
   0.4812299999999999    0.3102733333333333    0.8999800000000000 H
   0.4332100000000000    0.2966400000000000    0.8682500000000000 H
   0.5632033333333333    0.2785266666666666    0.3018100000000000 H
   0.5787599999999999    0.0076333333333333    0.2367400000000000 H
   0.5467000000000000    0.0541033333333333    0.4605300000000000 H
   0.5986466666666665    0.0427833333333333    0.4726400000000000 H
   0.5595800000000000    0.0143533333333333    0.5014000000000000 H
   0.5035066666666667    0.1731266666666667    0.6269300000000000 H
   0.5228300000000000    0.1934766666666667    0.4979200000000000 H
   0.5218000000000000    0.2945200000000000    0.6825700000000000 H
   0.5186833333333334    0.3101933333333333    0.5996100000000000 H
   0.5664700000000000    0.2967100000000000    0.6321900000000000 H
   0.7293833333333333    0.1120633333333333    0.6986200000000000 H
   0.7449866666666667    0.1745900000000000    0.7635300000000000 H
   0.7132666666666666    0.2206400000000000    0.5392400000000001 H
   0.7652900000000000    0.2094233333333333    0.5277900000000000 H
   0.7264100000000000    0.1808533333333333    0.4986900000000000 H
   0.6702666666666667    0.0064933333333333    0.3727700000000000 H
   0.6893400000000000    0.0268400000000000    0.5019600000000000 H
   0.6892366666666666    0.1276933333333333    0.3171300000000000 H
   0.6853833333333333    0.1435066666666667    0.3999400000000000 H
   0.7334733333333333    0.1300533333333333    0.3686200000000000 H
   0.9366866666666667    0.1120066666666667    0.8016600000000000 H
   0.9210199999999999    0.1744433333333333    0.7367700000000000 H
   0.9533099999999999    0.2207200000000000    0.9609200000000000 H
   0.9012666666666667    0.2094533333333333    0.9725700000000000 H
   0.9400833333333333    0.1809466666666666    0.0015400000000000 H
   0.9964299999999999    0.0065166666666667    0.1264800000000000 H
   0.9770699999999999    0.0269600000000000    0.9975500000000000 H
   0.9781199999999999    0.1277700000000000    0.1826600000000000 H
   0.9814700000000000    0.1435766666666667    0.0998100000000000 H
   0.9335733333333333    0.1299733333333333    0.1319100000000000 H
   0.8958933333333332    0.0545066666666667    0.8015600000000001 H
   0.9116233333333332    0.3253833333333333    0.7367500000000000 H
   0.8798733333333333    0.2793800000000000    0.9611700000000000 H
   0.9320133333333332    0.2905200000000000    0.9723700000000000 H
   0.8934166666666666    0.3191600000000000    0.0016200000000000 H
   0.8369700000000000    0.1601033333333333    0.1269000000000000 H
   0.8560033333333332    0.1396833333333333    0.9978399999999999 H
   0.8557966666666665    0.0389566666666667    0.1829000000000000 H
   0.8520666666666666    0.0230900000000000    0.1000900000000000 H
   0.9001066666666666    0.0367466666666667    0.1317100000000000 H
   0.7701033333333333    0.0547766666666667    0.6982300000000000 H
   0.7545400000000000    0.3256666666666667    0.7632800000000000 H
   0.7865233333333332    0.2792600000000000    0.5393700000000000 H
   0.7345400000000000    0.2905100000000000    0.5274500000000000 H
   0.7735133333333333    0.3189966666666667    0.4985700000000000 H
   0.8297766666666666    0.1601933333333333    0.3731300000000000 H
   0.8104333333333333    0.1398333333333333    0.5021200000000000 H
   0.8115333333333332    0.0387966666666667    0.3174700000000000 H
   0.8145733333333333    0.0231300000000000    0.4004500000000000 H
   0.7668199999999999    0.0366166666666667    0.3677500000000000 H
   0.9371633333333333    0.2212466666666666    0.3013500000000000 H
   0.9215566666666666    0.1587133333333333    0.2364600000000000 H
   0.9533233333333333    0.1127133333333333    0.4607900000000000 H
   0.9012766666666666    0.1238666666666667    0.4722100000000000 H
   0.9400999999999999    0.1524900000000000    0.5013200000000000 H
   0.9964166666666666    0.3268799999999999    0.6271500000000000 H
   0.9772766666666666    0.3064800000000000    0.4979900000000000 H
   0.9774466666666666    0.2056066666666667    0.6827900000000000 H
   0.9813033333333333    0.1898066666666667    0.5999800000000000 H
   0.9332066666666666    0.2032366666666666    0.6313100000000000 H
   0.7299800000000000    0.2213633333333333    0.1982500000000000 H
   0.7455799999999999    0.1589233333333333    0.2631600000000000 H
   0.7133200000000000    0.1126033333333333    0.0390800000000000 H
   0.7653399999999999    0.1239233333333333    0.0273200000000000 H
   0.7264600000000000    0.1523833333333333    0.0000000000000000 H
   0.6702833333333333    0.3268033333333333    0.8734300000000000 H
   0.6894933333333333    0.3063900000000000    0.0024100000000000 H
   0.6885599999999999    0.2056100000000000    0.8172500000000000 H
   0.6852566666666666    0.1897933333333333    0.9000899999999999 H
   0.7331299999999999    0.2034366666666667    0.8679600000000000 H
   0.7707433333333333    0.2788600000000000    0.1984800000000000 H
   0.7549866666666666    0.0079833333333333    0.2632700000000000 H
   0.7867000000000000    0.0539466666666667    0.0387800000000000 H
   0.7345400000000000    0.0428466666666667    0.0276800000000000 H
   0.7730833333333333    0.0141733333333333    0.0000000000000000 H
   0.8295899999999999    0.1732533333333333    0.8731100000000001 H
   0.8105733333333333    0.1936866666666667    0.0021800000000000 H
   0.8108933333333332    0.2944266666666666    0.8171500000000000 H
   0.8145633333333333    0.3102733333333333    0.8999800000000000 H
   0.7665433333333334    0.2966400000000000    0.8682500000000000 H
   0.8965366666666665    0.2785266666666666    0.3018100000000000 H
   0.9120933333333333    0.0076333333333333    0.2367400000000000 H
   0.8800333333333332    0.0541033333333333    0.4605300000000000 H
   0.9319799999999999    0.0427833333333333    0.4726400000000000 H
   0.8929133333333332    0.0143533333333333    0.5014000000000000 H
   0.8368399999999999    0.1731266666666667    0.6269300000000000 H
   0.8561633333333333    0.1934766666666667    0.4979200000000000 H
   0.8551333333333333    0.2945200000000000    0.6825700000000000 H
   0.8520166666666666    0.3101933333333333    0.5996100000000000 H
   0.8998033333333333    0.2967100000000000    0.6321900000000000 H
   0.0627166666666667    0.4453966666666667    0.6986200000000000 H
   0.0783200000000000    0.5079233333333333    0.7635300000000000 H
   0.0466000000000000    0.5539733333333333    0.5392400000000001 H
   0.0986233333333333    0.5427566666666667    0.5277900000000000 H
   0.0597433333333333    0.5141866666666667    0.4986900000000000 H
   0.0036000000000000    0.3398266666666667    0.3727700000000000 H
   0.0226733333333333    0.3601733333333333    0.5019600000000000 H
   0.0225700000000000    0.4610266666666666    0.3171300000000000 H
   0.0187166666666667    0.4768400000000000    0.3999400000000000 H
   0.0668066666666667    0.4633866666666666    0.3686200000000000 H
   0.2700200000000000    0.4453400000000000    0.8016600000000000 H
   0.2543533333333333    0.5077766666666667    0.7367700000000000 H
   0.2866433333333333    0.5540533333333333    0.9609200000000000 H
   0.2346000000000000    0.5427866666666666    0.9725700000000000 H
   0.2734166666666666    0.5142800000000000    0.0015400000000000 H
   0.3297633333333333    0.3398500000000000    0.1264800000000000 H
   0.3104033333333333    0.3602933333333333    0.9975500000000000 H
   0.3114533333333333    0.4611033333333333    0.1826600000000000 H
   0.3148033333333333    0.4769099999999999    0.0998100000000000 H
   0.2669066666666666    0.4633066666666666    0.1319100000000000 H
   0.2292266666666666    0.3878400000000000    0.8015600000000001 H
   0.2449566666666667    0.6587166666666666    0.7367500000000000 H
   0.2132066666666667    0.6127133333333332    0.9611700000000000 H
   0.2653466666666666    0.6238533333333334    0.9723700000000000 H
   0.2267500000000000    0.6524933333333334    0.0016200000000000 H
   0.1703033333333333    0.4934366666666666    0.1269000000000000 H
   0.1893366666666667    0.4730166666666666    0.9978399999999999 H
   0.1891300000000000    0.3722900000000000    0.1829000000000000 H
   0.1854000000000000    0.3564233333333333    0.1000900000000000 H
   0.2334400000000000    0.3700800000000000    0.1317100000000000 H
   0.1034366666666666    0.3881100000000000    0.6982300000000000 H
   0.0878733333333333    0.6590000000000000    0.7632800000000000 H
   0.1198566666666667    0.6125933333333333    0.5393700000000000 H
   0.0678733333333333    0.6238433333333333    0.5274500000000000 H
   0.1068466666666667    0.6523300000000000    0.4985700000000000 H
   0.1631100000000000    0.4935266666666667    0.3731300000000000 H
   0.1437666666666667    0.4731666666666666    0.5021200000000000 H
   0.1448666666666666    0.3721300000000000    0.3174700000000000 H
   0.1479066666666667    0.3564633333333333    0.4004500000000000 H
   0.1001533333333333    0.3699500000000000    0.3677500000000000 H
   0.2704966666666667    0.5545800000000000    0.3013500000000000 H
   0.2548899999999999    0.4920466666666666    0.2364600000000000 H
   0.2866566666666667    0.4460466666666666    0.4607900000000000 H
   0.2346100000000000    0.4571999999999999    0.4722100000000000 H
   0.2734333333333333    0.4858233333333333    0.5013200000000000 H
   0.3297500000000000    0.6602133333333333    0.6271500000000000 H
   0.3106100000000000    0.6398133333333333    0.4979900000000000 H
   0.3107799999999999    0.5389400000000000    0.6827900000000000 H
   0.3146366666666667    0.5231399999999999    0.5999800000000000 H
   0.2665400000000000    0.5365700000000000    0.6313100000000000 H
   0.0633133333333333    0.5546966666666666    0.1982500000000000 H
   0.0789133333333333    0.4922566666666667    0.2631600000000000 H
   0.0466533333333333    0.4459366666666666    0.0390800000000000 H
   0.0986733333333333    0.4572566666666666    0.0273200000000000 H
   0.0597933333333333    0.4857166666666666    0.0000000000000000 H
   0.0036166666666667    0.6601366666666666    0.8734300000000000 H