Zn8 H20 C40 O22
1.0
  15.9818866309929373    0.0000000000000000    9.1503199787815745
   5.3116501377556897   15.0850786945719459    9.1451463953646730
   0.0000000000000000    0.0000000000000000   18.4220000000000006
Zn H C O
8 20 40 22
direct
   0.3804900000000000    0.2067600000000000    0.2067600000000000 Zn
   0.2061500000000000    0.2063800000000000    0.2063800000000000 Zn
   0.2067300000000000    0.2066900000000000    0.3803900000000000 Zn
   0.6195200000000000    0.7932100000000000    0.7932000000000000 Zn
   0.7932800000000000    0.6196000000000000    0.7933200000000000 Zn
   0.7938600000000000    0.7935900000000000    0.7936400000000000 Zn
   0.7932700000000000    0.7932800000000000    0.6196199999999999 Zn
   0.2067300000000000    0.3803700000000000    0.2067000000000000 Zn
   0.0485100000000000    0.5680100000000000    0.0485200000000000 H
   0.5682000000000000    0.0480800000000000    0.3357400000000000 H
   0.0476500000000000    0.3357500000000000    0.0476600000000000 H
   0.3356300000000000    0.0481800000000000    0.5679999999999999 H
   0.0476500000000000    0.0476700000000000    0.3357500000000000 H
   0.5681900000000000    0.3357400000000000    0.0480700000000000 H
   0.0485200000000000    0.0485100000000000    0.5680400000000000 H
   0.3356200000000000    0.5680400000000000    0.0481900000000000 H
   0.5681200000000000    0.0484700000000000    0.0484600000000000 H
   0.3356400000000000    0.0477400000000000    0.0477300000000000 H
   0.4318900000000000    0.9515100000000000    0.9515500000000000 H
   0.6643700000000000    0.9522400000000000    0.9522800000000000 H
   0.9523600000000000    0.9523000000000000    0.6642600000000000 H
   0.6643900000000000    0.4319300000000000    0.9518200000000000 H
   0.9514899999999999    0.9514600000000000    0.4319800000000000 H
   0.4318200000000000    0.6642300000000000    0.9519400000000000 H
   0.6643800000000000    0.9517900000000000    0.4319500000000000 H
   0.9515000000000000    0.4319600000000000    0.9510000000000000 H
   0.4318100000000000    0.9519000000000000    0.6642700000000000 H
   0.9523600000000000    0.6642200000000000    0.9523500000000000 H
   0.0268800000000000    0.5389699999999999    0.0268800000000000 C
   0.5391100000000000    0.0266300000000000    0.4077000000000000 C
   0.0263900000000000    0.4077000000000000    0.0264000000000000 C
   0.4076400000000000    0.0266800000000000    0.5390300000000000 C
   0.0263900000000000    0.0264000000000000    0.4077100000000000 C
   0.5391000000000000    0.4076900000000000    0.0266200000000000 C
   0.0268900000000000    0.0268800000000000    0.5389900000000000 C
   0.4076300000000000    0.5390100000000000    0.0266900000000000 C
   0.5390300000000000    0.0268600000000000    0.0268000000000000 C
   0.4076400000000000    0.0264400000000000    0.0264400000000000 C
   0.4609800000000000    0.9731100000000000    0.9731600000000000 C
   0.5923700000000000    0.9735300000000000    0.9735800000000000 C
   0.9736200000000000    0.9735700000000000    0.5923000000000000 C
   0.5923800000000000    0.4609600000000000    0.9733200000000000 C
   0.9731200000000000    0.9730900000000000    0.4610200000000000 C
   0.4609100000000000    0.5922800000000000    0.9733900000000000 C
   0.5923700000000000    0.9732800000000000    0.4609800000000000 C
   0.9731300000000001    0.4610000000000000    0.9731300000000001 C
   0.4609000000000000    0.9733400000000000    0.5923100000000000 C
   0.9736200000000000    0.5922700000000000    0.9736200000000000 C
   0.1109100000000000    0.3889800000000000    0.1109900000000000 C
   0.0536200000000000    0.4463200000000000    0.0536400000000000 C
   0.3891100000000000    0.1111200000000000    0.3891000000000000 C
   0.4464100000000000    0.0536700000000000    0.4460000000000000 C
   0.1109200000000000    0.1109900000000000    0.3800000000000000 C
   0.0536200000000000    0.0536400000000000    0.4463400000000000 C
   0.3891100000000000    0.3890800000000000    0.1111300000000000 C
   0.4464000000000000    0.4463800000000000    0.0536700000000000 C
   0.3889500000000000    0.1110000000000000    0.1110000000000000 C
   0.4463200000000000    0.0536500000000000    0.0536500000000000 C
   0.6110600000000000    0.8889700000000000    0.8890100000000000 C
   0.5536900000000000    0.9463200000000001    0.9463600000000000 C
   0.8890900000000000    0.8889800000000000    0.6110200000000000 C
   0.9463900000000000    0.9463300000000000    0.5536799999999999 C
   0.6109100000000000    0.6108900000000000    0.8888800000000000 C
   0.5536100000000000    0.5535900000000000    0.9463500000000000 C
   0.6109000000000000    0.8888400000000000    0.6109200000000000 C
   0.5536000000000000    0.9463100000000000    0.5536200000000000 C
   0.8891000000000000    0.6109900000000000    0.8890000000000000 C
   0.9463900000000000    0.5536500000000000    0.9463700000000000 C
   0.1332400000000000    0.4286000000000000    0.1331800000000000 O
   0.4287100000000000    0.1333900000000000    0.3053500000000000 O
   0.1327800000000000    0.3052100000000000    0.1330000000000000 O
   0.3053100000000000    0.1332300000000000    0.4286600000000000 O
   0.1327600000000000    0.1330300000000000    0.3052200000000000 O
   0.4287100000000000    0.3053400000000000    0.1333700000000000 O
   0.1332600000000000    0.1331600000000000    0.4286200000000000 O
   0.3053100000000000    0.4286400000000000    0.1332400000000000 O
   0.4286100000000000    0.1332500000000000    0.1332400000000000 O
   0.3051200000000000    0.1329600000000000    0.1329000000000000 O
   0.5714000000000000    0.8667300000000000    0.8667700000000000 O
   0.6948900000000000    0.8670099999999999    0.8670400000000000 O
   0.8672500000000000    0.8669500000000000    0.6948000000000000 O
   0.6947000000000000    0.5713300000000000    0.8667800000000000 O
   0.8667600000000000    0.8668000000000000    0.5713900000000000 O
   0.5713100000000000    0.6946300000000000    0.8666400000000000 O
   0.6947000000000000    0.8667400000000000    0.5713500000000000 O
   0.8667700000000000    0.5713700000000000    0.8668300000000000 O
   0.5713000000000000    0.8665800000000000    0.6946600000000001 O
   0.8672299999999999    0.6947600000000000    0.8670099999999999 O
   0.2500000000000000    0.2500000000000000    0.2500000000000000 O
   0.7500100000000000    0.7499800000000000    0.7500100000000000 O
