H4 C8 O4
1.0
  38.3060610799722951    0.0000000000000000   -3.4038997543159151
  -0.0286460484447843   14.2569356439184300    0.0318504172130071
   0.0000000000000000    0.0000000000000000   20.1720000000000006
H C O
4 8 4
direct
   0.5179499999999999    0.1971800000000000    0.1725100000000000 H
   0.5403600000000000    0.2905100000000000    0.2723100000000000 H
   0.6428733333333333    0.1774900000000000    0.2583000000000000 H
   0.6210066666666667    0.0883600000000000    0.1566300000000000 H
   0.5547866666666667    0.0787900000000000    0.0996100000000000 C
   0.5679733333333333    0.1364000000000000    0.1585200000000000 C
   0.5453433333333333    0.1937700000000000    0.1912900000000000 C
   0.5578200000000000    0.2458400000000000    0.2467700000000000 C
   0.5930733333333333    0.2400000000000000    0.2711800000000000 C
   0.6156966666666666    0.1825700000000000    0.2384500000000000 C
   0.6033666666666666    0.1323500000000000    0.1822300000000000 C
   0.6066099999999999    0.2917700000000000    0.3329600000000000 C
   0.5777200000000000    1.0448100000000000    0.0634100000000000 O
   0.5221000000000000    1.0661900000000000    1.0884100000000001 O
   0.6381366666666666    0.2715800000000000    0.3549900000000000 O
   0.5866700000000000    0.3495400000000000    0.3583800000000000 O
