H9 O6
1.0
  28.4777862335077856    0.0000000000000000   -0.1103414638041160
  -0.0953313873417968   29.0834208033376100    0.1568512115884338
   0.0000000000000000    0.0000000000000000   30.1359999999999992
H O
9 6
direct
   0.5960958224874969    0.9625473436651039    0.0820116945895796 H
   0.5242888181604148   -0.0000369702405350    0.0639692298526000 H
   0.6361040260786864    0.1191977799306385    0.2634952615474059 H
   0.6740944115283605    0.0094077785171628    0.1990364223883519 H
   0.6541256499444391    0.0616350106668653    0.2235466560399479 H
   0.4432749156751609    0.1662722091578643    0.1533663860207880 H
   0.4823902318255150    0.1843046243326141    0.2221945350208027 H
   1.0936066600787147    0.1874644966212096    0.1905319328940439 H
   0.5620780354930671    0.6107520468507293    0.0647824306639320 H
   0.5933349999999999    0.9957800000000000    0.0820650000000000 O
   0.5269850000000000    0.0331750000000000    0.0654600000000000 O
   0.6521749999999999    0.0899050000000000    0.2655500000000000 O
   0.6728450000000000    0.0275150000000000    0.2259400000000000 O
   0.4772550000000000    0.1658650000000000    0.1556650000000000 O
   0.5162200000000000    0.1824000000000000    0.2191200000000000 O
