Zn64 H93 C279 O186
1.0
  28.4777862335077856    0.0000000000000000   -0.1103414638041160
  -0.0953313873417968   29.0834208033376100    0.1568512115884338
   0.0000000000000000    0.0000000000000000   30.1359999999999992
Zn H C O
64 93 279 186
direct
   0.3455250000000000    0.3302150000000000    0.4127250000000000 Zn
   0.4672050000000000    0.2285950000000000    0.2240000000000000 Zn
   0.4034800000000000    0.1715850000000000    0.1630100000000000 Zn
   0.2161450000000000    0.0215250000000000    0.2756100000000000 Zn
   0.1540500000000000    0.0801350000000000    0.3354850000000000 Zn
   0.0328400000000000    0.4803050000000000    0.0254750000000000 Zn
   0.0949150000000000    0.4218450000000000    0.0872400000000000 Zn
   0.2824050000000000    0.2715450000000000    0.4739650000000000 Zn
   0.8455250000000001    0.3302150000000000    0.4127250000000000 Zn
   0.9672050000000000    0.2285950000000000    0.2240000000000000 Zn
   0.9034800000000001    0.1715850000000000    0.1630100000000000 Zn
   0.7161450000000000    0.0215250000000000    0.2756100000000000 Zn
   0.6540500000000000    0.0801350000000000    0.3354850000000000 Zn
   0.5328400000000000    0.4803050000000000    0.0254750000000000 Zn
   0.5949150000000000    0.4218450000000000    0.0872400000000000 Zn
   0.7824050000000000    0.2715450000000000    0.4739650000000000 Zn
   0.3455250000000000    0.8302149999999999    0.4127250000000000 Zn
   0.4672050000000000    0.7285950000000000    0.2240000000000000 Zn
   0.4034800000000000    0.6715850000000000    0.1630100000000000 Zn
   0.2161450000000000    0.5215250000000000    0.2756100000000000 Zn
   0.1540500000000000    0.5801350000000000    0.3354850000000000 Zn
   0.0328400000000000    0.9803050000000000    0.0254750000000000 Zn
   0.0949150000000000    0.9218450000000000    0.0872400000000000 Zn
   0.2824050000000000    0.7715449999999999    0.4739650000000000 Zn
   0.8455250000000001    0.8302149999999999    0.4127250000000000 Zn
   0.9672050000000000    0.7285950000000000    0.2240000000000000 Zn
   0.9034800000000001    0.6715850000000000    0.1630100000000000 Zn
   0.7161450000000000    0.5215250000000000    0.2756100000000000 Zn
   0.6540500000000000    0.5801350000000000    0.3354850000000000 Zn
   0.5328400000000000    0.9803050000000000    0.0254750000000000 Zn
   0.5949150000000000    0.9218450000000000    0.0872400000000000 Zn
   0.7824050000000000    0.7715449999999999    0.4739650000000000 Zn
   0.3455250000000000    0.3302150000000000    0.9127250000000000 Zn
   0.4672050000000000    0.2285950000000000    0.7240000000000000 Zn
   0.4034800000000000    0.1715850000000000    0.6630100000000000 Zn
   0.2161450000000000    0.0215250000000000    0.7756100000000000 Zn
   0.1540500000000000    0.0801350000000000    0.8354850000000000 Zn
   0.0328400000000000    0.4803050000000000    0.5254750000000000 Zn
   0.0949150000000000    0.4218450000000000    0.5872400000000000 Zn
   0.2824050000000000    0.2715450000000000    0.9739650000000000 Zn
   0.8455250000000001    0.3302150000000000    0.9127250000000000 Zn
   0.9672050000000000    0.2285950000000000    0.7240000000000000 Zn
   0.9034800000000001    0.1715850000000000    0.6630100000000000 Zn
   0.7161450000000000    0.0215250000000000    0.7756100000000000 Zn
   0.6540500000000000    0.0801350000000000    0.8354850000000000 Zn
   0.5328400000000000    0.4803050000000000    0.5254750000000000 Zn
   0.5949150000000000    0.4218450000000000    0.5872400000000000 Zn
   0.7824050000000000    0.2715450000000000    0.9739650000000000 Zn
   0.3455250000000000    0.8302149999999999    0.9127250000000000 Zn
   0.4672050000000000    0.7285950000000000    0.7240000000000000 Zn
   0.4034800000000000    0.6715850000000000    0.6630100000000000 Zn
   0.2161450000000000    0.5215250000000000    0.7756100000000000 Zn
   0.1540500000000000    0.5801350000000000    0.8354850000000000 Zn
   0.0328400000000000    0.9803050000000000    0.5254750000000000 Zn
   0.0949150000000000    0.9218450000000000    0.5872400000000000 Zn
   0.2824050000000000    0.7715449999999999    0.9739650000000000 Zn
   0.8455250000000001    0.8302149999999999    0.9127250000000000 Zn
   0.9672050000000000    0.7285950000000000    0.7240000000000000 Zn
   0.9034800000000001    0.6715850000000000    0.6630100000000000 Zn
   0.7161450000000000    0.5215250000000000    0.7756100000000000 Zn
   0.6540500000000000    0.5801350000000000    0.8354850000000000 Zn
   0.5328400000000000    0.9803050000000000    0.5254750000000000 Zn
   0.5949150000000000    0.9218450000000000    0.5872400000000000 Zn
   0.7824050000000000    0.7715449999999999    0.9739650000000000 Zn
   0.4170500000000000    0.3822350000000000    0.0132350000000000 H
   0.4883900000000000    0.3495750000000000    0.1356300000000000 H
   0.3699650000000000    0.2680300000000000    0.0932000000000000 H
   0.3328750000000000    0.1183150000000000    0.2640050000000000 H
   0.2608350000000000    0.1521500000000000    0.3848500000000000 H
   0.3803500000000000    0.2324450000000000    0.3430350000000000 H
   0.0836150000000000    0.1317350000000000    0.2355850000000000 H
   0.0101100000000000    0.1001750000000000    0.1142900000000000 H
   0.1290750000000000    0.0186300000000000    0.1548650000000000 H
   0.1668000000000000    0.3693600000000000    0.4870000000000000 H
   0.2382350000000000    0.4019500000000000    0.3654250000000000 H
   0.1194100000000000    0.4825500000000000    0.4062500000000000 H
   0.9170499999999999    0.3822350000000000    0.0132350000000000 H
   0.9883900000000000    0.3495750000000000    0.1356300000000000 H
   0.8699650000000000    0.2680300000000000    0.0932000000000000 H
   0.8328750000000000    0.1183150000000000    0.2640050000000000 H
   0.7608349999999999    0.1521500000000000    0.3848500000000000 H
   0.8803500000000000    0.2324450000000000    0.3430350000000000 H
   0.6668000000000001    0.3693600000000000    0.4870000000000000 H
   0.7382350000000000    0.4019500000000000    0.3654250000000000 H
   0.6194100000000000    0.4825500000000000    0.4062500000000000 H
   0.4170500000000000    0.8822350000000000    0.0132350000000000 H
   0.4883900000000000    0.8495750000000000    0.1356300000000000 H
   0.3699650000000000    0.7680300000000000    0.0932000000000000 H
   0.3328750000000000    0.6183149999999999    0.2640050000000000 H
   0.2608350000000000    0.6521500000000000    0.3848500000000000 H
   0.3803500000000000    0.7324450000000000    0.3430350000000000 H
   0.0836150000000000    0.6317349999999999    0.2355850000000000 H
   0.0101100000000000    0.6001750000000000    0.1142900000000000 H
   0.1290750000000000    0.5186300000000000    0.1548650000000000 H
   0.1668000000000000    0.8693600000000000    0.4870000000000000 H
   0.2382350000000000    0.9019500000000000    0.3654250000000000 H
   0.1194100000000000    0.9825500000000000    0.4062500000000000 H
   0.9170499999999999    0.8822350000000000    0.0132350000000000 H
   0.9883900000000000    0.8495750000000000    0.1356300000000000 H
   0.8699650000000000    0.7680300000000000    0.0932000000000000 H
   0.8328750000000000    0.6183149999999999    0.2640050000000000 H
   0.7608349999999999    0.6521500000000000    0.3848500000000000 H
   0.8803500000000000    0.7324450000000000    0.3430350000000000 H
   0.5836150000000000    0.6317349999999999    0.2355850000000000 H
   0.5101100000000000    0.6001750000000000    0.1142900000000000 H
   0.6290750000000001    0.5186300000000000    0.1548650000000000 H
   0.6668000000000001    0.8693600000000000    0.4870000000000000 H
   0.7382350000000000    0.9019500000000000    0.3654250000000000 H
   0.6194100000000000    0.9825500000000000    0.4062500000000000 H
   0.4170500000000000    0.3822350000000000    0.5132350000000000 H
   0.4883900000000000    0.3495750000000000    0.6356300000000000 H
   0.3699650000000000    0.2680300000000000    0.5931999999999999 H
   0.3328750000000000    0.1183150000000000    0.7640050000000000 H
   0.2608350000000000    0.1521500000000000    0.8848500000000000 H
   0.3803500000000000    0.2324450000000000    0.8430350000000000 H
   0.0836150000000000    0.1317350000000000    0.7355849999999999 H
   0.0101100000000000    0.1001750000000000    0.6142900000000000 H
   0.1290750000000000    0.0186300000000000    0.6548650000000000 H
   0.1668000000000000    0.3693600000000000    0.9870000000000000 H
   0.2382350000000000    0.4019500000000000    0.8654250000000000 H
   0.1194100000000000    0.4825500000000000    0.9062500000000000 H
   0.9170499999999999    0.3822350000000000    0.5132350000000000 H
   0.9883900000000000    0.3495750000000000    0.6356300000000000 H
   0.8699650000000000    0.2680300000000000    0.5931999999999999 H
   0.8328750000000000    0.1183150000000000    0.7640050000000000 H
   0.7608349999999999    0.1521500000000000    0.8848500000000000 H
   0.8803500000000000    0.2324450000000000    0.8430350000000000 H
   0.5836150000000000    0.1317350000000000    0.7355849999999999 H
   0.5101100000000000    0.1001750000000000    0.6142900000000000 H
   0.6290750000000001    0.0186300000000000    0.6548650000000000 H
   0.6668000000000001    0.3693600000000000    0.9870000000000000 H
   0.7382350000000000    0.4019500000000000    0.8654250000000000 H
   0.6194100000000000    0.4825500000000000    0.9062500000000000 H
   0.4170500000000000    0.8822350000000000    0.5132350000000000 H
   0.4883900000000000    0.8495750000000000    0.6356300000000000 H
   0.3699650000000000    0.7680300000000000    0.5931999999999999 H
   0.3328750000000000    0.6183149999999999    0.7640050000000000 H
   0.2608350000000000    0.6521500000000000    0.8848500000000000 H
   0.3803500000000000    0.7324450000000000    0.8430350000000000 H
   0.0836150000000000    0.6317349999999999    0.7355849999999999 H
   0.0101100000000000    0.6001750000000000    0.6142900000000000 H
   0.1290750000000000    0.5186300000000000    0.6548650000000000 H
   0.1668000000000000    0.8693600000000000    0.9870000000000000 H
   0.2382350000000000    0.9019500000000000    0.8654250000000000 H
   0.1194100000000000    0.9825500000000000    0.9062500000000000 H
   0.9170499999999999    0.8822350000000000    0.5132350000000000 H
   0.9883900000000000    0.8495750000000000    0.6356300000000000 H
   0.8699650000000000    0.7680300000000000    0.5931999999999999 H
   0.8328750000000000    0.6183149999999999    0.7640050000000000 H
   0.7608349999999999    0.6521500000000000    0.8848500000000000 H
   0.8803500000000000    0.7324450000000000    0.8430350000000000 H
   0.5836150000000000    0.6317349999999999    0.7355849999999999 H
   0.5101100000000000    0.6001750000000000    0.6142900000000000 H
   0.6290750000000001    0.5186300000000000    0.6548650000000000 H
   0.6668000000000001    0.8693600000000000    0.9870000000000000 H
   0.7382350000000000    0.9019500000000000    0.8654250000000000 H
   0.6194100000000000    0.9825500000000000    0.9062500000000000 H
   0.3897000000000000    0.3240000000000000    0.0496300000000000 C
   0.4204850000000000    0.3610050000000000    0.0429000000000000 C
   0.4558850000000000    0.3703700000000000    0.0739450000000000 C
   0.4604850000000000    0.3426200000000000    0.1118100000000000 C
   0.4293750000000000    0.3059400000000000    0.1188750000000000 C
   0.3939150000000000    0.2967250000000000    0.0878150000000000 C
   0.3532700000000000    0.3135500000000000    0.0155300000000000 C
   0.4896150000000000    0.4089150000000000    0.0664650000000000 C
   0.4346250000000000    0.2755400000000000    0.1582750000000000 C
   0.3605500000000000    0.1763900000000000    0.3000000000000000 C
   0.3294150000000000    0.1396950000000000    0.2933200000000000 C
   0.2936300000000000    0.1308450000000000    0.3239550000000000 C
   0.2890000000000000    0.1587750000000000    0.3613850000000000 C
   0.3203650000000000    0.1952350000000000    0.3683750000000000 C
   0.3561900000000000    0.2039300000000000    0.3377100000000000 C
   0.3973250000000000    0.1865050000000000    0.2662900000000000 C
   0.2595100000000000    0.0926700000000000    0.3164050000000000 C
   0.3151950000000000    0.2259650000000000    0.4072750000000000 C
   0.1103000000000000    0.0740850000000000    0.1987550000000000 C
   0.0796250000000000    0.1108200000000000    0.2059800000000000 C
   0.0436200000000000    0.1203000000000000    0.1755450000000000 C
   0.0383850000000000    0.0930650000000000    0.1377000000000000 C
   0.0693200000000000    0.0566350000000000    0.1301200000000000 C
   0.1053000000000000    0.0471700000000000    0.1606350000000000 C
   0.1472800000000000    0.0635150000000000    0.2323750000000000 C
   0.0100000000000000    0.1585000000000000    0.1836150000000000 C
   0.0632350000000000    0.0269750000000000    0.0906100000000000 C
   0.1392000000000000    0.4270100000000000    0.4503500000000000 C
   0.1702250000000000    0.3904400000000000    0.4576400000000000 C
   0.2057750000000000    0.3812800000000000    0.4269800000000000 C
   0.2102950000000000    0.4088100000000000    0.3889800000000000 C
   0.1790800000000000    0.4451350000000000    0.3814150000000000 C
   0.1434800000000000    0.4541500000000000    0.4120650000000000 C
   0.1024850000000000    0.4373050000000000    0.4839500000000000 C
   0.2395800000000000    0.3430050000000000    0.4346750000000000 C
   0.1844250000000000    0.4752150000000000    0.3417500000000000 C
   0.8896999999999999    0.3240000000000000    0.0496300000000000 C
   0.9204850000000000    0.3610050000000000    0.0429000000000000 C
   0.9558850000000000    0.3703700000000000    0.0739450000000000 C
   0.9604850000000000    0.3426200000000000    0.1118100000000000 C
   0.9293750000000001    0.3059400000000000    0.1188750000000000 C
   0.8939150000000000    0.2967250000000000    0.0878150000000000 C
   0.8532700000000000    0.3135500000000000    0.0155300000000000 C
   0.9896150000000000    0.4089150000000000    0.0664650000000000 C
   0.9346250000000000    0.2755400000000000    0.1582750000000000 C
   0.8605499999999999    0.1763900000000000    0.3000000000000000 C
   0.8294150000000000    0.1396950000000000    0.2933200000000000 C
   0.7936300000000001    0.1308450000000000    0.3239550000000000 C
   0.7889999999999999    0.1587750000000000    0.3613850000000000 C
   0.8203650000000000    0.1952350000000000    0.3683750000000000 C
   0.8561900000000000    0.2039300000000000    0.3377100000000000 C
   0.8973249999999999    0.1865050000000000    0.2662900000000000 C
   0.7595100000000000    0.0926700000000000    0.3164050000000000 C
   0.8151950000000000    0.2259650000000000    0.4072750000000000 C
   0.6392000000000000    0.4270100000000000    0.4503500000000000 C
   0.6702250000000000    0.3904400000000000    0.4576400000000000 C
   0.7057750000000000    0.3812800000000000    0.4269800000000000 C
   0.7102950000000000    0.4088100000000000    0.3889800000000000 C
   0.6790800000000000    0.4451350000000000    0.3814150000000000 C
   0.6434800000000001    0.4541500000000000    0.4120650000000000 C
   0.6024850000000000    0.4373050000000000    0.4839500000000000 C
   0.7395800000000000    0.3430050000000000    0.4346750000000000 C
   0.6844250000000001    0.4752150000000000    0.3417500000000000 C
   0.3897000000000000    0.8240000000000001    0.0496300000000000 C
   0.4204850000000000    0.8610050000000000    0.0429000000000000 C
   0.4558850000000000    0.8703700000000000    0.0739450000000000 C
   0.4604850000000000    0.8426199999999999    0.1118100000000000 C
   0.4293750000000000    0.8059400000000000    0.1188750000000000 C
   0.3939150000000000    0.7967250000000000    0.0878150000000000 C
   0.3532700000000000    0.8135500000000000    0.0155300000000000 C
   0.4896150000000000    0.9089149999999999    0.0664650000000000 C
   0.4346250000000000    0.7755400000000000    0.1582750000000000 C
   0.3605500000000000    0.6763900000000000    0.3000000000000000 C
   0.3294150000000000    0.6396950000000000    0.2933200000000000 C
   0.2936300000000000    0.6308450000000000    0.3239550000000000 C
   0.2890000000000000    0.6587750000000000    0.3613850000000000 C
   0.3203650000000000    0.6952350000000000    0.3683750000000000 C
   0.3561900000000000    0.7039299999999999    0.3377100000000000 C
   0.3973250000000000    0.6865050000000000    0.2662900000000000 C
   0.2595100000000000    0.5926700000000000    0.3164050000000000 C
   0.3151950000000000    0.7259650000000000    0.4072750000000000 C
   0.1103000000000000    0.5740850000000000    0.1987550000000000 C
   0.0796250000000000    0.6108200000000000    0.2059800000000000 C
   0.0436200000000000    0.6203000000000000    0.1755450000000000 C
   0.0383850000000000    0.5930650000000000    0.1377000000000000 C
   0.0693200000000000    0.5566350000000000    0.1301200000000000 C
   0.1053000000000000    0.5471700000000000    0.1606350000000000 C
   0.1472800000000000    0.5635150000000000    0.2323750000000000 C
   0.0100000000000000    0.6585000000000000    0.1836150000000000 C
   0.0632350000000000    0.5269750000000000    0.0906100000000000 C
   0.1392000000000000    0.9270100000000000    0.4503500000000000 C
   0.1702250000000000    0.8904400000000000    0.4576400000000000 C
   0.2057750000000000    0.8812800000000001    0.4269800000000000 C
   0.2102950000000000    0.9088100000000000    0.3889800000000000 C
   0.1790800000000000    0.9451350000000001    0.3814150000000000 C
   0.1434800000000000    0.9541500000000001    0.4120650000000000 C
   0.1024850000000000    0.9373050000000001    0.4839500000000000 C
   0.2395800000000000    0.8430050000000000    0.4346750000000000 C
   0.1844250000000000    0.9752149999999999    0.3417500000000000 C
   0.8896999999999999    0.8240000000000001    0.0496300000000000 C
   0.9204850000000000    0.8610050000000000    0.0429000000000000 C
   0.9558850000000000    0.8703700000000000    0.0739450000000000 C
   0.9604850000000000    0.8426199999999999    0.1118100000000000 C
   0.9293750000000001    0.8059400000000000    0.1188750000000000 C
   0.8939150000000000    0.7967250000000000    0.0878150000000000 C
   0.8532700000000000    0.8135500000000000    0.0155300000000000 C
   0.9896150000000000    0.9089149999999999    0.0664650000000000 C
   0.9346250000000000    0.7755400000000000    0.1582750000000000 C
   0.8605499999999999    0.6763900000000000    0.3000000000000000 C
   0.8294150000000000    0.6396950000000000    0.2933200000000000 C
   0.7936300000000001    0.6308450000000000    0.3239550000000000 C
   0.7889999999999999    0.6587750000000000    0.3613850000000000 C
   0.8203650000000000    0.6952350000000000    0.3683750000000000 C
   0.8561900000000000    0.7039299999999999    0.3377100000000000 C
   0.8973249999999999    0.6865050000000000    0.2662900000000000 C
   0.7595100000000000    0.5926700000000000    0.3164050000000000 C
   0.8151950000000000    0.7259650000000000    0.4072750000000000 C
   0.6103000000000000    0.5740850000000000    0.1987550000000000 C
   0.5796250000000001    0.6108200000000000    0.2059800000000000 C
   0.5436200000000000    0.6203000000000000    0.1755450000000000 C
   0.5383850000000000    0.5930650000000000    0.1377000000000000 C
   0.5693200000000000    0.5566350000000000    0.1301200000000000 C
   0.6052999999999999    0.5471700000000000    0.1606350000000000 C
   0.6472800000000000    0.5635150000000000    0.2323750000000000 C
   0.5100000000000000    0.6585000000000000    0.1836150000000000 C
   0.5632350000000000    0.5269750000000000    0.0906100000000000 C
   0.6392000000000000    0.9270100000000000    0.4503500000000000 C
   0.6702250000000000    0.8904400000000000    0.4576400000000000 C
   0.7057750000000000    0.8812800000000001    0.4269800000000000 C
   0.7102950000000000    0.9088100000000000    0.3889800000000000 C
   0.6790800000000000    0.9451350000000001    0.3814150000000000 C
   0.6434800000000001    0.9541500000000001    0.4120650000000000 C
   0.6024850000000000    0.9373050000000001    0.4839500000000000 C
   0.7395800000000000    0.8430050000000000    0.4346750000000000 C
   0.6844250000000001    0.9752149999999999    0.3417500000000000 C
   0.3897000000000000    0.3240000000000000    0.5496300000000000 C
   0.4204850000000000    0.3610050000000000    0.5429000000000000 C
   0.4558850000000000    0.3703700000000000    0.5739450000000000 C
   0.4604850000000000    0.3426200000000000    0.6118100000000000 C
   0.4293750000000000    0.3059400000000000    0.6188750000000000 C
   0.3939150000000000    0.2967250000000000    0.5878150000000000 C
   0.3532700000000000    0.3135500000000000    0.5155300000000000 C
   0.4896150000000000    0.4089150000000000    0.5664650000000000 C
   0.4346250000000000    0.2755400000000000    0.6582749999999999 C
   0.3605500000000000    0.1763900000000000    0.8000000000000000 C
   0.3294150000000000    0.1396950000000000    0.7933200000000000 C
   0.2936300000000000    0.1308450000000000    0.8239550000000000 C
   0.2890000000000000    0.1587750000000000    0.8613850000000001 C
   0.3203650000000000    0.1952350000000000    0.8683750000000000 C
   0.3561900000000000    0.2039300000000000    0.8377100000000000 C
   0.3973250000000000    0.1865050000000000    0.7662900000000000 C
   0.2595100000000000    0.0926700000000000    0.8164050000000000 C
   0.3151950000000000    0.2259650000000000    0.9072750000000001 C
   0.1103000000000000    0.0740850000000000    0.6987550000000000 C
   0.0796250000000000    0.1108200000000000    0.7059800000000001 C
   0.0436200000000000    0.1203000000000000    0.6755450000000001 C
   0.0383850000000000    0.0930650000000000    0.6376999999999999 C
   0.0693200000000000    0.0566350000000000    0.6301200000000000 C
   0.1053000000000000    0.0471700000000000    0.6606350000000000 C
   0.1472800000000000    0.0635150000000000    0.7323750000000000 C
   0.0100000000000000    0.1585000000000000    0.6836150000000000 C
   0.0632350000000000    0.0269750000000000    0.5906100000000000 C
   0.1392000000000000    0.4270100000000000    0.9503500000000000 C
   0.1702250000000000    0.3904400000000000    0.9576400000000000 C
   0.2057750000000000    0.3812800000000000    0.9269800000000000 C
   0.2102950000000000    0.4088100000000000    0.8889800000000000 C
   0.1790800000000000    0.4451350000000000    0.8814150000000001 C
   0.1434800000000000    0.4541500000000000    0.9120650000000000 C
   0.1024850000000000    0.4373050000000000    0.9839500000000000 C
   0.2395800000000000    0.3430050000000000    0.9346749999999999 C
   0.1844250000000000    0.4752150000000000    0.8417500000000000 C
   0.8896999999999999    0.3240000000000000    0.5496300000000000 C
   0.9204850000000000    0.3610050000000000    0.5429000000000000 C
   0.9558850000000000    0.3703700000000000    0.5739450000000000 C
   0.9604850000000000    0.3426200000000000    0.6118100000000000 C
   0.9293750000000001    0.3059400000000000    0.6188750000000000 C
   0.8939150000000000    0.2967250000000000    0.5878150000000000 C
   0.8532700000000000    0.3135500000000000    0.5155300000000000 C
   0.9896150000000000    0.4089150000000000    0.5664650000000000 C
   0.9346250000000000    0.2755400000000000    0.6582749999999999 C
   0.8605499999999999    0.1763900000000000    0.8000000000000000 C
   0.8294150000000000    0.1396950000000000    0.7933200000000000 C
   0.7936300000000001    0.1308450000000000    0.8239550000000000 C
   0.7889999999999999    0.1587750000000000    0.8613850000000001 C
   0.8203650000000000    0.1952350000000000    0.8683750000000000 C
   0.8561900000000000    0.2039300000000000    0.8377100000000000 C
   0.8973249999999999    0.1865050000000000    0.7662900000000000 C
   0.7595100000000000    0.0926700000000000    0.8164050000000000 C
   0.8151950000000000    0.2259650000000000    0.9072750000000001 C
   0.6103000000000000    0.0740850000000000    0.6987550000000000 C
   0.5796250000000001    0.1108200000000000    0.7059800000000001 C
   0.5436200000000000    0.1203000000000000    0.6755450000000001 C
   0.5383850000000000    0.0930650000000000    0.6376999999999999 C
   0.5693200000000000    0.0566350000000000    0.6301200000000000 C
   0.6052999999999999    0.0471700000000000    0.6606350000000000 C
   0.6472800000000000    0.0635150000000000    0.7323750000000000 C
   0.5100000000000000    0.1585000000000000    0.6836150000000000 C
   0.5632350000000000    0.0269750000000000    0.5906100000000000 C
   0.6392000000000000    0.4270100000000000    0.9503500000000000 C
   0.6702250000000000    0.3904400000000000    0.9576400000000000 C
   0.7057750000000000    0.3812800000000000    0.9269800000000000 C
   0.7102950000000000    0.4088100000000000    0.8889800000000000 C
   0.6790800000000000    0.4451350000000000    0.8814150000000001 C
   0.6434800000000001    0.4541500000000000    0.9120650000000000 C
   0.6024850000000000    0.4373050000000000    0.9839500000000000 C
   0.7395800000000000    0.3430050000000000    0.9346749999999999 C
   0.6844250000000001    0.4752150000000000    0.8417500000000000 C
   0.3897000000000000    0.8240000000000001    0.5496300000000000 C
   0.4204850000000000    0.8610050000000000    0.5429000000000000 C
   0.4558850000000000    0.8703700000000000    0.5739450000000000 C
   0.4604850000000000    0.8426199999999999    0.6118100000000000 C
   0.4293750000000000    0.8059400000000000    0.6188750000000000 C
   0.3939150000000000    0.7967250000000000    0.5878150000000000 C
   0.3532700000000000    0.8135500000000000    0.5155300000000000 C
   0.4896150000000000    0.9089149999999999    0.5664650000000000 C
   0.4346250000000000    0.7755400000000000    0.6582749999999999 C
   0.3605500000000000    0.6763900000000000    0.8000000000000000 C
   0.3294150000000000    0.6396950000000000    0.7933200000000000 C
   0.2936300000000000    0.6308450000000000    0.8239550000000000 C
   0.2890000000000000    0.6587750000000000    0.8613850000000001 C
   0.3203650000000000    0.6952350000000000    0.8683750000000000 C
   0.3561900000000000    0.7039299999999999    0.8377100000000000 C
   0.3973250000000000    0.6865050000000000    0.7662900000000000 C
   0.2595100000000000    0.5926700000000000    0.8164050000000000 C
   0.3151950000000000    0.7259650000000000    0.9072750000000001 C
   0.1103000000000000    0.5740850000000000    0.6987550000000000 C
   0.0796250000000000    0.6108200000000000    0.7059800000000001 C
   0.0436200000000000    0.6203000000000000    0.6755450000000001 C
   0.0383850000000000    0.5930650000000000    0.6376999999999999 C
   0.0693200000000000    0.5566350000000000    0.6301200000000000 C
   0.1053000000000000    0.5471700000000000    0.6606350000000000 C
   0.1472800000000000    0.5635150000000000    0.7323750000000000 C
   0.0100000000000000    0.6585000000000000    0.6836150000000000 C
   0.0632350000000000    0.5269750000000000    0.5906100000000000 C
   0.1392000000000000    0.9270100000000000    0.9503500000000000 C
   0.1702250000000000    0.8904400000000000    0.9576400000000000 C
   0.2057750000000000    0.8812800000000001    0.9269800000000000 C
   0.2102950000000000    0.9088100000000000    0.8889800000000000 C
   0.1790800000000000    0.9451350000000001    0.8814150000000001 C
   0.1434800000000000    0.9541500000000001    0.9120650000000000 C
   0.1024850000000000    0.9373050000000001    0.9839500000000000 C
   0.2395800000000000    0.8430050000000000    0.9346749999999999 C
   0.1844250000000000    0.9752149999999999    0.8417500000000000 C
   0.8896999999999999    0.8240000000000001    0.5496300000000000 C
   0.9204850000000000    0.8610050000000000    0.5429000000000000 C
   0.9558850000000000    0.8703700000000000    0.5739450000000000 C
   0.9604850000000000    0.8426199999999999    0.6118100000000000 C
   0.9293750000000001    0.8059400000000000    0.6188750000000000 C
   0.8939150000000000    0.7967250000000000    0.5878150000000000 C
   0.8532700000000000    0.8135500000000000    0.5155300000000000 C
   0.9896150000000000    0.9089149999999999    0.5664650000000000 C
   0.9346250000000000    0.7755400000000000    0.6582749999999999 C
   0.8605499999999999    0.6763900000000000    0.8000000000000000 C
   0.8294150000000000    0.6396950000000000    0.7933200000000000 C
   0.7936300000000001    0.6308450000000000    0.8239550000000000 C
   0.7889999999999999    0.6587750000000000    0.8613850000000001 C
   0.8203650000000000    0.6952350000000000    0.8683750000000000 C
   0.8561900000000000    0.7039299999999999    0.8377100000000000 C
   0.8973249999999999    0.6865050000000000    0.7662900000000000 C
   0.7595100000000000    0.5926700000000000    0.8164050000000000 C
   0.8151950000000000    0.7259650000000000    0.9072750000000001 C
   0.6103000000000000    0.5740850000000000    0.6987550000000000 C
   0.5796250000000001    0.6108200000000000    0.7059800000000001 C
   0.5436200000000000    0.6203000000000000    0.6755450000000001 C
   0.5383850000000000    0.5930650000000000    0.6376999999999999 C
   0.5693200000000000    0.5566350000000000    0.6301200000000000 C
   0.6052999999999999    0.5471700000000000    0.6606350000000000 C
   0.6472800000000000    0.5635150000000000    0.7323750000000000 C
   0.5100000000000000    0.6585000000000000    0.6836150000000000 C
   0.5632350000000000    0.5269750000000000    0.5906100000000000 C
   0.6392000000000000    0.9270100000000000    0.9503500000000000 C
   0.6702250000000000    0.8904400000000000    0.9576400000000000 C
   0.7057750000000000    0.8812800000000001    0.9269800000000000 C
   0.7102950000000000    0.9088100000000000    0.8889800000000000 C
   0.6790800000000000    0.9451350000000001    0.8814150000000001 C
   0.6434800000000001    0.9541500000000001    0.9120650000000000 C
   0.6024850000000000    0.9373050000000001    0.9839500000000000 C
   0.7395800000000000    0.8430050000000000    0.9346749999999999 C
   0.6844250000000001    0.9752149999999999    0.8417500000000000 C