H5 O3
1.0
  13.3959686279369485    0.0000000000000000   -0.0289917113861495
  -3.0212890091552045   15.4513465958514846    0.0351724043348239
   0.0000000000000000    0.0000000000000000   23.7439999999999998
H O
5 3
direct
   0.7451380931392012    0.9278755773403400    0.3668026459888239 H
   0.7641143337367409    0.8360057003744015    0.3886409248460075 H
   0.2694433093234394    0.6323064518467467    0.0440077709999201 H
   0.4258962809284959    0.6227074962359027    0.1144158500389122 H
   0.4807162944614199    0.5608478944591626    0.1433466206373361 H
   0.7529900000000000    0.8931000000000000    0.4001500000000000 O
   0.2508800000000000    0.5694300000000000    0.0398100000000000 O
   0.4334600000000000    0.5634700000000000    0.1059600000000000 O
