H10 O7
1.0
  25.9317117487953013    0.0000000000000000   10.5403220907803270
  10.8724115860587798   25.0680061397661618   10.4210014144505774
   0.0000000000000000    0.0000000000000000   37.1700000000000017
H O
10 7
direct
   0.9107276978477060    0.4581889931351714    0.7571265652795162 H
   0.8351852569150691    0.2836435468862140    0.8930397865888774 H
   0.8405441526047243    0.3244422898751242    0.8787055890580258 H
   0.9117657912915137    0.4962256835573791    0.8149706507708583 H
   0.8147177479408458    0.3931396567204519    0.8215522141430697 H
   0.6818393573196433    0.4722736392224955    0.8901639373355923 H
   0.7507206415836671    0.4388243053310014    0.8560268900627419 H
   0.8251815720336050    0.4330329682751489    0.8523340233937405 H
   0.8627185635747566    0.3766222393619263    0.8958343653192408 H
   0.9257512420932635    0.3993073051501637    0.8688355939997221 H
   0.9451800000000000    0.4603500000000000    0.7376700000000000 O
   0.8455250000000001    0.2945650000000000    0.9098150000000000 O
   0.9476650000000000    0.4906450000000000    0.8172500000000000 O
   0.7771950000000001    0.3958800000000000    0.8372250000000000 O
   0.7001850000000001    0.4425150000000000    0.8771350000000000 O
   0.8667950000000000    0.3521700000000000    0.9212950000000000 O
   0.9546600000000001    0.4129050000000000    0.8605550000000000 O
