H4 O2
1.0
  25.9317117487953013    0.0000000000000000   10.5403220907803270
  10.8724115860587798   25.0680061397661618   10.4210014144505774
   0.0000000000000000    0.0000000000000000   37.1700000000000017
H O
4 2
direct
   0.6163363041528681    0.9004462146815967    0.2620078056815797 H
   0.5711457532305784    0.8725349387791068    0.2936532085877846 H
   0.6928942494084669    0.6944437942986771    0.2013310722954315 H
   0.7536443519991608    0.6986628930671520    0.1948008103683762 H
   0.5828650000000000    0.9023200000000000    0.2840700000000000 O
   0.7338000000000000    0.6812950000000000    0.1912350000000000 O
