Zn64 H442 C816 N64 O248
1.0
  25.9317117487953013    0.0000000000000000   10.5403220907803270
  10.8724115860587798   25.0680061397661618   10.4210014144505774
   0.0000000000000000    0.0000000000000000   37.1700000000000017
Zn H C N O
64 442 816 64 248
direct
   0.2755850000000000    0.1228100000000000    0.1570050000000000 Zn
   0.4471500000000000    0.0267800000000000    0.2078050000000000 Zn
   0.0554100000000000    0.1239650000000000    0.1020500000000000 Zn
   0.3034950000000000    0.2743850000000000    0.4660850000000000 Zn
   0.2097900000000000    0.3720500000000000    0.3599500000000000 Zn
   0.0382300000000000    0.4680700000000000    0.3091800000000000 Zn
   0.4299650000000000    0.3708950000000000    0.4149100000000000 Zn
   0.1818800000000000    0.2204700000000000    0.0509000000000000 Zn
   0.7755850000000000    0.1228100000000000    0.1570050000000000 Zn
   0.9471499999999999    0.0267800000000000    0.2078050000000000 Zn
   0.5554100000000000    0.1239650000000000    0.1020500000000000 Zn
   0.8034950000000001    0.2743850000000000    0.4660850000000000 Zn
   0.7097900000000000    0.3720500000000000    0.3599500000000000 Zn
   0.5382300000000000    0.4680700000000000    0.3091800000000000 Zn
   0.9299649999999999    0.3708950000000000    0.4149100000000000 Zn
   0.6818800000000000    0.2204700000000000    0.0509000000000000 Zn
   0.2755850000000000    0.6228100000000000    0.1570050000000000 Zn
   0.4471500000000000    0.5267800000000000    0.2078050000000000 Zn
   0.0554100000000000    0.6239650000000000    0.1020500000000000 Zn
   0.3034950000000000    0.7743850000000000    0.4660850000000000 Zn
   0.2097900000000000    0.8720500000000000    0.3599500000000000 Zn
   0.0382300000000000    0.9680700000000000    0.3091800000000000 Zn
   0.4299650000000000    0.8708950000000000    0.4149100000000000 Zn
   0.1818800000000000    0.7204699999999999    0.0509000000000000 Zn
   0.7755850000000000    0.6228100000000000    0.1570050000000000 Zn
   0.9471499999999999    0.5267800000000000    0.2078050000000000 Zn
   0.5554100000000000    0.6239650000000000    0.1020500000000000 Zn
   0.8034950000000001    0.7743850000000000    0.4660850000000000 Zn
   0.7097900000000000    0.8720500000000000    0.3599500000000000 Zn
   0.5382300000000000    0.9680700000000000    0.3091800000000000 Zn
   0.9299649999999999    0.8708950000000000    0.4149100000000000 Zn
   0.6818800000000000    0.7204699999999999    0.0509000000000000 Zn
   0.2755850000000000    0.1228100000000000    0.6570050000000001 Zn
   0.4471500000000000    0.0267800000000000    0.7078050000000000 Zn
   0.0554100000000000    0.1239650000000000    0.6020500000000000 Zn
   0.3034950000000000    0.2743850000000000    0.9660850000000001 Zn
   0.2097900000000000    0.3720500000000000    0.8599500000000000 Zn
   0.0382300000000000    0.4680700000000000    0.8091800000000000 Zn
   0.4299650000000000    0.3708950000000000    0.9149100000000000 Zn
   0.1818800000000000    0.2204700000000000    0.5508999999999999 Zn
   0.7755850000000000    0.1228100000000000    0.6570050000000001 Zn
   0.9471499999999999    0.0267800000000000    0.7078050000000000 Zn
   0.5554100000000000    0.1239650000000000    0.6020500000000000 Zn
   0.8034950000000001    0.2743850000000000    0.9660850000000001 Zn
   0.7097900000000000    0.3720500000000000    0.8599500000000000 Zn
   0.5382300000000000    0.4680700000000000    0.8091800000000000 Zn
   0.9299649999999999    0.3708950000000000    0.9149100000000000 Zn
   0.6818800000000000    0.2204700000000000    0.5508999999999999 Zn
   0.2755850000000000    0.6228100000000000    0.6570050000000001 Zn
   0.4471500000000000    0.5267800000000000    0.7078050000000000 Zn
   0.0554100000000000    0.6239650000000000    0.6020500000000000 Zn
   0.3034950000000000    0.7743850000000000    0.9660850000000001 Zn
   0.2097900000000000    0.8720500000000000    0.8599500000000000 Zn
   0.0382300000000000    0.9680700000000000    0.8091800000000000 Zn
   0.4299650000000000    0.8708950000000000    0.9149100000000000 Zn
   0.1818800000000000    0.7204699999999999    0.5508999999999999 Zn
   0.7755850000000000    0.6228100000000000    0.6570050000000001 Zn
   0.9471499999999999    0.5267800000000000    0.7078050000000000 Zn
   0.5554100000000000    0.6239650000000000    0.6020500000000000 Zn
   0.8034950000000001    0.7743850000000000    0.9660850000000001 Zn
   0.7097900000000000    0.8720500000000000    0.8599500000000000 Zn
   0.5382300000000000    0.9680700000000000    0.8091800000000000 Zn
   0.9299649999999999    0.8708950000000000    0.9149100000000000 Zn
   0.6818800000000000    0.7204699999999999    0.5508999999999999 Zn
   0.2299650000000000    0.3006450000000000    0.1051950000000000 H
   0.2841450000000000    0.3310100000000000    0.1255750000000000 H
   0.3858200000000000    0.2731850000000000    0.1236750000000000 H
   0.4434300000000000    0.0111400000000000    0.0961500000000000 H
   0.4525000000000000    0.0246400000000000    0.0239650000000000 H
   0.4096450000000000    0.1092550000000000    0.0000000000000000 H
   0.1715950000000000    0.1779850000000000    0.0000000000000000 H
   0.2258650000000000    0.1013900000000000    0.4692500000000000 H
   0.3382500000000000    0.0367450000000000    0.0341050000000000 H
   0.2807650000000000    0.1162950000000000    0.0638250000000000 H
   0.4499750000000000    0.4256150000000000    0.4584900000000000 H
   0.3986150000000000    0.4984600000000000    0.4927100000000000 H
   0.2474250000000000    0.0110450000000000    0.4762850000000000 H
   0.3051350000000000    0.4377750000000000    0.4428650000000000 H
   0.1345450000000000    0.4498450000000000    0.1532600000000000 H
   0.2394500000000000    0.4199400000000000    0.1328900000000000 H
   0.2809100000000000    0.4778600000000000    0.1352400000000000 H
   0.0515500000000000    0.2358450000000000    0.1627000000000000 H
   0.0021100000000000    0.2224400000000000    0.2349500000000000 H
   0.0177750000000000    0.1291700000000000    0.2750300000000000 H
   0.3446400000000000    0.0611700000000000    0.2725300000000000 H
   0.2891300000000000    0.1378650000000000    0.3064900000000000 H
   0.4046550000000000    0.2101200000000000    0.2242300000000000 H
   0.4555300000000000    0.1305600000000000    0.1946400000000000 H
   0.3281950000000000    0.3159850000000000    0.3165800000000000 H
   0.3842600000000000    0.2392150000000000    0.2826500000000000 H
   0.2279950000000000    0.2288000000000000    0.2992950000000000 H
   0.1787350000000000    0.3058350000000000    0.3324200000000000 H
   0.2554150000000000    0.1942150000000000    0.4117900000000000 H
   0.2012350000000000    0.1638450000000000    0.3914100000000000 H
   0.0995600000000000    0.2216700000000000    0.3933100000000000 H
   0.0419500000000000    0.4837150000000000    0.4208150000000000 H
   0.0328800000000000    0.4702150000000000    0.4930200000000000 H
   0.0757400000000000    0.3855950000000000    0.0161800000000000 H
   0.3137850000000000    0.3168700000000000    0.0137100000000000 H
   0.2595150000000000    0.3934750000000000    0.0477350000000000 H
   0.1471300000000000    0.4581100000000000    0.4828800000000000 H
   0.2046150000000000    0.3785550000000000    0.4531650000000000 H
   0.0354050000000000    0.0692450000000000    0.0584950000000000 H
   0.0867650000000000    0.4964000000000000    0.0242750000000000 H
   0.2379550000000000    0.4838150000000000    0.0405000000000000 H
   0.1802450000000000    0.0570850000000000    0.0741200000000000 H
   0.3508350000000000    0.0450100000000000    0.3637250000000000 H
   0.2459300000000000    0.0749150000000000    0.3840900000000000 H
   0.2044700000000000    0.0169950000000000    0.3817400000000000 H
   0.4338300000000000    0.2590100000000000    0.3542500000000000 H
   0.4832750000000000    0.2724000000000000    0.2820450000000000 H
   0.4676100000000000    0.3656750000000000    0.2419600000000000 H
   0.1407350000000000    0.4336800000000000    0.2444550000000000 H
   0.1962450000000000    0.3569900000000000    0.2104950000000000 H
   0.0807300000000000    0.2847250000000000    0.2927650000000000 H
   0.0298500000000000    0.3642850000000000    0.3223500000000000 H
   0.1571800000000000    0.1788700000000000    0.2004100000000000 H
   0.1011200000000000    0.2556350000000000    0.2343400000000000 H
   0.2573800000000000    0.2660550000000000    0.2176900000000000 H
   0.3066450000000000    0.1890250000000000    0.1845600000000000 H
   0.7299650000000000    0.3006450000000000    0.1051950000000000 H
   0.7841450000000000    0.3310100000000000    0.1255750000000000 H
   0.8858200000000001    0.2731850000000000    0.1236750000000000 H
   0.9434300000000000    0.0111400000000000    0.0961500000000000 H
   0.9525000000000000    0.0246400000000000    0.0239650000000000 H
   0.9096450000000000    0.1092550000000000    0.0000000000000000 H
   0.6715949999999999    0.1779850000000000    0.0000000000000000 H
   0.7258650000000000    0.1013900000000000    0.4692500000000000 H
   0.8382499999999999    0.0367450000000000    0.0341050000000000 H
   0.7807649999999999    0.1162950000000000    0.0638250000000000 H
   0.9499750000000000    0.4256150000000000    0.4584900000000000 H
   0.8986149999999999    0.4984600000000000    0.4927100000000000 H
   0.7474250000000000    0.0110450000000000    0.4762850000000000 H
   0.8051349999999999    0.4377750000000000    0.4428650000000000 H
   0.6345450000000000    0.4498450000000000    0.1532600000000000 H
   0.7394499999999999    0.4199400000000000    0.1328900000000000 H
   0.7809100000000000    0.4778600000000000    0.1352400000000000 H
   0.5515500000000000    0.2358450000000000    0.1627000000000000 H
   0.5021099999999999    0.2224400000000000    0.2349500000000000 H
   0.5177750000000000    0.1291700000000000    0.2750300000000000 H
   0.8446400000000001    0.0611700000000000    0.2725300000000000 H
   0.7891300000000000    0.1378650000000000    0.3064900000000000 H
   0.9046550000000000    0.2101200000000000    0.2242300000000000 H
   0.9555300000000000    0.1305600000000000    0.1946400000000000 H
   0.8281950000000000    0.3159850000000000    0.3165800000000000 H
   0.8842600000000000    0.2392150000000000    0.2826500000000000 H
   0.7279949999999999    0.2288000000000000    0.2992950000000000 H
   0.6787350000000000    0.3058350000000000    0.3324200000000000 H
   0.7554149999999999    0.1942150000000000    0.4117900000000000 H
   0.7012350000000001    0.1638450000000000    0.3914100000000000 H
   0.5995600000000000    0.2216700000000000    0.3933100000000000 H
   0.5419500000000000    0.4837150000000000    0.4208150000000000 H
   0.5328800000000000    0.4702150000000000    0.4930200000000000 H
   0.5757400000000000    0.3855950000000000    0.0161800000000000 H
   0.8137850000000000    0.3168700000000000    0.0137100000000000 H
   0.7595149999999999    0.3934750000000000    0.0477350000000000 H
   0.6471300000000000    0.4581100000000000    0.4828800000000000 H
   0.7046150000000000    0.3785550000000000    0.4531650000000000 H
   0.5354050000000000    0.0692450000000000    0.0584950000000000 H
   0.5867650000000000    0.4964000000000000    0.0242750000000000 H
   0.7379550000000000    0.4838150000000000    0.0405000000000000 H
   0.6802450000000000    0.0570850000000000    0.0741200000000000 H
   0.8508350000000000    0.0450100000000000    0.3637250000000000 H
   0.7459300000000000    0.0749150000000000    0.3840900000000000 H
   0.7044700000000000    0.0169950000000000    0.3817400000000000 H
   0.9338299999999999    0.2590100000000000    0.3542500000000000 H
   0.9832750000000000    0.2724000000000000    0.2820450000000000 H
   0.9676100000000001    0.3656750000000000    0.2419600000000000 H
   0.6407350000000001    0.4336800000000000    0.2444550000000000 H
   0.6962450000000000    0.3569900000000000    0.2104950000000000 H
   0.5807300000000000    0.2847250000000000    0.2927650000000000 H
   0.5298500000000000    0.3642850000000000    0.3223500000000000 H
   0.6571800000000000    0.1788700000000000    0.2004100000000000 H
   0.6011200000000000    0.2556350000000000    0.2343400000000000 H
   0.7573799999999999    0.2660550000000000    0.2176900000000000 H
   0.8066450000000001    0.1890250000000000    0.1845600000000000 H
   0.2299650000000000    0.8006450000000001    0.1051950000000000 H
   0.2841450000000000    0.8310100000000000    0.1255750000000000 H
   0.3858200000000000    0.7731850000000000    0.1236750000000000 H
   0.4434300000000000    0.5111400000000000    0.0961500000000000 H
   0.4525000000000000    0.5246400000000000    0.0239650000000000 H
   0.4096450000000000    0.6092550000000000    0.0000000000000000 H
   0.1715950000000000    0.6779850000000001    0.0000000000000000 H
   0.2258650000000000    0.6013900000000000    0.4692500000000000 H
   0.3382500000000000    0.5367450000000000    0.0341050000000000 H
   0.2807650000000000    0.6162950000000000    0.0638250000000000 H
   0.4499750000000000    0.9256150000000001    0.4584900000000000 H
   0.3986150000000000    0.9984600000000000    0.4927100000000000 H
   0.2474250000000000    0.5110450000000000    0.4762850000000000 H
   0.3051350000000000    0.9377750000000000    0.4428650000000000 H
   0.1345450000000000    0.9498450000000001    0.1532600000000000 H
   0.2394500000000000    0.9199400000000000    0.1328900000000000 H
   0.2809100000000000    0.9778600000000000    0.1352400000000000 H
   0.0515500000000000    0.7358450000000000    0.1627000000000000 H
   0.0021100000000000    0.7224400000000000    0.2349500000000000 H
   0.0177750000000000    0.6291700000000000    0.2750300000000000 H
   0.3446400000000000    0.5611699999999999    0.2725300000000000 H
   0.2891300000000000    0.6378650000000000    0.3064900000000000 H
   0.4046550000000000    0.7101200000000000    0.2242300000000000 H
   0.4555300000000000    0.6305600000000000    0.1946400000000000 H
   0.3281950000000000    0.8159850000000000    0.3165800000000000 H
   0.3842600000000000    0.7392150000000000    0.2826500000000000 H
   0.2279950000000000    0.7288000000000000    0.2992950000000000 H
   0.1787350000000000    0.8058350000000001    0.3324200000000000 H
   0.2554150000000000    0.6942150000000000    0.4117900000000000 H
   0.2012350000000000    0.6638450000000000    0.3914100000000000 H
   0.0995600000000000    0.7216700000000000    0.3933100000000000 H
   0.0419500000000000    0.9837150000000000    0.4208150000000000 H
   0.0328800000000000    0.9702150000000000    0.4930200000000000 H
   0.0757400000000000    0.8855950000000000    0.0161800000000000 H
   0.3137850000000000    0.8168700000000000    0.0137100000000000 H
   0.2595150000000000    0.8934750000000000    0.0477350000000000 H
   0.1471300000000000    0.9581100000000000    0.4828800000000000 H
   0.2046150000000000    0.8785550000000000    0.4531650000000000 H
   0.0354050000000000    0.5692450000000000    0.0584950000000000 H
   0.0867650000000000    0.9964000000000000    0.0242750000000000 H
   0.2379550000000000    0.9838150000000000    0.0405000000000000 H
   0.1802450000000000    0.5570850000000001    0.0741200000000000 H
   0.3508350000000000    0.5450100000000000    0.3637250000000000 H
   0.2459300000000000    0.5749150000000000    0.3840900000000000 H
   0.2044700000000000    0.5169950000000000    0.3817400000000000 H
   0.4338300000000000    0.7590100000000000    0.3542500000000000 H
   0.4832750000000000    0.7724000000000000    0.2820450000000000 H
   0.4676100000000000    0.8656750000000000    0.2419600000000000 H
   0.1407350000000000    0.9336800000000001    0.2444550000000000 H
   0.1962450000000000    0.8569899999999999    0.2104950000000000 H
   0.0807300000000000    0.7847250000000000    0.2927650000000000 H
   0.0298500000000000    0.8642850000000000    0.3223500000000000 H
   0.1571800000000000    0.6788700000000000    0.2004100000000000 H
   0.1011200000000000    0.7556350000000001    0.2343400000000000 H
   0.2573800000000000    0.7660549999999999    0.2176900000000000 H
   0.3066450000000000    0.6890250000000000    0.1845600000000000 H
   0.7299650000000000    0.8006450000000001    0.1051950000000000 H
   0.7841450000000000    0.8310100000000000    0.1255750000000000 H
   0.8858200000000001    0.7731850000000000    0.1236750000000000 H
   0.9434300000000000    0.5111400000000000    0.0961500000000000 H
   0.9525000000000000    0.5246400000000000    0.0239650000000000 H
   0.9096450000000000    0.6092550000000000    0.0000000000000000 H
   0.6715949999999999    0.6779850000000001    0.0000000000000000 H
   0.7258650000000000    0.6013900000000000    0.4692500000000000 H
   0.8382499999999999    0.5367450000000000    0.0341050000000000 H
   0.7807649999999999    0.6162950000000000    0.0638250000000000 H
   0.9499750000000000    0.9256150000000001    0.4584900000000000 H
   0.8986149999999999    0.9984600000000000    0.4927100000000000 H
   0.7474250000000000    0.5110450000000000    0.4762850000000000 H
   0.8051349999999999    0.9377750000000000    0.4428650000000000 H
   0.6345450000000000    0.9498450000000001    0.1532600000000000 H
   0.7394499999999999    0.9199400000000000    0.1328900000000000 H
   0.7809100000000000    0.9778600000000000    0.1352400000000000 H
   0.5515500000000000    0.7358450000000000    0.1627000000000000 H
   0.5021099999999999    0.7224400000000000    0.2349500000000000 H
   0.5177750000000000    0.6291700000000000    0.2750300000000000 H
   0.8446400000000001    0.5611699999999999    0.2725300000000000 H
   0.7891300000000000    0.6378650000000000    0.3064900000000000 H
   0.9046550000000000    0.7101200000000000    0.2242300000000000 H
   0.9555300000000000    0.6305600000000000    0.1946400000000000 H
   0.8281950000000000    0.8159850000000000    0.3165800000000000 H
   0.8842600000000000    0.7392150000000000    0.2826500000000000 H
   0.7279949999999999    0.7288000000000000    0.2992950000000000 H
   0.6787350000000000    0.8058350000000001    0.3324200000000000 H
   0.7554149999999999    0.6942150000000000    0.4117900000000000 H
   0.7012350000000001    0.6638450000000000    0.3914100000000000 H
   0.5995600000000000    0.7216700000000000    0.3933100000000000 H
   0.5419500000000000    0.9837150000000000    0.4208150000000000 H
   0.5328800000000000    0.9702150000000000    0.4930200000000000 H
   0.5757400000000000    0.8855950000000000    0.0161800000000000 H
   0.8137850000000000    0.8168700000000000    0.0137100000000000 H
   0.7595149999999999    0.8934750000000000    0.0477350000000000 H
   0.6471300000000000    0.9581100000000000    0.4828800000000000 H
   0.7046150000000000    0.8785550000000000    0.4531650000000000 H
   0.5354050000000000    0.5692450000000000    0.0584950000000000 H
   0.5867650000000000    0.9964000000000000    0.0242750000000000 H
   0.7379550000000000    0.9838150000000000    0.0405000000000000 H
   0.6802450000000000    0.5570850000000001    0.0741200000000000 H
   0.8508350000000000    0.5450100000000000    0.3637250000000000 H
   0.7459300000000000    0.5749150000000000    0.3840900000000000 H
   0.7044700000000000    0.5169950000000000    0.3817400000000000 H
   0.9338299999999999    0.7590100000000000    0.3542500000000000 H
   0.9832750000000000    0.7724000000000000    0.2820450000000000 H
   0.9676100000000001    0.8656750000000000    0.2419600000000000 H
   0.6407350000000001    0.9336800000000001    0.2444550000000000 H
   0.6962450000000000    0.8569899999999999    0.2104950000000000 H
   0.5807300000000000    0.7847250000000000    0.2927650000000000 H
   0.5298500000000000    0.8642850000000000    0.3223500000000000 H
   0.6571800000000000    0.6788700000000000    0.2004100000000000 H
   0.6011200000000000    0.7556350000000001    0.2343400000000000 H
   0.7573799999999999    0.7660549999999999    0.2176900000000000 H
   0.8066450000000001    0.6890250000000000    0.1845600000000000 H
   0.2299650000000000    0.3006450000000000    0.6051950000000000 H
   0.2841450000000000    0.3310100000000000    0.6255750000000000 H
   0.3858200000000000    0.2731850000000000    0.6236750000000000 H
   0.4434300000000000    0.0111400000000000    0.5961500000000000 H
   0.4525000000000000    0.0246400000000000    0.5239650000000000 H
   0.4096450000000000    0.1092550000000000    0.5000000000000000 H
   0.1715950000000000    0.1779850000000000    0.5000000000000000 H
   0.2258650000000000    0.1013900000000000    0.9692499999999999 H
   0.3382500000000000    0.0367450000000000    0.5341050000000001 H
   0.2807650000000000    0.1162950000000000    0.5638250000000000 H
   0.4499750000000000    0.4256150000000000    0.9584900000000001 H
   0.3986150000000000    0.4984600000000000    0.9927100000000000 H
   0.2474250000000000    0.0110450000000000    0.9762850000000001 H
   0.3051350000000000    0.4377750000000000    0.9428650000000001 H
   0.1345450000000000    0.4498450000000000    0.6532600000000000 H
   0.2394500000000000    0.4199400000000000    0.6328900000000000 H
   0.2809100000000000    0.4778600000000000    0.6352400000000000 H
   0.0515500000000000    0.2358450000000000    0.6627000000000001 H
   0.0021100000000000    0.2224400000000000    0.7349500000000000 H
   0.0177750000000000    0.1291700000000000    0.7750300000000000 H
   0.3446400000000000    0.0611700000000000    0.7725299999999999 H
   0.2891300000000000    0.1378650000000000    0.8064899999999999 H
   0.4046550000000000    0.2101200000000000    0.7242300000000000 H
   0.4555300000000000    0.1305600000000000    0.6946400000000000 H
   0.3281950000000000    0.3159850000000000    0.8165800000000000 H
   0.3842600000000000    0.2392150000000000    0.7826500000000001 H
   0.2279950000000000    0.2288000000000000    0.7992950000000000 H
   0.1787350000000000    0.3058350000000000    0.8324199999999999 H
   0.2554150000000000    0.1942150000000000    0.9117900000000000 H
   0.2012350000000000    0.1638450000000000    0.8914100000000000 H
   0.0995600000000000    0.2216700000000000    0.8933100000000000 H
   0.0419500000000000    0.4837150000000000    0.9208149999999999 H
   0.0328800000000000    0.4702150000000000    0.9930200000000000 H
   0.0757400000000000    0.3855950000000000    0.5161800000000000 H
   0.3137850000000000    0.3168700000000000    0.5137100000000000 H
   0.2595150000000000    0.3934750000000000    0.5477350000000000 H
   0.1471300000000000    0.4581100000000000    0.9828800000000000 H
   0.2046150000000000    0.3785550000000000    0.9531650000000000 H
   0.0354050000000000    0.0692450000000000    0.5584950000000000 H
   0.0867650000000000    0.4964000000000000    0.5242750000000000 H
   0.2379550000000000    0.4838150000000000    0.5405000000000000 H
   0.1802450000000000    0.0570850000000000    0.5741200000000000 H
   0.3508350000000000    0.0450100000000000    0.8637250000000001 H
   0.2459300000000000    0.0749150000000000    0.8840900000000000 H
   0.2044700000000000    0.0169950000000000    0.8817400000000000 H
   0.4338300000000000    0.2590100000000000    0.8542500000000000 H
   0.4832750000000000    0.2724000000000000    0.7820450000000000 H
   0.4676100000000000    0.3656750000000000    0.7419600000000000 H
   0.1407350000000000    0.4336800000000000    0.7444550000000000 H
   0.1962450000000000    0.3569900000000000    0.7104950000000000 H
   0.0807300000000000    0.2847250000000000    0.7927649999999999 H
   0.0298500000000000    0.3642850000000000    0.8223500000000000 H
   0.1571800000000000    0.1788700000000000    0.7004100000000000 H
   0.1011200000000000    0.2556350000000000    0.7343400000000000 H
   0.2573800000000000    0.2660550000000000    0.7176899999999999 H
   0.3066450000000000    0.1890250000000000    0.6845600000000001 H
   0.7299650000000000    0.3006450000000000    0.6051950000000000 H
   0.7841450000000000    0.3310100000000000    0.6255750000000000 H
   0.8858200000000001    0.2731850000000000    0.6236750000000000 H
   0.9434300000000000    0.0111400000000000    0.5961500000000000 H
   0.9525000000000000    0.0246400000000000    0.5239650000000000 H
   0.9096450000000000    0.1092550000000000    0.5000000000000000 H
   0.6715949999999999    0.1779850000000000    0.5000000000000000 H
   0.7258650000000000    0.1013900000000000    0.9692499999999999 H
   0.8382499999999999    0.0367450000000000    0.5341050000000001 H
   0.7807649999999999    0.1162950000000000    0.5638250000000000 H
   0.9499750000000000    0.4256150000000000    0.9584900000000001 H
   0.8986149999999999    0.4984600000000000    0.9927100000000000 H
   0.7474250000000000    0.0110450000000000    0.9762850000000001 H
   0.8051349999999999    0.4377750000000000    0.9428650000000001 H
   0.6345450000000000    0.4498450000000000    0.6532600000000000 H
   0.7394499999999999    0.4199400000000000    0.6328900000000000 H
   0.7809100000000000    0.4778600000000000    0.6352400000000000 H
   0.5515500000000000    0.2358450000000000    0.6627000000000001 H
   0.5021099999999999    0.2224400000000000    0.7349500000000000 H
   0.5177750000000000    0.1291700000000000    0.7750300000000000 H
   0.8446400000000001    0.0611700000000000    0.7725299999999999 H
   0.7891300000000000    0.1378650000000000    0.8064899999999999 H
   0.9046550000000000    0.2101200000000000    0.7242300000000000 H
   0.9555300000000000    0.1305600000000000    0.6946400000000000 H
   0.8281950000000000    0.3159850000000000    0.8165800000000000 H
   0.8842600000000000    0.2392150000000000    0.7826500000000001 H
   0.7279949999999999    0.2288000000000000    0.7992950000000000 H
   0.6787350000000000    0.3058350000000000    0.8324199999999999 H
   0.7554149999999999    0.1942150000000000    0.9117900000000000 H
   0.7012350000000001    0.1638450000000000    0.8914100000000000 H
   0.5995600000000000    0.2216700000000000    0.8933100000000000 H
   0.5419500000000000    0.4837150000000000    0.9208149999999999 H
   0.5328800000000000    0.4702150000000000    0.9930200000000000 H
   0.5757400000000000    0.3855950000000000    0.5161800000000000 H
   0.8137850000000000    0.3168700000000000    0.5137100000000000 H
   0.7595149999999999    0.3934750000000000    0.5477350000000000 H
   0.6471300000000000    0.4581100000000000    0.9828800000000000 H
   0.7046150000000000    0.3785550000000000    0.9531650000000000 H
   0.5354050000000000    0.0692450000000000    0.5584950000000000 H
   0.5867650000000000    0.4964000000000000    0.5242750000000000 H
   0.7379550000000000    0.4838150000000000    0.5405000000000000 H
   0.6802450000000000    0.0570850000000000    0.5741200000000000 H
   0.8508350000000000    0.0450100000000000    0.8637250000000001 H
   0.7459300000000000    0.0749150000000000    0.8840900000000000 H
   0.7044700000000000    0.0169950000000000    0.8817400000000000 H
   0.6407350000000001    0.4336800000000000    0.7444550000000000 H
   0.6962450000000000    0.3569900000000000    0.7104950000000000 H
   0.5807300000000000    0.2847250000000000    0.7927649999999999 H
   0.5298500000000000    0.3642850000000000    0.8223500000000000 H
   0.6571800000000000    0.1788700000000000    0.7004100000000000 H
   0.6011200000000000    0.2556350000000000    0.7343400000000000 H
   0.7573799999999999    0.2660550000000000    0.7176899999999999 H
   0.8066450000000001    0.1890250000000000    0.6845600000000001 H
   0.2299650000000000    0.8006450000000001    0.6051950000000000 H
   0.2841450000000000    0.8310100000000000    0.6255750000000000 H
   0.3858200000000000    0.7731850000000000    0.6236750000000000 H
   0.4434300000000000    0.5111400000000000    0.5961500000000000 H
   0.4525000000000000    0.5246400000000000    0.5239650000000000 H
   0.4096450000000000    0.6092550000000000    0.5000000000000000 H
   0.1715950000000000    0.6779850000000001    0.5000000000000000 H
   0.2258650000000000    0.6013900000000000    0.9692499999999999 H
   0.3382500000000000    0.5367450000000000    0.5341050000000001 H
   0.2807650000000000    0.6162950000000000    0.5638250000000000 H
   0.4499750000000000    0.9256150000000001    0.9584900000000001 H
   0.3986150000000000    0.9984600000000000    0.9927100000000000 H
   0.2474250000000000    0.5110450000000000    0.9762850000000001 H
   0.3051350000000000    0.9377750000000000    0.9428650000000001 H
   0.1345450000000000    0.9498450000000001    0.6532600000000000 H
   0.2394500000000000    0.9199400000000000    0.6328900000000000 H
   0.2809100000000000    0.9778600000000000    0.6352400000000000 H
   0.0515500000000000    0.7358450000000000    0.6627000000000001 H
   0.0021100000000000    0.7224400000000000    0.7349500000000000 H
   0.0177750000000000    0.6291700000000000    0.7750300000000000 H
   0.3446400000000000    0.5611699999999999    0.7725299999999999 H
   0.2891300000000000    0.6378650000000000    0.8064899999999999 H
   0.4046550000000000    0.7101200000000000    0.7242300000000000 H
   0.4555300000000000    0.6305600000000000    0.6946400000000000 H
   0.3281950000000000    0.8159850000000000    0.8165800000000000 H
   0.3842600000000000    0.7392150000000000    0.7826500000000001 H
   0.2279950000000000    0.7288000000000000    0.7992950000000000 H
   0.1787350000000000    0.8058350000000001    0.8324199999999999 H
   0.2554150000000000    0.6942150000000000    0.9117900000000000 H
   0.2012350000000000    0.6638450000000000    0.8914100000000000 H
   0.0995600000000000    0.7216700000000000    0.8933100000000000 H
   0.0419500000000000    0.9837150000000000    0.9208149999999999 H
   0.0328800000000000    0.9702150000000000    0.9930200000000000 H
   0.0757400000000000    0.8855950000000000    0.5161800000000000 H
   0.3137850000000000    0.8168700000000000    0.5137100000000000 H
   0.2595150000000000    0.8934750000000000    0.5477350000000000 H
   0.1471300000000000    0.9581100000000000    0.9828800000000000 H
   0.2046150000000000    0.8785550000000000    0.9531650000000000 H
   0.0354050000000000    0.5692450000000000    0.5584950000000000 H