H6 O4
1.0
  38.8832753341735184    0.0000000000000000    8.0212033565328369
   0.2492946002964812   39.5948667174029936    4.2679042671263883
   0.0000000000000000    0.0000000000000000   14.0030000000000001
H O
6 4
direct
   0.7011925834818201    0.8374424335104347    0.9063994176167621 H
   0.7186406979871867    0.8400264913346345    0.6143224014077433 H
   0.7098763700395234    0.8422054693750933    0.7589407115589522 H
   0.7141247869895204    0.0470075059763663    0.6505754273220650 H
   0.7061885727439881    0.0446737351079083    0.9401544037381617 H
   0.7100841078520272    0.0423057624871739    0.7969213010270201 H
   0.7052133333333332    0.8268533333333332    0.8458300000000000 O
   0.7151133333333333    0.8284133333333332    0.6800500000000000 O
   0.7125833333333333    0.0577533333333333    0.7103000000000000 O
   0.7080733333333333    0.0563233333333333    0.8748300000000000 O
