Zn36 H354 C600 N36 O140
1.0
  38.8832753341735184    0.0000000000000000    8.0212033565328369
   0.2492946002964812   39.5948667174029936    4.2679042671263883
   0.0000000000000000    0.0000000000000000   14.0030000000000001
Zn H C N O
36 354 600 36 140
direct
   0.2931733333333333    0.2251700000000000    0.1201900000000000 Zn
   0.0488833333333333    0.1096666666666667    0.6746100000000000 Zn
   0.0401600000000000    0.1081666666666667    0.8798400000000000 Zn
   0.2844500000000000    0.2236700000000000    0.3254200000000000 Zn
   0.6265066666666665    0.2251700000000000    0.1201900000000000 Zn
   0.3822166666666666    0.1096666666666667    0.6746100000000000 Zn
   0.3734933333333333    0.1081666666666667    0.8798400000000000 Zn
   0.6177833333333334    0.2236700000000000    0.3254200000000000 Zn
   0.9598399999999999    0.2251700000000000    0.1201900000000000 Zn
   0.7155499999999999    0.1096666666666667    0.6746100000000000 Zn
   0.7068266666666666    0.1081666666666667    0.8798400000000000 Zn
   0.9511166666666666    0.2236700000000000    0.3254200000000000 Zn
   0.2931733333333333    0.5585033333333334    0.1201900000000000 Zn
   0.0488833333333333    0.4429999999999999    0.6746100000000000 Zn
   0.0401600000000000    0.4415000000000000    0.8798400000000000 Zn
   0.2844500000000000    0.5570033333333333    0.3254200000000000 Zn
   0.6265066666666665    0.5585033333333334    0.1201900000000000 Zn
   0.3822166666666666    0.4429999999999999    0.6746100000000000 Zn
   0.3734933333333333    0.4415000000000000    0.8798400000000000 Zn
   0.6177833333333334    0.5570033333333333    0.3254200000000000 Zn
   0.9598399999999999    0.5585033333333334    0.1201900000000000 Zn
   0.7155499999999999    0.4429999999999999    0.6746100000000000 Zn
   0.7068266666666666    0.4415000000000000    0.8798400000000000 Zn
   0.9511166666666666    0.5570033333333333    0.3254200000000000 Zn
   0.2931733333333333    0.8918366666666666    0.1201900000000000 Zn
   0.0488833333333333    0.7763333333333333    0.6746100000000000 Zn
   0.0401600000000000    0.7748333333333333    0.8798400000000000 Zn
   0.2844500000000000    0.8903366666666666    0.3254200000000000 Zn
   0.6265066666666665    0.8918366666666666    0.1201900000000000 Zn
   0.3822166666666666    0.7763333333333333    0.6746100000000000 Zn
   0.3734933333333333    0.7748333333333333    0.8798400000000000 Zn
   0.6177833333333334    0.8903366666666666    0.3254200000000000 Zn
   0.9598399999999999    0.8918366666666666    0.1201900000000000 Zn
   0.7155499999999999    0.7763333333333333    0.6746100000000000 Zn
   0.7068266666666666    0.7748333333333333    0.8798400000000000 Zn
   0.9511166666666666    0.8903366666666666    0.3254200000000000 Zn
   0.0730300000000000    0.2268933333333333    0.0349200000000000 H
   0.1363600000000000    0.2266266666666667    0.0213000000000000 H
   0.0576666666666667    0.2226300000000000    0.3485200000000000 H
   0.1872366666666667    0.2255633333333333    0.1016200000000000 H
   0.1722733333333333    0.2213900000000000    0.4147200000000000 H
   0.1087000000000000    0.2208466666666667    0.4294900000000000 H
   0.2845700000000000    0.0000000000000000    0.3486800000000000 H
   0.2984033333333333    0.0630966666666667    0.0181300000000000 H
   0.2974700000000000    0.0002933333333333    0.0363600000000000 H
   0.2946433333333333    0.1170266666666667    0.0949400000000000 H
   0.2826866666666666    0.1152200000000000    0.4070700000000000 H
   0.2817933333333333    0.0523366666666667    0.4254600000000000 H
   0.2947500000000000    0.2772300000000000    0.9486900000000000 H
   0.2922000000000000    0.2793700000000000    0.7719300000000000 H
   0.2843033333333333    0.1704133333333333    0.8124900000000000 H
   0.2900066666666666    0.1728400000000000    0.9851600000000000 H
   0.2623700000000000    0.2737466666666666    0.6551399999999999 H
   0.2617633333333333    0.2711633333333333    0.4780900000000000 H
   0.3040166666666667    0.1751500000000000    0.4822900000000000 H
   0.3091766666666667    0.1741000000000000    0.6569900000000000 H
   0.2603033333333333    0.1064433333333333    0.9651100000000000 H
   0.1969733333333333    0.1067100000000000    0.9787400000000001 H
   0.2756666666666666    0.1107033333333333    0.6515100000000000 H
   0.1460966666666667    0.1077766666666667    0.8984100000000000 H
   0.1610600000000000    0.1119466666666667    0.5853100000000000 H
   0.2246333333333334    0.1124900000000000    0.5705400000000000 H
   0.0487633333333333    0.0018966666666667    0.6513500000000000 H
   0.0349300000000000    0.2702433333333333    0.9819000000000000 H
   0.0358633333333333    0.3330433333333333    0.9636700000000000 H
   0.0386900000000000    0.2163100000000000    0.9050900000000000 H
   0.0506466666666667    0.2181200000000000    0.5929700000000000 H
   0.0515400000000000    0.2810000000000000    0.5745700000000000 H
   0.0385800000000000    0.0561066666666667    0.0513400000000000 H
   0.0411366666666667    0.0539666666666667    0.2281000000000000 H
   0.0490300000000000    0.1629266666666667    0.1875500000000000 H
   0.0433266666666667    0.1604966666666666    0.0148800000000000 H
   0.0709666666666667    0.0595900000000000    0.3448900000000000 H
   0.0715700000000000    0.0621733333333333    0.5219400000000000 H
   0.0293166666666667    0.1581866666666666    0.5177400000000000 H
   0.0241566666666667    0.1592366666666667    0.3430400000000000 H
   0.4063633333333333    0.2268933333333333    0.0349200000000000 H
   0.4696933333333333    0.2266266666666667    0.0213000000000000 H
   0.3910000000000000    0.2226300000000000    0.3485200000000000 H
   0.5205700000000000    0.2255633333333333    0.1016200000000000 H
   0.5056066666666666    0.2213900000000000    0.4147200000000000 H
   0.4420333333333333    0.2208466666666667    0.4294900000000000 H
   0.6179033333333332    0.0000000000000000    0.3486800000000000 H
   0.6317366666666666    0.0630966666666667    0.0181300000000000 H
   0.6308033333333334    0.0002933333333333    0.0363600000000000 H
   0.6279766666666666    0.1170266666666667    0.0949400000000000 H
   0.6160200000000000    0.1152200000000000    0.4070700000000000 H
   0.6151266666666666    0.0523366666666667    0.4254600000000000 H
   0.6280833333333333    0.2772300000000000    0.9486900000000000 H
   0.6255333333333333    0.2793700000000000    0.7719300000000000 H
   0.6176366666666666    0.1704133333333333    0.8124900000000000 H
   0.6233400000000000    0.1728400000000000    0.9851600000000000 H
   0.5957033333333333    0.2737466666666666    0.6551399999999999 H
   0.5950966666666666    0.2711633333333333    0.4780900000000000 H
   0.6373500000000000    0.1751500000000000    0.4822900000000000 H
   0.6425099999999999    0.1741000000000000    0.6569900000000000 H
   0.5936366666666666    0.1064433333333333    0.9651100000000000 H
   0.5303066666666667    0.1067100000000000    0.9787400000000001 H
   0.6090000000000000    0.1107033333333333    0.6515100000000000 H
   0.4794300000000000    0.1077766666666667    0.8984100000000000 H
   0.4943933333333333    0.1119466666666667    0.5853100000000000 H
   0.5579666666666667    0.1124900000000000    0.5705400000000000 H
   0.3820966666666666    0.0018966666666667    0.6513500000000000 H
   0.3682633333333333    0.2702433333333333    0.9819000000000000 H
   0.3691966666666666    0.3330433333333333    0.9636700000000000 H
   0.3720233333333333    0.2163100000000000    0.9050900000000000 H
   0.3839800000000000    0.2181200000000000    0.5929700000000000 H
   0.3848733333333333    0.2810000000000000    0.5745700000000000 H
   0.3719133333333333    0.0561066666666667    0.0513400000000000 H
   0.3744700000000000    0.0539666666666667    0.2281000000000000 H
   0.3823633333333333    0.1629266666666667    0.1875500000000000 H
   0.3766600000000000    0.1604966666666666    0.0148800000000000 H
   0.4043000000000000    0.0595900000000000    0.3448900000000000 H
   0.4049033333333333    0.0621733333333333    0.5219400000000000 H
   0.3626500000000000    0.1581866666666666    0.5177400000000000 H
   0.3574900000000000    0.1592366666666667    0.3430400000000000 H
   0.7396966666666667    0.2268933333333333    0.0349200000000000 H
   0.8030266666666666    0.2266266666666667    0.0213000000000000 H
   0.7243333333333333    0.2226300000000000    0.3485200000000000 H
   0.8539033333333332    0.2255633333333333    0.1016200000000000 H
   0.8389399999999999    0.2213900000000000    0.4147200000000000 H
   0.7753666666666666    0.2208466666666667    0.4294900000000000 H
   0.9512366666666666    0.0000000000000000    0.3486800000000000 H
   0.9650699999999999    0.0630966666666667    0.0181300000000000 H
   0.9641366666666666    0.0002933333333333    0.0363600000000000 H
   0.9613099999999999    0.1170266666666667    0.0949400000000000 H
   0.9493533333333333    0.1152200000000000    0.4070700000000000 H
   0.9484600000000000    0.0523366666666667    0.4254600000000000 H
   0.9614166666666666    0.2772300000000000    0.9486900000000000 H
   0.9588666666666666    0.2793700000000000    0.7719300000000000 H
   0.9509699999999999    0.1704133333333333    0.8124900000000000 H
   0.9566733333333333    0.1728400000000000    0.9851600000000000 H
   0.9290366666666666    0.2737466666666666    0.6551399999999999 H
   0.9284300000000000    0.2711633333333333    0.4780900000000000 H
   0.9706833333333333    0.1751500000000000    0.4822900000000000 H
   0.9758433333333333    0.1741000000000000    0.6569900000000000 H
   0.9269700000000000    0.1064433333333333    0.9651100000000000 H
   0.8636400000000000    0.1067100000000000    0.9787400000000001 H
   0.9423333333333332    0.1107033333333333    0.6515100000000000 H
   0.8127633333333333    0.1077766666666667    0.8984100000000000 H
   0.8277266666666666    0.1119466666666667    0.5853100000000000 H
   0.8913000000000000    0.1124900000000000    0.5705400000000000 H
   0.7015966666666666    0.2702433333333333    0.9819000000000000 H
   0.7025300000000000    0.3330433333333333    0.9636700000000000 H
   0.7053566666666666    0.2163100000000000    0.9050900000000000 H
   0.7173133333333332    0.2181200000000000    0.5929700000000000 H
   0.7182066666666667    0.2810000000000000    0.5745700000000000 H
   0.7052466666666666    0.0561066666666667    0.0513400000000000 H
   0.7078033333333333    0.0539666666666667    0.2281000000000000 H
   0.7156966666666666    0.1629266666666667    0.1875500000000000 H
   0.7099933333333333    0.1604966666666666    0.0148800000000000 H
   0.7376333333333333    0.0595900000000000    0.3448900000000000 H
   0.7382366666666667    0.0621733333333333    0.5219400000000000 H
   0.6959833333333333    0.1581866666666666    0.5177400000000000 H
   0.6908233333333333    0.1592366666666667    0.3430400000000000 H
   0.0730300000000000    0.5602266666666667    0.0349200000000000 H
   0.1363600000000000    0.5599600000000000    0.0213000000000000 H
   0.0576666666666667    0.5559633333333334    0.3485200000000000 H
   0.1872366666666667    0.5588966666666666    0.1016200000000000 H
   0.1722733333333333    0.5547233333333333    0.4147200000000000 H
   0.1087000000000000    0.5541800000000000    0.4294900000000000 H
   0.2845700000000000    0.3333333333333333    0.3486800000000000 H
   0.2984033333333333    0.3964299999999999    0.0181300000000000 H
   0.2974700000000000    0.3336266666666666    0.0363600000000000 H
   0.2946433333333333    0.4503600000000000    0.0949400000000000 H
   0.2826866666666666    0.4485533333333333    0.4070700000000000 H
   0.2817933333333333    0.3856700000000000    0.4254600000000000 H
   0.2947500000000000    0.6105633333333333    0.9486900000000000 H
   0.2922000000000000    0.6127033333333334    0.7719300000000000 H
   0.2843033333333333    0.5037466666666667    0.8124900000000000 H
   0.2900066666666666    0.5061733333333334    0.9851600000000000 H
   0.2623700000000000    0.6070800000000000    0.6551399999999999 H
   0.2617633333333333    0.6044966666666667    0.4780900000000000 H
   0.3040166666666667    0.5084833333333333    0.4822900000000000 H
   0.3091766666666667    0.5074333333333333    0.6569900000000000 H
   0.2603033333333333    0.4397766666666666    0.9651100000000000 H
   0.1969733333333333    0.4400433333333333    0.9787400000000001 H
   0.2756666666666666    0.4440366666666666    0.6515100000000000 H
   0.1460966666666667    0.4411100000000000    0.8984100000000000 H
   0.1610600000000000    0.4452800000000000    0.5853100000000000 H
   0.2246333333333334    0.4458233333333333    0.5705400000000000 H
   0.0487633333333333    0.3352300000000000    0.6513500000000000 H
   0.0349300000000000    0.6035766666666667    0.9819000000000000 H
   0.0358633333333333    0.6663766666666666    0.9636700000000000 H
   0.0386900000000000    0.5496433333333333    0.9050900000000000 H
   0.0506466666666667    0.5514533333333334    0.5929700000000000 H
   0.0515400000000000    0.6143333333333333    0.5745700000000000 H
   0.0385800000000000    0.3894400000000000    0.0513400000000000 H
   0.0411366666666667    0.3873000000000000    0.2281000000000000 H
   0.0490300000000000    0.4962600000000000    0.1875500000000000 H
   0.0433266666666667    0.4938300000000000    0.0148800000000000 H
   0.0709666666666667    0.3929233333333333    0.3448900000000000 H
   0.0715700000000000    0.3955066666666667    0.5219400000000000 H
   0.0293166666666667    0.4915200000000000    0.5177400000000000 H
   0.0241566666666667    0.4925700000000000    0.3430400000000000 H
   0.4063633333333333    0.5602266666666667    0.0349200000000000 H
   0.4696933333333333    0.5599600000000000    0.0213000000000000 H
   0.3910000000000000    0.5559633333333334    0.3485200000000000 H
   0.5205700000000000    0.5588966666666666    0.1016200000000000 H
   0.5056066666666666    0.5547233333333333    0.4147200000000000 H
   0.4420333333333333    0.5541800000000000    0.4294900000000000 H
   0.6179033333333332    0.3333333333333333    0.3486800000000000 H
   0.6317366666666666    0.3964299999999999    0.0181300000000000 H
   0.6308033333333334    0.3336266666666666    0.0363600000000000 H
   0.6279766666666666    0.4503600000000000    0.0949400000000000 H
   0.6160200000000000    0.4485533333333333    0.4070700000000000 H
   0.6151266666666666    0.3856700000000000    0.4254600000000000 H
   0.6280833333333333    0.6105633333333333    0.9486900000000000 H
   0.6255333333333333    0.6127033333333334    0.7719300000000000 H
   0.6176366666666666    0.5037466666666667    0.8124900000000000 H
   0.6233400000000000    0.5061733333333334    0.9851600000000000 H
   0.5957033333333333    0.6070800000000000    0.6551399999999999 H
   0.5950966666666666    0.6044966666666667    0.4780900000000000 H
   0.6373500000000000    0.5084833333333333    0.4822900000000000 H
   0.6425099999999999    0.5074333333333333    0.6569900000000000 H
   0.5936366666666666    0.4397766666666666    0.9651100000000000 H
   0.5303066666666667    0.4400433333333333    0.9787400000000001 H
   0.6090000000000000    0.4440366666666666    0.6515100000000000 H
   0.4794300000000000    0.4411100000000000    0.8984100000000000 H
   0.4943933333333333    0.4452800000000000    0.5853100000000000 H
   0.5579666666666667    0.4458233333333333    0.5705400000000000 H
   0.3820966666666666    0.3352300000000000    0.6513500000000000 H
   0.3682633333333333    0.6035766666666667    0.9819000000000000 H
   0.3691966666666666    0.6663766666666666    0.9636700000000000 H
   0.3720233333333333    0.5496433333333333    0.9050900000000000 H
   0.3839800000000000    0.5514533333333334    0.5929700000000000 H
   0.3848733333333333    0.6143333333333333    0.5745700000000000 H
   0.3719133333333333    0.3894400000000000    0.0513400000000000 H
   0.3744700000000000    0.3873000000000000    0.2281000000000000 H
   0.3823633333333333    0.4962600000000000    0.1875500000000000 H
   0.3766600000000000    0.4938300000000000    0.0148800000000000 H
   0.4043000000000000    0.3929233333333333    0.3448900000000000 H
   0.4049033333333333    0.3955066666666667    0.5219400000000000 H
   0.3626500000000000    0.4915200000000000    0.5177400000000000 H
   0.3574900000000000    0.4925700000000000    0.3430400000000000 H
   0.7396966666666667    0.5602266666666667    0.0349200000000000 H
   0.8030266666666666    0.5599600000000000    0.0213000000000000 H
   0.7243333333333333    0.5559633333333334    0.3485200000000000 H
   0.8539033333333332    0.5588966666666666    0.1016200000000000 H
   0.8389399999999999    0.5547233333333333    0.4147200000000000 H
   0.7753666666666666    0.5541800000000000    0.4294900000000000 H
   0.9512366666666666    0.3333333333333333    0.3486800000000000 H
   0.9650699999999999    0.3964299999999999    0.0181300000000000 H
   0.9641366666666666    0.3336266666666666    0.0363600000000000 H
   0.9613099999999999    0.4503600000000000    0.0949400000000000 H
   0.9493533333333333    0.4485533333333333    0.4070700000000000 H
   0.9484600000000000    0.3856700000000000    0.4254600000000000 H
   0.9614166666666666    0.6105633333333333    0.9486900000000000 H
   0.9588666666666666    0.6127033333333334    0.7719300000000000 H
   0.9509699999999999    0.5037466666666667    0.8124900000000000 H
   0.9566733333333333    0.5061733333333334    0.9851600000000000 H
   0.9290366666666666    0.6070800000000000    0.6551399999999999 H
   0.9284300000000000    0.6044966666666667    0.4780900000000000 H
   0.9706833333333333    0.5084833333333333    0.4822900000000000 H
   0.9758433333333333    0.5074333333333333    0.6569900000000000 H
   0.9269700000000000    0.4397766666666666    0.9651100000000000 H
   0.8636400000000000    0.4400433333333333    0.9787400000000001 H
   0.9423333333333332    0.4440366666666666    0.6515100000000000 H
   0.8127633333333333    0.4411100000000000    0.8984100000000000 H
   0.8277266666666666    0.4452800000000000    0.5853100000000000 H
   0.8913000000000000    0.4458233333333333    0.5705400000000000 H
   0.7154300000000000    0.3352300000000000    0.6513500000000000 H
   0.7015966666666666    0.6035766666666667    0.9819000000000000 H
   0.7025300000000000    0.6663766666666666    0.9636700000000000 H
   0.7053566666666666    0.5496433333333333    0.9050900000000000 H
   0.7173133333333332    0.5514533333333334    0.5929700000000000 H
   0.7182066666666667    0.6143333333333333    0.5745700000000000 H
   0.7052466666666666    0.3894400000000000    0.0513400000000000 H
   0.7078033333333333    0.3873000000000000    0.2281000000000000 H
   0.7156966666666666    0.4962600000000000    0.1875500000000000 H
   0.7099933333333333    0.4938300000000000    0.0148800000000000 H
   0.7376333333333333    0.3929233333333333    0.3448900000000000 H
   0.7382366666666667    0.3955066666666667    0.5219400000000000 H
   0.6959833333333333    0.4915200000000000    0.5177400000000000 H
   0.6908233333333333    0.4925700000000000    0.3430400000000000 H
   0.0730300000000000    0.8935599999999999    0.0349200000000000 H
   0.1363600000000000    0.8932933333333333    0.0213000000000000 H
   0.0576666666666667    0.8892966666666666    0.3485200000000000 H
   0.1872366666666667    0.8922300000000000    0.1016200000000000 H
   0.1722733333333333    0.8880566666666666    0.4147200000000000 H
   0.1087000000000000    0.8875133333333333    0.4294900000000000 H
   0.2845700000000000    0.6666666666666666    0.3486800000000000 H
   0.2984033333333333    0.7297633333333333    0.0181300000000000 H
   0.2974700000000000    0.6669600000000000    0.0363600000000000 H
   0.2946433333333333    0.7836933333333334    0.0949400000000000 H
   0.2826866666666666    0.7818866666666666    0.4070700000000000 H
   0.2817933333333333    0.7190033333333333    0.4254600000000000 H
   0.2947500000000000    0.9438966666666666    0.9486900000000000 H
   0.2922000000000000    0.9460366666666666    0.7719300000000000 H
   0.2843033333333333    0.8370799999999999    0.8124900000000000 H
   0.2900066666666666    0.8395066666666666    0.9851600000000000 H
   0.2623700000000000    0.9404133333333333    0.6551399999999999 H
   0.2617633333333333    0.9378299999999999    0.4780900000000000 H
   0.3040166666666667    0.8418166666666667    0.4822900000000000 H
   0.3091766666666667    0.8407666666666667    0.6569900000000000 H
   0.2603033333333333    0.7731100000000000    0.9651100000000000 H
   0.1969733333333333    0.7733766666666666    0.9787400000000001 H
   0.2756666666666666    0.7773700000000000    0.6515100000000000 H
   0.1460966666666667    0.7744433333333333    0.8984100000000000 H
   0.1610600000000000    0.7786133333333333    0.5853100000000000 H
   0.2246333333333334    0.7791566666666666    0.5705400000000000 H
   0.0487633333333333    0.6685633333333333    0.6513500000000000 H
   0.0349300000000000    0.9369099999999999    0.9819000000000000 H
   0.0358633333333333    0.9997099999999999    0.9636700000000000 H
   0.0386900000000000    0.8829766666666666    0.9050900000000000 H
   0.0506466666666667    0.8847866666666666    0.5929700000000000 H
   0.0515400000000000    0.9476666666666667    0.5745700000000000 H
   0.0385800000000000    0.7227733333333333    0.0513400000000000 H
   0.0411366666666667    0.7206333333333332    0.2281000000000000 H
   0.0490300000000000    0.8295933333333333    0.1875500000000000 H
   0.0433266666666667    0.8271633333333333    0.0148800000000000 H
   0.0709666666666667    0.7262566666666667    0.3448900000000000 H
   0.0715700000000000    0.7288399999999999    0.5219400000000000 H
   0.0293166666666667    0.8248533333333332    0.5177400000000000 H
   0.0241566666666667    0.8259033333333333    0.3430400000000000 H
   0.4063633333333333    0.8935599999999999    0.0349200000000000 H
   0.4696933333333333    0.8932933333333333    0.0213000000000000 H
   0.3910000000000000    0.8892966666666666    0.3485200000000000 H
   0.5205700000000000    0.8922300000000000    0.1016200000000000 H
   0.5056066666666666    0.8880566666666666    0.4147200000000000 H
   0.4420333333333333    0.8875133333333333    0.4294900000000000 H
   0.6179033333333332    0.6666666666666666    0.3486800000000000 H
   0.6317366666666666    0.7297633333333333    0.0181300000000000 H
   0.6308033333333334    0.6669600000000000    0.0363600000000000 H
   0.6279766666666666    0.7836933333333334    0.0949400000000000 H
   0.6160200000000000    0.7818866666666666    0.4070700000000000 H
   0.6151266666666666    0.7190033333333333    0.4254600000000000 H
   0.6280833333333333    0.9438966666666666    0.9486900000000000 H
   0.6255333333333333    0.9460366666666666    0.7719300000000000 H
   0.6176366666666666    0.8370799999999999    0.8124900000000000 H
   0.6233400000000000    0.8395066666666666    0.9851600000000000 H
   0.5957033333333333    0.9404133333333333    0.6551399999999999 H
   0.5950966666666666    0.9378299999999999    0.4780900000000000 H
   0.6373500000000000    0.8418166666666667    0.4822900000000000 H
   0.6425099999999999    0.8407666666666667    0.6569900000000000 H
   0.5936366666666666    0.7731100000000000    0.9651100000000000 H
   0.5303066666666667    0.7733766666666666    0.9787400000000001 H
   0.6090000000000000    0.7773700000000000    0.6515100000000000 H
   0.4794300000000000    0.7744433333333333    0.8984100000000000 H
   0.4943933333333333    0.7786133333333333    0.5853100000000000 H
   0.5579666666666667    0.7791566666666666    0.5705400000000000 H
   0.3820966666666666    0.6685633333333333    0.6513500000000000 H
   0.3682633333333333    0.9369099999999999    0.9819000000000000 H
   0.3691966666666666    0.9997099999999999    0.9636700000000000 H
   0.3720233333333333    0.8829766666666666    0.9050900000000000 H
   0.3839800000000000    0.8847866666666666    0.5929700000000000 H
   0.3848733333333333    0.9476666666666667    0.5745700000000000 H
   0.3719133333333333    0.7227733333333333    0.0513400000000000 H
   0.3744700000000000    0.7206333333333332    0.2281000000000000 H
   0.3823633333333333    0.8295933333333333    0.1875500000000000 H
   0.3766600000000000    0.8271633333333333    0.0148800000000000 H
   0.4043000000000000    0.7262566666666667    0.3448900000000000 H
   0.4049033333333333    0.7288399999999999    0.5219400000000000 H
   0.3626500000000000    0.8248533333333332    0.5177400000000000 H
   0.3574900000000000    0.8259033333333333    0.3430400000000000 H
   0.7396966666666667    0.8935599999999999    0.0349200000000000 H
   0.8030266666666666    0.8932933333333333    0.0213000000000000 H
   0.7243333333333333    0.8892966666666666    0.3485200000000000 H
   0.8539033333333332    0.8922300000000000    0.1016200000000000 H
   0.8389399999999999    0.8880566666666666    0.4147200000000000 H
   0.7753666666666666    0.8875133333333333    0.4294900000000000 H
   0.9512366666666666    0.6666666666666666    0.3486800000000000 H
   0.9650699999999999    0.7297633333333333    0.0181300000000000 H
   0.9641366666666666    0.6669600000000000    0.0363600000000000 H
   0.9613099999999999    0.7836933333333334    0.0949400000000000 H
   0.9493533333333333    0.7818866666666666    0.4070700000000000 H
   0.9484600000000000    0.7190033333333333    0.4254600000000000 H
   0.9614166666666666    0.9438966666666666    0.9486900000000000 H
   0.9588666666666666    0.9460366666666666    0.7719300000000000 H
   0.9509699999999999    0.8370799999999999    0.8124900000000000 H
   0.9566733333333333    0.8395066666666666    0.9851600000000000 H
   0.9290366666666666    0.9404133333333333    0.6551399999999999 H
   0.9284300000000000    0.9378299999999999    0.4780900000000000 H
   0.9706833333333333    0.8418166666666667    0.4822900000000000 H
   0.9758433333333333    0.8407666666666667    0.6569900000000000 H
   0.9269700000000000    0.7731100000000000    0.9651100000000000 H
   0.8636400000000000    0.7733766666666666    0.9787400000000001 H
   0.9423333333333332    0.7773700000000000    0.6515100000000000 H
   0.8127633333333333    0.7744433333333333    0.8984100000000000 H
   0.8277266666666666    0.7786133333333333    0.5853100000000000 H
   0.8913000000000000    0.7791566666666666    0.5705400000000000 H
   0.7154300000000000    0.6685633333333333    0.6513500000000000 H
   0.7052466666666666    0.7227733333333333    0.0513400000000000 H
   0.7078033333333333    0.7206333333333332    0.2281000000000000 H
   0.7156966666666666    0.8295933333333333    0.1875500000000000 H
   0.7099933333333333    0.8271633333333333    0.0148800000000000 H
   0.7376333333333333    0.7262566666666667    0.3448900000000000 H
   0.7382366666666667    0.7288399999999999    0.5219400000000000 H
   0.6959833333333333    0.8248533333333332    0.5177400000000000 H
   0.6908233333333333    0.8259033333333333    0.3430400000000000 H
   0.0233166666666667    0.2243066666666667    0.2011900000000000 C
   0.0615966666666667    0.2247466666666667    0.1934300000000000 C
   0.0840866666666667    0.2259366666666667    0.1002200000000000 C
   0.1191700000000000    0.2257633333333333    0.0929500000000000 C
   0.1337533333333333    0.2245566666666667    0.1780200000000000 C
   0.1111633333333333    0.2233100000000000    0.2725600000000000 C
   0.0752066666666667    0.2234433333333333    0.2775300000000000 C
   0.1697133333333333    0.2246300000000000    0.1726400000000000 C
   0.1832933333333333    0.2236966666666667    0.2565300000000000 C
   0.1609266666666667    0.2223033333333333    0.3498900000000000 C
   0.1258000000000000    0.2220533333333333    0.3575900000000000 C
   0.2216000000000000    0.2242100000000000    0.2482800000000000 C
   0.2899166666666667    0.2909700000000000    0.2039600000000000 C
   0.2905366666666667    0.3289033333333333    0.1944100000000000 C
   0.2873000000000000    0.0126266666666667    0.2770100000000000 C
   0.2874766666666667    0.0483466666666667    0.2696400000000000 C
   0.2909700000000000    0.0670066666666667    0.1744500000000000 C
   0.2947100000000000    0.0489433333333333    0.0906000000000000 C
   0.2944700000000000    0.0141800000000000    0.1004200000000000 C
   0.2914400000000000    0.1027366666666667    0.1669800000000000 C
   0.2885866666666667    0.1198000000000000    0.2494200000000000 C
   0.2850133333333333    0.1012200000000000    0.3433800000000000 C
   0.2845133333333333    0.0664833333333333    0.3531200000000000 C
   0.2894099999999999    0.1576966666666667    0.2403600000000000 C
   0.2925866666666667    0.2542733333333334    0.9146100000000000 C
   0.2905933333333333    0.2551233333333333    0.8165600000000000 C
   0.2879633333333333    0.2247800000000000    0.7761500000000000 C
   0.2861600000000000    0.2241866666666667    0.6720000000000000 C
   0.2873066666666667    0.1946933333333333    0.8384100000000000 C
   0.2899333333333333    0.1957533333333333    0.9352500000000000 C
   0.2726333333333333    0.2515700000000000    0.6196100000000000 C
   0.2717166666666667    0.2502766666666666    0.5214900000000000 C
   0.2956600000000000    0.1965466666666667    0.5238200000000000 C
   0.2978600000000000    0.1960733333333333    0.6216000000000000 C
   0.3100166666666667    0.1090333333333333    0.7988499999999999 C
   0.2717366666666666    0.1085866666666667    0.8066000000000000 C
   0.2492466666666666    0.1074000000000000    0.8998200000000000 C
   0.2141633333333333    0.1075733333333333    0.9070800000000000 C
   0.1995800000000000    0.1087833333333333    0.8220200000000000 C
   0.2221700000000000    0.1100266666666667    0.7274700000000000 C
   0.2581266666666666    0.1098933333333333    0.7225000000000000 C
   0.1636200000000000    0.1087066666666667    0.8274000000000000 C
   0.1500400000000000    0.1096433333333333    0.7435100000000000 C
   0.1724066666666667    0.1110333333333333    0.6501400000000001 C
   0.2075333333333333    0.1112833333333333    0.6424400000000000 C
   0.1117333333333333    0.1091266666666667    0.7517500000000000 C