H2 O2
1.0
  19.4981959084176459    0.0000000000000000    3.5792921530611941
   8.8464767786293734   17.7513087634948867    5.6295270483621396
   0.0000000000000000    0.0000000000000000   13.3599999999999994
H O
2 2
direct
   0.4227519526778066    0.4137218879367942    0.0903241526238947 H
   0.2659214453625107    0.3461345807063759    0.5197277906630492 H
   0.4000100000000000    0.4187000000000000    0.0277800000000000 O
   0.3007200000000000    0.3118700000000000    0.5748700000000000 O
