Zn20 H46 C110 N69 O32 F32
1.0
  19.4981959084176459    0.0000000000000000    3.5792921530611941
   8.8464767786293734   17.7513087634948867    5.6295270483621396
   0.0000000000000000    0.0000000000000000   13.3599999999999994
Zn H C N O F
20 46 110 69 32 32
direct
   0.2661100000000000    0.7902900000000000    0.7187700000000000 Zn
   0.7661100000000000    0.2902800000000000    0.7187700000000000 Zn
   0.7661100000000000    0.7902900000000000    0.7187700000000000 Zn
   0.4240300000000000    0.4419500000000000    0.8733700000000000 Zn
   0.4240300000000000    0.9419600000000000    0.8733700000000000 Zn
   0.9240300000000000    0.4419500000000000    0.8733700000000000 Zn
   0.9240200000000000    0.9419600000000000    0.8733700000000000 Zn
   0.2334500000000000    0.2102200000000000    0.2811900000000000 Zn
   0.2334500000000000    0.7102300000000000    0.2811900000000000 Zn
   0.7334500000000000    0.2102200000000000    0.2811900000000000 Zn
   0.7334400000000000    0.7102300000000000    0.2811900000000000 Zn
   0.0754600000000000    0.0587400000000000    0.1263900000000000 Zn
   0.0754600000000000    0.5587600000000000    0.1263900000000000 Zn
   0.5754600000000000    0.0587400000000000    0.1263900000000000 Zn
   0.5754600000000000    0.5587600000000000    0.1263900000000000 Zn
   0.2496000000000000    0.2504900000000000    0.3000000000000000 Zn
   0.2496000000000000    0.7504999999999999    0.4000000000000000 Zn
   0.7496000000000000    0.2504900000000000    0.3000000000000000 Zn
   0.7496000000000000    0.7504999999999999    0.3000000000000000 Zn
   0.2661100000000000    0.2902800000000000    0.7187700000000000 Zn
   0.3467100000000000    0.3457600000000000    0.0130000000000000 H
   0.3467000000000000    0.8457700000000000    0.0130000000000000 H
   0.8467000000000000    0.3457600000000000    0.0130000000000000 H
   0.8467000000000000    0.8457700000000000    0.0130000000000000 H
   0.3398700000000000    0.0600100000000000    0.0000000000000000 H
   0.3398700000000000    0.5600200000000000    0.0000000000000000 H
   0.8398700000000000    0.0600100000000000    0.0000000000000000 H
   0.8398600000000001    0.5600200000000000    0.0000000000000000 H
   0.0751500000000000    0.3977600000000000    0.6786100000000000 H
   0.0751500000000000    0.8977700000000000    0.6786100000000000 H
   0.5751500000000001    0.3977600000000000    0.6786100000000000 H
   0.5751400000000000    0.8977700000000000    0.6786100000000000 H
   0.0613900000000000    0.3575200000000000    0.0000000000000000 H
   0.0613800000000000    0.8575300000000000    0.0000000000000000 H
   0.5613800000000000    0.3575200000000000    0.0000000000000000 H
   0.5613800000000000    0.8575300000000000    0.0000000000000000 H
   0.3757100000000000    0.3825200000000000    0.6861000000000000 H
   0.3757100000000000    0.8825300000000000    0.6861000000000000 H
   0.8757100000000000    0.3825200000000000    0.6861400000000000 H
   0.8757000000000000    0.8825300000000000    0.6861000000000000 H
   0.3556100000000000    0.1073300000000000    0.6810900000000000 H
   0.3556100000000000    0.6073400000000000    0.6810900000000000 H
   0.8556100000000000    0.1073300000000000    0.6810900000000000 H
   0.8556000000000000    0.6073400000000000    0.6810900000000000 H
   0.1527800000000000    0.1549300000000000    0.9868000000000000 H
   0.1527800000000000    0.6549400000000000    0.9868000000000000 H
   0.6527700000000000    0.1549300000000000    0.9868700000000000 H
   0.1595100000000000    0.4405900000000000    0.9905000000000000 H
   0.1595100000000000    0.9406000000000000    0.9905000000000000 H
   0.6595100000000000    0.4405900000000000    0.9905000000000000 H
   0.6595100000000000    0.9406000000000000    0.9905000000000000 H
   0.4244400000000000    0.1026800000000000    0.3211100000000000 H
   0.4244400000000000    0.6026899999999999    0.3211000000000000 H
   0.9244300000000000    0.1026800000000000    0.3211100000000000 H
   0.9244300000000000    0.6026899999999999    0.3211000000000000 H
   0.4380400000000000    0.1433400000000000    0.9926800000000000 H
   0.4380400000000000    0.6433500000000000    0.9926800000000000 H
   0.9380400000000000    0.1433400000000000    0.9926800000000000 H
   0.9380400000000000    0.6433500000000000    0.9926800000000000 H
   0.1240400000000000    0.1178300000000000    0.3138100000000000 H
   0.1240400000000000    0.6178399999999999    0.3138100000000000 H
   0.6240400000000000    0.1178300000000000    0.3138100000000000 H
   0.1439200000000000    0.3932500000000000    0.3189200000000000 H
   0.1439200000000000    0.8932600000000001    0.3189200000000000 H
   0.6439200000000000    0.3932500000000000    0.3189200000000000 H
   0.6439100000000000    0.8932600000000001    0.3189200000000000 H
   0.0889000000000000    0.3775000000000000    0.7597600000000000 C
   0.0889000000000000    0.8775100000000000    0.7597600000000000 C
   0.5889000000000000    0.3775000000000000    0.7597600000000000 C
   0.5889000000000000    0.8775100000000000    0.7597600000000000 C
   0.0831500000000000    0.3550600000000000    0.9267600000000000 C
   0.0831400000000000    0.8550700000000000    0.9267600000000000 C
   0.5831400000000000    0.3550600000000000    0.9267600000000000 C
   0.5831400000000000    0.8550700000000000    0.9267600000000000 C
   0.3603700000000000    0.3634300000000000    0.7669000000000000 C
   0.3603600000000000    0.8634400000000000    0.7669000000000000 C
   0.8603600000000000    0.3634300000000000    0.7669000000000000 C
   0.8603600000000000    0.8634400000000000    0.7669000000000000 C
   0.3449600000000000    0.3443700000000000    0.9331800000000000 C
   0.3449600000000000    0.8443800000000000    0.9331800000000000 C
   0.8449600000000000    0.3443700000000000    0.9331800000000000 C
   0.8449600000000000    0.8443800000000000    0.9331800000000000 C
   0.3435300000000000    0.1130400000000000    0.7617000000000000 C
   0.3435300000000000    0.6130500000000000    0.7617000000000000 C
   0.8435300000000000    0.1130400000000000    0.7617400000000000 C
   0.8435200000000000    0.6130500000000000    0.7617400000000000 C
   0.3347100000000000    0.0896600000000000    0.9286000000000000 C
   0.3347100000000000    0.5896700000000000    0.9286000000000000 C
   0.8347100000000000    0.0896600000000000    0.9286000000000000 C
   0.8347100000000000    0.5896700000000000    0.9286000000000000 C
   0.2544500000000000    0.3574300000000000    0.5015500000000001 C
   0.2544500000000000    0.8574400000000000    0.5015500000000001 C
   0.7544500000000000    0.3574300000000000    0.5015500000000001 C
   0.7544400000000000    0.8574400000000000    0.5015500000000001 C
   0.2979600000000000    0.3713100000000000    0.3986100000000000 C
   0.2979600000000000    0.8713200000000000    0.3986100000000000 C
   0.7979600000000000    0.3713100000000000    0.3986100000000000 C
   0.7979500000000000    0.8713200000000000    0.3986100000000000 C
   0.3492200000000000    0.3125800000000000    0.3499100000000000 C
   0.3492200000000000    0.8125900000000000    0.3499100000000000 C
   0.8492200000000000    0.3125800000000000    0.3499100000000000 C
   0.8492100000000000    0.8125900000000000    0.3499100000000000 C
   0.2897500000000000    0.4435600000000000    0.3494600000000000 C
   0.2897500000000000    0.9435700000000000    0.3494600000000000 C
   0.7897500000000000    0.4435600000000000    0.3494600000000000 C
   0.7897500000000000    0.9435700000000000    0.3494600000000000 C
   0.3906200000000000    0.3255100000000000    0.2571800000000000 C
   0.3906200000000000    0.8255200000000000    0.2571800000000000 C
   0.8906200000000000    0.3255100000000000    0.2571800000000000 C
   0.8906100000000000    0.8255200000000000    0.2571800000000000 C
   0.3319600000000000    0.4559800000000000    0.2574100000000000 C
   0.3319600000000000    0.9559900000000000    0.2574100000000000 C
   0.8319600000000000    0.4559800000000000    0.2574100000000000 C
   0.8319500000000000    0.9559900000000000    0.2574100000000000 C
   0.3836000000000000    0.3973200000000000    0.2097600000000000 C
   0.3836000000000000    0.8973400000000000    0.2097600000000000 C
   0.8836000000000001    0.3973200000000000    0.2097600000000000 C
   0.8836000000000001    0.8973400000000000    0.2097600000000000 C
   0.4300700000000000    0.4121200000000000    0.1104500000000000 C
   0.4300700000000000    0.9121300000000000    0.1104500000000000 C
   0.9300700000000000    0.4121200000000000    0.1104500000000000 C
   0.9300700000000000    0.9121300000000000    0.1104500000000000 C
   0.4106500000000000    0.1230400000000000    0.2399000000000000 C
   0.4106400000000000    0.6230500000000000    0.2399800000000000 C
   0.9106400000000000    0.1230400000000000    0.2399000000000000 C
   0.9106400000000000    0.6230500000000000    0.2399800000000000 C
   0.4163100000000000    0.1457000000000000    0.0729600000000000 C
   0.4163100000000000    0.6457100000000000    0.0729600000000000 C
   0.9163100000000000    0.1457000000000000    0.0729600000000000 C
   0.9163100000000000    0.6457100000000000    0.0729600000000000 C
   0.1393100000000000    0.1370100000000000    0.2330500000000000 C
   0.1393000000000000    0.6370200000000000    0.2330500000000000 C
   0.6393000000000000    0.1370100000000000    0.2330500000000000 C
   0.1545700000000000    0.1562500000000000    0.0667500000000000 C
   0.1545600000000000    0.6562600000000000    0.0667500000000000 C
   0.6545600000000000    0.1562500000000000    0.0667500000000000 C
   0.1559400000000000    0.3875500000000000    0.2382600000000000 C
   0.1559400000000000    0.8875600000000000    0.2382600000000000 C
   0.6559300000000000    0.3875500000000000    0.2382600000000000 C
   0.6559300000000000    0.8875600000000000    0.2382600000000000 C
   0.1646800000000000    0.4109600000000000    0.0713700000000000 C
   0.1646800000000000    0.9109699999999999    0.0713700000000000 C
   0.6646700000000000    0.4109500000000000    0.0713700000000000 C
   0.6646700000000000    0.9109600000000000    0.0713700000000000 C
   0.2454400000000000    0.1427100000000000    0.4984000000000000 C
   0.2454400000000000    0.6427200000000000    0.4984000000000000 C
   0.7454400000000000    0.1427100000000000    0.4984000000000000 C
   0.7454300000000000    0.6427200000000000    0.4984000000000000 C
   0.2019600000000000    0.1287700000000000    0.6013400000000000 C
   0.2019500000000000    0.6287800000000000    0.6013400000000000 C
   0.7019500000000000    0.1287700000000000    0.6013400000000000 C
   0.7019500000000000    0.6287800000000000    0.6013400000000000 C
   0.1507100000000000    0.1875000000000000    0.6500500000000000 C
   0.1507100000000000    0.6875100000000000    0.6500500000000000 C
   0.6507100000000000    0.1875000000000000    0.6500500000000000 C
   0.6507100000000000    0.6875100000000000    0.6500500000000000 C
   0.2101700000000000    0.0565200000000000    0.6505000000000000 C
   0.2101600000000000    0.5565300000000000    0.6505000000000000 C
   0.7101600000000000    0.0565200000000000    0.6505000000000000 C
   0.7101600000000000    0.5565300000000000    0.6505000000000000 C
   0.1093100000000000    0.1745800000000000    0.7427800000000000 C
   0.1093100000000000    0.6745900000000000    0.7427800000000000 C
   0.6093100000000000    0.1745800000000000    0.7427800000000000 C
   0.6093000000000000    0.6745900000000000    0.7427800000000000 C
   0.1679500000000000    0.0441100000000000    0.7425500000000000 C
   0.1679500000000000    0.5441200000000000    0.7425500000000000 C
   0.6679500000000000    0.0441100000000000    0.7425500000000000 C
   0.6679500000000000    0.5441200000000000    0.7425500000000000 C
   0.1162900000000000    0.1027700000000000    0.7901800000000000 C
   0.1162900000000000    0.6027800000000000    0.7901800000000000 C
   0.6162900000000000    0.1027700000000000    0.7901800000000000 C
   0.6162900000000000    0.6027800000000000    0.7901800000000000 C
   0.0697900000000000    0.0880700000000000    0.8890000000000000 C
   0.0697900000000000    0.5880800000000000    0.8890000000000000 C
   0.5697800000000000    0.0880700000000000    0.8890000000000000 C
   0.5697800000000000    0.5880800000000000    0.8890000000000000 C
   0.8134400000000001    0.8087200000000000    0.9041100000000000 N
   0.3750700000000000    0.3799200000000000    0.8498400000000000 N
   0.3750700000000000    0.8799300000000000    0.8498400000000000 N
   0.8750599999999999    0.3799200000000000    0.8498400000000000 N
   0.1602200000000000    0.3333333333333333    0.7894300000000000 N
   0.1602200000000000    0.8333600000000000    0.7894300000000000 N
   0.6602200000000000    0.3333333333333333    0.7894300000000000 N
   0.6602100000000000    0.8333600000000000    0.7894300000000000 N
   0.1563800000000000    0.3188800000000000    0.8970600000000000 N
   0.1563800000000000    0.8188900000000000    0.8970600000000000 N
   0.6563800000000000    0.3188800000000000    0.8970600000000000 N
   0.6563800000000000    0.8188900000000000    0.8970600000000000 N
   0.0384100000000000    0.3926200000000000    0.8437000000000000 N
   0.0384100000000000    0.8926300000000000    0.8437000000000000 N
   0.5384000000000000    0.3926200000000000    0.8437000000000000 N
   0.5384000000000000    0.8926300000000000    0.8437000000000000 N
   0.3231600000000000    0.3210600000000000    0.7968400000000000 N
   0.3231600000000000    0.8210700000000000    0.7968400000000000 N
   0.8231500000000000    0.3210600000000000    0.7968400000000000 N
   0.8231500000000000    0.8210700000000000    0.7968400000000000 N
   0.3134400000000000    0.3087100000000000    0.9041100000000000 N
   0.3134400000000000    0.8087200000000000    0.9041100000000000 N
   0.8134400000000001    0.3087100000000000    0.9041100000000000 N
   0.8750599999999999    0.8799300000000000    0.8498400000000000 N
   0.3064000000000000    0.1791800000000000    0.7901800000000000 N
   0.3063900000000000    0.6791900000000000    0.7901800000000000 N
   0.8063900000000001    0.1791800000000000    0.7901800000000000 N
   0.8063900000000001    0.6791900000000000    0.7901800000000000 N
   0.3007600000000000    0.1640900000000000    0.8980700000000000 N
   0.3007600000000000    0.6641000000000000    0.8980700000000000 N
   0.8007500000000000    0.1640900000000000    0.8980700000000000 N
   0.8007500000000000    0.6641000000000000    0.8980700000000000 N
   0.3622900000000000    0.0549400000000000    0.8465200000000001 N
   0.3622900000000000    0.5549500000000001    0.8465200000000001 N
   0.8622800000000000    0.0549400000000000    0.8465200000000001 N
   0.8622800000000000    0.5549500000000001    0.8465200000000001 N
   0.3393100000000000    0.1672400000000000    0.2103800000000000 N
   0.3393100000000000    0.6672500000000000    0.2103800000000000 N
   0.8393100000000000    0.1672400000000000    0.2103800000000000 N
   0.8393100000000000    0.6672500000000000    0.2103800000000000 N
   0.3430900000000000    0.1818600000000000    0.1027500000000000 N
   0.3430900000000000    0.6818700000000000    0.1027500000000000 N
   0.8430900000000000    0.1818600000000000    0.1027500000000000 N
   0.8430800000000001    0.6818700000000000    0.1027500000000000 N
   0.4611000000000000    0.1080300000000000    0.1559800000000000 N
   0.4610900000000000    0.6080400000000000    0.1559800000000000 N
   0.9610900000000000    0.1080300000000000    0.1559800000000000 N
   0.9610900000000000    0.6080400000000000    0.1559800000000000 N
   0.1764600000000000    0.1794200000000000    0.2031400000000000 N
   0.1764600000000000    0.6794300000000000    0.2031400000000000 N
   0.6764600000000000    0.1794200000000000    0.2031400000000000 N
   0.1861000000000000    0.1918800000000000    0.0958600000000000 N
   0.1861000000000000    0.6918900000000000    0.0958600000000000 N
   0.6860900000000000    0.1918800000000000    0.0958600000000000 N
   0.1245400000000000    0.1206100000000000    0.1500700000000000 N
   0.1245400000000000    0.6206300000000000    0.1500700000000000 N
   0.6245300000000000    0.1206100000000000    0.1500700000000000 N
   0.1930400000000000    0.3214100000000000    0.2098300000000000 N
   0.1930400000000000    0.8214200000000000    0.2098300000000000 N
   0.6930400000000000    0.3214100000000000    0.2098300000000000 N
   0.6930400000000000    0.8214200000000000    0.2098300000000000 N
   0.1986300000000000    0.3365300000000000    0.1019400000000000 N
   0.1986200000000000    0.8365300000000000    0.1019400000000000 N
   0.6986200000000000    0.3365300000000000    0.1019400000000000 N
   0.6986200000000000    0.8365300000000000    0.1019400000000000 N
   0.1371500000000000    0.4456700000000000    0.1534900000000000 N
   0.1371400000000000    0.9456800000000000    0.1534900000000000 N
   0.6371400000000000    0.4456600000000000    0.1534900000000000 N
   0.6371400000000000    0.9456800000000000    0.1534900000000000 N
   0.1836500000000000    0.3886900000000000    0.5082100000000001 O
   0.1836500000000000    0.8887000000000000    0.5082100000000001 O
   0.6836500000000000    0.3887000000000000    0.5082100000000001 O
   0.6836500000000000    0.8887000000000000    0.5082100000000001 O
   0.9890300000000000    0.4167800000000000    0.1167400000000000 O
   0.3007200000000000    0.3118700000000000    0.5748700000000000 O
   0.3007200000000000    0.8118800000000000    0.5748700000000000 O
   0.8007100000000000    0.3118700000000000    0.5748700000000000 O
   0.8007100000000000    0.8118800000000000    0.5748700000000000 O
   0.9890200000000000    0.9167900000000000    0.1167400000000000 O
   0.4890200000000000    0.4167800000000000    0.1167400000000000 O
   0.4890200000000000    0.9167900000000000    0.1167400000000000 O
   0.4000100000000000    0.4187000000000000    0.0277800000000000 O
   0.4000000000000000    0.9187100000000000    0.0277800000000000 O
   0.9000000000000000    0.4187000000000000    0.0277800000000000 O
   0.9000000000000000    0.9187100000000000    0.0277800000000000 O
   0.1991400000000000    0.1883700000000000    0.4251500000000000 O
   0.1991300000000000    0.6883800000000000    0.4251500000000000 O
   0.6991300000000000    0.1883700000000000    0.4251500000000000 O
   0.6991300000000000    0.6883800000000000    0.4251500000000000 O
   0.3162300000000000    0.1114200000000000    0.4917000000000000 O
   0.3162300000000000    0.6114300000000000    0.4917000000000000 O
   0.8162300000000000    0.1114200000000000    0.4917000000000000 O
   0.8162300000000000    0.6114300000000000    0.4917000000000000 O
   0.5109500000000000    0.0831800000000000    0.8833100000000000 O
   0.5109500000000000    0.5831900000000000    0.8833100000000000 O
   0.0000000000000000    0.0831800000000000    0.8833100000000000 O
   0.0000000000000000    0.5831900000000000    0.8833100000000000 O
   0.0997100000000000    0.0818400000000000    0.9721000000000000 O
   0.0997100000000000    0.5818500000000000    0.9721000000000000 O
   0.5997100000000000    0.0818400000000000    0.9721000000000000 O
   0.5997000000000000    0.5818500000000000    0.9721000000000000 O
   0.3583900000000000    0.2415700000000000    0.3918600000000000 F
   0.3583900000000000    0.7415800000000000    0.3918600000000000 F
   0.8583900000000000    0.2415700000000000    0.3918600000000000 F
   0.8583900000000000    0.7415800000000000    0.3918600000000000 F
   0.2412700000000000    0.5031500000000000    0.3921300000000000 F
   0.2412700000000000    0.0000000000000000    0.3921300000000000 F
   0.7412700000000000    0.5031500000000000    0.3921300000000000 F
   0.7412600000000000    0.0000000000000000    0.3921300000000000 F
   0.4391000000000000    0.2665200000000000    0.2124000000000000 F
   0.4391000000000000    0.7665300000000000    0.2124000000000000 F
   0.9390900000000000    0.2665200000000000    0.2124000000000000 F
   0.9390900000000000    0.7665300000000000    0.2124000000000000 F
   0.3222600000000000    0.0272500000000000    0.2126500000000000 F
   0.3222500000000000    0.5272600000000000    0.2126500000000000 F
   0.8222500000000000    0.0272500000000000    0.2126500000000000 F
   0.8222500000000000    0.5272600000000000    0.2126500000000000 F
   0.1415900000000000    0.2584900000000000    0.6081299999999999 F
   0.1415900000000000    0.7585000000000000    0.6081299999999999 F
   0.6415800000000000    0.2584900000000000    0.6081299999999999 F
   0.6415800000000000    0.7585000000000000    0.6081299999999999 F
   0.2586700000000000    0.9969200000000000    0.6078700000000000 F
   0.2586700000000000    0.4969300000000000    0.6078700000000000 F
   0.7586700000000000    0.9969200000000000    0.6078700000000000 F
   0.7586600000000000    0.4969300000000000    0.6078700000000000 F
   0.0608700000000000    0.2335400000000000    0.7875900000000000 F
   0.0608600000000000    0.7335500000000000    0.7875900000000000 F
   0.5608600000000000    0.2335400000000000    0.7875900000000000 F
   0.5608600000000000    0.7335500000000000    0.7875900000000000 F
   0.1777000000000000    0.4728400000000000    0.7873500000000000 F
   0.1777000000000000    0.9728500000000000    0.7873500000000000 F
   0.6777000000000000    0.4728400000000000    0.7873500000000000 F
   0.6777000000000000    0.9728500000000000    0.7873500000000000 F
