H6 O4
1.0
  27.8808911122547940    0.0000000000000000   -0.2486660141468212
  -4.0460609141672030   20.2772709412030601    0.0018044086448853
   0.0000000000000000    0.0000000000000000   22.2139999999999986
H O
6 4
direct
   0.0566178705688204    0.2136023645932051    0.5930079245076316 H
   0.1967868043730660    0.2675702143139418    0.5470738145599179 H
   0.1278808178385962    0.2462894175921645    0.5740152259093688 H
   0.1879785085681088    0.6044845856322245   -0.0838453707093193 H
   0.0429665702479768    0.5412735607448633    0.9043980478452982 H
   0.1135949645285559    0.5681995018223693   -0.0946273662296646 H
   0.0849650000000000    0.2080500000000000    0.5700400000000000 O
   0.1647900000000000    0.2390600000000000    0.5441100000000000 O
   0.1548050000000000    0.6031600000000000   -0.0703700000000001 O
   0.0727850000000000    0.5665700000000000    0.9219500000000000 O
