H5 C4 N2
1.0
  27.9547235414078159    0.0000000000000000   -9.8279629488241227
 -13.8778708614172359   24.2672379149579704   -9.8626872774438272
   0.0000000000000000    0.0000000000000000   29.6179999999999986
H C N
5 4 2
direct
   0.0571200000000000    0.2908050000000000    0.1188900000000000 H
   0.0289300000000000    0.3862350000000000    0.2699900000000000 H
   0.0160700000000000    0.3249200000000000    0.2727150000000000 H
   0.9426700000000000    0.2327700000000000    0.0629550000000000 H
   0.9597950000000000    0.3329300000000000    0.2388800000000000 H
   0.0284000000000000    0.2919200000000000    0.1337300000000000 C
   0.0012800000000000    0.3413950000000000    0.2462950000000000 C
   0.0006600000000000    0.3159550000000000    0.1932200000000000 C
   0.9718150000000000    0.2632200000000000    0.1060450000000000 C
   0.0465250000000000    0.3253600000000000    0.1887300000000000 N
   0.9543650000000000    0.2786000000000000    0.1436950000000000 N
