H2 O1
1.0
  27.9547235414078159    0.0000000000000000   -9.8279629488241227
 -13.8778708614172359   24.2672379149579704   -9.8626872774438272
   0.0000000000000000    0.0000000000000000   29.6179999999999986
H O
2 1
direct
   0.3051027313658917    0.1793162812282417    0.4879347846864160 H
   0.2703960263366609    0.1163239633707324    0.4673686209482999 H
   0.2790900000000000    0.1431000000000000    0.4548500000000000 O
