Zn48 H467 C380 N190
1.0
  27.9547235414078159    0.0000000000000000   -9.8279629488241227
 -13.8778708614172359   24.2672379149579704   -9.8626872774438272
   0.0000000000000000    0.0000000000000000   29.6179999999999986
Zn H C N
48 467 380 190
direct
   0.1243050000000000    0.2501300000000000    0.3751150000000000 Zn
   0.1251000000000000    0.3752550000000000    0.2495900000000000 Zn
   0.3751100000000000    0.1249400000000000    0.2507900000000000 Zn
   0.2505600000000000    0.3757000000000000    0.1246600000000000 Zn
   0.2494600000000000    0.1247400000000000    0.3755150000000000 Zn
   0.3758350000000000    0.2504300000000000    0.1266050000000000 Zn
   0.6243050000000000    0.2501300000000000    0.3751150000000000 Zn
   0.6251000000000000    0.3752550000000000    0.2495900000000000 Zn
   0.8751100000000001    0.1249400000000000    0.2507900000000000 Zn
   0.7505600000000000    0.3757000000000000    0.1246600000000000 Zn
   0.7494600000000000    0.1247400000000000    0.3755150000000000 Zn
   0.8758349999999999    0.2504300000000000    0.1266050000000000 Zn
   0.1243050000000000    0.7501300000000000    0.3751150000000000 Zn
   0.1251000000000000    0.8752550000000000    0.2495900000000000 Zn
   0.3751100000000000    0.6249400000000001    0.2507900000000000 Zn
   0.2505600000000000    0.8756999999999999    0.1246600000000000 Zn
   0.2494600000000000    0.6247400000000000    0.3755150000000000 Zn
   0.3758350000000000    0.7504299999999999    0.1266050000000000 Zn
   0.6243050000000000    0.7501300000000000    0.3751150000000000 Zn
   0.6251000000000000    0.8752550000000000    0.2495900000000000 Zn
   0.8751100000000001    0.6249400000000001    0.2507900000000000 Zn
   0.7505600000000000    0.8756999999999999    0.1246600000000000 Zn
   0.7494600000000000    0.6247400000000000    0.3755150000000000 Zn
   0.8758349999999999    0.7504299999999999    0.1266050000000000 Zn
   0.1243050000000000    0.2501300000000000    0.8751150000000000 Zn
   0.1251000000000000    0.3752550000000000    0.7495900000000000 Zn
   0.3751100000000000    0.1249400000000000    0.7507900000000001 Zn
   0.2505600000000000    0.3757000000000000    0.6246600000000000 Zn
   0.2494600000000000    0.1247400000000000    0.8755150000000000 Zn
   0.3758350000000000    0.2504300000000000    0.6266050000000000 Zn
   0.6243050000000000    0.2501300000000000    0.8751150000000000 Zn
   0.6251000000000000    0.3752550000000000    0.7495900000000000 Zn
   0.8751100000000001    0.1249400000000000    0.7507900000000001 Zn
   0.7505600000000000    0.3757000000000000    0.6246600000000000 Zn
   0.7494600000000000    0.1247400000000000    0.8755150000000000 Zn
   0.8758349999999999    0.2504300000000000    0.6266050000000000 Zn
   0.1243050000000000    0.7501300000000000    0.8751150000000000 Zn
   0.1251000000000000    0.8752550000000000    0.7495900000000000 Zn
   0.3751100000000000    0.6249400000000001    0.7507900000000001 Zn
   0.2505600000000000    0.8756999999999999    0.6246600000000000 Zn
   0.2494600000000000    0.6247400000000000    0.8755150000000000 Zn
   0.3758350000000000    0.7504299999999999    0.6266050000000000 Zn
   0.6243050000000000    0.7501300000000000    0.8751150000000000 Zn
   0.6251000000000000    0.8752550000000000    0.7495900000000000 Zn
   0.8751100000000001    0.6249400000000001    0.7507900000000001 Zn
   0.7505600000000000    0.8756999999999999    0.6246600000000000 Zn
   0.7494600000000000    0.6247400000000000    0.8755150000000000 Zn
   0.8758349999999999    0.7504299999999999    0.6266050000000000 Zn
   0.3299000000000000    0.2680250000000000    0.2120100000000000 H
   0.0577800000000000    0.1186500000000000    0.2964050000000000 H
   0.4426700000000000    0.2327700000000000    0.0629550000000000 H
   0.1713800000000000    0.3802650000000000    0.4374650000000000 H
   0.0623900000000000    0.4434650000000000    0.2334600000000000 H
   0.4379700000000000    0.1744000000000000    0.3819500000000000 H
   0.2076900000000000    0.3263500000000000    0.2641650000000000 H
   0.2963150000000000    0.0587950000000000    0.1196100000000000 H
   0.1195800000000000    0.2967850000000000    0.0586650000000000 H
   0.2625500000000000    0.2052200000000000    0.3246900000000000 H
   0.3807250000000000    0.4377250000000000    0.1714500000000000 H
   0.2379350000000000    0.0614250000000000    0.4443050000000000 H
   0.1192400000000000    0.0578700000000000    0.2927700000000000 H
   0.2656900000000000    0.3275000000000000    0.2073050000000000 H
   0.3800700000000000    0.1743200000000000    0.4389500000000000 H
   0.2398050000000000    0.4444200000000000    0.0613700000000000 H
   0.3306000000000000    0.2104650000000000    0.2693150000000000 H
   0.4433200000000000    0.0610700000000000    0.2395200000000000 H
   0.1721100000000000    0.4378400000000000    0.3802300000000000 H
   0.0613800000000000    0.2389800000000000    0.4441200000000000 H
   0.4381650000000000    0.3802400000000000    0.1723400000000000 H
   0.2057250000000000    0.2632600000000000    0.3251250000000000 H
   0.3733450000000000    0.1306650000000000    0.1127700000000000 H
   0.4135350000000000    0.1334600000000000    0.1747000000000000 H
   0.4392000000000000    0.1889150000000000    0.1623000000000000 H
   0.4632100000000000    0.2395450000000000    0.3428850000000000 H
   0.4971300000000000    0.2617500000000000    0.3089300000000000 H
   0.0366350000000000    0.2767050000000000    0.3771350000000000 H
   0.4597950000000000    0.3329300000000000    0.2388800000000000 H
   0.1021750000000000    0.2236100000000000    0.2606700000000000 H
   0.1043200000000000    0.2606350000000000    0.2240200000000000 H
   0.0476350000000000    0.2365300000000000    0.2346200000000000 H
   0.2658250000000000    0.0031700000000000    0.3151500000000000 H
   0.2380900000000000    0.4614000000000000    0.3406350000000000 H
   0.2741950000000000    0.0346500000000000    0.3817950000000000 H
   0.2394200000000000    0.0480550000000000    0.2333000000000000 H
   0.2599650000000000    0.1075000000000000    0.2264000000000000 H
   0.2221150000000000    0.0983000000000000    0.2616000000000000 H
   0.1159850000000000    0.3807500000000000    0.1333050000000000 H
   0.1792000000000000    0.4189900000000000    0.1372750000000000 H
   0.1675250000000000    0.4443900000000000    0.1934050000000000 H
   0.3754700000000000    0.0381650000000000    0.2779450000000000 H
   0.3465650000000000    0.4653150000000000    0.2401350000000000 H
   0.3076900000000000    0.4932750000000000    0.2601150000000000 H
   0.2400350000000000    0.3479250000000000    0.4656750000000000 H
   0.2592100000000000    0.3073250000000000    0.4913000000000000 H
   0.2778000000000000    0.3747850000000000    0.0381750000000000 H
   0.1542200000000000    0.1200750000000000    0.3958850000000000 H
   0.1230200000000000    0.1622950000000000    0.4018850000000000 H
   0.1906900000000000    0.1871350000000000    0.4534550000000000 H
   0.2619100000000000    0.2239000000000000    0.1032800000000000 H
   0.2346000000000000    0.2370900000000000    0.0491950000000000 H
   0.2255600000000000    0.2611800000000000    0.1069600000000000 H
   0.3180450000000000    0.2395750000000000    0.4588400000000000 H
   0.3832050000000000    0.2633750000000000    0.0147000000000000 H
   0.3341750000000000    0.2772700000000000    0.0283400000000000 H
   0.8299000000000001    0.2680250000000000    0.2120100000000000 H
   0.5577799999999999    0.1186500000000000    0.2964050000000000 H
   0.6713800000000000    0.3802650000000000    0.4374650000000000 H
   0.5623899999999999    0.4434650000000000    0.2334600000000000 H
   0.9379700000000000    0.1744000000000000    0.3819500000000000 H
   0.7076900000000000    0.3263500000000000    0.2641650000000000 H
   0.7963150000000000    0.0587950000000000    0.1196100000000000 H
   0.6195800000000000    0.2967850000000000    0.0586650000000000 H
   0.7625500000000001    0.2052200000000000    0.3246900000000000 H
   0.8807250000000000    0.4377250000000000    0.1714500000000000 H
   0.7379350000000000    0.0614250000000000    0.4443050000000000 H
   0.6192400000000000    0.0578700000000000    0.2927700000000000 H
   0.7656900000000000    0.3275000000000000    0.2073050000000000 H
   0.8800700000000000    0.1743200000000000    0.4389500000000000 H
   0.7398050000000000    0.4444200000000000    0.0613700000000000 H
   0.8306000000000000    0.2104650000000000    0.2693150000000000 H
   0.5571199999999999    0.2908050000000000    0.1188900000000000 H
   0.9433199999999999    0.0610700000000000    0.2395200000000000 H
   0.6721100000000000    0.4378400000000000    0.3802300000000000 H
   0.5613800000000000    0.2389800000000000    0.4441200000000000 H
   0.9381650000000000    0.3802400000000000    0.1723400000000000 H
   0.7057249999999999    0.2632600000000000    0.3251250000000000 H
   0.8733450000000000    0.1306650000000000    0.1127700000000000 H
   0.9135350000000000    0.1334600000000000    0.1747000000000000 H
   0.9392000000000000    0.1889150000000000    0.1623000000000000 H
   0.9632100000000000    0.2395450000000000    0.3428850000000000 H
   0.9971300000000001    0.2617500000000000    0.3089300000000000 H
   0.5366350000000000    0.2767050000000000    0.3771350000000000 H
   0.5289300000000000    0.3862350000000000    0.2699900000000000 H
   0.5160700000000000    0.3249200000000000    0.2727150000000000 H
   0.6021750000000000    0.2236100000000000    0.2606700000000000 H
   0.6043200000000000    0.2606350000000000    0.2240200000000000 H
   0.5476350000000000    0.2365300000000000    0.2346200000000000 H
   0.7658250000000000    0.0031700000000000    0.3151500000000000 H
   0.7380900000000000    0.4614000000000000    0.3406350000000000 H
   0.7741950000000000    0.0346500000000000    0.3817950000000000 H
   0.7394200000000000    0.0480550000000000    0.2333000000000000 H
   0.7599650000000000    0.1075000000000000    0.2264000000000000 H
   0.7221150000000001    0.0983000000000000    0.2616000000000000 H
   0.6159850000000000    0.3807500000000000    0.1333050000000000 H
   0.6792000000000000    0.4189900000000000    0.1372750000000000 H
   0.6675250000000000    0.4443900000000000    0.1934050000000000 H
   0.8754700000000000    0.0381650000000000    0.2779450000000000 H
   0.8465650000000000    0.4653150000000000    0.2401350000000000 H
   0.8076900000000000    0.4932750000000000    0.2601150000000000 H
   0.7400350000000000    0.3479250000000000    0.4656750000000000 H
   0.7592099999999999    0.3073250000000000    0.4913000000000000 H
   0.7778000000000000    0.3747850000000000    0.0381750000000000 H
   0.6542200000000000    0.1200750000000000    0.3958850000000000 H
   0.6230200000000000    0.1622950000000000    0.4018850000000000 H
   0.6906900000000000    0.1871350000000000    0.4534550000000000 H
   0.7619100000000000    0.2239000000000000    0.1032800000000000 H
   0.7346000000000000    0.2370900000000000    0.0491950000000000 H
   0.7255600000000000    0.2611800000000000    0.1069600000000000 H
   0.8180450000000000    0.2395750000000000    0.4588400000000000 H
   0.8832050000000000    0.2633750000000000    0.0147000000000000 H
   0.8341750000000000    0.2772700000000000    0.0283400000000000 H
   0.3299000000000000    0.7680250000000000    0.2120100000000000 H
   0.0577800000000000    0.6186500000000000    0.2964050000000000 H
   0.4426700000000000    0.7327700000000000    0.0629550000000000 H
   0.1713800000000000    0.8802650000000001    0.4374650000000000 H
   0.0623900000000000    0.9434650000000000    0.2334600000000000 H
   0.4379700000000000    0.6744000000000000    0.3819500000000000 H
   0.2076900000000000    0.8263499999999999    0.2641650000000000 H
   0.2963150000000000    0.5587950000000000    0.1196100000000000 H
   0.1195800000000000    0.7967850000000001    0.0586650000000000 H
   0.2625500000000000    0.7052200000000000    0.3246900000000000 H
   0.3807250000000000    0.9377249999999999    0.1714500000000000 H
   0.2379350000000000    0.5614250000000000    0.4443050000000000 H
   0.1192400000000000    0.5578700000000000    0.2927700000000000 H
   0.2656900000000000    0.8275000000000000    0.2073050000000000 H
   0.3800700000000000    0.6743200000000000    0.4389500000000000 H
   0.2398050000000000    0.9444200000000000    0.0613700000000000 H
   0.3306000000000000    0.7104650000000000    0.2693150000000000 H
   0.0571200000000000    0.7908050000000000    0.1188900000000000 H
   0.4433200000000000    0.5610700000000000    0.2395200000000000 H
   0.1721100000000000    0.9378400000000000    0.3802300000000000 H
   0.0613800000000000    0.7389800000000000    0.4441200000000000 H
   0.4381650000000000    0.8802400000000000    0.1723400000000000 H
   0.2057250000000000    0.7632600000000000    0.3251250000000000 H
   0.3733450000000000    0.6306650000000000    0.1127700000000000 H
   0.4135350000000000    0.6334600000000000    0.1747000000000000 H
   0.4392000000000000    0.6889149999999999    0.1623000000000000 H
   0.4632100000000000    0.7395450000000000    0.3428850000000000 H
   0.4971300000000000    0.7617499999999999    0.3089300000000000 H
   0.0366350000000000    0.7767050000000000    0.3771350000000000 H
   0.4597950000000000    0.8329299999999999    0.2388800000000000 H
   0.0289300000000000    0.8862350000000000    0.2699900000000000 H
   0.0160700000000000    0.8249200000000000    0.2727150000000000 H
   0.1021750000000000    0.7236100000000000    0.2606700000000000 H
   0.1043200000000000    0.7606350000000000    0.2240200000000000 H
   0.0476350000000000    0.7365300000000000    0.2346200000000000 H
   0.2658250000000000    0.5031700000000000    0.3151500000000000 H
   0.2380900000000000    0.9614000000000000    0.3406350000000000 H
   0.2741950000000000    0.5346500000000000    0.3817950000000000 H
   0.2394200000000000    0.5480550000000000    0.2333000000000000 H
   0.2599650000000000    0.6075000000000000    0.2264000000000000 H
   0.2221150000000000    0.5983000000000001    0.2616000000000000 H
   0.1159850000000000    0.8807499999999999    0.1333050000000000 H
   0.1792000000000000    0.9189900000000000    0.1372750000000000 H
   0.1675250000000000    0.9443900000000001    0.1934050000000000 H
   0.3754700000000000    0.5381650000000000    0.2779450000000000 H
   0.3465650000000000    0.9653149999999999    0.2401350000000000 H
   0.3076900000000000    0.9932750000000000    0.2601150000000000 H
   0.2400350000000000    0.8479250000000000    0.4656750000000000 H
   0.2592100000000000    0.8073250000000001    0.4913000000000000 H
   0.2778000000000000    0.8747849999999999    0.0381750000000000 H
   0.1542200000000000    0.6200750000000000    0.3958850000000000 H
   0.1230200000000000    0.6622950000000000    0.4018850000000000 H
   0.1906900000000000    0.6871350000000001    0.4534550000000000 H
   0.2619100000000000    0.7239000000000000    0.1032800000000000 H
   0.2346000000000000    0.7370900000000000    0.0491950000000000 H
   0.2255600000000000    0.7611800000000000    0.1069600000000000 H
   0.3180450000000000    0.7395750000000000    0.4588400000000000 H
   0.3832050000000000    0.7633750000000000    0.0147000000000000 H
   0.3341750000000000    0.7772700000000000    0.0283400000000000 H
   0.8299000000000001    0.7680250000000000    0.2120100000000000 H
   0.5577799999999999    0.6186500000000000    0.2964050000000000 H
   0.9426700000000000    0.7327700000000000    0.0629550000000000 H
   0.6713800000000000    0.8802650000000001    0.4374650000000000 H
   0.5623899999999999    0.9434650000000000    0.2334600000000000 H
   0.9379700000000000    0.6744000000000000    0.3819500000000000 H
   0.7076900000000000    0.8263499999999999    0.2641650000000000 H
   0.7963150000000000    0.5587950000000000    0.1196100000000000 H
   0.6195800000000000    0.7967850000000001    0.0586650000000000 H
   0.7625500000000001    0.7052200000000000    0.3246900000000000 H
   0.8807250000000000    0.9377249999999999    0.1714500000000000 H
   0.7379350000000000    0.5614250000000000    0.4443050000000000 H
   0.6192400000000000    0.5578700000000000    0.2927700000000000 H
   0.7656900000000000    0.8275000000000000    0.2073050000000000 H
   0.8800700000000000    0.6743200000000000    0.4389500000000000 H
   0.7398050000000000    0.9444200000000000    0.0613700000000000 H
   0.8306000000000000    0.7104650000000000    0.2693150000000000 H
   0.5571199999999999    0.7908050000000000    0.1188900000000000 H
   0.9433199999999999    0.5610700000000000    0.2395200000000000 H
   0.6721100000000000    0.9378400000000000    0.3802300000000000 H
   0.5613800000000000    0.7389800000000000    0.4441200000000000 H
   0.9381650000000000    0.8802400000000000    0.1723400000000000 H
   0.7057249999999999    0.7632600000000000    0.3251250000000000 H
   0.8733450000000000    0.6306650000000000    0.1127700000000000 H
   0.9135350000000000    0.6334600000000000    0.1747000000000000 H
   0.9392000000000000    0.6889149999999999    0.1623000000000000 H
   0.9632100000000000    0.7395450000000000    0.3428850000000000 H
   0.9971300000000001    0.7617499999999999    0.3089300000000000 H
   0.5366350000000000    0.7767050000000000    0.3771350000000000 H
   0.9597950000000000    0.8329299999999999    0.2388800000000000 H
   0.5289300000000000    0.8862350000000000    0.2699900000000000 H
   0.5160700000000000    0.8249200000000000    0.2727150000000000 H
   0.6021750000000000    0.7236100000000000    0.2606700000000000 H
   0.6043200000000000    0.7606350000000000    0.2240200000000000 H
   0.5476350000000000    0.7365300000000000    0.2346200000000000 H
   0.7658250000000000    0.5031700000000000    0.3151500000000000 H
   0.7380900000000000    0.9614000000000000    0.3406350000000000 H
   0.7741950000000000    0.5346500000000000    0.3817950000000000 H
   0.7394200000000000    0.5480550000000000    0.2333000000000000 H
   0.7599650000000000    0.6075000000000000    0.2264000000000000 H
   0.7221150000000001    0.5983000000000001    0.2616000000000000 H
   0.6159850000000000    0.8807499999999999    0.1333050000000000 H
   0.6792000000000000    0.9189900000000000    0.1372750000000000 H
   0.6675250000000000    0.9443900000000001    0.1934050000000000 H
   0.8754700000000000    0.5381650000000000    0.2779450000000000 H
   0.8465650000000000    0.9653149999999999    0.2401350000000000 H
   0.8076900000000000    0.9932750000000000    0.2601150000000000 H
   0.7400350000000000    0.8479250000000000    0.4656750000000000 H
   0.7592099999999999    0.8073250000000001    0.4913000000000000 H
   0.7778000000000000    0.8747849999999999    0.0381750000000000 H
   0.6542200000000000    0.6200750000000000    0.3958850000000000 H
   0.6230200000000000    0.6622950000000000    0.4018850000000000 H
   0.6906900000000000    0.6871350000000001    0.4534550000000000 H
   0.7619100000000000    0.7239000000000000    0.1032800000000000 H
   0.7346000000000000    0.7370900000000000    0.0491950000000000 H
   0.7255600000000000    0.7611800000000000    0.1069600000000000 H
   0.8180450000000000    0.7395750000000000    0.4588400000000000 H
   0.8832050000000000    0.7633750000000000    0.0147000000000000 H
   0.8341750000000000    0.7772700000000000    0.0283400000000000 H
   0.3299000000000000    0.2680250000000000    0.7120100000000000 H
   0.0577800000000000    0.1186500000000000    0.7964050000000000 H
   0.4426700000000000    0.2327700000000000    0.5629550000000000 H
   0.1713800000000000    0.3802650000000000    0.9374650000000000 H
   0.0623900000000000    0.4434650000000000    0.7334600000000000 H
   0.4379700000000000    0.1744000000000000    0.8819500000000000 H
   0.2076900000000000    0.3263500000000000    0.7641650000000000 H
   0.2963150000000000    0.0587950000000000    0.6196100000000000 H
   0.1195800000000000    0.2967850000000000    0.5586650000000000 H
   0.2625500000000000    0.2052200000000000    0.8246899999999999 H
   0.3807250000000000    0.4377250000000000    0.6714500000000000 H
   0.2379350000000000    0.0614250000000000    0.9443049999999999 H
   0.1192400000000000    0.0578700000000000    0.7927700000000000 H
   0.2656900000000000    0.3275000000000000    0.7073050000000000 H
   0.3800700000000000    0.1743200000000000    0.9389500000000000 H
   0.2398050000000000    0.4444200000000000    0.5613700000000000 H
   0.3306000000000000    0.2104650000000000    0.7693150000000000 H
   0.0571200000000000    0.2908050000000000    0.6188899999999999 H
   0.4433200000000000    0.0610700000000000    0.7395200000000000 H
   0.1721100000000000    0.4378400000000000    0.8802300000000001 H
   0.0613800000000000    0.2389800000000000    0.9441200000000001 H
   0.4381650000000000    0.3802400000000000    0.6723399999999999 H
   0.2057250000000000    0.2632600000000000    0.8251250000000000 H
   0.3733450000000000    0.1306650000000000    0.6127700000000000 H
   0.4135350000000000    0.1334600000000000    0.6747000000000000 H
   0.4392000000000000    0.1889150000000000    0.6623000000000000 H
   0.4632100000000000    0.2395450000000000    0.8428850000000000 H
   0.4971300000000000    0.2617500000000000    0.8089299999999999 H
   0.0366350000000000    0.2767050000000000    0.8771350000000000 H
   0.4597950000000000    0.3329300000000000    0.7388800000000000 H
   0.0289300000000000    0.3862350000000000    0.7699900000000000 H
   0.0160700000000000    0.3249200000000000    0.7727150000000000 H
   0.1021750000000000    0.2236100000000000    0.7606700000000000 H
   0.1043200000000000    0.2606350000000000    0.7240200000000000 H
   0.0476350000000000    0.2365300000000000    0.7346200000000001 H
   0.2658250000000000    0.0031700000000000    0.8151500000000000 H
   0.2380900000000000    0.4614000000000000    0.8406350000000000 H
   0.2741950000000000    0.0346500000000000    0.8817950000000000 H
   0.2394200000000000    0.0480550000000000    0.7333000000000001 H
   0.2599650000000000    0.1075000000000000    0.7263999999999999 H
   0.2221150000000000    0.0983000000000000    0.7616000000000001 H
   0.1159850000000000    0.3807500000000000    0.6333050000000000 H
   0.1792000000000000    0.4189900000000000    0.6372750000000000 H
   0.1675250000000000    0.4443900000000000    0.6934050000000000 H
   0.3754700000000000    0.0381650000000000    0.7779450000000000 H
   0.3465650000000000    0.4653150000000000    0.7401350000000000 H
   0.3076900000000000    0.4932750000000000    0.7601150000000000 H
   0.2400350000000000    0.3479250000000000    0.9656750000000001 H
   0.2592100000000000    0.3073250000000000    0.9913000000000001 H
   0.2778000000000000    0.3747850000000000    0.5381750000000000 H
   0.1542200000000000    0.1200750000000000    0.8958850000000000 H
   0.1230200000000000    0.1622950000000000    0.9018850000000000 H
   0.1906900000000000    0.1871350000000000    0.9534549999999999 H
   0.2619100000000000    0.2239000000000000    0.6032800000000000 H
   0.2346000000000000    0.2370900000000000    0.5491950000000000 H
   0.2255600000000000    0.2611800000000000    0.6069599999999999 H
   0.3180450000000000    0.2395750000000000    0.9588400000000000 H
   0.3832050000000000    0.2633750000000000    0.5147000000000000 H
   0.3341750000000000    0.2772700000000000    0.5283400000000000 H
   0.8299000000000001    0.2680250000000000    0.7120100000000000 H
   0.5577799999999999    0.1186500000000000    0.7964050000000000 H
   0.9426700000000000    0.2327700000000000    0.5629550000000000 H
   0.6713800000000000    0.3802650000000000    0.9374650000000000 H
   0.5623899999999999    0.4434650000000000    0.7334600000000000 H
   0.9379700000000000    0.1744000000000000    0.8819500000000000 H
   0.7076900000000000    0.3263500000000000    0.7641650000000000 H
   0.7963150000000000    0.0587950000000000    0.6196100000000000 H
   0.6195800000000000    0.2967850000000000    0.5586650000000000 H
   0.7625500000000001    0.2052200000000000    0.8246899999999999 H
   0.8807250000000000    0.4377250000000000    0.6714500000000000 H
   0.7379350000000000    0.0614250000000000    0.9443049999999999 H
   0.6192400000000000    0.0578700000000000    0.7927700000000000 H
   0.7656900000000000    0.3275000000000000    0.7073050000000000 H
   0.8800700000000000    0.1743200000000000    0.9389500000000000 H
   0.7398050000000000    0.4444200000000000    0.5613700000000000 H
   0.8306000000000000    0.2104650000000000    0.7693150000000000 H
   0.5571199999999999    0.2908050000000000    0.6188899999999999 H
   0.9433199999999999    0.0610700000000000    0.7395200000000000 H
   0.6721100000000000    0.4378400000000000    0.8802300000000001 H
   0.5613800000000000    0.2389800000000000    0.9441200000000001 H
   0.9381650000000000    0.3802400000000000    0.6723399999999999 H
   0.7057249999999999    0.2632600000000000    0.8251250000000000 H
   0.8733450000000000    0.1306650000000000    0.6127700000000000 H
   0.9135350000000000    0.1334600000000000    0.6747000000000000 H
   0.9392000000000000    0.1889150000000000    0.6623000000000000 H
   0.9632100000000000    0.2395450000000000    0.8428850000000000 H
   0.9971300000000001    0.2617500000000000    0.8089299999999999 H
   0.5366350000000000    0.2767050000000000    0.8771350000000000 H
   0.9597950000000000    0.3329300000000000    0.7388800000000000 H
   0.5289300000000000    0.3862350000000000    0.7699900000000000 H
   0.5160700000000000    0.3249200000000000    0.7727150000000000 H
   0.6021750000000000    0.2236100000000000    0.7606700000000000 H
   0.6043200000000000    0.2606350000000000    0.7240200000000000 H
   0.5476350000000000    0.2365300000000000    0.7346200000000001 H
   0.7658250000000000    0.0031700000000000    0.8151500000000000 H
   0.7380900000000000    0.4614000000000000    0.8406350000000000 H
   0.7741950000000000    0.0346500000000000    0.8817950000000000 H
   0.7394200000000000    0.0480550000000000    0.7333000000000001 H
   0.7599650000000000    0.1075000000000000    0.7263999999999999 H
   0.7221150000000001    0.0983000000000000    0.7616000000000001 H
   0.6159850000000000    0.3807500000000000    0.6333050000000000 H
   0.6792000000000000    0.4189900000000000    0.6372750000000000 H
   0.6675250000000000    0.4443900000000000    0.6934050000000000 H
   0.8754700000000000    0.0381650000000000    0.7779450000000000 H
   0.8465650000000000    0.4653150000000000    0.7401350000000000 H
   0.8076900000000000    0.4932750000000000    0.7601150000000000 H
   0.7400350000000000    0.3479250000000000    0.9656750000000001 H
   0.7592099999999999    0.3073250000000000    0.9913000000000001 H
   0.7778000000000000    0.3747850000000000    0.5381750000000000 H
   0.6542200000000000    0.1200750000000000    0.8958850000000000 H
   0.6230200000000000    0.1622950000000000    0.9018850000000000 H
   0.6906900000000000    0.1871350000000000    0.9534549999999999 H
   0.7619100000000000    0.2239000000000000    0.6032800000000000 H
   0.7346000000000000    0.2370900000000000    0.5491950000000000 H
   0.7255600000000000    0.2611800000000000    0.6069599999999999 H
   0.8180450000000000    0.2395750000000000    0.9588400000000000 H
   0.8832050000000000    0.2633750000000000    0.5147000000000000 H
   0.8341750000000000    0.2772700000000000    0.5283400000000000 H
   0.3299000000000000    0.7680250000000000    0.7120100000000000 H
   0.0577800000000000    0.6186500000000000    0.7964050000000000 H
   0.4426700000000000    0.7327700000000000    0.5629550000000000 H
   0.1713800000000000    0.8802650000000001    0.9374650000000000 H
   0.0623900000000000    0.9434650000000000    0.7334600000000000 H
   0.4379700000000000    0.6744000000000000    0.8819500000000000 H
   0.2076900000000000    0.8263499999999999    0.7641650000000000 H
   0.2963150000000000    0.5587950000000000    0.6196100000000000 H
   0.1195800000000000    0.7967850000000001    0.5586650000000000 H
   0.2625500000000000    0.7052200000000000    0.8246899999999999 H
   0.3807250000000000    0.9377249999999999    0.6714500000000000 H
   0.2379350000000000    0.5614250000000000    0.9443049999999999 H
   0.1192400000000000    0.5578700000000000    0.7927700000000000 H
   0.2656900000000000    0.8275000000000000    0.7073050000000000 H
   0.3800700000000000    0.6743200000000000    0.9389500000000000 H
   0.2398050000000000    0.9444200000000000    0.5613700000000000 H
   0.3306000000000000    0.7104650000000000    0.7693150000000000 H
   0.0571200000000000    0.7908050000000000    0.6188899999999999 H
   0.4433200000000000    0.5610700000000000    0.7395200000000000 H
   0.1721100000000000    0.9378400000000000    0.8802300000000001 H
   0.0613800000000000    0.7389800000000000    0.9441200000000001 H
   0.4381650000000000    0.8802400000000000    0.6723399999999999 H
   0.2057250000000000    0.7632600000000000    0.8251250000000000 H
   0.3733450000000000    0.6306650000000000    0.6127700000000000 H
   0.4135350000000000    0.6334600000000000    0.6747000000000000 H
   0.4392000000000000    0.6889149999999999    0.6623000000000000 H
   0.4632100000000000    0.7395450000000000    0.8428850000000000 H
   0.4971300000000000    0.7617499999999999    0.8089299999999999 H
   0.0366350000000000    0.7767050000000000    0.8771350000000000 H
   0.4597950000000000    0.8329299999999999    0.7388800000000000 H
   0.0289300000000000    0.8862350000000000    0.7699900000000000 H
   0.0160700000000000    0.8249200000000000    0.7727150000000000 H
   0.1021750000000000    0.7236100000000000    0.7606700000000000 H
   0.1043200000000000    0.7606350000000000    0.7240200000000000 H
   0.0476350000000000    0.7365300000000000    0.7346200000000001 H
   0.2658250000000000    0.5031700000000000    0.8151500000000000 H
   0.2380900000000000    0.9614000000000000    0.8406350000000000 H
   0.2741950000000000    0.5346500000000000    0.8817950000000000 H
   0.2394200000000000    0.5480550000000000    0.7333000000000001 H