H8 O5
1.0
  37.4909586582197036    0.0000000000000000    7.6725382297947071
   0.0136702440840538   36.8699960460646849    0.0102316959025189
   0.0000000000000000    0.0000000000000000   15.5126000000000008
H O
8 5
direct
   0.5506766791070411    0.2391587677224127    0.2811791415467929 H
   0.5080222254839768    0.2314309790000595    0.3295207107068923 H
   0.4256267951456188    0.2239340081527960    0.3524247211619576 H
   0.5079448265000476    0.1885755047403524    0.4692080261492234 H
   0.4685341836634596    0.2067405555527653    0.4100515649838611 H
   0.6082393578571397    0.2753698850597993    0.1670503922875188 H
   0.5672913583980987    0.2737835346313036    0.0592399967991038 H
   0.6090697857673474    0.0867540170020168    0.0736972922465056 H
   0.5333516666666667    0.2259766666666667    0.3250200000000000 O
   0.4399583333333333    0.2117400000000000    0.3886000000000000 O
   0.4852083333333333    0.1925533333333333    0.4521400000000000 O
   0.6030983333333333    0.3011266666666667    0.1666600000000000 O
   0.5665700000000000    0.2996799999999999    0.0704700000000000 O
