H8 O5
1.0
  36.5597882615497412    0.0000000000000000   -0.1244277728234330
  -4.2588008424730992   13.6399199859895486    0.1389178172636606
   0.0000000000000000    0.0000000000000000   30.6479999999999997
H O
8 5
direct
   0.3557701516015568    0.6140959977652470    0.1046422768838919 H
   0.3877585974942537    0.8924471549498044    0.0885287172743122 H
   0.3654427782175044    0.7601963132017157    0.0949867250456429 H
   0.3113697577756562   -0.0364483268254579    0.1230947396224422 H
   0.3296765801634597    0.0144467986821058    0.1261181336967847 H
   0.2520390655753602    0.8921862536224979    0.1059820207481930 H
   0.1998647799085242    0.7615300627198103    0.1087484502233759 H
   0.2425942444792319    0.7432977081685745    0.1116605514771024 H
   0.3786650000000000    0.6700400000000000    0.1041750000000000 O
   0.3961500000000000    0.8352300000000000    0.0943600000000000 O
   0.3037050000000000    0.0081200000000000    0.1166800000000000 O
   0.2426450000000000    0.9468100000000000    0.0981200000000000 O
   0.2154400000000000    0.7393200000000000    0.1131750000000000 O
