Cd64 H577 C819 N126 O408
1.0
  29.2959999598416765    0.0000000000000000    0.0015339349722897
 -13.8989002657494201   27.8817554364881843    0.0010874797501109
   0.0000000000000000    0.0000000000000000   34.0420000000000016
Cd H C N O
64 577 819 126 408
direct
   0.5778650000000000    0.8940450000000000    0.3156350000000000 Cd
   0.0778650000000000    0.8940450000000000    0.3156350000000000 Cd
   0.5778650000000000    0.8940450000000000    0.8156350000000000 Cd
   0.0778650000000000    0.3940450000000000    0.3156350000000000 Cd
   0.5778650000000000    0.3940450000000000    0.3156350000000000 Cd
   0.5778650000000000    0.3940450000000000    0.8156350000000000 Cd
   0.0778650000000000    0.8940450000000000    0.8156350000000000 Cd
   0.0778650000000000    0.3940450000000000    0.8156350000000000 Cd
   0.3278450000000000    0.6440550000000000    0.4343800000000000 Cd
   0.8278449999999999    0.6440550000000000    0.4343800000000000 Cd
   0.3278450000000000    0.1440550000000000    0.9343800000000000 Cd
   0.8278449999999999    0.1440550000000000    0.9343800000000000 Cd
   0.3278450000000000    0.6440550000000000    0.9343800000000000 Cd
   0.8278449999999999    0.6440550000000000    0.9343800000000000 Cd
   0.3278450000000000    0.1440550000000000    0.4343800000000000 Cd
   0.8278449999999999    0.1440550000000000    0.4343800000000000 Cd
   0.9221100000000000    0.1059450000000000    0.6843500000000000 Cd
   0.9221100000000000    0.1059450000000000    0.1843500000000000 Cd
   0.4221100000000000    0.1059450000000000    0.1843500000000000 Cd
   0.9221100000000000    0.6059450000000000    0.1843500000000000 Cd
   0.4221100000000000    0.1059450000000000    0.6843500000000000 Cd
   0.4221100000000000    0.6059450000000000    0.1843500000000000 Cd
   0.4221100000000000    0.6059450000000000    0.6843500000000000 Cd
   0.9221100000000000    0.6059450000000000    0.6843500000000000 Cd
   0.1721250000000000    0.8559350000000000    0.0656200000000000 Cd
   0.6721250000000000    0.8559350000000000    0.0656200000000000 Cd
   0.1721250000000000    0.8559350000000000    0.5656200000000000 Cd
   0.6721250000000000    0.8559350000000000    0.5656200000000000 Cd
   0.1721250000000000    0.3559350000000000    0.0656200000000000 Cd
   0.6721250000000000    0.3559350000000000    0.0656200000000000 Cd
   0.1721250000000000    0.3559350000000000    0.5656200000000000 Cd
   0.6721250000000000    0.3559350000000000    0.5656200000000000 Cd
   0.1864400000000000    0.1134150000000000    0.4327100000000000 Cd
   0.1864400000000000    0.6134150000000000    0.4327100000000000 Cd
   0.6864399999999999    0.1134150000000000    0.4327100000000000 Cd
   0.6864399999999999    0.6134150000000000    0.4327100000000000 Cd
   0.1864400000000000    0.6134150000000000    0.9327099999999999 Cd
   0.6864399999999999    0.6134150000000000    0.9327099999999999 Cd
   0.6864399999999999    0.1134150000000000    0.9327099999999999 Cd
   0.1864400000000000    0.1134150000000000    0.9327099999999999 Cd
   0.8135350000000000    0.8865750000000000    0.0672850000000000 Cd
   0.8135350000000000    0.3865750000000000    0.5672850000000000 Cd
   0.8135350000000000    0.8865750000000000    0.5672850000000000 Cd
   0.3135350000000000    0.8865750000000000    0.5672850000000000 Cd
   0.3135350000000000    0.8865750000000000    0.0672850000000000 Cd
   0.3135350000000000    0.3865750000000000    0.0672850000000000 Cd
   0.8135350000000000    0.3865750000000000    0.0672850000000000 Cd
   0.3135350000000000    0.3865750000000000    0.5672850000000000 Cd
   0.4364400000000000    0.8634100000000000    0.3172850000000000 Cd
   0.4364400000000000    0.3634100000000000    0.3172850000000000 Cd
   0.9364399999999999    0.3634100000000000    0.3172850000000000 Cd
   0.9364399999999999    0.8634100000000000    0.3172850000000000 Cd
   0.4364400000000000    0.8634100000000000    0.8172850000000000 Cd
   0.4364400000000000    0.3634100000000000    0.8172850000000000 Cd
   0.9364399999999999    0.3634100000000000    0.8172850000000000 Cd
   0.9364399999999999    0.8634100000000000    0.8172850000000000 Cd
   0.0635300000000000    0.1365800000000000    0.6827100000000000 Cd
   0.0635300000000000    0.6365800000000000    0.6827100000000000 Cd
   0.5635300000000000    0.1365800000000000    0.1827100000000000 Cd
   0.5635300000000000    0.1365800000000000    0.6827100000000000 Cd
   0.5635300000000000    0.6365800000000000    0.6827100000000000 Cd
   0.0635300000000000    0.1365800000000000    0.1827100000000000 Cd
   0.0635300000000000    0.6365800000000000    0.1827100000000000 Cd
   0.5635300000000000    0.6365800000000000    0.1827100000000000 Cd
   0.1726316578274792    0.9082782224326054    0.3603314334582264 H
   0.1697527284212654    0.9612126699565220    0.3591707694938354 H
   0.3485260036070666    0.7991978487511251    0.3657743901103011 H
   0.3566050436120323    0.8549100419068455    0.3770986214668328 H
   0.4039650000000000    0.2434150000000000    0.8971300000000000 H
   0.4113950000000000    0.1132150000000000    0.8941100000000000 H
   0.5341700000000000    0.2392650000000000    0.8427899999999999 H
   0.5407000000000000    0.1829300000000000    0.8100499999999999 H
   0.5747100000000001    0.1823750000000000    0.8546650000000000 H
   0.6254500000000001    0.1512900000000000    0.8715700000000000 H
   0.6051299999999999    0.0145650000000000    0.8998400000000000 H
   0.5029850000000000    0.0305400000000000    0.8154500000000000 H
   0.9039650000000000    0.7434149999999999    0.8971300000000000 H
   0.9113950000000000    0.6132150000000000    0.8941100000000000 H
   0.0341700000000000    0.7392650000000001    0.8427899999999999 H
   0.0407000000000000    0.6829300000000000    0.8100499999999999 H
   0.0747100000000000    0.6823750000000000    0.8546650000000000 H
   0.1254500000000000    0.6512900000000000    0.8715700000000000 H
   0.1051300000000000    0.5145650000000001    0.8998400000000000 H
   0.0029850000000000    0.5305400000000000    0.8154500000000000 H
   0.9819400000000000    0.5934650000000000    0.7409850000000000 H
   0.0000000000000000    0.6555400000000000    0.7384400000000000 H
   0.6740699999999999    0.2915050000000000    0.7083650000000000 H
   0.5510550000000000    0.2890750000000000    0.7782249999999999 H
   0.6761850000000000    0.4206650000000000    0.7575650000000000 H
   0.7273849999999999    0.3408250000000000    0.6718800000000000 H
   0.7796700000000000    0.3993450000000000    0.6710849999999999 H
   0.9506049999999999    0.4639950000000000    0.7827550000000000 H
   0.8361250000000000    0.3275050000000000    0.7589950000000000 H
   0.8241700000000001    0.4515900000000000    0.7120000000000000 H
   0.4819400000000000    0.0934650000000000    0.7409850000000000 H
   0.5000000000000000    0.1555400000000000    0.7384400000000000 H
   0.1740700000000000    0.7915050000000000    0.7083650000000000 H
   0.0510550000000000    0.7890750000000000    0.7782249999999999 H
   0.1761850000000000    0.9206650000000001    0.7575650000000000 H
   0.2273850000000000    0.8408249999999999    0.6718800000000000 H
   0.2796700000000000    0.8993450000000001    0.6710849999999999 H
   0.4506050000000000    0.9639949999999999    0.7827550000000000 H
   0.3361250000000000    0.8275049999999999    0.7589950000000000 H
   0.3241700000000000    0.9515899999999999    0.7120000000000000 H
   0.8459900000000000    0.5065800000000000    0.6471250000000000 H
   0.8385650000000000    0.6367800000000000    0.6440950000000000 H
   0.7158300000000000    0.5107450000000000    0.5927600000000000 H
   0.7092800000000000    0.5670700000000000    0.5600750000000000 H
   0.6752650000000000    0.5676250000000000    0.6046600000000000 H
   0.6245200000000000    0.5987050000000000    0.6215600000000000 H
   0.6448450000000000    0.7354250000000000    0.6498349999999999 H
   0.7469900000000000    0.7194550000000000    0.5654700000000000 H
   0.3459900000000000    0.0065800000000000    0.6471250000000000 H
   0.3385650000000000    0.1367800000000000    0.6440950000000000 H
   0.2158300000000000    0.0107450000000000    0.5927600000000000 H
   0.2092800000000000    0.0670700000000000    0.5600750000000000 H
   0.1752650000000000    0.0676250000000000    0.6046600000000000 H
   0.1245200000000000    0.0987050000000000    0.6215600000000000 H
   0.1448450000000000    0.2354250000000000    0.6498349999999999 H
   0.2469900000000000    0.2194550000000000    0.5654700000000000 H
   0.2406950000000000    0.0944700000000000    0.4884450000000000 H
   0.2679950000000000    0.1565450000000000    0.4909900000000000 H
   0.5759100000000000    0.4584700000000000    0.4583700000000000 H
   0.6989250000000000    0.4609000000000000    0.5282000000000000 H
   0.5738150000000000    0.3293100000000000    0.5075499999999999 H
   0.5226200000000000    0.4091600000000000    0.4218750000000000 H
   0.4703150000000000    0.3506400000000000    0.4210850000000000 H
   0.2993600000000000    0.2860000000000000    0.5327500000000001 H
   0.4138650000000000    0.4224850000000000    0.5050000000000000 H
   0.4257950000000000    0.2983950000000000    0.4620000000000000 H
   0.7406950000000000    0.5944700000000001    0.4884450000000000 H
   0.7679950000000000    0.6565449999999999    0.4909900000000000 H
   0.0759100000000000    0.9584699999999999    0.4583700000000000 H
   0.1989250000000000    0.9609000000000000    0.5282000000000000 H
   0.0738150000000000    0.8293100000000000    0.5075499999999999 H
   0.0226200000000000    0.9091600000000000    0.4218750000000000 H
   0.9703150000000000    0.8506400000000001    0.4210850000000000 H
   0.7993600000000001    0.7860000000000000    0.5327500000000001 H
   0.9138649999999999    0.9224850000000000    0.5050000000000000 H
   0.9257949999999999    0.7983950000000000    0.4620000000000000 H
   0.9039650000000000    0.7434149999999999    0.3971300000000000 H
   0.9113950000000000    0.6132150000000000    0.3941100000000000 H
   0.0341700000000000    0.7392650000000001    0.3427900000000000 H
   0.0407000000000000    0.6829300000000000    0.3100500000000000 H
   0.0747100000000000    0.6823750000000000    0.3546650000000000 H
   0.1254500000000000    0.6512900000000000    0.3715700000000000 H
   0.1051300000000000    0.5145650000000001    0.3998400000000000 H
   0.0029850000000000    0.5305400000000000    0.3154500000000000 H
   0.4039650000000000    0.2434150000000000    0.3971300000000000 H
   0.4113950000000000    0.1132150000000000    0.3941100000000000 H
   0.5341700000000000    0.2392650000000000    0.3427900000000000 H
   0.5407000000000000    0.1829300000000000    0.3100500000000000 H
   0.5747100000000001    0.1823750000000000    0.3546650000000000 H
   0.6254500000000001    0.1512900000000000    0.3715700000000000 H
   0.6051299999999999    0.0145650000000000    0.3998400000000000 H
   0.5029850000000000    0.0305400000000000    0.3154500000000000 H
   0.9819400000000000    0.5934650000000000    0.2409850000000000 H
   0.0000000000000000    0.6555400000000000    0.2384400000000000 H
   0.6740699999999999    0.2915050000000000    0.2083650000000000 H
   0.5510550000000000    0.2890750000000000    0.2782250000000000 H
   0.6761850000000000    0.4206650000000000    0.2575650000000000 H
   0.7273849999999999    0.3408250000000000    0.1718800000000000 H
   0.7796700000000000    0.3993450000000000    0.1710850000000000 H
   0.9506049999999999    0.4639950000000000    0.2827550000000000 H
   0.8361250000000000    0.3275050000000000    0.2589950000000000 H
   0.8241700000000001    0.4515900000000000    0.2120000000000000 H
   0.4819400000000000    0.0934650000000000    0.2409850000000000 H
   0.5000000000000000    0.1555400000000000    0.2384400000000000 H
   0.1740700000000000    0.7915050000000000    0.2083650000000000 H
   0.0510550000000000    0.7890750000000000    0.2782250000000000 H
   0.1761850000000000    0.9206650000000001    0.2575650000000000 H
   0.2273850000000000    0.8408249999999999    0.1718800000000000 H
   0.2796700000000000    0.8993450000000001    0.1710850000000000 H
   0.4506050000000000    0.9639949999999999    0.2827550000000000 H
   0.3361250000000000    0.8275049999999999    0.2589950000000000 H
   0.3241700000000000    0.9515899999999999    0.2120000000000000 H
   0.8459900000000000    0.5065800000000000    0.1471250000000000 H
   0.8385650000000000    0.6367800000000000    0.1440950000000000 H
   0.7158300000000000    0.5107450000000000    0.0927600000000000 H
   0.7092800000000000    0.5670700000000000    0.0600750000000000 H
   0.6752650000000000    0.5676250000000000    0.1046600000000000 H
   0.6245200000000000    0.5987050000000000    0.1215600000000000 H
   0.6448450000000000    0.7354250000000000    0.1498350000000000 H
   0.7469900000000000    0.7194550000000000    0.0654700000000000 H
   0.3459900000000000    0.0065800000000000    0.1471250000000000 H
   0.3385650000000000    0.1367800000000000    0.1440950000000000 H
   0.2158300000000000    0.0107450000000000    0.0927600000000000 H
   0.2092800000000000    0.0670700000000000    0.0600750000000000 H
   0.1752650000000000    0.0676250000000000    0.1046600000000000 H
   0.1245200000000000    0.0987050000000000    0.1215600000000000 H
   0.1448450000000000    0.2354250000000000    0.1498350000000000 H
   0.2469900000000000    0.2194550000000000    0.0654700000000000 H
   0.2406950000000000    0.0944700000000000    0.9884450000000000 H
   0.2679950000000000    0.1565450000000000    0.9909900000000000 H
   0.5759100000000000    0.4584700000000000    0.9583699999999999 H
   0.6989250000000000    0.4609000000000000    0.0282000000000000 H
   0.5738150000000000    0.3293100000000000    0.0075500000000000 H
   0.5226200000000000    0.4091600000000000    0.9218750000000000 H
   0.4703150000000000    0.3506400000000000    0.9210849999999999 H
   0.2993600000000000    0.2860000000000000    0.0327500000000000 H
   0.4138650000000000    0.4224850000000000    0.0050000000000000 H
   0.4257950000000000    0.2983950000000000    0.9620000000000000 H
   0.7406950000000000    0.5944700000000001    0.9884450000000000 H
   0.7679950000000000    0.6565449999999999    0.9909900000000000 H
   0.0759100000000000    0.9584699999999999    0.9583699999999999 H
   0.1989250000000000    0.9609000000000000    0.0282000000000000 H
   0.0738150000000000    0.8293100000000000    0.0075500000000000 H
   0.0226200000000000    0.9091600000000000    0.9218750000000000 H
   0.9703150000000000    0.8506400000000001    0.9210849999999999 H
   0.7993600000000001    0.7860000000000000    0.0327500000000000 H
   0.9138649999999999    0.9224850000000000    0.0050000000000000 H
   0.9257949999999999    0.7983950000000000    0.9620000000000000 H
   0.1539800000000000    0.4934100000000000    0.8528750000000000 H
   0.1614100000000000    0.3632100000000000    0.8558950000000001 H
   0.2841450000000000    0.4892450000000000    0.9072400000000000 H
   0.2906900000000000    0.4329150000000000    0.9399200000000000 H
   0.3247050000000000    0.4323650000000000    0.8953400000000000 H
   0.2529850000000000    0.2805300000000000    0.9345250000000001 H
   0.3754500000000000    0.4012850000000000    0.8784350000000001 H
   0.3551250000000000    0.2645600000000000    0.8501600000000000 H
   0.6539800000000000    0.9934100000000000    0.8528750000000000 H
   0.6614100000000001    0.8632100000000000    0.8558950000000001 H
   0.7841450000000000    0.9892449999999999    0.9072400000000000 H
   0.7906900000000000    0.9329149999999999    0.9399200000000000 H
   0.8247050000000000    0.9323650000000000    0.8953400000000000 H
   0.7529850000000000    0.7805299999999999    0.9345250000000001 H
   0.8754500000000001    0.9012850000000000    0.8784350000000001 H
   0.8551250000000000    0.7645600000000000    0.8501600000000000 H
   0.2592800000000000    0.4055250000000000    0.0115500000000000 H
   0.2319750000000000    0.3434500000000000    0.0090050000000000 H
   0.9240650000000000    0.0415200000000000    0.0416250000000000 H
   0.8010450000000000    0.0390900000000000    0.9717850000000000 H
   0.9261600000000000    0.1706800000000000    0.9924450000000000 H
   0.9773600000000000    0.0908300000000000    0.0781200000000000 H
   0.0296600000000000    0.1493500000000000    0.0789100000000000 H
   0.0741750000000000    0.2016000000000000    0.0379500000000000 H
   0.2006150000000000    0.2139950000000000    0.9672499999999999 H
   0.0861100000000000    0.0775100000000000    0.9910000000000000 H
   0.7592800000000000    0.9055250000000000    0.0115500000000000 H
   0.7319750000000000    0.8434500000000000    0.0090050000000000 H
   0.4240650000000000    0.5415200000000000    0.0416250000000000 H
   0.3010450000000000    0.5390900000000000    0.9717850000000000 H
   0.4261600000000000    0.6706799999999999    0.9924450000000000 H
   0.4773600000000000    0.5908300000000000    0.0781200000000000 H
   0.5296600000000000    0.6493500000000000    0.0789100000000000 H
   0.5741750000000000    0.7016000000000000    0.0379500000000000 H
   0.7006150000000000    0.7139949999999999    0.9672499999999999 H
   0.5861100000000000    0.5775100000000000    0.9910000000000000 H
   0.9592750000000000    0.3170600000000000    0.6899150000000001 H
   0.9252650000000000    0.3176150000000000    0.6453350000000000 H
   0.8745200000000000    0.3487000000000000    0.6284300000000000 H
   0.8948450000000000    0.4854250000000000    0.6001600000000000 H
   0.9969900000000000    0.4694450000000000    0.6845050000000000 H
   0.0960100000000000    0.2565750000000000    0.6028650000000000 H
   0.0885800000000000    0.3867750000000000    0.6058900000000000 H
   0.9658000000000000    0.2607250000000000    0.6572000000000000 H
   0.4592750000000000    0.8170600000000000    0.6899150000000001 H
   0.4252650000000000    0.8176150000000000    0.6453350000000000 H
   0.3745200000000000    0.8487000000000000    0.6284300000000000 H
   0.3948450000000000    0.9854250000000000    0.6001600000000000 H
   0.4969900000000000    0.9694450000000000    0.6845050000000000 H
   0.5960100000000000    0.7565750000000000    0.6028650000000000 H
   0.5885800000000000    0.8867750000000000    0.6058900000000000 H
   0.4658000000000000    0.7607250000000000    0.6572000000000000 H
   0.4907200000000000    0.8444499999999999    0.7615550000000000 H
   0.5180300000000000    0.9065300000000001    0.7590100000000000 H
   0.8259050000000000    0.2084850000000000    0.7916300000000001 H
   0.9489150000000000    0.2109150000000000    0.7217700000000000 H
   0.8237850000000000    0.0793300000000000    0.7424300000000000 H
   0.7725900000000000    0.1591700000000000    0.8281149999999999 H
   0.7203050000000000    0.1006450000000000    0.8289150000000001 H
   0.5493749999999999    0.0360000000000000    0.7172000000000001 H
   0.6638500000000001    0.1724850000000000    0.7410000000000000 H
   0.6758050000000000    0.0484000000000000    0.7879600000000000 H
   0.9907200000000000    0.3444500000000000    0.7615550000000000 H
   0.0180300000000000    0.4065300000000000    0.7590100000000000 H
   0.3259050000000000    0.7084850000000000    0.7916300000000001 H
   0.4489150000000000    0.7109150000000000    0.7217700000000000 H
   0.3237850000000000    0.5793300000000000    0.7424300000000000 H
   0.2725900000000000    0.6591700000000000    0.8281149999999999 H
   0.2203050000000000    0.6006450000000000    0.8289150000000001 H
   0.0493750000000000    0.5360000000000000    0.7172000000000001 H
   0.1638500000000000    0.6724850000000000    0.7410000000000000 H
   0.1758050000000000    0.5484000000000000    0.7879600000000000 H
   0.6539800000000000    0.9934100000000000    0.3528750000000000 H
   0.6614100000000001    0.8632100000000000    0.3558950000000000 H
   0.7841450000000000    0.9892449999999999    0.4072400000000000 H
   0.7906900000000000    0.9329149999999999    0.4399200000000000 H
   0.8247050000000000    0.9323650000000000    0.3953400000000000 H
   0.7529850000000000    0.7805299999999999    0.4345250000000000 H
   0.8754500000000001    0.9012850000000000    0.3784350000000000 H
   0.8551250000000000    0.7645600000000000    0.3501600000000000 H
   0.1539800000000000    0.4934100000000000    0.3528750000000000 H
   0.1614100000000000    0.3632100000000000    0.3558950000000000 H
   0.2841450000000000    0.4892450000000000    0.4072400000000000 H
   0.2906900000000000    0.4329150000000000    0.4399200000000000 H
   0.3247050000000000    0.4323650000000000    0.3953400000000000 H
   0.2529850000000000    0.2805300000000000    0.4345250000000000 H
   0.3754500000000000    0.4012850000000000    0.3784350000000000 H
   0.3551250000000000    0.2645600000000000    0.3501600000000000 H
   0.2592800000000000    0.4055250000000000    0.5115499999999999 H
   0.2319750000000000    0.3434500000000000    0.5090050000000000 H
   0.9240650000000000    0.0415200000000000    0.5416250000000000 H
   0.8010450000000000    0.0390900000000000    0.4717850000000000 H
   0.9261600000000000    0.1706800000000000    0.4924450000000000 H
   0.9773600000000000    0.0908300000000000    0.5781200000000000 H
   0.0296600000000000    0.1493500000000000    0.5789100000000000 H
   0.0741750000000000    0.2016000000000000    0.5379500000000000 H
   0.2006150000000000    0.2139950000000000    0.4672500000000000 H
   0.0861100000000000    0.0775100000000000    0.4910000000000000 H
   0.7592800000000000    0.9055250000000000    0.5115499999999999 H
   0.7319750000000000    0.8434500000000000    0.5090050000000000 H
   0.4240650000000000    0.5415200000000000    0.5416250000000000 H
   0.3010450000000000    0.5390900000000000    0.4717850000000000 H
   0.4261600000000000    0.6706799999999999    0.4924450000000000 H
   0.4773600000000000    0.5908300000000000    0.5781200000000000 H
   0.5296600000000000    0.6493500000000000    0.5789100000000000 H
   0.5741750000000000    0.7016000000000000    0.5379500000000000 H
   0.7006150000000000    0.7139949999999999    0.4672500000000000 H
   0.5861100000000000    0.5775100000000000    0.4910000000000000 H
   0.4592750000000000    0.8170600000000000    0.1899150000000000 H
   0.4252650000000000    0.8176150000000000    0.1453350000000000 H
   0.3745200000000000    0.8487000000000000    0.1284300000000000 H
   0.3948450000000000    0.9854250000000000    0.1001600000000000 H
   0.4969900000000000    0.9694450000000000    0.1845050000000000 H
   0.5960100000000000    0.7565750000000000    0.1028650000000000 H
   0.5885800000000000    0.8867750000000000    0.1058900000000000 H
   0.4658000000000000    0.7607250000000000    0.1572000000000000 H
   0.9592750000000000    0.3170600000000000    0.1899150000000000 H
   0.9252650000000000    0.3176150000000000    0.1453350000000000 H
   0.8745200000000000    0.3487000000000000    0.1284300000000000 H
   0.8948450000000000    0.4854250000000000    0.1001600000000000 H
   0.9969900000000000    0.4694450000000000    0.1845050000000000 H
   0.0960100000000000    0.2565750000000000    0.1028650000000000 H
   0.0885800000000000    0.3867750000000000    0.1058900000000000 H
   0.9658000000000000    0.2607250000000000    0.1572000000000000 H
   0.4907200000000000    0.8444499999999999    0.2615550000000000 H
   0.5180300000000000    0.9065300000000001    0.2590100000000000 H
   0.8259050000000000    0.2084850000000000    0.2916300000000000 H
   0.9489150000000000    0.2109150000000000    0.2217700000000000 H
   0.8237850000000000    0.0793300000000000    0.2424300000000000 H
   0.7725900000000000    0.1591700000000000    0.3281150000000000 H
   0.7203050000000000    0.1006450000000000    0.3289150000000000 H
   0.5493749999999999    0.0360000000000000    0.2172000000000000 H
   0.6638500000000001    0.1724850000000000    0.2410000000000000 H
   0.6758050000000000    0.0484000000000000    0.2879600000000000 H
   0.9907200000000000    0.3444500000000000    0.2615550000000000 H
   0.0180300000000000    0.4065300000000000    0.2590100000000000 H
   0.3259050000000000    0.7084850000000000    0.2916300000000000 H
   0.4489150000000000    0.7109150000000000    0.2217700000000000 H
   0.3237850000000000    0.5793300000000000    0.2424300000000000 H
   0.2725900000000000    0.6591700000000000    0.3281150000000000 H
   0.2203050000000000    0.6006450000000000    0.3289150000000000 H
   0.0493750000000000    0.5360000000000000    0.2172000000000000 H
   0.1638500000000000    0.6724850000000000    0.2410000000000000 H
   0.1758050000000000    0.5484000000000000    0.2879600000000000 H
   0.1539800000000000    0.9934100000000000    0.8528750000000000 H
   0.1614100000000000    0.8632100000000000    0.8558950000000001 H
   0.2841450000000000    0.9892449999999999    0.9072400000000000 H
   0.2906900000000000    0.9329149999999999    0.9399200000000000 H
   0.3247050000000000    0.9323650000000000    0.8953400000000000 H
   0.2529850000000000    0.7805299999999999    0.9345250000000001 H
   0.3754500000000000    0.9012850000000000    0.8784350000000001 H
   0.3551250000000000    0.7645600000000000    0.8501600000000000 H
   0.6539800000000000    0.4934100000000000    0.8528750000000000 H
   0.6614100000000001    0.3632100000000000    0.8558950000000001 H
   0.7841450000000000    0.4892450000000000    0.9072400000000000 H
   0.7906900000000000    0.4329150000000000    0.9399200000000000 H
   0.8247050000000000    0.4323650000000000    0.8953400000000000 H
   0.7529850000000000    0.2805300000000000    0.9345250000000001 H
   0.8754500000000001    0.4012850000000000    0.8784350000000001 H
   0.8551250000000000    0.2645600000000000    0.8501600000000000 H
   0.7592800000000000    0.4055250000000000    0.0115500000000000 H
   0.7319750000000000    0.3434500000000000    0.0090050000000000 H
   0.4240650000000000    0.0415200000000000    0.0416250000000000 H
   0.3010450000000000    0.0390900000000000    0.9717850000000000 H
   0.4261600000000000    0.1706800000000000    0.9924450000000000 H
   0.4773600000000000    0.0908300000000000    0.0781200000000000 H
   0.5296600000000000    0.1493500000000000    0.0789100000000000 H
   0.5741750000000000    0.2016000000000000    0.0379500000000000 H
   0.7006150000000000    0.2139950000000000    0.9672499999999999 H
   0.5861100000000000    0.0775100000000000    0.9910000000000000 H
   0.2592800000000000    0.9055250000000000    0.0115500000000000 H
   0.2319750000000000    0.8434500000000000    0.0090050000000000 H
   0.9240650000000000    0.5415200000000000    0.0416250000000000 H
   0.8010450000000000    0.5390900000000000    0.9717850000000000 H
   0.9261600000000000    0.6706799999999999    0.9924450000000000 H
   0.9773600000000000    0.5908300000000000    0.0781200000000000 H
   0.0296600000000000    0.6493500000000000    0.0789100000000000 H
   0.0741750000000000    0.7016000000000000    0.0379500000000000 H
   0.2006150000000000    0.7139949999999999    0.9672499999999999 H
   0.0861100000000000    0.5775100000000000    0.9910000000000000 H
   0.4592750000000000    0.3170600000000000    0.6899150000000001 H
   0.4252650000000000    0.3176150000000000    0.6453350000000000 H
   0.3745200000000000    0.3487000000000000    0.6284300000000000 H
   0.3948450000000000    0.4854250000000000    0.6001600000000000 H
   0.4969900000000000    0.4694450000000000    0.6845050000000000 H
   0.5960100000000000    0.2565750000000000    0.6028650000000000 H
   0.5885800000000000    0.3867750000000000    0.6058900000000000 H
   0.4658000000000000    0.2607250000000000    0.6572000000000000 H
   0.9592750000000000    0.8170600000000000    0.6899150000000001 H
   0.9252650000000000    0.8176150000000000    0.6453350000000000 H
   0.8745200000000000    0.8487000000000000    0.6284300000000000 H
   0.8948450000000000    0.9854250000000000    0.6001600000000000 H
   0.9969900000000000    0.9694450000000000    0.6845050000000000 H
   0.0960100000000000    0.7565750000000000    0.6028650000000000 H
   0.0885800000000000    0.8867750000000000    0.6058900000000000 H
   0.9658000000000000    0.7607250000000000    0.6572000000000000 H
   0.9907200000000000    0.8444499999999999    0.7615550000000000 H
   0.0180300000000000    0.9065300000000001    0.7590100000000000 H
   0.3259050000000000    0.2084850000000000    0.7916300000000001 H
   0.4489150000000000    0.2109150000000000    0.7217700000000000 H
   0.3237850000000000    0.0793300000000000    0.7424300000000000 H
   0.2725900000000000    0.1591700000000000    0.8281149999999999 H
   0.2203050000000000    0.1006450000000000    0.8289150000000001 H
   0.0493750000000000    0.0360000000000000    0.7172000000000001 H
   0.1638500000000000    0.1724850000000000    0.7410000000000000 H
   0.1758050000000000    0.0484000000000000    0.7879600000000000 H
   0.4907200000000000    0.3444500000000000    0.7615550000000000 H
   0.5180300000000000    0.4065300000000000    0.7590100000000000 H
   0.8259050000000000    0.7084850000000000    0.7916300000000001 H
   0.9489150000000000    0.7109150000000000    0.7217700000000000 H
   0.8237850000000000    0.5793300000000000    0.7424300000000000 H
   0.7725900000000000    0.6591700000000000    0.8281149999999999 H
   0.7203050000000000    0.6006450000000000    0.8289150000000001 H
   0.5493749999999999    0.5360000000000000    0.7172000000000001 H
   0.6638500000000001    0.6724850000000000    0.7410000000000000 H
   0.6758050000000000    0.5484000000000000    0.7879600000000000 H
   0.4039650000000000    0.7434149999999999    0.8971300000000000 H
   0.4113950000000000    0.6132150000000000    0.8941100000000000 H
   0.5341700000000000    0.7392650000000001    0.8427899999999999 H
   0.5407000000000000    0.6829300000000000    0.8100499999999999 H
   0.5747100000000001    0.6823750000000000    0.8546650000000000 H
   0.6254500000000001    0.6512900000000000    0.8715700000000000 H
   0.6051299999999999    0.5145650000000001    0.8998400000000000 H
   0.5029850000000000    0.5305400000000000    0.8154500000000000 H