H9 O5
1.0
  29.2959999598416765    0.0000000000000000    0.0015339349722897
 -13.8989002657494201   27.8817554364881843    0.0010874797501109
   0.0000000000000000    0.0000000000000000   34.0420000000000016
H O
9 5
direct
   0.1697527284212654    0.9612126699565220    0.3591707694938354 H
   0.1726316578274792    0.9082782224326054    0.3603314334582264 H
   0.1807612144200591    0.0580750624391981    0.3750893385078260 H
   0.3156162026290232    0.0595148412048446    0.4064581442361369 H
   0.2493397959931397    0.0561173082522298    0.3894744530402716 H
   0.3485260036070666    0.7991978487511251    0.3657743901103011 H
   0.3566050436120323    0.8549100419068455    0.3770986214668328 H
   0.2638133185049662    0.7065790517482652    0.4008317971521554 H
   0.2209727159732587    0.7303278836906785    0.4040523670539097 H
   0.1549100000000000    0.9271150000000000    0.3524600000000000 O
   0.2131050000000000    0.0688350000000000    0.3886800000000000 O
   0.2883350000000000    0.0690900000000000    0.4058600000000000 O
   0.3668300000000000    0.8339300000000001    0.3619500000000000 O
   0.2284400000000000    0.6922600000000000    0.4099900000000000 O
