H4 O2
1.0
  15.2539986617693923    0.0000000000000000   -0.0063895803915283
  -0.0369838533741746   13.7609484149556796    0.0072052424217822
   0.0000000000000000    0.0000000000000000   22.2759999999999998
H O
4 2
direct
   0.9461900072794327    0.4321204603352161    0.6127135554511191 H
   0.9808294941385449    0.3336366062353316    0.5651622826003746 H
   0.0398977354194892    0.2697160378270611    0.3137953045197739 H
  -0.0394457950802741    0.1764805053346028    0.3331138955561254 H
   0.9636900000000000    0.3791700000000000    0.5967500000000000 O
   0.0065300000000000    0.2129400000000000    0.3003200000000000 O
