H13 C5 N2
1.0
  15.2539986617693923    0.0000000000000000   -0.0063895803915283
  -0.0369838533741746   13.7609484149556796    0.0072052424217822
   0.0000000000000000    0.0000000000000000   22.2759999999999998
H C N
13 5 2
direct
   0.0131700000000000    0.1553400000000000    0.3291500000000000 H
   0.9409200000000000    0.2289800000000000    0.2981100000000000 H
   0.1252000000000000    0.2753400000000000    0.3274000000000000 H
   0.0580300000000000    0.3511200000000000    0.2835300000000000 H
   0.9556400000000000    0.3775200000000000    0.3664800000000000 H
   0.9774500000000000    0.2293600000000000    0.4316400000000000 H
   0.0874900000000000    0.2640100000000000    0.4444600000000000 H
   0.0363300000000000    0.4213200000000000    0.4892900000000000 H
   0.9263600000000000    0.3872800000000000    0.4767200000000000 H
   0.0540600000000000    0.2807400000000000    0.5612500000000000 H
   0.9432400000000000    0.2490100000000000    0.5502400000000000 H
   0.0000000000000000    0.4390100000000000    0.5961400000000000 H
   0.9013600000000001    0.4042900000000000    0.5891800000000000 H
   0.0570200000000000    0.2988500000000000    0.3207100000000000 C
   0.0000000000000000    0.3503700000000000    0.3763000000000000 C
   0.0214300000000000    0.2928700000000000    0.4351300000000000 C
   0.9920099999999999    0.3578600000000000    0.4870700000000000 C
   0.9896100000000000    0.3103100000000000    0.5489800000000000 C
   0.0065300000000000    0.2129400000000000    0.3003200000000000 N
   0.9636900000000000    0.3791700000000000    0.5967500000000000 N
