H14 C5 N2
1.0
  15.2539986617693923    0.0000000000000000   -0.0063895803915283
  -0.0369838533741746   13.7609484149556796    0.0072052424217822
   0.0000000000000000    0.0000000000000000   22.2759999999999998
H C N
14 5 2
direct
   0.5049500000000000    0.9385800000000000    0.9034200000000000 H
   0.4021800000000000    0.9045800000000001    0.9105200000000000 H
   0.5108900000000000    0.6566100000000000    0.1716000000000000 H
   0.4407800000000000    0.7324000000000001    0.2028000000000000 H
   0.6256100000000000    0.7737400000000000    0.1723600000000000 H
   0.5603399999999999    0.8516899999999999    0.2160500000000000 H
   0.4574500000000000    0.8789100000000000    0.1332300000000000 H
   0.5656400000000000    0.9151899999999999    0.1173000000000000 H
   0.4772300000000000    0.7298300000000000    0.0685200000000000 H
   0.5875600000000000    0.7629899999999999    0.0553500000000000 H
   0.5375300000000000    0.9208800000000000    0.0102700000000000 H
   0.4273600000000000    0.8877600000000000    0.0229100000000000 H
   0.5542700000000000    0.7800300000000000    0.9385200000000000 H
   0.4432700000000000    0.7490700000000000    0.9496500000000000 H
   0.5579700000000000    0.7989700000000000    0.1791700000000000 C
   0.5235300000000001    0.8506300000000000    0.1233900000000000 C
   0.5218600000000000    0.7927500000000000    0.0647400000000000 C
   0.4927900000000000    0.8577700000000000    0.0126300000000000 C
   0.4899800000000000    0.8100600000000000    0.9507000000000000 C
   0.4643200000000000    0.8789900000000000    0.9028900000000000 N
   0.5060000000000000    0.7145800000000000    0.2002800000000000 N
