H10 O7
1.0
  34.0396206367242939    0.0000000000000000   13.3667171327851904
  -0.0007857514544007   12.3279747091509524    0.0249590290106593
   0.0000000000000000    0.0000000000000000   28.2340000000000018
H O
10 7
direct
   0.2698994709051397    0.4140371672583159    0.0754295552830956 H
   0.2262184937090187    0.2896111468800524    0.9488899942041303 H
   0.2831679551060177    0.3532214007393605    0.0133920343458238 H
   0.2671352572258697    0.3121207126719152   -0.0326612714851081 H
   0.4509477139630027    0.2472500208229097    0.8706759380235428 H
   0.4318822260191446    0.1687374475741787    0.8371596202306698 H
   0.4398902845493985    0.0722953794231152    0.7866041897137754 H
   0.4879827463890355    0.4037958727538156    0.9413272327990118 H
   0.5283952235761542    0.1967405800895427    0.8822537703095208 H
   0.5175775664446461    0.2665905157051197    0.9533139320915592 H
   0.2422533333333333    0.4356700000000000    0.0895150000000000 O
   0.2001266666666667    0.2922300000000000    0.9757450000000000 O
   0.2614466666666667    0.3399100000000000    0.0017400000000000 O
   0.4548566666666666    0.1919300000000000    0.8444700000000001 O
   0.4646399999999999    0.0323000000000000    0.7773399999999999 O
   0.4877633333333333    0.3959400000000000    0.9072549999999999 O
   0.5170066666666666    0.2461500000000000    0.8646600000000000 O
