H5 C14 N2 O8
1.0
  34.0396206367242939    0.0000000000000000   13.3667171327851904
  -0.0007857514544007   12.3279747091509524    0.0249590290106593
   0.0000000000000000    0.0000000000000000   28.2340000000000018
H C N O
5 14 2 8
direct
   0.3529666666666667    0.3512400000000000    0.0025200000000000 H
   0.2157266666666666    0.2677900000000000    0.8840650000000000 H
   0.3109666666666666    0.2469500000000000    0.8838150000000000 H
   0.4103333333333333    0.3669000000000000    0.9398750000000000 H
   0.3611733333333333    0.1597100000000000    0.8533900000000000 H
   0.2789566666666666    0.4069500000000000    0.0708150000000000 C
   0.2912266666666666    0.3581600000000000    0.0177150000000000 C
   0.2334033333333333    0.2888900000000000    0.9414950000000000 C
   0.3301766666666667    0.3357300000000000    0.9869950000000001 C
   0.3070500000000000    0.2784800000000000    0.9213150000000000 C
   0.2692500000000000    0.3017900000000000    0.9545500000000000 C
   0.4869133333333333    0.3079500000000000    0.8852750000000000 C
   0.4317933333333333    0.0853800000000000    0.7896350000000000 C
   0.4494666666666666    0.2682100000000000    0.8806050000000001 C
   0.4124666666666666    0.3065900000000000    0.9109499999999999 C
   0.3790233333333333    0.2651700000000000    0.9037950000000000 C
   0.3851666666666667    0.1935000000000000    0.8629750000000000 C
   0.4232566666666666    0.1600300000000000    0.8344150000000000 C
   0.3386133333333333    0.2945100000000000    0.9377249999999999 C
   0.2614466666666667    0.3399100000000000    0.0017400000000000 N
   0.4548566666666666    0.1919300000000000    0.8444700000000001 N
   0.2422533333333333    0.4356700000000000    0.0895150000000000 O
   0.3037033333333333    0.4164300000000000    0.0910700000000000 O
   0.2001266666666667    0.2922300000000000    0.9757450000000000 O
   0.2408500000000000    0.2777100000000000    0.8929700000000000 O
   0.5170066666666666    0.2461500000000000    0.8646600000000000 O
   0.4877633333333333    0.3959400000000000    0.9072549999999999 O
   0.4646399999999999    0.0323000000000000    0.7773399999999999 O
   0.4088633333333333    0.0784800000000000    0.7663050000000000 O
