La24 H115 C322 N46 O184
1.0
  34.0396206367242939    0.0000000000000000   13.3667171327851904
  -0.0007857514544007   12.3279747091509524    0.0249590290106593
   0.0000000000000000    0.0000000000000000   28.2340000000000018
La H C N O
24 115 322 46 184
direct
   0.1915766666666666    0.0801000000000000    0.3032050000000000 La
   0.1917733333333334    0.4201600000000000    0.0532850000000000 La
   0.1417600000000000    0.9198400000000000    0.1967900000000000 La
   0.1415633333333333    0.5797800000000000    0.4467050000000000 La
   0.5249100000000000    0.0801000000000000    0.3032050000000000 La
   0.5251066666666666    0.4201600000000000    0.0532850000000000 La
   0.4750933333333333    0.9198400000000000    0.1967900000000000 La
   0.4748966666666666    0.5797800000000000    0.4467050000000000 La
   0.8582433333333332    0.0801000000000000    0.3032050000000000 La
   0.8584400000000000    0.4201600000000000    0.0532850000000000 La
   0.8084266666666666    0.9198400000000000    0.1967900000000000 La
   0.8082300000000000    0.5797800000000000    0.4467050000000000 La
   0.1915766666666666    0.0801000000000000    0.8032049999999999 La
   0.1917733333333334    0.4201600000000000    0.5532850000000000 La
   0.1417600000000000    0.9198400000000000    0.6967900000000000 La
   0.1415633333333333    0.5797800000000000    0.9467050000000000 La
   0.5249100000000000    0.0801000000000000    0.8032049999999999 La
   0.5251066666666666    0.4201600000000000    0.5532850000000000 La
   0.4750933333333333    0.9198400000000000    0.6967900000000000 La
   0.4748966666666666    0.5797800000000000    0.9467050000000000 La
   0.8582433333333332    0.0801000000000000    0.8032049999999999 La
   0.8584400000000000    0.4201600000000000    0.5532850000000000 La
   0.8084266666666666    0.9198400000000000    0.6967900000000000 La
   0.8082300000000000    0.5797800000000000    0.9467050000000000 La
   0.1174233333333333    0.7708700000000001    0.3671350000000000 H
   0.2562833333333333    0.8688600000000000    0.3111050000000000 H
   0.3055366666666667    0.6583900000000000    0.3966400000000000 H
   0.3137066666666666    0.8508500000000000    0.2478050000000000 H
   0.0220600000000000    0.7501100000000001    0.3674350000000000 H
   0.2157266666666666    0.2677900000000000    0.3840650000000000 H
   0.0770000000000000    0.3669000000000000    0.4398750000000000 H
   0.0278400000000000    0.1597100000000000    0.3533900000000000 H
   0.0196333333333333    0.3512400000000000    0.0025200000000000 H
   0.3109666666666666    0.2469500000000000    0.3838150000000000 H
   0.2159100000000000    0.2291000000000000    0.1328700000000000 H
   0.0770533333333333    0.1311000000000000    0.1888900000000000 H
   0.0278033333333333    0.3415300000000000    0.1033350000000000 H
   0.0196333333333333    0.1490400000000000    0.2521750000000000 H
   0.3112766666666666    0.2498800000000000    0.1325650000000000 H
   0.1176100000000000    0.7321500000000000    0.1159350000000000 H
   0.2563400000000000    0.6330600000000000    0.0601100000000000 H
   0.3054966666666666    0.8402600000000000    0.1465900000000000 H
   0.3137066666666666    0.6487100000000000    0.4974700000000000 H
   0.0223700000000000    0.7530300000000000    0.1161700000000000 H
   0.4507566666666666    0.7708700000000001    0.3671350000000000 H
   0.5896166666666667    0.8688600000000000    0.3111050000000000 H
   0.6388700000000000    0.6583900000000000    0.3966400000000000 H
   0.6470399999999999    0.8508500000000000    0.2478050000000000 H
   0.3553933333333333    0.7501100000000001    0.3674350000000000 H
   0.5490600000000000    0.2677900000000000    0.3840650000000000 H
   0.4103333333333333    0.3669000000000000    0.4398750000000000 H
   0.3611733333333333    0.1597100000000000    0.3533900000000000 H
   0.6442999999999999    0.2469500000000000    0.3838150000000000 H
   0.5492433333333333    0.2291000000000000    0.1328700000000000 H
   0.4103866666666667    0.1311000000000000    0.1888900000000000 H
   0.3611366666666667    0.3415300000000000    0.1033350000000000 H
   0.3529666666666667    0.1490400000000000    0.2521750000000000 H
   0.6446099999999999    0.2498800000000000    0.1325650000000000 H
   0.4509433333333333    0.7321500000000000    0.1159350000000000 H
   0.5896733333333333    0.6330600000000000    0.0601100000000000 H
   0.6388300000000000    0.8402600000000000    0.1465900000000000 H
   0.6470399999999999    0.6487100000000000    0.4974700000000000 H
   0.3557033333333333    0.7530300000000000    0.1161700000000000 H
   0.7840900000000000    0.7708700000000001    0.3671350000000000 H
   0.9229499999999999    0.8688600000000000    0.3111050000000000 H
   0.9722033333333333    0.6583900000000000    0.3966400000000000 H
   0.9803733333333333    0.8508500000000000    0.2478050000000000 H
   0.6887266666666666    0.7501100000000001    0.3674350000000000 H
   0.8823933333333333    0.2677900000000000    0.3840650000000000 H
   0.7436666666666666    0.3669000000000000    0.4398750000000000 H
   0.6945066666666666    0.1597100000000000    0.3533900000000000 H
   0.6862999999999999    0.3512400000000000    0.0025200000000000 H
   0.9776333333333332    0.2469500000000000    0.3838150000000000 H
   0.8825766666666666    0.2291000000000000    0.1328700000000000 H
   0.7437199999999999    0.1311000000000000    0.1888900000000000 H
   0.6944699999999999    0.3415300000000000    0.1033350000000000 H
   0.6862999999999999    0.1490400000000000    0.2521750000000000 H
   0.9779433333333333    0.2498800000000000    0.1325650000000000 H
   0.7842766666666666    0.7321500000000000    0.1159350000000000 H
   0.9230066666666666    0.6330600000000000    0.0601100000000000 H
   0.9721633333333333    0.8402600000000000    0.1465900000000000 H
   0.9803733333333333    0.6487100000000000    0.4974700000000000 H
   0.6890366666666666    0.7530300000000000    0.1161700000000000 H
   0.1174233333333333    0.7708700000000001    0.8671350000000000 H
   0.2562833333333333    0.8688600000000000    0.8111050000000000 H
   0.3055366666666667    0.6583900000000000    0.8966400000000000 H
   0.3137066666666666    0.8508500000000000    0.7478050000000001 H
   0.0220600000000000    0.7501100000000001    0.8674350000000000 H
   0.0770000000000000    0.3669000000000000    0.9398750000000000 H
   0.0278400000000000    0.1597100000000000    0.8533900000000000 H
   0.0196333333333333    0.3512400000000000    0.5025200000000000 H
   0.2159100000000000    0.2291000000000000    0.6328700000000000 H
   0.0770533333333333    0.1311000000000000    0.6888900000000000 H
   0.0278033333333333    0.3415300000000000    0.6033350000000000 H
   0.0196333333333333    0.1490400000000000    0.7521750000000000 H
   0.3112766666666666    0.2498800000000000    0.6325650000000000 H
   0.1176100000000000    0.7321500000000000    0.6159350000000000 H
   0.2563400000000000    0.6330600000000000    0.5601100000000000 H
   0.3054966666666666    0.8402600000000000    0.6465900000000000 H
   0.3137066666666666    0.6487100000000000    0.9974700000000001 H
   0.0223700000000000    0.7530300000000000    0.6161700000000000 H
   0.4507566666666666    0.7708700000000001    0.8671350000000000 H
   0.5896166666666667    0.8688600000000000    0.8111050000000000 H
   0.6388700000000000    0.6583900000000000    0.8966400000000000 H
   0.6470399999999999    0.8508500000000000    0.7478050000000001 H
   0.3553933333333333    0.7501100000000001    0.8674350000000000 H
   0.5490600000000000    0.2677900000000000    0.8840650000000000 H
   0.3529666666666667    0.3512400000000000    0.5025200000000000 H
   0.6442999999999999    0.2469500000000000    0.8838150000000000 H
   0.5492433333333333    0.2291000000000000    0.6328700000000000 H
   0.4103866666666667    0.1311000000000000    0.6888900000000000 H
   0.3611366666666667    0.3415300000000000    0.6033350000000000 H
   0.3529666666666667    0.1490400000000000    0.7521750000000000 H
   0.6446099999999999    0.2498800000000000    0.6325650000000000 H
   0.4509433333333333    0.7321500000000000    0.6159350000000000 H
   0.5896733333333333    0.6330600000000000    0.5601100000000000 H
   0.6388300000000000    0.8402600000000000    0.6465900000000000 H
   0.6470399999999999    0.6487100000000000    0.9974700000000001 H
   0.3557033333333333    0.7530300000000000    0.6161700000000000 H
   0.7840900000000000    0.7708700000000001    0.8671350000000000 H
   0.9229499999999999    0.8688600000000000    0.8111050000000000 H
   0.9722033333333333    0.6583900000000000    0.8966400000000000 H
   0.9803733333333333    0.8508500000000000    0.7478050000000001 H
   0.6887266666666666    0.7501100000000001    0.8674350000000000 H
   0.8823933333333333    0.2677900000000000    0.8840650000000000 H
   0.7436666666666666    0.3669000000000000    0.9398750000000000 H
   0.6945066666666666    0.1597100000000000    0.8533900000000000 H
   0.6862999999999999    0.3512400000000000    0.5025200000000000 H
   0.9776333333333332    0.2469500000000000    0.8838150000000000 H
   0.8825766666666666    0.2291000000000000    0.6328700000000000 H
   0.7437199999999999    0.1311000000000000    0.6888900000000000 H
   0.6944699999999999    0.3415300000000000    0.6033350000000000 H
   0.6862999999999999    0.1490400000000000    0.7521750000000000 H
   0.9779433333333333    0.2498800000000000    0.6325650000000000 H
   0.7842766666666666    0.7321500000000000    0.6159350000000000 H
   0.9230066666666666    0.6330600000000000    0.5601100000000000 H
   0.9721633333333333    0.8402600000000000    0.6465900000000000 H
   0.9803733333333333    0.6487100000000000    0.9974700000000001 H
   0.6890366666666666    0.7530300000000000    0.6161700000000000 H
   0.1797300000000000    0.8088000000000000    0.3652600000000000 C
   0.2348366666666666    0.5822100000000000    0.4598200000000000 C
   0.0544633333333333    0.9070300000000000    0.1794500000000000 C
   0.0996566666666667    0.7926100000000000    0.3098450000000000 C
   0.2171700000000000    0.7684900000000000    0.3698050000000000 C
   0.2541466666666666    0.8076100000000001    0.3397400000000000 C
   0.2875866666666667    0.7657000000000000    0.3467750000000000 C
   0.2815033333333333    0.6927100000000000    0.3872350000000000 C
   0.2434266666666667    0.6584500000000000    0.4154800000000000 C
   0.0420666666666667    0.8593800000000000    0.2329050000000000 C
   0.0031166666666667    0.8366100000000000    0.2635700000000000 C
   0.0000000000000000    0.7959200000000000    0.3130250000000000 C
   0.0260866666666667    0.7811700000000000    0.3297700000000000 C
   0.0638766666666667    0.8049500000000001    0.2966150000000000 C
   0.1535800000000000    0.3079500000000000    0.3852750000000000 C
   0.0984600000000000    0.0853800000000000    0.2896350000000000 C
   0.2334033333333333    0.2888900000000000    0.4414950000000000 C
   0.1161333333333333    0.2682100000000000    0.3806050000000000 C
   0.0791333333333333    0.3065900000000000    0.4109500000000000 C
   0.0456900000000000    0.2651700000000000    0.4037950000000000 C
   0.0518333333333333    0.1935000000000000    0.3629750000000000 C
   0.0899233333333333    0.1600300000000000    0.3344150000000000 C
   0.3301766666666667    0.3357300000000000    0.4869950000000000 C
   0.0052800000000000    0.2945100000000000    0.4377250000000000 C
   0.3070500000000000    0.2784800000000000    0.4213150000000000 C
   0.2692500000000000    0.3017900000000000    0.4545500000000000 C
   0.1536033333333333    0.1911300000000000    0.1347300000000000 C
   0.0984933333333333    0.4177700000000000    0.0401850000000000 C
   0.2788700000000000    0.0929200000000000    0.3205500000000000 C
   0.2336866666666667    0.2073200000000000    0.1901450000000000 C
   0.1161666666666667    0.2314300000000000    0.1301750000000000 C
   0.0791866666666667    0.1923200000000000    0.1602400000000000 C
   0.0457500000000000    0.2342400000000000    0.1532100000000000 C
   0.0518333333333333    0.3072900000000000    0.1127700000000000 C
   0.0899100000000000    0.3415000000000000    0.0845150000000000 C
   0.2912733333333333    0.1405000000000000    0.2670800000000000 C
   0.3302200000000000    0.1633300000000000    0.2364200000000000 C
   0.0053766666666667    0.2040300000000000    0.1869700000000000 C
   0.3072533333333333    0.2188000000000000    0.1702300000000000 C
   0.2694633333333333    0.1950000000000000    0.2033750000000000 C
   0.1797600000000000    0.6920100000000000    0.1147150000000000 C
   0.2348800000000000    0.9145600000000000    0.2103600000000000 C
   0.0543800000000000    0.5930100000000000    0.4291750000000000 C
   0.0999366666666667    0.7110500000000000    0.0585000000000000 C
   0.2172066666666667    0.7317500000000000    0.1193800000000000 C
   0.2542033333333333    0.6933900000000000    0.0890250000000000 C
   0.2876466666666667    0.7347800000000000    0.0961950000000000 C
   0.2815033333333333    0.8064100000000000    0.1370250000000000 C
   0.2434133333333333    0.8399000000000000    0.1655850000000000 C
   0.0421100000000000    0.6418100000000000    0.4822750000000000 C
   0.0031633333333333    0.6642200000000000    0.0000000000000000 C
   0.0000000000000000    0.7054500000000000    0.0622650000000000 C
   0.0262900000000000    0.7214500000000000    0.0786800000000000 C
   0.0640900000000000    0.6981400000000000    0.0454400000000000 C
   0.5130633333333333    0.8088000000000000    0.3652600000000000 C
   0.5681700000000000    0.5822100000000000    0.4598200000000000 C
   0.3877966666666667    0.9070300000000000    0.1794500000000000 C
   0.4329900000000000    0.7926100000000000    0.3098450000000000 C
   0.5505033333333333    0.7684900000000000    0.3698050000000000 C
   0.5874800000000000    0.8076100000000001    0.3397400000000000 C
   0.6209199999999999    0.7657000000000000    0.3467750000000000 C
   0.6148366666666667    0.6927100000000000    0.3872350000000000 C
   0.5767599999999999    0.6584500000000000    0.4154800000000000 C
   0.3754000000000000    0.8593800000000000    0.2329050000000000 C
   0.3364500000000000    0.8366100000000000    0.2635700000000000 C
   0.3333333333333333    0.7959200000000000    0.3130250000000000 C
   0.3594200000000000    0.7811700000000000    0.3297700000000000 C
   0.3972100000000000    0.8049500000000001    0.2966150000000000 C
   0.4869133333333333    0.3079500000000000    0.3852750000000000 C
   0.4317933333333333    0.0853800000000000    0.2896350000000000 C
   0.6122900000000000    0.4069500000000000    0.0708150000000000 C
   0.5667366666666667    0.2888900000000000    0.4414950000000000 C
   0.4494666666666666    0.2682100000000000    0.3806050000000000 C
   0.4124666666666666    0.3065900000000000    0.4109500000000000 C
   0.3790233333333333    0.2651700000000000    0.4037950000000000 C
   0.3851666666666667    0.1935000000000000    0.3629750000000000 C
   0.4232566666666666    0.1600300000000000    0.3344150000000000 C
   0.6245600000000000    0.3581600000000000    0.0177150000000000 C
   0.6635100000000000    0.3357300000000000    0.4869950000000000 C
   0.3386133333333333    0.2945100000000000    0.4377250000000000 C
   0.6403833333333333    0.2784800000000000    0.4213150000000000 C
   0.6025833333333332    0.3017900000000000    0.4545500000000000 C
   0.4869366666666666    0.1911300000000000    0.1347300000000000 C
   0.4318266666666666    0.4177700000000000    0.0401850000000000 C
   0.6122033333333332    0.0929200000000000    0.3205500000000000 C
   0.5670200000000000    0.2073200000000000    0.1901450000000000 C
   0.4495000000000000    0.2314300000000000    0.1301750000000000 C
   0.4125200000000000    0.1923200000000000    0.1602400000000000 C
   0.3790833333333333    0.2342400000000000    0.1532100000000000 C
   0.3851666666666667    0.3072900000000000    0.1127700000000000 C
   0.4232433333333333    0.3415000000000000    0.0845150000000000 C
   0.6246066666666666    0.1405000000000000    0.2670800000000000 C
   0.6635533333333332    0.1633300000000000    0.2364200000000000 C
   0.3387100000000000    0.2040300000000000    0.1869700000000000 C
   0.6405866666666666    0.2188000000000000    0.1702300000000000 C
   0.6027966666666666    0.1950000000000000    0.2033750000000000 C
   0.5130933333333333    0.6920100000000000    0.1147150000000000 C
   0.5682133333333333    0.9145600000000000    0.2103600000000000 C
   0.3877133333333333    0.5930100000000000    0.4291750000000000 C
   0.4332700000000000    0.7110500000000000    0.0585000000000000 C
   0.5505400000000000    0.7317500000000000    0.1193800000000000 C
   0.5875366666666666    0.6933900000000000    0.0890250000000000 C
   0.6209800000000000    0.7347800000000000    0.0961950000000000 C
   0.6148366666666667    0.8064100000000000    0.1370250000000000 C
   0.5767466666666666    0.8399000000000000    0.1655850000000000 C
   0.3754433333333333    0.6418100000000000    0.4822750000000000 C
   0.3364966666666667    0.6642200000000000    0.0000000000000000 C
   0.3333333333333333    0.7054500000000000    0.0622650000000000 C
   0.3596233333333333    0.7214500000000000    0.0786800000000000 C
   0.3974233333333333    0.6981400000000000    0.0454400000000000 C
   0.8463966666666666    0.8088000000000000    0.3652600000000000 C
   0.9015033333333333    0.5822100000000000    0.4598200000000000 C
   0.7211299999999999    0.9070300000000000    0.1794500000000000 C
   0.7663233333333332    0.7926100000000000    0.3098450000000000 C
   0.8838366666666666    0.7684900000000000    0.3698050000000000 C
   0.9208133333333333    0.8076100000000001    0.3397400000000000 C
   0.9542533333333333    0.7657000000000000    0.3467750000000000 C
   0.9481700000000000    0.6927100000000000    0.3872350000000000 C
   0.9100933333333333    0.6584500000000000    0.4154800000000000 C
   0.7087333333333333    0.8593800000000000    0.2329050000000000 C
   0.6697833333333333    0.8366100000000000    0.2635700000000000 C
   0.6666666666666666    0.7959200000000000    0.3130250000000000 C
   0.6927533333333333    0.7811700000000000    0.3297700000000000 C
   0.7305433333333333    0.8049500000000001    0.2966150000000000 C
   0.8202466666666666    0.3079500000000000    0.3852750000000000 C
   0.7651266666666666    0.0853800000000000    0.2896350000000000 C
   0.9456233333333333    0.4069500000000000    0.0708150000000000 C
   0.9000699999999999    0.2888900000000000    0.4414950000000000 C
   0.7827999999999999    0.2682100000000000    0.3806050000000000 C
   0.7458000000000000    0.3065900000000000    0.4109500000000000 C
   0.7123566666666666    0.2651700000000000    0.4037950000000000 C
   0.7184999999999999    0.1935000000000000    0.3629750000000000 C
   0.7565900000000000    0.1600300000000000    0.3344150000000000 C
   0.9578933333333333    0.3581600000000000    0.0177150000000000 C
   0.9968433333333333    0.3357300000000000    0.4869950000000000 C
   0.6719466666666666    0.2945100000000000    0.4377250000000000 C
   0.9737166666666666    0.2784800000000000    0.4213150000000000 C
   0.9359166666666666    0.3017900000000000    0.4545500000000000 C
   0.8202699999999999    0.1911300000000000    0.1347300000000000 C
   0.7651600000000000    0.4177700000000000    0.0401850000000000 C
   0.9455366666666666    0.0929200000000000    0.3205500000000000 C
   0.9003533333333333    0.2073200000000000    0.1901450000000000 C
   0.7828333333333333    0.2314300000000000    0.1301750000000000 C
   0.7458533333333333    0.1923200000000000    0.1602400000000000 C
   0.7124166666666666    0.2342400000000000    0.1532100000000000 C
   0.7184999999999999    0.3072900000000000    0.1127700000000000 C
   0.7565766666666667    0.3415000000000000    0.0845150000000000 C
   0.9579400000000000    0.1405000000000000    0.2670800000000000 C
   0.9968866666666666    0.1633300000000000    0.2364200000000000 C
   0.6720433333333333    0.2040300000000000    0.1869700000000000 C
   0.9739199999999999    0.2188000000000000    0.1702300000000000 C
   0.9361299999999999    0.1950000000000000    0.2033750000000000 C
   0.8464266666666667    0.6920100000000000    0.1147150000000000 C
   0.9015466666666666    0.9145600000000000    0.2103600000000000 C
   0.7210466666666666    0.5930100000000000    0.4291750000000000 C
   0.7666033333333333    0.7110500000000000    0.0585000000000000 C
   0.8838733333333333    0.7317500000000000    0.1193800000000000 C
   0.9208700000000000    0.6933900000000000    0.0890250000000000 C
   0.9543133333333333    0.7347800000000000    0.0961950000000000 C
   0.9481700000000000    0.8064100000000000    0.1370250000000000 C
   0.9100800000000000    0.8399000000000000    0.1655850000000000 C
   0.7087766666666666    0.6418100000000000    0.4822750000000000 C
   0.6698299999999999    0.6642200000000000    0.0000000000000000 C
   0.6666666666666666    0.7054500000000000    0.0622650000000000 C
   0.6929566666666667    0.7214500000000000    0.0786800000000000 C
   0.7307566666666666    0.6981400000000000    0.0454400000000000 C
   0.1797300000000000    0.8088000000000000    0.8652599999999999 C
   0.2348366666666666    0.5822100000000000    0.9598200000000000 C
   0.0544633333333333    0.9070300000000000    0.6794500000000000 C
   0.0996566666666667    0.7926100000000000    0.8098449999999999 C
   0.2171700000000000    0.7684900000000000    0.8698049999999999 C
   0.2541466666666666    0.8076100000000001    0.8397399999999999 C
   0.2875866666666667    0.7657000000000000    0.8467750000000001 C
   0.2815033333333333    0.6927100000000000    0.8872350000000000 C
   0.2434266666666667    0.6584500000000000    0.9154800000000001 C
   0.0420666666666667    0.8593800000000000    0.7329050000000000 C
   0.0031166666666667    0.8366100000000000    0.7635700000000001 C
   0.0000000000000000    0.7959200000000000    0.8130250000000000 C
   0.0260866666666667    0.7811700000000000    0.8297700000000000 C
   0.0638766666666667    0.8049500000000001    0.7966150000000001 C
   0.1535800000000000    0.3079500000000000    0.8852750000000000 C
   0.0984600000000000    0.0853800000000000    0.7896350000000000 C
   0.2789566666666666    0.4069500000000000    0.5708150000000000 C
   0.1161333333333333    0.2682100000000000    0.8806050000000001 C
   0.0791333333333333    0.3065900000000000    0.9109499999999999 C
   0.0456900000000000    0.2651700000000000    0.9037950000000000 C
   0.0518333333333333    0.1935000000000000    0.8629750000000000 C
   0.0899233333333333    0.1600300000000000    0.8344150000000000 C
   0.2912266666666666    0.3581600000000000    0.5177150000000000 C
   0.0052800000000000    0.2945100000000000    0.9377249999999999 C
   0.1536033333333333    0.1911300000000000    0.6347300000000000 C
   0.0984933333333333    0.4177700000000000    0.5401850000000000 C
   0.2788700000000000    0.0929200000000000    0.8205500000000000 C
   0.2336866666666667    0.2073200000000000    0.6901450000000000 C
   0.1161666666666667    0.2314300000000000    0.6301750000000000 C
   0.0791866666666667    0.1923200000000000    0.6602399999999999 C
   0.0457500000000000    0.2342400000000000    0.6532100000000001 C
   0.0518333333333333    0.3072900000000000    0.6127700000000000 C
   0.0899100000000000    0.3415000000000000    0.5845150000000000 C
   0.2912733333333333    0.1405000000000000    0.7670800000000000 C
   0.3302200000000000    0.1633300000000000    0.7364200000000000 C
   0.0053766666666667    0.2040300000000000    0.6869700000000000 C
   0.3072533333333333    0.2188000000000000    0.6702300000000000 C
   0.2694633333333333    0.1950000000000000    0.7033750000000000 C
   0.1797600000000000    0.6920100000000000    0.6147150000000000 C
   0.2348800000000000    0.9145600000000000    0.7103600000000000 C
   0.0543800000000000    0.5930100000000000    0.9291750000000000 C
   0.0999366666666667    0.7110500000000000    0.5585000000000000 C
   0.2172066666666667    0.7317500000000000    0.6193800000000000 C
   0.2542033333333333    0.6933900000000000    0.5890250000000000 C
   0.2876466666666667    0.7347800000000000    0.5961950000000000 C
   0.2815033333333333    0.8064100000000000    0.6370250000000000 C
   0.2434133333333333    0.8399000000000000    0.6655850000000000 C
   0.0421100000000000    0.6418100000000000    0.9822750000000000 C
   0.0031633333333333    0.6642200000000000    0.5000000000000000 C
   0.0000000000000000    0.7054500000000000    0.5622650000000000 C
   0.0262900000000000    0.7214500000000000    0.5786800000000000 C
   0.0640900000000000    0.6981400000000000    0.5454400000000000 C
   0.5130633333333333    0.8088000000000000    0.8652599999999999 C
   0.5681700000000000    0.5822100000000000    0.9598200000000000 C
   0.3877966666666667    0.9070300000000000    0.6794500000000000 C
   0.4329900000000000    0.7926100000000000    0.8098449999999999 C
   0.5505033333333333    0.7684900000000000    0.8698049999999999 C
   0.5874800000000000    0.8076100000000001    0.8397399999999999 C
   0.6209199999999999    0.7657000000000000    0.8467750000000001 C
   0.6148366666666667    0.6927100000000000    0.8872350000000000 C
   0.5767599999999999    0.6584500000000000    0.9154800000000001 C
   0.3754000000000000    0.8593800000000000    0.7329050000000000 C
   0.3364500000000000    0.8366100000000000    0.7635700000000001 C
   0.3333333333333333    0.7959200000000000    0.8130250000000000 C
   0.3594200000000000    0.7811700000000000    0.8297700000000000 C
   0.3972100000000000    0.8049500000000001    0.7966150000000001 C
   0.6122900000000000    0.4069500000000000    0.5708150000000000 C
   0.5667366666666667    0.2888900000000000    0.9414950000000000 C
   0.6245600000000000    0.3581600000000000    0.5177150000000000 C
   0.6635100000000000    0.3357300000000000    0.9869950000000001 C
   0.6403833333333333    0.2784800000000000    0.9213150000000000 C
   0.6025833333333332    0.3017900000000000    0.9545500000000000 C
   0.4869366666666666    0.1911300000000000    0.6347300000000000 C
   0.4318266666666666    0.4177700000000000    0.5401850000000000 C
   0.6122033333333332    0.0929200000000000    0.8205500000000000 C
   0.5670200000000000    0.2073200000000000    0.6901450000000000 C
   0.4495000000000000    0.2314300000000000    0.6301750000000000 C
   0.4125200000000000    0.1923200000000000    0.6602399999999999 C
   0.3790833333333333    0.2342400000000000    0.6532100000000001 C
   0.3851666666666667    0.3072900000000000    0.6127700000000000 C
   0.4232433333333333    0.3415000000000000    0.5845150000000000 C
   0.6246066666666666    0.1405000000000000    0.7670800000000000 C
   0.6635533333333332    0.1633300000000000    0.7364200000000000 C
   0.3387100000000000    0.2040300000000000    0.6869700000000000 C
   0.6405866666666666    0.2188000000000000    0.6702300000000000 C
   0.6027966666666666    0.1950000000000000    0.7033750000000000 C
   0.5130933333333333    0.6920100000000000    0.6147150000000000 C
   0.5682133333333333    0.9145600000000000    0.7103600000000000 C
   0.3877133333333333    0.5930100000000000    0.9291750000000000 C
   0.4332700000000000    0.7110500000000000    0.5585000000000000 C
   0.5505400000000000    0.7317500000000000    0.6193800000000000 C
   0.5875366666666666    0.6933900000000000    0.5890250000000000 C
   0.6209800000000000    0.7347800000000000    0.5961950000000000 C
   0.6148366666666667    0.8064100000000000    0.6370250000000000 C
   0.5767466666666666    0.8399000000000000    0.6655850000000000 C
   0.3754433333333333    0.6418100000000000    0.9822750000000000 C
   0.3364966666666667    0.6642200000000000    0.5000000000000000 C
   0.3333333333333333    0.7054500000000000    0.5622650000000000 C
   0.3596233333333333    0.7214500000000000    0.5786800000000000 C
   0.3974233333333333    0.6981400000000000    0.5454400000000000 C
   0.8463966666666666    0.8088000000000000    0.8652599999999999 C
   0.9015033333333333    0.5822100000000000    0.9598200000000000 C
   0.7211299999999999    0.9070300000000000    0.6794500000000000 C
   0.7663233333333332    0.7926100000000000    0.8098449999999999 C
   0.8838366666666666    0.7684900000000000    0.8698049999999999 C
   0.9208133333333333    0.8076100000000001    0.8397399999999999 C
   0.9542533333333333    0.7657000000000000    0.8467750000000001 C
   0.9481700000000000    0.6927100000000000    0.8872350000000000 C
   0.9100933333333333    0.6584500000000000    0.9154800000000001 C
   0.7087333333333333    0.8593800000000000    0.7329050000000000 C
   0.6697833333333333    0.8366100000000000    0.7635700000000001 C
   0.6666666666666666    0.7959200000000000    0.8130250000000000 C
   0.6927533333333333    0.7811700000000000    0.8297700000000000 C
   0.7305433333333333    0.8049500000000001    0.7966150000000001 C
   0.8202466666666666    0.3079500000000000    0.8852750000000000 C
   0.7651266666666666    0.0853800000000000    0.7896350000000000 C
   0.9456233333333333    0.4069500000000000    0.5708150000000000 C
   0.9000699999999999    0.2888900000000000    0.9414950000000000 C
   0.7827999999999999    0.2682100000000000    0.8806050000000001 C
   0.7458000000000000    0.3065900000000000    0.9109499999999999 C
   0.7123566666666666    0.2651700000000000    0.9037950000000000 C
   0.7184999999999999    0.1935000000000000    0.8629750000000000 C
   0.7565900000000000    0.1600300000000000    0.8344150000000000 C
   0.9578933333333333    0.3581600000000000    0.5177150000000000 C
   0.9968433333333333    0.3357300000000000    0.9869950000000001 C
   0.6719466666666666    0.2945100000000000    0.9377249999999999 C
   0.9737166666666666    0.2784800000000000    0.9213150000000000 C
   0.9359166666666666    0.3017900000000000    0.9545500000000000 C
   0.8202699999999999    0.1911300000000000    0.6347300000000000 C
   0.7651600000000000    0.4177700000000000    0.5401850000000000 C
   0.9455366666666666    0.0929200000000000    0.8205500000000000 C