H8 O5
1.0
  39.2098895414864401    0.0000000000000000   -0.0930706421635959
  -0.1420016738554337   24.2085795144348204   -0.0139433822634023
   0.0000000000000000    0.0000000000000000   30.0839999999999996
H O
8 5
direct
   0.0610735338052481    0.6185147335983840    0.1021133245636705 H
   0.0261195756155791    0.4743241289817047    0.1366214456466510 H
   0.0400419537110878    0.5440195413572060    0.1250732781935367 H
   0.0157752076554023    0.6466699172578446    0.1671312559626510 H
  -0.0122755049866010    0.6456001214058461    0.2092481452942860 H
   0.9739779192983786    0.4887666608173253    0.2548852276739962 H
   0.9311044788651616    0.6320121924819653    0.2384525158748998 H
   0.9566734894041393    0.5640310395600208    0.2434107434292127 H
   0.0608500000000000    0.5793000000000000    0.0954750000000000 O
   0.0397766666666667    0.4974800000000000    0.1171950000000000 O
   0.0000000000000000    0.6665500000000000    0.1864700000000000 O
   0.9538666666666666    0.5111400000000000    0.2596150000000000 O
   0.9291233333333333    0.5946800000000000    0.2498900000000000 O
