Zn48 H141 Pt24 C329 N47 Cl48 O188
1.0
  39.2098895414864401    0.0000000000000000   -0.0930706421635959
  -0.1420016738554337   24.2085795144348204   -0.0139433822634023
   0.0000000000000000    0.0000000000000000   30.0839999999999996
Zn H Pt C N Cl O
48 141 24 329 47 48 188
direct
   0.2444700000000000    0.9771200000000000    0.3028550000000000 Zn
   0.0517166666666667    0.9328200000000000    0.0000000000000000 Zn
   0.0875133333333333    0.0233000000000000    0.0533050000000000 Zn
   0.2177300000000000    0.5691700000000000    0.2616350000000000 Zn
   0.2535300000000000    0.4792100000000000    0.3064500000000000 Zn
   0.1142066666666667    0.4329600000000000    0.0000000000000000 Zn
   0.0783566666666667    0.5230200000000000    0.0551750000000000 Zn
   0.2812433333333333    0.0673600000000000    0.2595250000000000 Zn
   0.5778033333333333    0.9771200000000000    0.3028550000000000 Zn
   0.3850500000000000    0.9328200000000000    0.0000000000000000 Zn
   0.4208466666666666    0.0233000000000000    0.0533050000000000 Zn
   0.5510633333333333    0.5691700000000000    0.2616350000000000 Zn
   0.5868633333333333    0.4792100000000000    0.3064500000000000 Zn
   0.4475399999999999    0.4329600000000000    0.0000000000000000 Zn
   0.4116900000000000    0.5230200000000000    0.0551750000000000 Zn
   0.6145766666666665    0.0673600000000000    0.2595250000000000 Zn
   0.9111366666666666    0.9771200000000000    0.3028550000000000 Zn
   0.7183833333333333    0.9328200000000000    0.0000000000000000 Zn
   0.7541800000000000    0.0233000000000000    0.0533050000000000 Zn
   0.8843966666666666    0.5691700000000000    0.2616350000000000 Zn
   0.9201966666666666    0.4792100000000000    0.3064500000000000 Zn
   0.7808733333333333    0.4329600000000000    0.0000000000000000 Zn
   0.7450233333333333    0.5230200000000000    0.0551750000000000 Zn
   0.9479099999999999    0.0673600000000000    0.2595250000000000 Zn
   0.2444700000000000    0.9771200000000000    0.8028550000000000 Zn
   0.0517166666666667    0.9328200000000000    0.5000000000000000 Zn
   0.0875133333333333    0.0233000000000000    0.5533050000000000 Zn
   0.2177300000000000    0.5691700000000000    0.7616350000000001 Zn
   0.2535300000000000    0.4792100000000000    0.8064500000000000 Zn
   0.1142066666666667    0.4329600000000000    0.5000000000000000 Zn
   0.0783566666666667    0.5230200000000000    0.5551750000000000 Zn
   0.2812433333333333    0.0673600000000000    0.7595250000000000 Zn
   0.5778033333333333    0.9771200000000000    0.8028550000000000 Zn
   0.3850500000000000    0.9328200000000000    0.5000000000000000 Zn
   0.4208466666666666    0.0233000000000000    0.5533050000000000 Zn
   0.5510633333333333    0.5691700000000000    0.7616350000000001 Zn
   0.5868633333333333    0.4792100000000000    0.8064500000000000 Zn
   0.4475399999999999    0.4329600000000000    0.5000000000000000 Zn
   0.4116900000000000    0.5230200000000000    0.5551750000000000 Zn
   0.6145766666666665    0.0673600000000000    0.7595250000000000 Zn
   0.9111366666666666    0.9771200000000000    0.8028550000000000 Zn
   0.7183833333333333    0.9328200000000000    0.5000000000000000 Zn
   0.7541800000000000    0.0233000000000000    0.5533050000000000 Zn
   0.8843966666666666    0.5691700000000000    0.7616350000000001 Zn
   0.9201966666666666    0.4792100000000000    0.8064500000000000 Zn
   0.7808733333333333    0.4329600000000000    0.5000000000000000 Zn
   0.7450233333333333    0.5230200000000000    0.5551750000000000 Zn
   0.9479099999999999    0.0673600000000000    0.7595250000000000 Zn
   0.3046900000000000    0.1729000000000000    0.3681750000000000 H
   0.3289700000000000    0.0072400000000000    0.4102900000000000 H
   0.0281166666666667    0.1525200000000000    0.4836400000000000 H
   0.0289733333333333    0.3351700000000000    0.4882150000000000 H
   0.3322266666666667    0.4946000000000000    0.4359950000000000 H
   0.2933300000000000    0.3406500000000000    0.3835200000000000 H
   0.0277966666666667    0.8275700000000000    0.1181950000000000 H
   0.0028633333333333    0.9932800000000001    0.1594200000000000 H
   0.3038400000000000    0.8482400000000000    0.2328650000000000 H
   0.3032966666666667    0.6660800000000000    0.2376250000000000 H
   0.3328966666666666    0.5061300000000000    0.1859450000000000 H
   0.1952133333333333    0.6736799999999999    0.3708100000000000 H
   0.1704400000000000    0.5080000000000000    0.4132000000000000 H
   0.1379400000000000    0.6532300000000000    0.4856000000000000 H
   0.1373866666666667    0.8364100000000000    0.4884000000000000 H
   0.1671000000000000    0.9953200000000000    0.4338500000000000 H
   0.2062300000000000    0.8410700000000000    0.3839350000000000 H
   0.1382066666666666    0.3277100000000000    0.1197000000000000 H
   0.1607866666666667    0.4935500000000000    0.1640500000000000 H
   0.1945366666666666    0.3483900000000000    0.2356500000000000 H
   0.1961866666666666    0.1646900000000000    0.2378450000000000 H
   0.1652566666666667    0.0000000000000000    0.1840450000000000 H
   0.1274100000000000    0.1603400000000000    0.1328400000000000 H
   0.6380233333333334    0.1729000000000000    0.3681750000000000 H
   0.6623033333333332    0.0072400000000000    0.4102900000000000 H
   0.3614500000000000    0.1525200000000000    0.4836400000000000 H
   0.3623066666666667    0.3351700000000000    0.4882150000000000 H
   0.6655599999999999    0.4946000000000000    0.4359950000000000 H
   0.6266633333333333    0.3406500000000000    0.3835200000000000 H
   0.3611300000000000    0.8275700000000000    0.1181950000000000 H
   0.3361966666666666    0.9932800000000001    0.1594200000000000 H
   0.6371733333333334    0.8482400000000000    0.2328650000000000 H
   0.6366300000000000    0.6660800000000000    0.2376250000000000 H
   0.6662299999999999    0.5061300000000000    0.1859450000000000 H
   0.3723066666666667    0.6595500000000000    0.1334800000000000 H
   0.5285466666666667    0.6736799999999999    0.3708100000000000 H
   0.5037733333333333    0.5080000000000000    0.4132000000000000 H
   0.4712733333333333    0.6532300000000000    0.4856000000000000 H
   0.4707200000000000    0.8364100000000000    0.4884000000000000 H
   0.5004333333333333    0.9953200000000000    0.4338500000000000 H
   0.5395633333333333    0.8410700000000000    0.3839350000000000 H
   0.4715400000000000    0.3277100000000000    0.1197000000000000 H
   0.4941200000000000    0.4935500000000000    0.1640500000000000 H
   0.5278700000000000    0.3483900000000000    0.2356500000000000 H
   0.5295200000000000    0.1646900000000000    0.2378450000000000 H
   0.4985900000000000    0.0000000000000000    0.1840450000000000 H
   0.4607433333333333    0.1603400000000000    0.1328400000000000 H
   0.9713566666666666    0.1729000000000000    0.3681750000000000 H
   0.9956366666666666    0.0072400000000000    0.4102900000000000 H
   0.6947833333333333    0.1525200000000000    0.4836400000000000 H
   0.6956399999999999    0.3351700000000000    0.4882150000000000 H
   0.9988933333333333    0.4946000000000000    0.4359950000000000 H
   0.9599966666666666    0.3406500000000000    0.3835200000000000 H
   0.6944633333333333    0.8275700000000000    0.1181950000000000 H
   0.6695300000000000    0.9932800000000001    0.1594200000000000 H
   0.9705066666666666    0.8482400000000000    0.2328650000000000 H
   0.7056399999999999    0.6595500000000000    0.1334800000000000 H
   0.8618800000000000    0.6736799999999999    0.3708100000000000 H
   0.8371066666666667    0.5080000000000000    0.4132000000000000 H
   0.8046066666666667    0.6532300000000000    0.4856000000000000 H
   0.8040533333333333    0.8364100000000000    0.4884000000000000 H
   0.8337666666666665    0.9953200000000000    0.4338500000000000 H
   0.8728966666666667    0.8410700000000000    0.3839350000000000 H
   0.8048733333333333    0.3277100000000000    0.1197000000000000 H
   0.8274533333333333    0.4935500000000000    0.1640500000000000 H
   0.8612033333333333    0.3483900000000000    0.2356500000000000 H
   0.8628533333333333    0.1646900000000000    0.2378450000000000 H
   0.8319233333333333    0.0000000000000000    0.1840450000000000 H
   0.7940766666666667    0.1603400000000000    0.1328400000000000 H
   0.3046900000000000    0.1729000000000000    0.8681749999999999 H
   0.3289700000000000    0.0072400000000000    0.9102900000000000 H
   0.0281166666666667    0.1525200000000000    0.9836400000000001 H
   0.0289733333333333    0.3351700000000000    0.9882150000000001 H
   0.3322266666666667    0.4946000000000000    0.9359950000000000 H
   0.2933300000000000    0.3406500000000000    0.8835200000000001 H
   0.0277966666666667    0.8275700000000000    0.6181950000000001 H
   0.0028633333333333    0.9932800000000001    0.6594200000000000 H
   0.3038400000000000    0.8482400000000000    0.7328650000000000 H
   0.3032966666666667    0.6660800000000000    0.7376250000000000 H
   0.3328966666666666    0.5061300000000000    0.6859450000000000 H
   0.0389733333333333    0.6595500000000000    0.6334800000000000 H
   0.1952133333333333    0.6736799999999999    0.8708100000000000 H
   0.1704400000000000    0.5080000000000000    0.9132000000000000 H
   0.1379400000000000    0.6532300000000000    0.9856000000000000 H
   0.1373866666666667    0.8364100000000000    0.9883999999999999 H
   0.1671000000000000    0.9953200000000000    0.9338500000000001 H
   0.2062300000000000    0.8410700000000000    0.8839350000000000 H
   0.1382066666666666    0.3277100000000000    0.6197000000000000 H
   0.1607866666666667    0.4935500000000000    0.6640500000000000 H
   0.1945366666666666    0.3483900000000000    0.7356500000000000 H
   0.1961866666666666    0.1646900000000000    0.7378450000000000 H
   0.1652566666666667    0.0000000000000000    0.6840450000000000 H
   0.1274100000000000    0.1603400000000000    0.6328400000000001 H
   0.6380233333333334    0.1729000000000000    0.8681749999999999 H
   0.6623033333333332    0.0072400000000000    0.9102900000000000 H
   0.3614500000000000    0.1525200000000000    0.9836400000000001 H
   0.3623066666666667    0.3351700000000000    0.9882150000000001 H
   0.6655599999999999    0.4946000000000000    0.9359950000000000 H
   0.6266633333333333    0.3406500000000000    0.8835200000000001 H
   0.3611300000000000    0.8275700000000000    0.6181950000000001 H
   0.3361966666666666    0.9932800000000001    0.6594200000000000 H
   0.6371733333333334    0.8482400000000000    0.7328650000000000 H
   0.6366300000000000    0.6660800000000000    0.7376250000000000 H
   0.6662299999999999    0.5061300000000000    0.6859450000000000 H
   0.3723066666666667    0.6595500000000000    0.6334800000000000 H
   0.5285466666666667    0.6736799999999999    0.8708100000000000 H
   0.5037733333333333    0.5080000000000000    0.9132000000000000 H
   0.4712733333333333    0.6532300000000000    0.9856000000000000 H
   0.4707200000000000    0.8364100000000000    0.9883999999999999 H
   0.5004333333333333    0.9953200000000000    0.9338500000000001 H
   0.5395633333333333    0.8410700000000000    0.8839350000000000 H
   0.4715400000000000    0.3277100000000000    0.6197000000000000 H
   0.4941200000000000    0.4935500000000000    0.6640500000000000 H
   0.5278700000000000    0.3483900000000000    0.7356500000000000 H
   0.5295200000000000    0.1646900000000000    0.7378450000000000 H
   0.4985900000000000    0.0000000000000000    0.6840450000000000 H
   0.4607433333333333    0.1603400000000000    0.6328400000000001 H
   0.9713566666666666    0.1729000000000000    0.8681749999999999 H
   0.9956366666666666    0.0072400000000000    0.9102900000000000 H
   0.6947833333333333    0.1525200000000000    0.9836400000000001 H
   0.6956399999999999    0.3351700000000000    0.9882150000000001 H
   0.9988933333333333    0.4946000000000000    0.9359950000000000 H
   0.9599966666666666    0.3406500000000000    0.8835200000000001 H
   0.6944633333333333    0.8275700000000000    0.6181950000000001 H
   0.6695300000000000    0.9932800000000001    0.6594200000000000 H
   0.9705066666666666    0.8482400000000000    0.7328650000000000 H
   0.9699633333333333    0.6660800000000000    0.7376250000000000 H
   0.9995633333333332    0.5061300000000000    0.6859450000000000 H
   0.7056399999999999    0.6595500000000000    0.6334800000000000 H
   0.8618800000000000    0.6736799999999999    0.8708100000000000 H
   0.8371066666666667    0.5080000000000000    0.9132000000000000 H
   0.8046066666666667    0.6532300000000000    0.9856000000000000 H
   0.8040533333333333    0.8364100000000000    0.9883999999999999 H
   0.8337666666666665    0.9953200000000000    0.9338500000000001 H
   0.8728966666666667    0.8410700000000000    0.8839350000000000 H
   0.8048733333333333    0.3277100000000000    0.6197000000000000 H
   0.8274533333333333    0.4935500000000000    0.6640500000000000 H
   0.8612033333333333    0.3483900000000000    0.7356500000000000 H
   0.8628533333333333    0.1646900000000000    0.7378450000000000 H
   0.8319233333333333    0.0000000000000000    0.6840450000000000 H
   0.7940766666666667    0.1603400000000000    0.6328400000000001 H
   0.3299466666666667    0.2502800000000000    0.4329900000000000 Pt
   0.0000000000000000    0.7503900000000000    0.1826250000000000 Pt
   0.1696400000000000    0.7511300000000000    0.4344200000000000 Pt
   0.1637800000000000    0.2502300000000000    0.1836200000000000 Pt
   0.6632800000000000    0.2502800000000000    0.4329900000000000 Pt
   0.3333333333333333    0.7503900000000000    0.1826250000000000 Pt
   0.5029733333333333    0.7511300000000000    0.4344200000000000 Pt
   0.4971133333333333    0.2502300000000000    0.1836200000000000 Pt
   0.9966133333333334    0.2502800000000000    0.4329900000000000 Pt
   0.6666666666666666    0.7503900000000000    0.1826250000000000 Pt
   0.8363066666666666    0.7511300000000000    0.4344200000000000 Pt
   0.8304466666666666    0.2502300000000000    0.1836200000000000 Pt
   0.3299466666666667    0.2502800000000000    0.9329900000000000 Pt
   0.0000000000000000    0.7503900000000000    0.6826250000000000 Pt
   0.1696400000000000    0.7511300000000000    0.9344200000000000 Pt
   0.1637800000000000    0.2502300000000000    0.6836200000000000 Pt
   0.6632800000000000    0.2502800000000000    0.9329900000000000 Pt
   0.3333333333333333    0.7503900000000000    0.6826250000000000 Pt
   0.5029733333333333    0.7511300000000000    0.9344200000000000 Pt
   0.4971133333333333    0.2502300000000000    0.6836200000000000 Pt
   0.9966133333333334    0.2502800000000000    0.9329900000000000 Pt
   0.6666666666666666    0.7503900000000000    0.6826250000000000 Pt
   0.8363066666666666    0.7511300000000000    0.9344200000000000 Pt
   0.8304466666666666    0.2502300000000000    0.6836200000000000 Pt
   0.3158033333333333    0.1439200000000000    0.3915900000000000 C
   0.3141833333333333    0.0870700000000000    0.3846500000000000 C
   0.3298166666666666    0.0518200000000000    0.4148300000000000 C
   0.0147533333333333    0.0752600000000000    0.4502550000000000 C
   0.0150566666666667    0.1326300000000000    0.4559250000000000 C
   0.2981900000000000    0.0675000000000000    0.3425250000000000 C
   0.0346866666666667    0.0386600000000000    0.4804500000000000 C
   0.0144000000000000    0.3609100000000000    0.4656300000000000 C
   0.0171200000000000    0.4185400000000000    0.4662450000000000 C
   0.3305966666666666    0.4496500000000000    0.4369450000000000 C
   0.3094600000000000    0.4214400000000000    0.4068500000000000 C
   0.3084833333333333    0.3638000000000000    0.4074600000000000 C
   0.0449466666666667    0.4420100000000000    0.4945250000000000 C
   0.2897033333333333    0.4514100000000000    0.3716000000000000 C
   0.0164600000000000    0.8566000000000000    0.1413450000000000 C
   0.0179666666666667    0.9134100000000001    0.1342600000000000 C
   0.0020866666666667    0.9487300000000000    0.1640500000000000 C
   0.3170933333333333    0.9253900000000000    0.1993900000000000 C
   0.3169100000000000    0.8680600000000001    0.2052250000000000 C
   0.0342900000000000    0.9327700000000000    0.0924250000000000 C
   0.2972466666666667    0.9622300000000000    0.2294550000000000 C
   0.3178233333333333    0.6400800000000000    0.2152500000000000 C
   0.3149166666666666    0.5824800000000000    0.2160150000000000 C
   0.2868866666666666    0.5597299999999999    0.2442550000000000 C
   0.1839200000000000    0.6447200000000000    0.3941900000000000 C
   0.1854700000000000    0.5878800000000000    0.3875100000000000 C
   0.1696533333333333    0.5525800000000000    0.4175900000000000 C
   0.1513100000000000    0.5759500000000000    0.4527050000000000 C
   0.1510566666666667    0.6333600000000000    0.4581550000000000 C
   0.2016733333333333    0.5682199999999999    0.3457950000000000 C
   0.1313166666666667    0.5390500000000000    0.4827700000000000 C
   0.1519100000000000    0.8620000000000000    0.4655350000000000 C
   0.1490733333333333    0.9195700000000000    0.4652500000000000 C
   0.1688366666666667    0.9504400000000000    0.4355500000000000 C
   0.1900000000000000    0.9220200000000000    0.4059400000000000 C
   0.1910900000000000    0.8644400000000000    0.4074700000000000 C
   0.1211133333333333    0.9428000000000000    0.4931100000000000 C
   0.2094733333333333    0.9515900000000000    0.3700000000000000 C
   0.1489966666666667    0.3567400000000000    0.1435350000000000 C
   0.1468500000000000    0.4136200000000000    0.1373400000000000 C
   0.1620600000000000    0.4489400000000000    0.1680500000000000 C
   0.1804766666666666    0.4256500000000000    0.2032500000000000 C
   0.1813366666666666    0.3682100000000000    0.2081600000000000 C
   0.1307600000000000    0.4334500000000000    0.0954700000000000 C
   0.2000700000000000    0.4627300000000000    0.2338300000000000 C
   0.1815266666666666    0.1392000000000000    0.2149450000000000 C
   0.1839233333333333    0.0815600000000000    0.2150050000000000 C
   0.1639133333333333    0.0507700000000000    0.1853400000000000 C
   0.1430033333333333    0.0792800000000000    0.1554100000000000 C
   0.1423733333333333    0.1369100000000000    0.1565950000000000 C
   0.2114366666666667    0.0577000000000000    0.2433400000000000 C
   0.1231066666666667    0.0497500000000000    0.1197600000000000 C
   0.6491366666666667    0.1439200000000000    0.3915900000000000 C
   0.6475166666666666    0.0870700000000000    0.3846500000000000 C
   0.6631499999999999    0.0518200000000000    0.4148300000000000 C
   0.3480866666666667    0.0752600000000000    0.4502550000000000 C
   0.3483900000000000    0.1326300000000000    0.4559250000000000 C
   0.6315233333333332    0.0675000000000000    0.3425250000000000 C
   0.3680200000000000    0.0386600000000000    0.4804500000000000 C
   0.3477333333333333    0.3609100000000000    0.4656300000000000 C
   0.3504533333333333    0.4185400000000000    0.4662450000000000 C
   0.6639299999999999    0.4496500000000000    0.4369450000000000 C
   0.6427933333333333    0.4214400000000000    0.4068500000000000 C
   0.6418166666666667    0.3638000000000000    0.4074600000000000 C
   0.3782799999999999    0.4420100000000000    0.4945250000000000 C
   0.6230366666666667    0.4514100000000000    0.3716000000000000 C
   0.3497933333333333    0.8566000000000000    0.1413450000000000 C
   0.3513000000000000    0.9134100000000001    0.1342600000000000 C
   0.3354200000000000    0.9487300000000000    0.1640500000000000 C
   0.6504266666666667    0.9253900000000000    0.1993900000000000 C
   0.6502433333333333    0.8680600000000001    0.2052250000000000 C
   0.3676233333333333    0.9327700000000000    0.0924250000000000 C
   0.6305799999999999    0.9622300000000000    0.2294550000000000 C
   0.6511566666666666    0.6400800000000000    0.2152500000000000 C
   0.6482500000000000    0.5824800000000000    0.2160150000000000 C
   0.3333333333333333    0.5510699999999999    0.1868750000000000 C
   0.3559033333333333    0.5789800000000001    0.1568150000000000 C
   0.3570833333333333    0.6366200000000000    0.1573550000000000 C
   0.6202200000000000    0.5597299999999999    0.2442550000000000 C
   0.3754866666666666    0.5486900000000000    0.1215500000000000 C
   0.5172533333333333    0.6447200000000000    0.3941900000000000 C
   0.5188033333333333    0.5878800000000000    0.3875100000000000 C
   0.5029866666666667    0.5525800000000000    0.4175900000000000 C
   0.4846433333333333    0.5759500000000000    0.4527050000000000 C
   0.4843900000000000    0.6333600000000000    0.4581550000000000 C
   0.5350066666666666    0.5682199999999999    0.3457950000000000 C
   0.4646500000000000    0.5390500000000000    0.4827700000000000 C
   0.4852433333333333    0.8620000000000000    0.4655350000000000 C
   0.4824066666666667    0.9195700000000000    0.4652500000000000 C
   0.5021700000000000    0.9504400000000000    0.4355500000000000 C
   0.5233333333333333    0.9220200000000000    0.4059400000000000 C
   0.5244233333333332    0.8644400000000000    0.4074700000000000 C
   0.4544466666666667    0.9428000000000000    0.4931100000000000 C
   0.5428066666666667    0.9515900000000000    0.3700000000000000 C
   0.4823300000000000    0.3567400000000000    0.1435350000000000 C
   0.4801833333333333    0.4136200000000000    0.1373400000000000 C
   0.4953933333333333    0.4489400000000000    0.1680500000000000 C
   0.5138100000000000    0.4256500000000000    0.2032500000000000 C
   0.5146700000000000    0.3682100000000000    0.2081600000000000 C
   0.4640933333333333    0.4334500000000000    0.0954700000000000 C
   0.5334033333333333    0.4627300000000000    0.2338300000000000 C
   0.5148600000000000    0.1392000000000000    0.2149450000000000 C
   0.5172566666666667    0.0815600000000000    0.2150050000000000 C
   0.4972466666666666    0.0507700000000000    0.1853400000000000 C
   0.4763366666666666    0.0792800000000000    0.1554100000000000 C
   0.4757066666666666    0.1369100000000000    0.1565950000000000 C
   0.5447700000000000    0.0577000000000000    0.2433400000000000 C
   0.4564400000000000    0.0497500000000000    0.1197600000000000 C
   0.9824700000000000    0.1439200000000000    0.3915900000000000 C
   0.9808500000000000    0.0870700000000000    0.3846500000000000 C
   0.9964833333333333    0.0518200000000000    0.4148300000000000 C
   0.6814199999999999    0.0752600000000000    0.4502550000000000 C
   0.6817233333333333    0.1326300000000000    0.4559250000000000 C
   0.9648566666666666    0.0675000000000000    0.3425250000000000 C
   0.7013533333333333    0.0386600000000000    0.4804500000000000 C
   0.6810666666666666    0.3609100000000000    0.4656300000000000 C
   0.6837866666666667    0.4185400000000000    0.4662450000000000 C
   0.9972633333333333    0.4496500000000000    0.4369450000000000 C
   0.9761266666666666    0.4214400000000000    0.4068500000000000 C
   0.9751500000000000    0.3638000000000000    0.4074600000000000 C
   0.7116133333333333    0.4420100000000000    0.4945250000000000 C
   0.9563699999999999    0.4514100000000000    0.3716000000000000 C
   0.6831266666666667    0.8566000000000000    0.1413450000000000 C
   0.6846333333333333    0.9134100000000001    0.1342600000000000 C
   0.6687533333333333    0.9487300000000000    0.1640500000000000 C
   0.9837600000000000    0.9253900000000000    0.1993900000000000 C
   0.9835766666666665    0.8680600000000001    0.2052250000000000 C
   0.7009566666666667    0.9327700000000000    0.0924250000000000 C
   0.9639133333333333    0.9622300000000000    0.2294550000000000 C
   0.6666666666666666    0.5510699999999999    0.1868750000000000 C
   0.6892366666666666    0.5789800000000001    0.1568150000000000 C
   0.6904166666666667    0.6366200000000000    0.1573550000000000 C
   0.7088200000000000    0.5486900000000000    0.1215500000000000 C
   0.8505866666666666    0.6447200000000000    0.3941900000000000 C
   0.8521366666666665    0.5878800000000000    0.3875100000000000 C
   0.8363200000000000    0.5525800000000000    0.4175900000000000 C
   0.8179766666666666    0.5759500000000000    0.4527050000000000 C
   0.8177233333333334    0.6333600000000000    0.4581550000000000 C
   0.8683399999999999    0.5682199999999999    0.3457950000000000 C
   0.7979833333333333    0.5390500000000000    0.4827700000000000 C
   0.8185766666666666    0.8620000000000000    0.4655350000000000 C
   0.8157399999999999    0.9195700000000000    0.4652500000000000 C
   0.8355033333333333    0.9504400000000000    0.4355500000000000 C
   0.8566666666666666    0.9220200000000000    0.4059400000000000 C
   0.8577566666666666    0.8644400000000000    0.4074700000000000 C
   0.7877799999999999    0.9428000000000000    0.4931100000000000 C
   0.8761399999999999    0.9515900000000000    0.3700000000000000 C
   0.8156633333333333    0.3567400000000000    0.1435350000000000 C
   0.8135166666666667    0.4136200000000000    0.1373400000000000 C
   0.8287266666666666    0.4489400000000000    0.1680500000000000 C
   0.8471433333333332    0.4256500000000000    0.2032500000000000 C
   0.8480033333333332    0.3682100000000000    0.2081600000000000 C
   0.7974266666666666    0.4334500000000000    0.0954700000000000 C
   0.8667366666666666    0.4627300000000000    0.2338300000000000 C
   0.8481933333333332    0.1392000000000000    0.2149450000000000 C
   0.8505900000000000    0.0815600000000000    0.2150050000000000 C
   0.8305800000000000    0.0507700000000000    0.1853400000000000 C
   0.8096699999999999    0.0792800000000000    0.1554100000000000 C
   0.8090400000000000    0.1369100000000000    0.1565950000000000 C
   0.8781033333333332    0.0577000000000000    0.2433400000000000 C
   0.7897733333333333    0.0497500000000000    0.1197600000000000 C
   0.3158033333333333    0.1439200000000000    0.8915900000000000 C
   0.3141833333333333    0.0870700000000000    0.8846499999999999 C
   0.3298166666666666    0.0518200000000000    0.9148300000000000 C
   0.0147533333333333    0.0752600000000000    0.9502550000000001 C
   0.0150566666666667    0.1326300000000000    0.9559250000000000 C
   0.2981900000000000    0.0675000000000000    0.8425250000000000 C
   0.0346866666666667    0.0386600000000000    0.9804500000000000 C
   0.0144000000000000    0.3609100000000000    0.9656300000000000 C
   0.0171200000000000    0.4185400000000000    0.9662450000000000 C
   0.3305966666666666    0.4496500000000000    0.9369449999999999 C
   0.3094600000000000    0.4214400000000000    0.9068499999999999 C
   0.3084833333333333    0.3638000000000000    0.9074599999999999 C
   0.0449466666666667    0.4420100000000000    0.9945250000000000 C
   0.2897033333333333    0.4514100000000000    0.8715999999999999 C
   0.0164600000000000    0.8566000000000000    0.6413450000000001 C
   0.0179666666666667    0.9134100000000001    0.6342600000000000 C
   0.0020866666666667    0.9487300000000000    0.6640500000000000 C
   0.3170933333333333    0.9253900000000000    0.6993900000000000 C
   0.3169100000000000    0.8680600000000001    0.7052250000000000 C
   0.0342900000000000    0.9327700000000000    0.5924250000000000 C
   0.2972466666666667    0.9622300000000000    0.7294550000000000 C
   0.3178233333333333    0.6400800000000000    0.7152499999999999 C
   0.3149166666666666    0.5824800000000000    0.7160150000000001 C
   0.0000000000000000    0.5510699999999999    0.6868750000000000 C
   0.0225700000000000    0.5789800000000001    0.6568150000000000 C
   0.0237500000000000    0.6366200000000000    0.6573550000000000 C
   0.2868866666666666    0.5597299999999999    0.7442550000000000 C
   0.0421533333333333    0.5486900000000000    0.6215500000000000 C
   0.1839200000000000    0.6447200000000000    0.8941900000000000 C
   0.1854700000000000    0.5878800000000000    0.8875100000000000 C
   0.1696533333333333    0.5525800000000000    0.9175900000000000 C
   0.1513100000000000    0.5759500000000000    0.9527050000000000 C
   0.1510566666666667    0.6333600000000000    0.9581550000000000 C
   0.2016733333333333    0.5682199999999999    0.8457950000000001 C
   0.1313166666666667    0.5390500000000000    0.9827699999999999 C
   0.1519100000000000    0.8620000000000000    0.9655350000000000 C
   0.1490733333333333    0.9195700000000000    0.9652499999999999 C
   0.1688366666666667    0.9504400000000000    0.9355500000000000 C
   0.1900000000000000    0.9220200000000000    0.9059400000000000 C
   0.1910900000000000    0.8644400000000000    0.9074700000000000 C
   0.1211133333333333    0.9428000000000000    0.9931099999999999 C
   0.2094733333333333    0.9515900000000000    0.8700000000000000 C
   0.1489966666666667    0.3567400000000000    0.6435350000000000 C
   0.1468500000000000    0.4136200000000000    0.6373400000000000 C
   0.1620600000000000    0.4489400000000000    0.6680500000000000 C
   0.1804766666666666    0.4256500000000000    0.7032499999999999 C
   0.1813366666666666    0.3682100000000000    0.7081600000000000 C
   0.1307600000000000    0.4334500000000000    0.5954699999999999 C
   0.2000700000000000    0.4627300000000000    0.7338300000000000 C
   0.1815266666666666    0.1392000000000000    0.7149449999999999 C
   0.1839233333333333    0.0815600000000000    0.7150050000000000 C
   0.1639133333333333    0.0507700000000000    0.6853400000000001 C
   0.1430033333333333    0.0792800000000000    0.6554100000000000 C
   0.1423733333333333    0.1369100000000000    0.6565950000000000 C
   0.2114366666666667    0.0577000000000000    0.7433400000000000 C
   0.1231066666666667    0.0497500000000000    0.6197600000000000 C
   0.6491366666666667    0.1439200000000000    0.8915900000000000 C
   0.6475166666666666    0.0870700000000000    0.8846499999999999 C
   0.6631499999999999    0.0518200000000000    0.9148300000000000 C
   0.3480866666666667    0.0752600000000000    0.9502550000000001 C
   0.3483900000000000    0.1326300000000000    0.9559250000000000 C