C4 O8
1.0
  29.6048034938184195    0.0000000000000000   -2.7036261007019373
   3.3856922846016513   39.1069940943628040   -1.6513765946814380
   0.0000000000000000    0.0000000000000000   39.2999999999999972
C O
4 8
direct
   0.3523250000000000    0.0086033333333333    0.3247266666666667 C
   0.3523250000000000    0.3419366666666667    0.6580600000000000 C
   0.3976800000000000    0.9913966666666666    0.3419366666666667 C
   0.3976800000000000    0.3247300000000000    0.6752699999999999 C
   0.4144150000000000    0.9642933333333332    0.3275700000000000 O
   0.3355600000000000    0.9942266666666666    0.2976166666666666 O
   0.4144150000000000    0.2976266666666667    0.6609033333333333 O
   0.3355600000000000    0.3275600000000000    0.6309499999999999 O
   0.3355900000000000    0.0357066666666667    0.3390666666666666 O
   0.4144500000000000    0.0057733333333333    0.3690466666666666 O
   0.3355900000000000    0.3690400000000000    0.6724000000000000 O
   0.4144500000000000    0.3391066666666667    0.7023800000000000 O
