H2 O2
1.0
  29.6048034938184195    0.0000000000000000   -2.7036261007019373
   3.3856922846016513   39.1069940943628040   -1.6513765946814380
   0.0000000000000000    0.0000000000000000   39.2999999999999972
H O
2 2
direct
   0.7881921666890193    0.9086343263562067    0.0144189352705661 H
   0.7882834166302054    0.6522514330118527    0.0914840366777276 H
   0.8154350000000000    0.8976733333333333    0.0266833333333333 O
   0.8155399999999999    0.6399500000000000    0.1023800000000000 O
