H3 O2
1.0
  27.9359998936275993    0.0000000000000000   -0.0024378758960896
 -13.2088824298272627   25.9563612051069335    0.0106745032793717
   0.0000000000000000    0.0000000000000000   24.1649999999999991
H O
3 2
direct
   0.4458092088024991    0.5724563455670315    0.6587627242611049 H
   0.4295605110608975    0.5258103440839436    0.5708297318174399 H
   0.1099616483341239    0.5193321175547549    0.6409792079903327 H
   0.4805700000000000    0.5736150000000000    0.6520300000000000 O
   0.4664600000000000    0.5312150000000000    0.5719300000000000 O
