H4 C7 O2
1.0
  27.9359998936275993    0.0000000000000000   -0.0024378758960896
 -13.2088824298272627   25.9563612051069335    0.0106745032793717
   0.0000000000000000    0.0000000000000000   24.1649999999999991
H C O
4 7 2
direct
   0.4267450000000000    0.7071400000000000    0.6040000000000000 H
   0.4669050000000000    0.6534300000000000    0.6445400000000000 H
   0.4057750000000000    0.5482600000000000    0.5079600000000000 H
   0.3643900000000000    0.6002350000000000    0.4682000000000000 H
   0.3921500000000000    0.6574750000000000    0.5336400000000000 C
   0.4217100000000000    0.6721750000000000    0.5832000000000001 C
   0.4444600000000000    0.6425149999999999    0.6058000000000000 C
   0.4386800000000000    0.5977050000000000    0.5787700000000000 C
   0.4099050000000000    0.5829550000000000    0.5289600000000000 C
   0.3868200000000000    0.6124150000000000    0.5069500000000000 C
   0.4633300000000000    0.5661100000000000    0.6026600000000000 C
   0.4805700000000000    0.5736150000000000    0.6520300000000000 O
   0.4664600000000000    0.5312150000000000    0.5719300000000000 O
