H1 O1
1.0
  27.9359998936275993    0.0000000000000000   -0.0024378758960896
 -13.2088824298272627   25.9563612051069335    0.0106745032793717
   0.0000000000000000    0.0000000000000000   24.1649999999999991
H O
1 1
direct
   0.5934645979357408    0.0438810488495255    0.7476775376363808 H
   0.5564950000000000    0.0272600000000000    0.7339500000000000 O
