H5 C7 O2
1.0
  27.9359998936275993    0.0000000000000000   -0.0024378758960896
 -13.2088824298272627   25.9563612051069335    0.0106745032793717
   0.0000000000000000    0.0000000000000000   24.1649999999999991
H C O
5 7 2
direct
   0.7186450000000000    0.0863200000000000    0.9030800000000000 H
   0.7014650000000000    0.0827000000000000    0.8024100000000000 H
   0.5320600000000000    0.0227950000000000    0.8330600000000000 H
   0.5486350000000000    0.0281550000000000    0.9340300000000000 H
   0.6335700000000000    0.0656750000000000    0.6777900000000000 H
   0.6349450000000000    0.0561400000000000    0.9265800000000000 C
   0.6774500000000000    0.0718800000000000    0.8883900000000000 C
   0.6681550000000001    0.0701100000000000    0.8315000000000000 C
   0.6155600000000000    0.0518300000000000    0.8115000000000000 C
   0.5726800000000000    0.0363550000000000    0.8490400000000000 C
   0.5824600000000000    0.0390700000000000    0.9056500000000000 C
   0.6037050000000000    0.0484850000000000    0.7514800000000000 C
   0.5564950000000000    0.0272600000000000    0.7339500000000000 O
   0.6460950000000000    0.0692900000000000    0.7185100000000000 O
