H4 C4 O6
1.0
   9.5344999999999995    0.0000000000000000    0.0000000000000006
  -0.0220446063939954   33.2384926897314159    0.0000000000000020
   0.0000000000000000    0.0000000000000000   17.0590000000000011
H C O
4 4 6
direct
   0.7323000000000000    0.2208400000000000    0.8621000000000000 H
   0.6792200000000000    0.2876533333333333    0.8244600000000000 H
   0.8890700000000000    0.2373433333333334    0.9605300000000000 H
   0.8629300000000000    0.3191766666666667    0.7816600000000000 H
   0.8792700000000000    0.2324700000000000    0.7692600000000001 C
   0.8234200000000000    0.2407966666666667    0.8527600000000000 C
   0.7738000000000000    0.2842766666666666    0.8613700000000000 C
   0.7282300000000000    0.2962366666666666    0.9442000000000000 C
   0.0000000000000000    0.2170333333333333    0.7633300000000000 O
   0.7991200000000001    0.2415800000000000    0.7127599999999999 O
   0.9310600000000000    0.2311800000000000    0.9092100000000000 O
   0.8796100000000000    0.3129700000000000    0.8391500000000000 O
   0.7281600000000000    0.2710866666666666    0.0001000000000000 O
   0.6910400000000000    0.3334433333333333    0.9497600000000000 O
