H10 O6
1.0
   9.5344999999999995    0.0000000000000000    0.0000000000000006
  -0.0220446063939954   33.2384926897314159    0.0000000000000020
   0.0000000000000000    0.0000000000000000   17.0590000000000011
H O
10 6
direct
   0.6432420176724715    0.3315410376961103    0.8997006952303657 H
   0.7171392575746439    0.2422624291409416   -0.0063444007778558 H
   0.6662564008850804    0.2686229863858173    0.9352677417428080 H
   0.8076395698428948    0.2934532100686021    0.8542637223144398 H
   0.8543441371122965    0.2217655423777309    0.9385213573492310 H
   0.8580816783143869    0.2376999572049732    0.8709377382092822 H
   0.9402922459387620    0.2671911251259527    0.8358285317227163 H
   0.7357320680590751    0.2228403741744737    0.6873322783406486 H
   0.0255505372473049    0.1888205890473633    0.7607905828932496 H
   0.8590799617039888    0.1753725832800394    0.7068006985967678 H
   0.6910400000000000    0.3334433333333333    0.9497600000000000 O
   0.7281600000000000    0.2710866666666666    0.0001000000000000 O
   0.8796100000000000    0.3129700000000000    0.8391500000000000 O
   0.9310600000000000    0.2311800000000000    0.9092100000000000 O
   0.7991200000000001    0.2415800000000000    0.7127599999999999 O
   0.0000000000000000    0.2170333333333333    0.7633300000000000 O
