Ca24 H92 C92 O138
1.0
   9.5344999999999995    0.0000000000000000    0.0000000000000006
  -0.0220446063939954   33.2384926897314159    0.0000000000000020
   0.0000000000000000    0.0000000000000000   17.0590000000000011
Ca H C O
24 92 92 138
direct
   0.3340000000000000    0.1164066666666667    0.1133500000000000 Ca
   0.1647900000000000    0.2163633333333333    0.8633400000000000 Ca
   0.1647900000000000    0.2163633333333333    0.3633300000000000 Ca
   0.6652300000000000    0.2834200000000000    0.6366000000000001 Ca
   0.6652300000000000    0.2834200000000000    0.1365900000000000 Ca
   0.8341499999999999    0.0500100000000000    0.8866400000000000 Ca
   0.8341499999999999    0.0500100000000000    0.3866300000000000 Ca
   0.3340000000000000    0.1164066666666667    0.6133600000000000 Ca
   0.3340000000000000    0.4497400000000000    0.1133500000000000 Ca
   0.1647900000000000    0.5496966666666666    0.8633400000000000 Ca
   0.1647900000000000    0.5496966666666666    0.3633300000000000 Ca
   0.6652300000000000    0.6167533333333333    0.6366000000000001 Ca
   0.6652300000000000    0.6167533333333333    0.1365900000000000 Ca
   0.8341499999999999    0.3833433333333333    0.8866400000000000 Ca
   0.8341499999999999    0.3833433333333333    0.3866300000000000 Ca
   0.3340000000000000    0.4497400000000000    0.6133600000000000 Ca
   0.3340000000000000    0.7830733333333333    0.1133500000000000 Ca
   0.1647900000000000    0.8830300000000000    0.8633400000000000 Ca
   0.1647900000000000    0.8830300000000000    0.3633300000000000 Ca
   0.6652300000000000    0.9500866666666666    0.6366000000000001 Ca
   0.6652300000000000    0.9500866666666666    0.1365900000000000 Ca
   0.8341499999999999    0.7166766666666666    0.8866400000000000 Ca
   0.8341499999999999    0.7166766666666666    0.3866300000000000 Ca
   0.3340000000000000    0.7830733333333333    0.6133600000000000 Ca
   0.7651900000000000    0.1122866666666667    0.6130900000000000 H
   0.7651900000000000    0.1122866666666667    0.1130800000000000 H
   0.8209300000000000    0.0455900000000000    0.5741600000000000 H
   0.8209300000000000    0.0455900000000000    0.0741400000000000 H
   0.6086000000000000    0.0948100000000000    0.7107000000000000 H
   0.6086000000000000    0.0948100000000000    0.2106900000000000 H
   0.6368600000000000    0.0138033333333333    0.5316300000000000 H
   0.6368600000000000    0.0138033333333333    0.0316100000000000 H
   0.7323000000000000    0.2208400000000000    0.3620800000000000 H
   0.6792200000000000    0.2876533333333333    0.3244500000000000 H
   0.8890700000000000    0.2373433333333334    0.4605200000000000 H
   0.8629300000000000    0.3191766666666667    0.2816500000000000 H
   0.2342200000000000    0.2786233333333333    0.6368800000000000 H
   0.2342200000000000    0.2786233333333333    0.1368600000000000 H
   0.1787600000000000    0.2119466666666666    0.6756500000000000 H
   0.1787600000000000    0.2119466666666666    0.1756300000000000 H
   0.3911300000000000    0.2613100000000000    0.5392500000000000 H
   0.3911300000000000    0.2613100000000000    0.0392400000000000 H
   0.3621600000000000    0.1802200000000000    0.7183900000000000 H
   0.3621600000000000    0.1802200000000000    0.2183800000000000 H
   0.2669600000000000    0.0540466666666667    0.8877300000000000 H
   0.2669600000000000    0.0540466666666667    0.3877200000000000 H
   0.3201200000000000    0.1208966666666667    0.9256799999999999 H
   0.3201200000000000    0.1208966666666667    0.4256700000000000 H
   0.1102000000000000    0.0706100000000000    0.7893700000000000 H
   0.1102000000000000    0.0706100000000000    0.2893600000000000 H
   0.1356600000000000    0.1522433333333333    0.9682700000000000 H
   0.1356600000000000    0.1522433333333333    0.4682600000000000 H
   0.7651900000000000    0.4456200000000000    0.6130900000000000 H
   0.7651900000000000    0.4456200000000000    0.1130800000000000 H
   0.8209300000000000    0.3789233333333333    0.5741600000000000 H
   0.8209300000000000    0.3789233333333333    0.0741400000000000 H
   0.6086000000000000    0.4281433333333333    0.7107000000000000 H
   0.6086000000000000    0.4281433333333333    0.2106900000000000 H
   0.6368600000000000    0.3471366666666666    0.5316300000000000 H
   0.6368600000000000    0.3471366666666666    0.0316100000000000 H
   0.7323000000000000    0.5541733333333333    0.8621000000000000 H
   0.7323000000000000    0.5541733333333333    0.3620800000000000 H
   0.6792200000000000    0.6209866666666666    0.8244600000000000 H
   0.6792200000000000    0.6209866666666666    0.3244500000000000 H
   0.8890700000000000    0.5706766666666667    0.9605300000000000 H
   0.8890700000000000    0.5706766666666667    0.4605200000000000 H
   0.8629300000000000    0.6525099999999999    0.7816600000000000 H
   0.8629300000000000    0.6525099999999999    0.2816500000000000 H
   0.2342200000000000    0.6119566666666667    0.6368800000000000 H
   0.2342200000000000    0.6119566666666667    0.1368600000000000 H
   0.1787600000000000    0.5452800000000000    0.6756500000000000 H
   0.1787600000000000    0.5452800000000000    0.1756300000000000 H
   0.3911300000000000    0.5946433333333333    0.5392500000000000 H
   0.3911300000000000    0.5946433333333333    0.0392400000000000 H
   0.3621600000000000    0.5135533333333333    0.7183900000000000 H
   0.3621600000000000    0.5135533333333333    0.2183800000000000 H
   0.2669600000000000    0.3873800000000000    0.8877300000000000 H
   0.2669600000000000    0.3873800000000000    0.3877200000000000 H
   0.3201200000000000    0.4542300000000000    0.9256799999999999 H
   0.3201200000000000    0.4542300000000000    0.4256700000000000 H
   0.1102000000000000    0.4039433333333333    0.7893700000000000 H
   0.1102000000000000    0.4039433333333333    0.2893600000000000 H
   0.1356600000000000    0.4855766666666667    0.9682700000000000 H
   0.1356600000000000    0.4855766666666667    0.4682600000000000 H
   0.7651900000000000    0.7789533333333333    0.6130900000000000 H
   0.7651900000000000    0.7789533333333333    0.1130800000000000 H
   0.8209300000000000    0.7122566666666666    0.5741600000000000 H
   0.8209300000000000    0.7122566666666666    0.0741400000000000 H
   0.6086000000000000    0.7614766666666666    0.7107000000000000 H
   0.6086000000000000    0.7614766666666666    0.2106900000000000 H
   0.6368600000000000    0.6804699999999999    0.5316300000000000 H
   0.6368600000000000    0.6804699999999999    0.0316100000000000 H
   0.7323000000000000    0.8875066666666667    0.8621000000000000 H
   0.7323000000000000    0.8875066666666667    0.3620800000000000 H
   0.6792200000000000    0.9543199999999999    0.8244600000000000 H
   0.6792200000000000    0.9543199999999999    0.3244500000000000 H
   0.8890700000000000    0.9040100000000000    0.9605300000000000 H
   0.8890700000000000    0.9040100000000000    0.4605200000000000 H
   0.8629300000000000    0.9858433333333333    0.7816600000000000 H
   0.8629300000000000    0.9858433333333333    0.2816500000000000 H
   0.2342200000000000    0.9452900000000000    0.6368800000000000 H
   0.2342200000000000    0.9452900000000000    0.1368600000000000 H
   0.1787600000000000    0.8786133333333332    0.6756500000000000 H
   0.1787600000000000    0.8786133333333332    0.1756300000000000 H
   0.3911300000000000    0.9279766666666667    0.5392500000000000 H
   0.3911300000000000    0.9279766666666667    0.0392400000000000 H
   0.3621600000000000    0.8468866666666666    0.7183900000000000 H
   0.3621600000000000    0.8468866666666666    0.2183800000000000 H
   0.2669600000000000    0.7207133333333333    0.8877300000000000 H
   0.2669600000000000    0.7207133333333333    0.3877200000000000 H
   0.3201200000000000    0.7875633333333333    0.9256799999999999 H
   0.3201200000000000    0.7875633333333333    0.4256700000000000 H
   0.1102000000000000    0.7372766666666666    0.7893700000000000 H
   0.1102000000000000    0.7372766666666666    0.2893600000000000 H
   0.1356600000000000    0.8189100000000000    0.9682700000000000 H
   0.1356600000000000    0.8189100000000000    0.4682600000000000 H
   0.6199300000000000    0.1006666666666667    0.5195000000000000 C
   0.6199300000000000    0.1006666666666667    0.0194800000000000 C
   0.6751600000000000    0.0920200000000000    0.6030300000000000 C
   0.6751600000000000    0.0920200000000000    0.1030100000000000 C
   0.7265000000000000    0.0487200000000000    0.6112600000000000 C
   0.7265000000000000    0.0487200000000000    0.1112400000000000 C
   0.7728200000000000    0.0368833333333333    0.6940200000000000 C
   0.7728200000000000    0.0368833333333333    0.1940100000000000 C
   0.8792700000000000    0.2324700000000000    0.2692500000000000 C
   0.8234200000000000    0.2407966666666667    0.3527500000000000 C
   0.7738000000000000    0.2842766666666666    0.3613600000000000 C
   0.7282300000000000    0.2962366666666666    0.4441900000000000 C
   0.3795600000000000    0.2671333333333333    0.7304900000000000 C
   0.3795600000000000    0.2671333333333333    0.2304700000000000 C
   0.3244200000000000    0.2584433333333333    0.6469100000000000 C
   0.3244200000000000    0.2584433333333333    0.1469000000000000 C
   0.2732700000000000    0.2150933333333333    0.6386100000000000 C
   0.2732700000000000    0.2150933333333333    0.1386000000000000 C
   0.2270800000000000    0.2031533333333333    0.5558400000000000 C
   0.2270800000000000    0.2031533333333333    0.0558300000000000 C
   0.1200900000000000    0.0656600000000000    0.9806100000000000 C
   0.1200900000000000    0.0656600000000000    0.4806000000000000 C
   0.1759500000000000    0.0740000000000000    0.8971300000000000 C
   0.1759500000000000    0.0740000000000000    0.3971100000000000 C
   0.2257100000000000    0.1174866666666667    0.8886300000000000 C
   0.2257100000000000    0.1174866666666667    0.3886200000000000 C
   0.2716200000000000    0.1294500000000000    0.8058800000000000 C
   0.2716200000000000    0.1294500000000000    0.3058600000000000 C
   0.6199300000000000    0.4339999999999999    0.5195000000000000 C
   0.6199300000000000    0.4339999999999999    0.0194800000000000 C
   0.6751600000000000    0.4253533333333333    0.6030300000000000 C
   0.6751600000000000    0.4253533333333333    0.1030100000000000 C
   0.7265000000000000    0.3820533333333333    0.6112600000000000 C
   0.7265000000000000    0.3820533333333333    0.1112400000000000 C
   0.7728200000000000    0.3702166666666666    0.6940200000000000 C
   0.7728200000000000    0.3702166666666666    0.1940100000000000 C
   0.8792700000000000    0.5658033333333333    0.7692600000000001 C
   0.8792700000000000    0.5658033333333333    0.2692500000000000 C
   0.8234200000000000    0.5741300000000000    0.8527600000000000 C
   0.8234200000000000    0.5741300000000000    0.3527500000000000 C
   0.7738000000000000    0.6176100000000000    0.8613700000000000 C
   0.7738000000000000    0.6176100000000000    0.3613600000000000 C
   0.7282300000000000    0.6295700000000000    0.9442000000000000 C
   0.7282300000000000    0.6295700000000000    0.4441900000000000 C
   0.3795600000000000    0.6004666666666667    0.7304900000000000 C
   0.3795600000000000    0.6004666666666667    0.2304700000000000 C
   0.3244200000000000    0.5917766666666666    0.6469100000000000 C
   0.3244200000000000    0.5917766666666666    0.1469000000000000 C
   0.2732700000000000    0.5484266666666666    0.6386100000000000 C
   0.2732700000000000    0.5484266666666666    0.1386000000000000 C
   0.2270800000000000    0.5364866666666667    0.5558400000000000 C
   0.2270800000000000    0.5364866666666667    0.0558300000000000 C
   0.1200900000000000    0.3989933333333333    0.9806100000000000 C
   0.1200900000000000    0.3989933333333333    0.4806000000000000 C
   0.1759500000000000    0.4073333333333333    0.8971300000000000 C
   0.1759500000000000    0.4073333333333333    0.3971100000000000 C
   0.2257100000000000    0.4508200000000000    0.8886300000000000 C
   0.2257100000000000    0.4508200000000000    0.3886200000000000 C
   0.2716200000000000    0.4627833333333333    0.8058800000000000 C
   0.2716200000000000    0.4627833333333333    0.3058600000000000 C
   0.6199300000000000    0.7673333333333333    0.5195000000000000 C
   0.6199300000000000    0.7673333333333333    0.0194800000000000 C
   0.6751600000000000    0.7586866666666666    0.6030300000000000 C
   0.6751600000000000    0.7586866666666666    0.1030100000000000 C
   0.7265000000000000    0.7153866666666666    0.6112600000000000 C
   0.7265000000000000    0.7153866666666666    0.1112400000000000 C
   0.7728200000000000    0.7035500000000000    0.6940200000000000 C
   0.7728200000000000    0.7035500000000000    0.1940100000000000 C
   0.8792700000000000    0.8991366666666666    0.7692600000000001 C
   0.8792700000000000    0.8991366666666666    0.2692500000000000 C
   0.8234200000000000    0.9074633333333333    0.8527600000000000 C
   0.8234200000000000    0.9074633333333333    0.3527500000000000 C
   0.7738000000000000    0.9509433333333333    0.8613700000000000 C
   0.7738000000000000    0.9509433333333333    0.3613600000000000 C
   0.7282300000000000    0.9629033333333332    0.9442000000000000 C
   0.7282300000000000    0.9629033333333332    0.4441900000000000 C
   0.3795600000000000    0.9338000000000000    0.7304900000000000 C
   0.3795600000000000    0.9338000000000000    0.2304700000000000 C
   0.3244200000000000    0.9251099999999999    0.6469100000000000 C
   0.3244200000000000    0.9251099999999999    0.1469000000000000 C
   0.2732700000000000    0.8817599999999999    0.6386100000000000 C
   0.2732700000000000    0.8817599999999999    0.1386000000000000 C
   0.2270800000000000    0.8698199999999999    0.5558400000000000 C
   0.2270800000000000    0.8698199999999999    0.0558300000000000 C
   0.1200900000000000    0.7323266666666666    0.9806100000000000 C
   0.1200900000000000    0.7323266666666666    0.4806000000000000 C
   0.1759500000000000    0.7406666666666666    0.8971300000000000 C
   0.1759500000000000    0.7406666666666666    0.3971100000000000 C
   0.2257100000000000    0.7841533333333333    0.8886300000000000 C
   0.2257100000000000    0.7841533333333333    0.3886200000000000 C
   0.2716200000000000    0.7961166666666666    0.8058800000000000 C
   0.2716200000000000    0.7961166666666666    0.3058600000000000 C
   0.4993800000000000    0.1162233333333333    0.5134800000000000 O
   0.4993800000000000    0.1162233333333333    0.0134700000000000 O
   0.7005000000000000    0.0917800000000000    0.4630400000000000 O
   0.7005000000000000    0.0917800000000000    0.0000000000000000 O
   0.5664900000000000    0.1008166666666667    0.6593500000000000 O
   0.5664900000000000    0.1008166666666667    0.1593300000000000 O
   0.6213100000000000    0.0197866666666667    0.5893699999999999 O
   0.6213100000000000    0.0197866666666667    0.0893500000000000 O
   0.7718500000000000    0.0620000000000000    0.7500200000000000 O
   0.7718500000000000    0.0620000000000000    0.2500000000000000 O
   0.8064600000000000    0.3333266666666667    0.7000400000000000 O
   0.8064600000000000    0.3333266666666667    0.2000200000000000 O
   0.0000000000000000    0.2170333333333333    0.2633100000000000 O
   0.7991200000000001    0.2415800000000000    0.2127500000000000 O
   0.9310600000000000    0.2311800000000000    0.4092000000000000 O
   0.8796100000000000    0.3129700000000000    0.3391400000000000 O
   0.7281600000000000    0.2710866666666666    0.5001100000000001 O
   0.6910400000000000    0.0001100000000000    0.9497600000000000 O
   0.6910400000000000    0.0001100000000000    0.4497500000000000 O
   0.4999500000000000    0.2828533333333333    0.7364800000000000 O
   0.4999500000000000    0.2828533333333333    0.2364700000000000 O
   0.2990900000000000    0.2581433333333333    0.7869400000000000 O
   0.2990900000000000    0.2581433333333333    0.2869200000000000 O
   0.4330400000000000    0.2674200000000000    0.5906200000000000 O
   0.4330400000000000    0.2674200000000000    0.0906100000000000 O
   0.3783400000000000    0.1861900000000000    0.6607100000000000 O
   0.3783400000000000    0.1861900000000000    0.1607000000000000 O
   0.2283600000000000    0.2281833333333333    0.9997300000000000 O
   0.2283600000000000    0.2281833333333333    0.4997100000000000 O
   0.1906700000000000    0.1661733333333333    0.5502200000000000 O
   0.1906700000000000    0.1661733333333333    0.0502000000000000 O
   0.9991500000000000    0.0503333333333333    0.9866100000000000 O
   0.9991500000000000    0.0503333333333333    0.4865900000000000 O
   0.2004800000000000    0.0746900000000000    0.0370600000000000 O
   0.2004800000000000    0.0746900000000000    0.5370500000000000 O
   0.0681900000000000    0.0644566666666667    0.8406900000000000 O
   0.0681900000000000    0.0644566666666667    0.3406800000000000 O
   0.1197800000000000    0.1461333333333333    0.9106400000000000 O
   0.1197800000000000    0.1461333333333333    0.4106300000000000 O
   0.2717300000000000    0.1043166666666667    0.7499400000000001 O
   0.2717300000000000    0.1043166666666667    0.2499300000000000 O
   0.3064900000000000    0.1665633333333333    0.8001000000000000 O
   0.3064900000000000    0.1665633333333333    0.3000800000000000 O
   0.4993800000000000    0.4495566666666666    0.5134800000000000 O
   0.4993800000000000    0.4495566666666666    0.0134700000000000 O
   0.7005000000000000    0.4251133333333333    0.4630400000000000 O
   0.7005000000000000    0.4251133333333333    0.0000000000000000 O
   0.5664900000000000    0.4341500000000000    0.6593500000000000 O
   0.5664900000000000    0.4341500000000000    0.1593300000000000 O
   0.6213100000000000    0.3531200000000000    0.5893699999999999 O
   0.6213100000000000    0.3531200000000000    0.0893500000000000 O
   0.7718500000000000    0.3953333333333333    0.7500200000000000 O
   0.7718500000000000    0.3953333333333333    0.2500000000000000 O
   0.8064600000000000    0.6666600000000000    0.7000400000000000 O
   0.8064600000000000    0.6666600000000000    0.2000200000000000 O
   0.0000000000000000    0.5503666666666667    0.7633300000000000 O
   0.0000000000000000    0.5503666666666667    0.2633100000000000 O
   0.7991200000000001    0.5749133333333334    0.7127599999999999 O
   0.7991200000000001    0.5749133333333334    0.2127500000000000 O
   0.9310600000000000    0.5645133333333333    0.9092100000000000 O
   0.9310600000000000    0.5645133333333333    0.4092000000000000 O
   0.8796100000000000    0.6463033333333332    0.8391500000000000 O
   0.8796100000000000    0.6463033333333332    0.3391400000000000 O
   0.7281600000000000    0.6044200000000000    0.5001100000000001 O
   0.7281600000000000    0.6044200000000000    0.0001000000000000 O
   0.6910400000000000    0.3334433333333333    0.4497500000000000 O
   0.4999500000000000    0.6161866666666667    0.7364800000000000 O
   0.4999500000000000    0.6161866666666667    0.2364700000000000 O
   0.2990900000000000    0.5914766666666667    0.7869400000000000 O
   0.2990900000000000    0.5914766666666667    0.2869200000000000 O
   0.4330400000000000    0.6007533333333333    0.5906200000000000 O
   0.4330400000000000    0.6007533333333333    0.0906100000000000 O
   0.3783400000000000    0.5195233333333333    0.6607100000000000 O
   0.3783400000000000    0.5195233333333333    0.1607000000000000 O
   0.2283600000000000    0.5615166666666667    0.9997300000000000 O
   0.2283600000000000    0.5615166666666667    0.4997100000000000 O
   0.1906700000000000    0.4995066666666667    0.5502200000000000 O
   0.1906700000000000    0.4995066666666667    0.0502000000000000 O
   0.9991500000000000    0.3836666666666667    0.9866100000000000 O
   0.9991500000000000    0.3836666666666667    0.4865900000000000 O
   0.2004800000000000    0.4080233333333333    0.0370600000000000 O
   0.2004800000000000    0.4080233333333333    0.5370500000000000 O
   0.0681900000000000    0.3977900000000000    0.8406900000000000 O
   0.0681900000000000    0.3977900000000000    0.3406800000000000 O
   0.1197800000000000    0.4794666666666667    0.9106400000000000 O
   0.1197800000000000    0.4794666666666667    0.4106300000000000 O
   0.2717300000000000    0.4376500000000000    0.7499400000000001 O
   0.2717300000000000    0.4376500000000000    0.2499300000000000 O
   0.3064900000000000    0.4998966666666667    0.8001000000000000 O
   0.3064900000000000    0.4998966666666667    0.3000800000000000 O
   0.4993800000000000    0.7828900000000000    0.5134800000000000 O
   0.4993800000000000    0.7828900000000000    0.0134700000000000 O
   0.7005000000000000    0.7584466666666666    0.4630400000000000 O
   0.7005000000000000    0.7584466666666666    0.0000000000000000 O
   0.5664900000000000    0.7674833333333333    0.6593500000000000 O
   0.5664900000000000    0.7674833333333333    0.1593300000000000 O
   0.6213100000000000    0.6864533333333332    0.5893699999999999 O
   0.6213100000000000    0.6864533333333332    0.0893500000000000 O
   0.7718500000000000    0.7286666666666666    0.7500200000000000 O
   0.7718500000000000    0.7286666666666666    0.2500000000000000 O
   0.8064600000000000    0.9999933333333333    0.7000400000000000 O
   0.8064600000000000    0.9999933333333333    0.2000200000000000 O
   0.0000000000000000    0.8836999999999999    0.7633300000000000 O
   0.0000000000000000    0.8836999999999999    0.2633100000000000 O
   0.7991200000000001    0.9082466666666666    0.7127599999999999 O
   0.7991200000000001    0.9082466666666666    0.2127500000000000 O
   0.9310600000000000    0.8978466666666667    0.9092100000000000 O
   0.9310600000000000    0.8978466666666667    0.4092000000000000 O
   0.8796100000000000    0.9796366666666666    0.8391500000000000 O
   0.8796100000000000    0.9796366666666666    0.3391400000000000 O
   0.7281600000000000    0.9377533333333332    0.5001100000000001 O
   0.7281600000000000    0.9377533333333332    0.0001000000000000 O
   0.6910400000000000    0.6667766666666667    0.9497600000000000 O
   0.6910400000000000    0.6667766666666667    0.4497500000000000 O
   0.4999500000000000    0.9495199999999999    0.7364800000000000 O
   0.4999500000000000    0.9495199999999999    0.2364700000000000 O
   0.2990900000000000    0.9248099999999999    0.7869400000000000 O
   0.2990900000000000    0.9248099999999999    0.2869200000000000 O
   0.4330400000000000    0.9340866666666666    0.5906200000000000 O
   0.4330400000000000    0.9340866666666666    0.0906100000000000 O
   0.3783400000000000    0.8528566666666666    0.6607100000000000 O
   0.3783400000000000    0.8528566666666666    0.1607000000000000 O
   0.2283600000000000    0.8948499999999999    0.9997300000000000 O
   0.2283600000000000    0.8948499999999999    0.4997100000000000 O
   0.1906700000000000    0.8328400000000000    0.5502200000000000 O
   0.1906700000000000    0.8328400000000000    0.0502000000000000 O
   0.9991500000000000    0.7170000000000000    0.9866100000000000 O
   0.9991500000000000    0.7170000000000000    0.4865900000000000 O
   0.2004800000000000    0.7413566666666667    0.0370600000000000 O
   0.2004800000000000    0.7413566666666667    0.5370500000000000 O
   0.0681900000000000    0.7311233333333333    0.8406900000000000 O
   0.0681900000000000    0.7311233333333333    0.3406800000000000 O
   0.1197800000000000    0.8128000000000000    0.9106400000000000 O
   0.1197800000000000    0.8128000000000000    0.4106300000000000 O
   0.2717300000000000    0.7709833333333334    0.7499400000000001 O
   0.2717300000000000    0.7709833333333334    0.2499300000000000 O
   0.3064900000000000    0.8332299999999999    0.8001000000000000 O
   0.3064900000000000    0.8332299999999999    0.3000800000000000 O
