P1 H7 C5 N1 O7
1.0
   8.9189493994647506    0.0000000000000000   -0.0300434649694337
  -0.0291085900901343   10.1034573897671400   -0.0037031260775704
   0.0000000000000000    0.0000000000000000   15.0510000000000002
P H C N O
1 7 5 1 7
direct
   0.0001400000000000    0.1351800000000000    0.2847900000000000 P
   0.8065200000000000    0.1500800000000000    0.1765600000000000 H
   0.8963500000000000    0.3070200000000000    0.1864800000000000 H
   0.8694000000000000    0.4283400000000000    0.3138400000000000 H
   0.6788000000000000    0.4536100000000000    0.3345000000000000 H
   0.5760800000000000    0.3756700000000000    0.2055000000000000 H
   0.5715800000000000    0.2016600000000000    0.1880000000000000 H
   0.1944300000000000    0.2694900000000000    0.3212200000000000 H
   0.8515000000000000    0.2223200000000000    0.2244100000000000 C
   0.7684000000000000    0.3793300000000000    0.3395100000000000 C
   0.7918300000000000    0.3525900000000000    0.4381700000000000 C
   0.5838900000000000    0.2790500000000000    0.2390700000000000 C
   0.4516600000000000    0.2586000000000000    0.3021200000000000 C
   0.7289600000000001    0.2607600000000000    0.2855700000000000 N
   0.7628000000000000    0.2401500000000000    0.4702600000000000 O
   0.8368600000000000    0.4511800000000000    0.4843300000000000 O
   0.3319400000000000    0.3190500000000000    0.2845200000000000 O
   0.4710600000000000    0.1774300000000000    0.3666100000000000 O
   0.0866200000000000    0.2380600000000000    0.3433700000000000 O
   0.1018500000000000    1.0714200000000000    0.2155700000000000 O
   0.9155000000000000    0.0376400000000000    0.3447500000000000 O
