Y4 P3 H30 C15 N3 O27
1.0
   8.9189493994647506    0.0000000000000000   -0.0300434649694337
  -0.0291085900901343   10.1034573897671400   -0.0037031260775704
   0.0000000000000000    0.0000000000000000   15.0510000000000002
Y P H C N O
4 3 30 15 3 27
direct
   0.8146099999999999    0.5599700000000000    0.6111799999999999 Y
   0.3154300000000000    0.4401000000000000    0.8916100000000000 Y
   0.6823000000000000    0.0594900000000000    0.3912600000000000 Y
   0.1804500000000000    0.9400200000000000    0.1097100000000000 Y
   0.9959400000000000    0.3647400000000000    0.7858900000000000 P
   0.4966200000000000    0.6354800000000000    0.7168000000000000 P
   0.4985200000000000    0.8647100000000000    0.2163400000000000 P
   0.4562580961661025    0.2393614708349205    0.3174051145232965 H
   0.8097746846960829    0.2354089596889389    0.2452352022522243 H
   0.6331082916175164    0.2728447021873277    0.2548461808796754 H
   0.8875398748192485    0.3702069277447376    0.4674527215973791 H
   0.7829966532929249    0.3322137661878841    0.4563532629136007 H
   0.8030300000000000    0.2300700000000000    0.8218100000000000 H
   0.1295500000000000    0.0704500000000000    0.8120200000000000 H
   0.3204100000000000    0.0476000000000000    0.8336500000000000 H
   0.1874800000000000    0.3517900000000000    0.6768999999999999 H
   0.0982600000000000    0.1944900000000000    0.6861500000000000 H
   0.4237300000000000    0.3005900000000000    0.6877500000000000 H
   0.4195000000000000    0.1262700000000000    0.7040600000000000 H
   0.3037300000000000    0.7700800000000000    0.6814100000000000 H
   0.6314600000000000    0.9298999999999999    0.6895100000000000 H
   0.8224100000000000    0.9529600000000000    0.6684000000000000 H
   0.6897500000000000    0.6492900000000000    0.8255900000000000 H
   0.6010000000000000    0.8063200000000000    0.8160400000000000 H
   0.9251400000000000    0.7006000000000000    0.8150100000000000 H
   0.9221500000000000    0.8747900000000000    0.7982900000000001 H
   0.9338063327643603    0.0756794677523034    0.4029796763001735 H
   0.9457993053515695    0.9477653793247426    0.4093180534202182 H
   0.6911100000000000    0.7301299999999999    0.1798100000000000 H
   0.3622600000000000    0.5688800000000001    0.1894600000000000 H
   0.1715700000000000    0.5483600000000000    0.1655900000000000 H
   0.3061300000000000    0.8504300000000000    0.3247500000000000 H
   0.3947900000000000    0.6934000000000000    0.3149300000000000 H
   0.0701900000000000    0.7999600000000000    0.3128500000000000 H
   0.0734100000000000    0.6256900000000000    0.2964100000000000 H
   0.1966660183496327    1.1176436524381188    0.2091505884522456 H
   1.1377316358770020    0.1459798994846415    0.3297040578221221 H
   0.5447600000000000    0.2418900000000000    0.8016799999999999 C
   0.2060200000000000    0.1465000000000000    0.9369700000000000 C
   0.2295800000000000    0.1207100000000000    0.8383400000000000 C
   0.1436900000000000    0.2788300000000000    0.7244400000000000 C
   0.4120100000000000    0.2224400000000000    0.7382600000000000 C
   0.0461200000000000    0.7583400000000000    0.7013300000000000 C
   0.7074100000000000    0.8533800000000000    0.5648500000000000 C
   0.7312100000000000    0.8797100000000000    0.6635700000000000 C
   0.6455900000000000    0.7219000000000000    0.7779100000000000 C
   0.9137800000000000    0.7784700000000000    0.7642700000000000 C
   0.9492699999999999    0.7414600000000000    0.1987800000000000 C
   0.2906500000000000    0.6472500000000000    0.0640500000000000 C
   0.2640700000000000    0.6204900000000000    0.1623200000000000 C
   0.3500200000000000    0.7780500000000000    0.2769700000000000 C
   0.0816900000000000    0.7218700000000000    0.2622900000000000 C
   0.2675600000000000    0.2399500000000000    0.7850000000000000 N
   0.7689400000000000    0.7607200000000000    0.7172800000000000 N
   0.2264700000000000    0.7395000000000000    0.2158900000000000 N
   0.4710600000000000    0.1774300000000000    0.3666100000000000 O
   0.7289600000000001    0.2607600000000000    0.2855700000000000 O
   0.8368600000000000    0.4511800000000000    0.4843300000000000 O
   0.7628000000000000    0.2401500000000000    0.4702600000000000 O
   0.9111100000000000    0.2607400000000000    0.8440700000000000 O
   0.6642800000000000    0.1814800000000000    0.7841900000000001 O
   0.5255900000000000    0.3222700000000000    0.8666400000000000 O
   0.2360400000000000    0.2583100000000000    0.9699400000000000 O
   0.1603600000000000    0.0474400000000000    0.9822200000000000 O
   0.8920200000000000    0.4288900000000000    0.7176800000000000 O
   0.0812600000000000    0.4619200000000000    0.8461100000000000 O
   0.4113100000000000    0.7394300000000000    0.6589200000000000 O
   0.1662300000000000    0.8186900000000000    0.7190000000000000 O
   0.0260300000000000    0.6774700000000000    0.6366300000000000 O
   0.7362600000000000    0.7411300000000000    0.5325500000000000 O
   0.6625900000000000    0.9519400000000000    0.5188700000000001 O
   0.3936700000000000    0.5711600000000000    0.7853000000000000 O
   0.5805300000000000    0.5385799999999999    0.6562700000000000 O
   0.9155000000000000    0.0376400000000000    0.3447500000000000 O
   0.5829400000000000    0.7610200000000000    0.1581000000000000 O
   0.8293600000000000    0.6811199999999999    0.2164500000000000 O
   0.9689400000000000    0.8217900000000000    0.1338300000000000 O
   0.2618400000000000    0.7593600000000000    0.0314800000000000 O
   0.3371900000000000    0.5488900000000000    0.0185900000000000 O
   0.6020700000000000    0.9284700000000000    0.2851900000000000 O
   0.4141400000000000    0.9622200000000000    0.1562200000000000 O
   0.1018500000000000    1.0714200000000000    0.2155700000000000 O
