Ca4 H17 C21 N3 O17
1.0
   6.3284925356708346    0.0000000000000000   -0.0097198744092337
  -1.3653142299862207   13.5328009312392687   -0.0042730371774916
   0.0000000000000000    0.0000000000000000   14.6660000000000004
Ca H C N O
4 17 21 3 17
direct
   0.2205100000000000    0.4495100000000000    0.0548400000000000 Ca
   0.7209300000000000    0.9493200000000001    0.4445700000000000 Ca
   0.7708100000000000    0.5509400000000000    0.9448100000000000 Ca
   0.2712700000000000    0.0513800000000000    0.5543700000000000 Ca
   0.3301000000000000    0.3739100000000000    0.7991100000000000 H
   0.6930500000000001    0.2377000000000000    0.7521000000000000 H
   0.4491000000000000    0.2658700000000000    0.6752200000000000 H
   0.6527958525237265    0.8735631274761427    0.5510492088160727 H
   0.3615666894885866   -0.1094210692982922    0.6400993698941444 H
   0.1301419866289488   -0.0903937517038469    0.7062061595938262 H
   0.6619000000000000    0.6264200000000000    0.2002700000000000 H
   0.2988300000000000    0.7627000000000000    0.2474800000000000 H
   0.5426299999999999    0.7344200000000000    0.3241700000000000 H
   0.1622600000000000    0.1269600000000000    0.2991200000000000 H
   0.7993700000000000    0.2626300000000000    0.2521800000000000 H
   0.0427800000000000    0.2351000000000000    0.1752400000000000 H
   0.7467667012695292    0.7428940233355961    0.8169338685547777 H
   0.5000589069981568    0.6896383766679790    0.8350616303550906 H
   1.0066291052147465    0.6499712027945757    0.8354251122558453 H
   0.5326861270570242    0.5497374553228799   -0.0413894728709039 H
   1.2789740825881428    0.6013793453654799    0.8955703780500984 H
   0.7977800000000000    0.1161500000000000    0.6140200000000000 C
   0.9133500000000000    0.3817900000000000    0.8546400000000000 C
   0.2153800000000000    0.3219800000000000    0.7639300000000000 C
   0.8619000000000000    0.2461300000000000    0.7373000000000000 C
   0.2830200000000000    0.2616100000000000    0.6952500000000000 C
   0.9429300000000000    0.1878100000000000    0.6703000000000000 C
   0.9991900000000000    0.3144600000000000    0.7854000000000000 C
   0.1938100000000000    0.8842500000000000    0.3854900000000000 C
   0.0786200000000000    0.6185900000000000    0.1449300000000000 C
   0.7764799999999999    0.6783900000000000    0.2354900000000000 C
   0.1299400000000000    0.7542800000000000    0.2622100000000000 C
   0.7087200000000000    0.7387300000000000    0.3041600000000000 C
   0.0487600000000000    0.8125900000000000    0.3291700000000000 C
   0.9927100000000000    0.6859900000000000    0.2140500000000000 C
   0.6940000000000000    0.3842900000000000    0.1141400000000000 C
   0.5788900000000000    0.1187900000000000    0.3546500000000000 C
   0.2768300000000000    0.1788000000000000    0.2639300000000000 C
   0.6304100000000000    0.2543700000000000    0.2373600000000000 C
   0.2089600000000000    0.2392000000000000    0.1952900000000000 C
   0.5491200000000001    0.3127300000000000    0.1703800000000000 C
   0.4931500000000000    0.1862100000000000    0.2854300000000000 C
   0.1522000000000000    0.1945100000000000    0.6496600000000000 N
   0.8394500000000000    0.8058600000000000    0.3497500000000000 N
   0.3396900000000000    0.3061900000000000    0.1497700000000000 N
   0.6007200000000000    0.1162300000000000    0.6251500000000000 O
   0.8895600000000000    0.0618300000000000    0.5577400000000000 O
   0.7408500000000000    0.4174300000000000    0.8361600000000000 O
   0.0217600000000000    0.4021100000000000    0.9268100000000000 O
   0.5264200000000000    0.9010600000000000    0.5726800000000000 O
   0.2415600000000000   -0.0833100000000000    0.6606400000000000 O
   0.3908500000000000    0.8838800000000000    0.3746800000000000 O
   0.1020400000000000    0.9389200000000000    0.4414900000000000 O
   0.2504500000000000    0.5825700000000000    0.1637800000000000 O
   0.9709100000000001    0.5985800000000000    0.0725000000000000 O
   0.8910900000000000    0.3839600000000000    0.1251200000000000 O
   0.6019700000000000    0.4388400000000000    0.0580100000000000 O
   0.7506300000000000    0.0826600000000000    0.3360900000000000 O
   0.4708500000000000    0.0988300000000000    0.4268400000000000 O
   0.6514600000000000    0.6943100000000000    0.8500600000000000 O
   1.1000900000000000    0.6164500000000001    0.8745900000000000 O
   0.3892700000000000    0.5618200000000000   -0.0582100000000000 O
