Zn4 H36 C33 O20
1.0
  13.2977256409141660    0.0000000000000000   -2.1030600987546513
   2.0213038348030530   13.0607389171363284   -0.4534376978274069
   0.0000000000000000    0.0000000000000000   13.2379999999999995
Zn H C O
4 36 33 20
direct
   0.1787700000000000    0.2444700000000000    0.6041900000000000 Zn
   0.6787700000000000    0.3957300000000000    0.7554700000000000 Zn
   0.0129000000000000    0.3650700000000000    0.7121600000000000 Zn
   0.5129200000000000    0.2874300000000000    0.6349200000000000 Zn
   0.6649801394649422    0.5440477217888374    0.6461136278073110 H
   0.4795151694629313    0.3883363945426273    0.4678786988972679 H
   0.5695780790004399    0.4747093650763727    0.5458250803780478 H
  -0.1255728422002053    0.2738349618625681    0.6325096981894333 H
   0.0974920063164049    0.0949721043152641    0.5270381166267322 H
  -0.0211096070572984    0.1731105086109885    0.5725106594028498 H
  -0.0544883279953290    0.5032629004854996    0.8582048964686392 H
   0.0210430380116020    0.5090046993496229    0.8478810961440200 H
   0.2725900000000000    0.7856700000000000    0.0781000000000000 H
   0.2014900000000000    0.8679500000000000    0.9786800000000000 H
   0.2756400000000000    0.4352300000000000    0.7818200000000000 H
   0.1459100000000000    0.5631900000000000    0.8503800000000000 H
   0.3858300000000000    0.7203400000000000    0.0000000000000000 H
   0.5136800000000000    0.5892800000000000    0.9404900000000000 H
   0.9935200000000000    0.7887700000000000    0.9763600000000000 H
   0.9500300000000000    0.8694700000000000    0.0769300000000000 H
   0.8208400000000000    0.8889600000000000    0.9461900000000000 H
   0.6687600000000000    0.9948600000000000    0.8502700000000000 H
   0.0000000000000000    0.1076300000000000    0.8747700000000000 H
   0.8560300000000000    0.2094100000000000    0.7765800000000000 H
   0.1288900000000000    0.9883700000000000    0.1159400000000000 H
   0.0753800000000000    0.9343300000000000    0.2136600000000000 H
   0.4041800000000000    0.8700300000000000    0.3357800000000000 H
   0.4723100000000000    0.9926400000000000    0.4675400000000000 H
   0.1257300000000000    0.0833100000000000    0.2689900000000000 H
   0.1898400000000000    0.1995400000000000    0.4033700000000000 H
   0.0989600000000000    0.6681900000000000    0.1065500000000000 H
   0.1963700000000000    0.7111100000000000    0.1982100000000000 H
   0.9568400000000000    0.6389100000000000    0.5160000000000000 H
   0.9504300000000000    0.7710900000000001    0.3832800000000000 H
   0.1626300000000000    0.5610400000000000    0.2343800000000000 H
   0.1688800000000000    0.4333500000000000    0.3672000000000000 H
   0.2377808474456064    0.2913861127274683    0.7275991837420127 H
   0.0647539995470052    0.2211241545881264    0.9156890255574576 H
   0.1583827402647315    0.2482287989426652    0.8311027815023220 H
   0.7927730710474306    0.4520222753497532    0.8316390264944301 H
   0.4800500000000000    0.4319500000000000    0.8100000000000001 C
   0.1995500000000000    0.8025500000000000    0.0272300000000000 C
   0.2992300000000000    0.4972700000000000    0.8314100000000000 C
   0.2267500000000000    0.5683900000000000    0.8692000000000000 C
   0.2570700000000000    0.6495300000000001    0.9319100000000000 C
   0.3607300000000000    0.6575299999999999    0.9576000000000000 C
   0.4329700000000000    0.5841800000000000    0.9208000000000000 C
   0.4034900000000000    0.5041700000000000    0.8566000000000000 C
   0.6597800000000000    0.1692100000000000    0.7505800000000000 C
   0.0096000000000000    0.8534500000000000    0.0276400000000000 C
   0.8284800000000000    0.9599800000000001    0.9109900000000000 C
   0.7432900000000000    0.0190200000000000    0.8568100000000000 C
   0.9236500000000000    0.9926800000000000    0.9174500000000000 C
   0.9329000000000000    0.0827600000000000    0.8690000000000000 C
   0.8477000000000000    0.1403700000000000    0.8148000000000000 C
   0.7514300000000000    0.1096300000000000    0.8084400000000000 C
   0.3764500000000000    0.1741900000000000    0.5248400000000000 C
   0.1335800000000000    0.9201400000000000    0.1627700000000000 C
   0.3591500000000000    0.9431800000000000    0.3510500000000000 C
   0.3960900000000000    0.0109800000000000    0.4243100000000000 C
   0.2615000000000000    0.9685500000000000    0.2945200000000000 C
   0.2008100000000000    0.0614100000000000    0.3131200000000000 C
   0.2374600000000000    0.1272900000000000    0.3897500000000000 C
   0.3350800000000000    0.1032900000000000    0.4455900000000000 C
   0.0716800000000000    0.4478600000000000    0.5292200000000000 C
   0.1183200000000000    0.7319900000000000    0.1575000000000000 C
   0.0000000000000000    0.6229100000000000    0.4539800000000000 C
   0.9972000000000000    0.6962400000000000    0.3800300000000000 C
   0.1171500000000000    0.5796200000000000    0.2953600000000000 C
   0.1205700000000000    0.5071700000000000    0.3000000000000000 C
   0.0558500000000000    0.6750600000000000    0.3007100000000000 C
   0.0634200000000000    0.5274400000000000    0.4501200000000000 C
   0.1144400000000000    0.8274899999999999    0.0937400000000000 C
   0.6299700000000000    0.4848600000000000    0.6363000000000000 O
   0.5227900000000000    0.3956100000000000    0.5327100000000000 O
  -0.0537500000000000    0.2612000000000000    0.6266600000000000 O
   0.0747900000000000    0.1562400000000000    0.5647000000000000 O
  -0.0308600000000000    0.4708400000000000    0.8140100000000000 O
   0.4463000000000000    0.3731700000000000    0.7386800000000000 O
   0.5747600000000000    0.4351700000000000    0.8436000000000000 O
   0.1789300000000000    0.7155700000000000    0.9640900000000000 O
   0.5736700000000000    0.1431100000000000    0.7426500000000000 O
   0.6701900000000000    0.2527000000000000    0.7018000000000000 O
   0.0123700000000000    0.9422600000000000    0.9693400000000000 O
   0.4691100000000000    0.1857400000000000    0.5291100000000000 O
   0.3217200000000000    0.2224900000000000    0.5876100000000000 O
   0.2328800000000000    0.8977600000000000    0.2223600000000000 O
   0.0226600000000000    0.4674300000000000    0.6042100000000000 O
   0.1299100000000000    0.3636900000000000    0.5151000000000000 O
   0.0493400000000000    0.7515600000000000    0.2310200000000000 O
   0.1704700000000000    0.2981900000000000    0.7470000000000000 O
   0.0733900000000000    0.2568200000000000    0.8556000000000000 O
   0.8217500000000000    0.4122600000000000    0.7774400000000000 O
