H12 O8
1.0
  13.2977256409141660    0.0000000000000000   -2.1030600987546513
   2.0213038348030530   13.0607389171363284   -0.4534376978274069
   0.0000000000000000    0.0000000000000000   13.2379999999999995
H O
12 8
direct
   0.2377808474456064    0.2913861127274683    0.7275991837420127 H
   0.0647539995470052    0.2211241545881264    0.9156890255574576 H
   0.1583827402647315    0.2482287989426652    0.8311027815023220 H
   0.6649801394649422    0.5440477217888374    0.6461136278073110 H
   0.4795151694629313    0.3883363945426273    0.4678786988972679 H
   0.5695780790004399    0.4747093650763727    0.5458250803780478 H
  -0.1255728422002053    0.2738349618625681    0.6325096981894333 H
   0.0974920063164049    0.0949721043152641    0.5270381166267322 H
  -0.0211096070572984    0.1731105086109885    0.5725106594028498 H
   0.7927730710474306    0.4520222753497532    0.8316390264944301 H
  -0.0544883279953290    0.5032629004854996    0.8582048964686392 H
   0.0210430380116020    0.5090046993496229    0.8478810961440200 H
   0.1704700000000000    0.2981900000000000    0.7470000000000000 O
   0.0733900000000000    0.2568200000000000    0.8556000000000000 O
   0.6299700000000000    0.4848600000000000    0.6363000000000000 O
   0.5227900000000000    0.3956100000000000    0.5327100000000000 O
  -0.0537500000000000    0.2612000000000000    0.6266600000000000 O
   0.0747900000000000    0.1562400000000000    0.5647000000000000 O
   0.8217500000000000    0.4122600000000000    0.7774400000000000 O
  -0.0308600000000000    0.4708400000000000    0.8140100000000000 O
