H8 O4
1.0
  37.6890000000000001    0.0000000000000000    0.0000000000000023
   0.0052615393591368   37.6829996326752621    0.0000000000000023
   0.0000000000000000    0.0000000000000000   25.8279999999999994
H O
8 4
direct
   0.1872763275149752    0.5558766885932312    0.6571288534786210 H
   0.2000908079486998    0.5944583179168609    0.6829442026044770 H
   0.9665851951683299    0.5722262407800639    0.6829361715503502 H
   0.9794000998518306    0.6108063428767777    0.6571478869659636 H
   0.0966622404078138    0.4752944121075183   -0.0014494921634094 H
   0.0530870243462399    0.4676867152707476   -0.0050198512723610 H
   0.1135721646259607    0.6989864479094126   -0.0050416981052529 H
   0.0700175760008380    0.6913855195266900   -0.0015082044541800 H
   0.2034033333333333    0.5762200000000000    0.6564100000000000 O
   0.9632733333333333    0.5904633333333333    0.6564000000000000 O
   0.0758766666666667    0.4625100000000000    0.0114900000000000 O
   0.0907900000000000    0.7041633333333333    0.0114900000000000 O
