Cd36 H848 C875 N140 O144
1.0
  37.6890000000000001    0.0000000000000000    0.0000000000000023
   0.0052615393591368   37.6829996326752621    0.0000000000000023
   0.0000000000000000    0.0000000000000000   25.8279999999999994
Cd H C N O
36 848 875 140 144
direct
   0.0833333333333333    0.7500033333333334    0.0837600000000000 Cd
   0.4166666666666666    0.7500033333333334    0.0837600000000000 Cd
   0.7500000000000000    0.7500033333333334    0.0837600000000000 Cd
   0.0833333333333333    0.0833366666666667    0.0837600000000000 Cd
   0.4166666666666666    0.0833366666666667    0.0837600000000000 Cd
   0.7500000000000000    0.4166700000000000    0.0837600000000000 Cd
   0.7500000000000000    0.0833366666666667    0.0837600000000000 Cd
   0.0833333333333333    0.4166700000000000    0.0837600000000000 Cd
   0.4166666666666666    0.4166700000000000    0.0837600000000000 Cd
   0.4166666666666666    0.4166666666666666    0.4162400000000000 Cd
   0.4166666666666666    0.7500000000000000    0.4162400000000000 Cd
   0.4166666666666666    0.0833333333333333    0.4162400000000000 Cd
   0.0833333333333333    0.0833333333333333    0.4162400000000000 Cd
   0.0833333333333333    0.4166666666666666    0.4162400000000000 Cd
   0.0833333333333333    0.7500000000000000    0.4162400000000000 Cd
   0.7500000000000000    0.0833333333333333    0.4162400000000000 Cd
   0.7500000000000000    0.4166666666666666    0.4162400000000000 Cd
   0.7500000000000000    0.7500000000000000    0.4162400000000000 Cd
   0.2500033333333333    0.5833400000000000    0.9162500000000000 Cd
   0.5833366666666666    0.5833400000000000    0.9162500000000000 Cd
   0.9166699999999999    0.5833400000000000    0.9162500000000000 Cd
   0.2500033333333333    0.2500066666666667    0.9162500000000000 Cd
   0.5833366666666666    0.2500066666666667    0.9162500000000000 Cd
   0.9166699999999999    0.2500066666666667    0.9162500000000000 Cd
   0.2500033333333333    0.9166733333333332    0.9162500000000000 Cd
   0.5833366666666666    0.9166733333333332    0.9162500000000000 Cd
   0.9166699999999999    0.9166733333333332    0.9162500000000000 Cd
   0.5833366666666666    0.2500066666666667    0.5837700000000000 Cd
   0.5833366666666666    0.5833400000000000    0.5837700000000000 Cd
   0.2500033333333333    0.9166733333333332    0.5837700000000000 Cd
   0.5833366666666666    0.9166733333333332    0.5837700000000000 Cd
   0.2500033333333333    0.5833400000000000    0.5837700000000000 Cd
   0.2500033333333333    0.2500066666666667    0.5837700000000000 Cd
   0.9166699999999999    0.2500066666666667    0.5837700000000000 Cd
   0.9166699999999999    0.5833400000000000    0.5837700000000000 Cd
   0.9166699999999999    0.9166733333333332    0.5837700000000000 Cd
   0.1872763275149752    0.5558766885932312    0.6571288534786210 H
   0.2000908079486998    0.5944583179168609    0.6829442026044770 H
   0.9665851951683299    0.5722262407800639    0.6829361715503502 H
   0.9794000998518306    0.6108063428767777    0.6571478869659636 H
   0.1135721646259607    0.6989864479094126   -0.0050416981052529 H
   0.0700175760008380    0.6913855195266900   -0.0015082044541800 H
   0.0966622404078138    0.4752944121075183   -0.0014494921634094 H
   0.0530870243462399    0.4676867152707476   -0.0050198512723610 H
   0.7241000000000000    0.8808833333333332    0.7802200000000000 H
   0.6946133333333333    0.9019566666666666    0.8259400000000000 H
   0.6624566666666667    0.8789966666666666    0.7592800000000000 H
   0.6971033333333333    0.9784433333333333    0.6920500000000001 H
   0.6472533333333332    0.9721299999999999    0.6281800000000000 H
   0.6161200000000000    0.8763933333333332    0.6910900000000000 H
   0.7758999999999999    0.9524666666666666    0.7802200000000000 H
   0.8053866666666666    0.9313933333333333    0.8259400000000000 H
   0.8375500000000000    0.9543533333333333    0.7592800000000000 H
   0.8028966666666666    0.8549066666666666    0.6920600000000000 H
   0.8527533333333333    0.8612166666666666    0.6281800000000000 H
   0.8838900000000000    0.9569533333333333    0.6911000000000000 H
   0.7811166666666667    0.8953099999999999    0.8972400000000000 H
   0.7752000000000000    0.8650566666666666    0.8450400000000000 H
   0.7943966666666666    0.8514800000000000    0.9416500000000000 H
   0.6810566666666666    0.8325833333333332    0.9322800000000000 H
   0.6884366666666666    0.7877900000000000    0.0027400000000000 H
   0.7961466666666666    0.8067000000000000    0.0127800000000000 H
   0.7188833333333333    0.9380400000000000    0.8972000000000000 H
   0.7248000000000000    0.9682966666666666    0.8450400000000000 H
   0.7056033333333332    0.9818733333333333    0.9416500000000000 H
   0.8189466666666666    0.0007500000000000    0.9322000000000000 H
   0.8115633333333333    0.0455466666666667    0.0027500000000000 H
   0.7038533333333333    0.0266466666666667    0.0127700000000000 H
   0.9524600000000000    0.0574266666666667    0.7198400000000000 H
   0.9313966666666667    0.0279366666666667    0.6741100000000000 H
   0.9543733333333333    0.9958033333333333    0.7408200000000000 H
   0.8548899999999999    0.0304166666666667    0.8079000000000000 H
   0.8611933333333333    0.9805599999999999    0.8718200000000000 H
   0.9569633333333333    0.9494566666666666    0.8090000000000001 H
   0.8808833333333332    0.1092433333333333    0.7198400000000000 H
   0.9019433333333333    0.1387333333333333    0.6741100000000000 H
   0.8789633333333333    0.1708766666666667    0.7408300000000000 H
   0.9784533333333333    0.1362600000000000    0.8079400000000000 H
   0.9721500000000000    0.1861300000000000    0.8718100000000000 H
   0.8763699999999999    0.2172233333333333    0.8090100000000000 H
   0.9380233333333332    0.1144666666666667    0.6028200000000000 H
   0.9682799999999999    0.1085333333333333    0.6550000000000000 H
   0.9818466666666666    0.1277466666666667    0.5584000000000000 H
   0.0007466666666667    0.0143866666666667    0.5677400000000000 H
   0.0455400000000000    0.0217700000000000    0.4972700000000000 H
   0.0266233333333333    0.1295033333333333    0.4872700000000000 H
   0.8953199999999999    0.0522066666666667    0.6028200000000000 H
   0.8650633333333333    0.0581366666666667    0.6550000000000000 H
   0.8514966666666666    0.0389233333333333    0.5584000000000000 H
   0.8325899999999999    0.1522833333333333    0.5677400000000000 H
   0.7877933333333333    0.1449000000000000    0.4972700000000000 H
   0.8067099999999999    0.0371666666666667    0.4872700000000000 H
   0.3907666666666667    0.8808833333333332    0.7802200000000000 H
   0.3612800000000000    0.9019566666666666    0.8259400000000000 H
   0.3291233333333333    0.8789966666666666    0.7592800000000000 H
   0.3637700000000000    0.9784433333333333    0.6920500000000001 H
   0.3139200000000000    0.9721299999999999    0.6281800000000000 H
   0.2827866666666666    0.8763933333333332    0.6910900000000000 H
   0.4425666666666667    0.9524666666666666    0.7802200000000000 H
   0.4720533333333333    0.9313933333333333    0.8259400000000000 H
   0.5042166666666666    0.9543533333333333    0.7592800000000000 H
   0.4695633333333333    0.8549066666666666    0.6920600000000000 H
   0.5194200000000000    0.8612166666666666    0.6281800000000000 H
   0.5505566666666666    0.9569533333333333    0.6911000000000000 H
   0.4477833333333333    0.8953099999999999    0.8972400000000000 H
   0.4418666666666666    0.8650566666666666    0.8450400000000000 H
   0.4610633333333333    0.8514800000000000    0.9416500000000000 H
   0.3477233333333333    0.8325833333333332    0.9322800000000000 H
   0.3551033333333333    0.7877900000000000    0.0027400000000000 H
   0.4628133333333333    0.8067000000000000    0.0127800000000000 H
   0.3855500000000000    0.9380400000000000    0.8972000000000000 H
   0.3914666666666666    0.9682966666666666    0.8450400000000000 H
   0.3722700000000000    0.9818733333333333    0.9416500000000000 H
   0.4856133333333333    0.0007500000000000    0.9322000000000000 H
   0.4782300000000000    0.0455466666666667    0.0027500000000000 H
   0.3705200000000000    0.0266466666666667    0.0127700000000000 H
   0.6191266666666666    0.0574266666666667    0.7198400000000000 H
   0.5980633333333333    0.0279366666666667    0.6741100000000000 H
   0.6210400000000000    0.9958033333333333    0.7408200000000000 H
   0.5215566666666667    0.0304166666666667    0.8079000000000000 H
   0.5278600000000000    0.9805599999999999    0.8718200000000000 H
   0.6236299999999999    0.9494566666666666    0.8090000000000001 H
   0.5475500000000000    0.1092433333333333    0.7198400000000000 H
   0.5686099999999999    0.1387333333333333    0.6741100000000000 H
   0.5456299999999999    0.1708766666666667    0.7408300000000000 H
   0.6451199999999999    0.1362600000000000    0.8079400000000000 H
   0.6388166666666666    0.1861300000000000    0.8718100000000000 H
   0.5430366666666666    0.2172233333333333    0.8090100000000000 H
   0.6046899999999999    0.1144666666666667    0.6028200000000000 H
   0.6349466666666665    0.1085333333333333    0.6550000000000000 H
   0.6485133333333333    0.1277466666666667    0.5584000000000000 H
   0.6674133333333333    0.0143866666666667    0.5677400000000000 H
   0.7122066666666667    0.0217700000000000    0.4972700000000000 H
   0.6932900000000000    0.1295033333333333    0.4872700000000000 H
   0.5619866666666666    0.0522066666666667    0.6028200000000000 H
   0.5317300000000000    0.0581366666666667    0.6550000000000000 H
   0.5181633333333333    0.0389233333333333    0.5584000000000000 H
   0.4992566666666666    0.1522833333333333    0.5677400000000000 H
   0.4544600000000000    0.1449000000000000    0.4972700000000000 H
   0.4733766666666667    0.0371666666666667    0.4872700000000000 H
   0.0574333333333333    0.8808833333333332    0.7802200000000000 H
   0.0279466666666667    0.9019566666666666    0.8259400000000000 H
   0.9957900000000000    0.8789966666666666    0.7592800000000000 H
   0.0304366666666667    0.9784433333333333    0.6920500000000001 H
   0.9805866666666666    0.9721299999999999    0.6281800000000000 H
   0.9494533333333333    0.8763933333333332    0.6910900000000000 H
   0.1092333333333333    0.9524666666666666    0.7802200000000000 H
   0.1387200000000000    0.9313933333333333    0.8259400000000000 H
   0.1708833333333333    0.9543533333333333    0.7592800000000000 H
   0.1362300000000000    0.8549066666666666    0.6920600000000000 H
   0.1860866666666667    0.8612166666666666    0.6281800000000000 H
   0.2172233333333333    0.9569533333333333    0.6911000000000000 H
   0.1144500000000000    0.8953099999999999    0.8972400000000000 H
   0.1085333333333333    0.8650566666666666    0.8450400000000000 H
   0.1277300000000000    0.8514800000000000    0.9416500000000000 H
   0.0143900000000000    0.8325833333333332    0.9322800000000000 H
   0.0217700000000000    0.7877900000000000    0.0027400000000000 H
   0.1294800000000000    0.8067000000000000    0.0127800000000000 H
   0.0522166666666667    0.9380400000000000    0.8972000000000000 H
   0.0581333333333333    0.9682966666666666    0.8450400000000000 H
   0.0389366666666667    0.9818733333333333    0.9416500000000000 H
   0.1522800000000000    0.0007500000000000    0.9322000000000000 H
   0.1448966666666667    0.0455466666666667    0.0027500000000000 H
   0.0371866666666667    0.0266466666666667    0.0127700000000000 H
   0.2857933333333333    0.0574266666666667    0.7198400000000000 H
   0.2647300000000000    0.0279366666666667    0.6741100000000000 H
   0.2877066666666667    0.9958033333333333    0.7408200000000000 H
   0.1882233333333333    0.0304166666666667    0.8079000000000000 H
   0.1945266666666667    0.9805599999999999    0.8718200000000000 H
   0.2902966666666666    0.9494566666666666    0.8090000000000001 H
   0.2142166666666667    0.1092433333333333    0.7198400000000000 H
   0.2352766666666666    0.1387333333333333    0.6741100000000000 H
   0.2122966666666666    0.1708766666666667    0.7408300000000000 H
   0.3117866666666667    0.1362600000000000    0.8079400000000000 H
   0.3054833333333333    0.1861300000000000    0.8718100000000000 H
   0.2097033333333333    0.2172233333333333    0.8090100000000000 H
   0.2713566666666666    0.1144666666666667    0.6028200000000000 H
   0.3016133333333333    0.1085333333333333    0.6550000000000000 H
   0.3151800000000000    0.1277466666666667    0.5584000000000000 H
   0.3340800000000000    0.0143866666666667    0.5677400000000000 H
   0.3788733333333333    0.0217700000000000    0.4972700000000000 H
   0.3599566666666666    0.1295033333333333    0.4872700000000000 H
   0.2286533333333333    0.0522066666666667    0.6028200000000000 H
   0.1983966666666667    0.0581366666666667    0.6550000000000000 H
   0.1848300000000000    0.0389233333333333    0.5584000000000000 H
   0.1659233333333333    0.1522833333333333    0.5677400000000000 H
   0.1211266666666667    0.1449000000000000    0.4972700000000000 H
   0.1400433333333333    0.0371666666666667    0.4872700000000000 H
   0.2857933333333333    0.7240933333333333    0.7198400000000000 H
   0.2647300000000000    0.6946033333333332    0.6741100000000000 H
   0.2877066666666667    0.6624699999999999    0.7408200000000000 H
   0.1882233333333333    0.6970833333333333    0.8079000000000000 H
   0.1945266666666667    0.6472266666666666    0.8718200000000000 H
   0.2902966666666666    0.6161233333333334    0.8090000000000001 H
   0.2142166666666667    0.7759100000000000    0.7198400000000000 H
   0.2352766666666666    0.8053999999999999    0.6741100000000000 H
   0.2122966666666666    0.8375433333333333    0.7408300000000000 H
   0.3117866666666667    0.8029266666666666    0.8079400000000000 H
   0.3054833333333333    0.8527966666666666    0.8718100000000000 H
   0.2097033333333333    0.8838900000000000    0.8090100000000000 H
   0.2713566666666666    0.7811333333333332    0.6028200000000000 H
   0.3016133333333333    0.7752000000000000    0.6550000000000000 H
   0.3151800000000000    0.7944133333333333    0.5584000000000000 H
   0.3340800000000000    0.6810533333333333    0.5677400000000000 H
   0.3788733333333333    0.6884366666666666    0.4972700000000000 H
   0.3599566666666666    0.7961699999999999    0.4872700000000000 H
   0.2286533333333333    0.7188733333333333    0.6028200000000000 H
   0.1983966666666667    0.7248033333333332    0.6550000000000000 H
   0.1848300000000000    0.7055899999999999    0.5584000000000000 H
   0.1659233333333333    0.8189500000000000    0.5677400000000000 H
   0.1211266666666667    0.8115666666666665    0.4972700000000000 H
   0.1400433333333333    0.7038333333333333    0.4872700000000000 H
   0.3907666666666667    0.5475500000000000    0.7802200000000000 H
   0.3612800000000000    0.5686233333333333    0.8259400000000000 H
   0.3291233333333333    0.5456633333333333    0.7592800000000000 H
   0.3637700000000000    0.6451100000000000    0.6920500000000001 H
   0.3139200000000000    0.6387966666666667    0.6281800000000000 H
   0.2827866666666666    0.5430600000000000    0.6910900000000000 H
   0.4425666666666667    0.6191333333333333    0.7802200000000000 H
   0.4720533333333333    0.5980600000000000    0.8259400000000000 H
   0.5042166666666666    0.6210199999999999    0.7592800000000000 H
   0.4695633333333333    0.5215733333333333    0.6920600000000000 H
   0.5194200000000000    0.5278833333333333    0.6281800000000000 H
   0.5505566666666666    0.6236200000000000    0.6911000000000000 H
   0.4477833333333333    0.5619766666666667    0.8972400000000000 H
   0.4418666666666666    0.5317233333333333    0.8450400000000000 H
   0.4610633333333333    0.5181466666666666    0.9416500000000000 H
   0.3477233333333333    0.4992500000000000    0.9322800000000000 H
   0.3551033333333333    0.4544566666666666    0.0027400000000000 H
   0.4628133333333333    0.4733666666666666    0.0127800000000000 H
   0.3855500000000000    0.6047066666666666    0.8972000000000000 H
   0.3914666666666666    0.6349633333333333    0.8450400000000000 H
   0.3722700000000000    0.6485399999999999    0.9416500000000000 H
   0.4856133333333333    0.6674166666666667    0.9322000000000000 H
   0.4782300000000000    0.7122133333333333    0.0027500000000000 H
   0.3705200000000000    0.6933133333333333    0.0127700000000000 H
   0.6191266666666666    0.7240933333333333    0.7198400000000000 H
   0.5980633333333333    0.6946033333333332    0.6741100000000000 H
   0.6210400000000000    0.6624699999999999    0.7408200000000000 H
   0.5215566666666667    0.6970833333333333    0.8079000000000000 H
   0.5278600000000000    0.6472266666666666    0.8718200000000000 H
   0.6236299999999999    0.6161233333333334    0.8090000000000001 H
   0.5475500000000000    0.7759100000000000    0.7198400000000000 H
   0.5686099999999999    0.8053999999999999    0.6741100000000000 H
   0.5456299999999999    0.8375433333333333    0.7408300000000000 H
   0.6451199999999999    0.8029266666666666    0.8079400000000000 H
   0.6388166666666666    0.8527966666666666    0.8718100000000000 H
   0.5430366666666666    0.8838900000000000    0.8090100000000000 H
   0.6046899999999999    0.7811333333333332    0.6028200000000000 H
   0.6349466666666665    0.7752000000000000    0.6550000000000000 H
   0.6485133333333333    0.7944133333333333    0.5584000000000000 H
   0.6674133333333333    0.6810533333333333    0.5677400000000000 H
   0.7122066666666667    0.6884366666666666    0.4972700000000000 H
   0.6932900000000000    0.7961699999999999    0.4872700000000000 H
   0.5619866666666666    0.7188733333333333    0.6028200000000000 H
   0.5317300000000000    0.7248033333333332    0.6550000000000000 H
   0.5181633333333333    0.7055899999999999    0.5584000000000000 H
   0.4992566666666666    0.8189500000000000    0.5677400000000000 H
   0.4544600000000000    0.8115666666666665    0.4972700000000000 H
   0.4733766666666667    0.7038333333333333    0.4872700000000000 H
   0.7241000000000000    0.5475500000000000    0.7802200000000000 H
   0.6946133333333333    0.5686233333333333    0.8259400000000000 H
   0.6624566666666667    0.5456633333333333    0.7592800000000000 H
   0.6971033333333333    0.6451100000000000    0.6920500000000001 H
   0.6472533333333332    0.6387966666666667    0.6281800000000000 H
   0.6161200000000000    0.5430600000000000    0.6910900000000000 H
   0.7758999999999999    0.6191333333333333    0.7802200000000000 H
   0.8053866666666666    0.5980600000000000    0.8259400000000000 H
   0.8375500000000000    0.6210199999999999    0.7592800000000000 H
   0.8028966666666666    0.5215733333333333    0.6920600000000000 H
   0.8527533333333333    0.5278833333333333    0.6281800000000000 H
   0.8838900000000000    0.6236200000000000    0.6911000000000000 H
   0.7811166666666667    0.5619766666666667    0.8972400000000000 H
   0.7752000000000000    0.5317233333333333    0.8450400000000000 H
   0.7943966666666666    0.5181466666666666    0.9416500000000000 H
   0.6810566666666666    0.4992500000000000    0.9322800000000000 H
   0.6884366666666666    0.4544566666666666    0.0027400000000000 H
   0.7961466666666666    0.4733666666666666    0.0127800000000000 H
   0.7188833333333333    0.6047066666666666    0.8972000000000000 H
   0.7248000000000000    0.6349633333333333    0.8450400000000000 H
   0.7056033333333332    0.6485399999999999    0.9416500000000000 H
   0.8189466666666666    0.6674166666666667    0.9322000000000000 H
   0.8115633333333333    0.7122133333333333    0.0027500000000000 H
   0.7038533333333333    0.6933133333333333    0.0127700000000000 H
   0.9524600000000000    0.7240933333333333    0.7198400000000000 H
   0.9313966666666667    0.6946033333333332    0.6741100000000000 H
   0.9543733333333333    0.6624699999999999    0.7408200000000000 H
   0.8548899999999999    0.6970833333333333    0.8079000000000000 H
   0.8611933333333333    0.6472266666666666    0.8718200000000000 H
   0.9569633333333333    0.6161233333333334    0.8090000000000001 H
   0.8808833333333332    0.7759100000000000    0.7198400000000000 H
   0.9019433333333333    0.8053999999999999    0.6741100000000000 H
   0.8789633333333333    0.8375433333333333    0.7408300000000000 H
   0.9784533333333333    0.8029266666666666    0.8079400000000000 H
   0.9721500000000000    0.8527966666666666    0.8718100000000000 H
   0.8763699999999999    0.8838900000000000    0.8090100000000000 H
   0.9380233333333332    0.7811333333333332    0.6028200000000000 H
   0.9682799999999999    0.7752000000000000    0.6550000000000000 H
   0.9818466666666666    0.7944133333333333    0.5584000000000000 H
   0.0007466666666667    0.6810533333333333    0.5677400000000000 H
   0.0455400000000000    0.6884366666666666    0.4972700000000000 H
   0.0266233333333333    0.7961699999999999    0.4872700000000000 H
   0.8953199999999999    0.7188733333333333    0.6028200000000000 H
   0.8650633333333333    0.7248033333333332    0.6550000000000000 H
   0.8514966666666666    0.7055899999999999    0.5584000000000000 H
   0.8325899999999999    0.8189500000000000    0.5677400000000000 H
   0.7877933333333333    0.8115666666666665    0.4972700000000000 H
   0.8067099999999999    0.7038333333333333    0.4872700000000000 H
   0.0574333333333333    0.2142166666666667    0.7802200000000000 H
   0.0279466666666667    0.2352900000000000    0.8259400000000000 H
   0.9957900000000000    0.2123300000000000    0.7592800000000000 H
   0.0304366666666667    0.3117766666666666    0.6920500000000001 H
   0.9805866666666666    0.3054633333333333    0.6281800000000000 H
   0.9494533333333333    0.2097266666666666    0.6910900000000000 H
   0.1092333333333333    0.2858000000000000    0.7802200000000000 H
   0.1387200000000000    0.2647266666666667    0.8259400000000000 H
   0.1708833333333333    0.2876866666666666    0.7592800000000000 H
   0.1362300000000000    0.1882400000000000    0.6920600000000000 H
   0.1860866666666667    0.1945500000000000    0.6281800000000000 H
   0.2172233333333333    0.2902866666666666    0.6911000000000000 H
   0.1144500000000000    0.2286433333333333    0.8972400000000000 H
   0.1085333333333333    0.1983900000000000    0.8450400000000000 H
   0.1277300000000000    0.1848133333333333    0.9416500000000000 H
   0.0143900000000000    0.1659166666666667    0.9322800000000000 H
   0.0217700000000000    0.1211233333333333    0.0027400000000000 H
   0.1294800000000000    0.1400333333333333    0.0127800000000000 H
   0.0522166666666667    0.2713733333333333    0.8972000000000000 H
   0.0581333333333333    0.3016300000000000    0.8450400000000000 H
   0.0389366666666667    0.3152066666666666    0.9416500000000000 H
   0.1522800000000000    0.3340833333333333    0.9322000000000000 H
   0.1448966666666667    0.3788800000000000    0.0027500000000000 H
   0.0371866666666667    0.3599800000000000    0.0127700000000000 H
   0.2857933333333333    0.3907600000000000    0.7198400000000000 H
   0.2647300000000000    0.3612700000000000    0.6741100000000000 H
   0.2877066666666667    0.3291366666666666    0.7408200000000000 H
   0.1882233333333333    0.3637500000000000    0.8079000000000000 H
   0.1945266666666667    0.3138933333333333    0.8718200000000000 H
   0.2902966666666666    0.2827900000000000    0.8090000000000001 H
   0.2142166666666667    0.4425766666666666    0.7198400000000000 H
   0.2352766666666666    0.4720666666666666    0.6741100000000000 H
   0.2122966666666666    0.5042100000000000    0.7408300000000000 H
   0.3117866666666667    0.4695933333333333    0.8079400000000000 H
   0.3054833333333333    0.5194633333333334    0.8718100000000000 H
   0.2097033333333333    0.5505566666666666    0.8090100000000000 H
   0.2713566666666666    0.4478000000000000    0.6028200000000000 H
   0.3016133333333333    0.4418666666666666    0.6550000000000000 H
   0.3151800000000000    0.4610800000000000    0.5584000000000000 H
   0.3340800000000000    0.3477200000000000    0.5677400000000000 H
   0.3788733333333333    0.3551033333333333    0.4972700000000000 H
   0.3599566666666666    0.4628366666666667    0.4872700000000000 H
   0.2286533333333333    0.3855400000000000    0.6028200000000000 H
   0.1983966666666667    0.3914700000000000    0.6550000000000000 H
   0.1848300000000000    0.3722566666666666    0.5584000000000000 H
   0.1659233333333333    0.4856166666666666    0.5677400000000000 H
   0.1211266666666667    0.4782333333333333    0.4972700000000000 H
   0.1400433333333333    0.3705000000000000    0.4872700000000000 H
   0.3907666666666667    0.2142166666666667    0.7802200000000000 H
   0.3612800000000000    0.2352900000000000    0.8259400000000000 H
   0.3291233333333333    0.2123300000000000    0.7592800000000000 H
   0.3637700000000000    0.3117766666666666    0.6920500000000001 H
   0.3139200000000000    0.3054633333333333    0.6281800000000000 H
   0.2827866666666666    0.2097266666666666    0.6910900000000000 H
   0.4425666666666667    0.2858000000000000    0.7802200000000000 H
   0.4720533333333333    0.2647266666666667    0.8259400000000000 H
   0.5042166666666666    0.2876866666666666    0.7592800000000000 H
   0.4695633333333333    0.1882400000000000    0.6920600000000000 H
   0.5194200000000000    0.1945500000000000    0.6281800000000000 H
   0.5505566666666666    0.2902866666666666    0.6911000000000000 H
   0.4477833333333333    0.2286433333333333    0.8972400000000000 H
   0.4418666666666666    0.1983900000000000    0.8450400000000000 H
   0.4610633333333333    0.1848133333333333    0.9416500000000000 H
   0.3477233333333333    0.1659166666666667    0.9322800000000000 H
   0.3551033333333333    0.1211233333333333    0.0027400000000000 H
   0.4628133333333333    0.1400333333333333    0.0127800000000000 H
   0.3855500000000000    0.2713733333333333    0.8972000000000000 H
   0.3914666666666666    0.3016300000000000    0.8450400000000000 H
   0.3722700000000000    0.3152066666666666    0.9416500000000000 H
   0.4856133333333333    0.3340833333333333    0.9322000000000000 H
   0.4782300000000000    0.3788800000000000    0.0027500000000000 H
   0.3705200000000000    0.3599800000000000    0.0127700000000000 H
   0.6191266666666666    0.3907600000000000    0.7198400000000000 H
   0.5980633333333333    0.3612700000000000    0.6741100000000000 H
   0.6210400000000000    0.3291366666666666    0.7408200000000000 H
   0.5215566666666667    0.3637500000000000    0.8079000000000000 H
   0.5278600000000000    0.3138933333333333    0.8718200000000000 H
   0.6236299999999999    0.2827900000000000    0.8090000000000001 H
   0.5475500000000000    0.4425766666666666    0.7198400000000000 H
   0.5686099999999999    0.4720666666666666    0.6741100000000000 H
   0.5456299999999999    0.5042100000000000    0.7408300000000000 H
   0.6451199999999999    0.4695933333333333    0.8079400000000000 H
   0.6388166666666666    0.5194633333333334    0.8718100000000000 H
   0.5430366666666666    0.5505566666666666    0.8090100000000000 H
   0.6046899999999999    0.4478000000000000    0.6028200000000000 H
   0.6349466666666665    0.4418666666666666    0.6550000000000000 H
   0.6485133333333333    0.4610800000000000    0.5584000000000000 H
   0.6674133333333333    0.3477200000000000    0.5677400000000000 H
   0.7122066666666667    0.3551033333333333    0.4972700000000000 H
   0.6932900000000000    0.4628366666666667    0.4872700000000000 H
   0.5619866666666666    0.3855400000000000    0.6028200000000000 H
   0.5317300000000000    0.3914700000000000    0.6550000000000000 H
   0.5181633333333333    0.3722566666666666    0.5584000000000000 H
   0.4992566666666666    0.4856166666666666    0.5677400000000000 H
   0.4544600000000000    0.4782333333333333    0.4972700000000000 H
   0.4733766666666667    0.3705000000000000    0.4872700000000000 H
   0.7241000000000000    0.2142166666666667    0.7802200000000000 H
   0.6946133333333333    0.2352900000000000    0.8259400000000000 H
   0.6624566666666667    0.2123300000000000    0.7592800000000000 H
   0.6971033333333333    0.3117766666666666    0.6920500000000001 H
   0.6472533333333332    0.3054633333333333    0.6281800000000000 H
   0.6161200000000000    0.2097266666666666    0.6910900000000000 H
   0.7758999999999999    0.2858000000000000    0.7802200000000000 H
   0.8053866666666666    0.2647266666666667    0.8259400000000000 H
   0.8375500000000000    0.2876866666666666    0.7592800000000000 H
   0.8028966666666666    0.1882400000000000    0.6920600000000000 H
   0.8527533333333333    0.1945500000000000    0.6281800000000000 H
   0.8838900000000000    0.2902866666666666    0.6911000000000000 H
   0.7811166666666667    0.2286433333333333    0.8972400000000000 H
   0.7752000000000000    0.1983900000000000    0.8450400000000000 H
   0.7943966666666666    0.1848133333333333    0.9416500000000000 H
   0.6810566666666666    0.1659166666666667    0.9322800000000000 H
   0.6884366666666666    0.1211233333333333    0.0027400000000000 H
   0.7961466666666666    0.1400333333333333    0.0127800000000000 H
   0.7188833333333333    0.2713733333333333    0.8972000000000000 H
   0.7248000000000000    0.3016300000000000    0.8450400000000000 H
   0.7056033333333332    0.3152066666666666    0.9416500000000000 H
   0.8189466666666666    0.3340833333333333    0.9322000000000000 H
   0.8115633333333333    0.3788800000000000    0.0027500000000000 H
   0.7038533333333333    0.3599800000000000    0.0127700000000000 H
   0.9524600000000000    0.3907600000000000    0.7198400000000000 H
   0.9313966666666667    0.3612700000000000    0.6741100000000000 H
   0.9543733333333333    0.3291366666666666    0.7408200000000000 H
   0.8548899999999999    0.3637500000000000    0.8079000000000000 H
   0.8611933333333333    0.3138933333333333    0.8718200000000000 H
   0.9569633333333333    0.2827900000000000    0.8090000000000001 H
   0.8808833333333332    0.4425766666666666    0.7198400000000000 H
   0.9019433333333333    0.4720666666666666    0.6741100000000000 H