H4 C8 O4
1.0
  19.2118674484698140    0.0000000000000000    0.7370380875001369
  -0.0900471679326343   21.5741471045139335   -4.4525171779949826
   0.0000000000000000    0.0000000000000000   37.9459999999999980
H C O
4 8 4
direct
   0.3839800000000000    0.4533600000000000    0.0000000000000000 H
   0.6066200000000000    0.4379300000000000    0.0021350000000000 H
   0.6181700000000000    0.5495600000000000    0.9968699999999999 H
   0.3955300000000000    0.5649700000000000    0.9978549999999999 H
   0.4945600000000000    0.4393500000000000    0.0000000000000000 C
   0.4349300000000000    0.4750100000000000    0.0000000000000000 C
   0.5608300000000001    0.4661700000000000    0.0012150000000000 C
   0.4867300000000000    0.3729600000000000    0.0000000000000000 C
   0.5075800000000000    0.5635599999999999    0.9970000000000000 C
   0.5672300000000000    0.5279100000000000    0.9982750000000000 C
   0.4413200000000000    0.5367400000000000    0.9987650000000000 C
   0.5152300000000000    0.6299600000000000    0.9942550000000000 C
   0.5409000000000000    0.3412200000000000    0.0000000000000000 O
   0.4247300000000000    0.3513400000000000    0.0000000000000000 O
   0.4609300000000000    0.6614900000000000    0.9922299999999999 O
   0.5771200000000000    0.6518400000000000    0.9939000000000000 O
