H7 O5
1.0
  33.7197898318140545    0.0000000000000000    5.0779694463722400
   2.1376445088146925    8.3156317168056848    3.6104882768525575
   0.0000000000000000    0.0000000000000000   30.5504999999999995
H O
7 5
direct
   0.2998577243511186    0.6516387571619220    0.1155713824248514 H
   0.2030792707056145    0.4800229974428611    0.1131732417018185 H
   0.2512760208087225    0.5678922947749275    0.1122919913234490 H
   0.2514953088298933    0.1130103328174332    0.9540982615880741 H
   0.2460749309488504    0.7976305512460786    0.8762304275014401 H
   0.2439489392848134    0.3873032589303467    0.9861587447574942 H
   0.2448540026747766    0.5970673359884835    0.9336753097841159 H
   0.2773780000000000    0.5997800000000000    0.1253766666666667 O
   0.2245640000000000    0.5062700000000000    0.1239433333333333 O
   0.2516760000000000    0.1770300000000000    0.9200366666666666 O
   0.2462100000000000    0.6848000000000000    0.8917566666666666 O
   0.2450220000000000    0.4567300000000000    0.9529866666666666 O
