Ca30 H123 C261 O179
1.0
  33.7197898318140545    0.0000000000000000    5.0779694463722400
   2.1376445088146925    8.3156317168056848    3.6104882768525575
   0.0000000000000000    0.0000000000000000   30.5504999999999995
Ca H C O
30 123 261 179
direct
   0.6489640000000001    0.4552000000000000    0.2060400000000000 Ca
   0.7510300000000001    0.5448300000000000    0.4606233333333333 Ca
   0.0489640000000000    0.4552000000000000    0.2060400000000000 Ca
   0.1510300000000000    0.5448300000000000    0.4606233333333333 Ca
   0.8489640000000001    0.4552000000000000    0.2060400000000000 Ca
   0.9510300000000000    0.5448300000000000    0.4606233333333333 Ca
   0.4489640000000000    0.4552000000000000    0.2060400000000000 Ca
   0.5510300000000000    0.5448300000000000    0.4606233333333333 Ca
   0.2489640000000000    0.4552000000000000    0.2060400000000000 Ca
   0.3510300000000000    0.5448300000000000    0.4606233333333333 Ca
   0.4489640000000000    0.4552000000000000    0.8727066666666666 Ca
   0.5510300000000000    0.5448300000000000    0.1272900000000000 Ca
   0.2489640000000000    0.4552000000000000    0.8727066666666666 Ca
   0.0489640000000000    0.4552000000000000    0.8727066666666666 Ca
   0.1510300000000000    0.5448300000000000    0.1272900000000000 Ca
   0.3510300000000000    0.5448300000000000    0.1272900000000000 Ca
   0.6489640000000001    0.4552000000000000    0.8727066666666666 Ca
   0.7510300000000001    0.5448300000000000    0.1272900000000000 Ca
   0.8489640000000001    0.4552000000000000    0.8727066666666666 Ca
   0.9510300000000000    0.5448300000000000    0.1272900000000000 Ca
   0.6489640000000001    0.4552000000000000    0.5393733333333333 Ca
   0.7510300000000001    0.5448300000000000    0.7939566666666666 Ca
   0.0489640000000000    0.4552000000000000    0.5393733333333333 Ca
   0.1510300000000000    0.5448300000000000    0.7939566666666666 Ca
   0.8489640000000001    0.4552000000000000    0.5393733333333333 Ca
   0.9510300000000000    0.5448300000000000    0.7939566666666666 Ca
   0.4489640000000000    0.4552000000000000    0.5393733333333333 Ca
   0.5510300000000000    0.5448300000000000    0.7939566666666666 Ca
   0.2489640000000000    0.4552000000000000    0.5393733333333333 Ca
   0.3510300000000000    0.5448300000000000    0.7939566666666666 Ca
   0.6499960000000001    0.2730300000000000    0.3155033333333333 H
   0.6488220000000001    0.9127400000000000    0.2467266666666666 H
   0.6444820000000001    0.4773900000000000    0.3661766666666667 H
   0.6549020000000001    0.8930200000000000    0.3890933333333333 H
   0.7500040000000001    0.7270100000000000    0.3511633333333333 H
   0.7511780000000001    0.0872900000000000    0.4199366666666666 H
   0.7555160000000001    0.5226400000000000    0.3004900000000000 H
   0.7450980000000000    0.1070100000000000    0.2775666666666666 H
   0.0499960000000000    0.2730300000000000    0.3155033333333333 H
   0.0488220000000000    0.9127400000000000    0.2467266666666666 H
   0.0444820000000000    0.4773900000000000    0.3661766666666667 H
   0.0549020000000000    0.8930200000000000    0.3890933333333333 H
   0.1500040000000000    0.7270100000000000    0.3511633333333333 H
   0.1511780000000000    0.0872900000000000    0.4199366666666666 H
   0.1555160000000000    0.5226400000000000    0.3004900000000000 H
   0.1450980000000000    0.1070100000000000    0.2775666666666666 H
   0.8499960000000001    0.2730300000000000    0.3155033333333333 H
   0.8488220000000001    0.9127400000000000    0.2467266666666666 H
   0.8444820000000001    0.4773900000000000    0.3661766666666667 H
   0.8549020000000001    0.8930200000000000    0.3890933333333333 H
   0.9500040000000001    0.7270100000000000    0.3511633333333333 H
   0.9511780000000001    0.0872900000000000    0.4199366666666666 H
   0.9555160000000000    0.5226400000000000    0.3004900000000000 H
   0.9450980000000000    0.1070100000000000    0.2775666666666666 H
   0.4499960000000000    0.2730300000000000    0.3155033333333333 H
   0.4488220000000001    0.9127400000000000    0.2467266666666666 H
   0.4444820000000000    0.4773900000000000    0.3661766666666667 H
   0.4549020000000000    0.8930200000000000    0.3890933333333333 H
   0.5500040000000000    0.7270100000000000    0.3511633333333333 H
   0.5511780000000001    0.0872900000000000    0.4199366666666666 H
   0.5555160000000000    0.5226400000000000    0.3004900000000000 H
   0.5450980000000001    0.1070100000000000    0.2775666666666666 H
   0.2499960000000000    0.2730300000000000    0.3155033333333333 H
   0.2488220000000000    0.9127400000000000    0.2467266666666666 H
   0.2444820000000000    0.4773900000000000    0.3661766666666667 H
   0.2549020000000000    0.8930200000000000    0.3890933333333333 H
   0.3500040000000000    0.7270100000000000    0.3511633333333333 H
   0.3511780000000000    0.0872900000000000    0.4199366666666666 H
   0.3555160000000001    0.5226400000000000    0.3004900000000000 H
   0.3450980000000000    0.1070100000000000    0.2775666666666666 H
   0.4499960000000000    0.2730300000000000    0.9821700000000000 H
   0.4488220000000001    0.9127400000000000    0.9133933333333333 H
   0.4444820000000000    0.4773900000000000    0.0328433333333333 H
   0.4549020000000000    0.8930200000000000    0.0557600000000000 H
   0.5500040000000000    0.7270100000000000    0.0178300000000000 H
   0.5511780000000001    0.0872900000000000    0.0866033333333333 H
   0.5555160000000000    0.5226400000000000    0.9671566666666667 H
   0.5450980000000001    0.1070100000000000    0.9442333333333333 H
   0.2514953088298933    0.1130103328174332    0.9540982615880741 H
   0.2460749309488504    0.7976305512460786    0.8762304275014401 H
   0.2439489392848134    0.3873032589303467    0.9861587447574942 H
   0.2448540026747766    0.5970673359884835    0.9336753097841159 H
   0.0499960000000000    0.2730300000000000    0.9821700000000000 H
   0.0488220000000000    0.9127400000000000    0.9133933333333333 H
   0.0444820000000000    0.4773900000000000    0.0328433333333333 H
   0.0549020000000000    0.8930200000000000    0.0557600000000000 H
   0.3500040000000000    0.7270100000000000    0.0178300000000000 H
   0.3511780000000000    0.0872900000000000    0.0866033333333333 H
   0.3555160000000001    0.5226400000000000    0.9671566666666667 H
   0.3450980000000000    0.1070100000000000    0.9442333333333333 H
   0.1500040000000000    0.7270100000000000    0.0178300000000000 H
   0.1511780000000000    0.0872900000000000    0.0866033333333333 H
   0.1555160000000000    0.5226400000000000    0.9671566666666667 H
   0.1450980000000000    0.1070100000000000    0.9442333333333333 H
   0.2998577243511186    0.6516387571619220    0.1155713824248514 H
   0.2030792707056145    0.4800229974428611    0.1131732417018185 H
   0.2512760208087225    0.5678922947749275    0.1122919913234490 H
   0.6499960000000001    0.2730300000000000    0.9821700000000000 H
   0.6488220000000001    0.9127400000000000    0.9133933333333333 H
   0.6444820000000001    0.4773900000000000    0.0328433333333333 H
   0.6549020000000001    0.8930200000000000    0.0557600000000000 H
   0.7500040000000001    0.7270100000000000    0.0178300000000000 H
   0.7511780000000001    0.0872900000000000    0.0866033333333333 H
   0.7555160000000001    0.5226400000000000    0.9671566666666667 H
   0.7450980000000000    0.1070100000000000    0.9442333333333333 H
   0.8499960000000001    0.2730300000000000    0.9821700000000000 H
   0.8488220000000001    0.9127400000000000    0.9133933333333333 H
   0.8444820000000001    0.4773900000000000    0.0328433333333333 H
   0.8549020000000001    0.8930200000000000    0.0557600000000000 H
   0.9500040000000001    0.7270100000000000    0.0178300000000000 H
   0.9511780000000001    0.0872900000000000    0.0866033333333333 H
   0.9555160000000000    0.5226400000000000    0.9671566666666667 H
   0.9450980000000000    0.1070100000000000    0.9442333333333333 H
   0.6499960000000001    0.2730300000000000    0.6488366666666666 H
   0.6488220000000001    0.9127400000000000    0.5800600000000000 H
   0.6444820000000001    0.4773900000000000    0.6995100000000000 H
   0.6549020000000001    0.8930200000000000    0.7224266666666667 H
   0.7500040000000001    0.7270100000000000    0.6844966666666666 H
   0.7511780000000001    0.0872900000000000    0.7532700000000000 H
   0.7555160000000001    0.5226400000000000    0.6338233333333333 H
   0.7450980000000000    0.1070100000000000    0.6109000000000000 H
   0.0499960000000000    0.2730300000000000    0.6488366666666666 H
   0.0488220000000000    0.9127400000000000    0.5800600000000000 H
   0.0444820000000000    0.4773900000000000    0.6995100000000000 H
   0.0549020000000000    0.8930200000000000    0.7224266666666667 H
   0.1500040000000000    0.7270100000000000    0.6844966666666666 H
   0.1511780000000000    0.0872900000000000    0.7532700000000000 H
   0.1555160000000000    0.5226400000000000    0.6338233333333333 H
   0.1450980000000000    0.1070100000000000    0.6109000000000000 H
   0.8499960000000001    0.2730300000000000    0.6488366666666666 H
   0.8488220000000001    0.9127400000000000    0.5800600000000000 H
   0.8444820000000001    0.4773900000000000    0.6995100000000000 H
   0.8549020000000001    0.8930200000000000    0.7224266666666667 H
   0.9500040000000001    0.7270100000000000    0.6844966666666666 H
   0.9511780000000001    0.0872900000000000    0.7532700000000000 H
   0.9555160000000000    0.5226400000000000    0.6338233333333333 H
   0.9450980000000000    0.1070100000000000    0.6109000000000000 H
   0.4499960000000000    0.2730300000000000    0.6488366666666666 H
   0.4488220000000001    0.9127400000000000    0.5800600000000000 H
   0.4444820000000000    0.4773900000000000    0.6995100000000000 H
   0.4549020000000000    0.8930200000000000    0.7224266666666667 H
   0.5500040000000000    0.7270100000000000    0.6844966666666666 H
   0.5511780000000001    0.0872900000000000    0.7532700000000000 H
   0.5555160000000000    0.5226400000000000    0.6338233333333333 H
   0.5450980000000001    0.1070100000000000    0.6109000000000000 H
   0.2499960000000000    0.2730300000000000    0.6488366666666666 H
   0.2488220000000000    0.9127400000000000    0.5800600000000000 H
   0.2444820000000000    0.4773900000000000    0.6995100000000000 H
   0.2549020000000000    0.8930200000000000    0.7224266666666667 H
   0.3500040000000000    0.7270100000000000    0.6844966666666666 H
   0.3511780000000000    0.0872900000000000    0.7532700000000000 H
   0.3555160000000001    0.5226400000000000    0.6338233333333333 H
   0.3450980000000000    0.1070100000000000    0.6109000000000000 H
   0.6460740000000000    0.6057300000000000    0.2694000000000000 C
   0.6507560000000001    0.5880400000000000    0.4357633333333333 C
   0.6514460000000001    0.0955400000000000    0.2967266666666666 C
   0.6491980000000001    0.8470299999999999    0.2849733333333333 C
   0.6511360000000000    0.9228900000000000    0.3158933333333333 C
   0.6474780000000001    0.6858700000000000    0.3030766666666667 C
   0.6468720000000001    0.6014100000000000    0.3522800000000000 C
   0.6525140000000000    0.8356100000000000    0.3649666666666667 C
   0.6500260000000001    0.6756700000000000    0.3831733333333333 C
   0.7539240000000000    0.3943000000000000    0.3972633333333333 C
   0.7492400000000001    0.4120000000000000    0.2309000000000000 C
   0.7485500000000000    0.9045000000000000    0.3699400000000000 C
   0.7507980000000001    0.1530100000000000    0.3816866666666666 C
   0.7488620000000001    0.0771400000000000    0.3507700000000000 C
   0.7525180000000001    0.3141700000000000    0.3635866666666667 C
   0.7531220000000001    0.3986200000000000    0.3143833333333333 C
   0.7474820000000001    0.1644200000000000    0.3016933333333333 C
   0.7499680000000001    0.3243700000000000    0.2834866666666667 C
   0.0460740000000000    0.6057300000000000    0.2694000000000000 C
   0.0507560000000000    0.5880400000000000    0.4357633333333333 C
   0.0514460000000000    0.0955400000000000    0.2967266666666666 C
   0.0491980000000000    0.8470299999999999    0.2849733333333333 C
   0.0511360000000000    0.9228900000000000    0.3158933333333333 C
   0.0474780000000000    0.6858700000000000    0.3030766666666667 C
   0.0468720000000000    0.6014100000000000    0.3522800000000000 C
   0.0525140000000000    0.8356100000000000    0.3649666666666667 C
   0.0500260000000000    0.6756700000000000    0.3831733333333333 C
   0.1539240000000000    0.3943000000000000    0.3972633333333333 C
   0.1492400000000000    0.4120000000000000    0.2309000000000000 C
   0.1485500000000000    0.9045000000000000    0.3699400000000000 C
   0.1507980000000000    0.1530100000000000    0.3816866666666666 C
   0.1488620000000000    0.0771400000000000    0.3507700000000000 C
   0.1525180000000000    0.3141700000000000    0.3635866666666667 C
   0.1531220000000000    0.3986200000000000    0.3143833333333333 C
   0.1474820000000000    0.1644200000000000    0.3016933333333333 C
   0.1499680000000000    0.3243700000000000    0.2834866666666667 C
   0.8460740000000000    0.6057300000000000    0.2694000000000000 C
   0.8507560000000001    0.5880400000000000    0.4357633333333333 C
   0.8514460000000000    0.0955400000000000    0.2967266666666666 C
   0.8491980000000000    0.8470299999999999    0.2849733333333333 C
   0.8511360000000000    0.9228900000000000    0.3158933333333333 C
   0.8474780000000001    0.6858700000000000    0.3030766666666667 C
   0.8468720000000001    0.6014100000000000    0.3522800000000000 C
   0.8525140000000000    0.8356100000000000    0.3649666666666667 C
   0.8500260000000001    0.6756700000000000    0.3831733333333333 C
   0.9539240000000000    0.3943000000000000    0.3972633333333333 C
   0.9492400000000001    0.4120000000000000    0.2309000000000000 C
   0.9485500000000000    0.9045000000000000    0.3699400000000000 C
   0.9507980000000000    0.1530100000000000    0.3816866666666666 C
   0.9488620000000001    0.0771400000000000    0.3507700000000000 C
   0.9525180000000001    0.3141700000000000    0.3635866666666667 C
   0.9531220000000000    0.3986200000000000    0.3143833333333333 C
   0.9474820000000000    0.1644200000000000    0.3016933333333333 C
   0.9499680000000000    0.3243700000000000    0.2834866666666667 C
   0.4460740000000000    0.6057300000000000    0.2694000000000000 C
   0.4507560000000000    0.5880400000000000    0.4357633333333333 C
   0.4514460000000000    0.0955400000000000    0.2967266666666666 C
   0.4491980000000000    0.8470299999999999    0.2849733333333333 C
   0.4511360000000000    0.9228900000000000    0.3158933333333333 C
   0.4474780000000000    0.6858700000000000    0.3030766666666667 C
   0.4468720000000000    0.6014100000000000    0.3522800000000000 C
   0.4525140000000000    0.8356100000000000    0.3649666666666667 C
   0.4500260000000000    0.6756700000000000    0.3831733333333333 C
   0.5539240000000001    0.3943000000000000    0.3972633333333333 C
   0.5492400000000001    0.4120000000000000    0.2309000000000000 C
   0.5485500000000001    0.9045000000000000    0.3699400000000000 C
   0.5507980000000000    0.1530100000000000    0.3816866666666666 C
   0.5488620000000001    0.0771400000000000    0.3507700000000000 C
   0.5525180000000001    0.3141700000000000    0.3635866666666667 C
   0.5531220000000000    0.3986200000000000    0.3143833333333333 C
   0.5474820000000000    0.1644200000000000    0.3016933333333333 C
   0.5499680000000000    0.3243700000000000    0.2834866666666667 C
   0.2460740000000000    0.6057300000000000    0.2694000000000000 C
   0.2507560000000000    0.5880400000000000    0.4357633333333333 C
   0.2514460000000000    0.0955400000000000    0.2967266666666666 C
   0.2491980000000000    0.8470299999999999    0.2849733333333333 C
   0.2511360000000000    0.9228900000000000    0.3158933333333333 C
   0.2474780000000000    0.6858700000000000    0.3030766666666667 C
   0.2468720000000000    0.6014100000000000    0.3522800000000000 C
   0.2525140000000000    0.8356100000000000    0.3649666666666667 C
   0.2500260000000000    0.6756700000000000    0.3831733333333333 C
   0.3539240000000000    0.3943000000000000    0.3972633333333333 C
   0.3492400000000000    0.4120000000000000    0.2309000000000000 C
   0.3485500000000000    0.9045000000000000    0.3699400000000000 C
   0.3507980000000001    0.1530100000000000    0.3816866666666666 C
   0.3488620000000000    0.0771400000000000    0.3507700000000000 C
   0.3525180000000000    0.3141700000000000    0.3635866666666667 C
   0.3531220000000000    0.3986200000000000    0.3143833333333333 C
   0.3474820000000000    0.1644200000000000    0.3016933333333333 C
   0.3499680000000000    0.3243700000000000    0.2834866666666667 C
   0.4460740000000000    0.6057300000000000    0.9360666666666666 C
   0.4507560000000000    0.5880400000000000    0.1024300000000000 C
   0.4514460000000000    0.0955400000000000    0.9633933333333333 C
   0.4491980000000000    0.8470299999999999    0.9516399999999999 C
   0.4511360000000000    0.9228900000000000    0.9825599999999999 C
   0.4474780000000000    0.6858700000000000    0.9697433333333333 C
   0.4468720000000000    0.6014100000000000    0.0189466666666667 C
   0.4525140000000000    0.8356100000000000    0.0316333333333333 C
   0.4500260000000000    0.6756700000000000    0.0498400000000000 C
   0.5539240000000001    0.3943000000000000    0.0639300000000000 C
   0.5492400000000001    0.4120000000000000    0.8975666666666666 C
   0.5485500000000001    0.9045000000000000    0.0366066666666667 C
   0.5507980000000000    0.1530100000000000    0.0483533333333333 C
   0.5488620000000001    0.0771400000000000    0.0174366666666667 C
   0.5525180000000001    0.3141700000000000    0.0302533333333333 C
   0.5531220000000000    0.3986200000000000    0.9810500000000000 C
   0.5474820000000000    0.1644200000000000    0.9683599999999999 C
   0.5499680000000000    0.3243700000000000    0.9501533333333333 C
   0.0460740000000000    0.6057300000000000    0.9360666666666666 C
   0.0507560000000000    0.5880400000000000    0.1024300000000000 C
   0.0514460000000000    0.0955400000000000    0.9633933333333333 C
   0.0491980000000000    0.8470299999999999    0.9516399999999999 C
   0.0511360000000000    0.9228900000000000    0.9825599999999999 C
   0.0474780000000000    0.6858700000000000    0.9697433333333333 C
   0.0468720000000000    0.6014100000000000    0.0189466666666667 C
   0.0525140000000000    0.8356100000000000    0.0316333333333333 C
   0.0500260000000000    0.6756700000000000    0.0498400000000000 C
   0.3539240000000000    0.3943000000000000    0.0639300000000000 C
   0.3492400000000000    0.4120000000000000    0.8975666666666666 C
   0.3485500000000000    0.9045000000000000    0.0366066666666667 C
   0.3507980000000001    0.1530100000000000    0.0483533333333333 C
   0.3488620000000000    0.0771400000000000    0.0174366666666667 C
   0.3525180000000000    0.3141700000000000    0.0302533333333333 C
   0.3531220000000000    0.3986200000000000    0.9810500000000000 C
   0.3474820000000000    0.1644200000000000    0.9683599999999999 C
   0.3499680000000000    0.3243700000000000    0.9501533333333333 C
   0.1539240000000000    0.3943000000000000    0.0639300000000000 C
   0.1492400000000000    0.4120000000000000    0.8975666666666666 C
   0.1485500000000000    0.9045000000000000    0.0366066666666667 C
   0.1507980000000000    0.1530100000000000    0.0483533333333333 C
   0.1488620000000000    0.0771400000000000    0.0174366666666667 C
   0.1525180000000000    0.3141700000000000    0.0302533333333333 C
   0.1531220000000000    0.3986200000000000    0.9810500000000000 C
   0.1474820000000000    0.1644200000000000    0.9683599999999999 C
   0.1499680000000000    0.3243700000000000    0.9501533333333333 C
   0.6460740000000000    0.6057300000000000    0.9360666666666666 C
   0.6507560000000001    0.5880400000000000    0.1024300000000000 C
   0.6514460000000001    0.0955400000000000    0.9633933333333333 C
   0.6491980000000001    0.8470299999999999    0.9516399999999999 C
   0.6511360000000000    0.9228900000000000    0.9825599999999999 C
   0.6474780000000001    0.6858700000000000    0.9697433333333333 C
   0.6468720000000001    0.6014100000000000    0.0189466666666667 C
   0.6525140000000000    0.8356100000000000    0.0316333333333333 C
   0.6500260000000001    0.6756700000000000    0.0498400000000000 C
   0.7539240000000000    0.3943000000000000    0.0639300000000000 C
   0.7492400000000001    0.4120000000000000    0.8975666666666666 C
   0.7485500000000000    0.9045000000000000    0.0366066666666667 C
   0.7507980000000001    0.1530100000000000    0.0483533333333333 C
   0.7488620000000001    0.0771400000000000    0.0174366666666667 C
   0.7525180000000001    0.3141700000000000    0.0302533333333333 C
   0.7531220000000001    0.3986200000000000    0.9810500000000000 C
   0.7474820000000001    0.1644200000000000    0.9683599999999999 C
   0.7499680000000001    0.3243700000000000    0.9501533333333333 C
   0.8460740000000000    0.6057300000000000    0.9360666666666666 C
   0.8507560000000001    0.5880400000000000    0.1024300000000000 C
   0.8514460000000000    0.0955400000000000    0.9633933333333333 C
   0.8491980000000000    0.8470299999999999    0.9516399999999999 C
   0.8511360000000000    0.9228900000000000    0.9825599999999999 C
   0.8474780000000001    0.6858700000000000    0.9697433333333333 C
   0.8468720000000001    0.6014100000000000    0.0189466666666667 C
   0.8525140000000000    0.8356100000000000    0.0316333333333333 C
   0.8500260000000001    0.6756700000000000    0.0498400000000000 C
   0.9539240000000000    0.3943000000000000    0.0639300000000000 C
   0.9492400000000001    0.4120000000000000    0.8975666666666666 C
   0.9485500000000000    0.9045000000000000    0.0366066666666667 C
   0.9507980000000000    0.1530100000000000    0.0483533333333333 C
   0.9488620000000001    0.0771400000000000    0.0174366666666667 C
   0.9525180000000001    0.3141700000000000    0.0302533333333333 C
   0.9531220000000000    0.3986200000000000    0.9810500000000000 C
   0.9474820000000000    0.1644200000000000    0.9683599999999999 C
   0.9499680000000000    0.3243700000000000    0.9501533333333333 C
   0.6460740000000000    0.6057300000000000    0.6027333333333333 C
   0.6507560000000001    0.5880400000000000    0.7690966666666667 C
   0.6514460000000001    0.0955400000000000    0.6300600000000000 C
   0.6491980000000001    0.8470299999999999    0.6183066666666666 C
   0.6511360000000000    0.9228900000000000    0.6492266666666666 C
   0.6474780000000001    0.6858700000000000    0.6364099999999999 C
   0.6468720000000001    0.6014100000000000    0.6856133333333333 C
   0.6525140000000000    0.8356100000000000    0.6982999999999999 C
   0.6500260000000001    0.6756700000000000    0.7165066666666666 C
   0.7539240000000000    0.3943000000000000    0.7305966666666666 C
   0.7492400000000001    0.4120000000000000    0.5642333333333334 C
   0.7485500000000000    0.9045000000000000    0.7032733333333333 C
   0.7507980000000001    0.1530100000000000    0.7150200000000000 C
   0.7488620000000001    0.0771400000000000    0.6841033333333333 C
   0.7525180000000001    0.3141700000000000    0.6969200000000000 C
   0.7531220000000001    0.3986200000000000    0.6477166666666667 C
   0.7474820000000001    0.1644200000000000    0.6350266666666666 C
   0.7499680000000001    0.3243700000000000    0.6168199999999999 C
   0.0460740000000000    0.6057300000000000    0.6027333333333333 C
   0.0507560000000000    0.5880400000000000    0.7690966666666667 C
   0.0514460000000000    0.0955400000000000    0.6300600000000000 C
   0.0491980000000000    0.8470299999999999    0.6183066666666666 C
   0.0511360000000000    0.9228900000000000    0.6492266666666666 C
   0.0474780000000000    0.6858700000000000    0.6364099999999999 C
   0.0468720000000000    0.6014100000000000    0.6856133333333333 C
   0.0525140000000000    0.8356100000000000    0.6982999999999999 C
   0.0500260000000000    0.6756700000000000    0.7165066666666666 C
   0.1539240000000000    0.3943000000000000    0.7305966666666666 C
   0.1492400000000000    0.4120000000000000    0.5642333333333334 C
   0.1485500000000000    0.9045000000000000    0.7032733333333333 C
   0.1507980000000000    0.1530100000000000    0.7150200000000000 C
   0.1488620000000000    0.0771400000000000    0.6841033333333333 C
   0.1525180000000000    0.3141700000000000    0.6969200000000000 C
   0.1531220000000000    0.3986200000000000    0.6477166666666667 C
   0.1474820000000000    0.1644200000000000    0.6350266666666666 C
   0.1499680000000000    0.3243700000000000    0.6168199999999999 C
   0.8460740000000000    0.6057300000000000    0.6027333333333333 C
   0.8507560000000001    0.5880400000000000    0.7690966666666667 C
   0.8514460000000000    0.0955400000000000    0.6300600000000000 C
   0.8491980000000000    0.8470299999999999    0.6183066666666666 C
   0.8511360000000000    0.9228900000000000    0.6492266666666666 C
   0.8474780000000001    0.6858700000000000    0.6364099999999999 C
   0.8468720000000001    0.6014100000000000    0.6856133333333333 C
   0.8525140000000000    0.8356100000000000    0.6982999999999999 C
   0.8500260000000001    0.6756700000000000    0.7165066666666666 C
   0.9539240000000000    0.3943000000000000    0.7305966666666666 C
   0.9492400000000001    0.4120000000000000    0.5642333333333334 C
   0.9485500000000000    0.9045000000000000    0.7032733333333333 C
   0.9507980000000000    0.1530100000000000    0.7150200000000000 C
   0.9488620000000001    0.0771400000000000    0.6841033333333333 C
   0.9525180000000001    0.3141700000000000    0.6969200000000000 C
   0.9531220000000000    0.3986200000000000    0.6477166666666667 C
   0.9474820000000000    0.1644200000000000    0.6350266666666666 C
   0.9499680000000000    0.3243700000000000    0.6168199999999999 C
   0.4460740000000000    0.6057300000000000    0.6027333333333333 C
   0.4507560000000000    0.5880400000000000    0.7690966666666667 C
   0.4514460000000000    0.0955400000000000    0.6300600000000000 C
   0.4491980000000000    0.8470299999999999    0.6183066666666666 C
   0.4511360000000000    0.9228900000000000    0.6492266666666666 C
   0.4474780000000000    0.6858700000000000    0.6364099999999999 C
   0.4468720000000000    0.6014100000000000    0.6856133333333333 C
   0.4525140000000000    0.8356100000000000    0.6982999999999999 C
   0.4500260000000000    0.6756700000000000    0.7165066666666666 C
   0.5539240000000001    0.3943000000000000    0.7305966666666666 C
   0.5492400000000001    0.4120000000000000    0.5642333333333334 C
   0.5485500000000001    0.9045000000000000    0.7032733333333333 C
   0.5507980000000000    0.1530100000000000    0.7150200000000000 C
   0.5488620000000001    0.0771400000000000    0.6841033333333333 C
   0.5525180000000001    0.3141700000000000    0.6969200000000000 C
   0.5531220000000000    0.3986200000000000    0.6477166666666667 C
   0.5474820000000000    0.1644200000000000    0.6350266666666666 C
   0.5499680000000000    0.3243700000000000    0.6168199999999999 C
   0.2460740000000000    0.6057300000000000    0.6027333333333333 C
   0.2507560000000000    0.5880400000000000    0.7690966666666667 C
   0.2514460000000000    0.0955400000000000    0.6300600000000000 C
   0.2491980000000000    0.8470299999999999    0.6183066666666666 C
   0.2511360000000000    0.9228900000000000    0.6492266666666666 C
   0.2474780000000000    0.6858700000000000    0.6364099999999999 C
   0.2468720000000000    0.6014100000000000    0.6856133333333333 C
   0.2525140000000000    0.8356100000000000    0.6982999999999999 C
   0.2500260000000000    0.6756700000000000    0.7165066666666666 C
   0.3539240000000000    0.3943000000000000    0.7305966666666666 C
   0.3492400000000000    0.4120000000000000    0.5642333333333334 C
   0.3485500000000000    0.9045000000000000    0.7032733333333333 C
   0.3507980000000001    0.1530100000000000    0.7150200000000000 C
   0.3488620000000000    0.0771400000000000    0.6841033333333333 C
   0.3525180000000000    0.3141700000000000    0.6969200000000000 C
   0.3531220000000000    0.3986200000000000    0.6477166666666667 C
   0.3474820000000000    0.1644200000000000    0.6350266666666666 C
   0.3499680000000000    0.3243700000000000    0.6168199999999999 C
   0.6462100000000001    0.6848000000000000    0.2250900000000000 O
   0.6450220000000001    0.4567300000000000    0.2863200000000000 O
   0.6773780000000000    0.5997800000000000    0.4587100000000000 O
   0.6245640000000001    0.5062700000000000    0.4572766666666667 O
   0.6512120000000001    0.1536000000000000    0.3301633333333333 O
   0.6516760000000001    0.1770300000000000    0.2533700000000000 O
   0.7537880000000001    0.3152200000000000    0.4415733333333333 O
   0.7549740000000000    0.5433000000000000    0.3803466666666667 O
   0.7226180000000001    0.4002600000000000    0.2079533333333333 O
   0.7754320000000001    0.4937600000000000    0.2093866666666667 O
   0.7487900000000001    0.8464400000000000    0.3365033333333333 O
   0.7483200000000001    0.8230200000000000    0.4132966666666666 O
   0.0462100000000000    0.6848000000000000    0.2250900000000000 O
   0.0450220000000000    0.4567300000000000    0.2863200000000000 O
   0.0773780000000000    0.5997800000000000    0.4587100000000000 O
   0.0245640000000000    0.5062700000000000    0.4572766666666667 O
   0.0512120000000000    0.1536000000000000    0.3301633333333333 O
   0.0516760000000000    0.1770300000000000    0.2533700000000000 O
   0.1537880000000000    0.3152200000000000    0.4415733333333333 O
   0.1549740000000000    0.5433000000000000    0.3803466666666667 O
   0.1226180000000000    0.4002600000000000    0.2079533333333333 O
   0.1754320000000000    0.4937600000000000    0.2093866666666667 O
   0.1487900000000000    0.8464400000000000    0.3365033333333333 O