H4 C9 O6
1.0
  33.7197898318140545    0.0000000000000000    5.0779694463722400
   2.1376445088146925    8.3156317168056848    3.6104882768525575
   0.0000000000000000    0.0000000000000000   30.5504999999999995
H C O
4 9 6
direct
   0.2444820000000000    0.4773900000000000    0.0328433333333333 H
   0.2549020000000000    0.8930200000000000    0.0557600000000000 H
   0.2499960000000000    0.2730300000000000    0.9821700000000000 H
   0.2488220000000000    0.9127400000000000    0.9133933333333333 H
   0.2500260000000000    0.6756700000000000    0.0498400000000000 C
   0.2468720000000000    0.6014100000000000    0.0189466666666667 C
   0.2525140000000000    0.8356100000000000    0.0316333333333333 C
   0.2507560000000000    0.5880400000000000    0.1024300000000000 C
   0.2474780000000000    0.6858700000000000    0.9697433333333333 C
   0.2491980000000000    0.8470299999999999    0.9516399999999999 C
   0.2511360000000000    0.9228900000000000    0.9825599999999999 C
   0.2460740000000000    0.6057300000000000    0.9360666666666666 C
   0.2514460000000000    0.0955400000000000    0.9633933333333333 C
   0.2773780000000000    0.5997800000000000    0.1253766666666667 O
   0.2245640000000000    0.5062700000000000    0.1239433333333333 O
   0.2450220000000000    0.4567300000000000    0.9529866666666666 O
   0.2462100000000000    0.6848000000000000    0.8917566666666666 O
   0.2512120000000000    0.1536000000000000    0.9968299999999999 O
   0.2516760000000000    0.1770300000000000    0.9200366666666666 O
