Zn32 H98 C184 O104
1.0
  31.9637238768055703    0.0000000000000000   18.3369260217553816
   5.3089411943279812   15.0768501580569900    9.1783635091809384
   0.0000000000000000    0.0000000000000000   36.8659999999999997
Zn H C O
32 98 184 104
direct
   0.3967100000000000    0.6195100000000000    0.8966149999999999 Zn
   0.3097800000000000    0.7933700000000000    0.8966750000000000 Zn
   0.3968000000000000    0.7936700000000000    0.8968200000000000 Zn
   0.3967100000000000    0.7932600000000000    0.3095000000000000 Zn
   0.1033000000000000    0.3805000000000000    0.1033700000000000 Zn
   0.1902300000000000    0.2066400000000000    0.1033100000000000 Zn
   0.1033000000000000    0.2067500000000000    0.1902400000000000 Zn
   0.1032150000000000    0.2063400000000000    0.1031650000000000 Zn
   0.8967100000000000    0.6195100000000000    0.8966149999999999 Zn
   0.8097799999999999    0.7933700000000000    0.8966750000000000 Zn
   0.8968000000000000    0.7936700000000000    0.8968200000000000 Zn
   0.8967100000000000    0.7932600000000000    0.3095000000000000 Zn
   0.6032999999999999    0.3805000000000000    0.1033700000000000 Zn
   0.6902300000000000    0.2066400000000000    0.1033100000000000 Zn
   0.6032999999999999    0.2067500000000000    0.1902400000000000 Zn
   0.6032150000000001    0.2063400000000000    0.1031650000000000 Zn
   0.3967100000000000    0.6195100000000000    0.3966150000000000 Zn
   0.3097800000000000    0.7933700000000000    0.3966750000000000 Zn
   0.3968000000000000    0.7936700000000000    0.3968200000000000 Zn
   0.3967100000000000    0.7932600000000000    0.8095000000000000 Zn
   0.1033000000000000    0.3805000000000000    0.6033700000000000 Zn
   0.1902300000000000    0.2066400000000000    0.6033100000000000 Zn
   0.1033000000000000    0.2067500000000000    0.6902400000000000 Zn
   0.1032150000000000    0.2063400000000000    0.6031650000000000 Zn
   0.8967100000000000    0.6195100000000000    0.3966150000000000 Zn
   0.8097799999999999    0.7933700000000000    0.3966750000000000 Zn
   0.8968000000000000    0.7936700000000000    0.3968200000000000 Zn
   0.8967100000000000    0.7932600000000000    0.8095000000000000 Zn
   0.6032999999999999    0.3805000000000000    0.6033700000000000 Zn
   0.6902300000000000    0.2066400000000000    0.6033100000000000 Zn
   0.6032999999999999    0.2067500000000000    0.6902400000000000 Zn
   0.6032150000000001    0.2063400000000000    0.6031650000000000 Zn
   0.6403060729323233    0.1129689225738851    0.5564876131763873 H
   0.7464413784609929    0.1133733463718008    0.5566812280594049 H
   0.6972566418520760    0.1054148352852472    0.5527067986532244 H
   0.8597035237813785    0.8870415025311194    0.4434975993080166 H
   0.7535686444172275    0.8866362155610660    0.4433035528981548 H
   0.8027524251751449    0.8945951496497102    0.4472781938152800 H
   0.7840650000000000    0.0483700000000000    0.0241850000000000 H
   0.8321900000000000    0.9522500000000000    0.9761050000000000 H
   0.6678200000000000    0.0477600000000000    0.0238850000000000 H
   0.7159450000000001    0.9516300000000000    0.9758000000000000 H
   0.2840650000000000    0.0483700000000000    0.5241850000000000 H
   0.3321900000000000    0.9522500000000000    0.4761050000000000 H
   0.1678200000000000    0.0477600000000000    0.5238850000000000 H
   0.2159450000000000    0.9516300000000000    0.4758000000000000 H
   0.2840650000000000    0.0483700000000000    0.0241850000000000 H
   0.3321900000000000    0.9522500000000000    0.9761050000000000 H
   0.1678200000000000    0.0477600000000000    0.0238850000000000 H
   0.2159450000000000    0.9516300000000000    0.9758000000000000 H
   0.9758950000000000    0.9514200000000000    0.7159700000000000 H
   0.0240250000000000    0.0475400000000000    0.6678300000000000 H
   0.9759850000000000    0.9524700000000000    0.8321550000000000 H
   0.0241150000000000    0.0485900000000000    0.7840199999999999 H
   0.9758950000000000    0.9514200000000000    0.2159700000000000 H
   0.0240250000000000    0.0475400000000000    0.1678300000000000 H
   0.9759850000000000    0.9524700000000000    0.3321550000000000 H
   0.0241150000000000    0.0485900000000000    0.2840200000000000 H
   0.4758950000000000    0.9514200000000000    0.2159700000000000 H
   0.5240250000000000    0.0475400000000000    0.1678300000000000 H
   0.4759850000000000    0.9524700000000000    0.3321550000000000 H
   0.5241150000000000    0.0485900000000000    0.2840200000000000 H
   0.4758950000000000    0.9514200000000000    0.7159700000000000 H
   0.5240250000000000    0.0475400000000000    0.6678300000000000 H
   0.4759850000000000    0.9524700000000000    0.8321550000000000 H
   0.5241150000000000    0.0485900000000000    0.7840199999999999 H
   0.4759800000000000    0.6643400000000000    0.4762200000000000 H
   0.5241100000000000    0.5680700000000000    0.5243000000000000 H
   0.4759000000000000    0.4319400000000000    0.4756900000000000 H
   0.5240300000000000    0.3356700000000000    0.5237650000000000 H
   0.4759800000000000    0.6643400000000000    0.9762200000000000 H
   0.5241100000000000    0.5680700000000000    0.0243000000000000 H
   0.4759000000000000    0.4319400000000000    0.9756899999999999 H
   0.5240300000000000    0.3356700000000000    0.0237650000000000 H
   0.9759800000000001    0.6643400000000000    0.4762200000000000 H
   0.0241100000000000    0.5680700000000000    0.5243000000000000 H
   0.9759000000000000    0.4319400000000000    0.4756900000000000 H
   0.0240300000000000    0.3356700000000000    0.5237650000000000 H
   0.9759800000000001    0.6643400000000000    0.9762200000000000 H
   0.0241100000000000    0.5680700000000000    0.0243000000000000 H
   0.9759000000000000    0.4319400000000000    0.9756899999999999 H
   0.0240300000000000    0.3356700000000000    0.0237650000000000 H
   0.3321900000000000    0.4318100000000000    0.9758300000000000 H
   0.2840500000000000    0.3356600000000000    0.0239500000000000 H
   0.1678200000000000    0.5682000000000000    0.0241500000000000 H
   0.2159600000000000    0.6643500000000000    0.9760200000000000 H
   0.5240700000000000    0.3356500000000000    0.2840800000000000 H
   0.4759400000000000    0.4318100000000000    0.3321650000000000 H
   0.5240700000000000    0.5682000000000000    0.1678250000000000 H
   0.4759400000000000    0.6643600000000000    0.2159050000000000 H
   0.3321900000000000    0.9517000000000000    0.2159050000000000 H
   0.2840500000000000    0.0479400000000000    0.1678200000000000 H
   0.1678200000000000    0.0483100000000000    0.2840500000000000 H
   0.2159600000000000    0.9520700000000000    0.3321650000000000 H
   0.8321900000000000    0.4318100000000000    0.9758300000000000 H
   0.7840500000000000    0.3356600000000000    0.0239500000000000 H
   0.6678200000000000    0.5682000000000000    0.0241500000000000 H
   0.7159600000000000    0.6643500000000000    0.9760200000000000 H
   0.0240700000000000    0.5682000000000000    0.1678250000000000 H
   0.9759400000000000    0.6643600000000000    0.2159050000000000 H
   0.0240700000000000    0.3356500000000000    0.2840800000000000 H
   0.9759400000000000    0.4318100000000000    0.3321650000000000 H
   0.8321900000000000    0.9517000000000000    0.2159050000000000 H
   0.7840500000000000    0.0479400000000000    0.1678200000000000 H
   0.6678200000000000    0.0483100000000000    0.2840500000000000 H
   0.7159600000000000    0.9520700000000000    0.3321650000000000 H
   0.3321900000000000    0.4318100000000000    0.4758300000000000 H
   0.2840500000000000    0.3356600000000000    0.5239500000000000 H
   0.1678200000000000    0.5682000000000000    0.5241500000000000 H
   0.2159600000000000    0.6643500000000000    0.4760200000000000 H
   0.5240700000000000    0.5682000000000000    0.6678250000000000 H
   0.4759400000000000    0.6643600000000000    0.7159050000000000 H
   0.5240700000000000    0.3356500000000000    0.7840800000000000 H
   0.4759400000000000    0.4318100000000000    0.8321650000000000 H
   0.3321900000000000    0.9517000000000000    0.7159050000000000 H
   0.2840500000000000    0.0479400000000000    0.6678200000000000 H
   0.1678200000000000    0.0483100000000000    0.7840500000000000 H
   0.2159600000000000    0.9520700000000000    0.8321650000000000 H
   0.8321900000000000    0.4318100000000000    0.4758300000000000 H
   0.7840500000000000    0.3356600000000000    0.5239500000000000 H
   0.6678200000000000    0.5682000000000000    0.5241500000000000 H
   0.7159600000000000    0.6643500000000000    0.4760200000000000 H
   0.0240700000000000    0.5682000000000000    0.6678250000000000 H
   0.9759400000000000    0.6643600000000000    0.7159050000000000 H
   0.0240700000000000    0.3356500000000000    0.7840800000000000 H
   0.9759400000000000    0.4318100000000000    0.8321650000000000 H
   0.8321900000000000    0.9517000000000000    0.7159050000000000 H
   0.7840500000000000    0.0479400000000000    0.6678200000000000 H
   0.6678200000000000    0.0483100000000000    0.7840500000000000 H
   0.7159600000000000    0.9520700000000000    0.8321650000000000 H
   0.6944900000000001    0.1109400000000000    0.0554750000000000 C
   0.8055200000000000    0.8890700000000000    0.9445150000000000 C
   0.7695200000000000    0.0268100000000000    0.0134000000000000 C
   0.7961849999999999    0.9735500000000000    0.9867550000000000 C
   0.7768500000000000    0.9463800000000000    0.9731750000000000 C
   0.7038200000000000    0.0264600000000000    0.0132300000000000 C
   0.7304900000000000    0.9732100000000000    0.9865850000000000 C
   0.7231600000000000    0.0536200000000000    0.0268150000000000 C
   0.1944900000000000    0.1109400000000000    0.5554749999999999 C
   0.3055200000000000    0.8890700000000000    0.4445150000000000 C
   0.2695200000000000    0.0268100000000000    0.5134000000000000 C
   0.2961850000000000    0.9735500000000000    0.4867550000000000 C
   0.2768500000000000    0.9463800000000000    0.4731750000000000 C
   0.2038200000000000    0.0264600000000000    0.5132300000000000 C
   0.2304900000000000    0.9732100000000000    0.4865850000000000 C
   0.2231600000000000    0.0536200000000000    0.5268150000000000 C
   0.1944900000000000    0.1109400000000000    0.0554750000000000 C
   0.3055200000000000    0.8890700000000000    0.9445150000000000 C
   0.2695200000000000    0.0268100000000000    0.0134000000000000 C
   0.2961850000000000    0.9735500000000000    0.9867550000000000 C
   0.2768500000000000    0.9463800000000000    0.9731750000000000 C
   0.2038200000000000    0.0264600000000000    0.0132300000000000 C
   0.2304900000000000    0.9732100000000000    0.9865850000000000 C
   0.2231600000000000    0.0536200000000000    0.0268150000000000 C
   0.0555050000000000    0.1109500000000000    0.6944750000000000 C
   0.9445049999999999    0.8890600000000000    0.8055099999999999 C
   0.9866500000000000    0.9730799999999999    0.7304900000000000 C
   0.0133100000000000    0.0263300000000000    0.7038250000000000 C
   0.0268350000000000    0.0536100000000000    0.7231500000000000 C
   0.9867000000000000    0.9736800000000000    0.7961650000000000 C
   0.0133600000000000    0.0269200000000000    0.7694950000000000 C
   0.9731700000000000    0.9464000000000000    0.7768349999999999 C
   0.0555050000000000    0.1109500000000000    0.1944750000000000 C
   0.9445049999999999    0.8890600000000000    0.3055100000000000 C
   0.9866500000000000    0.9730799999999999    0.2304900000000000 C
   0.0133100000000000    0.0263300000000000    0.2038250000000000 C
   0.0268350000000000    0.0536100000000000    0.2231500000000000 C
   0.9867000000000000    0.9736800000000000    0.2961650000000000 C
   0.0133600000000000    0.0269200000000000    0.2694950000000000 C
   0.9731700000000000    0.9464000000000000    0.2768350000000000 C
   0.5555050000000000    0.1109500000000000    0.1944750000000000 C
   0.4445050000000000    0.8890600000000000    0.3055100000000000 C
   0.4866500000000000    0.9730799999999999    0.2304900000000000 C
   0.5133100000000000    0.0263300000000000    0.2038250000000000 C
   0.5268350000000001    0.0536100000000000    0.2231500000000000 C
   0.4867000000000000    0.9736800000000000    0.2961650000000000 C
   0.5133600000000000    0.0269200000000000    0.2694950000000000 C
   0.4731700000000000    0.9464000000000000    0.2768350000000000 C
   0.5555050000000000    0.1109500000000000    0.6944750000000000 C
   0.4445050000000000    0.8890600000000000    0.8055099999999999 C
   0.4866500000000000    0.9730799999999999    0.7304900000000000 C
   0.5133100000000000    0.0263300000000000    0.7038250000000000 C
   0.5268350000000001    0.0536100000000000    0.7231500000000000 C
   0.4867000000000000    0.9736800000000000    0.7961650000000000 C
   0.5133600000000000    0.0269200000000000    0.7694950000000000 C
   0.4731700000000000    0.9464000000000000    0.7768349999999999 C
   0.4445000000000000    0.6110400000000000    0.4445000000000000 C
   0.5555050000000000    0.3889700000000000    0.5554700000000000 C
   0.4867000000000000    0.5923400000000000    0.4868250000000000 C
   0.5133550000000000    0.5390200000000001    0.5134500000000000 C
   0.4866550000000000    0.4609900000000000    0.4865200000000000 C
   0.5133100000000000    0.4076700000000000    0.5131599999999999 C
   0.5268350000000001    0.4463200000000000    0.5268050000000000 C
   0.4731700000000000    0.5536799999999999    0.4731850000000000 C
   0.4445000000000000    0.6110400000000000    0.9445000000000000 C
   0.5555050000000000    0.3889700000000000    0.0554700000000000 C
   0.4867000000000000    0.5923400000000000    0.9868250000000001 C
   0.5133550000000000    0.5390200000000001    0.0134500000000000 C
   0.4866550000000000    0.4609900000000000    0.9865200000000001 C
   0.5133100000000000    0.4076700000000000    0.0131600000000000 C
   0.5268350000000001    0.4463200000000000    0.0268050000000000 C
   0.4731700000000000    0.5536799999999999    0.9731850000000000 C
   0.9445000000000000    0.6110400000000000    0.4445000000000000 C
   0.0555050000000000    0.3889700000000000    0.5554700000000000 C
   0.9867000000000000    0.5923400000000000    0.4868250000000000 C
   0.0133550000000000    0.5390200000000001    0.5134500000000000 C
   0.9866550000000001    0.4609900000000000    0.4865200000000000 C
   0.0133100000000000    0.4076700000000000    0.5131599999999999 C
   0.0268350000000000    0.4463200000000000    0.5268050000000000 C
   0.9731700000000000    0.5536799999999999    0.4731850000000000 C
   0.9445000000000000    0.6110400000000000    0.9445000000000000 C
   0.0555050000000000    0.3889700000000000    0.0554700000000000 C
   0.9867000000000000    0.5923400000000000    0.9868250000000001 C
   0.0133550000000000    0.5390200000000001    0.0134500000000000 C
   0.9866550000000001    0.4609900000000000    0.9865200000000001 C
   0.0133100000000000    0.4076700000000000    0.0131600000000000 C
   0.0268350000000000    0.4463200000000000    0.0268050000000000 C
   0.9731700000000000    0.5536799999999999    0.9731850000000000 C
   0.1945100000000000    0.3891300000000000    0.0555500000000000 C
   0.3055000000000000    0.6108800000000000    0.9444200000000000 C
   0.2961900000000000    0.4609000000000000    0.9866050000000000 C
   0.2695250000000000    0.4076600000000000    0.0132700000000000 C
   0.2231800000000000    0.4464200000000000    0.0268000000000000 C
   0.2038200000000000    0.5391100000000000    0.0133800000000000 C
   0.2304850000000000    0.5923500000000000    0.9867150000000000 C
   0.2768300000000000    0.5535900000000000    0.9731500000000000 C
   0.5555600000000001    0.3891200000000000    0.1945500000000000 C
   0.4444500000000000    0.6108800000000000    0.3054350000000000 C
   0.5133350000000000    0.4076500000000000    0.2695350000000000 C
   0.4866750000000000    0.4609100000000000    0.2961650000000000 C
   0.5268450000000000    0.4464100000000000    0.2231950000000000 C
   0.5133350000000000    0.5391000000000000    0.2038200000000000 C
   0.4866700000000000    0.5923600000000000    0.2304500000000000 C
   0.4731600000000000    0.5536000000000000    0.2767900000000000 C
   0.3055000000000000    0.8888700000000000    0.3054000000000000 C
   0.1945100000000000    0.1111400000000000    0.1945550000000000 C
   0.2961900000000000    0.9732499999999999    0.2304450000000000 C
   0.2695300000000000    0.0265500000000000    0.2038200000000000 C
   0.2768300000000000    0.9463400000000000    0.2767500000000000 C
   0.2038200000000000    0.0267600000000000    0.2695400000000000 C
   0.2304800000000000    0.9734600000000000    0.2961700000000000 C
   0.2231800000000000    0.0536700000000000    0.2232000000000000 C
   0.6945100000000000    0.3891300000000000    0.0555500000000000 C
   0.8055000000000000    0.6108800000000000    0.9444200000000000 C
   0.7961900000000000    0.4609000000000000    0.9866050000000000 C
   0.7695250000000000    0.4076600000000000    0.0132700000000000 C
   0.7231799999999999    0.4464200000000000    0.0268000000000000 C
   0.7038200000000000    0.5391100000000000    0.0133800000000000 C
   0.7304850000000001    0.5923500000000000    0.9867150000000000 C
   0.7768300000000000    0.5535900000000000    0.9731500000000000 C
   0.0555600000000000    0.3891200000000000    0.1945500000000000 C
   0.9444500000000000    0.6108800000000000    0.3054350000000000 C
   0.0133350000000000    0.5391000000000000    0.2038200000000000 C
   0.9866699999999999    0.5923600000000000    0.2304500000000000 C
   0.9731600000000000    0.5536000000000000    0.2767900000000000 C
   0.0133350000000000    0.4076500000000000    0.2695350000000000 C
   0.9866750000000000    0.4609100000000000    0.2961650000000000 C
   0.0268450000000000    0.4464100000000000    0.2231950000000000 C
   0.8055000000000000    0.8888700000000000    0.3054000000000000 C
   0.6945100000000000    0.1111400000000000    0.1945550000000000 C
   0.7961900000000000    0.9732499999999999    0.2304450000000000 C
   0.7695300000000000    0.0265500000000000    0.2038200000000000 C
   0.7768300000000000    0.9463400000000000    0.2767500000000000 C
   0.7038200000000000    0.0267600000000000    0.2695400000000000 C
   0.7304800000000000    0.9734600000000000    0.2961700000000000 C
   0.7231799999999999    0.0536700000000000    0.2232000000000000 C
   0.1945100000000000    0.3891300000000000    0.5555500000000000 C
   0.3055000000000000    0.6108800000000000    0.4444200000000000 C
   0.2961900000000000    0.4609000000000000    0.4866050000000000 C
   0.2695250000000000    0.4076600000000000    0.5132700000000000 C
   0.2231800000000000    0.4464200000000000    0.5268000000000000 C
   0.2038200000000000    0.5391100000000000    0.5133799999999999 C
   0.2304850000000000    0.5923500000000000    0.4867150000000000 C
   0.2768300000000000    0.5535900000000000    0.4731500000000000 C
   0.5555600000000001    0.3891200000000000    0.6945500000000000 C
   0.4444500000000000    0.6108800000000000    0.8054350000000000 C
   0.5133350000000000    0.5391000000000000    0.7038200000000000 C
   0.4866700000000000    0.5923600000000000    0.7304500000000000 C
   0.4731600000000000    0.5536000000000000    0.7767900000000000 C
   0.5133350000000000    0.4076500000000000    0.7695350000000001 C
   0.4866750000000000    0.4609100000000000    0.7961650000000000 C
   0.5268450000000000    0.4464100000000000    0.7231950000000000 C
   0.3055000000000000    0.8888700000000000    0.8054000000000000 C
   0.1945100000000000    0.1111400000000000    0.6945550000000000 C
   0.2961900000000000    0.9732499999999999    0.7304450000000000 C
   0.2695300000000000    0.0265500000000000    0.7038200000000000 C
   0.2768300000000000    0.9463400000000000    0.7767500000000001 C
   0.2038200000000000    0.0267600000000000    0.7695400000000000 C
   0.2304800000000000    0.9734600000000000    0.7961700000000000 C
   0.2231800000000000    0.0536700000000000    0.7232000000000001 C
   0.6945100000000000    0.3891300000000000    0.5555500000000000 C
   0.8055000000000000    0.6108800000000000    0.4444200000000000 C
   0.7961900000000000    0.4609000000000000    0.4866050000000000 C
   0.7695250000000000    0.4076600000000000    0.5132700000000000 C
   0.7231799999999999    0.4464200000000000    0.5268000000000000 C
   0.7038200000000000    0.5391100000000000    0.5133799999999999 C
   0.7304850000000001    0.5923500000000000    0.4867150000000000 C
   0.7768300000000000    0.5535900000000000    0.4731500000000000 C
   0.0555600000000000    0.3891200000000000    0.6945500000000000 C
   0.9444500000000000    0.6108800000000000    0.8054350000000000 C
   0.0133350000000000    0.5391000000000000    0.7038200000000000 C
   0.9866699999999999    0.5923600000000000    0.7304500000000000 C
   0.9731600000000000    0.5536000000000000    0.7767900000000000 C
   0.0133350000000000    0.4076500000000000    0.7695350000000001 C
   0.9866750000000000    0.4609100000000000    0.7961650000000000 C
   0.0268450000000000    0.4464100000000000    0.7231950000000000 C
   0.8055000000000000    0.8888700000000000    0.8054000000000000 C
   0.6945100000000000    0.1111400000000000    0.6945550000000000 C
   0.7961900000000000    0.9732499999999999    0.7304450000000000 C
   0.7695300000000000    0.0265500000000000    0.7038200000000000 C
   0.7768300000000000    0.9463400000000000    0.7767500000000001 C
   0.7038200000000000    0.0267600000000000    0.7695400000000000 C
   0.7304800000000000    0.9734600000000000    0.7961700000000000 C
   0.7231799999999999    0.0536700000000000    0.7232000000000001 C
   0.6525750000000000    0.1329300000000000    0.5664650000000000 O
   0.7143100000000000    0.1331600000000000    0.5665750000000001 O
   0.8474349999999999    0.8670800000000000    0.4335200000000000 O
   0.7857000000000001    0.8668500000000000    0.4334100000000000 O
   0.7143100000000000    0.1331600000000000    0.0665750000000000 O
   0.6525750000000000    0.1329300000000000    0.0664650000000000 O
   0.7857000000000001    0.8668500000000000    0.9334100000000001 O
   0.8474349999999999    0.8670800000000000    0.9335200000000000 O
   0.2143100000000000    0.1331600000000000    0.5665750000000001 O
   0.1525750000000000    0.1329300000000000    0.5664650000000000 O
   0.2857000000000000    0.8668500000000000    0.4334100000000000 O
   0.3474350000000000    0.8670800000000000    0.4335200000000000 O
   0.2143100000000000    0.1331600000000000    0.0665750000000000 O
   0.1525750000000000    0.1329300000000000    0.0664650000000000 O
   0.2857000000000000    0.8668500000000000    0.9334100000000001 O
   0.3474350000000000    0.8670800000000000    0.9335200000000000 O
   0.0666000000000000    0.1331800000000000    0.7142900000000000 O
   0.0665050000000000    0.1329200000000000    0.6525750000000000 O
   0.9335050000000000    0.8670900000000000    0.8474100000000000 O
   0.9334100000000001    0.8668200000000000    0.7855000000000000 O
   0.0666000000000000    0.1331800000000000    0.2142900000000000 O
   0.0665050000000000    0.1329200000000000    0.1525750000000000 O
   0.9335050000000000    0.8670900000000000    0.3474100000000000 O
   0.9334100000000001    0.8668200000000000    0.2855000000000000 O
   0.5666000000000000    0.1331800000000000    0.2142900000000000 O
   0.5665050000000000    0.1329200000000000    0.1525750000000000 O
   0.4335050000000000    0.8670900000000000    0.3474100000000000 O
   0.4334100000000000    0.8668200000000000    0.2855000000000000 O
   0.5666000000000000    0.1331800000000000    0.7142900000000000 O
   0.5665050000000000    0.1329200000000000    0.6525750000000000 O
   0.4335050000000000    0.8670900000000000    0.8474100000000000 O
   0.4334100000000000    0.8668200000000000    0.7855000000000000 O
   0.4334150000000000    0.5714100000000000    0.4333900000000000 O
   0.4335000000000000    0.6948500000000000    0.4335300000000000 O
   0.5665950000000000    0.4286000000000000    0.5665900000000000 O
   0.5665100000000000    0.3051600000000000    0.5664550000000000 O
   0.4334150000000000    0.5714100000000000    0.9333899999999999 O
   0.4335000000000000    0.6948500000000000    0.9335300000000000 O
   0.5665950000000000    0.4286000000000000    0.0665900000000000 O
   0.5665100000000000    0.3051600000000000    0.0664550000000000 O
   0.9334150000000000    0.5714100000000000    0.4333900000000000 O
   0.9335000000000000    0.6948500000000000    0.4335300000000000 O
   0.0665950000000000    0.4286000000000000    0.5665900000000000 O
   0.0665100000000000    0.3051600000000000    0.5664550000000000 O
   0.9334150000000000    0.5714100000000000    0.9333899999999999 O
   0.9335000000000000    0.6948500000000000    0.9335300000000000 O
   0.0665950000000000    0.4286000000000000    0.0665900000000000 O
   0.0665100000000000    0.3051600000000000    0.0664550000000000 O
   0.3750250000000000    0.7499800000000000    0.8749800000000000 O
   0.1526150000000000    0.4287400000000000    0.0666400000000000 O
   0.2143000000000000    0.3053400000000000    0.0665000000000000 O
   0.3473950000000000    0.5712699999999999    0.9333450000000000 O
   0.2857100000000000    0.6946700000000000    0.9333000000000000 O
   0.5666400000000000    0.3053300000000000    0.2143500000000000 O
   0.5666400000000000    0.4287300000000000    0.1526550000000000 O
   0.4333700000000000    0.5712800000000000    0.3473300000000000 O
   0.4333700000000000    0.6946800000000000    0.2856350000000000 O
   0.3473950000000000    0.8667200000000000    0.2856300000000000 O
   0.2857100000000000    0.8667000000000000    0.3473250000000000 O
   0.1526150000000000    0.1332900000000000    0.2143550000000000 O
   0.2143000000000000    0.1333000000000000    0.1526600000000000 O
   0.1249850000000000    0.2500300000000000    0.1250050000000000 O
   0.8750249999999999    0.7499800000000000    0.8749800000000000 O
   0.6526149999999999    0.4287400000000000    0.0666400000000000 O
   0.7142999999999999    0.3053400000000000    0.0665000000000000 O
   0.8473950000000000    0.5712699999999999    0.9333450000000000 O
   0.7857100000000000    0.6946700000000000    0.9333000000000000 O
   0.0666400000000000    0.3053300000000000    0.2143500000000000 O
   0.0666400000000000    0.4287300000000000    0.1526550000000000 O
   0.9333700000000000    0.5712800000000000    0.3473300000000000 O
   0.9333700000000000    0.6946800000000000    0.2856350000000000 O
   0.8473950000000000    0.8667200000000000    0.2856300000000000 O
   0.7857100000000000    0.8667000000000000    0.3473250000000000 O
   0.6526149999999999    0.1332900000000000    0.2143550000000000 O
   0.7142999999999999    0.1333000000000000    0.1526600000000000 O
   0.6249850000000000    0.2500300000000000    0.1250050000000000 O
   0.3750250000000000    0.7499800000000000    0.3749800000000000 O
   0.1526150000000000    0.4287400000000000    0.5666400000000000 O
   0.2143000000000000    0.3053400000000000    0.5665000000000000 O
   0.3473950000000000    0.5712699999999999    0.4333450000000000 O
   0.2857100000000000    0.6946700000000000    0.4333000000000000 O
   0.5666400000000000    0.3053300000000000    0.7143500000000000 O
   0.5666400000000000    0.4287300000000000    0.6526550000000000 O
   0.4333700000000000    0.5712800000000000    0.8473300000000000 O
   0.4333700000000000    0.6946800000000000    0.7856350000000000 O
   0.3473950000000000    0.8667200000000000    0.7856300000000001 O
   0.2857100000000000    0.8667000000000000    0.8473250000000000 O
   0.1526150000000000    0.1332900000000000    0.7143550000000000 O
   0.2143000000000000    0.1333000000000000    0.6526600000000000 O
   0.1249850000000000    0.2500300000000000    0.6250050000000000 O
   0.8750249999999999    0.7499800000000000    0.3749800000000000 O
   0.6526149999999999    0.4287400000000000    0.5666400000000000 O
   0.7142999999999999    0.3053400000000000    0.5665000000000000 O
   0.8473950000000000    0.5712699999999999    0.4333450000000000 O
   0.7857100000000000    0.6946700000000000    0.4333000000000000 O
   0.0666400000000000    0.3053300000000000    0.7143500000000000 O
   0.0666400000000000    0.4287300000000000    0.6526550000000000 O
   0.9333700000000000    0.5712800000000000    0.8473300000000000 O
   0.9333700000000000    0.6946800000000000    0.7856350000000000 O
   0.8473950000000000    0.8667200000000000    0.7856300000000001 O
   0.7857100000000000    0.8667000000000000    0.8473250000000000 O
   0.6526149999999999    0.1332900000000000    0.7143550000000000 O
   0.7142999999999999    0.1333000000000000    0.6526600000000000 O
   0.6249850000000000    0.2500300000000000    0.6250050000000000 O
