H6 O4
1.0
  31.9637238768055703    0.0000000000000000   18.3369260217553816
   5.3089411943279812   15.0768501580569900    9.1783635091809384
   0.0000000000000000    0.0000000000000000   36.8659999999999997
H O
6 4
direct
   0.6403060729323233    0.1129689225738851    0.5564876131763873 H
   0.7464413784609929    0.1133733463718008    0.5566812280594049 H
   0.6972566418520760    0.1054148352852472    0.5527067986532244 H
   0.8597035237813785    0.8870415025311194    0.4434975993080166 H
   0.7535686444172275    0.8866362155610660    0.4433035528981548 H
   0.8027524251751449    0.8945951496497102    0.4472781938152800 H
   0.6525750000000000    0.1329300000000000    0.5664650000000000 O
   0.7143100000000000    0.1331600000000000    0.5665750000000001 O
   0.8474349999999999    0.8670800000000000    0.4335200000000000 O
   0.7857000000000001    0.8668500000000000    0.4334100000000000 O
