H6 O4
1.0
  17.2083485189623389    0.0000000000000000    0.9214283748217863
   0.1582934120279490   17.2276899392999283    0.9752838310218130
   0.0000000000000000    0.0000000000000000   17.4070000000000000
H O
6 4
direct
  -0.0640112077816187    0.2032394082487012    0.6449471655368998 H
  -0.0620148717258999    0.0613315810420591    0.8286108367539079 H
  -0.0749034830770261    0.1311230802468917    0.7372690255384076 H
   0.3488155638115539    0.0768031874875932    0.6350393700313040 H
   0.3445652286394865    0.1911982352286047    0.8225778675962068 H
   0.3591441531188833    0.1332038094935886    0.7291811119789177 H
  -0.0333000000000000    0.1757800000000000    0.6830700000000000 O
  -0.0324000000000000    0.0931200000000000    0.7900300000000000 O
   0.3171400000000000    0.1028800000000000    0.6736400000000000 O
   0.3148000000000000    0.1697100000000000    0.7832200000000000 O
