K24 H156 C170 Cl23 O39
1.0
   7.3134997816736904    0.0000000000000000   -0.0017870251500418
  -1.1113141154996495   38.5559872601708022   -0.0033660419911214
   0.0000000000000000    0.0000000000000000   21.7450000000000010
K H C Cl O
24 156 170 23 39
direct
   0.3992500000000000    0.3041250000000000    0.6654700000000000 K
   0.5324600000000000    0.3736800000000000    0.7690600000000000 K
   0.0830100000000000    0.0572550000000000    0.1654600000000000 K
   0.1015700000000000    0.1957450000000000    0.1645900000000000 K
   0.9676600000000000    0.1263850000000000    0.2683400000000000 K
   0.5835900000000001    0.0574950000000000    0.3351200000000000 K
   0.6009700000000000    0.1959000000000000    0.3348800000000000 K
   0.4674400000000000    0.1262950000000000    0.2314900000000000 K
   0.9176800000000001    0.4426200000000000    0.8354500000000000 K
   0.8991700000000000    0.3042350000000000    0.8356500000000000 K
   0.0324800000000000    0.3736450000000000    0.7317600000000000 K
   0.4169900000000000    0.4424950000000000    0.6652500000000000 K
   0.3992500000000000    0.8041250000000000    0.6654700000000000 K
   0.5324600000000000    0.8736800000000000    0.7690600000000000 K
   0.0830100000000000    0.5572550000000001    0.1654600000000000 K
   0.1015700000000000    0.6957450000000001    0.1645900000000000 K
   0.9676600000000000    0.6263850000000000    0.2683400000000000 K
   0.5835900000000001    0.5574950000000000    0.3351200000000000 K
   0.6009700000000000    0.6959000000000000    0.3348800000000000 K
   0.4674400000000000    0.6262950000000000    0.2314900000000000 K
   0.9176800000000001    0.9426200000000000    0.8354500000000000 K
   0.8991700000000000    0.8042350000000000    0.8356500000000000 K
   0.0324800000000000    0.8736450000000000    0.7317600000000000 K
   0.4169900000000000    0.9424950000000001    0.6652500000000000 K
   0.6591500000000000    0.3635050000000000    0.6161900000000000 H
   0.7613700000000000    0.3614800000000000    0.5070500000000000 H
   0.2128900000000000    0.3808100000000000    0.4468700000000000 H
   0.1084200000000000    0.3821400000000000    0.5555500000000000 H
   0.9570000000000000    0.3178450000000000    0.6218100000000000 H
   0.0672500000000000    0.2635250000000000    0.5770300000000000 H
   0.7632400000000000    0.2047750000000000    0.7152700000000000 H
   0.6496499999999999    0.2593400000000000    0.7586800000000000 H
   0.8100200000000000    0.0425700000000000    0.7079500000000000 H
   0.4260100000000000    0.0308900000000000    0.5924100000000000 H
   0.6500600000000000    0.0250550000000000    0.5611900000000000 H
   0.7097000000000000    0.4700100000000000    0.5119500000000000 H
   0.5269400000000000    0.4380550000000000    0.5094500000000000 H
   0.2505600000000000    0.2620800000000000    0.4836600000000000 H
   0.3489100000000000    0.3041850000000000    0.5009000000000000 H
   0.5337000000000000    0.2214650000000000    0.5985700000000000 H
   0.3590700000000000    0.2129700000000000    0.5422700000000000 H
   0.8411900000000000    0.1363350000000000    0.1153600000000000 H
   0.7388600000000000    0.1383000000000000    0.0000000000000000 H
   0.2866700000000000    0.1185600000000000    0.9461700000000000 H
   0.3913700000000000    0.1173050000000000    0.0548500000000000 H
   0.5427900000000000    0.1819500000000000    0.1206400000000000 H
   0.4314100000000000    0.2370400000000000    0.0774200000000000 H
   0.7372900000000000    0.2950250000000000    0.2140100000000000 H
   0.8505400000000000    0.2404550000000000    0.2574900000000000 H
   0.5334500000000000    0.0721900000000000    0.1212100000000000 H
   0.4108400000000000    0.0180900000000000    0.0727500000000000 H
   0.6893000000000000    0.4573750000000000    0.2081100000000000 H
   0.8129100000000000    0.0110700000000000    0.2568100000000000 H
   0.0671800000000000    0.4679350000000000    0.0919000000000000 H
   0.8460000000000000    0.4736700000000000    0.0587000000000000 H
   0.7868800000000000    0.0291650000000000    0.0109200000000000 H
   0.9672900000000000    0.0616050000000000    0.0116300000000000 H
   0.2523100000000000    0.2378300000000000    0.9819099999999999 H
   0.1553500000000000    0.1957950000000000    0.0003700000000000 H
   0.9731200000000000    0.2788050000000000    0.0976700000000000 H
   0.1451600000000000    0.2872900000000000    0.0404100000000000 H
   0.3411100000000000    0.1364000000000000    0.3841700000000000 H
   0.2394400000000000    0.1383850000000000    0.4933600000000000 H
   0.7882700000000000    0.1190950000000000    0.5532100000000000 H
   0.8922600000000001    0.1178600000000000    0.4444600000000000 H
   0.0440900000000000    0.1817050000000000    0.3786200000000000 H
   0.9313900000000001    0.2373150000000000    0.4214400000000000 H
   0.2357500000000000    0.2953400000000000    0.2868900000000000 H
   0.3491000000000000    0.2410550000000000    0.2422600000000000 H
   0.0334700000000000    0.0721150000000000    0.3798000000000000 H
   0.9115000000000000    0.0179100000000000    0.4279500000000000 H
   0.1903200000000000    0.4574900000000000    0.2923200000000000 H
   0.3133600000000000    0.0112900000000000    0.2439000000000000 H
   0.5739600000000000    0.4689000000000000    0.4076400000000000 H
   0.3499400000000000    0.4747500000000000    0.4388900000000000 H
   0.2903600000000000    0.0298000000000000    0.4880900000000000 H
   0.4731700000000000    0.0617400000000000    0.4906100000000000 H
   0.7560900000000000    0.2376150000000000    0.5178000000000000 H
   0.6574100000000000    0.1955600000000000    0.5003900000000000 H
   0.4723700000000000    0.2782350000000000    0.4027500000000000 H
   0.6471700000000000    0.2868900000000000    0.4589000000000000 H
   0.1587800000000000    0.3635750000000000    0.8846100000000000 H
   0.2611500000000000    0.3616150000000000    0.9937700000000000 H
   0.7131800000000000    0.3814150000000000    0.0541900000000000 H
   0.6086700000000000    0.3826150000000000    0.9454900000000001 H
   0.4567200000000000    0.3179400000000000    0.8794800000000000 H
   0.5681500000000000    0.2628500000000000    0.9226799999999999 H
   0.2624300000000000    0.2048800000000000    0.7860300000000000 H
   0.1491700000000000    0.2594600000000000    0.7425500000000000 H
   0.4657600000000000    0.4277800000000000    0.8790400000000000 H
   0.5881999999999999    0.4818550000000000    0.9276300000000000 H
   0.3107000000000000    0.0426300000000000    0.7921300000000000 H
   0.1872300000000000    0.4889600000000000    0.7433100000000000 H
   0.9326300000000000    0.0319550000000000    0.9082000000000000 H
   0.1540800000000000    0.0263750000000000    0.9416000000000000 H
   0.2130500000000000    0.4708200000000000    0.9892200000000000 H
   0.0325800000000000    0.4383950000000000    0.9883900000000000 H
   0.7477400000000000    0.2620950000000000    0.0181700000000000 H
   0.8446500000000000    0.3041500000000000    0.9997700000000000 H
   0.0269400000000000    0.2210850000000000    0.9024200000000000 H
   0.8549900000000000    0.2126700000000000    0.9595600000000000 H
   0.6591500000000000    0.8635050000000000    0.6161900000000000 H
   0.7613700000000000    0.8614800000000000    0.5070500000000000 H
   0.2128900000000000    0.8808100000000000    0.4468700000000000 H
   0.1084200000000000    0.8821399999999999    0.5555500000000000 H
   0.9570000000000000    0.8178449999999999    0.6218100000000000 H
   0.0672500000000000    0.7635250000000000    0.5770300000000000 H
   0.7632400000000000    0.7047750000000000    0.7152700000000000 H
   0.6496499999999999    0.7593400000000000    0.7586800000000000 H
   0.9644000000000000    0.9275150000000000    0.6217400000000000 H
   0.0890200000000000    0.9820700000000000    0.5721200000000000 H
   0.6875000000000000    0.9890150000000000    0.7573700000000000 H
   0.4260100000000000    0.5308900000000000    0.5924100000000000 H
   0.6500600000000000    0.5250550000000000    0.5611900000000000 H
   0.7097000000000000    0.9700100000000000    0.5119500000000000 H
   0.5269400000000000    0.9380550000000001    0.5094500000000000 H
   0.2505600000000000    0.7620800000000000    0.4836600000000000 H
   0.3489100000000000    0.8041849999999999    0.5009000000000000 H
   0.5337000000000000    0.7214650000000000    0.5985700000000000 H
   0.3590700000000000    0.7129700000000000    0.5422700000000000 H
   0.8411900000000000    0.6363350000000000    0.1153600000000000 H
   0.7388600000000000    0.6383000000000000    0.0000000000000000 H
   0.2866700000000000    0.6185600000000000    0.9461700000000000 H
   0.3913700000000000    0.6173050000000000    0.0548500000000000 H
   0.5427900000000000    0.6819500000000001    0.1206400000000000 H
   0.4314100000000000    0.7370400000000000    0.0774200000000000 H
   0.7372900000000000    0.7950250000000000    0.2140100000000000 H
   0.8505400000000000    0.7404550000000000    0.2574900000000000 H
   0.5334500000000000    0.5721900000000000    0.1212100000000000 H
   0.4108400000000000    0.5180900000000001    0.0727500000000000 H
   0.6893000000000000    0.9573750000000000    0.2081100000000000 H
   0.8129100000000000    0.5110700000000000    0.2568100000000000 H
   0.0671800000000000    0.9679350000000000    0.0919000000000000 H
   0.8460000000000000    0.9736700000000000    0.0587000000000000 H
   0.7868800000000000    0.5291650000000000    0.0109200000000000 H
   0.9672900000000000    0.5616050000000000    0.0116300000000000 H
   0.2523100000000000    0.7378300000000000    0.9819099999999999 H
   0.1553500000000000    0.6957949999999999    0.0003700000000000 H
   0.9731200000000000    0.7788050000000000    0.0976700000000000 H
   0.1451600000000000    0.7872900000000000    0.0404100000000000 H
   0.3411100000000000    0.6364000000000000    0.3841700000000000 H
   0.2394400000000000    0.6383850000000000    0.4933600000000000 H
   0.7882700000000000    0.6190950000000000    0.5532100000000000 H
   0.8922600000000001    0.6178600000000000    0.4444600000000000 H
   0.0440900000000000    0.6817050000000000    0.3786200000000000 H
   0.9313900000000001    0.7373149999999999    0.4214400000000000 H
   0.2357500000000000    0.7953399999999999    0.2868900000000000 H
   0.3491000000000000    0.7410550000000000    0.2422600000000000 H
   0.0334700000000000    0.5721150000000000    0.3798000000000000 H
   0.9115000000000000    0.5179100000000000    0.4279500000000000 H
   0.1903200000000000    0.9574900000000000    0.2923200000000000 H
   0.3133600000000000    0.5112900000000000    0.2439000000000000 H
   0.5739600000000000    0.9689000000000000    0.4076400000000000 H
   0.3499400000000000    0.9747500000000000    0.4388900000000000 H
   0.2903600000000000    0.5298000000000000    0.4880900000000000 H
   0.4731700000000000    0.5617400000000000    0.4906100000000000 H
   0.7560900000000000    0.7376150000000000    0.5178000000000000 H
   0.6574100000000000    0.6955600000000000    0.5003900000000000 H
   0.4723700000000000    0.7782350000000000    0.4027500000000000 H
   0.6471700000000000    0.7868900000000000    0.4589000000000000 H
   0.1587800000000000    0.8635750000000000    0.8846100000000000 H
   0.2611500000000000    0.8616150000000000    0.9937700000000000 H
   0.7131800000000000    0.8814150000000001    0.0541900000000000 H
   0.6086700000000000    0.8826149999999999    0.9454900000000001 H
   0.4567200000000000    0.8179400000000000    0.8794800000000000 H
   0.5681500000000000    0.7628500000000000    0.9226799999999999 H
   0.2624300000000000    0.7048800000000000    0.7860300000000000 H
   0.1491700000000000    0.7594600000000000    0.7425500000000000 H
   0.4657600000000000    0.9277800000000000    0.8790400000000000 H
   0.5881999999999999    0.9818549999999999    0.9276300000000000 H
   0.3107000000000000    0.5426299999999999    0.7921300000000000 H
   0.1872300000000000    0.9889600000000001    0.7433100000000000 H
   0.9326300000000000    0.5319550000000000    0.9082000000000000 H
   0.1540800000000000    0.5263750000000000    0.9416000000000000 H
   0.2130500000000000    0.9708200000000000    0.9892200000000000 H
   0.0325800000000000    0.9383950000000000    0.9883900000000000 H
   0.7477400000000000    0.7620950000000000    0.0181700000000000 H
   0.8446500000000000    0.8041499999999999    0.9997700000000000 H
   0.0269400000000000    0.7210850000000000    0.9024200000000000 H
   0.8549900000000000    0.7126700000000000    0.9595600000000000 H
   0.3747600000000000    0.3728000000000000    0.5952300000000000 C
   0.5608100000000000    0.3671300000000000    0.5790700000000000 C
   0.6185800000000000    0.3660700000000000    0.5180100000000000 C
   0.4932200000000000    0.3709750000000000    0.4705400000000000 C
   0.3097200000000000    0.3768450000000000    0.4841400000000000 C
   0.2518800000000000    0.3776350000000000    0.5451700000000000 C
   0.7992600000000000    0.2936950000000000    0.6957400000000000 C
   0.9169000000000000    0.2931800000000000    0.6432900000000000 C
   0.9783300000000000    0.2623150000000000    0.6185100000000000 C
   0.9252100000000000    0.2304850000000000    0.6449100000000000 C
   0.8068800000000000    0.2295750000000000    0.6952600000000000 C
   0.7445600000000000    0.2605050000000000    0.7198600000000001 C
   0.9573900000000000    0.0152750000000000    0.6378900000000000 C
   0.8454300000000000    0.0173150000000000    0.6896600000000001 C
   0.5026300000000000    0.0194100000000000    0.5544700000000000 C
   0.5604700000000000    0.4659400000000000    0.5066500000000000 C
   0.3774400000000000    0.2764900000000000    0.4967300000000000 C
   0.4832800000000000    0.2287650000000000    0.5529600000000000 C
   0.1253500000000000    0.1269050000000000    0.0945100000000000 C
   0.9394200000000000    0.1326300000000000    0.0782400000000000 C
   0.8815800000000000    0.1336550000000000    0.0171800000000000 C
   0.0066300000000000    0.1286300000000000    0.9698300000000000 C
   0.1900200000000000    0.1226400000000000    0.9834400000000000 C
   0.2479800000000000    0.1218950000000000    0.0444600000000000 C
   0.7007100000000001    0.2061000000000000    0.1945700000000000 C
   0.5830500000000000    0.2066200000000000    0.1421000000000000 C
   0.5218100000000000    0.2374850000000000    0.1172800000000000 C
   0.5751600000000000    0.2693200000000000    0.1436500000000000 C
   0.6934900000000001    0.2702250000000000    0.1940200000000000 C
   0.7555900000000000    0.2392900000000000    0.2186700000000000 C
   0.6784500000000000    0.0466000000000000    0.1947300000000000 C
   0.5647700000000000    0.0471000000000000    0.1412800000000000 C
   0.4972600000000000    0.0167700000000000    0.1135500000000000 C
   0.5405799999999999    0.4844750000000000    0.1381300000000000 C
   0.6536000000000000    0.4825800000000000    0.1896700000000000 C
   0.7214699999999999    0.0129750000000000    0.2172400000000000 C
   0.9936100000000000    0.4798050000000000    0.0538200000000000 C
   0.9362900000000000    0.0336800000000000    0.0074100000000000 C
   0.1262700000000000    0.2234450000000000    0.9958600000000000 C
   0.0219000000000000    0.2714100000000000    0.0518700000000000 C
   0.6256699999999999    0.1271850000000000    0.4049500000000000 C
   0.4396800000000000    0.1328100000000000    0.4212300000000000 C
   0.3822000000000000    0.1338300000000000    0.4823200000000000 C
   0.5078000000000000    0.1289100000000000    0.5297200000000000 C
   0.6912600000000000    0.1230650000000000    0.5160000000000000 C
   0.7488200000000000    0.1223350000000000    0.4549300000000000 C
   0.2007000000000000    0.2063050000000000    0.3048500000000000 C
   0.0837500000000000    0.2064950000000000    0.3575000000000000 C
   0.0224700000000000    0.2371950000000000    0.3829600000000000 C
   0.0750400000000000    0.2691850000000000    0.3570700000000000 C
   0.1925900000000000    0.2704100000000000    0.3065100000000000 C
   0.2547800000000000    0.2396450000000000    0.2812300000000000 C
   0.1787100000000000    0.0466850000000000    0.3061800000000000 C
   0.0650600000000000    0.0470600000000000    0.3596200000000000 C
   0.9979300000000000    0.0166750000000000    0.3871600000000000 C
   0.0414800000000000    0.4844250000000000    0.3624700000000000 C
   0.1544000000000000    0.4826500000000000    0.3108900000000000 C
   0.2219500000000000    0.0131100000000000    0.2834800000000000 C
   0.4973900000000000    0.4803900000000000    0.4455900000000000 C
   0.4395900000000000    0.0338550000000000    0.4934100000000000 C
   0.6291500000000000    0.2232550000000000    0.5046500000000000 C
   0.5231700000000000    0.2710000000000000    0.4483500000000000 C
   0.8747400000000000    0.3729850000000000    0.9058900000000000 C
   0.0606100000000000    0.3673100000000000    0.9217300000000000 C
   0.1184600000000000    0.3662850000000000    0.9827900000000001 C
   0.9932500000000000    0.3713250000000000    0.0306100000000000 C
   0.8098900000000000    0.3773100000000000    0.0169500000000000 C
   0.7520400000000000    0.3780250000000000    0.9559200000000000 C
   0.2989700000000000    0.2938050000000000    0.8055000000000000 C
   0.4164900000000000    0.2932750000000000    0.8580000000000000 C
   0.4777600000000000    0.2624100000000000    0.8828100000000000 C
   0.4244500000000000    0.2305800000000000    0.8564200000000000 C
   0.3061600000000000    0.2296800000000000    0.8060300000000000 C
   0.2440600000000000    0.2606150000000000    0.7813900000000000 C
   0.3213000000000000    0.4534000000000000    0.8054400000000000 C
   0.4345800000000000    0.4528800000000000    0.8589800000000000 C
   0.5020200000000000    0.4831950000000000    0.8867800000000000 C
   0.4589600000000000    0.0155000000000000    0.8621900000000000 C
   0.3462200000000000    0.0174200000000000    0.8105800000000000 C
   0.2784300000000000    0.4870350000000000    0.7829500000000000 C
   0.0064600000000000    0.0202350000000000    0.9464500000000000 C
   0.0636300000000000    0.4663150000000000    0.9926900000000000 C
   0.8737700000000000    0.2764950000000000    0.0042300000000000 C
   0.9782100000000000    0.2285700000000000    0.9481300000000000 C
   0.3747600000000000    0.8728000000000000    0.5952300000000000 C
   0.5608100000000000    0.8671300000000000    0.5790700000000000 C
   0.6185800000000000    0.8660700000000000    0.5180100000000000 C
   0.4932200000000000    0.8709750000000001    0.4705400000000000 C
   0.3097200000000000    0.8768450000000000    0.4841400000000000 C
   0.2518800000000000    0.8776349999999999    0.5451700000000000 C
   0.7992600000000000    0.7936950000000000    0.6957400000000000 C
   0.9169000000000000    0.7931800000000000    0.6432900000000000 C
   0.9783300000000000    0.7623150000000001    0.6185100000000000 C
   0.9252100000000000    0.7304850000000001    0.6449100000000000 C
   0.8068800000000000    0.7295750000000000    0.6952600000000000 C
   0.7445600000000000    0.7605050000000000    0.7198600000000001 C
   0.8208500000000000    0.9533100000000000    0.6953500000000000 C
   0.9333600000000000    0.9526650000000000    0.6416400000000000 C
   0.0024300000000000    0.9833200000000000    0.6128700000000000 C
   0.7781600000000000    0.9870000000000000    0.7176300000000000 C
   0.5026300000000000    0.5194100000000000    0.5544700000000000 C
   0.5604700000000000    0.9659400000000000    0.5066500000000000 C
   0.3774400000000000    0.7764900000000000    0.4967300000000000 C
   0.4832800000000000    0.7287650000000000    0.5529600000000000 C
   0.1253500000000000    0.6269050000000000    0.0945100000000000 C
   0.9394200000000000    0.6326300000000000    0.0782400000000000 C
   0.8815800000000000    0.6336550000000000    0.0171800000000000 C
   0.0066300000000000    0.6286300000000000    0.9698300000000000 C
   0.1900200000000000    0.6226400000000000    0.9834400000000000 C
   0.2479800000000000    0.6218950000000000    0.0444600000000000 C
   0.7007100000000001    0.7060999999999999    0.1945700000000000 C
   0.5830500000000000    0.7066200000000000    0.1421000000000000 C
   0.5218100000000000    0.7374849999999999    0.1172800000000000 C
   0.5751600000000000    0.7693200000000000    0.1436500000000000 C
   0.6934900000000001    0.7702249999999999    0.1940200000000000 C
   0.7555900000000000    0.7392900000000000    0.2186700000000000 C
   0.6784500000000000    0.5466000000000000    0.1947300000000000 C
   0.5647700000000000    0.5471000000000000    0.1412800000000000 C
   0.4972600000000000    0.5167700000000000    0.1135500000000000 C
   0.5405799999999999    0.9844750000000000    0.1381300000000000 C
   0.6536000000000000    0.9825800000000000    0.1896700000000000 C
   0.7214699999999999    0.5129750000000000    0.2172400000000000 C
   0.9936100000000000    0.9798050000000000    0.0538200000000000 C
   0.9362900000000000    0.5336800000000000    0.0074100000000000 C
   0.1262700000000000    0.7234450000000000    0.9958600000000000 C
   0.0219000000000000    0.7714099999999999    0.0518700000000000 C
   0.6256699999999999    0.6271850000000000    0.4049500000000000 C
   0.4396800000000000    0.6328100000000000    0.4212300000000000 C
   0.3822000000000000    0.6338300000000000    0.4823200000000000 C
   0.5078000000000000    0.6289100000000000    0.5297200000000000 C
   0.6912600000000000    0.6230650000000000    0.5160000000000000 C
   0.7488200000000000    0.6223350000000000    0.4549300000000000 C
   0.2007000000000000    0.7063050000000000    0.3048500000000000 C
   0.0837500000000000    0.7064950000000000    0.3575000000000000 C
   0.0224700000000000    0.7371950000000000    0.3829600000000000 C
   0.0750400000000000    0.7691850000000000    0.3570700000000000 C
   0.1925900000000000    0.7704100000000000    0.3065100000000000 C
   0.2547800000000000    0.7396450000000000    0.2812300000000000 C
   0.1787100000000000    0.5466850000000000    0.3061800000000000 C
   0.0650600000000000    0.5470600000000000    0.3596200000000000 C
   0.9979300000000000    0.5166750000000000    0.3871600000000000 C
   0.0414800000000000    0.9844250000000000    0.3624700000000000 C
   0.1544000000000000    0.9826500000000000    0.3108900000000000 C
   0.2219500000000000    0.5131100000000000    0.2834800000000000 C
   0.4973900000000000    0.9803900000000000    0.4455900000000000 C
   0.4395900000000000    0.5338550000000000    0.4934100000000000 C
   0.6291500000000000    0.7232550000000000    0.5046500000000000 C
   0.5231700000000000    0.7710000000000000    0.4483500000000000 C
   0.8747400000000000    0.8729850000000000    0.9058900000000000 C
   0.0606100000000000    0.8673100000000000    0.9217300000000000 C
   0.1184600000000000    0.8662850000000000    0.9827900000000001 C
   0.9932500000000000    0.8713250000000000    0.0306100000000000 C
   0.8098900000000000    0.8773100000000000    0.0169500000000000 C
   0.7520400000000000    0.8780250000000001    0.9559200000000000 C
   0.2989700000000000    0.7938050000000000    0.8055000000000000 C
   0.4164900000000000    0.7932750000000000    0.8580000000000000 C
   0.4777600000000000    0.7624100000000000    0.8828100000000000 C
   0.4244500000000000    0.7305800000000000    0.8564200000000000 C
   0.3061600000000000    0.7296800000000000    0.8060300000000000 C
   0.2440600000000000    0.7606150000000000    0.7813900000000000 C
   0.3213000000000000    0.9534000000000000    0.8054400000000000 C
   0.4345800000000000    0.9528799999999999    0.8589800000000000 C
   0.5020200000000000    0.9831950000000000    0.8867800000000000 C
   0.4589600000000000    0.5155000000000000    0.8621900000000000 C
   0.3462200000000000    0.5174200000000000    0.8105800000000000 C
   0.2784300000000000    0.9870350000000000    0.7829500000000000 C
   0.0064600000000000    0.5202350000000000    0.9464500000000000 C
   0.0636300000000000    0.9663150000000000    0.9926900000000000 C
   0.8737700000000000    0.7764949999999999    0.0042300000000000 C
   0.9782100000000000    0.7285699999999999    0.9481300000000000 C
   0.5663200000000000    0.3699150000000000    0.3939200000000000 Cl
   0.0052000000000000    0.1923450000000000    0.6114000000000001 Cl
   0.0424800000000000    0.0539150000000000    0.6029500000000000 Cl
   0.9336300000000000    0.1296650000000000    0.8931000000000000 Cl
   0.4949700000000000    0.3080000000000000    0.1128400000000000 Cl
   0.4561900000000000    0.4462050000000000    0.1033600000000000 Cl
   0.4350600000000000    0.1299200000000000    0.6063700000000000 Cl
   0.9941700000000000    0.3082850000000000    0.3859600000000000 Cl
   0.9577300000000000    0.4460800000000000    0.3969800000000000 Cl
   0.0664800000000000    0.3703150000000000    0.1068700000000000 Cl
   0.5047400000000000    0.1918950000000000    0.8871800000000000 Cl
   0.5433400000000000    0.0537500000000000    0.8970200000000000 Cl
   0.5663200000000000    0.8699150000000000    0.3939200000000000 Cl
   0.0052000000000000    0.6923450000000000    0.6114000000000001 Cl
   0.9336300000000000    0.6296650000000000    0.8931000000000000 Cl
   0.4949700000000000    0.8080000000000001    0.1128400000000000 Cl
   0.4561900000000000    0.9462050000000000    0.1033600000000000 Cl
   0.4350600000000000    0.6299200000000000    0.6063700000000000 Cl
   0.9941700000000000    0.8082849999999999    0.3859600000000000 Cl
   0.9577300000000000    0.9460800000000000    0.3969800000000000 Cl
   0.0664800000000000    0.8703149999999999    0.1068700000000000 Cl
   0.5047400000000000    0.6918950000000000    0.8871800000000000 Cl
   0.5433400000000000    0.5537500000000000    0.8970200000000000 Cl
   0.7422700000000000    0.0751150000000000    0.2212900000000000 O
   0.0241800000000000    0.0168350000000000    0.0584000000000000 O
   0.0694800000000000    0.2353550000000000    0.0556800000000000 O
   0.6790400000000000    0.1265750000000000    0.3469600000000000 O
   0.3211000000000000    0.3734700000000000    0.6531900000000000 O
   0.7424700000000000    0.3226850000000000    0.7200900000000000 O
   0.4686900000000000    0.4823200000000000    0.5573200000000000 O
   0.4370600000000000    0.2649000000000000    0.5564100000000000 O
   0.1792000000000000    0.1263250000000000    0.1524500000000000 O
   0.7574500000000000    0.1771000000000000    0.2189000000000000 O
   0.2576300000000000    0.1774700000000000    0.2799600000000000 O
   0.2420600000000000    0.0752600000000000    0.2797400000000000 O
   0.5313800000000000    0.0174700000000000    0.4427400000000000 O
   0.5699600000000000    0.2348950000000000    0.4449600000000000 O
   0.8209900000000000    0.3735550000000000    0.8479400000000000 O
   0.2423000000000000    0.3228050000000000    0.7811600000000000 O
   0.2577000000000000    0.4249000000000000    0.7787800000000000 O
   0.9758300000000000    0.4831000000000000    0.9418700000000000 O
   0.9305500000000000    0.2646250000000000    0.9443900000000000 O
   0.7422700000000000    0.5751150000000000    0.2212900000000000 O
   0.0241800000000000    0.5168350000000000    0.0584000000000000 O
   0.0694800000000000    0.7353550000000000    0.0556800000000000 O
   0.6790400000000000    0.6265750000000000    0.3469600000000000 O
   0.3211000000000000    0.8734700000000000    0.6531900000000000 O
   0.7424700000000000    0.8226850000000000    0.7200900000000000 O
   0.7579000000000000    0.9248750000000000    0.7223600000000000 O
   0.4686900000000000    0.9823200000000001    0.5573200000000000 O
   0.4370600000000000    0.7649000000000000    0.5564100000000000 O
   0.1792000000000000    0.6263250000000000    0.1524500000000000 O
   0.7574500000000000    0.6771000000000000    0.2189000000000000 O
   0.2576300000000000    0.6774700000000000    0.2799600000000000 O
   0.2420600000000000    0.5752600000000000    0.2797400000000000 O
   0.5313800000000000    0.5174700000000000    0.4427400000000000 O
   0.5699600000000000    0.7348950000000000    0.4449600000000000 O
   0.8209900000000000    0.8735550000000001    0.8479400000000000 O
   0.2423000000000000    0.8228050000000000    0.7811600000000000 O
   0.2577000000000000    0.9249000000000001    0.7787800000000000 O
   0.9758300000000000    0.9831000000000000    0.9418700000000000 O
   0.9305500000000000    0.7646250000000000    0.9443900000000000 O
