H6 O4
1.0
  39.4932743186763702    0.0000000000000000   -2.2089157045431271
  -0.0005786167372762   16.2329999884762657   -0.0001983235082258
   0.0000000000000000    0.0000000000000000   26.6392999999999986
H O
6 4
direct
   0.1550108579416467    0.4283164373491898    0.2000965225630573 H
   0.1879370973853396    0.6728812147541910    0.1965425098407248 H
   0.1724750545992714    0.5558301006855453    0.1978481207406579 H
   0.2460930446127484    0.5708662854967091    0.8001078345768278 H
   0.2111579753840907    0.3278685720215758    0.8031360200944719 H
   0.2275561411145223    0.4439958621433914    0.8020938684094577 H
   0.1608980000000000    0.4862950000000000    0.2018100000000000 O
   0.1787690000000000    0.6178150000000000    0.1996800000000000 O
   0.2397220000000000    0.5132000000000000    0.7982100000000000 O
   0.2207620000000000    0.3825000000000000    0.8000699999999999 O
