H10 C8 O4
1.0
  24.9759961046402665    0.0000000000000000    0.0139492291621047
  -0.0083282482253984   13.0436916723902385   -3.7498296222493868
   0.0000000000000000    0.0000000000000000   36.4380000000000024
H C O
10 8 4
direct
   0.8073100000000000    0.4355400000000000    0.7746999999999999 H
   0.8421700000000000    0.5633100000000000    0.7433500000000000 H
   0.7837450000000000    0.6390600000000000    0.7572600000000000 H
   0.7792399999999999    0.5343500000000000    0.6891900000000000 H
   0.7890750000000000    0.4207600000000000    0.7028550000000000 H
   0.6926900000000000    0.5644300000000000    0.7253200000000000 H
   0.6578300000000000    0.4366700000000000    0.7566600000000000 H
   0.7162550000000000    0.3609200000000000    0.7427600000000000 H
   0.7207600000000001    0.4656200000000000    0.8108299999999999 H
   0.7109250000000000    0.5792100000000000    0.7971600000000000 H
   0.7890150000000000    0.5124600000000000    0.7821800000000000 C
   0.7989850000000001    0.5597000000000000    0.7488750000000000 C
   0.7714250000000000    0.4979800000000000    0.7121900000000000 C
   0.8174000000000000    0.5741700000000000    0.8184850000000000 C
   0.7109799999999999    0.4875100000000000    0.7178350000000000 C
   0.7010149999999999    0.4402700000000000    0.7511450000000000 C
   0.7285750000000000    0.5020000000000000    0.7878250000000000 C
   0.6826000000000000    0.4258000000000000    0.6815300000000000 C
   0.8566950000000000    0.5373900000000000    0.8311999999999999 O
   0.7984150000000000    0.6661500000000000    0.8339500000000000 O
   0.6433100000000000    0.4625900000000000    0.6688000000000001 O
   0.7015850000000000    0.3338300000000000    0.6660349999999999 O
