H2 O2
1.0
  24.9759961046402665    0.0000000000000000    0.0139492291621047
  -0.0083282482253984   13.0436916723902385   -3.7498296222493868
   0.0000000000000000    0.0000000000000000   36.4380000000000024
H O
2 2
direct
   0.8126108986941382    0.5973726093291108    0.8223861562652175 H
   0.6873898553483320    0.4025962603957814    0.6776206605940266 H
   0.7984150000000000    0.6661500000000000    0.8339500000000000 O
   0.7015850000000000    0.3338300000000000    0.6660349999999999 O
