Zn16 H344 C408 S32 N32 O62
1.0
  24.9759961046402665    0.0000000000000000    0.0139492291621047
  -0.0083282482253984   13.0436916723902385   -3.7498296222493868
   0.0000000000000000    0.0000000000000000   36.4380000000000024
Zn H C S N O
16 344 408 32 32 62
direct
   0.6551250000000000    0.2502100000000000    0.6249150000000000 Zn
   0.8448750000000000    0.7497700000000000    0.3751000000000000 Zn
   0.6551250000000000    0.2502100000000000    0.1249150000000000 Zn
   0.8448750000000000    0.7497700000000000    0.8751000000000000 Zn
   0.9051250000000000    0.2502000000000000    0.6249150000000000 Zn
   0.0948750000000000    0.7497800000000000    0.3751000000000000 Zn
   0.9051250000000000    0.2502000000000000    0.1249150000000000 Zn
   0.0948750000000000    0.7497800000000000    0.8751000000000000 Zn
   0.1551250000000000    0.2502100000000000    0.1249150000000000 Zn
   0.3448750000000000    0.7497700000000000    0.8751000000000000 Zn
   0.1551250000000000    0.2502100000000000    0.6249150000000000 Zn
   0.3448750000000000    0.7497700000000000    0.3751000000000000 Zn
   0.4051250000000000    0.2502000000000000    0.1249150000000000 Zn
   0.5948750000000000    0.7497800000000000    0.8751000000000000 Zn
   0.4051250000000000    0.2502000000000000    0.6249150000000000 Zn
   0.5948750000000000    0.7497800000000000    0.3751000000000000 Zn
   0.2349650000000000    0.4376900000000000    0.1034250000000000 H
   0.3156350000000000    0.2700400000000000    0.9994900000000000 H
   0.3846400000000000    0.2228800000000000    0.0400000000000000 H
   0.3094300000000000    0.3885700000000000    0.1393650000000000 H
   0.0150300000000000    0.5622600000000000    0.8965950000000000 H
   0.9343650000000000    0.7299400000000000    0.0000000000000000 H
   0.8653550000000000    0.7770800000000000    0.9597750000000000 H
   0.9405550000000000    0.6113700000000000    0.8606549999999999 H
   0.0112250000000000    0.7170100000000000    0.0320000000000000 H
   0.0923500000000000    0.6314500000000000    0.0564100000000000 H
   0.2387650000000000    0.2829600000000000    0.9650000000000001 H
   0.1576400000000000    0.3685200000000000    0.9436150000000000 H
   0.2349650000000000    0.4376900000000000    0.6034250000000000 H
   0.3156350000000000    0.2700400000000000    0.4994900000000000 H
   0.3846400000000000    0.2228800000000000    0.5400000000000000 H
   0.3094300000000000    0.3885700000000000    0.6393650000000000 H
   0.0150300000000000    0.5622600000000000    0.3965950000000000 H
   0.9343650000000000    0.7299400000000000    0.5000000000000000 H
   0.8653550000000000    0.7770800000000000    0.4597750000000000 H
   0.9405550000000000    0.6113700000000000    0.3606550000000000 H
   0.0112250000000000    0.7170100000000000    0.5320000000000000 H
   0.0923500000000000    0.6314500000000000    0.5564100000000000 H
   0.2387650000000000    0.2829600000000000    0.4650000000000000 H
   0.1576400000000000    0.3685200000000000    0.4436150000000000 H
   0.7349650000000000    0.4376900000000000    0.6034250000000000 H
   0.8156350000000000    0.2700400000000000    0.4994900000000000 H
   0.8846400000000000    0.2228800000000000    0.5400000000000000 H
   0.8094300000000000    0.3885700000000000    0.6393650000000000 H
   0.5150300000000000    0.5622600000000000    0.3965950000000000 H
   0.4343650000000000    0.7299400000000000    0.5000000000000000 H
   0.3653550000000000    0.7770800000000000    0.4597750000000000 H
   0.4405550000000000    0.6113700000000000    0.3606550000000000 H
   0.5112250000000000    0.7170100000000000    0.5320000000000000 H
   0.5923500000000000    0.6314500000000000    0.5564100000000000 H
   0.7387650000000000    0.2829600000000000    0.4650000000000000 H
   0.6576400000000000    0.3685200000000000    0.4436150000000000 H
   0.7349650000000000    0.4376900000000000    0.1034250000000000 H
   0.8156350000000000    0.2700400000000000    0.9994900000000000 H
   0.8846400000000000    0.2228800000000000    0.0400000000000000 H
   0.8094300000000000    0.3885700000000000    0.1393650000000000 H
   0.5150300000000000    0.5622600000000000    0.8965950000000000 H
   0.4343650000000000    0.7299400000000000    0.0000000000000000 H
   0.3653550000000000    0.7770800000000000    0.9597750000000000 H
   0.4405550000000000    0.6113700000000000    0.8606549999999999 H
   0.5112250000000000    0.7170100000000000    0.0320000000000000 H
   0.5923500000000000    0.6314500000000000    0.0564100000000000 H
   0.7387650000000000    0.2829600000000000    0.9650000000000001 H
   0.6576400000000000    0.3685200000000000    0.9436150000000000 H
   0.9849700000000000    0.4377100000000000    0.1034000000000000 H
   0.0656350000000000    0.2700300000000000    0.9994499999999999 H
   0.1346400000000000    0.2228800000000000    0.0402450000000000 H
   0.0594450000000000    0.3886000000000000    0.1393650000000000 H
   0.7650250000000001    0.5622700000000000    0.8965950000000000 H
   0.6843600000000000    0.7299200000000000    0.0000000000000000 H
   0.6153600000000000    0.7770800000000000    0.9597750000000000 H
   0.6905600000000001    0.6114000000000001    0.8606549999999999 H
   0.9887750000000000    0.2829500000000000    0.9679949999999999 H
   0.9076450000000000    0.3685100000000000    0.9436100000000001 H
   0.7612250000000000    0.7170000000000000    0.0320200000000000 H
   0.8423550000000000    0.6314500000000000    0.0564050000000000 H
   0.4849700000000000    0.4377100000000000    0.1034000000000000 H
   0.5656350000000000    0.2700300000000000    0.9994499999999999 H
   0.6346400000000000    0.2228800000000000    0.0402450000000000 H
   0.5594450000000000    0.3886000000000000    0.1393650000000000 H
   0.2650250000000000    0.5622700000000000    0.8965950000000000 H
   0.1843600000000000    0.7299200000000000    0.0000000000000000 H
   0.1153600000000000    0.7770800000000000    0.9597750000000000 H
   0.1905600000000000    0.6114000000000001    0.8606549999999999 H
   0.4887750000000000    0.2829500000000000    0.9679949999999999 H
   0.4076450000000000    0.3685100000000000    0.9436100000000001 H
   0.2612250000000000    0.7170000000000000    0.0320200000000000 H
   0.3423550000000000    0.6314500000000000    0.0564050000000000 H
   0.9849700000000000    0.4377100000000000    0.6034000000000000 H
   0.0656350000000000    0.2700300000000000    0.4994500000000000 H
   0.1346400000000000    0.2228800000000000    0.5402450000000000 H
   0.0594450000000000    0.3886000000000000    0.6393650000000000 H
   0.7650250000000001    0.5622700000000000    0.3965950000000000 H
   0.6843600000000000    0.7299200000000000    0.5000000000000000 H
   0.6153600000000000    0.7770800000000000    0.4597750000000000 H
   0.6905600000000001    0.6114000000000001    0.3606550000000000 H
   0.9887750000000000    0.2829500000000000    0.4679950000000000 H
   0.9076450000000000    0.3685100000000000    0.4436100000000000 H
   0.7612250000000000    0.7170000000000000    0.5320200000000000 H
   0.8423550000000000    0.6314500000000000    0.5564050000000000 H
   0.4849700000000000    0.4377100000000000    0.6034000000000000 H
   0.5656350000000000    0.2700300000000000    0.4994500000000000 H
   0.6346400000000000    0.2228800000000000    0.5402450000000000 H
   0.5594450000000000    0.3886000000000000    0.6393650000000000 H
   0.2650250000000000    0.5622700000000000    0.3965950000000000 H
   0.1843600000000000    0.7299200000000000    0.5000000000000000 H
   0.1153600000000000    0.7770800000000000    0.4597750000000000 H
   0.1905600000000000    0.6114000000000001    0.3606550000000000 H
   0.4887750000000000    0.2829500000000000    0.4679950000000000 H
   0.4076450000000000    0.3685100000000000    0.4436100000000000 H
   0.2612250000000000    0.7170000000000000    0.5320200000000000 H
   0.3423550000000000    0.6314500000000000    0.5564050000000000 H
   0.6873898553483320    0.4025962603957814    0.6776206605940266 H
   0.8079600000000000    0.0642100000000000    0.4757450000000000 H
   0.7113800000000000    0.9210300000000000    0.4526900000000000 H
   0.7218000000000000    0.0344300000000000    0.4390200000000000 H
   0.6581800000000000    0.0636300000000000    0.4927800000000000 H
   0.7166250000000001    0.1392500000000000    0.5071000000000000 H
   0.6920650000000000    0.9357200000000000    0.5242700000000000 H
   0.7886299999999999    0.0789300000000000    0.5473350000000000 H
   0.7782249999999999    0.9655400000000000    0.5610050000000000 H
   0.8418399999999999    0.9363200000000000    0.5072500000000000 H
   0.7833900000000000    0.8607000000000000    0.4929300000000000 H
   0.8126108986941382    0.5973726093291108    0.8223861562652175 H
   0.8073100000000000    0.4355400000000000    0.2747000000000000 H
   0.7109250000000000    0.5792100000000000    0.2971600000000000 H
   0.7207600000000001    0.4656200000000000    0.3108300000000000 H
   0.6578300000000000    0.4366700000000000    0.2566600000000000 H
   0.7162550000000000    0.3609200000000000    0.2427600000000000 H
   0.6926900000000000    0.5644300000000000    0.2253200000000000 H
   0.7890750000000000    0.4207600000000000    0.2028550000000000 H
   0.7792399999999999    0.5343500000000000    0.1891900000000000 H
   0.8421700000000000    0.5633100000000000    0.2433500000000000 H
   0.7837450000000000    0.6390600000000000    0.2572600000000000 H
   0.8079600000000000    0.0642100000000000    0.9757450000000000 H
   0.7113800000000000    0.9210300000000000    0.9526900000000000 H
   0.7218000000000000    0.0344300000000000    0.9390200000000000 H
   0.6581800000000000    0.0636300000000000    0.9927800000000000 H
   0.7166250000000001    0.1392500000000000    0.0071000000000000 H
   0.6920650000000000    0.9357200000000000    0.0242700000000000 H
   0.7886299999999999    0.0789300000000000    0.0473350000000000 H
   0.7782249999999999    0.9655400000000000    0.0610050000000000 H
   0.8418399999999999    0.9363200000000000    0.0072500000000000 H
   0.7833900000000000    0.8607000000000000    0.9929300000000000 H
   0.4336250000000000    0.7720399999999999    0.7496950000000000 H
   0.3647650000000000    0.7243900000000000    0.7905700000000000 H
   0.4421800000000000    0.8843299999999999    0.8895999999999999 H
   0.5163850000000000    0.9338500000000000    0.8535100000000000 H
   0.8163600000000000    0.2279600000000000    0.7503299999999999 H
   0.7336300000000000    0.0661100000000000    0.6465000000000000 H
   0.8078300000000000    0.1156200000000000    0.6104250000000000 H
   0.8852249999999999    0.2756200000000000    0.7094549999999999 H
   0.7393450000000000    0.2161200000000000    0.7820950000000000 H
   0.6582950000000000    0.1301900000000000    0.8065550000000000 H
   0.5106400000000000    0.7838700000000000    0.7179250000000000 H
   0.5916900000000000    0.8698000000000000    0.6934600000000000 H
   0.4336250000000000    0.7720399999999999    0.2496950000000000 H
   0.3647650000000000    0.7243900000000000    0.2905700000000000 H
   0.4421800000000000    0.8843299999999999    0.3896000000000000 H
   0.5163850000000000    0.9338500000000000    0.3535100000000000 H
   0.8163600000000000    0.2279600000000000    0.2503300000000000 H
   0.7336300000000000    0.0661100000000000    0.1465000000000000 H
   0.8078300000000000    0.1156200000000000    0.1104250000000000 H
   0.8852249999999999    0.2756200000000000    0.2094550000000000 H
   0.5106400000000000    0.7838700000000000    0.2179250000000000 H
   0.5916900000000000    0.8698000000000000    0.1934600000000000 H
   0.7393450000000000    0.2161200000000000    0.2820950000000000 H
   0.6582950000000000    0.1301900000000000    0.3065550000000000 H
   0.4836150000000000    0.0661100000000000    0.1465050000000000 H
   0.5663600000000000    0.2279400000000000    0.2503200000000000 H
   0.6352250000000000    0.2755900000000000    0.2094500000000000 H
   0.5578250000000000    0.1156200000000000    0.1104200000000000 H
   0.2663700000000000    0.9338600000000000    0.3535050000000000 H
   0.1836250000000000    0.7720200000000000    0.2496900000000000 H
   0.1147700000000000    0.7243800000000000    0.2905650000000000 H
   0.1921700000000000    0.8843600000000000    0.3895950000000000 H
   0.4893500000000000    0.2161000000000000    0.2820900000000000 H
   0.4083000000000000    0.1301700000000000    0.3065500000000000 H
   0.2606450000000000    0.7838600000000000    0.2179200000000000 H
   0.3416950000000000    0.8697900000000000    0.1934600000000000 H
   0.4836150000000000    0.0661100000000000    0.6465050000000000 H
   0.5663600000000000    0.2279400000000000    0.7503200000000000 H
   0.6352250000000000    0.2755900000000000    0.7094500000000000 H
   0.5578250000000000    0.1156200000000000    0.6104200000000000 H
   0.2663700000000000    0.9338600000000000    0.8535050000000000 H
   0.1836250000000000    0.7720200000000000    0.7496900000000000 H
   0.1147700000000000    0.7243800000000000    0.7905650000000000 H
   0.1921700000000000    0.8843600000000000    0.8895950000000000 H
   0.4893500000000000    0.2161000000000000    0.7820900000000000 H
   0.4083000000000000    0.1301700000000000    0.8065500000000000 H
   0.2606450000000000    0.7838600000000000    0.7179200000000000 H
   0.3416950000000000    0.8697900000000000    0.6934600000000000 H
   0.0573100000000000    0.4355500000000000    0.2747000000000000 H
   0.9609250000000000    0.5792200000000000    0.2971650000000000 H
   0.9707550000000000    0.4656200000000000    0.3108300000000000 H
   0.9078300000000000    0.4366700000000000    0.2566650000000000 H
   0.9662550000000000    0.3609200000000000    0.2427600000000000 H
   0.9426900000000000    0.5644300000000000    0.2253200000000000 H
   0.0390750000000000    0.4207600000000000    0.2028500000000000 H
   0.0292450000000000    0.5343599999999999    0.1891900000000000 H
   0.0921700000000000    0.5633100000000000    0.2433600000000000 H
   0.0337450000000000    0.6390600000000000    0.2572650000000000 H
   0.0579550000000000    0.0642800000000000    0.4757800000000000 H
   0.9613700000000001    0.9211200000000000    0.4526850000000000 H
   0.9717950000000000    0.0345600000000000    0.4390450000000000 H
   0.9081900000000001    0.0637100000000000    0.4928100000000000 H
   0.9666450000000000    0.1392800000000000    0.5071450000000000 H
   0.9420649999999999    0.9356800000000000    0.5242500000000000 H
   0.0386500000000000    0.0788500000000000    0.5473450000000000 H
   0.0282250000000000    0.9654100000000000    0.5609900000000000 H
   0.0918300000000000    0.9362500000000000    0.5072250000000000 H
   0.0333700000000000    0.8606900000000000    0.4928500000000000 H
   0.9426900000000000    0.5644300000000000    0.7253200000000000 H
   0.0390750000000000    0.4207600000000000    0.7028500000000000 H
   0.0292450000000000    0.5343599999999999    0.6891900000000000 H
   0.0921700000000000    0.5633100000000000    0.7433600000000000 H
   0.0337450000000000    0.6390600000000000    0.7572650000000001 H
   0.0573100000000000    0.4355500000000000    0.7746999999999999 H
   0.9609250000000000    0.5792200000000000    0.7971650000000000 H
   0.9707550000000000    0.4656200000000000    0.8108299999999999 H
   0.9078300000000000    0.4366700000000000    0.7566649999999999 H
   0.9662550000000000    0.3609200000000000    0.7427600000000000 H
   0.0579550000000000    0.0642800000000000    0.9757800000000000 H
   0.9613700000000001    0.9211200000000000    0.9526850000000000 H
   0.9717950000000000    0.0345600000000000    0.9390450000000000 H
   0.9081900000000001    0.0637100000000000    0.9928100000000000 H
   0.9666450000000000    0.1392800000000000    0.0071450000000000 H
   0.9420649999999999    0.9356800000000000    0.0242500000000000 H
   0.0386500000000000    0.0788500000000000    0.0473450000000000 H
   0.0282250000000000    0.9654100000000000    0.0609900000000000 H
   0.0918300000000000    0.9362500000000000    0.0072250000000000 H
   0.0333700000000000    0.8606900000000000    0.9928500000000000 H
   0.3073100000000000    0.4355400000000000    0.2747000000000000 H
   0.2109250000000000    0.5792100000000000    0.2971600000000000 H
   0.2207600000000000    0.4656200000000000    0.3108300000000000 H
   0.1578300000000000    0.4366700000000000    0.2566600000000000 H
   0.2162550000000000    0.3609200000000000    0.2427600000000000 H
   0.1926900000000000    0.5644300000000000    0.2253200000000000 H
   0.2890750000000000    0.4207600000000000    0.2028550000000000 H
   0.2792400000000000    0.5343500000000000    0.1891900000000000 H
   0.3421700000000000    0.5633100000000000    0.2433500000000000 H
   0.2837450000000000    0.6390600000000000    0.2572600000000000 H
   0.3079600000000000    0.0642100000000000    0.9757450000000000 H
   0.2113800000000000    0.9210300000000000    0.9526900000000000 H
   0.2218000000000000    0.0344300000000000    0.9390200000000000 H
   0.1581800000000000    0.0636300000000000    0.9927800000000000 H
   0.2166250000000000    0.1392500000000000    0.0071000000000000 H
   0.1920650000000000    0.9357200000000000    0.0242700000000000 H
   0.2886300000000000    0.0789300000000000    0.0473350000000000 H
   0.2782250000000000    0.9655400000000000    0.0610050000000000 H
   0.3418400000000000    0.9363200000000000    0.0072500000000000 H
   0.2833900000000000    0.8607000000000000    0.9929300000000000 H
   0.3073100000000000    0.4355400000000000    0.7746999999999999 H
   0.2109250000000000    0.5792100000000000    0.7971600000000000 H
   0.2207600000000000    0.4656200000000000    0.8108299999999999 H
   0.1578300000000000    0.4366700000000000    0.7566600000000000 H
   0.2162550000000000    0.3609200000000000    0.7427600000000000 H
   0.1926900000000000    0.5644300000000000    0.7253200000000000 H
   0.2890750000000000    0.4207600000000000    0.7028550000000000 H
   0.2792400000000000    0.5343500000000000    0.6891900000000000 H
   0.3421700000000000    0.5633100000000000    0.7433500000000000 H
   0.2837450000000000    0.6390600000000000    0.7572600000000000 H
   0.3079600000000000    0.0642100000000000    0.4757450000000000 H
   0.2113800000000000    0.9210300000000000    0.4526900000000000 H
   0.2218000000000000    0.0344300000000000    0.4390200000000000 H
   0.1581800000000000    0.0636300000000000    0.4927800000000000 H
   0.2166250000000000    0.1392500000000000    0.5071000000000000 H
   0.1920650000000000    0.9357200000000000    0.5242700000000000 H
   0.2886300000000000    0.0789300000000000    0.5473350000000000 H
   0.2782250000000000    0.9655400000000000    0.5610050000000000 H
   0.3418400000000000    0.9363200000000000    0.5072500000000000 H
   0.2833900000000000    0.8607000000000000    0.4929300000000000 H
   0.9336249999999999    0.7720399999999999    0.7496950000000000 H
   0.8647650000000000    0.7243900000000000    0.7905700000000000 H
   0.9421800000000000    0.8843299999999999    0.8895999999999999 H
   0.0163850000000000    0.9338500000000000    0.8535100000000000 H
   0.3163600000000000    0.2279600000000000    0.7503299999999999 H
   0.2336300000000000    0.0661100000000000    0.6465000000000000 H
   0.3078300000000000    0.1156200000000000    0.6104250000000000 H
   0.3852250000000000    0.2756200000000000    0.7094549999999999 H
   0.0106400000000000    0.7838700000000000    0.7179250000000000 H
   0.0916900000000000    0.8698000000000000    0.6934600000000000 H
   0.2393450000000000    0.2161200000000000    0.7820950000000000 H
   0.1582950000000000    0.1301900000000000    0.8065550000000000 H
   0.9336249999999999    0.7720399999999999    0.2496950000000000 H
   0.8647650000000000    0.7243900000000000    0.2905700000000000 H
   0.9421800000000000    0.8843299999999999    0.3896000000000000 H
   0.0163850000000000    0.9338500000000000    0.3535100000000000 H
   0.3163600000000000    0.2279600000000000    0.2503300000000000 H
   0.2336300000000000    0.0661100000000000    0.1465000000000000 H
   0.3078300000000000    0.1156200000000000    0.1104250000000000 H
   0.3852250000000000    0.2756200000000000    0.2094550000000000 H
   0.0106400000000000    0.7838700000000000    0.2179250000000000 H
   0.0916900000000000    0.8698000000000000    0.1934600000000000 H
   0.2393450000000000    0.2161200000000000    0.2820950000000000 H
   0.1582950000000000    0.1301900000000000    0.3065550000000000 H
   0.9836150000000000    0.0661100000000000    0.6465050000000000 H
   0.0663600000000000    0.2279400000000000    0.7503200000000000 H
   0.1352250000000000    0.2755900000000000    0.7094500000000000 H
   0.0578250000000000    0.1156200000000000    0.6104200000000000 H
   0.7663700000000000    0.9338600000000000    0.8535050000000000 H
   0.6836250000000000    0.7720200000000000    0.7496900000000000 H
   0.6147700000000000    0.7243800000000000    0.7905650000000000 H
   0.6921700000000000    0.8843600000000000    0.8895950000000000 H
   0.9893500000000000    0.2161000000000000    0.7820900000000000 H
   0.9083000000000000    0.1301700000000000    0.8065500000000000 H
   0.7606450000000000    0.7838600000000000    0.7179200000000000 H
   0.8416950000000001    0.8697900000000000    0.6934600000000000 H
   0.9836150000000000    0.0661100000000000    0.1465050000000000 H
   0.0663600000000000    0.2279400000000000    0.2503200000000000 H
   0.1352250000000000    0.2755900000000000    0.2094500000000000 H
   0.0578250000000000    0.1156200000000000    0.1104200000000000 H
   0.7663700000000000    0.9338600000000000    0.3535050000000000 H
   0.6836250000000000    0.7720200000000000    0.2496900000000000 H
   0.6147700000000000    0.7243800000000000    0.2905650000000000 H
   0.6921700000000000    0.8843600000000000    0.3895950000000000 H
   0.9893500000000000    0.2161000000000000    0.2820900000000000 H
   0.9083000000000000    0.1301700000000000    0.3065500000000000 H
   0.7606450000000000    0.7838600000000000    0.2179200000000000 H
   0.8416950000000001    0.8697900000000000    0.1934600000000000 H
   0.5573100000000000    0.4355500000000000    0.7746999999999999 H
   0.4609250000000000    0.5792200000000000    0.7971650000000000 H
   0.4707550000000000    0.4656200000000000    0.8108299999999999 H
   0.4078300000000000    0.4366700000000000    0.7566649999999999 H
   0.4662550000000000    0.3609200000000000    0.7427600000000000 H
   0.4426900000000000    0.5644300000000000    0.7253200000000000 H
   0.5390750000000000    0.4207600000000000    0.7028500000000000 H
   0.5292450000000000    0.5343599999999999    0.6891900000000000 H
   0.5921700000000000    0.5633100000000000    0.7433600000000000 H
   0.5337450000000000    0.6390600000000000    0.7572650000000001 H
   0.5579550000000000    0.0642800000000000    0.9757800000000000 H
   0.4613700000000000    0.9211200000000000    0.9526850000000000 H
   0.4717950000000000    0.0345600000000000    0.9390450000000000 H
   0.4081900000000000    0.0637100000000000    0.9928100000000000 H
   0.4666450000000000    0.1392800000000000    0.0071450000000000 H
   0.4420650000000000    0.9356800000000000    0.0242500000000000 H
   0.5386500000000000    0.0788500000000000    0.0473450000000000 H
   0.5282249999999999    0.9654100000000000    0.0609900000000000 H
   0.5918300000000000    0.9362500000000000    0.0072250000000000 H
   0.5333700000000000    0.8606900000000000    0.9928500000000000 H
   0.5573100000000000    0.4355500000000000    0.2747000000000000 H
   0.4609250000000000    0.5792200000000000    0.2971650000000000 H
   0.4707550000000000    0.4656200000000000    0.3108300000000000 H
   0.4078300000000000    0.4366700000000000    0.2566650000000000 H
   0.4662550000000000    0.3609200000000000    0.2427600000000000 H
   0.4426900000000000    0.5644300000000000    0.2253200000000000 H
   0.5390750000000000    0.4207600000000000    0.2028500000000000 H
   0.5292450000000000    0.5343599999999999    0.1891900000000000 H
   0.5921700000000000    0.5633100000000000    0.2433600000000000 H
   0.5337450000000000    0.6390600000000000    0.2572650000000000 H
   0.5579550000000000    0.0642800000000000    0.4757800000000000 H
   0.4613700000000000    0.9211200000000000    0.4526850000000000 H
   0.4717950000000000    0.0345600000000000    0.4390450000000000 H
   0.4081900000000000    0.0637100000000000    0.4928100000000000 H
   0.4666450000000000    0.1392800000000000    0.5071450000000000 H
   0.4420650000000000    0.9356800000000000    0.5242500000000000 H
   0.5386500000000000    0.0788500000000000    0.5473450000000000 H
   0.5282249999999999    0.9654100000000000    0.5609900000000000 H
   0.5918300000000000    0.9362500000000000    0.5072250000000000 H
   0.5333700000000000    0.8606900000000000    0.4928500000000000 H
   0.2678300000000000    0.3918800000000000    0.0878000000000000 C
   0.3117000000000000    0.2970600000000000    0.0304000000000000 C
   0.3507650000000000    0.2706800000000000    0.0529400000000000 C
   0.3087050000000000    0.3631300000000000    0.1083600000000000 C
   0.2682800000000000    0.3591900000000000    0.0476150000000000 C
   0.9821650000000000    0.6080800000000000    0.9122200000000000 C
   0.9382950000000000    0.7029200000000000    0.9696199999999999 C
   0.8992300000000000    0.7292900000000000    0.9470799999999999 C
   0.9412849999999999    0.6368200000000001    0.8916600000000000 C
   0.9817150000000000    0.6407700000000000    0.9524049999999999 C
   0.0342900000000000    0.6542700000000000    0.0138800000000000 C
   0.0236500000000000    0.6127400000000000    0.9752650000000000 C
   0.0782550000000000    0.6088100000000000    0.0269500000000000 C
   0.1022450000000000    0.5312400000000000    0.9985750000000000 C
   0.2157050000000000    0.3457000000000000    0.9861450000000000 C
   0.2263500000000000    0.3872400000000000    0.0247550000000000 C
   0.1717400000000000    0.3911600000000000    0.9730300000000001 C
   0.1477500000000000    0.4687400000000000    0.0014450000000000 C
   0.2678300000000000    0.3918800000000000    0.5878000000000000 C
   0.3117000000000000    0.2970600000000000    0.5304000000000000 C
   0.3507650000000000    0.2706800000000000    0.5529400000000000 C
   0.3087050000000000    0.3631300000000000    0.6083600000000000 C
   0.2682800000000000    0.3591900000000000    0.5476150000000000 C
   0.9821650000000000    0.6080800000000000    0.4122200000000000 C
   0.9382950000000000    0.7029200000000000    0.4696200000000000 C
   0.8992300000000000    0.7292900000000000    0.4470800000000000 C
   0.9412849999999999    0.6368200000000001    0.3916600000000000 C
   0.9817150000000000    0.6407700000000000    0.4524050000000000 C
   0.0342900000000000    0.6542700000000000    0.5138800000000000 C
   0.0236500000000000    0.6127400000000000    0.4752650000000000 C
   0.0782550000000000    0.6088100000000000    0.5269500000000000 C
   0.1022450000000000    0.5312400000000000    0.4985750000000000 C
   0.2157050000000000    0.3457000000000000    0.4861450000000000 C
   0.2263500000000000    0.3872400000000000    0.5247550000000000 C
   0.1717400000000000    0.3911600000000000    0.4730300000000000 C
   0.1477500000000000    0.4687400000000000    0.5014450000000000 C
   0.7678300000000000    0.3918800000000000    0.5878000000000000 C
   0.8117000000000000    0.2970600000000000    0.5304000000000000 C
   0.8507650000000000    0.2706800000000000    0.5529400000000000 C
   0.8087050000000000    0.3631300000000000    0.6083600000000000 C
   0.7682800000000001    0.3591900000000000    0.5476150000000000 C
   0.4821650000000000    0.6080800000000000    0.4122200000000000 C
   0.4382950000000000    0.7029200000000000    0.4696200000000000 C
   0.3992300000000000    0.7292900000000000    0.4470800000000000 C
   0.4412850000000000    0.6368200000000001    0.3916600000000000 C
   0.4817150000000000    0.6407700000000000    0.4524050000000000 C
   0.5342900000000000    0.6542700000000000    0.5138800000000000 C
   0.5236499999999999    0.6127400000000000    0.4752650000000000 C
   0.5782550000000000    0.6088100000000000    0.5269500000000000 C
   0.6022450000000000    0.5312400000000000    0.4985750000000000 C
   0.7157050000000000    0.3457000000000000    0.4861450000000000 C
   0.7263500000000001    0.3872400000000000    0.5247550000000000 C
   0.6717400000000000    0.3911600000000000    0.4730300000000000 C
   0.6477500000000000    0.4687400000000000    0.5014450000000000 C
   0.7678300000000000    0.3918800000000000    0.0878000000000000 C
   0.8117000000000000    0.2970600000000000    0.0304000000000000 C
   0.8507650000000000    0.2706800000000000    0.0529400000000000 C
   0.8087050000000000    0.3631300000000000    0.1083600000000000 C
   0.7682800000000001    0.3591900000000000    0.0476150000000000 C
   0.4821650000000000    0.6080800000000000    0.9122200000000000 C
   0.4382950000000000    0.7029200000000000    0.9696199999999999 C
   0.3992300000000000    0.7292900000000000    0.9470799999999999 C
   0.4412850000000000    0.6368200000000001    0.8916600000000000 C
   0.4817150000000000    0.6407700000000000    0.9524049999999999 C
   0.5342900000000000    0.6542700000000000    0.0138800000000000 C
   0.5236499999999999    0.6127400000000000    0.9752650000000000 C
   0.5782550000000000    0.6088100000000000    0.0269500000000000 C
   0.6022450000000000    0.5312400000000000    0.9985750000000000 C
   0.7157050000000000    0.3457000000000000    0.9861450000000000 C
   0.7263500000000001    0.3872400000000000    0.0247550000000000 C
   0.6717400000000000    0.3911600000000000    0.9730300000000001 C
   0.6477500000000000    0.4687400000000000    0.0014450000000000 C
   0.0178350000000000    0.3918900000000000    0.0878000000000000 C
   0.0617050000000000    0.2970500000000000    0.0304000000000000 C
   0.1007700000000000    0.2706800000000000    0.0529000000000000 C
   0.0587100000000000    0.3631400000000000    0.1083600000000000 C