H4 O2
1.0
  24.9759961046402665    0.0000000000000000    0.0139492291621047
  -0.0083282482253984   13.0436916723902385   -3.7498296222493868
   0.0000000000000000    0.0000000000000000   36.4380000000000024
H O
4 2
direct
   0.6005291472431046    0.2796164678075673    0.5635888792456683 H
   0.5700708682299906    0.3465413826151776    0.6037124974587196 H
   0.1799326100695808    0.6534355499820960    0.3963066436889053 H
   0.1494715872965459    0.7203802605033881    0.4364308319682578 H
   0.5999000000000000    0.3029600000000000    0.5915100000000000 O
   0.1501050000000000    0.6970200000000000    0.4085100000000000 O
