Cd64 As128 H127 O383
1.0
  38.5201982534505305    0.0000000000000000   -2.2864974338202853
   0.0007631538219530   39.0239999687630998    0.0013621945743187
   0.0000000000000000    0.0000000000000000   23.0289999999999999
Cd As H O
64 128 127 383
direct
   0.0000200000000000    0.2500000000000000    0.4999900000000000 Cd
   0.1250250000000000    0.4999950000000000    0.4999900000000000 Cd
   0.1250225000000000    0.2500000000000000    0.4999900000000000 Cd
   0.0000100000000000    0.1250000000000000    0.0000000000000000 Cd
   0.0000100000000000    0.3750050000000000    0.9999900000000000 Cd
   0.1250125000000000    0.1250000000000000    0.0000000000000000 Cd
   0.1250150000000000    0.3750050000000000    0.9999900000000000 Cd
   0.0000225000000000    0.4999950000000000    0.4999900000000000 Cd
   0.2500200000000000    0.2500000000000000    0.4999900000000000 Cd
   0.3750250000000000    0.4999950000000000    0.4999900000000000 Cd
   0.3750225000000000    0.2500000000000000    0.4999900000000000 Cd
   0.2500100000000000    0.1250000000000000    0.0000000000000000 Cd
   0.2500100000000000    0.3750050000000000    0.9999900000000000 Cd
   0.3750125000000000    0.1250000000000000    0.0000000000000000 Cd
   0.3750150000000000    0.3750050000000000    0.9999900000000000 Cd
   0.2500225000000000    0.4999950000000000    0.4999900000000000 Cd
   0.5000200000000000    0.2500000000000000    0.4999900000000000 Cd
   0.6250249999999999    0.4999950000000000    0.4999900000000000 Cd
   0.6250225000000000    0.2500000000000000    0.4999900000000000 Cd
   0.5000100000000000    0.1250000000000000    0.0000000000000000 Cd
   0.5000100000000000    0.3750050000000000    0.9999900000000000 Cd
   0.6250125000000000    0.1250000000000000    0.0000000000000000 Cd
   0.6250150000000000    0.3750050000000000    0.9999900000000000 Cd
   0.5000225000000000    0.4999950000000000    0.4999900000000000 Cd
   0.7500200000000000    0.2500000000000000    0.4999900000000000 Cd
   0.8750249999999999    0.4999950000000000    0.4999900000000000 Cd
   0.8750225000000000    0.2500000000000000    0.4999900000000000 Cd
   0.7500100000000000    0.1250000000000000    0.0000000000000000 Cd
   0.7500100000000000    0.3750050000000000    0.9999900000000000 Cd
   0.8750125000000000    0.1250000000000000    0.0000000000000000 Cd
   0.8750150000000000    0.3750050000000000    0.9999900000000000 Cd
   0.7500225000000000    0.4999950000000000    0.4999900000000000 Cd
   0.0000200000000000    0.7500000000000000    0.4999900000000000 Cd
   0.1250250000000000    0.9999950000000000    0.4999900000000000 Cd
   0.1250225000000000    0.7500000000000000    0.4999900000000000 Cd
   0.0000100000000000    0.6250000000000000    0.0000000000000000 Cd
   0.0000100000000000    0.8750050000000000    0.9999900000000000 Cd
   0.1250125000000000    0.6250000000000000    0.0000000000000000 Cd
   0.1250150000000000    0.8750050000000000    0.9999900000000000 Cd
   0.0000225000000000    0.9999950000000000    0.4999900000000000 Cd
   0.2500200000000000    0.7500000000000000    0.4999900000000000 Cd
   0.3750250000000000    0.9999950000000000    0.4999900000000000 Cd
   0.3750225000000000    0.7500000000000000    0.4999900000000000 Cd
   0.2500100000000000    0.6250000000000000    0.0000000000000000 Cd
   0.2500100000000000    0.8750050000000000    0.9999900000000000 Cd
   0.3750125000000000    0.6250000000000000    0.0000000000000000 Cd
   0.3750150000000000    0.8750050000000000    0.9999900000000000 Cd
   0.2500225000000000    0.9999950000000000    0.4999900000000000 Cd
   0.5000200000000000    0.7500000000000000    0.4999900000000000 Cd
   0.6250249999999999    0.9999950000000000    0.4999900000000000 Cd
   0.6250225000000000    0.7500000000000000    0.4999900000000000 Cd
   0.5000100000000000    0.6250000000000000    0.0000000000000000 Cd
   0.5000100000000000    0.8750050000000000    0.9999900000000000 Cd
   0.6250125000000000    0.6250000000000000    0.0000000000000000 Cd
   0.6250150000000000    0.8750050000000000    0.9999900000000000 Cd
   0.5000225000000000    0.9999950000000000    0.4999900000000000 Cd
   0.7500200000000000    0.7500000000000000    0.4999900000000000 Cd
   0.8750249999999999    0.9999950000000000    0.4999900000000000 Cd
   0.8750225000000000    0.7500000000000000    0.4999900000000000 Cd
   0.7500100000000000    0.6250000000000000    0.0000000000000000 Cd
   0.7500100000000000    0.8750050000000000    0.9999900000000000 Cd
   0.8750125000000000    0.6250000000000000    0.0000000000000000 Cd
   0.8750150000000000    0.8750050000000000    0.9999900000000000 Cd
   0.7500225000000000    0.9999950000000000    0.4999900000000000 Cd
   0.0694000000000000    0.2173000000000000    0.5965000000000000 As
   0.0694050000000000    0.4673000000000000    0.5965100000000000 As
   0.1944025000000000    0.2173000000000000    0.5965000000000000 As
   0.1944100000000000    0.4673000000000000    0.5965100000000000 As
   0.0556250000000000    0.0922950000000000    0.9034600000000000 As
   0.0556275000000000    0.3423000000000000    0.9034600000000000 As
   0.1806275000000000    0.0922950000000000    0.9034600000000000 As
   0.1806300000000000    0.3423000000000000    0.9034600000000000 As
   0.0556350000000000    0.0327000000000000    0.4034700000000000 As
   0.0556350000000000    0.2827050000000000    0.4034700000000000 As
   0.1806375000000000    0.0327000000000000    0.4034700000000000 As
   0.1806375000000000    0.2827050000000000    0.4034700000000000 As
   0.0693900000000000    0.1577000000000000    0.0965000000000000 As
   0.0693900000000000    0.4077000000000000    0.0965000000000000 As
   0.1943925000000000    0.1577000000000000    0.0965000000000000 As
   0.1943950000000000    0.4077000000000000    0.0965000000000000 As
   0.3194000000000000    0.2173000000000000    0.5965000000000000 As
   0.3194050000000000    0.4673000000000000    0.5965100000000000 As
   0.4444025000000000    0.2173000000000000    0.5965000000000000 As
   0.4444100000000000    0.4673000000000000    0.5965100000000000 As
   0.3056250000000000    0.0922950000000000    0.9034600000000000 As
   0.3056275000000000    0.3423000000000000    0.9034600000000000 As
   0.4306275000000000    0.0922950000000000    0.9034600000000000 As
   0.4306300000000000    0.3423000000000000    0.9034600000000000 As
   0.3056350000000000    0.0327000000000000    0.4034700000000000 As
   0.3056350000000000    0.2827050000000000    0.4034700000000000 As
   0.4306375000000000    0.0327000000000000    0.4034700000000000 As
   0.4306375000000000    0.2827050000000000    0.4034700000000000 As
   0.3193900000000000    0.1577000000000000    0.0965000000000000 As
   0.3193900000000000    0.4077000000000000    0.0965000000000000 As
   0.4443925000000000    0.1577000000000000    0.0965000000000000 As
   0.4443950000000000    0.4077000000000000    0.0965000000000000 As
   0.5694000000000000    0.2173000000000000    0.5965000000000000 As
   0.5694049999999999    0.4673000000000000    0.5965100000000000 As
   0.6944025000000000    0.2173000000000000    0.5965000000000000 As
   0.6944100000000000    0.4673000000000000    0.5965100000000000 As
   0.5556250000000000    0.0922950000000000    0.9034600000000000 As
   0.5556275000000001    0.3423000000000000    0.9034600000000000 As
   0.6806274999999999    0.0922950000000000    0.9034600000000000 As
   0.6806300000000001    0.3423000000000000    0.9034600000000000 As
   0.5556350000000000    0.0327000000000000    0.4034700000000000 As
   0.5556350000000000    0.2827050000000000    0.4034700000000000 As
   0.6806375000000000    0.0327000000000000    0.4034700000000000 As
   0.6806375000000000    0.2827050000000000    0.4034700000000000 As
   0.5693900000000000    0.1577000000000000    0.0965000000000000 As
   0.5693900000000000    0.4077000000000000    0.0965000000000000 As
   0.6943925000000000    0.1577000000000000    0.0965000000000000 As
   0.6943950000000000    0.4077000000000000    0.0965000000000000 As
   0.8194000000000000    0.2173000000000000    0.5965000000000000 As
   0.8194049999999999    0.4673000000000000    0.5965100000000000 As
   0.9444025000000000    0.2173000000000000    0.5965000000000000 As
   0.9444100000000000    0.4673000000000000    0.5965100000000000 As
   0.8056250000000000    0.0922950000000000    0.9034600000000000 As
   0.8056275000000001    0.3423000000000000    0.9034600000000000 As
   0.9306274999999999    0.0922950000000000    0.9034600000000000 As
   0.9306300000000001    0.3423000000000000    0.9034600000000000 As
   0.8056350000000000    0.0327000000000000    0.4034700000000000 As
   0.8056350000000000    0.2827050000000000    0.4034700000000000 As
   0.9306375000000000    0.0327000000000000    0.4034700000000000 As
   0.9306375000000000    0.2827050000000000    0.4034700000000000 As
   0.8193900000000000    0.1577000000000000    0.0965000000000000 As
   0.8193900000000000    0.4077000000000000    0.0965000000000000 As
   0.9443925000000000    0.1577000000000000    0.0965000000000000 As
   0.9443950000000000    0.4077000000000000    0.0965000000000000 As
   0.0694000000000000    0.7173000000000000    0.5965000000000000 As
   0.0694050000000000    0.9673000000000000    0.5965100000000000 As
   0.1944025000000000    0.7173000000000000    0.5965000000000000 As
   0.1944100000000000    0.9673000000000000    0.5965100000000000 As
   0.0556250000000000    0.5922950000000000    0.9034600000000000 As
   0.0556275000000000    0.8423000000000000    0.9034600000000000 As
   0.1806275000000000    0.5922950000000000    0.9034600000000000 As
   0.1806300000000000    0.8423000000000000    0.9034600000000000 As
   0.0556350000000000    0.5327000000000000    0.4034700000000000 As
   0.0556350000000000    0.7827050000000000    0.4034700000000000 As
   0.1806375000000000    0.5327000000000000    0.4034700000000000 As
   0.1806375000000000    0.7827050000000000    0.4034700000000000 As
   0.0693900000000000    0.6577000000000000    0.0965000000000000 As
   0.0693900000000000    0.9077000000000000    0.0965000000000000 As
   0.1943925000000000    0.6577000000000000    0.0965000000000000 As
   0.1943950000000000    0.9077000000000000    0.0965000000000000 As
   0.3194000000000000    0.7173000000000000    0.5965000000000000 As
   0.3194050000000000    0.9673000000000000    0.5965100000000000 As
   0.4444025000000000    0.7173000000000000    0.5965000000000000 As
   0.4444100000000000    0.9673000000000000    0.5965100000000000 As
   0.3056250000000000    0.5922950000000000    0.9034600000000000 As
   0.3056275000000000    0.8423000000000000    0.9034600000000000 As
   0.4306275000000000    0.5922950000000000    0.9034600000000000 As
   0.4306300000000000    0.8423000000000000    0.9034600000000000 As
   0.3056350000000000    0.5327000000000000    0.4034700000000000 As
   0.3056350000000000    0.7827050000000000    0.4034700000000000 As
   0.4306375000000000    0.5327000000000000    0.4034700000000000 As
   0.4306375000000000    0.7827050000000000    0.4034700000000000 As
   0.3193900000000000    0.6577000000000000    0.0965000000000000 As
   0.3193900000000000    0.9077000000000000    0.0965000000000000 As
   0.4443925000000000    0.6577000000000000    0.0965000000000000 As
   0.4443950000000000    0.9077000000000000    0.0965000000000000 As
   0.5694000000000000    0.7173000000000000    0.5965000000000000 As
   0.5694049999999999    0.9673000000000000    0.5965100000000000 As
   0.6944025000000000    0.7173000000000000    0.5965000000000000 As
   0.6944100000000000    0.9673000000000000    0.5965100000000000 As
   0.5556250000000000    0.5922950000000000    0.9034600000000000 As
   0.5556275000000001    0.8423000000000000    0.9034600000000000 As
   0.6806274999999999    0.5922950000000000    0.9034600000000000 As
   0.6806300000000001    0.8423000000000000    0.9034600000000000 As
   0.5556350000000000    0.5327000000000000    0.4034700000000000 As
   0.5556350000000000    0.7827050000000000    0.4034700000000000 As
   0.6806375000000000    0.5327000000000000    0.4034700000000000 As
   0.6806375000000000    0.7827050000000000    0.4034700000000000 As
   0.5693900000000000    0.6577000000000000    0.0965000000000000 As
   0.5693900000000000    0.9077000000000000    0.0965000000000000 As
   0.6943925000000000    0.6577000000000000    0.0965000000000000 As
   0.6943950000000000    0.9077000000000000    0.0965000000000000 As
   0.8194000000000000    0.7173000000000000    0.5965000000000000 As
   0.8194049999999999    0.9673000000000000    0.5965100000000000 As
   0.9444025000000000    0.7173000000000000    0.5965000000000000 As
   0.9444100000000000    0.9673000000000000    0.5965100000000000 As
   0.8056250000000000    0.5922950000000000    0.9034600000000000 As
   0.8056275000000001    0.8423000000000000    0.9034600000000000 As
   0.9306274999999999    0.5922950000000000    0.9034600000000000 As
   0.9306300000000001    0.8423000000000000    0.9034600000000000 As
   0.8056350000000000    0.5327000000000000    0.4034700000000000 As
   0.8056350000000000    0.7827050000000000    0.4034700000000000 As
   0.9306375000000000    0.5327000000000000    0.4034700000000000 As
   0.9306375000000000    0.7827050000000000    0.4034700000000000 As
   0.8193900000000000    0.6577000000000000    0.0965000000000000 As
   0.8193900000000000    0.9077000000000000    0.0965000000000000 As
   0.9443925000000000    0.6577000000000000    0.0965000000000000 As
   0.9443950000000000    0.9077000000000000    0.0965000000000000 As
   0.0157200000000000    0.1912150000000000    0.5811100000000000 H
   0.0157250000000000    0.4412150000000000    0.5811100000000000 H
   0.1407225000000000    0.1912150000000000    0.5811100000000000 H
   0.1407275000000000    0.4412150000000000    0.5811100000000000 H
   0.1093075000000000    0.0662150000000000    0.9188000000000000 H
   0.1093100000000000    0.3162150000000000    0.9188499999999999 H
   0.2343100000000000    0.0662150000000000    0.9188000000000000 H
   0.2343125000000000    0.3162150000000000    0.9188499999999999 H
   0.1093150000000000    0.0587850000000000    0.4188600000000000 H
   0.1093150000000000    0.3087850000000000    0.4188600000000000 H
   0.2343175000000000    0.0587850000000000    0.4188600000000000 H
   0.2343175000000000    0.3087850000000000    0.4188600000000000 H
   0.0157075000000000    0.1837850000000000    0.0811200000000000 H
   0.0157075000000000    0.4337850000000000    0.0811200000000000 H
   0.1407100000000000    0.1837850000000000    0.0811200000000000 H
   0.1407125000000000    0.4337850000000000    0.0811200000000000 H
   0.2657200000000000    0.1912150000000000    0.5811100000000000 H
   0.2657250000000000    0.4412150000000000    0.5811100000000000 H
   0.3907225000000000    0.1912150000000000    0.5811100000000000 H
   0.3907275000000000    0.4412150000000000    0.5811100000000000 H
   0.3593075000000000    0.0662150000000000    0.9188000000000000 H
   0.3593100000000000    0.3162150000000000    0.9188499999999999 H
   0.4843100000000000    0.0662150000000000    0.9188000000000000 H
   0.4843125000000000    0.3162150000000000    0.9188499999999999 H
   0.3593150000000000    0.0587850000000000    0.4188600000000000 H
   0.3593150000000000    0.3087850000000000    0.4188600000000000 H
   0.4843175000000000    0.0587850000000000    0.4188600000000000 H
   0.4843175000000000    0.3087850000000000    0.4188600000000000 H
   0.2657075000000000    0.1837850000000000    0.0811200000000000 H
   0.2657075000000000    0.4337850000000000    0.0811200000000000 H
   0.3907100000000000    0.1837850000000000    0.0811200000000000 H
   0.3907125000000000    0.4337850000000000    0.0811200000000000 H
   0.5157200000000000    0.1912150000000000    0.5811100000000000 H
   0.5157250000000000    0.4412150000000000    0.5811100000000000 H
   0.6407225000000000    0.1912150000000000    0.5811100000000000 H
   0.6407275000000000    0.4412150000000000    0.5811100000000000 H
   0.6093075000000000    0.0662150000000000    0.9188000000000000 H
   0.6093100000000000    0.3162150000000000    0.9188499999999999 H
   0.7343100000000000    0.0662150000000000    0.9188000000000000 H
   0.7343125000000000    0.3162150000000000    0.9188499999999999 H
   0.6093150000000001    0.0587850000000000    0.4188600000000000 H
   0.6093150000000001    0.3087850000000000    0.4188600000000000 H
   0.7343175000000000    0.0587850000000000    0.4188600000000000 H
   0.7343175000000000    0.3087850000000000    0.4188600000000000 H
   0.5157075000000000    0.1837850000000000    0.0811200000000000 H
   0.5157075000000000    0.4337850000000000    0.0811200000000000 H
   0.6407100000000000    0.1837850000000000    0.0811200000000000 H
   0.6407125000000000    0.4337850000000000    0.0811200000000000 H
   0.7657200000000000    0.1912150000000000    0.5811100000000000 H
   0.7657250000000000    0.4412150000000000    0.5811100000000000 H
   0.8907225000000000    0.1912150000000000    0.5811100000000000 H
   0.8907275000000000    0.4412150000000000    0.5811100000000000 H
   0.8593075000000000    0.0662150000000000    0.9188000000000000 H
   0.8593100000000000    0.3162150000000000    0.9188499999999999 H
   0.9843100000000000    0.0662150000000000    0.9188000000000000 H
   0.9843125000000000    0.3162150000000000    0.9188499999999999 H
   0.8593150000000001    0.0587850000000000    0.4188600000000000 H
   0.8593150000000001    0.3087850000000000    0.4188600000000000 H
   0.9843175000000000    0.0587850000000000    0.4188600000000000 H
   0.9843175000000000    0.3087850000000000    0.4188600000000000 H
   0.7657075000000000    0.1837850000000000    0.0811200000000000 H
   0.7657075000000000    0.4337850000000000    0.0811200000000000 H
   0.8907100000000000    0.1837850000000000    0.0811200000000000 H
   0.8907125000000000    0.4337850000000000    0.0811200000000000 H
   0.0157200000000000    0.6912150000000000    0.5811100000000000 H
   0.0157250000000000    0.9412150000000000    0.5811100000000000 H
   0.1407225000000000    0.6912150000000000    0.5811100000000000 H
   0.1407275000000000    0.9412150000000000    0.5811100000000000 H
   0.1093075000000000    0.5662150000000000    0.9188000000000000 H
   0.1093100000000000    0.8162150000000000    0.9188499999999999 H
   0.2343100000000000    0.5662150000000000    0.9188000000000000 H
   0.2343125000000000    0.8162150000000000    0.9188499999999999 H
   0.1093150000000000    0.5587850000000000    0.4188600000000000 H
   0.1093150000000000    0.8087850000000000    0.4188600000000000 H
   0.2343175000000000    0.5587850000000000    0.4188600000000000 H
   0.2343175000000000    0.8087850000000000    0.4188600000000000 H
   0.0157075000000000    0.6837850000000000    0.0811200000000000 H
   0.0157075000000000    0.9337850000000000    0.0811200000000000 H
   0.1407100000000000    0.6837850000000000    0.0811200000000000 H
   0.1407125000000000    0.9337850000000000    0.0811200000000000 H
   0.2657200000000000    0.6912150000000000    0.5811100000000000 H
   0.2657250000000000    0.9412150000000000    0.5811100000000000 H
   0.3907225000000000    0.6912150000000000    0.5811100000000000 H
   0.3907275000000000    0.9412150000000000    0.5811100000000000 H
   0.3593075000000000    0.5662150000000000    0.9188000000000000 H
   0.3593100000000000    0.8162150000000000    0.9188499999999999 H
   0.4843100000000000    0.5662150000000000    0.9188000000000000 H
   0.4843125000000000    0.8162150000000000    0.9188499999999999 H
   0.3593150000000000    0.5587850000000000    0.4188600000000000 H
   0.3593150000000000    0.8087850000000000    0.4188600000000000 H
   0.4843175000000000    0.5587850000000000    0.4188600000000000 H
   0.4843175000000000    0.8087850000000000    0.4188600000000000 H
   0.2657075000000000    0.6837850000000000    0.0811200000000000 H
   0.2657075000000000    0.9337850000000000    0.0811200000000000 H
   0.3907100000000000    0.6837850000000000    0.0811200000000000 H
   0.3907125000000000    0.9337850000000000    0.0811200000000000 H
   0.5157200000000000    0.6912150000000000    0.5811100000000000 H
   0.5157250000000000    0.9412150000000000    0.5811100000000000 H
   0.6407225000000000    0.6912150000000000    0.5811100000000000 H
   0.6407275000000000    0.9412150000000000    0.5811100000000000 H
   0.6093075000000000    0.5662150000000000    0.9188000000000000 H
   0.6093100000000000    0.8162150000000000    0.9188499999999999 H
   0.7343100000000000    0.5662150000000000    0.9188000000000000 H
   0.7343125000000000    0.8162150000000000    0.9188499999999999 H
   0.6093150000000001    0.5587850000000000    0.4188600000000000 H
   0.6093150000000001    0.8087850000000000    0.4188600000000000 H
   0.7343175000000000    0.5587850000000000    0.4188600000000000 H
   0.7343175000000000    0.8087850000000000    0.4188600000000000 H
   0.5157075000000000    0.6837850000000000    0.0811200000000000 H
   0.5157075000000000    0.9337850000000000    0.0811200000000000 H
   0.6407100000000000    0.6837850000000000    0.0811200000000000 H
   0.6407125000000000    0.9337850000000000    0.0811200000000000 H
   0.7657200000000000    0.6912150000000000    0.5811100000000000 H
   0.7657250000000000    0.9412150000000000    0.5811100000000000 H
   0.8907225000000000    0.6912150000000000    0.5811100000000000 H
   0.8907275000000000    0.9412150000000000    0.5811100000000000 H
   0.8593075000000000    0.5662150000000000    0.9188000000000000 H
   0.8593100000000000    0.8162150000000000    0.9188499999999999 H
   0.9843125000000000    0.8162150000000000    0.9188499999999999 H
   0.8593150000000001    0.5587850000000000    0.4188600000000000 H
   0.8593150000000001    0.8087850000000000    0.4188600000000000 H
   0.9843175000000000    0.5587850000000000    0.4188600000000000 H
   0.9843175000000000    0.8087850000000000    0.4188600000000000 H
   0.7657075000000000    0.6837850000000000    0.0811200000000000 H
   0.7657075000000000    0.9337850000000000    0.0811200000000000 H
   0.8907100000000000    0.6837850000000000    0.0811200000000000 H
   0.8907125000000000    0.9337850000000000    0.0811200000000000 H
   0.1038950000000000    0.2057000000000000    0.5574000000000000 O
   0.1039000000000000    0.4557000000000000    0.5574000000000000 O
   0.2288975000000000    0.2057000000000000    0.5574000000000000 O
   0.2289025000000000    0.4557000000000000    0.5574100000000000 O
   0.0399375000000000    0.1817600000000000    0.5925900000000000 O
   0.0399425000000000    0.4317600000000000    0.5925000000000000 O
   0.1649400000000000    0.1817600000000000    0.5925000000000000 O
   0.1649450000000000    0.4317600000000000    0.5925900000000000 O
   0.0468175000000000    0.2516000000000000    0.5668800000000001 O
   0.0468225000000000    0.0000000000000000    0.5668800000000001 O
   0.1718200000000000    0.2516000000000000    0.5668800000000001 O
   0.1718250000000000    0.0000000000000000    0.5668800000000001 O
   0.0211325000000000    0.0807000000000000    0.9425500000000000 O
   0.0211350000000000    0.3307000000000000    0.9425500000000000 O
   0.1461350000000000    0.0807000000000000    0.9425500000000000 O
   0.1461375000000000    0.3307000000000000    0.9425500000000000 O
   0.0850900000000000    0.0567600000000000    0.9073800000000000 O
   0.0850925000000000    0.3067600000000000    0.9073800000000000 O
   0.2100925000000000    0.0567600000000000    0.9073800000000000 O
   0.2100950000000000    0.3067600000000000    0.9073800000000000 O
   0.0782100000000000    0.1265950000000000    0.9330900000000000 O
   0.0782125000000000    0.3765950000000000    0.9330900000000000 O
   0.2032125000000000    0.1265950000000000    0.9330900000000000 O
   0.2032150000000000    0.3765950000000000    0.9330900000000000 O
   0.0211400000000000    0.0442950000000000    0.4425600000000000 O
   0.0211400000000000    0.2943000000000000    0.4425600000000000 O
   0.1461450000000000    0.0442950000000000    0.4425600000000000 O
   0.1461425000000000    0.2943000000000000    0.4425600000000000 O
   0.0850975000000000    0.0682400000000000    0.4073800000000000 O
   0.0850975000000000    0.3182400000000000    0.4073800000000000 O
   0.2101000000000000    0.0682400000000000    0.4073000000000000 O
   0.2101000000000000    0.3182450000000000    0.4073000000000000 O
   0.0782225000000000    0.4984050000000000    0.4331000000000000 O
   0.0782200000000000    0.2484050000000000    0.4331000000000000 O
   0.2032250000000000    0.4984050000000000    0.4331000000000000 O
   0.2032225000000000    0.2484050000000000    0.4331000000000000 O
   0.1038825000000000    0.1693000000000000    0.0574200000000000 O
   0.1038850000000000    0.4193000000000000    0.0574200000000000 O
   0.2288850000000000    0.1693000000000000    0.0574200000000000 O
   0.2288875000000000    0.4193000000000000    0.0574200000000000 O
   0.0399250000000000    0.1932400000000000    0.0920000000000000 O
   0.0399250000000000    0.4432400000000000    0.0925900000000000 O
   0.1649275000000000    0.1932400000000000    0.0920000000000000 O
   0.1649300000000000    0.4432400000000000    0.0920000000000000 O
   0.0468075000000000    0.1234000000000000    0.0668900000000000 O
   0.0468075000000000    0.3734050000000000    0.0668900000000000 O
   0.1718100000000000    0.1234000000000000    0.0668900000000000 O
   0.1718125000000000    0.3734050000000000    0.0668900000000000 O
   0.3538950000000000    0.2057000000000000    0.5574000000000000 O
   0.3539000000000000    0.4557000000000000    0.5574000000000000 O
   0.4788975000000000    0.2057000000000000    0.5574000000000000 O
   0.4789025000000000    0.4557000000000000    0.5574100000000000 O
   0.2899375000000000    0.1817600000000000    0.5925900000000000 O
   0.2899425000000000    0.4317600000000000    0.5925000000000000 O
   0.4149400000000000    0.1817600000000000    0.5925000000000000 O
   0.4149450000000000    0.4317600000000000    0.5925900000000000 O
   0.2968175000000000    0.2516000000000000    0.5668800000000001 O
   0.2968225000000000    0.0000000000000000    0.5668800000000001 O
   0.4218200000000000    0.2516000000000000    0.5668800000000001 O
   0.4218250000000000    0.0000000000000000    0.5668800000000001 O
   0.2711325000000000    0.0807000000000000    0.9425500000000000 O
   0.2711350000000000    0.3307000000000000    0.9425500000000000 O
   0.3961350000000000    0.0807000000000000    0.9425500000000000 O
   0.3961375000000000    0.3307000000000000    0.9425500000000000 O
   0.3350900000000000    0.0567600000000000    0.9073800000000000 O
   0.3350925000000000    0.3067600000000000    0.9073800000000000 O
   0.4600925000000000    0.0567600000000000    0.9073800000000000 O
   0.4600950000000000    0.3067600000000000    0.9073800000000000 O
   0.3282100000000000    0.1265950000000000    0.9330900000000000 O
   0.3282125000000000    0.3765950000000000    0.9330900000000000 O
   0.4532125000000000    0.1265950000000000    0.9330900000000000 O
   0.4532150000000000    0.3765950000000000    0.9330900000000000 O
   0.2711400000000000    0.0442950000000000    0.4425600000000000 O
   0.2711400000000000    0.2943000000000000    0.4425600000000000 O
   0.3961450000000000    0.0442950000000000    0.4425600000000000 O
   0.3961425000000000    0.2943000000000000    0.4425600000000000 O
   0.3350975000000000    0.0682400000000000    0.4073800000000000 O
   0.3350975000000000    0.3182400000000000    0.4073800000000000 O
   0.4601000000000000    0.0682400000000000    0.4073000000000000 O
   0.4601000000000000    0.3182450000000000    0.4073000000000000 O
   0.3282225000000000    0.4984050000000000    0.4331000000000000 O
   0.3282200000000000    0.2484050000000000    0.4331000000000000 O
   0.4532250000000000    0.4984050000000000    0.4331000000000000 O
   0.4532225000000000    0.2484050000000000    0.4331000000000000 O
   0.3538825000000000    0.1693000000000000    0.0574200000000000 O
   0.3538850000000000    0.4193000000000000    0.0574200000000000 O
   0.4788850000000000    0.1693000000000000    0.0574200000000000 O
   0.4788875000000000    0.4193000000000000    0.0574200000000000 O
   0.2899250000000000    0.1932400000000000    0.0920000000000000 O
   0.2899250000000000    0.4432400000000000    0.0925900000000000 O
   0.4149275000000000    0.1932400000000000    0.0920000000000000 O
   0.4149300000000000    0.4432400000000000    0.0920000000000000 O
   0.2968075000000000    0.1234000000000000    0.0668900000000000 O
   0.2968075000000000    0.3734050000000000    0.0668900000000000 O
   0.4218100000000000    0.1234000000000000    0.0668900000000000 O
   0.4218125000000000    0.3734050000000000    0.0668900000000000 O
   0.6038950000000000    0.2057000000000000    0.5574000000000000 O
   0.6039000000000000    0.4557000000000000    0.5574000000000000 O
   0.7288975000000000    0.2057000000000000    0.5574000000000000 O
   0.7289025000000000    0.4557000000000000    0.5574100000000000 O
   0.5399375000000000    0.1817600000000000    0.5925900000000000 O
   0.5399425000000000    0.4317600000000000    0.5925000000000000 O
   0.6649400000000000    0.1817600000000000    0.5925000000000000 O
   0.6649450000000000    0.4317600000000000    0.5925900000000000 O
   0.5468175000000000    0.2516000000000000    0.5668800000000001 O
   0.5468225000000000    0.0000000000000000    0.5668800000000001 O
   0.6718200000000000    0.2516000000000000    0.5668800000000001 O
   0.6718250000000000    0.0000000000000000    0.5668800000000001 O
   0.5211325000000000    0.0807000000000000    0.9425500000000000 O
   0.5211350000000000    0.3307000000000000    0.9425500000000000 O
   0.6461350000000000    0.0807000000000000    0.9425500000000000 O
   0.6461375000000000    0.3307000000000000    0.9425500000000000 O
   0.5850900000000000    0.0567600000000000    0.9073800000000000 O
   0.5850925000000000    0.3067600000000000    0.9073800000000000 O
   0.7100925000000000    0.0567600000000000    0.9073800000000000 O