H5 O3
1.0
   7.9393582237429809    0.0000000000000000    0.6000291618619031
   0.1944007913705825   14.3300659610874206    0.1328227510563092
   0.0000000000000000    0.0000000000000000   14.5709999999999997
H O
5 3
direct
   0.0564199694016910    0.2664827964782630    0.6539539785676215 H
   0.1303232135090157    0.3298930444501809    0.7377053410367995 H
   0.8390524119375737    1.0288951331800742    0.7812433919862326 H
   0.9566765598170109    0.2011805681135717   -0.0119289549210185 H
   0.9036291602003097    0.1194247963151339   -0.1189495491975260 H
   0.1162300000000000    0.3217300000000000    0.6721400000000000 O
   0.8440600000000000    1.0519600000000000    0.8433400000000000 O
   0.9098700000000000    0.1481700000000000   -0.0415600000000001 O
