H4 O3
1.0
  29.8345259450120537    0.0000000000000000    4.4731740002377185
   6.4110686238940682   22.6341124195229710    8.1916575905073703
   0.0000000000000000    0.0000000000000000   25.5410000000000004
H O
4 3
direct
   0.0236328891805147    0.2391533272011657    0.3627406068936093 H
   0.7983001294629097    0.4550051796883028    0.0039379782078116 H
   0.7718763170305318    0.3412738492885494    1.0088605259998848 H
   0.7786208026931144    0.3670230673229118    1.0258707999877557 H
   0.0073150000000000    0.2229100000000000    0.3977400000000000 O
   0.8059100000000000    0.4858450000000000    0.0131800000000000 O
   0.7867299999999999    0.4014700000000000    1.0268999999999999 O
