Zn32 H440 C626 N32 O124
1.0
  29.8345259450120537    0.0000000000000000    4.4731740002377185
   6.4110686238940682   22.6341124195229710    8.1916575905073703
   0.0000000000000000    0.0000000000000000   25.5410000000000004
Zn H C N O
32 440 626 32 124
direct
   0.4932900000000000    0.4490350000000000    0.9643300000000000 Zn
   0.2091550000000000    0.3017200000000000    0.5336100000000000 Zn
   0.4591650000000000    0.3017300000000000    0.5336300000000000 Zn
   0.0069150000000000    0.0516250000000000    0.0335100000000000 Zn
   0.2569600000000000    0.0515800000000000    0.0335200000000000 Zn
   0.0410100000000000    0.1990550000000000    0.4642500000000000 Zn
   0.2910000000000000    0.1990350000000000    0.4642000000000000 Zn
   0.2433450000000000    0.4489850000000000    0.9643300000000000 Zn
   0.9932900000000000    0.4490350000000000    0.9643300000000000 Zn
   0.7091550000000000    0.3017200000000000    0.5336100000000000 Zn
   0.9591650000000000    0.3017300000000000    0.5336300000000000 Zn
   0.5069150000000000    0.0516250000000000    0.0335100000000000 Zn
   0.7569600000000001    0.0515800000000000    0.0335200000000000 Zn
   0.5410100000000000    0.1990550000000000    0.4642500000000000 Zn
   0.7909999999999999    0.1990350000000000    0.4642000000000000 Zn
   0.7433450000000000    0.4489850000000000    0.9643300000000000 Zn
   0.4932900000000000    0.9490350000000001    0.9643300000000000 Zn
   0.2091550000000000    0.8017200000000000    0.5336100000000000 Zn
   0.4591650000000000    0.8017300000000001    0.5336300000000000 Zn
   0.0069150000000000    0.5516250000000000    0.0335100000000000 Zn
   0.2569600000000000    0.5515800000000000    0.0335200000000000 Zn
   0.0410100000000000    0.6990550000000000    0.4642500000000000 Zn
   0.2910000000000000    0.6990350000000000    0.4642000000000000 Zn
   0.2433450000000000    0.9489850000000000    0.9643300000000000 Zn
   0.9932900000000000    0.9490350000000001    0.9643300000000000 Zn
   0.7091550000000000    0.8017200000000000    0.5336100000000000 Zn
   0.9591650000000000    0.8017300000000001    0.5336300000000000 Zn
   0.5069150000000000    0.5516250000000000    0.0335100000000000 Zn
   0.7569600000000001    0.5515800000000000    0.0335200000000000 Zn
   0.5410100000000000    0.6990550000000000    0.4642500000000000 Zn
   0.7909999999999999    0.6990350000000000    0.4642000000000000 Zn
   0.7433450000000000    0.9489850000000000    0.9643300000000000 Zn
   0.1031500000000000    0.4857450000000000    0.8460000000000000 H
   0.3531650000000000    0.4857200000000000    0.8460800000000001 H
   0.1521750000000000    0.0273900000000000    0.7663500000000000 H
   0.4021850000000000    0.0273850000000000    0.7663400000000000 H
   0.0329600000000000    0.0987450000000000    0.6646000000000000 H
   0.2829750000000000    0.0986900000000000    0.6646500000000000 H
   0.2344650000000000    0.0568450000000000    0.7460000000000000 H
   0.4844400000000000    0.0569150000000000    0.7460100000000000 H
   0.1890200000000000    0.0219000000000000    0.6849200000000000 H
   0.4390400000000000    0.0218950000000000    0.6849000000000000 H
   0.2391800000000000    0.0712750000000000    0.6107399999999999 H
   0.4891900000000000    0.0712850000000000    0.6107399999999999 H
   0.1201550000000000    0.2178750000000000    0.5524200000000000 H
   0.3701500000000000    0.2178750000000000    0.5524300000000000 H
   0.0697950000000000    0.1688000000000000    0.6248800000000000 H
   0.3198000000000000    0.1687750000000000    0.6248700000000000 H
   0.1774650000000000    0.4372350000000000    0.8966200000000000 H
   0.4274150000000000    0.4372900000000000    0.8966000000000000 H
   0.1362900000000000    0.3627100000000000    0.8985700000000000 H
   0.3862400000000000    0.3627650000000000    0.8985600000000000 H
   0.2025700000000000    0.2524150000000000    0.0512000000000000 H
   0.4525750000000000    0.2524200000000000    0.0511900000000000 H
   0.2382750000000000    0.3326500000000000    0.0446700000000000 H
   0.4882700000000000    0.3326600000000000    0.0446300000000000 H
   0.1715750000000000    0.2096900000000000    0.9842300000000000 H
   0.4215650000000000    0.2097300000000000    0.9841000000000000 H
   0.1315100000000000    0.2618600000000000    0.9357300000000000 H
   0.3814600000000000    0.2619250000000000    0.9350000000000001 H
   0.0574450000000000    0.2653600000000000    0.6520100000000000 H
   0.3074350000000000    0.2653650000000000    0.6519800000000000 H
   0.1073450000000000    0.2237200000000000    0.7317100000000000 H
   0.3573300000000000    0.2237200000000000    0.7316900000000000 H
   0.2483500000000000    0.1523850000000000    0.8334400000000000 H
   0.4983550000000000    0.1524300000000000    0.8334900000000000 H
   0.1992900000000000    0.1941400000000000    0.7521099999999999 H
   0.4492900000000000    0.1941950000000000    0.7521800000000000 H
   0.1211900000000000    0.2290150000000000    0.8132100000000000 H
   0.3711500000000000    0.2290200000000000    0.8131800000000000 H
   0.1775300000000000    0.1794350000000000    0.8872900000000000 H
   0.4274750000000000    0.1794650000000000    0.8872800000000000 H
   0.1171550000000000    0.0329600000000000    0.9454700000000000 H
   0.3671250000000000    0.0329700000000000    0.9454600000000000 H
   0.0603200000000000    0.0822350000000000    0.8731400000000000 H
   0.3103100000000000    0.0822200000000000    0.8731100000000001 H
   0.1203100000000000    0.3130500000000000    0.6013100000000000 H
   0.3703300000000000    0.3131400000000000    0.6013900000000000 H
   0.0422400000000000    0.3874650000000000    0.5995100000000000 H
   0.2922750000000000    0.3875750000000000    0.5995700000000000 H
   0.0915850000000000    0.4982800000000000    0.4471800000000000 H
   0.3415850000000000    0.4982550000000000    0.4471300000000000 H
   0.1658550000000000    0.4181050000000000    0.4535500000000000 H
   0.4158450000000000    0.4180700000000000    0.4535200000000000 H
   0.0223800000000000    0.0406350000000000    0.5144700000000000 H
   0.2724050000000000    0.0406850000000000    0.5144400000000000 H
   0.2461450000000000    0.4883500000000000    0.5624000000000000 H
   0.4961300000000000    0.4882800000000000    0.5624800000000000 H
   0.1470450000000000    0.0151150000000000    0.1518200000000000 H
   0.3970400000000000    0.0151100000000000    0.1518300000000000 H
   0.0980350000000000    0.4734000000000000    0.2315400000000000 H
   0.3480350000000000    0.4733950000000000    0.2315500000000000 H
   0.2172250000000000    0.4021350000000000    0.3332500000000000 H
   0.4672250000000000    0.4021400000000000    0.3332600000000000 H
   0.0157450000000000    0.4439500000000000    0.2519100000000000 H
   0.2657500000000000    0.4439450000000000    0.2519000000000000 H
   0.0611600000000000    0.4788950000000000    0.3129800000000000 H
   0.3111600000000000    0.4788950000000000    0.3129900000000000 H
   0.0110050000000000    0.4295350000000000    0.3871700000000000 H
   0.2610050000000000    0.4295250000000000    0.3871700000000000 H
   0.1300350000000000    0.2829600000000000    0.4455200000000000 H
   0.3800300000000000    0.2829450000000000    0.4455200000000000 H
   0.1803950000000000    0.3320300000000000    0.3730700000000000 H
   0.4303950000000000    0.3320250000000000    0.3730700000000000 H
   0.0729550000000000    0.0631300000000000    0.1011000000000000 H
   0.3230300000000000    0.0630800000000000    0.1011000000000000 H
   0.1141400000000000    0.1376000000000000    0.0993100000000000 H
   0.3642100000000000    0.1375550000000000    0.0992800000000000 H
   0.0476300000000000    0.2482650000000000    0.9468000000000000 H
   0.2976100000000000    0.2482600000000000    0.9469100000000000 H
   0.0119500000000000    0.1680550000000000    0.9532800000000000 H
   0.2619450000000000    0.1680350000000000    0.9533100000000000 H
   0.0787550000000000    0.2907750000000000    0.0138800000000000 H
   0.3287600000000000    0.2907500000000000    0.0139200000000000 H
   0.1188150000000000    0.2385450000000000    0.0623700000000000 H
   0.3688600000000000    0.2385100000000000    0.0623600000000000 H
   0.1926100000000000    0.2353550000000000    0.3460100000000000 H
   0.4426250000000000    0.2353500000000000    0.3460300000000000 H
   0.1427000000000000    0.2770200000000000    0.2663000000000000 H
   0.3927150000000000    0.2769950000000000    0.2663000000000000 H
   0.2516850000000000    0.3483500000000000    0.1645500000000000 H
   0.3007650000000000    0.3065400000000000    0.2458600000000000 H
   0.1289350000000000    0.2716200000000000    0.1848300000000000 H
   0.3789500000000000    0.2715900000000000    0.1848600000000000 H
   0.0726200000000000    0.3211050000000000    0.1107200000000000 H
   0.3226400000000000    0.3210600000000000    0.1107000000000000 H
   0.1329400000000000    0.4676350000000000    0.0524700000000000 H
   0.3829500000000000    0.4676050000000000    0.0524800000000000 H
   0.1897250000000000    0.4184550000000000    0.1248600000000000 H
   0.4397300000000000    0.4184350000000000    0.1248900000000000 H
   0.1298900000000000    0.1876200000000000    0.3966700000000000 H
   0.3798600000000000    0.1875550000000000    0.3966200000000000 H
   0.2079700000000000    0.1132300000000000    0.3985900000000000 H
   0.4579350000000000    0.1131500000000000    0.3985400000000000 H
   0.1585850000000000    0.0025650000000000    0.5509900000000000 H
   0.4085850000000000    0.0025700000000000    0.5510200000000000 H
   0.0843000000000000    0.0827250000000000    0.5445000000000000 H
   0.3343050000000000    0.0827350000000000    0.5445000000000000 H
   0.2278150000000000    0.4601200000000000    0.4837100000000000 H
   0.4777950000000000    0.4600850000000000    0.4837000000000000 H
   0.0040550000000000    0.0124250000000000    0.4357100000000000 H
   0.2540700000000000    0.0124650000000000    0.4357000000000000 H
   0.6031500000000000    0.4857450000000000    0.8460000000000000 H
   0.8531650000000000    0.4857200000000000    0.8460800000000001 H
   0.6521749999999999    0.0273900000000000    0.7663500000000000 H
   0.9021850000000000    0.0273850000000000    0.7663400000000000 H
   0.5329600000000000    0.0987450000000000    0.6646000000000000 H
   0.7829750000000000    0.0986900000000000    0.6646500000000000 H
   0.7344650000000000    0.0568450000000000    0.7460000000000000 H
   0.9844400000000000    0.0569150000000000    0.7460100000000000 H
   0.6890200000000000    0.0219000000000000    0.6849200000000000 H
   0.9390400000000000    0.0218950000000000    0.6849000000000000 H
   0.7391799999999999    0.0712750000000000    0.6107399999999999 H
   0.9891900000000000    0.0712850000000000    0.6107399999999999 H
   0.6201550000000000    0.2178750000000000    0.5524200000000000 H
   0.8701500000000000    0.2178750000000000    0.5524300000000000 H
   0.5697950000000001    0.1688000000000000    0.6248800000000000 H
   0.8198000000000000    0.1687750000000000    0.6248700000000000 H
   0.6774650000000000    0.4372350000000000    0.8966200000000000 H
   0.9274150000000000    0.4372900000000000    0.8966000000000000 H
   0.6362900000000000    0.3627100000000000    0.8985700000000000 H
   0.8862400000000000    0.3627650000000000    0.8985600000000000 H
   0.7025700000000000    0.2524150000000000    0.0512000000000000 H
   0.9525749999999999    0.2524200000000000    0.0511900000000000 H
   0.7382750000000000    0.3326500000000000    0.0446700000000000 H
   0.9882700000000000    0.3326600000000000    0.0446300000000000 H
   0.6715750000000000    0.2096900000000000    0.9842300000000000 H
   0.9215650000000000    0.2097300000000000    0.9841000000000000 H
   0.6315100000000000    0.2618600000000000    0.9357300000000000 H
   0.8814600000000000    0.2619250000000000    0.9350000000000001 H
   0.5574450000000000    0.2653600000000000    0.6520100000000000 H
   0.8074350000000000    0.2653650000000000    0.6519800000000000 H
   0.6073450000000000    0.2237200000000000    0.7317100000000000 H
   0.8573299999999999    0.2237200000000000    0.7316900000000000 H
   0.7483500000000000    0.1523850000000000    0.8334400000000000 H
   0.9983550000000000    0.1524300000000000    0.8334900000000000 H
   0.6992900000000000    0.1941400000000000    0.7521099999999999 H
   0.9492900000000000    0.1941950000000000    0.7521800000000000 H
   0.6211900000000000    0.2290150000000000    0.8132100000000000 H
   0.8711500000000000    0.2290200000000000    0.8131800000000000 H
   0.6775300000000000    0.1794350000000000    0.8872900000000000 H
   0.9274750000000000    0.1794650000000000    0.8872800000000000 H
   0.6171550000000000    0.0329600000000000    0.9454700000000000 H
   0.8671249999999999    0.0329700000000000    0.9454600000000000 H
   0.5603200000000000    0.0822350000000000    0.8731400000000000 H
   0.8103100000000000    0.0822200000000000    0.8731100000000001 H
   0.6203100000000000    0.3130500000000000    0.6013100000000000 H
   0.8703300000000000    0.3131400000000000    0.6013900000000000 H
   0.5422400000000001    0.3874650000000000    0.5995100000000000 H
   0.7922750000000001    0.3875750000000000    0.5995700000000000 H
   0.5915850000000000    0.4982800000000000    0.4471800000000000 H
   0.8415850000000000    0.4982550000000000    0.4471300000000000 H
   0.6658550000000000    0.4181050000000000    0.4535500000000000 H
   0.9158450000000000    0.4180700000000000    0.4535200000000000 H
   0.5223800000000000    0.0406350000000000    0.5144700000000000 H
   0.7724050000000000    0.0406850000000000    0.5144400000000000 H
   0.7461450000000001    0.4883500000000000    0.5624000000000000 H
   0.9961300000000000    0.4882800000000000    0.5624800000000000 H
   0.6470450000000000    0.0151150000000000    0.1518200000000000 H
   0.8970400000000001    0.0151100000000000    0.1518300000000000 H
   0.5980350000000000    0.4734000000000000    0.2315400000000000 H
   0.8480350000000000    0.4733950000000000    0.2315500000000000 H
   0.7172250000000000    0.4021350000000000    0.3332500000000000 H
   0.9672250000000000    0.4021400000000000    0.3332600000000000 H
   0.5157450000000000    0.4439500000000000    0.2519100000000000 H
   0.7657499999999999    0.4439450000000000    0.2519000000000000 H
   0.5611600000000000    0.4788950000000000    0.3129800000000000 H
   0.8111600000000000    0.4788950000000000    0.3129900000000000 H
   0.5110050000000000    0.4295350000000000    0.3871700000000000 H
   0.7610049999999999    0.4295250000000000    0.3871700000000000 H
   0.6300350000000000    0.2829600000000000    0.4455200000000000 H
   0.8800300000000000    0.2829450000000000    0.4455200000000000 H
   0.6803950000000000    0.3320300000000000    0.3730700000000000 H
   0.9303950000000001    0.3320250000000000    0.3730700000000000 H
   0.5729550000000000    0.0631300000000000    0.1011000000000000 H
   0.8230299999999999    0.0630800000000000    0.1011000000000000 H
   0.6141400000000000    0.1376000000000000    0.0993100000000000 H
   0.8642099999999999    0.1375550000000000    0.0992800000000000 H
   0.5476300000000000    0.2482650000000000    0.9468000000000000 H
   0.7976099999999999    0.2482600000000000    0.9469100000000000 H
   0.5119500000000000    0.1680550000000000    0.9532800000000000 H
   0.7619450000000000    0.1680350000000000    0.9533100000000000 H
   0.5787550000000000    0.2907750000000000    0.0138800000000000 H
   0.8287599999999999    0.2907500000000000    0.0139200000000000 H
   0.6188150000000000    0.2385450000000000    0.0623700000000000 H
   0.8688600000000000    0.2385100000000000    0.0623600000000000 H
   0.6926099999999999    0.2353550000000000    0.3460100000000000 H
   0.6427000000000000    0.2770200000000000    0.2663000000000000 H
   0.5016900000000000    0.3483400000000000    0.1645000000000000 H
   0.7516849999999999    0.3483500000000000    0.1645500000000000 H
   0.5507700000000000    0.3065450000000000    0.2458700000000000 H
   0.8007649999999999    0.3065400000000000    0.2458600000000000 H
   0.6289350000000000    0.2716200000000000    0.1848300000000000 H
   0.5726200000000000    0.3211050000000000    0.1107200000000000 H
   0.6329400000000001    0.4676350000000000    0.0524700000000000 H
   0.6897250000000000    0.4184550000000000    0.1248600000000000 H
   0.6298900000000001    0.1876200000000000    0.3966700000000000 H
   0.8798600000000000    0.1875550000000000    0.3966200000000000 H
   0.7079700000000000    0.1132300000000000    0.3985900000000000 H
   0.9579350000000000    0.1131500000000000    0.3985400000000000 H
   0.6585850000000000    0.0025650000000000    0.5509900000000000 H
   0.9085850000000000    0.0025700000000000    0.5510200000000000 H
   0.5843000000000000    0.0827250000000000    0.5445000000000000 H
   0.8343050000000001    0.0827350000000000    0.5445000000000000 H
   0.7278150000000000    0.4601200000000000    0.4837100000000000 H
   0.9777950000000000    0.4600850000000000    0.4837000000000000 H
   0.5040550000000000    0.0124250000000000    0.4357100000000000 H
   0.7540700000000000    0.0124650000000000    0.4357000000000000 H
   0.1031500000000000    0.9857450000000000    0.8460000000000000 H
   0.3531650000000000    0.9857199999999999    0.8460800000000001 H
   0.1521750000000000    0.5273900000000000    0.7663500000000000 H
   0.4021850000000000    0.5273850000000000    0.7663400000000000 H
   0.0329600000000000    0.5987450000000000    0.6646000000000000 H
   0.2829750000000000    0.5986899999999999    0.6646500000000000 H
   0.2344650000000000    0.5568450000000000    0.7460000000000000 H
   0.4844400000000000    0.5569150000000000    0.7460100000000000 H
   0.1890200000000000    0.5219000000000000    0.6849200000000000 H
   0.4390400000000000    0.5218950000000000    0.6849000000000000 H
   0.2391800000000000    0.5712750000000000    0.6107399999999999 H
   0.4891900000000000    0.5712850000000000    0.6107399999999999 H
   0.1201550000000000    0.7178750000000000    0.5524200000000000 H
   0.3701500000000000    0.7178750000000000    0.5524300000000000 H
   0.0697950000000000    0.6688000000000001    0.6248800000000000 H
   0.3198000000000000    0.6687750000000000    0.6248700000000000 H
   0.1774650000000000    0.9372350000000000    0.8966200000000000 H
   0.4274150000000000    0.9372900000000000    0.8966000000000000 H
   0.1362900000000000    0.8627100000000000    0.8985700000000000 H
   0.3862400000000000    0.8627650000000000    0.8985600000000000 H
   0.2025700000000000    0.7524150000000001    0.0512000000000000 H
   0.4525750000000000    0.7524200000000000    0.0511900000000000 H
   0.2382750000000000    0.8326500000000000    0.0446700000000000 H
   0.4882700000000000    0.8326600000000000    0.0446300000000000 H
   0.1715750000000000    0.7096899999999999    0.9842300000000000 H
   0.4215650000000000    0.7097300000000000    0.9841000000000000 H
   0.1315100000000000    0.7618600000000000    0.9357300000000000 H
   0.3814600000000000    0.7619250000000000    0.9350000000000001 H
   0.0574450000000000    0.7653600000000000    0.6520100000000000 H
   0.3074350000000000    0.7653650000000001    0.6519800000000000 H
   0.1073450000000000    0.7237200000000000    0.7317100000000000 H
   0.3573300000000000    0.7237200000000000    0.7316900000000000 H
   0.2483500000000000    0.6523850000000000    0.8334400000000000 H
   0.4983550000000000    0.6524300000000001    0.8334900000000000 H
   0.1992900000000000    0.6941400000000000    0.7521099999999999 H
   0.4492900000000000    0.6941950000000000    0.7521800000000000 H
   0.1211900000000000    0.7290150000000000    0.8132100000000000 H
   0.3711500000000000    0.7290200000000000    0.8131800000000000 H
   0.1775300000000000    0.6794350000000000    0.8872900000000000 H
   0.4274750000000000    0.6794650000000000    0.8872800000000000 H
   0.1171550000000000    0.5329600000000000    0.9454700000000000 H
   0.3671250000000000    0.5329699999999999    0.9454600000000000 H
   0.0603200000000000    0.5822350000000001    0.8731400000000000 H
   0.3103100000000000    0.5822200000000000    0.8731100000000001 H
   0.1203100000000000    0.8130500000000001    0.6013100000000000 H
   0.3703300000000000    0.8131400000000000    0.6013900000000000 H
   0.0422400000000000    0.8874649999999999    0.5995100000000000 H
   0.2922750000000000    0.8875750000000000    0.5995700000000000 H
   0.0915850000000000    0.9982800000000001    0.4471800000000000 H
   0.3415850000000000    0.9982550000000000    0.4471300000000000 H
   0.1658550000000000    0.9181049999999999    0.4535500000000000 H
   0.4158450000000000    0.9180699999999999    0.4535200000000000 H
   0.0223800000000000    0.5406350000000000    0.5144700000000000 H
   0.2724050000000000    0.5406850000000000    0.5144400000000000 H
   0.2461450000000000    0.9883500000000001    0.5624000000000000 H
   0.4961300000000000    0.9882800000000000    0.5624800000000000 H
   0.1470450000000000    0.5151150000000000    0.1518200000000000 H
   0.3970400000000000    0.5151100000000000    0.1518300000000000 H
   0.0980350000000000    0.9734000000000000    0.2315400000000000 H
   0.3480350000000000    0.9733950000000000    0.2315500000000000 H
   0.2172250000000000    0.9021350000000000    0.3332500000000000 H
   0.4672250000000000    0.9021399999999999    0.3332600000000000 H
   0.0157450000000000    0.9439500000000001    0.2519100000000000 H
   0.2657500000000000    0.9439450000000000    0.2519000000000000 H
   0.0611600000000000    0.9788950000000001    0.3129800000000000 H
   0.3111600000000000    0.9788950000000001    0.3129900000000000 H
   0.0110050000000000    0.9295350000000000    0.3871700000000000 H
   0.2610050000000000    0.9295249999999999    0.3871700000000000 H
   0.1300350000000000    0.7829600000000000    0.4455200000000000 H
   0.3800300000000000    0.7829450000000000    0.4455200000000000 H
   0.1803950000000000    0.8320300000000000    0.3730700000000000 H
   0.4303950000000000    0.8320250000000000    0.3730700000000000 H
   0.0729550000000000    0.5631300000000000    0.1011000000000000 H
   0.3230300000000000    0.5630800000000000    0.1011000000000000 H
   0.1141400000000000    0.6375999999999999    0.0993100000000000 H
   0.3642100000000000    0.6375550000000000    0.0992800000000000 H
   0.0476300000000000    0.7482650000000000    0.9468000000000000 H
   0.2976100000000000    0.7482600000000000    0.9469100000000000 H
   0.0119500000000000    0.6680550000000001    0.9532800000000000 H
   0.2619450000000000    0.6680349999999999    0.9533100000000000 H
   0.0787550000000000    0.7907750000000000    0.0138800000000000 H
   0.3287600000000000    0.7907500000000001    0.0139200000000000 H
   0.1188150000000000    0.7385450000000000    0.0623700000000000 H
   0.3688600000000000    0.7385100000000000    0.0623600000000000 H
   0.1926100000000000    0.7353550000000000    0.3460100000000000 H
   0.4426250000000000    0.7353499999999999    0.3460300000000000 H
   0.1427000000000000    0.7770200000000000    0.2663000000000000 H
   0.3927150000000000    0.7769950000000000    0.2663000000000000 H
   0.0016900000000000    0.8483400000000000    0.1645000000000000 H
   0.2516850000000000    0.8483499999999999    0.1645500000000000 H
   0.0507700000000000    0.8065450000000001    0.2458700000000000 H
   0.3007650000000000    0.8065400000000000    0.2458600000000000 H
   0.1289350000000000    0.7716200000000000    0.1848300000000000 H
   0.3789500000000000    0.7715900000000000    0.1848600000000000 H
   0.0726200000000000    0.8211050000000000    0.1107200000000000 H
   0.3226400000000000    0.8210600000000000    0.1107000000000000 H
   0.1329400000000000    0.9676350000000000    0.0524700000000000 H
   0.3829500000000000    0.9676050000000000    0.0524800000000000 H
   0.1897250000000000    0.9184550000000000    0.1248600000000000 H
   0.4397300000000000    0.9184350000000000    0.1248900000000000 H
   0.1298900000000000    0.6876200000000000    0.3966700000000000 H
   0.3798600000000000    0.6875550000000000    0.3966200000000000 H
   0.2079700000000000    0.6132299999999999    0.3985900000000000 H
   0.4579350000000000    0.6131500000000000    0.3985400000000000 H
   0.1585850000000000    0.5025650000000000    0.5509900000000000 H
   0.4085850000000000    0.5025700000000000    0.5510200000000000 H
   0.0843000000000000    0.5827250000000000    0.5445000000000000 H
   0.3343050000000000    0.5827350000000000    0.5445000000000000 H
   0.2278150000000000    0.9601200000000000    0.4837100000000000 H
   0.4777950000000000    0.9600850000000001    0.4837000000000000 H
   0.0040550000000000    0.5124250000000000    0.4357100000000000 H
   0.2540700000000000    0.5124649999999999    0.4357000000000000 H
   0.6031500000000000    0.9857450000000000    0.8460000000000000 H
   0.8531650000000000    0.9857199999999999    0.8460800000000001 H
   0.6521749999999999    0.5273900000000000    0.7663500000000000 H
   0.9021850000000000    0.5273850000000000    0.7663400000000000 H
   0.5329600000000000    0.5987450000000000    0.6646000000000000 H
   0.7829750000000000    0.5986899999999999    0.6646500000000000 H
   0.7344650000000000    0.5568450000000000    0.7460000000000000 H
   0.9844400000000000    0.5569150000000000    0.7460100000000000 H
   0.6890200000000000    0.5219000000000000    0.6849200000000000 H
   0.9390400000000000    0.5218950000000000    0.6849000000000000 H
   0.7391799999999999    0.5712750000000000    0.6107399999999999 H
   0.9891900000000000    0.5712850000000000    0.6107399999999999 H
   0.6201550000000000    0.7178750000000000    0.5524200000000000 H
   0.8701500000000000    0.7178750000000000    0.5524300000000000 H
   0.5697950000000001    0.6688000000000001    0.6248800000000000 H
   0.8198000000000000    0.6687750000000000    0.6248700000000000 H
   0.6774650000000000    0.9372350000000000    0.8966200000000000 H
   0.9274150000000000    0.9372900000000000    0.8966000000000000 H
   0.6362900000000000    0.8627100000000000    0.8985700000000000 H
   0.8862400000000000    0.8627650000000000    0.8985600000000000 H
   0.7025700000000000    0.7524150000000001    0.0512000000000000 H
   0.9525749999999999    0.7524200000000000    0.0511900000000000 H
   0.7382750000000000    0.8326500000000000    0.0446700000000000 H
   0.9882700000000000    0.8326600000000000    0.0446300000000000 H
   0.6715750000000000    0.7096899999999999    0.9842300000000000 H
   0.9215650000000000    0.7097300000000000    0.9841000000000000 H
   0.6315100000000000    0.7618600000000000    0.9357300000000000 H
   0.8814600000000000    0.7619250000000000    0.9350000000000001 H
   0.5574450000000000    0.7653600000000000    0.6520100000000000 H
   0.8074350000000000    0.7653650000000001    0.6519800000000000 H
   0.6073450000000000    0.7237200000000000    0.7317100000000000 H
   0.8573299999999999    0.7237200000000000    0.7316900000000000 H
   0.7483500000000000    0.6523850000000000    0.8334400000000000 H
   0.9983550000000000    0.6524300000000001    0.8334900000000000 H
   0.6992900000000000    0.6941400000000000    0.7521099999999999 H
   0.9492900000000000    0.6941950000000000    0.7521800000000000 H
   0.6211900000000000    0.7290150000000000    0.8132100000000000 H
   0.8711500000000000    0.7290200000000000    0.8131800000000000 H
   0.6775300000000000    0.6794350000000000    0.8872900000000000 H
   0.9274750000000000    0.6794650000000000    0.8872800000000000 H
   0.6171550000000000    0.5329600000000000    0.9454700000000000 H
   0.8671249999999999    0.5329699999999999    0.9454600000000000 H
   0.5603200000000000    0.5822350000000001    0.8731400000000000 H
   0.8103100000000000    0.5822200000000000    0.8731100000000001 H
   0.6203100000000000    0.8130500000000001    0.6013100000000000 H
   0.8703300000000000    0.8131400000000000    0.6013900000000000 H
   0.5422400000000001    0.8874649999999999    0.5995100000000000 H
   0.7922750000000001    0.8875750000000000    0.5995700000000000 H
   0.5915850000000000    0.9982800000000001    0.4471800000000000 H
   0.8415850000000000    0.9982550000000000    0.4471300000000000 H
   0.6658550000000000    0.9181049999999999    0.4535500000000000 H
   0.9158450000000000    0.9180699999999999    0.4535200000000000 H
   0.5223800000000000    0.5406350000000000    0.5144700000000000 H
   0.7724050000000000    0.5406850000000000    0.5144400000000000 H
   0.7461450000000001    0.9883500000000001    0.5624000000000000 H
   0.9961300000000000    0.9882800000000000    0.5624800000000000 H
   0.6470450000000000    0.5151150000000000    0.1518200000000000 H
   0.8970400000000001    0.5151100000000000    0.1518300000000000 H
   0.5980350000000000    0.9734000000000000    0.2315400000000000 H
   0.8480350000000000    0.9733950000000000    0.2315500000000000 H
   0.7172250000000000    0.9021350000000000    0.3332500000000000 H
   0.9672250000000000    0.9021399999999999    0.3332600000000000 H
   0.5157450000000000    0.9439500000000001    0.2519100000000000 H
   0.7657499999999999    0.9439450000000000    0.2519000000000000 H
   0.5611600000000000    0.9788950000000001    0.3129800000000000 H
   0.8111600000000000    0.9788950000000001    0.3129900000000000 H
   0.5110050000000000    0.9295350000000000    0.3871700000000000 H
   0.7610049999999999    0.9295249999999999    0.3871700000000000 H
   0.6300350000000000    0.7829600000000000    0.4455200000000000 H
   0.8800300000000000    0.7829450000000000    0.4455200000000000 H
   0.6803950000000000    0.8320300000000000    0.3730700000000000 H
   0.9303950000000001    0.8320250000000000    0.3730700000000000 H
   0.5729550000000000    0.5631300000000000    0.1011000000000000 H
   0.8230299999999999    0.5630800000000000    0.1011000000000000 H
   0.6141400000000000    0.6375999999999999    0.0993100000000000 H
   0.8642099999999999    0.6375550000000000    0.0992800000000000 H