C8 N5
1.0
  21.9329999999999998    0.0000000000000000    0.0000000000000013
   0.0145558005484286   21.9469951196300528    0.0015321896424984
   0.0000000000000000    0.0000000000000000   15.9779999999999998
C N
8 5
direct
   0.9200900000000000    0.7730300000000000    0.2454700000000000 C
   0.9442600000000000    0.8146300000000000    0.1873900000000000 C
   0.9194000000000000    0.8319100000000000    0.1083100000000000 C
   0.9466800000000000    0.7657600000000000    0.3248400000000000 C
   0.8667300000000000    0.7382100000000000    0.2330300000000000 C
   0.0000000000000000    0.8427600000000000    0.2102400000000000 C
   0.9462200000000000    0.8808200000000000    0.0651300000000000 C
   0.8663300000000000    0.8065900000000000    0.0733500000000000 C
   0.9650800000000000    0.7597900000000000    0.3928800000000000 N
   0.8229500000000000    0.7079900000000000    0.2278100000000000 N
   0.0478500000000000    0.8634900000000000    0.2281500000000000 N
   0.9693700000000000    0.9225900000000000    0.0327200000000000 N
   0.8228300000000000    0.7864000000000000    0.0413000000000000 N
