Co128 H576 C512 N320 O128
1.0
12.217702 26.205888 12.842540
16.696309 -26.205888 5.952739
0.000000 0.000000 -31.637800
Co H C N O
128 576 512 320 128
direct
0.003425 0.488600 0.454415 Co
0.003425 0.488600 0.454415 Co
0.003425 0.488600 0.954415 Co
0.003425 0.488600 0.954415 Co
0.003425 0.988600 0.454415 Co
0.003425 0.988600 0.454415 Co
0.003425 0.988600 0.954415 Co
0.003425 0.988600 0.954415 Co
0.503425 0.488600 0.454415 Co
0.503425 0.488600 0.454415 Co
0.503425 0.488600 0.954415 Co
0.503425 0.488600 0.954415 Co
0.503425 0.988600 0.454415 Co
0.503425 0.988600 0.454415 Co
0.503425 0.988600 0.954415 Co
0.503425 0.988600 0.954415 Co
0.215815 0.204415 0.200990 Co
0.215815 0.204415 0.200990 Co
0.284185 0.295585 0.299010 Co
0.215815 0.204415 0.700990 Co
0.215815 0.204415 0.700990 Co
0.284185 0.295585 0.799010 Co
0.215815 0.704415 0.200990 Co
0.215815 0.704415 0.200990 Co
0.284185 0.795585 0.299010 Co
0.215815 0.704415 0.700990 Co
0.215815 0.704415 0.700990 Co
0.284185 0.795585 0.799010 Co
0.715815 0.204415 0.200990 Co
0.715815 0.204415 0.200990 Co
0.784185 0.295585 0.299010 Co
0.715815 0.204415 0.700990 Co
0.715815 0.204415 0.700990 Co
0.784185 0.295585 0.799010 Co
0.715815 0.704415 0.200990 Co
0.715815 0.704415 0.200990 Co
0.784185 0.795585 0.299010 Co
0.715815 0.704415 0.700990 Co
0.715815 0.704415 0.700990 Co
0.784185 0.795585 0.799010 Co
0.034185 0.485175 0.238600 Co
0.034185 0.485175 0.238600 Co
0.034185 0.485175 0.738600 Co
0.034185 0.485175 0.738600 Co
0.034185 0.985175 0.238600 Co
0.034185 0.985175 0.238600 Co
0.034185 0.985175 0.738600 Co
0.034185 0.985175 0.738600 Co
0.534185 0.485175 0.238600 Co
0.534185 0.485175 0.238600 Co
0.534185 0.485175 0.738600 Co
0.534185 0.485175 0.738600 Co
0.534185 0.985175 0.238600 Co
0.534185 0.985175 0.238600 Co
0.534185 0.985175 0.738600 Co
0.534185 0.985175 0.738600 Co
0.253425 0.049010 0.264825 Co
0.253425 0.049010 0.264825 Co
0.253425 0.049010 0.764825 Co
0.253425 0.049010 0.764825 Co
0.253425 0.549010 0.264825 Co
0.253425 0.549010 0.264825 Co
0.253425 0.549010 0.764825 Co
0.253425 0.549010 0.764825 Co
0.753425 0.049010 0.264825 Co
0.753425 0.049010 0.264825 Co
0.753425 0.049010 0.764825 Co
0.753425 0.049010 0.764825 Co
0.753425 0.549010 0.264825 Co
0.753425 0.549010 0.264825 Co
0.753425 0.549010 0.764825 Co
0.753425 0.549010 0.764825 Co
0.496575 0.011400 0.045585 Co
0.496575 0.011400 0.045585 Co
0.496575 0.011400 0.545585 Co
0.496575 0.011400 0.545585 Co
0.496575 0.511400 0.045585 Co
0.496575 0.511400 0.045585 Co
0.496575 0.511400 0.545585 Co
0.496575 0.511400 0.545585 Co
0.996575 0.011400 0.045585 Co
0.996575 0.011400 0.045585 Co
0.996575 0.011400 0.545585 Co
0.996575 0.011400 0.545585 Co
0.996575 0.511400 0.045585 Co
0.996575 0.511400 0.045585 Co
0.996575 0.511400 0.545585 Co
0.996575 0.511400 0.545585 Co
0.284185 0.295585 0.299010 Co
0.284185 0.295585 0.799010 Co
0.284185 0.795585 0.299010 Co
0.284185 0.795585 0.799010 Co
0.784185 0.295585 0.299010 Co
0.784185 0.295585 0.799010 Co
0.784185 0.795585 0.299010 Co
0.784185 0.795585 0.799010 Co
0.465815 0.014825 0.261400 Co
0.465815 0.014825 0.261400 Co
0.465815 0.014825 0.761400 Co
0.465815 0.014825 0.761400 Co
0.465815 0.514825 0.261400 Co
0.465815 0.514825 0.261400 Co
0.465815 0.514825 0.761400 Co
0.465815 0.514825 0.761400 Co
0.965815 0.014825 0.261400 Co
0.965815 0.014825 0.261400 Co
0.965815 0.014825 0.761400 Co
0.965815 0.014825 0.761400 Co
0.965815 0.514825 0.261400 Co
0.965815 0.514825 0.261400 Co
0.965815 0.514825 0.761400 Co
0.965815 0.514825 0.761400 Co
0.246575 0.450990 0.235175 Co
0.246575 0.450990 0.235175 Co
0.246575 0.450990 0.735175 Co
0.246575 0.450990 0.735175 Co
0.246575 0.950990 0.235175 Co
0.246575 0.950990 0.235175 Co
0.246575 0.950990 0.735175 Co
0.246575 0.950990 0.735175 Co
0.746575 0.450990 0.235175 Co
0.746575 0.450990 0.235175 Co
0.746575 0.450990 0.735175 Co
0.746575 0.450990 0.735175 Co
0.746575 0.950990 0.235175 Co
0.746575 0.950990 0.235175 Co
0.746575 0.950990 0.735175 Co
0.746575 0.950990 0.735175 Co
0.292600 0.399700 0.294000 H
0.146100 0.334650 0.071850 H
0.182400 0.379550 0.122250 H
0.150950 0.206550 0.097000 H
0.292600 0.399700 0.794000 H
0.146100 0.334650 0.571850 H
0.182400 0.379550 0.622250 H
0.150950 0.206550 0.597000 H
0.292600 0.899700 0.294000 H
0.146100 0.834650 0.071850 H
0.182400 0.879550 0.122250 H
0.150950 0.706550 0.097000 H
0.292600 0.899700 0.794000 H
0.146100 0.834650 0.571850 H
0.182400 0.879550 0.622250 H
0.150950 0.706550 0.597000 H
0.792600 0.399700 0.294000 H
0.646100 0.334650 0.071850 H
0.682400 0.379550 0.122250 H
0.650950 0.206550 0.097000 H
0.792600 0.399700 0.794000 H
0.646100 0.334650 0.571850 H
0.682400 0.379550 0.622250 H
0.650950 0.206550 0.597000 H
0.792600 0.899700 0.294000 H
0.646100 0.834650 0.071850 H
0.682400 0.879550 0.122250 H
0.650950 0.706550 0.097000 H
0.792600 0.899700 0.794000 H
0.646100 0.834650 0.571850 H
0.682400 0.879550 0.622250 H
0.650950 0.706550 0.597000 H
0.262250 0.001600 0.396350 H
0.322450 0.045450 0.418700 H
0.322600 0.480850 0.442750 H
0.346650 0.485600 0.408050 H
0.286250 0.441550 0.385400 H
0.262250 0.001600 0.896350 H
0.322450 0.045450 0.918700 H
0.322600 0.480850 0.942750 H
0.346650 0.485600 0.908050 H
0.286250 0.441550 0.885400 H
0.262250 0.501600 0.396350 H
0.322450 0.545450 0.418700 H
0.322600 0.980850 0.442750 H
0.346650 0.985600 0.408050 H
0.286250 0.941550 0.385400 H
0.262250 0.501600 0.896350 H
0.322450 0.545450 0.918700 H
0.322600 0.980850 0.942750 H
0.346650 0.985600 0.908050 H
0.286250 0.941550 0.885400 H
0.762250 0.001600 0.396350 H
0.822450 0.045450 0.418700 H
0.822600 0.480850 0.442750 H
0.846650 0.485600 0.408050 H
0.786250 0.441550 0.385400 H
0.762250 0.001600 0.896350 H
0.822450 0.045450 0.918700 H
0.822600 0.480850 0.942750 H
0.846650 0.485600 0.908050 H
0.786250 0.441550 0.885400 H
0.762250 0.501600 0.396350 H
0.822450 0.545450 0.418700 H
0.822600 0.980850 0.442750 H
0.846650 0.985600 0.408050 H
0.786250 0.941550 0.385400 H
0.762250 0.501600 0.896350 H
0.822450 0.545450 0.918700 H
0.822600 0.980850 0.942750 H
0.846650 0.985600 0.908050 H
0.786250 0.941550 0.885400 H
0.457400 0.001400 0.357100 H
0.103900 0.425750 0.438550 H
0.067600 0.439850 0.447150 H
0.099050 0.446050 0.305600 H
0.457400 0.001400 0.857100 H
0.103900 0.425750 0.938550 H
0.067600 0.439850 0.947150 H
0.099050 0.446050 0.805600 H
0.457400 0.501400 0.357100 H
0.103900 0.925750 0.438550 H
0.067600 0.939850 0.447150 H
0.099050 0.946050 0.305600 H
0.457400 0.501400 0.857100 H
0.103900 0.925750 0.938550 H
0.067600 0.939850 0.947150 H
0.099050 0.946050 0.805600 H
0.957400 0.001400 0.357100 H
0.603900 0.425750 0.438550 H
0.567600 0.439850 0.447150 H
0.599050 0.446050 0.305600 H
0.957400 0.001400 0.857100 H
0.603900 0.425750 0.938550 H
0.567600 0.439850 0.947150 H
0.599050 0.446050 0.805600 H
0.957400 0.501400 0.357100 H
0.603900 0.925750 0.438550 H
0.567600 0.939850 0.447150 H
0.599050 0.946050 0.305600 H
0.957400 0.501400 0.857100 H
0.603900 0.925750 0.938550 H
0.567600 0.939850 0.947150 H
0.599050 0.946050 0.805600 H
0.487750 0.134100 0.489350 H
0.427550 0.096250 0.473000 H
0.427400 0.120150 0.408250 H
0.403350 0.061400 0.388950 H
0.463750 0.099150 0.405300 H
0.487750 0.134100 0.989350 H
0.427550 0.096250 0.973000 H
0.427400 0.120150 0.908250 H
0.403350 0.061400 0.888950 H
0.463750 0.099150 0.905300 H
0.487750 0.634100 0.489350 H
0.427550 0.596250 0.473000 H
0.427400 0.620150 0.408250 H
0.403350 0.561400 0.388950 H
0.463750 0.599150 0.405300 H
0.487750 0.634100 0.989350 H
0.427550 0.596250 0.973000 H
0.427400 0.620150 0.908250 H
0.403350 0.561400 0.888950 H
0.463750 0.599150 0.905300 H
0.987750 0.134100 0.489350 H
0.927550 0.096250 0.473000 H
0.927400 0.120150 0.408250 H
0.903350 0.061400 0.388950 H
0.963750 0.099150 0.405300 H
0.987750 0.134100 0.989350 H
0.927550 0.096250 0.973000 H
0.927400 0.120150 0.908250 H
0.903350 0.061400 0.888950 H
0.963750 0.099150 0.905300 H
0.987750 0.634100 0.489350 H
0.927550 0.596250 0.473000 H
0.927400 0.620150 0.408250 H
0.903350 0.561400 0.388950 H
0.963750 0.599150 0.405300 H
0.987750 0.634100 0.989350 H
0.927550 0.596250 0.973000 H
0.927400 0.620150 0.908250 H
0.903350 0.561400 0.888950 H
0.963750 0.599150 0.905300 H
0.105700 0.107100 0.149700 H
0.262800 0.188550 0.084650 H
0.257300 0.197150 0.129550 H
0.109550 0.055600 0.456550 H
0.105700 0.107100 0.649700 H
0.262800 0.188550 0.584650 H
0.257300 0.197150 0.629550 H
0.109550 0.055600 0.956550 H
0.105700 0.607100 0.149700 H
0.262800 0.688550 0.084650 H
0.257300 0.697150 0.129550 H
0.109550 0.555600 0.456550 H
0.105700 0.607100 0.649700 H
0.262800 0.688550 0.584650 H
0.257300 0.697150 0.629550 H
0.109550 0.555600 0.956550 H
0.605700 0.107100 0.149700 H
0.762800 0.188550 0.084650 H
0.757300 0.197150 0.129550 H
0.609550 0.055600 0.456550 H
0.605700 0.107100 0.649700 H
0.762800 0.188550 0.584650 H
0.757300 0.197150 0.629550 H
0.609550 0.055600 0.956550 H
0.605700 0.607100 0.149700 H
0.762800 0.688550 0.084650 H
0.757300 0.697150 0.129550 H
0.609550 0.555600 0.456550 H
0.605700 0.607100 0.649700 H
0.762800 0.688550 0.584650 H
0.757300 0.697150 0.629550 H
0.609550 0.555600 0.956550 H
0.105250 0.239350 0.251600 H
0.126750 0.223000 0.295450 H
0.038100 0.158250 0.230850 H
0.077550 0.138950 0.235600 H
0.056150 0.155300 0.191550 H
0.105250 0.239350 0.751600 H
0.126750 0.223000 0.795450 H
0.038100 0.158250 0.730850 H
0.077550 0.138950 0.735600 H
0.056150 0.155300 0.691550 H
0.105250 0.739350 0.251600 H
0.126750 0.723000 0.295450 H
0.038100 0.658250 0.230850 H
0.077550 0.638950 0.235600 H
0.056150 0.655300 0.191550 H
0.105250 0.739350 0.751600 H
0.126750 0.723000 0.795450 H
0.038100 0.658250 0.730850 H
0.077550 0.638950 0.735600 H
0.056150 0.655300 0.691550 H
0.605250 0.239350 0.251600 H
0.626750 0.223000 0.295450 H
0.538100 0.158250 0.230850 H
0.577550 0.138950 0.235600 H
0.556150 0.155300 0.191550 H
0.605250 0.239350 0.751600 H
0.626750 0.223000 0.795450 H
0.538100 0.158250 0.730850 H
0.577550 0.138950 0.735600 H
0.556150 0.155300 0.691550 H
0.605250 0.739350 0.251600 H
0.626750 0.723000 0.295450 H
0.538100 0.658250 0.230850 H
0.577550 0.638950 0.235600 H
0.556150 0.655300 0.191550 H
0.605250 0.739350 0.751600 H
0.626750 0.723000 0.795450 H
0.538100 0.658250 0.730850 H
0.577550 0.638950 0.735600 H
0.556150 0.655300 0.691550 H
0.144300 0.044000 0.251400 H
0.487200 0.321850 0.175750 H
0.492700 0.372250 0.189850 H
0.140450 0.347000 0.196050 H
0.144300 0.044000 0.751400 H
0.487200 0.321850 0.675750 H
0.492700 0.372250 0.689850 H
0.140450 0.347000 0.696050 H
0.144300 0.544000 0.251400 H
0.487200 0.821850 0.175750 H
0.492700 0.872250 0.189850 H
0.140450 0.847000 0.196050 H
0.144300 0.544000 0.751400 H
0.487200 0.821850 0.675750 H
0.492700 0.872250 0.689850 H
0.140450 0.847000 0.696050 H
0.644300 0.044000 0.251400 H
0.987200 0.321850 0.175750 H
0.992700 0.372250 0.189850 H
0.640450 0.347000 0.196050 H
0.644300 0.044000 0.751400 H
0.987200 0.321850 0.675750 H
0.992700 0.372250 0.689850 H
0.640450 0.347000 0.696050 H
0.644300 0.544000 0.251400 H
0.987200 0.821850 0.175750 H
0.992700 0.872250 0.189850 H
0.640450 0.847000 0.196050 H
0.644300 0.544000 0.751400 H
0.987200 0.821850 0.675750 H
0.992700 0.872250 0.689850 H
0.640450 0.847000 0.696050 H
0.144750 0.146350 0.384100 H
0.123250 0.168700 0.346250 H
0.211900 0.192750 0.370150 H
0.172450 0.158050 0.311400 H
0.193850 0.135400 0.349150 H
0.144750 0.146350 0.884100 H
0.123250 0.168700 0.846250 H
0.211900 0.192750 0.870150 H
0.172450 0.158050 0.811400 H
0.193850 0.135400 0.849150 H
0.144750 0.646350 0.384100 H
0.123250 0.668700 0.346250 H
0.211900 0.692750 0.370150 H
0.172450 0.658050 0.311400 H
0.193850 0.635400 0.349150 H
0.144750 0.646350 0.884100 H
0.123250 0.668700 0.846250 H
0.211900 0.692750 0.870150 H
0.172450 0.658050 0.811400 H
0.193850 0.635400 0.849150 H
0.644750 0.146350 0.384100 H
0.623250 0.168700 0.346250 H
0.711900 0.192750 0.370150 H
0.672450 0.158050 0.311400 H
0.693850 0.135400 0.349150 H
0.644750 0.146350 0.884100 H
0.623250 0.168700 0.846250 H
0.711900 0.192750 0.870150 H
0.672450 0.158050 0.811400 H
0.693850 0.135400 0.849150 H
0.644750 0.646350 0.384100 H
0.623250 0.668700 0.346250 H
0.711900 0.692750 0.370150 H
0.672450 0.658050 0.311400 H
0.693850 0.635400 0.349150 H
0.644750 0.646350 0.884100 H
0.623250 0.668700 0.846250 H
0.711900 0.692750 0.870150 H
0.672450 0.658050 0.811400 H
0.693850 0.635400 0.849150 H
0.207400 0.100300 0.206000 H
0.353900 0.165350 0.428150 H
0.317600 0.120450 0.377750 H
0.349050 0.293450 0.403000 H
0.207400 0.100300 0.706000 H
0.353900 0.165350 0.928150 H
0.317600 0.120450 0.877750 H
0.349050 0.293450 0.903000 H
0.207400 0.600300 0.206000 H
0.353900 0.665350 0.428150 H
0.317600 0.620450 0.377750 H
0.349050 0.793450 0.403000 H
0.207400 0.600300 0.706000 H
0.353900 0.665350 0.928150 H
0.317600 0.620450 0.877750 H
0.349050 0.793450 0.903000 H
0.707400 0.100300 0.206000 H
0.853900 0.165350 0.428150 H
0.817600 0.120450 0.377750 H
0.849050 0.293450 0.403000 H
0.707400 0.100300 0.706000 H
0.853900 0.165350 0.928150 H
0.817600 0.120450 0.877750 H
0.849050 0.293450 0.903000 H
0.707400 0.600300 0.206000 H
0.853900 0.665350 0.428150 H
0.817600 0.620450 0.377750 H
0.849050 0.793450 0.403000 H
0.707400 0.600300 0.706000 H
0.853900 0.665350 0.928150 H
0.817600 0.620450 0.877750 H
0.849050 0.793450 0.903000 H
0.237750 0.498400 0.103650 H
0.177550 0.454550 0.081300 H
0.177400 0.019150 0.057250 H
0.153350 0.014400 0.091950 H
0.213750 0.058450 0.114600 H
0.237750 0.498400 0.603650 H
0.177550 0.454550 0.581300 H
0.177400 0.019150 0.557250 H
0.153350 0.014400 0.591950 H
0.213750 0.058450 0.614600 H
0.237750 0.998400 0.103650 H
0.177550 0.954550 0.081300 H
0.177400 0.519150 0.057250 H
0.153350 0.514400 0.091950 H
0.213750 0.558450 0.114600 H
0.237750 0.998400 0.603650 H
0.177550 0.954550 0.581300 H
0.177400 0.519150 0.557250 H
0.153350 0.514400 0.591950 H
0.213750 0.558450 0.614600 H
0.737750 0.498400 0.103650 H
0.677550 0.454550 0.081300 H
0.677400 0.019150 0.057250 H
0.653350 0.014400 0.091950 H
0.713750 0.058450 0.114600 H
0.737750 0.498400 0.603650 H
0.677550 0.454550 0.581300 H
0.677400 0.019150 0.557250 H
0.653350 0.014400 0.591950 H
0.713750 0.058450 0.614600 H
0.737750 0.998400 0.103650 H
0.677550 0.954550 0.081300 H
0.677400 0.519150 0.057250 H
0.653350 0.514400 0.091950 H
0.713750 0.558450 0.114600 H
0.737750 0.998400 0.603650 H
0.677550 0.954550 0.581300 H
0.677400 0.519150 0.557250 H
0.653350 0.514400 0.591950 H
0.713750 0.558450 0.614600 H
0.042600 0.498600 0.142900 H
0.396100 0.074250 0.061450 H
0.432400 0.060150 0.052850 H
0.400950 0.053950 0.194400 H
0.042600 0.498600 0.642900 H
0.396100 0.074250 0.561450 H
0.432400 0.060150 0.552850 H
0.400950 0.053950 0.694400 H
0.042600 0.998600 0.142900 H
0.396100 0.574250 0.061450 H
0.432400 0.560150 0.052850 H
0.400950 0.553950 0.194400 H
0.042600 0.998600 0.642900 H
0.396100 0.574250 0.561450 H
0.432400 0.560150 0.552850 H
0.400950 0.553950 0.694400 H
0.542600 0.498600 0.142900 H
0.896100 0.074250 0.061450 H
0.932400 0.060150 0.052850 H
0.900950 0.053950 0.194400 H
0.542600 0.498600 0.642900 H
0.896100 0.074250 0.561450 H
0.932400 0.060150 0.552850 H
0.900950 0.053950 0.694400 H
0.542600 0.998600 0.142900 H
0.896100 0.574250 0.061450 H
0.932400 0.560150 0.052850 H
0.900950 0.553950 0.194400 H
0.542600 0.998600 0.642900 H
0.896100 0.574250 0.561450 H
0.932400 0.560150 0.552850 H
0.900950 0.553950 0.694400 H
0.012250 0.365900 0.010650 H
0.072450 0.403750 0.027000 H
0.072600 0.379850 0.091750 H
0.096650 0.438600 0.111050 H
0.036250 0.400850 0.094700 H
0.012250 0.365900 0.510650 H
0.072450 0.403750 0.527000 H
0.072600 0.379850 0.591750 H
0.096650 0.438600 0.611050 H
0.036250 0.400850 0.594700 H
0.012250 0.865900 0.010650 H
0.072450 0.903750 0.027000 H
0.072600 0.879850 0.091750 H
0.096650 0.938600 0.111050 H
0.036250 0.900850 0.094700 H
0.012250 0.865900 0.510650 H
0.072450 0.903750 0.527000 H
0.072600 0.879850 0.591750 H
0.096650 0.938600 0.611050 H
0.036250 0.900850 0.594700 H
0.512250 0.365900 0.010650 H
0.572450 0.403750 0.027000 H
0.572600 0.379850 0.091750 H
0.596650 0.438600 0.111050 H
0.536250 0.400850 0.094700 H
0.512250 0.365900 0.510650 H
0.572450 0.403750 0.527000 H
0.572600 0.379850 0.591750 H
0.596650 0.438600 0.611050 H
0.536250 0.400850 0.594700 H
0.512250 0.865900 0.010650 H
0.572450 0.903750 0.027000 H
0.572600 0.879850 0.091750 H
0.596650 0.938600 0.111050 H
0.536250 0.900850 0.094700 H
0.512250 0.865900 0.510650 H
0.572450 0.903750 0.527000 H
0.572600 0.879850 0.591750 H
0.596650 0.938600 0.611050 H
0.536250 0.900850 0.594700 H
0.394300 0.392900 0.350300 H
0.237200 0.311450 0.415350 H
0.242700 0.302850 0.370450 H
0.390450 0.444400 0.043450 H
0.394300 0.392900 0.850300 H
0.237200 0.311450 0.915350 H
0.242700 0.302850 0.870450 H
0.390450 0.444400 0.543450 H
0.394300 0.892900 0.350300 H
0.237200 0.811450 0.415350 H
0.242700 0.802850 0.370450 H
0.390450 0.944400 0.043450 H
0.394300 0.892900 0.850300 H
0.237200 0.811450 0.915350 H
0.242700 0.802850 0.870450 H
0.390450 0.944400 0.543450 H
0.894300 0.392900 0.350300 H
0.737200 0.311450 0.415350 H
0.742700 0.302850 0.370450 H
0.890450 0.444400 0.043450 H
0.894300 0.392900 0.850300 H
0.737200 0.311450 0.915350 H
0.742700 0.302850 0.870450 H
0.890450 0.444400 0.543450 H
0.894300 0.892900 0.350300 H
0.737200 0.811450 0.415350 H
0.742700 0.802850 0.370450 H
0.890450 0.944400 0.043450 H
0.894300 0.892900 0.850300 H
0.737200 0.811450 0.915350 H
0.742700 0.802850 0.870450 H
0.890450 0.944400 0.543450 H
0.394750 0.260650 0.248400 H
0.373250 0.277000 0.204550 H
0.461900 0.341750 0.269150 H
0.422450 0.361050 0.264400 H
0.443850 0.344700 0.308450 H
0.394750 0.260650 0.748400 H
0.373250 0.277000 0.704550 H
0.461900 0.341750 0.769150 H
0.422450 0.361050 0.764400 H
0.443850 0.344700 0.808450 H
0.394750 0.760650 0.248400 H
0.373250 0.777000 0.204550 H
0.461900 0.841750 0.269150 H
0.422450 0.861050 0.264400 H
0.443850 0.844700 0.308450 H
0.394750 0.760650 0.748400 H
0.373250 0.777000 0.704550 H
0.461900 0.841750 0.769150 H
0.422450 0.861050 0.764400 H
0.443850 0.844700 0.808450 H
0.894750 0.260650 0.248400 H
0.873250 0.277000 0.204550 H
0.961900 0.341750 0.269150 H
0.922450 0.361050 0.264400 H
0.943850 0.344700 0.308450 H
0.894750 0.260650 0.748400 H
0.873250 0.277000 0.704550 H
0.961900 0.341750 0.769150 H
0.922450 0.361050 0.764400 H
0.943850 0.344700 0.808450 H
0.894750 0.760650 0.248400 H
0.873250 0.777000 0.204550 H
0.961900 0.841750 0.269150 H
0.922450 0.861050 0.264400 H
0.943850 0.844700 0.308450 H
0.894750 0.760650 0.748400 H
0.873250 0.777000 0.704550 H
0.961900 0.841750 0.769150 H
0.922450 0.861050 0.764400 H
0.943850 0.844700 0.808450 H
0.355700 0.456000 0.248600 H
0.012800 0.178150 0.324250 H
0.007300 0.127750 0.310150 H
0.359550 0.153000 0.303950 H
0.355700 0.456000 0.748600 H
0.012800 0.178150 0.824250 H
0.007300 0.127750 0.810150 H
0.359550 0.153000 0.803950 H
0.355700 0.956000 0.248600 H
0.012800 0.678150 0.324250 H
0.007300 0.627750 0.310150 H
0.359550 0.653000 0.303950 H
0.355700 0.956000 0.748600 H
0.012800 0.678150 0.824250 H
0.007300 0.627750 0.810150 H
0.359550 0.653000 0.803950 H
0.855700 0.456000 0.248600 H
0.512800 0.178150 0.324250 H
0.507300 0.127750 0.310150 H
0.859550 0.153000 0.303950 H
0.855700 0.456000 0.748600 H
0.512800 0.178150 0.824250 H
0.507300 0.127750 0.810150 H
0.859550 0.153000 0.803950 H
0.855700 0.956000 0.248600 H
0.512800 0.678150 0.324250 H
0.507300 0.627750 0.310150 H
0.859550 0.653000 0.303950 H
0.855700 0.956000 0.748600 H
0.512800 0.678150 0.824250 H
0.507300 0.627750 0.810150 H
0.859550 0.653000 0.803950 H
0.355250 0.353650 0.115900 H
0.376750 0.331300 0.153750 H
0.288100 0.307250 0.129850 H
0.327550 0.341950 0.188600 H
0.306150 0.364600 0.150850 H
0.355250 0.353650 0.615900 H
0.376750 0.331300 0.653750 H
0.288100 0.307250 0.629850 H
0.327550 0.341950 0.688600 H
0.306150 0.364600 0.650850 H
0.355250 0.853650 0.115900 H
0.376750 0.831300 0.153750 H
0.288100 0.807250 0.129850 H
0.327550 0.841950 0.188600 H
0.306150 0.864600 0.150850 H
0.355250 0.853650 0.615900 H
0.376750 0.831300 0.653750 H
0.288100 0.807250 0.629850 H
0.327550 0.841950 0.688600 H
0.306150 0.864600 0.650850 H
0.855250 0.353650 0.115900 H
0.876750 0.331300 0.153750 H
0.788100 0.307250 0.129850 H
0.827550 0.341950 0.188600 H
0.806150 0.364600 0.150850 H
0.855250 0.353650 0.615900 H
0.876750 0.331300 0.653750 H
0.788100 0.307250 0.629850 H
0.827550 0.341950 0.688600 H
0.806150 0.364600 0.650850 H
0.855250 0.853650 0.115900 H
0.876750 0.831300 0.153750 H
0.788100 0.807250 0.129850 H
0.827550 0.841950 0.188600 H
0.806150 0.864600 0.150850 H
0.855250 0.853650 0.615900 H
0.876750 0.831300 0.653750 H
0.788100 0.807250 0.629850 H
0.827550 0.841950 0.688600 H
0.806150 0.864600 0.650850 H
0.269725 0.374705 0.260590 C
0.215875 0.337240 0.179865 C
0.224820 0.303050 0.197620 C
0.180430 0.319300 0.127130 C
0.168560 0.240455 0.119025 C
0.269725 0.374705 0.760590 C
0.215875 0.337240 0.679865 C
0.224820 0.303050 0.697620 C
0.180430 0.319300 0.627130 C
0.168560 0.240455 0.619025 C
0.269725 0.874705 0.260590 C
0.215875 0.837240 0.179865 C
0.224820 0.803050 0.197620 C
0.180430 0.819300 0.127130 C
0.168560 0.740455 0.119025 C
0.269725 0.874705 0.760590 C
0.215875 0.837240 0.679865 C
0.224820 0.803050 0.697620 C
0.180430 0.819300 0.627130 C
0.168560 0.740455 0.619025 C
0.769725 0.374705 0.260590 C
0.715875 0.337240 0.179865 C
0.724820 0.303050 0.197620 C
0.680430 0.319300 0.127130 C
0.668560 0.240455 0.119025 C
0.769725 0.374705 0.760590 C
0.715875 0.337240 0.679865 C
0.724820 0.303050 0.697620 C
0.680430 0.319300 0.627130 C
0.668560 0.240455 0.619025 C
0.769725 0.874705 0.260590 C
0.715875 0.837240 0.179865 C
0.724820 0.803050 0.197620 C
0.680430 0.819300 0.127130 C
0.668560 0.740455 0.119025 C
0.769725 0.874705 0.760590 C
0.715875 0.837240 0.679865 C
0.724820 0.803050 0.697620 C
0.680430 0.819300 0.627130 C
0.668560 0.740455 0.619025 C
0.294145 0.010390 0.394035 C
0.279240 0.007555 0.341755 C
0.314200 0.476500 0.408900 C
0.294145 0.010390 0.894035 C
0.279240 0.007555 0.841755 C
0.314200 0.476500 0.908900 C
0.294145 0.510390 0.394035 C
0.279240 0.507555 0.341755 C
0.314200 0.976500 0.408900 C
0.294145 0.510390 0.894035 C
0.279240 0.507555 0.841755 C
0.314200 0.976500 0.908900 C
0.794145 0.010390 0.394035 C
0.779240 0.007555 0.341755 C
0.814200 0.476500 0.408900 C
0.794145 0.010390 0.894035 C
0.779240 0.007555 0.841755 C
0.814200 0.476500 0.908900 C
0.794145 0.510390 0.394035 C
0.779240 0.507555 0.341755 C
0.814200 0.976500 0.408900 C
0.794145 0.510390 0.894035 C
0.779240 0.507555 0.841755 C
0.814200 0.976500 0.908900 C
0.480275 0.490865 0.354980 C
0.034125 0.463990 0.371365 C
0.025180 0.472800 0.328230 C
0.069570 0.446700 0.388870 C
0.081440 0.450465 0.321895 C
0.480275 0.490865 0.854980 C
0.034125 0.463990 0.871365 C
0.025180 0.472800 0.828230 C
0.069570 0.446700 0.888870 C
0.081440 0.450465 0.821895 C
0.480275 0.990865 0.354980 C
0.034125 0.963990 0.371365 C
0.025180 0.972800 0.328230 C
0.069570 0.946700 0.388870 C
0.081440 0.950465 0.321895 C
0.480275 0.990865 0.854980 C
0.034125 0.963990 0.871365 C
0.025180 0.972800 0.828230 C
0.069570 0.946700 0.888870 C
0.081440 0.950465 0.821895 C
0.980275 0.490865 0.354980 C
0.534125 0.463990 0.371365 C
0.525180 0.472800 0.328230 C
0.569570 0.446700 0.388870 C
0.581440 0.450465 0.321895 C
0.980275 0.490865 0.854980 C
0.534125 0.463990 0.871365 C
0.525180 0.472800 0.828230 C
0.569570 0.446700 0.888870 C
0.581440 0.450465 0.821895 C
0.980275 0.990865 0.354980 C
0.534125 0.963990 0.371365 C
0.525180 0.972800 0.328230 C
0.569570 0.946700 0.388870 C
0.581440 0.950465 0.321895 C
0.980275 0.990865 0.854980 C
0.534125 0.963990 0.871365 C
0.525180 0.972800 0.828230 C
0.569570 0.946700 0.888870 C
0.581440 0.950465 0.821895 C
0.455855 0.099890 0.466245 C
0.470760 0.062515 0.478315 C
0.435800 0.094700 0.412300 C
0.455855 0.099890 0.966245 C
0.470760 0.062515 0.978315 C
0.435800 0.094700 0.912300 C
0.455855 0.599890 0.466245 C
0.470760 0.562515 0.478315 C
0.435800 0.594700 0.412300 C
0.455855 0.599890 0.966245 C
0.470760 0.562515 0.978315 C
0.435800 0.594700 0.912300 C
0.955855 0.099890 0.466245 C
0.970760 0.062515 0.478315 C
0.935800 0.094700 0.412300 C
0.955855 0.099890 0.966245 C
0.970760 0.062515 0.978315 C
0.935800 0.094700 0.912300 C
0.955855 0.599890 0.466245 C
0.970760 0.562515 0.478315 C
0.935800 0.594700 0.412300 C
0.955855 0.599890 0.966245 C
0.970760 0.562515 0.978315 C
0.935800 0.594700 0.912300 C
0.114115 0.104980 0.124705 C
0.157375 0.121365 0.087240 C
0.105430 0.078230 0.053050 C
0.192170 0.138870 0.069300 C
0.121430 0.071895 0.490455 C
0.114115 0.104980 0.624705 C
0.157375 0.121365 0.587240 C
0.105430 0.078230 0.553050 C
0.192170 0.138870 0.569300 C
0.121430 0.071895 0.990455 C
0.114115 0.604980 0.124705 C
0.157375 0.621365 0.087240 C
0.105430 0.578230 0.053050 C
0.192170 0.638870 0.069300 C
0.121430 0.571895 0.490455 C
0.114115 0.604980 0.624705 C
0.157375 0.621365 0.587240 C
0.105430 0.578230 0.553050 C
0.192170 0.638870 0.569300 C
0.121430 0.571895 0.990455 C
0.614115 0.104980 0.124705 C
0.657375 0.121365 0.087240 C
0.605430 0.078230 0.053050 C
0.692170 0.138870 0.069300 C
0.621430 0.071895 0.490455 C
0.614115 0.104980 0.624705 C
0.657375 0.121365 0.587240 C
0.605430 0.078230 0.553050 C
0.692170 0.138870 0.569300 C
0.621430 0.071895 0.990455 C
0.614115 0.604980 0.124705 C
0.657375 0.621365 0.087240 C
0.605430 0.578230 0.053050 C
0.692170 0.638870 0.069300 C
0.621430 0.571895 0.490455 C
0.614115 0.604980 0.624705 C
0.657375 0.621365 0.587240 C
0.605430 0.578230 0.553050 C
0.692170 0.638870 0.569300 C
0.621430 0.571895 0.990455 C
0.116355 0.216245 0.260390 C
0.165800 0.228315 0.257555 C
0.067600 0.162300 0.226500 C
0.116355 0.216245 0.760390 C
0.165800 0.228315 0.757555 C
0.067600 0.162300 0.726500 C
0.116355 0.716245 0.260390 C
0.165800 0.728315 0.257555 C
0.067600 0.662300 0.226500 C
0.116355 0.716245 0.760390 C
0.165800 0.728315 0.757555 C
0.067600 0.662300 0.726500 C
0.616355 0.216245 0.260390 C
0.665800 0.228315 0.257555 C
0.567600 0.162300 0.226500 C
0.616355 0.216245 0.760390 C
0.665800 0.228315 0.757555 C
0.567600 0.162300 0.726500 C
0.616355 0.716245 0.260390 C
0.665800 0.728315 0.257555 C
0.567600 0.662300 0.226500 C
0.616355 0.716245 0.760390 C
0.665800 0.728315 0.757555 C
0.567600 0.662300 0.726500 C
0.135885 0.010590 0.240865 C
0.092625 0.429865 0.213990 C
0.144570 0.447620 0.222800 C
0.057830 0.377130 0.196700 C
0.128570 0.369025 0.200465 C
0.135885 0.010590 0.740865 C
0.092625 0.429865 0.713990 C
0.144570 0.447620 0.722800 C
0.057830 0.377130 0.696700 C
0.128570 0.369025 0.700465 C
0.135885 0.510590 0.240865 C
0.092625 0.929865 0.213990 C
0.144570 0.947620 0.222800 C
0.057830 0.877130 0.196700 C
0.128570 0.869025 0.200465 C
0.135885 0.510590 0.740865 C
0.092625 0.929865 0.713990 C
0.144570 0.947620 0.722800 C
0.057830 0.877130 0.696700 C
0.128570 0.869025 0.700465 C
0.635885 0.010590 0.240865 C
0.592625 0.429865 0.213990 C
0.644570 0.447620 0.222800 C
0.557830 0.377130 0.196700 C
0.628570 0.369025 0.200465 C
0.635885 0.010590 0.740865 C
0.592625 0.429865 0.713990 C
0.644570 0.447620 0.722800 C
0.557830 0.377130 0.696700 C
0.628570 0.369025 0.700465 C
0.635885 0.510590 0.240865 C
0.592625 0.929865 0.213990 C
0.644570 0.947620 0.222800 C
0.557830 0.877130 0.196700 C
0.628570 0.869025 0.200465 C
0.635885 0.510590 0.740865 C
0.592625 0.929865 0.713990 C
0.644570 0.947620 0.722800 C
0.557830 0.877130 0.696700 C
0.628570 0.869025 0.700465 C
0.133645 0.144035 0.349890 C
0.084200 0.091755 0.312515 C
0.182400 0.158900 0.344700 C
0.133645 0.144035 0.849890 C
0.084200 0.091755 0.812515 C
0.182400 0.158900 0.844700 C
0.133645 0.644035 0.349890 C
0.084200 0.591755 0.312515 C
0.182400 0.658900 0.344700 C
0.133645 0.644035 0.849890 C
0.084200 0.591755 0.812515 C
0.182400 0.658900 0.844700 C
0.633645 0.144035 0.349890 C
0.584200 0.091755 0.312515 C
0.682400 0.158900 0.344700 C
0.633645 0.144035 0.849890 C
0.584200 0.091755 0.812515 C
0.682400 0.158900 0.844700 C
0.633645 0.644035 0.349890 C
0.584200 0.591755 0.312515 C
0.682400 0.658900 0.344700 C
0.633645 0.644035 0.849890 C
0.584200 0.591755 0.812515 C
0.682400 0.658900 0.844700 C
0.230275 0.125295 0.239410 C
0.284125 0.162760 0.320135 C
0.275180 0.196950 0.302380 C
0.319570 0.180700 0.372870 C
0.331440 0.259545 0.380975 C
0.230275 0.125295 0.739410 C
0.284125 0.162760 0.820135 C
0.275180 0.196950 0.802380 C
0.319570 0.180700 0.872870 C
0.331440 0.259545 0.880975 C
0.230275 0.625295 0.239410 C
0.284125 0.662760 0.320135 C
0.275180 0.696950 0.302380 C
0.319570 0.680700 0.372870 C
0.331440 0.759545 0.380975 C
0.230275 0.625295 0.739410 C
0.284125 0.662760 0.820135 C
0.275180 0.696950 0.802380 C
0.319570 0.680700 0.872870 C
0.331440 0.759545 0.880975 C
0.730275 0.125295 0.239410 C
0.784125 0.162760 0.320135 C
0.775180 0.196950 0.302380 C
0.819570 0.180700 0.372870 C
0.831440 0.259545 0.380975 C
0.730275 0.125295 0.739410 C
0.784125 0.162760 0.820135 C
0.775180 0.196950 0.802380 C
0.819570 0.180700 0.872870 C
0.831440 0.259545 0.880975 C
0.730275 0.625295 0.239410 C
0.784125 0.662760 0.320135 C
0.775180 0.696950 0.302380 C
0.819570 0.680700 0.372870 C
0.831440 0.759545 0.380975 C
0.730275 0.625295 0.739410 C
0.784125 0.662760 0.820135 C
0.775180 0.696950 0.802380 C
0.819570 0.680700 0.872870 C
0.831440 0.759545 0.880975 C
0.205855 0.489610 0.105965 C
0.220760 0.492445 0.158245 C
0.185800 0.023500 0.091100 C
0.205855 0.489610 0.605965 C
0.220760 0.492445 0.658245 C
0.185800 0.023500 0.591100 C
0.205855 0.989610 0.105965 C
0.220760 0.992445 0.158245 C
0.185800 0.523500 0.091100 C
0.205855 0.989610 0.605965 C
0.220760 0.992445 0.658245 C
0.185800 0.523500 0.591100 C
0.705855 0.489610 0.105965 C
0.720760 0.492445 0.158245 C
0.685800 0.023500 0.091100 C
0.705855 0.489610 0.605965 C
0.720760 0.492445 0.658245 C
0.685800 0.023500 0.591100 C
0.705855 0.989610 0.105965 C
0.720760 0.992445 0.158245 C
0.685800 0.523500 0.091100 C
0.705855 0.989610 0.605965 C
0.720760 0.992445 0.658245 C
0.685800 0.523500 0.591100 C