H6 O4
1.0
  19.0600504756253457    0.0000000000000000   -4.5344172576654200
  -4.0925546600308698   13.2876605554250506   -3.1815471579816057
   0.0000000000000000    0.0000000000000000   14.2699999999999996
H O
6 4
direct
   0.7937015267716196    0.1593031117943734    0.5496345895986150 H
   1.0096649978412098    0.2538217536305136    0.6863912023298103 H
   0.9038479991098357    0.2063338978854048    0.6085646930453598 H
   0.9466195175050353    0.3072561538521154    1.0157513899108301 H
   0.7436140725764537    0.1211880641337106    0.8687558595242110 H
   0.8424971874484126    0.2133471966569717    0.9505390669494231 H
   0.8357100000000000    0.1812900000000000    0.6093700000000000 O
   0.9590000000000000    0.2352000000000000    0.6869900000000000 O
   0.9074900000000000    0.2665400000000000    0.9550500000000000 O
   0.7919400000000000    0.1607400000000000    0.8721100000000001 O
