Zn8 H60 C110 S16 N6 O34
1.0
  19.0600504756253457    0.0000000000000000   -4.5344172576654200
  -4.0925546600308698   13.2876605554250506   -3.1815471579816057
   0.0000000000000000    0.0000000000000000   14.2699999999999996
Zn H C S N O
8 60 110 16 6 34
direct
   0.7978300000000000    0.1618400000000000    0.7285700000000001 Zn
   0.2022400000000000    0.8380900000000000    0.2713800000000000 Zn
   0.0469600000000000    0.7324800000000000    0.1651900000000000 Zn
   0.4531100000000000    0.2675400000000000    0.8347700000000000 Zn
   0.2978200000000000    0.1618600000000000    0.7285600000000000 Zn
   0.7022400000000000    0.8381000000000000    0.2713900000000000 Zn
   0.5469600000000000    0.7324800000000000    0.1651900000000000 Zn
   0.9531200000000000    0.2675300000000000    0.8347800000000000 Zn
   0.7330100000000001    0.0770500000000000    0.0002000000000000 H
   0.7597800000000000    0.0663400000000000    0.1866000000000000 H
   0.0330400000000000    0.2703300000000000    0.5467400000000000 H
   0.0122600000000000    0.2586100000000000    0.3538200000000000 H
   0.5216400000000000    0.0370300000000000    0.6783000000000000 H
   0.5846100000000000    0.0162600000000000    0.4037700000000000 H
   0.7130300000000001    0.0840700000000000    0.5095400000000000 H
   0.6535900000000000    0.1002800000000000    0.7716800000000000 H
   0.4784000000000000    0.9636100000000000    0.3217100000000000 H
   0.4154600000000000    0.9833200000000000    0.5961000000000000 H
   0.2870300000000000    0.9155200000000000    0.4904000000000000 H
   0.3464600000000000    0.9001800000000000    0.2283200000000000 H
   0.2670300000000000    0.9229900000000000    0.9997600000000000 H
   0.2402600000000000    0.9337000000000000    0.8133000000000000 H
   0.9670200000000000    0.7297200000000000    0.4532200000000000 H
   0.9877899999999999    0.7414800000000000    0.6461500000000000 H
   0.9242752752416975    0.5743837056521697    0.0801717653140182 H
   0.8987105949607186    0.6794570956181072    0.0861597221378532 H
   0.9833400000000000    0.0035700000000000    0.0764600000000000 H
   0.0107200000000000    0.1895600000000000    0.0644600000000000 H
   0.2828200000000000    0.5499500000000000    0.2732000000000000 H
   0.2625200000000000    0.3567200000000000    0.2596800000000000 H
   0.6013745645218576    0.3205718244620744    0.9138096979210382 H
   0.5758056233258697    0.4256338179736499    0.9197558626875606 H
   0.5167400000000000    0.9964300000000000    0.9235600000000000 H
   0.4893300000000000    0.8104400000000000    0.9355500000000000 H
   0.2172500000000000    0.4500400000000000    0.7267900000000000 H
   0.2375400000000000    0.6432800000000000    0.7403700000000000 H
   0.2330100000000000    0.0770500000000000    0.0001900000000000 H
   0.2597700000000000    0.0663200000000000    0.1866500000000000 H
   0.5330500000000000    0.2703300000000000    0.5467200000000000 H
   0.5122700000000000    0.2586100000000000    0.3538000000000000 H
   0.0216300000000000    0.0373100000000000    0.6783200000000000 H
   0.0846100000000000    0.0160600000000000    0.4037600000000000 H
   0.2130300000000000    0.0839000000000000    0.5095200000000000 H
   0.1535700000000000    0.1005400000000000    0.7717000000000001 H
   0.9784100000000000    0.9637200000000000    0.3217200000000000 H
   0.9154700000000000    0.9832400000000000    0.5961000000000000 H
   0.7870400000000000    0.9154600000000001    0.4904000000000000 H
   0.8464699999999999    0.9002300000000000    0.2283300000000000 H
   0.7670300000000000    0.9230000000000000    0.9997700000000000 H
   0.7402700000000000    0.9337100000000000    0.8133100000000000 H
   0.4670100000000000    0.7297200000000000    0.4532000000000000 H
   0.4877800000000000    0.7414700000000000    0.6461600000000000 H
   0.4833300000000000    0.0035600000000000    0.0764700000000000 H
   0.5107200000000000    0.1895500000000000    0.0644600000000000 H
   0.7828100000000000    0.5499500000000000    0.2731800000000000 H
   0.7625200000000000    0.3567200000000000    0.2596500000000000 H
   0.2302900000000000    0.3221700000000000    0.9649600000000000 H
   0.1638500000000000    0.5942700000000000    0.9815800000000000 H
   0.0360800000000000    0.4865100000000000    0.9124200000000000 H
   0.0989300000000000    0.2267800000000000    0.8997900000000000 H
   0.2697100000000000    0.6779800000000000    0.0370800000000000 H
   0.3362600000000000    0.4056900000000000    0.0168900000000000 H
   0.4640100000000000    0.5134300000000001    0.0862700000000000 H
   0.4010700000000000    0.7733500000000000    0.1017400000000000 H
   0.0167400000000000    0.9964100000000000    0.9235000000000000 H
   0.9893400000000000    0.8104200000000000    0.9355500000000000 H
   0.7172500000000001    0.4500300000000000    0.7267700000000000 H
   0.7375400000000000    0.6432600000000001    0.7403400000000000 H
   0.8458900000000000    0.2087700000000000    0.9512400000000000 C
   0.9029300000000000    0.2100500000000000    0.6106100000000000 C
   0.7809800000000000    0.1249000000000000    0.0618000000000000 C
   0.8367000000000000    0.1945300000000000    0.0474800000000000 C
   0.7952000000000000    0.1198900000000000    0.1618000000000000 C
   0.8617200000000000    0.1877100000000000    0.2252600000000000 C
   0.9797200000000000    0.2450900000000000    0.4900800000000000 C
   0.9148300000000000    0.2139900000000000    0.5129400000000000 C
   0.9683800000000000    0.2393400000000000    0.3870000000000000 C
   0.8943900000000000    0.2034800000000000    0.3314500000000000 C
   0.5611900000000000    0.0447800000000000    0.6360800000000000 C
   0.5957600000000000    0.0344300000000000    0.4849400000000000 C
   0.6686700000000000    0.0717900000000000    0.5435000000000000 C
   0.6352500000000000    0.0811500000000000    0.6898100000000000 C
   0.5393100000000000    0.0199200000000000    0.5303300000000000 C
   0.4388600000000000    0.9555800000000000    0.3639100000000000 C
   0.4043000000000000    0.9653900000000000    0.5150200000000000 C
   0.3313900000000000    0.9280100000000000    0.4564200000000000 C
   0.3648000000000000    0.9191300000000000    0.3101800000000000 C
   0.4607500000000000    0.9801800000000001    0.4696400000000000 C
   0.1541500000000000    0.7912500000000000    0.0487200000000000 C
   0.0971400000000000    0.7899200000000000    0.3893600000000000 C
   0.2190600000000000    0.8751400000000000    0.9380900000000000 C
   0.1633500000000000    0.8055099999999999    0.9524899999999999 C
   0.2048400000000000    0.8801400000000000    0.8381700000000000 C
   0.1383300000000000    0.8123200000000000    0.7747100000000000 C
   0.0203500000000000    0.7549400000000001    0.5098800000000000 C
   0.0852400000000000    0.7859900000000000    0.4870200000000000 C
   0.0316800000000000    0.7607100000000000    0.6125699999999999 C
   0.1056600000000000    0.7965500000000000    0.6685100000000000 C
   0.1524800000000000    0.6141000000000000    0.2131900000000000 C
   0.0954100000000000    0.9548600000000000    0.2109000000000000 C
   0.0313000000000000    0.0650800000000000    0.1243900000000000 C
   0.0866300000000000    0.0507500000000000    0.1951000000000000 C
   0.0458400000000000    0.1647600000000000    0.1187300000000000 C
   0.1121200000000000    0.2281100000000000    0.1872300000000000 C
   0.2295800000000000    0.4931800000000000    0.2470000000000000 C
   0.1645800000000000    0.5161200000000000    0.2157800000000000 C
   0.2185000000000000    0.3903300000000000    0.2402800000000000 C
   0.1446200000000000    0.3343200000000000    0.2034700000000000 C
   0.3476100000000000    0.3859000000000000    0.7867200000000000 C
   0.4046500000000000    0.0451500000000000    0.7890800000000000 C
   0.4687500000000000    0.9349300000000000    0.8756000000000000 C
   0.4134300000000000    0.9492600000000000    0.8049200000000000 C
   0.4542100000000000    0.8352500000000000    0.8812800000000000 C
   0.3879300000000000    0.7718900000000000    0.8127000000000000 C
   0.2704900000000000    0.5068100000000000    0.7529600000000000 C
   0.3355000000000000    0.4838600000000000    0.7841100000000000 C
   0.2815600000000000    0.6096700000000000    0.7597200000000000 C
   0.3554400000000000    0.6656800000000000    0.7965100000000001 C
   0.3458800000000000    0.2087800000000000    0.9512000000000000 C
   0.4029200000000000    0.2100500000000000    0.6105900000000000 C
   0.2809800000000000    0.1249000000000000    0.0618700000000000 C
   0.3366900000000000    0.1945400000000000    0.0474700000000000 C
   0.2951900000000000    0.1198900000000000    0.1617800000000000 C
   0.3617100000000000    0.1877100000000000    0.2252500000000000 C
   0.4797000000000000    0.2450900000000000    0.4900600000000000 C
   0.4148200000000000    0.2139900000000000    0.5129000000000000 C
   0.4683600000000000    0.2393400000000000    0.3873800000000000 C
   0.3943800000000000    0.2034700000000000    0.3314400000000000 C
   0.0611800000000000    0.0449500000000000    0.6360900000000000 C
   0.0957600000000000    0.0343500000000000    0.4849400000000000 C
   0.1686700000000000    0.0716900000000000    0.5435300000000000 C
   0.1352400000000000    0.0812900000000000    0.6898200000000000 C
   0.0393000000000000    0.0199300000000000    0.5303400000000000 C
   0.9388600000000000    0.9556200000000000    0.3639200000000000 C
   0.9043099999999999    0.9653400000000000    0.5150200000000000 C
   0.8314000000000000    0.9279900000000000    0.4564000000000000 C
   0.8648100000000000    0.9191900000000000    0.3101900000000000 C
   0.9607599999999999    0.9802200000000000    0.4696500000000000 C
   0.6541600000000000    0.7912500000000000    0.0487300000000000 C
   0.5971400000000000    0.7899400000000000    0.3893700000000000 C
   0.7190700000000000    0.8751500000000000    0.9381000000000000 C
   0.6633599999999999    0.8055000000000000    0.9525000000000000 C
   0.7048500000000000    0.8801500000000000    0.8381800000000000 C
   0.6383400000000000    0.8123200000000000    0.7747200000000000 C
   0.5203600000000000    0.7549400000000001    0.5090000000000000 C
   0.5852500000000000    0.7860100000000000    0.4870300000000000 C
   0.5316900000000000    0.7607100000000000    0.6125800000000000 C
   0.6056700000000000    0.7965500000000000    0.6685200000000000 C
   0.6524700000000000    0.6141000000000000    0.2132000000000000 C
   0.5954199999999999    0.9548600000000000    0.2109400000000000 C
   0.5313099999999999    0.0650800000000000    0.1244000000000000 C
   0.5866400000000001    0.0507500000000000    0.1951100000000000 C
   0.5458499999999999    0.1647500000000000    0.1187000000000000 C
   0.6121300000000000    0.2281100000000000    0.1872400000000000 C
   0.7295800000000000    0.4931800000000000    0.2470000000000000 C
   0.6645700000000000    0.5161300000000000    0.2158100000000000 C
   0.7185000000000000    0.3903300000000000    0.2402000000000000 C
   0.6446200000000000    0.3343200000000000    0.2034700000000000 C
   0.1900900000000000    0.3634700000000000    0.9558100000000000 C
   0.1536200000000000    0.5132600000000000    0.9641000000000000 C
   0.0810700000000000    0.4535600000000000    0.9258800000000000 C
   0.1163200000000000    0.3086000000000000    0.9184400000000000 C
   0.2109000000000000    0.4691300000000000    0.9799400000000000 C
   0.3099300000000000    0.6366200000000000    0.0450000000000000 C
   0.3464600000000000    0.4867300000000000    0.0352100000000000 C
   0.4190100000000000    0.5464300000000000    0.0734400000000000 C
   0.3837100000000000    0.6914900000000000    0.0825000000000000 C
   0.2891500000000000    0.5309199999999999    0.0203000000000000 C
   0.8476000000000000    0.3858900000000000    0.7867400000000000 C
   0.9046700000000000    0.0451500000000000    0.7891000000000000 C
   0.9687600000000000    0.9349100000000000    0.8756000000000000 C
   0.9134400000000000    0.9492600000000000    0.8049400000000000 C
   0.9542200000000000    0.8352300000000000    0.8812000000000000 C
   0.8879300000000000    0.7718800000000000    0.8127799999999999 C
   0.7704800000000001    0.5068000000000000    0.7529600000000000 C
   0.8354900000000000    0.4838500000000000    0.7841399999999999 C
   0.7815600000000000    0.6096500000000000    0.7597200000000000 C
   0.8554400000000000    0.6656700000000000    0.7965200000000000 C
   0.8394200000000001    0.1779400000000000    0.4075900000000000 S
   0.9057400000000000    0.2577700000000000    0.1597000000000000 S
   0.1606400000000000    0.8220300000000000    0.5923700000000000 S
   0.0943100000000000    0.7422700000000000    0.8402600000000000 S
   0.0894000000000000    0.4106100000000000    0.1782900000000000 S
   0.1557000000000000    0.1627100000000000    0.2584700000000000 S
   0.4106700000000000    0.5893800000000000    0.8216000000000000 S
   0.3443600000000000    0.8373000000000000    0.7415300000000000 S
   0.3394100000000000    0.1779300000000000    0.4075800000000000 S
   0.4057200000000000    0.2577900000000000    0.1597000000000000 S
   0.6606400000000000    0.8220499999999999    0.5923800000000000 S
   0.5943200000000000    0.7422600000000000    0.8402700000000000 S
   0.5893900000000000    0.4106100000000000    0.1783300000000000 S
   0.6557100000000000    0.1627200000000000    0.2584000000000000 S
   0.9106600000000000    0.5893800000000000    0.8216000000000000 S
   0.8443600000000000    0.8373000000000000    0.7415600000000000 S
   0.6888300000000001    0.0951500000000000    0.6450000000000000 N
   0.3112200000000000    0.9048600000000000    0.3549700000000000 N
   0.1888200000000000    0.0952000000000000    0.6450000000000000 N
   0.8112400000000000    0.9048400000000000    0.3549000000000000 N
   0.0619500000000000    0.3521600000000000    0.9029100000000000 N
   0.4381100000000000    0.6478699999999999    0.0971600000000000 N
   0.7919400000000000    0.1607400000000000    0.8721100000000001 O
   0.9074900000000000    0.2665400000000000    0.9550500000000000 O
   0.9590000000000000    0.2352000000000000    0.6869900000000000 O
   0.8357100000000000    0.1812900000000000    0.6093700000000000 O
   0.2081000000000000    0.8392600000000000    0.1278600000000000 O
   0.0925500000000000    0.7334800000000000    0.0449000000000000 O
   0.0410700000000000    0.7648000000000000    0.3129700000000000 O
   0.1643700000000000    0.8186700000000000    0.3905900000000000 O
   0.9381200000000000    0.6478600000000000    0.0971100000000000 O
   0.2084800000000000    0.6904200000000000    0.2389700000000000 O
   0.0852200000000000    0.6132300000000001    0.1850700000000000 O
   0.0412200000000000    0.8759100000000000    0.1637500000000000 O
   0.1569500000000000    0.9586800000000000    0.2692900000000000 O
   0.5619600000000000    0.3521600000000000    0.9028600000000000 O
   0.2916100000000000    0.3095700000000000    0.7609700000000000 O
   0.4148700000000000    0.3867900000000000    0.8148700000000000 O
   0.3431100000000000    0.0413200000000000    0.7307100000000000 O
   0.4588400000000000    0.1241100000000000    0.8362400000000000 O
   0.4074800000000000    0.2665800000000000    0.9550500000000000 O
   0.2919400000000000    0.1607400000000000    0.8720000000000000 O
   0.4590000000000000    0.2352000000000000    0.6869800000000000 O
   0.3357000000000000    0.1812900000000000    0.6093600000000000 O
   0.7081000000000000    0.8392800000000000    0.1278700000000000 O
   0.5925600000000000    0.7334600000000000    0.0449100000000000 O
   0.5410700000000001    0.7648100000000000    0.3129800000000000 O
   0.6643700000000000    0.8186800000000000    0.3906000000000000 O
   0.7084700000000000    0.6904200000000000    0.2389800000000000 O
   0.5852100000000000    0.6132300000000001    0.1850700000000000 O
   0.5412300000000000    0.8759100000000000    0.1637700000000000 O
   0.6569600000000000    0.9586900000000000    0.2693100000000000 O
   0.7916100000000000    0.3095600000000000    0.7609800000000000 O
   0.9148600000000000    0.3867700000000000    0.8148700000000000 O
   0.9588600000000000    0.1241000000000000    0.8362500000000000 O
   0.8431200000000000    0.0413200000000000    0.7307500000000000 O
