H4 O2
1.0
  19.0600504756253457    0.0000000000000000   -4.5344172576654200
  -4.0925546600308698   13.2876605554250506   -3.1815471579816057
   0.0000000000000000    0.0000000000000000   14.2699999999999996
H O
4 2
direct
   0.6013745645218576    0.3205718244620744    0.9138096979210382 H
   0.5758056233258697    0.4256338179736499    0.9197558626875606 H
   0.9242752752416975    0.5743837056521697    0.0801717653140182 H
   0.8987105949607186    0.6794570956181072    0.0861597221378532 H
   0.5619600000000000    0.3521600000000000    0.9028600000000000 O
   0.9381200000000000    0.6478600000000000    0.0971100000000000 O
