H7 C14 N2 O4
1.0
  17.3149999894510991    0.0000000000000000   -0.0006044075198403
  -3.3434060431126946   38.4549299314259230    0.0000000000000024
   0.0000000000000000    0.0000000000000000   22.3679999999999986
H C N O
7 14 2 4
direct
   0.7039800000000001    0.0028850000000000    0.3485500000000000 H
   0.5257400000000000    0.8281600000000000    0.0518100000000000 H
   0.4983700000000000    0.8739500000000000    0.1275500000000000 H
   0.7551600000000001    0.8220700000000001    0.1245700000000000 H
   0.6478699999999999    0.9652499999999999    0.2654500000000000 H
   0.7977200000000000    0.8873900000000000    0.3227000000000000 H
   0.8471300000000000    0.9280850000000000    0.4019100000000000 H
   0.6540300000000000    0.7948500000000001    0.0378800000000000 C
   0.6411900000000000    0.8228650000000000    0.0829200000000000 C
   0.5697200000000000    0.8376700000000000    0.0839900000000000 C
   0.5544800000000000    0.8632150000000001    0.1257300000000000 C
   0.6135400000000000    0.8741600000000000    0.1653300000000000 C
   0.6850200000000000    0.8598600000000001    0.1637500000000000 C
   0.7001300000000000    0.8338300000000001    0.1237000000000000 C
   0.7362300000000001    0.8767350000000000    0.2100900000000000 C
   0.6148600000000000    0.9001399999999999    0.2142400000000000 C
   0.7227700000000000    0.9770250000000000    0.3408500000000000 C
   0.6919999999999999    0.9561500000000001    0.2946200000000000 C
   0.7187300000000000    0.9231300000000000    0.2869400000000000 C
   0.7747300000000000    0.9125150000000000    0.3264900000000000 C
   0.8026000000000000    0.9353250000000000    0.3710200000000000 C
   0.7774000000000000    0.9671000000000001    0.3785000000000000 N
   0.6907500000000000    0.9009600000000000    0.2399600000000000 N
   0.7143400000000000    0.7784750000000000    0.0421000000000000 O
   0.6028600000000000    0.7888850000000001    0.9973900000000000 O
   0.5631400000000000    0.9171899999999999    0.2315800000000000 O
   0.8034800000000000    0.8724499999999999    0.2213300000000000 O
