H5 O3
1.0
  17.3149999894510991    0.0000000000000000   -0.0006044075198403
  -3.3434060431126946   38.4549299314259230    0.0000000000000024
   0.0000000000000000    0.0000000000000000   22.3679999999999986
H O
5 3
direct
   0.7377025623220522    0.9743121008411795    0.3511412497057527 H
   0.7957019430319878    0.9440228476253407    0.3730675184968544 H
   0.6393292871554790    0.7907826492226456    1.0239090763531651 H
   0.5536371112805664    0.7969614203553141    0.9854529075979076 H
   0.7552440841228152    0.7806034102183782    0.0718438917680149 H
   0.7774000000000000    0.9671000000000001    0.3785000000000000 O
   0.6028600000000000    0.7888850000000001    0.9973900000000000 O
   0.7143400000000000    0.7784750000000000    0.0421000000000000 O
