H20 O10
1.0
  33.7824997478769191    0.0000000000000000   -0.0041273109716195
  -0.0006244131804919   35.7674999727588272   -0.0012485212801552
   0.0000000000000000    0.0000000000000000   28.7459999999999987
H O
20 10
direct
   0.2736445101031866    0.0767886768364615    0.6250151106424124 H
   0.2736454371796501    0.1232472838860782    0.6250187259033678 H
   0.3263448024415982    0.1232469201619073    0.6249755820464581 H
   0.3263452493677416    0.0767883117115571    0.6249719652147011 H
   0.9263452493677417    0.8767883117115572    0.6249719652147011 H
   0.9263448024415982    0.9232469201619073    0.6249755820464581 H
   0.8736454371796502    0.9232472838860782    0.6250187259033678 H
   0.8736445101031867    0.8767886768364616    0.6250151106424124 H
   0.0736445101031866    0.0767886768364615    0.1250151106424124 H
   0.0736454371796501    0.1232472838860782    0.1250187259033679 H
   0.1263452493677416    0.0767883117115571    0.1249719652147011 H
   0.1263436908639087    0.1232466389874807    0.1249220487660536 H
   0.7263448024415982    0.5232469201619073    0.1249755820464581 H
   0.7263452493677417    0.4767883117115572    0.1249719652147011 H
   0.6736454371796502    0.5232472838860782    0.1250187259033679 H
   0.6736445101031867    0.4767886768364615    0.1250151106424124 H
   0.2736454371796501    0.7232472838860783    0.1250187259033679 H
   0.2736445101031866    0.6767886768364616    0.1250151106424124 H
   0.3263448024415982    0.7232469201619074    0.1249755820464581 H
   0.3263452493677416    0.6767883117115572    0.1249719652147011 H
   0.2583420000000000    0.1000180000000000    0.6250350000000000 O
   0.3416480000000000    0.1000180000000000    0.6249575000000001 O
   0.9416480000000000    0.9000180000000001    0.6249575000000001 O
   0.8583420000000000    0.9000180000000001    0.6250350000000000 O
   0.0583420000000000    0.1000180000000000    0.1250350000000000 O
   0.1416480000000000    0.1000180000000000    0.1249575000000000 O
   0.7416480000000001    0.5000180000000001    0.1249575000000000 O
   0.6583420000000001    0.5000180000000001    0.1250350000000000 O
   0.2583420000000000    0.7000180000000001    0.1250350000000000 O
   0.3416480000000000    0.7000180000000001    0.1249575000000000 O
