H6 O4
1.0
  34.7659935134235525    0.0000000000000000   -0.0212373395503807
  -0.0047140659596489   37.2891000355846884   -0.2590295615171994
   0.0000000000000000    0.0000000000000000   36.3680000000000021
H O
6 4
direct
   0.5790248253335160    0.3146953323227965    0.3044280376545830 H
   0.6564384853520793    0.3684735858518135    0.3605479947952278 H
   0.6179036429354773    0.3377460887972359    0.3364251050778283 H
   0.6485659083778074    0.2307378332704338    0.4431606492695945 H
   0.5925096005910304    0.1962599481172826    0.4128637690374557 H
   0.6199652646673979    0.1936426551487120    0.3128795238235495 H
   0.5950250000000000    0.3359450000000000    0.3062650000000000 O
   0.6400700000000000    0.3671850000000000    0.3389700000000000 O
   0.6436500000000001    0.2326150000000000    0.4693550000000001 O
   0.5963900000000000    0.2026450000000000    0.4385000000000000 O
