H6 O4
1.0
  34.7659935134235525    0.0000000000000000   -0.0212373395503807
  -0.0047140659596489   37.2891000355846884   -0.2590295615171994
   0.0000000000000000    0.0000000000000000   36.3680000000000021
H O
6 4
direct
   0.9830827811143013    0.3326740221180831    0.5391163061339140 H
   0.9832896737252794    0.3465700135680305    0.4325509886503958 H
   0.9891373395317596    0.3396240251487833    0.4857140547788246 H
   0.2767623192221084    0.3905483563858052    0.4775021309519142 H
   0.2767332968833762    0.2869076076262501    0.4938879151176422 H
   0.2708271366820727    0.3384689579599802    0.4856367181184966 H
   0.9680450000000000    0.3356100000000000    0.5168650000000000 O
   0.9682350000000000    0.3437050000000000    0.4547850000000000 O
   0.2918400000000000    0.3689800000000000    0.4811650000000000 O
   0.2916900000000000    0.3086250000000000    0.4907050000000000 O
