H8 C14 O4
1.0
  34.7659935134235525    0.0000000000000000   -0.0212373395503807
  -0.0047140659596489   37.2891000355846884   -0.2590295615171994
   0.0000000000000000    0.0000000000000000   36.3680000000000021
H C O
8 14 4
direct
   0.0328250000000000    0.3574450000000000    0.4304100000000000 H
   0.1042550000000000    0.3582000000000000    0.4313600000000000 H
   0.2277250000000000    0.3895550000000000    0.4587200000000000 H
   0.1561800000000000    0.3894350000000000    0.4582950000000000 H
   0.1564550000000000    0.2893250000000000    0.5168650000000000 H
   0.1028800000000000    0.3192650000000000    0.5427500000000000 H
   0.2278050000000000    0.2885900000000000    0.5150850000000000 H
   0.0314450000000000    0.3198350000000000    0.5418250000000000 H
   0.0484600000000000    0.3494900000000000    0.4549950000000000 C
   0.0884150000000000    0.3500650000000000    0.4557500000000000 C
   0.2118000000000000    0.3675400000000000    0.4710250000000000 C
   0.1718150000000000    0.3673600000000000    0.4709150000000000 C
   0.2322300000000000    0.3390700000000000    0.4868100000000000 C
   0.2750750000000000    0.3388950000000000    0.4861950000000000 C
   0.1511850000000000    0.3394400000000000    0.4877100000000000 C
   0.0276950000000000    0.3387900000000000    0.4861100000000000 C
   0.1087250000000000    0.3390650000000000    0.4872150000000000 C
   0.9848600000000001    0.3393550000000000    0.4858700000000000 C
   0.1719300000000000    0.3114950000000000    0.5043550000000000 C
   0.0876750000000000    0.3275900000000000    0.5180100000000000 C
   0.2119050000000000    0.3109050000000000    0.5032799999999999 C
   0.0476950000000000    0.3279000000000000    0.5176700000000000 C
   0.2916900000000000    0.3086250000000000    0.4907050000000000 O
   0.2918400000000000    0.3689800000000000    0.4811650000000000 O
   0.9682350000000000    0.3437050000000000    0.4547850000000000 O
   0.9680450000000000    0.3356100000000000    0.5168650000000000 O
