La32 P62 H404 C186 N62 O186
1.0
  23.3918723121115519    0.0000000000000000    0.9705945259833805
   2.2602446990214777   20.5849232648965135    1.1759217996395781
   0.0000000000000000    0.0000000000000000   23.3960000000000008
La P H C N O
32 62 404 186 62 186
direct
   0.0553250000000000    0.0712900000000000    0.7355200000000000 La
   0.0553200000000000    0.5712900000000000    0.2355200000000000 La
   0.0553250000000000    0.5712800000000000    0.7355200000000000 La
   0.3053350000000000    0.0712900000000000    0.2355100000000000 La
   0.3053350000000000    0.0712900000000000    0.7355200000000000 La
   0.3053300000000000    0.5712900000000000    0.2355200000000000 La
   0.3053350000000000    0.5712800000000000    0.7355200000000000 La
   0.1946550000000000    0.4287000000000000    0.2644800000000000 La
   0.1946550000000000    0.4287000000000000    0.7644800000000000 La
   0.1946500000000000    0.9287000000000000    0.2644800000000000 La
   0.1946600000000000    0.9286900000000000    0.7644800000000000 La
   0.4446650000000000    0.4287000000000000    0.2644800000000000 La
   0.4446650000000000    0.4287000000000000    0.7644800000000000 La
   0.4446600000000000    0.9287000000000000    0.2644800000000000 La
   0.4446700000000000    0.9286900000000000    0.7644800000000000 La
   0.0553250000000000    0.0712900000000000    0.2355100000000000 La
   0.5553250000000000    0.0712900000000000    0.7355200000000000 La
   0.5553200000000000    0.5712900000000000    0.2355200000000000 La
   0.5553250000000000    0.5712800000000000    0.7355200000000000 La
   0.8053350000000000    0.0712900000000000    0.2355100000000000 La
   0.8053350000000000    0.0712900000000000    0.7355200000000000 La
   0.8053300000000000    0.5712900000000000    0.2355200000000000 La
   0.8053350000000000    0.5712800000000000    0.7355200000000000 La
   0.6946550000000000    0.4287000000000000    0.2644800000000000 La
   0.6946550000000000    0.4287000000000000    0.7644800000000000 La
   0.6946500000000000    0.9287000000000000    0.2644800000000000 La
   0.6946600000000001    0.9286900000000000    0.7644800000000000 La
   0.9446650000000000    0.4287000000000000    0.2644800000000000 La
   0.9446650000000000    0.4287000000000000    0.7644800000000000 La
   0.9446600000000001    0.9287000000000000    0.2644800000000000 La
   0.9446700000000000    0.9286900000000000    0.7644800000000000 La
   0.5553250000000000    0.0712900000000000    0.2355100000000000 La
   0.1773350000000000    0.0896800000000000    0.3305800000000000 P
   0.1773400000000000    0.0896800000000000    0.8305900000000001 P
   0.1773350000000000    0.5896700000000000    0.3305800000000000 P
   0.1773350000000000    0.5896700000000000    0.8305900000000001 P
   0.4273400000000000    0.0896800000000000    0.3305800000000000 P
   0.4273450000000000    0.0896800000000000    0.8305900000000001 P
   0.4273400000000000    0.5896800000000000    0.3305800000000000 P
   0.4273450000000000    0.5896700000000000    0.8305900000000001 P
   0.1698250000000000    0.0747600000000000    0.1573400000000000 P
   0.1698300000000000    0.0747500000000000    0.6573400000000000 P
   0.1698250000000000    0.5747500000000000    0.1573400000000000 P
   0.1698250000000000    0.5747500000000000    0.6573400000000000 P
   0.4198350000000000    0.0747600000000000    0.1573400000000000 P
   0.4198350000000000    0.0747500000000000    0.6573400000000000 P
   0.4198300000000000    0.5747500000000000    0.1573400000000000 P
   0.4198350000000000    0.5747500000000000    0.6573400000000000 P
   0.0726200000000000    0.4103300000000000    0.1694000000000000 P
   0.0726250000000000    0.9103200000000000    0.1694000000000000 P
   0.0726250000000000    0.9103100000000000    0.6694099999999999 P
   0.3226300000000000    0.4103300000000000    0.1694000000000000 P
   0.3226350000000000    0.4103200000000000    0.6694000000000000 P
   0.3226300000000000    0.9103300000000000    0.1694000000000000 P
   0.3226300000000000    0.9103200000000000    0.6694000000000000 P
   0.0801600000000000    0.4252300000000000    0.3426600000000000 P
   0.0801650000000000    0.4252300000000000    0.8426600000000000 P
   0.0801600000000000    0.9252300000000000    0.3426600000000000 P
   0.0801600000000000    0.9252200000000000    0.8426600000000000 P
   0.3301700000000000    0.4252300000000000    0.3426600000000000 P
   0.3301700000000000    0.4252300000000000    0.8426600000000000 P
   0.3301700000000000    0.9252300000000000    0.3426600000000000 P
   0.3301700000000000    0.9252200000000000    0.8426600000000000 P
   0.6773350000000000    0.0896800000000000    0.3305800000000000 P
   0.6773400000000001    0.0896800000000000    0.8305900000000001 P
   0.6773350000000000    0.5896700000000000    0.3305800000000000 P
   0.6773350000000000    0.5896700000000000    0.8305900000000001 P
   0.9273400000000001    0.0896800000000000    0.3305800000000000 P
   0.9273400000000001    0.5896800000000000    0.3305800000000000 P
   0.9273450000000000    0.5896700000000000    0.8305900000000001 P
   0.6698250000000000    0.0747600000000000    0.1573400000000000 P
   0.6698300000000000    0.0747500000000000    0.6573400000000000 P
   0.6698250000000000    0.5747500000000000    0.1573400000000000 P
   0.6698250000000000    0.5747500000000000    0.6573400000000000 P
   0.9198350000000000    0.0747600000000000    0.1573400000000000 P
   0.9198350000000000    0.0747500000000000    0.6573400000000000 P
   0.9198299999999999    0.5747500000000000    0.1573400000000000 P
   0.9198350000000000    0.5747500000000000    0.6573400000000000 P
   0.5726200000000000    0.4103300000000000    0.1694000000000000 P
   0.5726300000000000    0.4103200000000000    0.6694099999999999 P
   0.5726249999999999    0.9103200000000000    0.1694000000000000 P
   0.5726249999999999    0.9103100000000000    0.6694099999999999 P
   0.8226300000000000    0.4103300000000000    0.1694000000000000 P
   0.8226350000000000    0.4103200000000000    0.6694000000000000 P
   0.8226300000000000    0.9103300000000000    0.1694000000000000 P
   0.8226300000000000    0.9103200000000000    0.6694000000000000 P
   0.5801600000000000    0.4252300000000000    0.3426600000000000 P
   0.5801650000000000    0.4252300000000000    0.8426600000000000 P
   0.5801600000000000    0.9252300000000000    0.3426600000000000 P
   0.5801600000000000    0.9252200000000000    0.8426600000000000 P
   0.8301700000000001    0.4252300000000000    0.3426600000000000 P
   0.8301700000000001    0.4252300000000000    0.8426600000000000 P
   0.8301700000000001    0.9252300000000000    0.3426600000000000 P
   0.8301700000000001    0.9252200000000000    0.8426600000000000 P
   0.1223850000000000    0.4776400000000000    0.0841500000000000 H
   0.1223850000000000    0.4776400000000000    0.5841000000000000 H
   0.1223800000000000    0.9776400000000000    0.0841500000000000 H
   0.1223850000000000    0.9776300000000000    0.5841499999999999 H
   0.3723850000000000    0.4776400000000000    0.0841500000000000 H
   0.3723900000000000    0.4776400000000000    0.5841499999999999 H
   0.3723850000000000    0.9776400000000000    0.0841500000000000 H
   0.3723850000000000    0.9776300000000000    0.5841499999999999 H
   0.0047350000000000    0.1410300000000000    0.3655500000000000 H
   0.0047300000000000    0.6410200000000000    0.3655500000000000 H
   0.0047350000000000    0.6410200000000000    0.8655600000000000 H
   0.2547450000000000    0.1410300000000000    0.3655500000000000 H
   0.2547450000000000    0.1410200000000000    0.8655000000000000 H
   0.2547400000000000    0.6410300000000000    0.3655500000000000 H
   0.2547500000000000    0.6410200000000000    0.8655600000000000 H
   0.1908550000000000    0.1959500000000000    0.3622800000000000 H
   0.1908550000000000    0.1959400000000000    0.8622900000000000 H
   0.1908500000000000    0.6959400000000000    0.3622800000000000 H
   0.1908550000000000    0.6959300000000000    0.8622000000000000 H
   0.4408600000000000    0.1959500000000000    0.3622800000000000 H
   0.4408600000000000    0.1959400000000000    0.8622900000000000 H
   0.4408550000000000    0.6959400000000000    0.3622800000000000 H
   0.4408650000000000    0.6959400000000000    0.8622800000000000 H
   0.1684800000000000    0.1906100000000000    0.2367900000000000 H
   0.1684850000000000    0.1906000000000000    0.7368000000000000 H
   0.1684800000000000    0.6906000000000000    0.2367900000000000 H
   0.1684850000000000    0.6905900000000000    0.7368000000000000 H
   0.4184900000000000    0.1906100000000000    0.2367900000000000 H
   0.4184950000000000    0.1906000000000000    0.7368000000000000 H
   0.4184900000000000    0.6906000000000000    0.2367900000000000 H
   0.4184900000000000    0.6906000000000000    0.7368000000000000 H
   0.1703200000000000    0.2591300000000000    0.2790800000000000 H
   0.1703150000000000    0.2591400000000000    0.7790800000000000 H
   0.1703100000000000    0.7591400000000000    0.2790700000000000 H
   0.1703200000000000    0.7591200000000000    0.7790899999999999 H
   0.4203250000000000    0.2591300000000000    0.2790800000000000 H
   0.4203250000000000    0.2591400000000000    0.7790800000000000 H
   0.4203200000000000    0.7591400000000000    0.2790700000000000 H
   0.4203300000000000    0.7591200000000000    0.7790899999999999 H
   0.0064350000000000    0.2722800000000000    0.3299100000000000 H
   0.0064350000000000    0.7722900000000000    0.3299100000000000 H
   0.0064350000000000    0.7722700000000000    0.8299200000000000 H
   0.2564400000000000    0.2722800000000000    0.3299100000000000 H
   0.2564500000000000    0.2722900000000000    0.8299000000000000 H
   0.2564450000000000    0.7722900000000000    0.3299100000000000 H
   0.2564450000000000    0.7722700000000000    0.8299200000000000 H
   0.0671700000000000    0.2120600000000000    0.3237800000000000 H
   0.0671700000000000    0.7120600000000000    0.3237800000000000 H
   0.0671750000000000    0.7120500000000000    0.8237900000000000 H
   0.4935600000000000    0.7276800000000000    0.6701000000000000 H
   0.1828150000000000    0.2879200000000000    0.1762200000000000 H
   0.1828200000000000    0.2879200000000000    0.6762300000000000 H
   0.1828150000000000    0.7879200000000000    0.1762200000000000 H
   0.3171800000000000    0.2120600000000000    0.3237800000000000 H
   0.3171850000000000    0.2120600000000000    0.8237000000000000 H
   0.3171800000000000    0.7120600000000000    0.3237800000000000 H
   0.3171850000000000    0.7120500000000000    0.8237900000000000 H
   0.2278950000000000    0.0008600000000000    0.0996900000000000 H
   0.2279000000000000    0.0008500000000000    0.5996899999999999 H
   0.2278950000000000    0.5008500000000000    0.0996900000000000 H
   0.2278950000000000    0.5008400000000000    0.5996899999999999 H
   0.4779000000000000    0.0008600000000000    0.0996900000000000 H
   0.4779050000000000    0.0008500000000000    0.5996899999999999 H
   0.4779000000000000    0.5008500000000000    0.0996900000000000 H
   0.4779000000000000    0.5008400000000000    0.5996899999999999 H
   0.2117600000000000    0.0764900000000000    0.0606900000000000 H
   0.2117650000000000    0.0764800000000000    0.5607000000000000 H
   0.2117600000000000    0.5764800000000000    0.0606900000000000 H
   0.2117650000000000    0.5764800000000000    0.5607000000000000 H
   0.4617650000000000    0.0764900000000000    0.0606900000000000 H
   0.4617700000000000    0.0764800000000000    0.5600000000000001 H
   0.4617650000000000    0.5764800000000000    0.0606900000000000 H
   0.4617700000000000    0.5764800000000000    0.5600000000000001 H
   0.2071750000000000    0.4978600000000000    0.4834300000000000 H
   0.2071750000000000    0.4978500000000000    0.9834300000000000 H
   0.2071700000000000    0.9978500000000000    0.4834300000000000 H
   0.2071750000000000    0.9978500000000000    0.9834300000000000 H
   0.4571750000000000    0.4978600000000000    0.4834300000000000 H
   0.4571800000000000    0.4978500000000000    0.9834300000000000 H
   0.4571750000000000    0.9978500000000000    0.4834300000000000 H
   0.4571800000000000    0.9978500000000000    0.9834300000000000 H
   0.2081600000000000    0.4290100000000000    0.0334000000000000 H
   0.2081650000000000    0.4290000000000000    0.5334000000000000 H
   0.2081600000000000    0.9290000000000000    0.0334000000000000 H
   0.2081650000000000    0.9290000000000000    0.5334000000000000 H
   0.4581650000000000    0.4290000000000000    0.0334400000000000 H
   0.4581650000000000    0.4290000000000000    0.5334000000000000 H
   0.4581650000000000    0.9290000000000000    0.0334000000000000 H
   0.4581650000000000    0.9289900000000000    0.5334000000000000 H
   0.0877600000000000    0.0911500000000000    0.0583900000000000 H
   0.0877650000000000    0.0911400000000000    0.5584000000000000 H
   0.0877600000000000    0.5911400000000000    0.0583900000000000 H
   0.0877650000000000    0.5911400000000000    0.5583900000000001 H
   0.3377650000000000    0.0911500000000000    0.0583900000000000 H
   0.3377650000000000    0.0911400000000000    0.5584000000000000 H
   0.3377600000000000    0.5911400000000000    0.0583900000000000 H
   0.3377650000000000    0.5911400000000000    0.5580000000000001 H
   0.1376900000000000    0.0927800000000000    0.4982000000000000 H
   0.1376950000000000    0.0927800000000000    0.9982799999999999 H
   0.1376900000000000    0.5927800000000000    0.4982800000000000 H
   0.1376950000000000    0.5927700000000000    0.9982799999999999 H
   0.3876950000000000    0.0927800000000000    0.4982000000000000 H
   0.3876950000000000    0.0927800000000000    0.9982799999999999 H
   0.3876950000000000    0.5927800000000000    0.4982800000000000 H
   0.3876950000000000    0.5927700000000000    0.9982799999999999 H
   0.1275800000000000    0.0223500000000000    0.4158000000000000 H
   0.1275850000000000    0.0223400000000000    0.9158500000000001 H
   0.1275800000000000    0.5223400000000000    0.4158500000000000 H
   0.1275850000000000    0.5223300000000000    0.9158500000000001 H
   0.3775850000000000    0.0223500000000000    0.4158000000000000 H
   0.3775850000000000    0.0223400000000000    0.9158500000000001 H
   0.3775800000000000    0.5223400000000000    0.4158500000000000 H
   0.3775850000000000    0.5223400000000000    0.9158500000000001 H
   0.2452350000000000    0.3589500000000000    0.1344000000000000 H
   0.2452350000000000    0.3589400000000000    0.6344600000000000 H
   0.2452300000000000    0.8589400000000000    0.1344500000000000 H
   0.2452400000000000    0.8589400000000000    0.6344600000000000 H
   0.4952500000000000    0.3589500000000000    0.1344000000000000 H
   0.4952500000000000    0.3589400000000000    0.6344600000000000 H
   0.4952450000000000    0.8589400000000000    0.1344500000000000 H
   0.4952500000000000    0.8589400000000000    0.6344600000000000 H
   0.0591300000000000    0.3040500000000000    0.1377200000000000 H
   0.0591250000000000    0.8040400000000000    0.1377300000000000 H
   0.0591350000000000    0.8040400000000000    0.6377300000000000 H
   0.3091400000000000    0.3040500000000000    0.1377200000000000 H
   0.3091400000000000    0.3040400000000000    0.6377300000000000 H
   0.3091350000000000    0.8040400000000000    0.1377300000000000 H
   0.3091450000000000    0.8040400000000000    0.6377300000000000 H
   0.0815000000000000    0.3093800000000000    0.2632100000000000 H
   0.0815000000000000    0.8093800000000000    0.2632100000000000 H
   0.0815050000000000    0.8093700000000000    0.7632200000000000 H
   0.3315100000000000    0.3093800000000000    0.2632100000000000 H
   0.3315150000000000    0.3093800000000000    0.7632200000000000 H
   0.3315100000000000    0.8093800000000000    0.2632100000000000 H
   0.3315150000000000    0.8093700000000000    0.7632200000000000 H
   0.0796700000000000    0.2408500000000000    0.2209300000000000 H
   0.0796650000000000    0.7408500000000000    0.2209200000000000 H
   0.0796750000000000    0.7408400000000001    0.7209300000000000 H
   0.3296800000000000    0.2408500000000000    0.2209300000000000 H
   0.3296800000000000    0.2408500000000000    0.7209300000000000 H
   0.3296750000000000    0.7408500000000000    0.2209200000000000 H
   0.3296850000000000    0.7408400000000001    0.7209000000000000 H
   0.2435500000000000    0.2276900000000000    0.1700000000000000 H
   0.2435600000000000    0.2277000000000000    0.6701000000000000 H
   0.2435550000000000    0.7277000000000000    0.1700000000000000 H
   0.2435550000000000    0.7276800000000000    0.6701000000000000 H
   0.4935550000000000    0.2276900000000000    0.1700000000000000 H
   0.4935650000000000    0.2277000000000000    0.6701000000000000 H
   0.4935600000000000    0.7277000000000000    0.1700000000000000 H
   0.1828200000000000    0.7879100000000000    0.6762300000000000 H
   0.4328200000000000    0.2879200000000000    0.1762200000000000 H
   0.4328250000000000    0.2879200000000000    0.6762300000000000 H
   0.4328250000000000    0.7879200000000000    0.1762200000000000 H
   0.4328250000000000    0.7879100000000000    0.6762300000000000 H
   0.0220900000000000    0.4991300000000000    0.4003100000000000 H
   0.0220950000000000    0.4991200000000000    0.9003200000000000 H
   0.0220900000000000    0.9991200000000000    0.4003100000000000 H
   0.0220950000000000    0.9991100000000001    0.9003200000000000 H
   0.2720950000000000    0.4991200000000000    0.4003100000000000 H
   0.2721000000000000    0.4991100000000000    0.9003000000000000 H
   0.2720950000000000    0.9991200000000000    0.4003100000000000 H
   0.2720950000000000    0.9991100000000001    0.9003000000000000 H
   0.0382200000000000    0.4234900000000000    0.4393000000000000 H
   0.0382250000000000    0.4234800000000000    0.9393100000000000 H
   0.0382200000000000    0.9234800000000000    0.4393000000000000 H
   0.0382200000000000    0.9234700000000000    0.9393100000000000 H
   0.2882250000000000    0.4234900000000000    0.4393000000000000 H
   0.2882300000000000    0.4234800000000000    0.9393100000000000 H
   0.2882250000000000    0.9234800000000000    0.4393000000000000 H
   0.2882250000000000    0.9234700000000000    0.9393100000000000 H
   0.0428100000000000    0.0021200000000000    0.0165000000000000 H
   0.0428150000000000    0.0021200000000000    0.5165800000000000 H
   0.0428100000000000    0.5021200000000000    0.0165000000000000 H
   0.0428100000000000    0.5021200000000000    0.5165800000000000 H
   0.2928150000000000    0.0021200000000000    0.0165000000000000 H
   0.2928200000000000    0.0021200000000000    0.5165800000000000 H
   0.2928100000000000    0.5021200000000000    0.0165000000000000 H
   0.2928150000000000    0.5021200000000000    0.5165800000000000 H
   0.0418300000000000    0.0709800000000000    0.4665700000000000 H
   0.0418300000000000    0.0709700000000000    0.9665700000000000 H
   0.0418250000000000    0.5709700000000000    0.4665700000000000 H
   0.0418300000000000    0.5709600000000000    0.9665700000000000 H
   0.2918300000000000    0.0709700000000000    0.4665700000000000 H
   0.2918350000000000    0.0709700000000000    0.9665700000000000 H
   0.2918300000000000    0.5709700000000000    0.4665700000000000 H
   0.2918350000000000    0.5709600000000000    0.9665700000000000 H
   0.1622300000000000    0.4088300000000000    0.4416100000000000 H
   0.1622300000000000    0.4088300000000000    0.9416099999999999 H
   0.1622300000000000    0.9088300000000000    0.4416100000000000 H
   0.1622300000000000    0.9088200000000000    0.9416099999999999 H
   0.4122300000000000    0.4088300000000000    0.4416100000000000 H
   0.4122350000000000    0.4088300000000000    0.9416099999999999 H
   0.4122300000000000    0.9088300000000000    0.4416100000000000 H
   0.4122350000000000    0.9088200000000000    0.9416099999999999 H
   0.1123000000000000    0.4071900000000000    0.0017000000000000 H
   0.1123000000000000    0.4071900000000000    0.5017200000000001 H
   0.1123000000000000    0.9071800000000000    0.0017200000000000 H
   0.1123000000000000    0.9071800000000000    0.5017200000000001 H
   0.3623000000000000    0.4071900000000000    0.0017000000000000 H
   0.3623050000000000    0.4071900000000000    0.5017200000000001 H
   0.3623000000000000    0.9071800000000000    0.0017000000000000 H
   0.3623050000000000    0.9071800000000000    0.5017200000000001 H
   0.6223850000000000    0.4776400000000000    0.0841500000000000 H
   0.6223850000000000    0.4776400000000000    0.5841000000000000 H
   0.6223800000000000    0.9776400000000000    0.0841500000000000 H
   0.6223850000000000    0.9776300000000000    0.5841499999999999 H
   0.8723850000000000    0.4776400000000000    0.0841500000000000 H
   0.8723900000000000    0.4776400000000000    0.5841499999999999 H
   0.8723850000000000    0.9776400000000000    0.0841500000000000 H
   0.8723850000000000    0.9776300000000000    0.5841499999999999 H
   0.5047350000000000    0.1410300000000000    0.3655500000000000 H
   0.5047350000000000    0.1410200000000000    0.8655000000000000 H
   0.5047300000000000    0.6410200000000000    0.3655500000000000 H
   0.5047350000000000    0.6410200000000000    0.8655600000000000 H
   0.7547450000000000    0.1410300000000000    0.3655500000000000 H
   0.7547450000000000    0.1410200000000000    0.8655000000000000 H
   0.7547400000000000    0.6410300000000000    0.3655500000000000 H
   0.7547500000000000    0.6410200000000000    0.8655600000000000 H
   0.6908550000000000    0.1959500000000000    0.3622800000000000 H
   0.6908550000000000    0.1959400000000000    0.8622900000000000 H
   0.6908500000000000    0.6959400000000000    0.3622800000000000 H
   0.6908550000000000    0.6959300000000000    0.8622000000000000 H
   0.9408600000000000    0.1959500000000000    0.3622800000000000 H
   0.9408550000000000    0.6959400000000000    0.3622800000000000 H
   0.9408650000000001    0.6959400000000000    0.8622800000000000 H
   0.6684800000000000    0.1906100000000000    0.2367900000000000 H
   0.6684850000000000    0.1906000000000000    0.7368000000000000 H
   0.6684800000000000    0.6906000000000000    0.2367900000000000 H
   0.6684850000000000    0.6905900000000000    0.7368000000000000 H
   0.9184900000000000    0.1906100000000000    0.2367900000000000 H
   0.9184900000000000    0.6906000000000000    0.2367900000000000 H
   0.9184900000000000    0.6906000000000000    0.7368000000000000 H
   0.6703200000000000    0.2591300000000000    0.2790800000000000 H
   0.6703150000000000    0.2591400000000000    0.7790800000000000 H
   0.6703100000000000    0.7591400000000000    0.2790700000000000 H
   0.6703200000000000    0.7591200000000000    0.7790899999999999 H
   0.9203250000000001    0.2591300000000000    0.2790800000000000 H
   0.9203200000000000    0.7591400000000000    0.2790700000000000 H
   0.9203300000000000    0.7591200000000000    0.7790899999999999 H
   0.5064350000000000    0.2722800000000000    0.3299100000000000 H
   0.5064400000000000    0.2722900000000000    0.8299200000000000 H
   0.5064350000000000    0.7722900000000000    0.3299100000000000 H
   0.5064350000000000    0.7722700000000000    0.8299200000000000 H
   0.7564400000000000    0.2722800000000000    0.3299100000000000 H
   0.7564500000000001    0.2722900000000000    0.8299000000000000 H
   0.7564450000000000    0.7722900000000000    0.3299100000000000 H
   0.7564450000000000    0.7722700000000000    0.8299200000000000 H
   0.5671700000000000    0.2120600000000000    0.3237800000000000 H
   0.5671750000000000    0.2120600000000000    0.8237800000000000 H
   0.5671700000000000    0.7120600000000000    0.3237800000000000 H
   0.5671750000000000    0.7120500000000000    0.8237900000000000 H
   0.9935600000000000    0.7276800000000000    0.6701000000000000 H
   0.6828149999999999    0.2879200000000000    0.1762200000000000 H
   0.6828200000000000    0.2879200000000000    0.6762300000000000 H
   0.6828149999999999    0.7879200000000000    0.1762200000000000 H
   0.8171800000000000    0.2120600000000000    0.3237800000000000 H
   0.8171850000000001    0.2120600000000000    0.8237000000000000 H
   0.8171800000000000    0.7120600000000000    0.3237800000000000 H
   0.8171850000000001    0.7120500000000000    0.8237900000000000 H
   0.7278950000000000    0.0008600000000000    0.0996900000000000 H
   0.7279000000000000    0.0008500000000000    0.5996899999999999 H
   0.7278950000000000    0.5008500000000000    0.0996900000000000 H
   0.7278950000000000    0.5008400000000000    0.5996899999999999 H
   0.9779000000000000    0.0008600000000000    0.0996900000000000 H
   0.9779050000000000    0.0008500000000000    0.5996899999999999 H
   0.9779000000000000    0.5008500000000000    0.0996900000000000 H
   0.9779000000000000    0.5008400000000000    0.5996899999999999 H
   0.7117599999999999    0.0764900000000000    0.0606900000000000 H
   0.7117650000000000    0.0764800000000000    0.5607000000000000 H
   0.7117599999999999    0.5764800000000000    0.0606900000000000 H
   0.7117650000000000    0.5764800000000000    0.5607000000000000 H
   0.9617650000000000    0.0764900000000000    0.0606900000000000 H
   0.9617700000000000    0.0764800000000000    0.5600000000000001 H
   0.9617650000000000    0.5764800000000000    0.0606900000000000 H
   0.9617700000000000    0.5764800000000000    0.5600000000000001 H
   0.7071750000000000    0.4978600000000000    0.4834300000000000 H
   0.7071750000000000    0.4978500000000000    0.9834300000000000 H
   0.7071700000000000    0.9978500000000000    0.4834300000000000 H
   0.7071750000000000    0.9978500000000000    0.9834300000000000 H
   0.9571750000000000    0.4978600000000000    0.4834300000000000 H
   0.9571799999999999    0.4978500000000000    0.9834300000000000 H
   0.9571750000000000    0.9978500000000000    0.4834300000000000 H
   0.9571799999999999    0.9978500000000000    0.9834300000000000 H
   0.7081600000000000    0.4290100000000000    0.0334000000000000 H
   0.7081649999999999    0.4290000000000000    0.5334000000000000 H
   0.7081600000000000    0.9290000000000000    0.0334000000000000 H
   0.7081649999999999    0.9290000000000000    0.5334000000000000 H
   0.9581649999999999    0.4290000000000000    0.0334400000000000 H
   0.9581649999999999    0.4290000000000000    0.5334000000000000 H
   0.9581649999999999    0.9290000000000000    0.0334000000000000 H
   0.9581649999999999    0.9289900000000000    0.5334000000000000 H
   0.5877600000000001    0.0911500000000000    0.0583900000000000 H
   0.5877650000000000    0.0911400000000000    0.5584000000000000 H
   0.5877600000000001    0.5911400000000000    0.0583900000000000 H
   0.5877650000000000    0.5911400000000000    0.5583900000000001 H
   0.8377650000000000    0.0911500000000000    0.0583900000000000 H
   0.8377650000000000    0.0911400000000000    0.5584000000000000 H
   0.8377600000000001    0.5911400000000000    0.0583900000000000 H
   0.8377650000000000    0.5911400000000000    0.5580000000000001 H
   0.6376900000000000    0.0927800000000000    0.4982000000000000 H
   0.6376950000000000    0.0927800000000000    0.9982799999999999 H
   0.6376900000000000    0.5927800000000000    0.4982800000000000 H
   0.6376950000000000    0.5927700000000000    0.9982799999999999 H
   0.8876950000000000    0.0927800000000000    0.4982000000000000 H
   0.8876950000000000    0.0927800000000000    0.9982799999999999 H
   0.8876950000000000    0.5927800000000000    0.4982800000000000 H
   0.8876950000000000    0.5927700000000000    0.9982799999999999 H
   0.6275800000000000    0.0223500000000000    0.4158000000000000 H
   0.6275850000000001    0.0223400000000000    0.9158500000000001 H
   0.6275800000000000    0.5223400000000000    0.4158500000000000 H
   0.6275850000000001    0.5223300000000000    0.9158500000000001 H
   0.8775850000000001    0.0223500000000000    0.4158000000000000 H
   0.8775850000000001    0.0223400000000000    0.9158500000000001 H
   0.8775800000000000    0.5223400000000000    0.4158500000000000 H
   0.8775850000000001    0.5223400000000000    0.9158500000000001 H
   0.7452350000000000    0.3589500000000000    0.1344000000000000 H
   0.7452350000000000    0.3589400000000000    0.6344600000000000 H
   0.7452300000000001    0.8589400000000000    0.1344500000000000 H
   0.7452400000000000    0.8589400000000000    0.6344600000000000 H
   0.9952500000000000    0.3589500000000000    0.1344000000000000 H
   0.9952449999999999    0.8589400000000000    0.1344500000000000 H
   0.9952500000000000    0.8589400000000000    0.6344600000000000 H
   0.5591300000000000    0.3040500000000000    0.1377200000000000 H
   0.5591300000000000    0.3040400000000000    0.6377300000000000 H
   0.5591250000000000    0.8040400000000000    0.1377300000000000 H
   0.5591350000000000    0.8040400000000000    0.6377300000000000 H
   0.8091400000000000    0.3040500000000000    0.1377200000000000 H
   0.8091400000000000    0.3040400000000000    0.6377300000000000 H
   0.8091349999999999    0.8040400000000000    0.1377300000000000 H
   0.8091450000000000    0.8040400000000000    0.6377300000000000 H
   0.5815000000000000    0.3093800000000000    0.2632100000000000 H
   0.5815049999999999    0.3093800000000000    0.7632200000000000 H
   0.5815000000000000    0.8093800000000000    0.2632100000000000 H
   0.5815049999999999    0.8093700000000000    0.7632200000000000 H
   0.8315100000000000    0.3093800000000000    0.2632100000000000 H
   0.8315150000000000    0.3093800000000000    0.7632200000000000 H
   0.8315100000000000    0.8093800000000000    0.2632100000000000 H
   0.8315150000000000    0.8093700000000000    0.7632200000000000 H
   0.5796700000000000    0.2408500000000000    0.2209300000000000 H
   0.5796700000000000    0.2408500000000000    0.7209300000000000 H
   0.5796650000000000    0.7408500000000000    0.2209200000000000 H
   0.5796749999999999    0.7408400000000001    0.7209300000000000 H