H8 O4
1.0
  35.2045903036118375    0.0000000000000000   18.2569019977333440
   5.8423127883036399   12.7277984888261759    3.0363509203413623
   0.0000000000000000    0.0000000000000000   28.6739999999999995
H O
8 4
direct
   0.5114222561885696    0.4018640399304444    0.3057792658614660 H
   0.5257772270412400    0.4247093582136550    0.2991279783548231 H
   0.4742051527580314    0.4016340049533039    0.2876923166275177 H
   0.4840375800647783    0.4074033659440387    0.2872041825588969 H
   0.4885156191749646    0.5981698595187026    0.1943256472331356 H
   0.4742214736419317    0.5752359534954856    0.2007627186959502 H
   0.5257963915222135    0.5983471078755538    0.2123064354255707 H
   0.5159352715871411    0.5926458654972041    0.2128680604318348 H
   0.5150466666666667    0.3730100000000000    0.3201500000000000 O
   0.4849100000000000    0.3596100000000000    0.3135350000000000 O
   0.4849466666666666    0.6269900000000000    0.1798150000000000 O
   0.5150733333333333    0.6404100000000000    0.1864850000000000 O
