H8 C10 N3 O2
1.0
  26.6299999959440186    0.0000000000000000   -0.0004647811797856
  -0.0040594075971909   14.5369985475674248    0.0050743701641994
   0.0000000000000000    0.0000000000000000   29.0740000000000016
H C N O
8 10 3 2
direct
   0.2418300000000000    0.3048600000000000    0.1543200000000000 H
   0.1807100000000000    0.2169600000000000    0.2035100000000000 H
   0.0588200000000000    0.3229100000000000    0.1205250000000000 H
   0.1198450000000000    0.4102200000000000    0.0736150000000000 H
   0.0339300000000000    0.3325300000000000    0.2152850000000000 H
   0.1385900000000000    0.0338600000000000    0.2078200000000000 H
   0.1288650000000000    0.0775000000000000    0.1516800000000000 H
   0.0865450000000000    0.9930900000000000    0.1743500000000000 H
   0.2215300000000000    0.4131400000000000    0.0809150000000000 C
   0.1845500000000000    0.3632100000000000    0.1112050000000000 C
   0.2016150000000000    0.3081700000000000    0.1476250000000000 C
   0.1677950000000000    0.2595400000000000    0.1749900000000000 C
   0.1164850000000000    0.2664700000000000    0.1653150000000000 C
   0.0986300000000000    0.3205600000000000    0.1291400000000000 C
   0.1329550000000000    0.3689200000000000    0.1023550000000000 C
   0.0406750000000000    0.2590500000000000    0.2157800000000000 C
   0.0764250000000000    0.1260400000000000    0.2013700000000000 C
   0.1095750000000000    0.0535300000000000    0.1827500000000000 C
   0.0134150000000000    0.1972500000000000    0.2371200000000000 N
   0.0361250000000000    0.1135000000000000    0.2278600000000000 N
   0.0805200000000000    0.2188000000000000    0.1932400000000000 N
   0.2013150000000000    0.4615800000000000    0.0480700000000000 O
   0.2675450000000000    0.4057500000000000    0.0880350000000000 O
