H6 O4
1.0
  13.6939995307140219    0.0000000000000000    0.0035850807755692
   0.0116607609950026   14.2149952085972036   -0.0004961971062391
   0.0000000000000000    0.0000000000000000   15.9689999999999994
H O
6 4
direct
   0.2196982235827900    0.3818779518999647    0.3928115088047266 H
   0.5029089279276895    0.3527674011134844    0.3915458062427786 H
   0.3648973484936842    0.3773696757393665    0.3828215421363733 H
   0.5299824995644326    0.6283874212904107    0.1175707780812679 H
   0.2469479144572471    0.6581662283663403    1.1188321491131663 H
   0.3846199862970133    0.6343393833520556    1.1284376818527335 H
   0.2755800000000000    0.3494400000000000    0.4165000000000000 O
   0.4407600000000000    0.3333333333333333    0.4149800000000000 O
   0.4739600000000000    0.6582700000000000    0.0915800000000000 O
   0.3088600000000000    0.6747500000000000    1.0932900000000001 O
