H4 C8 O4
1.0
  13.6939995307140219    0.0000000000000000    0.0035850807755692
   0.0116607609950026   14.2149952085972036   -0.0004961971062391
   0.0000000000000000    0.0000000000000000   15.9689999999999994
H C O
4 8 4
direct
   0.5239600000000000    0.4263700000000000    0.3101000000000000 H
   0.2134100000000000    0.4686500000000000    0.3187500000000000 H
   0.5367300000000000    0.5437800000000000    0.1930600000000000 H
   0.2261700000000000    0.5860500000000000    0.2017100000000000 H
   0.3606800000000000    0.3695500000000000    0.3890000000000000 C
   0.3679600000000000    0.4405300000000000    0.3208500000000000 C
   0.4594300000000000    0.4619600000000000    0.2859200000000000 C
   0.2837100000000000    0.4856000000000000    0.2907300000000000 C
   0.3890600000000000    0.6397900000000000    0.1202900000000000 C
   0.3821300000000000    0.5716200000000000    0.1907500000000000 C
   0.4664600000000000    0.5270300000000000    0.2212600000000000 C
   0.2907400000000000    0.5506799999999999    0.2260700000000000 C
   0.2755800000000000    0.3494400000000000    0.4165000000000000 O
   0.4739600000000000    0.6582700000000000    0.0915800000000000 O
   0.4407600000000000    0.3333333333333333    0.4149800000000000 O
   0.3088600000000000    0.6747500000000000    1.0932900000000001 O
