V8 H34 C56 O32
1.0
  13.6939995307140219    0.0000000000000000    0.0035850807755692
   0.0116607609950026   14.2149952085972036   -0.0004961971062391
   0.0000000000000000    0.0000000000000000   15.9689999999999994
V H C O
8 34 56 32
direct
   0.4659000000000000    0.2343000000000000    0.4998400000000000 V
   0.2838000000000000    0.7635600000000000    0.9998899999999999 V
   0.2158800000000000    0.2636200000000000    0.5007500000000000 V
   0.0338200000000000    0.7343300000000000    0.0004700000000000 V
   0.7838000000000001    0.7635600000000000    0.9998899999999999 V
   0.9659000000000000    0.2343000000000000    0.4998500000000000 V
   0.7158800000000000    0.2636200000000000    0.5007500000000000 V
   0.5338200000000000    0.7343400000000000    0.0004600000000000 V
   0.2196982235827900    0.3818779518999647    0.3928115088047266 H
   0.5029089279276895    0.3527674011134844    0.3915458062427786 H
   0.3648973484936842    0.3773696757393665    0.3828215421363733 H
   0.5361100000000000    0.5277800000000000    0.8197400000000000 H
   0.5234200000000000    0.4118400000000000    0.7015200000000000 H
   0.2258800000000000    0.5720000000000000    0.8100600000000000 H
   0.2131900000000000    0.4560700000000000    0.6918299999999999 H
   0.5299824995644326    0.6283874212904107    0.1175707780812679 H
   0.2469479144572471    0.6581662283663403    1.1188321491131663 H
   0.3846199862970133    0.6343393833520556    1.1284376818527335 H
   0.9755700000000000    0.9272899999999999    0.1898000000000000 H
   0.9632200000000000    0.0432100000000000    0.3080700000000000 H
   0.2860300000000000    0.9694900000000000    0.1806400000000000 H
   0.2736900000000000    0.0853900000000000    0.2989300000000000 H
   0.9763100000000000    0.9110000000000000    0.7977100000000000 H
   0.9637700000000000    0.0285100000000000    0.6807100000000000 H
   0.2739200000000000    0.0723700000000000    0.6913600000000000 H
   0.2864700000000000    0.9548400000000000    0.8083300000000000 H
   0.0234000000000000    0.4117600000000000    0.7015900000000000 H
   0.0361000000000000    0.5276999999999999    0.8198000000000000 H
   0.7131800000000000    0.4559800000000000    0.6919200000000000 H
   0.7258700000000000    0.5719000000000000    0.8101500000000000 H
   0.7134300000000000    0.4687600000000000    0.3188600000000000 H
   0.7261800000000000    0.5861700000000000    0.2018200000000000 H
   0.0239700000000000    0.4264600000000000    0.3101700000000000 H
   0.0367300000000000    0.5438499999999999    0.1931300000000000 H
   0.4755700000000000    0.9272300000000000    0.1898400000000000 H
   0.4632200000000000    0.0431400000000000    0.3081100000000000 H
   0.7860100000000000    0.9695800000000000    0.1805600000000000 H
   0.7736700000000000    0.0854800000000000    0.2988500000000000 H
   0.7865000000000000    0.9547700000000000    0.8082000000000000 H
   0.7739500000000000    0.0723000000000000    0.6912900000000000 H
   0.4763100000000000    0.9110700000000000    0.7977600000000000 H
   0.4637700000000000    0.0285800000000000    0.6807600000000000 H
   0.3889500000000000    0.6270400000000000    0.8901200000000000 C
   0.3606700000000000    0.3597700000000000    0.6191300000000000 C
   0.4659000000000000    0.5115600000000000    0.7912300000000000 C
   0.4589200000000000    0.4473400000000000    0.7259000000000000 C
   0.2903400000000000    0.5362800000000000    0.7858500000000000 C
   0.2833600000000000    0.4720700000000000    0.7205200000000000 C
   0.3816900000000000    0.5567100000000000    0.8210000000000000 C
   0.3676400000000000    0.4273900000000000    0.6899000000000000 C
   0.1387600000000000    0.8710200000000000    0.1101000000000000 C
   0.1108000000000000    0.1382700000000000    0.3813000000000000 C
   0.0401600000000000    0.9625400000000000    0.2141300000000000 C
   0.0333700000000000    0.0267400000000000    0.2794900000000000 C
   0.1177900000000000    0.0708300000000000    0.3102700000000000 C
   0.2158400000000000    0.9861500000000000    0.2090600000000000 C
   0.2090500000000000    0.0503600000000000    0.2744400000000000 C
   0.1315100000000000    0.9415000000000000    0.1787400000000000 C
   0.1109600000000000    0.1284400000000000    0.6114000000000001 C
   0.1389400000000000    0.8580700000000000    0.8800900000000000 C
   0.0408300000000000    0.9467500000000000    0.7738100000000000 C
   0.0339200000000000    0.0118800000000000    0.7091800000000000 C
   0.2094400000000000    0.0364100000000000    0.7150000000000000 C
   0.2163500000000000    0.9712800000000000    0.7797100000000000 C
   0.1181200000000000    0.0574200000000000    0.6796600000000000 C
   0.1320600000000000    0.9262400000000000    0.8096400000000000 C
   0.8889500000000000    0.6270000000000000    0.8901500000000000 C
   0.8606600000000000    0.3597300000000000    0.6191700000000000 C
   0.9589100000000000    0.4472600000000000    0.7259700000000000 C
   0.9658900000000000    0.5114800000000000    0.7913000000000000 C
   0.8816900000000000    0.5566300000000000    0.8214600000000000 C
   0.7833400000000000    0.4719800000000000    0.7206000000000000 C
   0.7903200000000000    0.5361800000000000    0.7859300000000000 C
   0.8676300000000000    0.4273100000000000    0.6900500000000001 C
   0.8606800000000000    0.3696000000000000    0.3891200000000000 C
   0.8890700000000000    0.6398300000000000    0.1203300000000000 C
   0.7837300000000000    0.4857000000000000    0.2908300000000000 C
   0.7907600000000000    0.5507800000000000    0.2261700000000000 C
   0.8679700000000000    0.4406100000000000    0.3209200000000000 C
   0.9594400000000000    0.4620400000000000    0.2860000000000000 C
   0.9664700000000001    0.5271200000000000    0.2213400000000000 C
   0.8821400000000000    0.5716900000000000    0.1908200000000000 C
   0.6108000000000000    0.1382700000000000    0.3812900000000000 C
   0.6387500000000000    0.8710200000000000    0.1100900000000000 C
   0.5401600000000000    0.9625100000000000    0.2141400000000000 C
   0.5333700000000000    0.0267100000000000    0.2795100000000000 C
   0.6177800000000000    0.0708400000000000    0.3102000000000000 C
   0.7158200000000000    0.9862000000000000    0.2090100000000000 C
   0.7090300000000000    0.0504100000000000    0.2743900000000000 C
   0.6315100000000000    0.9415200000000000    0.1787200000000000 C
   0.6389500000000000    0.8580700000000000    0.8800900000000000 C
   0.6109700000000000    0.1284400000000000    0.6114800000000000 C
   0.7163700000000000    0.9712400000000000    0.7796700000000000 C
   0.7094600000000000    0.0363700000000000    0.7150600000000000 C
   0.6320800000000000    0.9262400000000000    0.8096000000000000 C
   0.5408400000000000    0.9467800000000000    0.7738300000000000 C
   0.5339300000000000    0.0119200000000000    0.7092000000000001 C
   0.6181300000000000    0.0574200000000000    0.6796500000000000 C
   0.2755800000000000    0.3494400000000000    0.4165000000000000 O
   0.4407600000000000    0.3333333333333333    0.4149800000000000 O
   0.4741100000000000    0.6470800000000000    0.9174099999999999 O
   0.3088700000000000    0.6628800000000000    0.9164200000000000 O
   0.2756900000000000    0.3414700000000000    0.5905300000000000 O
   0.4408100000000000    0.3249600000000000    0.5918000000000000 O
   0.4739600000000000    0.6582700000000000    0.0915800000000000 O
   0.3088600000000000    0.6747500000000000    1.0932900000000001 O
   0.0587400000000000    0.8351900000000000    0.0838100000000000 O
   0.2239600000000000    0.8508100000000000    0.0820000000000000 O
   0.0257100000000000    0.1567500000000000    0.4096900000000000 O
   0.1908800000000000    0.1727000000000000    0.4089100000000000 O
   0.0259400000000000    0.1483500000000000    0.5837000000000000 O
   0.1910700000000000    0.1648600000000000    0.5860100000000000 O
   0.2238200000000000    0.8396600000000000    0.9089000000000000 O
   0.0587500000000000    0.8230600000000000    0.9069000000000000 O
   0.9741100000000000    0.6470600000000000    0.9174400000000000 O
   0.8088700000000000    0.6628700000000000    0.9164400000000000 O
   0.7756900000000000    0.3414600000000000    0.5905400000000000 O
   0.9408100000000000    0.3249300000000000    0.5919000000000000 O
   0.7755800000000000    0.3494500000000000    0.4165100000000000 O
   0.9407700000000000    0.3333900000000000    0.4150300000000000 O
   0.9739600000000000    0.6582900000000000    0.0916100000000000 O
   0.8088600000000000    0.6747600000000000    0.0933100000000000 O
   0.5257100000000000    0.1567300000000000    0.4097000000000000 O
   0.6908800000000000    0.1727200000000000    0.4088900000000000 O
   0.7239600000000000    0.8508200000000000    0.0828000000000000 O
   0.5587400000000000    0.8351900000000000    0.0838100000000000 O
   0.7238300000000000    0.8396600000000000    0.9089000000000000 O
   0.5587700000000000    0.8230700000000000    0.9069500000000000 O
   0.5259500000000000    0.1483500000000000    0.5837300000000000 O
   0.6910800000000000    0.1648500000000000    0.5800000000000000 O
