H6 O4
1.0
  13.1838090284007965    0.0000000000000000   -4.7399661921428997
  -7.4596535853363708   14.4952997243451573   -4.0053992670116392
   0.0000000000000000    0.0000000000000000   16.8180000000000014
H O
6 4
direct
   0.8023620095228833    0.0891798846729798    0.4109640272352906 H
   0.1116078936306148    0.1785080318580028    0.4278914358442920 H
  -0.0381033694115343    0.1273645530827128    0.4242572310783860 H
   0.1976966899816835    0.9108293870439788    0.5890082211483177 H
   0.8884774987395511    0.8215410607557027    0.5721326476348519 H
   1.0381783792056529    0.8726680939058942    0.5757378525855646 H
   0.8612900000000000    0.1293900000000000    0.4008000000000000 O
   0.0389900000000000    0.1799700000000000    0.4109600000000000 O
   0.1387800000000000    0.8706300000000000    0.5991900000000000 O
   0.9610900000000000    0.8200700000000000    0.5890600000000000 O
