H4 O2
1.0
  13.1838090284007965    0.0000000000000000   -4.7399661921428997
  -7.4596535853363708   14.4952997243451573   -4.0053992670116392
   0.0000000000000000    0.0000000000000000   16.8180000000000014
H O
4 2
direct
   0.9391412119942912    0.7062739393363714    0.9032142060290751 H
   0.8911295854839726    0.7555042588581667    0.9694624918944422 H
   0.5607454294643660    0.0965716606450219    0.2933131000048249 H
   0.6087161981701421    0.0301987582349044    0.2441125076704083 H
   0.8750400000000000    0.7117000000000000    0.9107499999999999 O
   0.6248300000000000    0.0890000000000000    0.2878800000000000 O
