H8 C10 N4
1.0
  13.1838090284007965    0.0000000000000000   -4.7399661921428997
  -7.4596535853363708   14.4952997243451573   -4.0053992670116392
   0.0000000000000000    0.0000000000000000   16.8180000000000014
H C N
8 10 4
direct
   0.9422900000000000    0.6556999999999999    0.8335700000000000 H
   0.1454600000000000    0.7509100000000000    0.9567500000000000 H
   0.0229100000000000    0.8802400000000000    0.1255600000000000 H
   0.8239000000000000    0.7758100000000000    0.9981000000000000 H
   0.5576000000000000    0.1663200000000000    0.3438500000000000 H
   0.3544000000000000    0.0430300000000000    0.2487300000000000 H
   0.4768700000000000    0.8739200000000000    0.1195000000000000 H
   0.6759300000000000    0.0014900000000000    0.2238300000000000 H
   0.9637600000000000    0.7041900000000000    0.9003200000000000 C
   0.0759400000000000    0.7573500000000000    0.9681200000000000 C
   0.0990000000000000    0.8233600000000000    0.0503300000000000 C
   0.0072600000000000    0.8294000000000000    0.0625000000000000 C
   0.8972400000000000    0.7721400000000000    0.9917600000000000 C
   0.5361300000000000    0.0994800000000000    0.2954000000000000 C
   0.4239100000000000    0.0316200000000000    0.2422900000000000 C
   0.4008100000000000    0.9493200000000001    0.1763200000000000 C
   0.4925300000000000    0.9370800000000000    0.1703000000000000 C
   0.6026000000000000    0.0078800000000000    0.2275000000000000 C
   0.8750400000000000    0.7117000000000000    0.9107499999999999 N
   0.2096500000000000    0.8898700000000000    0.1213900000000000 N
   0.6248300000000000    0.0890000000000000    0.2878800000000000 N
   0.2901600000000000    0.8782400000000000    0.1098200000000000 N
