Zn8 H34 C60 N8 O30
1.0
  13.1838090284007965    0.0000000000000000   -4.7399661921428997
  -7.4596535853363708   14.4952997243451573   -4.0053992670116392
   0.0000000000000000    0.0000000000000000   16.8180000000000014
Zn H C N O
8 34 60 8 30
direct
   0.5402100000000000    0.3606200000000000    0.2751900000000000 Zn
   0.2123500000000000    0.7971300000000000    0.6615700000000000 Zn
   0.9600400000000000    0.7250600000000000    0.6401000000000000 Zn
   0.7121499999999999    0.6610600000000000    0.7970400000000000 Zn
   0.4598500000000000    0.6394100000000000    0.7248300000000000 Zn
   0.7877200000000000    0.2029100000000000    0.3384500000000000 Zn
   0.0400200000000000    0.2749900000000000    0.3599200000000000 Zn
   0.2879100000000000    0.3389700000000000    0.2029800000000000 Zn
   0.6488000000000000    0.4764000000000000    0.1084300000000000 H
   0.1275900000000000    0.0636400000000000    0.0415300000000000 H
   0.0577600000000000    0.3443200000000000    0.1664500000000000 H
   0.8546100000000000    0.2491000000000000    0.0432700000000000 H
   0.9771700000000000    0.1197900000000000    0.8744600000000000 H
   0.1761700000000000    0.2242400000000000    0.0019200000000000 H
   0.2917200000000000    0.4305800000000000    0.0475000000000000 H
   0.5059000000000000    0.1626400000000000    0.1383900000000000 H
   0.8515700000000000    0.8918700000000001    0.5240300000000000 H
   0.3727200000000000    0.9589700000000000    0.9366300000000000 H
   0.1477600000000000    0.4486800000000000    0.5117600000000000 H
   0.4424600000000000    0.8337100000000000    0.6561000000000000 H
   0.6456600000000000    0.9570000000000000    0.7512900000000000 H
   0.5232100000000000    0.1261300000000000    0.8804999999999999 H
   0.3241400000000000    0.9985600000000000    0.7761800000000000 H
   0.2083800000000000    0.9522699999999999    0.5694300000000000 H
   0.9944600000000000    0.8619800000000000    0.8378000000000000 H
   0.3512700000000000    0.5236200000000000    0.8915900000000000 H
   0.8724700000000000    0.9363899999999999    0.9585000000000000 H
   0.9422900000000000    0.6556999999999999    0.8335700000000000 H
   0.1454600000000000    0.7509100000000000    0.9567500000000000 H
   0.0229100000000000    0.8802400000000000    0.1255600000000000 H
   0.8239000000000000    0.7758100000000000    0.9981000000000000 H
   0.7083500000000000    0.5694300000000000    0.9524300000000000 H
   0.4941600000000000    0.8374000000000000    0.8616400000000000 H
   0.1485000000000000    0.1081700000000000    0.4759800000000000 H
   0.6273400000000000    0.0410700000000000    0.0633900000000000 H
   0.8522999999999999    0.5513600000000000    0.4882000000000000 H
   0.5576000000000000    0.1663200000000000    0.3438500000000000 H
   0.3544000000000000    0.0430300000000000    0.2487300000000000 H
   0.4768700000000000    0.8739200000000000    0.1195000000000000 H
   0.6759300000000000    0.0014900000000000    0.2238300000000000 H
   0.7916900000000000    0.0477600000000000    0.4305800000000000 H
   0.0056000000000000    0.1380500000000000    0.1622200000000000 H
   0.4592000000000000    0.4228700000000000    0.1287500000000000 C
   0.4786200000000000    0.4628500000000000    0.0624400000000000 C
   0.5837900000000000    0.4868100000000000    0.0607000000000000 C
   0.3930900000000000    0.4763300000000000    0.0000000000000000 C
   0.3483800000000000    0.1820800000000000    0.1457200000000000 C
   0.2999300000000000    0.0927200000000000    0.0677900000000000 C
   0.1809700000000000    0.0406700000000000    0.0180200000000000 C
   0.3706500000000000    0.0621700000000000    0.0393100000000000 C
   0.0363100000000000    0.2958400000000000    0.0997000000000000 C
   0.9241200000000001    0.2426700000000000    0.0319000000000000 C
   0.9010700000000000    0.1766700000000000    0.9496900000000000 C
   0.9928100000000000    0.1706300000000000    0.9375300000000000 C
   0.1028300000000000    0.2279000000000000    0.0082700000000000 C
   0.0410700000000000    0.8713200000000000    0.5774200000000000 C
   0.0215700000000000    0.9376500000000000    0.5373599999999999 C
   0.9164500000000000    0.9394700000000000    0.5134300000000001 C
   0.1069400000000000    0.9993500000000000    0.5236100000000000 C
   0.1519000000000000    0.8547800000000000    0.8182700000000001 C
   0.2003900000000000    0.9326500000000000    0.9076500000000000 C
   0.3193400000000000    0.9824400000000000    0.9596600000000000 C
   0.1296600000000000    0.9610600000000000    0.9382500000000000 C
   0.2397400000000000    0.6232900000000000    0.6193500000000000 C
   0.1159700000000000    0.5628600000000000    0.5584800000000000 C
   0.0320500000000000    0.5936200000000000    0.5531000000000000 C
   0.0819300000000000    0.4706200000000000    0.5059399999999999 C
   0.4639400000000000    0.9005500000000000    0.7046200000000000 C
   0.5761600000000000    0.9684199999999999    0.7577300000000000 C
   0.5992600000000000    0.0507200000000000    0.8236900000000000 C
   0.5075400000000000    0.0629700000000000    0.8297099999999999 C
   0.3974700000000000    0.9921600000000000    0.7725000000000000 C
   0.5408400000000000    0.5770999999999999    0.8712299999999999 C
   0.5214600000000000    0.5372000000000000    0.9376000000000000 C
   0.4162700000000000    0.5132100000000001    0.9393100000000000 C
   0.6069700000000000    0.5236800000000000    0.9994000000000000 C
   0.6516800000000000    0.8179700000000000    0.8542800000000000 C
   0.7001300000000000    0.9073099999999999    0.9322500000000000 C
   0.8190800000000000    0.9593500000000000    0.9820100000000000 C
   0.6294000000000000    0.9378700000000000    0.9607100000000000 C
   0.9637600000000000    0.7041900000000000    0.9003200000000000 C
   0.0759400000000000    0.7573500000000000    0.9681200000000000 C
   0.0990000000000000    0.8233600000000000    0.0503300000000000 C
   0.0072600000000000    0.8294000000000000    0.0625000000000000 C
   0.8972400000000000    0.7721400000000000    0.9917600000000000 C
   0.9590100000000000    0.1287200000000000    0.4226000000000000 C
   0.9785100000000000    0.0623800000000000    0.4626500000000000 C
   0.0836300000000000    0.0605600000000000    0.4865800000000000 C
   0.8931400000000000    0.0000000000000000    0.4764000000000000 C
   0.8481500000000000    0.1452700000000000    0.1817400000000000 C
   0.7996700000000000    0.0673800000000000    0.0923800000000000 C
   0.6807200000000000    0.0176000000000000    0.0403700000000000 C
   0.8703900000000000    0.0389700000000000    0.0617700000000000 C
   0.7603200000000000    0.3767400000000000    0.3807000000000000 C
   0.8840900000000000    0.4371700000000000    0.4415400000000000 C
   0.9680100000000000    0.4064100000000000    0.4469000000000000 C
   0.9181300000000000    0.5294200000000000    0.4940900000000000 C
   0.5361300000000000    0.0994800000000000    0.2954000000000000 C
   0.4239100000000000    0.0316200000000000    0.2422900000000000 C
   0.4008100000000000    0.9493200000000001    0.1763200000000000 C
   0.4925300000000000    0.9370800000000000    0.1703000000000000 C
   0.6026000000000000    0.0078800000000000    0.2275000000000000 C
   0.1250300000000000    0.2883400000000000    0.0892700000000000 N
   0.7904200000000000    0.1101500000000000    0.8786300000000000 N
   0.3752300000000000    0.9110300000000000    0.7121300000000000 N
   0.7099100000000000    0.1218000000000000    0.8901900000000000 N
   0.8750400000000000    0.7117000000000000    0.9107499999999999 N
   0.2096500000000000    0.8898700000000000    0.1213900000000000 N
   0.6248300000000000    0.0890000000000000    0.2878800000000000 N
   0.2901600000000000    0.8782400000000000    0.1098200000000000 N
   0.3614400000000000    0.4010100000000000    0.1293100000000000 O
   0.5394300000000000    0.4115700000000000    0.1802600000000000 O
   0.2894500000000000    0.4546800000000000    0.9985100000000000 O
   0.2811100000000000    0.2115300000000000    0.1596000000000000 O
   0.4586600000000000    0.2257600000000000    0.1941500000000000 O
   0.4862600000000000    0.1074600000000000    0.0853100000000000 O
   0.1387800000000000    0.8706300000000000    0.5991900000000000 O
   0.9610900000000000    0.8200700000000000    0.5890600000000000 O
   0.2105600000000000    0.0013100000000000    0.5452100000000000 O
   0.2191500000000000    0.8409400000000000    0.7887800000000000 O
   0.0416200000000000    0.8062500000000000    0.7747000000000001 O
   0.0140500000000000    0.9150600000000000    0.8929700000000000 O
   0.0590800000000000    0.6811199999999999    0.6037600000000000 O
   0.2845800000000000    0.7112300000000000    0.6530800000000000 O
   0.3011600000000000    0.5813600000000000    0.6356200000000000 O
   0.6386400000000000    0.5990300000000000    0.8707200000000000 O
   0.4606600000000000    0.5884800000000000    0.8197800000000000 O
   0.7106100000000000    0.5453300000000000    0.0015000000000000 O
   0.7189500000000000    0.7884900000000000    0.8403700000000000 O
   0.5413900000000000    0.7742599999999999    0.8058900000000000 O
   0.5137900000000000    0.8925700000000000    0.9147200000000000 O
   0.8612900000000000    0.1293900000000000    0.4008000000000000 O
   0.0389900000000000    0.1799700000000000    0.4109600000000000 O
   0.7895100000000000    0.9987200000000001    0.4547900000000000 O
   0.7809100000000000    0.1591000000000000    0.2112400000000000 O
   0.9584300000000000    0.1937700000000000    0.2253000000000000 O
   0.9860100000000001    0.0849700000000000    0.1070600000000000 O
   0.9409800000000000    0.3189200000000000    0.3962700000000000 O
   0.7154800000000000    0.2888000000000000    0.3469300000000000 O
   0.6989000000000000    0.4186700000000000    0.3644000000000000 O
