H7 O4
1.0
  21.1099999196190780    0.0000000000000000    0.0018421950231430
   0.0126189995666372   15.4647284662411195   -8.9202927769374032
   0.0000000000000000    0.0000000000000000   35.7060000000000031
H O
7 4
direct
   0.9534768282657116    0.7161184004388611    0.6004212169043831 H
   0.8799564295367863    0.7015991821708835    0.5799536272466264 H
   0.9083037847871673    0.9300073806687188    0.7255361096200489 H
   0.8725974087522674    0.9420078892358619    0.6901428196682143 H
   0.7324612876616234    0.8528170155574748    0.7505588646494071 H
   0.7005156723317963    0.8537673544210564    0.7431355294705650 H
   0.7770279594519973   -0.0141690417067093    0.7602301977073667 H
   0.9218400000000000    0.6777900000000000    0.5796600000000000 O
   0.8675900000000000    0.9457700000000000    0.7182800000000000 O
   0.7084600000000000    0.9087700000000000    0.7447000000000000 O
   0.7580600000000000    0.0300500000000000    0.7556000000000000 O
