Zn24 H345 C253 N46 Cl24 O46
1.0
  21.1099999196190780    0.0000000000000000    0.0018421950231430
   0.0126189995666372   15.4647284662411195   -8.9202927769374032
   0.0000000000000000    0.0000000000000000   35.7060000000000031
Zn H C N Cl O
24 345 253 46 24 46
direct
   0.9417700000000000    0.5473000000000000    0.0389350000000000 Zn
   0.2751600000000000    0.5306800000000000    0.2263500000000000 Zn
   0.7751500000000000    0.5307400000000000    0.2263750000000000 Zn
   0.1085000000000000    0.9222500000000000    0.2347650000000000 Zn
   0.6084900000000000    0.9222600000000000    0.2347850000000000 Zn
   0.1918300000000000    0.4526500000000000    0.4610250000000000 Zn
   0.6918299999999999    0.4526600000000000    0.4610350000000000 Zn
   0.0251500000000000    0.4693800000000000    0.2735900000000000 Zn
   0.5251300000000000    0.4693700000000000    0.2735950000000000 Zn
   0.3584700000000000    0.0778500000000000    0.2652950000000000 Zn
   0.8584500000000000    0.0778700000000000    0.2653000000000000 Zn
   0.4417800000000000    0.5472500000000000    0.0389000000000000 Zn
   0.9417700000000000    0.5473000000000000    0.5389349999999999 Zn
   0.2751600000000000    0.5306800000000000    0.7263500000000001 Zn
   0.7751500000000000    0.5307400000000000    0.7263750000000000 Zn
   0.1085000000000000    0.9222500000000000    0.7347650000000000 Zn
   0.6084900000000000    0.9222600000000000    0.7347850000000000 Zn
   0.1918300000000000    0.4526500000000000    0.9610250000000000 Zn
   0.6918299999999999    0.4526600000000000    0.9610350000000000 Zn
   0.0251500000000000    0.4693800000000000    0.7735900000000000 Zn
   0.5251300000000000    0.4693700000000000    0.7735950000000000 Zn
   0.3584700000000000    0.0778500000000000    0.7652950000000001 Zn
   0.8584500000000000    0.0778700000000000    0.7653000000000000 Zn
   0.4417800000000000    0.5472500000000000    0.5389000000000000 Zn
   0.4938900000000000    0.4772300000000000    0.4645650000000000 H
   0.9938800000000000    0.4772800000000000    0.4645650000000000 H
   0.0953700000000000    0.4897400000000000    0.3512450000000000 H
   0.5953500000000000    0.4897000000000000    0.3512400000000000 H
   0.4140300000000000    0.5535000000000000    0.3328450000000000 H
   0.9140200000000001    0.5535000000000000    0.3328300000000000 H
   0.3834100000000000    0.6011100000000000    0.4091350000000000 H
   0.8834000000000000    0.6011100000000000    0.4091200000000000 H
   0.0733800000000000    0.5339500000000000    0.4278450000000000 H
   0.5733700000000000    0.5338900000000000    0.4278400000000000 H
   0.4960200000000000    0.6275400000000000    0.4928950000000000 H
   0.9960000000000000    0.6275900000000000    0.4928500000000000 H
   0.4140400000000000    0.6260500000000000    0.4807700000000000 H
   0.9140200000000001    0.6260800000000000    0.4807600000000000 H
   0.3822900000000000    0.4728900000000000    0.4233700000000000 H
   0.8822900000000000    0.4728900000000000    0.4233600000000000 H
   0.3726100000000000    0.3232200000000000    0.4024850000000000 H
   0.8726300000000000    0.3232300000000000    0.4024850000000000 H
   0.4461800000000000    0.2475600000000000    0.4256850000000000 H
   0.9462000000000000    0.2476100000000000    0.4257050000000000 H
   0.4020700000000000    0.3257900000000000    0.4705700000000000 H
   0.9020700000000000    0.3258300000000000    0.4705800000000000 H
   0.4817900000000000    0.3469900000000000    0.4645450000000000 H
   0.9817900000000001    0.3470700000000000    0.4645700000000000 H
   0.5113400000000000    0.3685200000000000    0.3966350000000000 H
   0.0000000000000000    0.3685700000000000    0.3966550000000000 H
   0.4480400000000000    0.3681800000000000    0.3638000000000000 H
   0.9480700000000000    0.3681900000000000    0.3638000000000000 H
   0.4705500000000000    0.2706900000000000    0.3618800000000000 H
   0.9705800000000000    0.2707200000000000    0.3618950000000000 H
   0.3272700000000000    0.4518300000000000    0.2613200000000000 H
   0.8272600000000000    0.4518800000000000    0.2613450000000000 H
   0.4287000000000000    0.2126900000000000    0.2550950000000000 H
   0.9286799999999999    0.2127300000000000    0.2551200000000000 H
   0.2474100000000000    0.1123500000000000    0.2232600000000000 H
   0.7474000000000000    0.1123700000000000    0.2232500000000000 H
   0.2168500000000000    0.2173400000000000    0.1994200000000000 H
   0.7168500000000000    0.2173700000000000    0.1994200000000000 H
   0.4067800000000000    0.3216900000000000    0.2329550000000000 H
   0.9067700000000000    0.3217400000000000    0.2329950000000000 H
   0.3295200000000000    0.3583200000000000    0.1861650000000000 H
   0.8295200000000000    0.3583700000000000    0.1861900000000000 H
   0.2475300000000000    0.3356300000000000    0.1869200000000000 H
   0.7475400000000000    0.3356800000000000    0.1869350000000000 H
   0.2157800000000000    0.3737700000000000    0.2635450000000000 H
   0.7157600000000000    0.3738100000000000    0.2635500000000000 H
   0.2059300000000000    0.4816800000000000    0.3383750000000000 H
   0.7059000000000000    0.4817000000000000    0.3383850000000000 H
   0.2794100000000000    0.6037600000000000    0.3761050000000000 H
   0.7793600000000001    0.6037700000000000    0.3761300000000000 H
   0.2352400000000000    0.6151900000000000    0.3369800000000000 H
   0.7352200000000000    0.6152200000000000    0.3370050000000000 H
   0.3149900000000000    0.5819700000000000    0.3263350000000000 H
   0.8149700000000000    0.5820000000000000    0.3263700000000000 H
   0.3447200000000000    0.4247100000000000    0.3156900000000000 H
   0.8446800000000000    0.4247200000000000    0.3157200000000000 H
   0.2814800000000000    0.3594600000000000    0.3159800000000000 H
   0.7814300000000000    0.3594700000000000    0.3159500000000000 H
   0.3039100000000000    0.4531600000000000    0.3646600000000000 H
   0.8038500000000000    0.4531600000000000    0.3646750000000000 H
   0.1605100000000000    0.0709500000000000    0.2740700000000000 H
   0.6605100000000000    0.0709500000000000    0.2740500000000000 H
   0.2621500000000000    0.2973200000000000    0.3935550000000000 H
   0.7621500000000000    0.2973000000000000    0.3935700000000000 H
   0.0808900000000000    0.3344100000000000    0.4439500000000000 H
   0.5808800000000000    0.3344300000000000    0.4439600000000000 H
   0.0502100000000000    0.1819300000000000    0.3914750000000000 H
   0.5502000000000000    0.1819400000000000    0.3914850000000000 H
   0.2401000000000000    0.1442100000000000    0.3390450000000000 H
   0.7400900000000000    0.1441900000000000    0.3390700000000000 H
   0.1627600000000000    0.0142300000000000    0.3209050000000000 H
   0.6627400000000000    0.0142300000000000    0.3209250000000000 H
   0.0807900000000000    0.0386500000000000    0.3323350000000000 H
   0.5807700000000000    0.0386600000000000    0.3323550000000000 H
   0.0488600000000000    0.1533700000000000    0.3130850000000000 H
   0.5488600000000000    0.1533900000000000    0.3131000000000000 H
   0.0391100000000000    0.1951200000000000    0.2591000000000000 H
   0.5391300000000000    0.1951200000000000    0.2591050000000000 H
   0.1127600000000000    0.1486800000000000    0.1981150000000000 H
   0.6127899999999999    0.1486400000000000    0.1981200000000000 H
   0.0686900000000000    0.0589400000000000    0.1923550000000000 H
   0.5686900000000000    0.0589300000000000    0.1923700000000000 H
   0.1484000000000000    0.0709400000000000    0.2090200000000000 H
   0.6484000000000000    0.0708900000000000    0.2090350000000000 H
   0.1778300000000000    0.2068000000000000    0.2876350000000000 H
   0.6778400000000000    0.2067600000000000    0.2876450000000000 H
   0.1144900000000000    0.2725400000000000    0.3202450000000000 H
   0.6145100000000000    0.2725400000000000    0.3202500000000000 H
   0.1369900000000000    0.2762700000000000    0.2730000000000000 H
   0.6370300000000000    0.2762400000000000    0.2733950000000000 H
   0.2438500000000000    0.5226400000000000    0.0353900000000000 H
   0.7438600000000000    0.5226499999999999    0.0353900000000000 H
   0.3454400000000000    0.5101900000000000    0.1486550000000000 H
   0.8454500000000000    0.5102200000000000    0.1486750000000000 H
   0.1642000000000000    0.4466000000000000    0.1671950000000000 H
   0.6641899999999999    0.4466600000000000    0.1672000000000000 H
   0.1335600000000000    0.3989200000000000    0.0909000000000000 H
   0.6335700000000000    0.3989400000000000    0.0909150000000000 H
   0.3234300000000000    0.4659300000000000    0.0720550000000000 H
   0.8234500000000000    0.4659300000000000    0.0720700000000000 H
   0.2461200000000000    0.3723200000000000    0.0070650000000000 H
   0.7461600000000000    0.3723400000000000    0.0070750000000000 H
   0.1641500000000000    0.3738800000000000    0.0192400000000000 H
   0.6641899999999999    0.3738600000000000    0.0192450000000000 H
   0.1322500000000000    0.5271100000000000    0.0766250000000000 H
   0.6322800000000000    0.5270899999999999    0.0766400000000000 H
   0.1224600000000000    0.6767700000000000    0.0974300000000000 H
   0.6224499999999999    0.6767500000000000    0.0974000000000000 H
   0.1960600000000000    0.7522000000000000    0.0741400000000000 H
   0.6960300000000000    0.7522000000000000    0.0741450000000000 H
   0.1519600000000000    0.6740100000000000    0.0293050000000000 H
   0.6519200000000001    0.6739900000000000    0.0293150000000000 H
   0.2316800000000000    0.6526500000000000    0.0353000000000000 H
   0.7316500000000000    0.6526500000000000    0.0353000000000000 H
   0.2611800000000000    0.6313000000000000    0.1032850000000000 H
   0.7611900000000000    0.6313100000000000    0.1032800000000000 H
   0.1978600000000000    0.6318600000000000    0.1361600000000000 H
   0.6978900000000000    0.6318600000000000    0.1361650000000000 H
   0.2203600000000000    0.7292500000000000    0.1380100000000000 H
   0.7203700000000000    0.7292500000000000    0.1380050000000000 H
   0.0772400000000000    0.5481400000000000    0.2385900000000000 H
   0.5772100000000000    0.5481400000000000    0.2385900000000000 H
   0.1787500000000000    0.7871400000000000    0.2448900000000000 H
   0.6787200000000000    0.7871300000000000    0.2449000000000000 H
   0.9974800000000000    0.8879600000000000    0.2768100000000000 H
   0.4974600000000000    0.8879899999999999    0.2768300000000000 H
   0.4667600000000000    0.7829100000000000    0.3005600000000000 H
   0.9667700000000000    0.7829000000000000    0.3005500000000000 H
   0.1566900000000000    0.6780300000000000    0.2669150000000000 H
   0.6566500000000000    0.6780100000000000    0.2669150000000000 H
   0.0793400000000000    0.6416600000000000    0.3137700000000000 H
   0.5792800000000000    0.6416500000000001    0.3137750000000000 H
   0.9973600000000000    0.6644600000000001    0.3129700000000000 H
   0.4973000000000000    0.6644400000000000    0.3129500000000000 H
   0.4656100000000000    0.6262500000000000    0.2364000000000000 H
   0.9656300000000000    0.6262900000000000    0.2364150000000000 H
   0.4559000000000000    0.5184200000000000    0.1615600000000000 H
   0.9559000000000000    0.5184700000000000    0.1615750000000000 H
   0.0295200000000000    0.3964200000000000    0.1237800000000000 H
   0.5295400000000000    0.3964100000000000    0.1237800000000000 H
   0.4854300000000000    0.3848500000000000    0.1628900000000000 H
   0.9853900000000000    0.3848900000000000    0.1628950000000000 H
   0.0651300000000000    0.4181200000000000    0.1735200000000000 H
   0.5651400000000000    0.4181200000000000    0.1735250000000000 H
   0.0946400000000000    0.5753900000000000    0.1842300000000000 H
   0.5946100000000000    0.5754100000000000    0.1842350000000000 H
   0.0313300000000000    0.6407100000000000    0.1840050000000000 H
   0.5312800000000000    0.6407000000000000    0.1840000000000000 H
   0.0538400000000000    0.5470500000000000    0.1352900000000000 H
   0.5538200000000000    0.5470500000000000    0.1352900000000000 H
   0.4106000000000000    0.9291199999999999    0.2259450000000000 H
   0.9105700000000000    0.9291300000000000    0.2259400000000000 H
   0.0120200000000000    0.7023900000000000    0.1063050000000000 H
   0.5120200000000000    0.7023600000000000    0.1063000000000000 H
   0.3306600000000000    0.6658700000000000    0.0562000000000000 H
   0.8306500000000000    0.6659000000000000    0.0561850000000000 H
   0.3001400000000000    0.8184900000000001    0.1086500000000000 H
   0.8001100000000000    0.8185100000000000    0.1086850000000000 H
   0.4901500000000000    0.8555800000000000    0.1607950000000000 H
   0.9901000000000000    0.8556100000000000    0.1608050000000000 H
   0.4128700000000000    0.9858100000000000    0.1791300000000000 H
   0.9128100000000000    0.9858300000000000    0.1791300000000000 H
   0.3308800000000000    0.9617100000000000    0.1677650000000000 H
   0.8308200000000000    0.9617100000000000    0.1677750000000000 H
   0.2990400000000000    0.8467700000000000    0.1869450000000000 H
   0.7990000000000000    0.8467900000000000    0.1869600000000000 H
   0.2893000000000000    0.8049300000000000    0.2408750000000000 H
   0.7892900000000000    0.8049500000000001    0.2409000000000000 H
   0.3627600000000000    0.8513500000000001    0.3019100000000000 H
   0.8627800000000000    0.8513600000000000    0.3019150000000000 H
   0.3186200000000000    0.9410900000000000    0.3076500000000000 H
   0.8186400000000000    0.9411100000000000    0.3076650000000000 H
   0.3983700000000000    0.9291199999999999    0.2910500000000000 H
   0.8983800000000000    0.9291199999999999    0.2910450000000000 H
   0.4280800000000000    0.7933300000000000    0.2124300000000000 H
   0.9280500000000000    0.7933200000000000    0.2124200000000000 H
   0.3648600000000000    0.7275900000000000    0.1797700000000000 H
   0.8648200000000000    0.7275900000000000    0.1797750000000000 H
   0.3872800000000000    0.7238100000000000    0.2266150000000000 H
   0.8872600000000000    0.7238100000000000    0.2266150000000000 H
   0.4938900000000000    0.4772300000000000    0.9645650000000000 H
   0.9938800000000000    0.4772800000000000    0.9645650000000000 H
   0.0953700000000000    0.4897400000000000    0.8512450000000000 H
   0.5953500000000000    0.4897000000000000    0.8512400000000000 H
   0.4140300000000000    0.5535000000000000    0.8328450000000001 H
   0.9140200000000001    0.5535000000000000    0.8328300000000000 H
   0.3834100000000000    0.6011100000000000    0.9091350000000000 H
   0.8834000000000000    0.6011100000000000    0.9091199999999999 H
   0.0733800000000000    0.5339500000000000    0.9278450000000000 H
   0.5733700000000000    0.5338900000000000    0.9278400000000000 H
   0.4960200000000000    0.6275400000000000    0.9928950000000001 H
   0.9960000000000000    0.6275900000000000    0.9928500000000000 H
   0.4140400000000000    0.6260500000000000    0.9807699999999999 H
   0.9140200000000001    0.6260800000000000    0.9807600000000001 H
   0.3822900000000000    0.4728900000000000    0.9233700000000000 H
   0.8822900000000000    0.4728900000000000    0.9233600000000000 H
   0.3726100000000000    0.3232200000000000    0.9024850000000000 H
   0.8726300000000000    0.3232300000000000    0.9024850000000000 H
   0.4461800000000000    0.2475600000000000    0.9256850000000000 H
   0.9462000000000000    0.2476100000000000    0.9257050000000000 H
   0.4020700000000000    0.3257900000000000    0.9705699999999999 H
   0.9020700000000000    0.3258300000000000    0.9705800000000000 H
   0.4817900000000000    0.3469900000000000    0.9645450000000000 H
   0.9817900000000001    0.3470700000000000    0.9645699999999999 H
   0.5113400000000000    0.3685200000000000    0.8966350000000001 H
   0.0000000000000000    0.3685700000000000    0.8966550000000000 H
   0.4480400000000000    0.3681800000000000    0.8638000000000000 H
   0.9480700000000000    0.3681900000000000    0.8638000000000000 H
   0.4705500000000000    0.2706900000000000    0.8618800000000000 H
   0.9705800000000000    0.2707200000000000    0.8618950000000001 H
   0.3272700000000000    0.4518300000000000    0.7613200000000000 H
   0.8272600000000000    0.4518800000000000    0.7613449999999999 H
   0.4287000000000000    0.2126900000000000    0.7550950000000001 H
   0.9286799999999999    0.2127300000000000    0.7551200000000000 H
   0.2474100000000000    0.1123500000000000    0.7232600000000000 H
   0.7474000000000000    0.1123700000000000    0.7232499999999999 H
   0.2168500000000000    0.2173400000000000    0.6994199999999999 H
   0.7168500000000000    0.2173700000000000    0.6994199999999999 H
   0.4067800000000000    0.3216900000000000    0.7329550000000000 H
   0.9067700000000000    0.3217400000000000    0.7329950000000001 H
   0.3295200000000000    0.3583200000000000    0.6861650000000000 H
   0.8295200000000000    0.3583700000000000    0.6861900000000000 H
   0.2475300000000000    0.3356300000000000    0.6869200000000000 H
   0.7475400000000000    0.3356800000000000    0.6869350000000000 H
   0.2157800000000000    0.3737700000000000    0.7635449999999999 H
   0.7157600000000000    0.3738100000000000    0.7635500000000000 H
   0.2059300000000000    0.4816800000000000    0.8383750000000000 H
   0.7059000000000000    0.4817000000000000    0.8383849999999999 H
   0.2794100000000000    0.6037600000000000    0.8761050000000000 H
   0.7793600000000001    0.6037700000000000    0.8761300000000001 H
   0.2352400000000000    0.6151900000000000    0.8369800000000001 H
   0.7352200000000000    0.6152200000000000    0.8370050000000000 H
   0.3149900000000000    0.5819700000000000    0.8263350000000000 H
   0.8149700000000000    0.5820000000000000    0.8263700000000000 H
   0.3447200000000000    0.4247100000000000    0.8156900000000000 H
   0.8446800000000000    0.4247200000000000    0.8157200000000000 H
   0.2814800000000000    0.3594600000000000    0.8159799999999999 H
   0.7814300000000000    0.3594700000000000    0.8159500000000000 H
   0.3039100000000000    0.4531600000000000    0.8646600000000000 H
   0.8038500000000000    0.4531600000000000    0.8646750000000001 H
   0.1605100000000000    0.0709500000000000    0.7740700000000000 H
   0.6605100000000000    0.0709500000000000    0.7740500000000000 H
   0.2621500000000000    0.2973200000000000    0.8935550000000000 H
   0.7621500000000000    0.2973000000000000    0.8935700000000000 H
   0.0808900000000000    0.3344100000000000    0.9439500000000001 H
   0.5808800000000000    0.3344300000000000    0.9439600000000000 H
   0.0502100000000000    0.1819300000000000    0.8914750000000000 H
   0.5502000000000000    0.1819400000000000    0.8914850000000001 H
   0.2401000000000000    0.1442100000000000    0.8390450000000000 H
   0.7400900000000000    0.1441900000000000    0.8390700000000000 H
   0.1627600000000000    0.0142300000000000    0.8209050000000000 H
   0.6627400000000000    0.0142300000000000    0.8209250000000000 H
   0.0807900000000000    0.0386500000000000    0.8323350000000000 H
   0.5807700000000000    0.0386600000000000    0.8323550000000000 H
   0.0488600000000000    0.1533700000000000    0.8130850000000001 H
   0.5488600000000000    0.1533900000000000    0.8130999999999999 H
   0.0391100000000000    0.1951200000000000    0.7591000000000000 H
   0.5391300000000000    0.1951200000000000    0.7591049999999999 H
   0.1127600000000000    0.1486800000000000    0.6981150000000000 H
   0.6127899999999999    0.1486400000000000    0.6981200000000000 H
   0.0686900000000000    0.0589400000000000    0.6923550000000001 H
   0.5686900000000000    0.0589300000000000    0.6923700000000000 H
   0.1484000000000000    0.0709400000000000    0.7090200000000000 H
   0.6484000000000000    0.0708900000000000    0.7090350000000000 H
   0.1778300000000000    0.2068000000000000    0.7876350000000000 H
   0.6778400000000000    0.2067600000000000    0.7876449999999999 H
   0.1144900000000000    0.2725400000000000    0.8202450000000000 H
   0.6145100000000000    0.2725400000000000    0.8202499999999999 H
   0.1369900000000000    0.2762700000000000    0.7730000000000000 H
   0.6370300000000000    0.2762400000000000    0.7733950000000001 H
   0.2438500000000000    0.5226400000000000    0.5353900000000000 H
   0.7438600000000000    0.5226499999999999    0.5353900000000000 H
   0.3454400000000000    0.5101900000000000    0.6486550000000000 H
   0.8454500000000000    0.5102200000000000    0.6486750000000000 H
   0.1642000000000000    0.4466000000000000    0.6671950000000000 H
   0.6641899999999999    0.4466600000000000    0.6672000000000000 H
   0.1335600000000000    0.3989200000000000    0.5909000000000000 H
   0.6335700000000000    0.3989400000000000    0.5909150000000000 H
   0.3234300000000000    0.4659300000000000    0.5720550000000000 H
   0.8234500000000000    0.4659300000000000    0.5720700000000000 H
   0.2461200000000000    0.3723200000000000    0.5070650000000000 H
   0.7461600000000000    0.3723400000000000    0.5070750000000001 H
   0.1641500000000000    0.3738800000000000    0.5192400000000000 H
   0.6641899999999999    0.3738600000000000    0.5192450000000000 H
   0.1322500000000000    0.5271100000000000    0.5766249999999999 H
   0.6322800000000000    0.5270899999999999    0.5766400000000000 H
   0.1224600000000000    0.6767700000000000    0.5974300000000000 H
   0.6224499999999999    0.6767500000000000    0.5974000000000000 H
   0.1960600000000000    0.7522000000000000    0.5741400000000000 H
   0.6960300000000000    0.7522000000000000    0.5741450000000000 H
   0.1519600000000000    0.6740100000000000    0.5293050000000000 H
   0.6519200000000001    0.6739900000000000    0.5293150000000000 H
   0.2316800000000000    0.6526500000000000    0.5353000000000000 H
   0.7316500000000000    0.6526500000000000    0.5353000000000000 H
   0.2611800000000000    0.6313000000000000    0.6032850000000000 H
   0.7611900000000000    0.6313100000000000    0.6032800000000000 H
   0.1978600000000000    0.6318600000000000    0.6361600000000001 H
   0.6978900000000000    0.6318600000000000    0.6361650000000000 H
   0.2203600000000000    0.7292500000000000    0.6380100000000000 H
   0.7203700000000000    0.7292500000000000    0.6380049999999999 H
   0.0772400000000000    0.5481400000000000    0.7385900000000000 H
   0.5772100000000000    0.5481400000000000    0.7385900000000000 H
   0.1787500000000000    0.7871400000000000    0.7448900000000001 H
   0.6787200000000000    0.7871300000000000    0.7449000000000000 H
   0.9974800000000000    0.8879600000000000    0.7768100000000000 H
   0.4974600000000000    0.8879899999999999    0.7768300000000000 H
   0.4667600000000000    0.7829100000000000    0.8005599999999999 H
   0.9667700000000000    0.7829000000000000    0.8005500000000000 H
   0.1566900000000000    0.6780300000000000    0.7669150000000000 H
   0.6566500000000000    0.6780100000000000    0.7669150000000000 H
   0.0793400000000000    0.6416600000000000    0.8137700000000000 H
   0.5792800000000000    0.6416500000000001    0.8137750000000000 H
   0.9973600000000000    0.6644600000000001    0.8129700000000000 H
   0.4973000000000000    0.6644400000000000    0.8129500000000001 H
   0.4656100000000000    0.6262500000000000    0.7363999999999999 H
   0.9656300000000000    0.6262900000000000    0.7364150000000000 H
   0.4559000000000000    0.5184200000000000    0.6615600000000000 H
   0.9559000000000000    0.5184700000000000    0.6615750000000000 H
   0.0295200000000000    0.3964200000000000    0.6237800000000000 H
   0.5295400000000000    0.3964100000000000    0.6237800000000000 H
   0.4854300000000000    0.3848500000000000    0.6628900000000000 H
   0.9853900000000000    0.3848900000000000    0.6628950000000000 H
   0.0651300000000000    0.4181200000000000    0.6735200000000000 H
   0.5651400000000000    0.4181200000000000    0.6735250000000000 H
   0.0946400000000000    0.5753900000000000    0.6842300000000000 H
   0.5946100000000000    0.5754100000000000    0.6842350000000000 H
   0.0313300000000000    0.6407100000000000    0.6840050000000000 H
   0.5312800000000000    0.6407000000000000    0.6839999999999999 H
   0.0538400000000000    0.5470500000000000    0.6352900000000000 H
   0.5538200000000000    0.5470500000000000    0.6352900000000000 H
   0.4106000000000000    0.9291199999999999    0.7259450000000001 H
   0.5120200000000000    0.7023600000000000    0.6063000000000001 H
   0.3306600000000000    0.6658700000000000    0.5562000000000000 H
   0.3001400000000000    0.8184900000000001    0.6086500000000000 H
   0.4901500000000000    0.8555800000000000    0.6607950000000000 H
   0.4128700000000000    0.9858100000000000    0.6791300000000000 H
   0.3308800000000000    0.9617100000000000    0.6677649999999999 H
   0.2990400000000000    0.8467700000000000    0.6869450000000000 H
   0.2893000000000000    0.8049300000000000    0.7408750000000000 H
   0.3627600000000000    0.8513500000000001    0.8019100000000000 H
   0.3186200000000000    0.9410900000000000    0.8076500000000000 H
   0.3983700000000000    0.9291199999999999    0.7910500000000000 H
   0.4280800000000000    0.7933300000000000    0.7124300000000000 H
   0.3648600000000000    0.7275900000000000    0.6797700000000000 H
   0.3872800000000000    0.7238100000000000    0.7266150000000000 H
   0.9754100000000000    0.5697300000000000    0.4249550000000000 C
   0.0359100000000000    0.5390400000000000    0.4081800000000000 C
   0.5358900000000000    0.5389900000000000    0.4081500000000000 C
   0.4584800000000000    0.5891900000000000    0.4699750000000000 C
   0.1310300000000000    0.2329800000000000    0.2867100000000000 C
   0.6310500000000000    0.2329600000000000    0.2867150000000000 C
   0.2990600000000000    0.4859400000000000    0.1345050000000000 C
   0.7990699999999999    0.4859700000000000    0.1345000000000000 C
   0.1975700000000000    0.4495600000000000    0.1447600000000000 C
   0.0489800000000000    0.5140200000000000    0.3654200000000000 C
   0.5489600000000000    0.5139800000000000    0.3654200000000000 C
   0.4474300000000000    0.5504800000000000    0.3552400000000000 C
   0.9474200000000000    0.5504800000000000    0.3552300000000000 C
   0.4310200000000000    0.5765700000000000    0.3977400000000000 C
   0.9310100000000000    0.5765800000000000    0.3977300000000000 C
   0.4754200000000000    0.5696900000000000    0.4249600000000000 C
   0.9584600000000000    0.5892300000000000    0.4699700000000000 C
   0.3393400000000000    0.4647800000000000    0.4745000000000000 C
   0.8393300000000000    0.4648000000000000    0.4745200000000000 C
   0.3980500000000000    0.4524300000000000    0.4463350000000000 C
   0.8980399999999999    0.4524500000000000    0.4463300000000000 C
   0.4166100000000000    0.3561800000000000    0.4188900000000000 C
   0.9166200000000000    0.3562000000000000    0.4188950000000000 C
   0.4380100000000000    0.3172900000000000    0.4465050000000000 C
   0.9380200000000000    0.3173400000000000    0.4465250000000000 C
   0.4645600000000000    0.3405700000000000    0.3835500000000000 C
   0.9645800000000000    0.3406000000000000    0.3835500000000000 C
   0.3823300000000000    0.2168300000000000    0.2429600000000000 C
   0.8823100000000000    0.2168700000000000    0.2429850000000000 C
   0.2808200000000000    0.1601300000000000    0.2247500000000000 C
   0.7808100000000000    0.1601500000000000    0.2247550000000000 C
   0.2644500000000000    0.2190000000000000    0.2116700000000000 C
   0.7644400000000000    0.2190400000000000    0.2116500000000000 C
   0.3088600000000000    0.2802600000000000    0.2150500000000000 C
   0.8088500000000000    0.2803100000000000    0.2151100000000000 C
   0.3693100000000000    0.2773100000000000    0.2304200000000000 C
   0.8692900000000000    0.2773600000000000    0.2304500000000000 C
   0.2919500000000000    0.3508100000000000    0.2053400000000000 C
   0.7919400000000000    0.3508600000000000    0.2053600000000000 C
   0.1726700000000000    0.4841100000000000    0.2675650000000000 C
   0.6726600000000000    0.4841600000000000    0.2675500000000000 C
   0.2314300000000000    0.4401600000000000    0.2737500000000000 C
   0.7314200000000000    0.4402000000000000    0.2737500000000000 C
   0.2499300000000000    0.4815300000000000    0.3218750000000000 C
   0.7499000000000000    0.4815500000000000    0.3218900000000000 C
   0.2712300000000000    0.5756200000000000    0.3412400000000000 C
   0.7712100000000000    0.5756400000000000    0.3412700000000000 C
   0.2979400000000000    0.4265400000000000    0.3297100000000000 C
   0.7979000000000001    0.4265500000000000    0.3297250000000000 C
   0.2157500000000000    0.2690500000000000    0.3915250000000000 C
   0.7157500000000000    0.2690400000000000    0.3915450000000000 C
   0.1142500000000000    0.2895600000000000    0.4200100000000000 C
   0.6142400000000000    0.2895800000000000    0.4200200000000000 C
   0.0978200000000000    0.2046200000000000    0.3905800000000000 C
   0.5978100000000000    0.2046300000000000    0.3905900000000000 C
   0.1421800000000000    0.1501500000000000    0.3598800000000000 C
   0.6421700000000000    0.1501500000000000    0.3599000000000000 C
   0.2026600000000000    0.1835800000000000    0.3612500000000000 C
   0.7026500000000000    0.1835700000000000    0.3613100000000000 C
   0.1252100000000000    0.0601500000000000    0.3246500000000000 C
   0.6251900000000000    0.0601500000000000    0.3246500000000000 C
   0.0059700000000000    0.0510500000000000    0.2579050000000000 C
   0.5059700000000000    0.0510700000000000    0.2579250000000000 C
   0.0646400000000000    0.1074300000000000    0.2799000000000000 C
   0.5646400000000000    0.1074400000000000    0.2799200000000000 C
   0.0831400000000000    0.1623100000000000    0.2592000000000000 C
   0.5831499999999999    0.1623000000000000    0.2592100000000000 C