H9 O6
1.0
   7.6877034811175120    0.0000000000000000    0.7162794052698249
   6.1220653748559677   27.6424163945149317   11.3539045010182065
   0.0000000000000000    0.0000000000000000   13.4629999999999992
H O
9 6
direct
   0.3026855391601784    0.9507807078529993    0.1805472022998016 H
   0.4079336011471716    0.9413776457807387    0.9823885781277846 H
   0.4031177160373394    0.9117431980949551    1.0489665251273745 H
   0.2381277807844979    0.8290724375392594    0.0119458592513296 H
   0.4533177250288194    0.7239839972774513    0.2809719775708653 H
   0.3472124877184764    0.7777256500374586    0.1523832474034493 H
   0.2697912314661276    0.7285695367506769   -0.1389626865204503 H
   1.0359829816005099    0.8678236880232011   -0.2060697311619806 H
   0.1481494192915549    0.8014429596914350   -0.1851184967360210 H
   0.2803400000000000    0.9856533333333333    0.1597300000000000 O
   0.3691800000000000    0.9647066666666666    1.0173500000000000 O
   0.2888700000000000    0.7963199999999999    0.0585600000000000 O
   0.4081900000000000    0.7383666666666666    0.2084000000000000 O
   0.2215700000000000    0.7559366666666666   -0.1169799999999999 O
   1.0880700000000001    0.8355399999999999   -0.1577300000000001 O
