H7 C15 O6
1.0
   7.6877034811175120    0.0000000000000000    0.7162794052698249
   6.1220653748559677   27.6424163945149317   11.3539045010182065
   0.0000000000000000    0.0000000000000000   13.4629999999999992
H C O
7 15 6
direct
   0.2795300000000000    0.9187299999999999    0.3269100000000000 H
   0.3455100000000000    0.8774633333333333    0.0520400000000000 H
   0.4009300000000000    0.7555700000000000    0.5263300000000000 H
   0.3132300000000000    0.7699033333333333    0.3646200000000000 H
   0.0673200000000000    0.8841566666666666    0.6563900000000000 H
   0.1121000000000000    0.9026099999999999    0.4621100000000000 H
   0.3428100000000000    0.7368933333333333    0.7200800000000001 H
   0.3219300000000000    0.9539599999999999    0.1157600000000000 C
   0.3133300000000000    0.9030366666666666    0.1837100000000000 C
   0.2918700000000000    0.8903766666666666    0.2944900000000000 C
   0.3305600000000000    0.8199399999999999    0.2045800000000000 C
   0.3447100000000000    0.7820466666666667    0.1575800000000000 C
   0.3304400000000000    0.8678133333333333    0.1382500000000000 C
   0.3244900000000000    0.7838900000000000    0.5537100000000000 C
   0.3138700000000000    0.8074466666666666    0.3156900000000000 C
   0.1396500000000000    0.8562000000000000    0.6269400000000001 C
   0.2019900000000000    0.8094199999999999    0.7008200000000000 C
   0.2905400000000000    0.8426399999999999    0.3624000000000000 C
   0.1676400000000000    0.8664733333333332    0.5180200000000000 C
   0.2618400000000000    0.8306800000000000    0.4789600000000000 C
   0.2939900000000000    0.7732433333333333    0.6629400000000000 C
   0.1700900000000000    0.7988599999999999    0.8178800000000001 C
   0.2803400000000000    0.9856533333333333    0.1597300000000000 O
   0.3691800000000000    0.9647066666666666    1.0173500000000000 O
   0.2888700000000000    0.7963199999999999    0.0585600000000000 O
   0.4081900000000000    0.7383666666666666    0.2084000000000000 O
   1.0880700000000001    0.8355399999999999   -0.1577300000000001 O
   0.2215700000000000    0.7559366666666666   -0.1169799999999999 O
