C6 O1 F4
1.0
  12.9099999292130043    0.0000000000000000    0.0013519320361240
  -0.0199019524778229   18.0999890555903917   -0.0003159045945970
   0.0000000000000000    0.0000000000000000   26.5229999999999997
C O F
6 1 4
direct
   0.6251400000000000    0.8711200000000000    0.2500000000000000 C
   0.6228900000000001    0.7529600000000000    0.2051800000000000 C
   0.6203800000000000    0.8296000000000000    0.2051300000000000 C
   0.6264800000000000    0.7529500000000000    0.2948200000000000 C
   0.6292600000000000    0.8295900000000000    0.2948600000000000 C
   0.6247600000000000    0.7115800000000000    0.2000000000000000 C
   0.6255900000000000    0.9449900000000000    0.2500200000000000 O
   0.6177400000000000    0.7187500000000000    0.1599200000000000 F
   0.6133900000000000    0.8657100000000000    0.1604900000000000 F
   0.6311500000000000    0.7187600000000000    0.3400900000000000 F
   0.6355600000000000    0.8657100000000000    0.3395200000000000 F
