H4 O3
1.0
  12.9099999292130043    0.0000000000000000    0.0013519320361240
  -0.0199019524778229   18.0999890555903917   -0.0003159045945970
   0.0000000000000000    0.0000000000000000   26.5229999999999997
H O
4 3
direct
   0.6246407168008387    0.3910458935483189    0.2500026792002097 H
   0.6957467552199684    0.1298105808058498    0.1874811667335191 H
   0.5537581675417161    1.1298567504426069    0.3124048366926023 H
   0.6245436916787818    0.1457867826979026    0.2500051467051446 H
   0.6246699999999999    0.4451100000000000    0.2500100000000000 O
   0.6673700000000000    0.0966700000000000    0.2127000000000000 O
   0.5825900000000001    1.0967899999999999    0.2872900000000000 O
