H2 O1
1.0
  12.9099999292130043    0.0000000000000000    0.0013519320361240
  -0.0199019524778229   18.0999890555903917   -0.0003159045945970
   0.0000000000000000    0.0000000000000000   26.5229999999999997
H O
2 1
direct
   0.6252606548719661    0.8909261675380876    0.2500053624387540 H
   0.6399534322291017    0.8930216248880594    0.2460216921371760 H
   0.6255900000000000    0.9449900000000000    0.2500200000000000 O
