H4 O2
1.0
  12.9099999292130043    0.0000000000000000    0.0013519320361240
  -0.0199019524778229   18.0999890555903917   -0.0003159045945970
   0.0000000000000000    0.0000000000000000   26.5229999999999997
H O
4 2
direct
   0.4525477955913173    0.4679360458825044    0.3844886467918255 H
   0.5464088550182513    0.5320746819723257    0.3844003944248036 H
   0.4534868780029138    0.4678646848226669    0.6155738550854315 H
   0.5474110197850275    0.5320586508393382    0.6154775016514213 H
   0.4994000000000000    0.5000100000000000    0.3654300000000000 O
   0.5005300000000000    0.4999600000000000    0.6345000000000000 O
