H4 C6 N5
1.0
   5.7154999573444982    0.0000000000000000   -0.0006982800520474
  -1.6113599249124531   31.8087121577310192   -0.0005558786400894
   0.0000000000000000    0.0000000000000000   16.1950000000000003
H C N
4 6 5
direct
   0.4104500000000000    0.5654933333333333    0.4280100000000000 H
   0.2206900000000000    0.6096966666666666    0.3224200000000000 H
   0.7383000000000000    0.5712433333333333    0.1476000000000000 H
   0.9029100000000000    0.5276133333333333    0.2593100000000000 H
   0.4779600000000000    0.5676933333333334    0.3650800000000000 C
   0.3734800000000000    0.5923099999999999    0.3064400000000000 C
   0.4636900000000000    0.5940900000000000    0.2256200000000000 C
   0.6601700000000000    0.5708299999999999    0.2088300000000000 C
   0.7530100000000000    0.5466366666666667    0.2709900000000000 C
   0.3443600000000000    0.6172199999999999    0.1618100000000000 C
   0.6643400000000000    0.5444166666666667    0.3484100000000000 N
   0.4350800000000000    0.6305033333333333    0.0881400000000000 N
   0.2530700000000000    0.6467033333333333    0.0475200000000000 N
   0.0621200000000000    0.6434966666666666    0.0963300000000000 N
   0.1162400000000000    0.6255900000000000    0.1683000000000000 N
