Cu12 H44 C66 N55
1.0
   5.7154999573444982    0.0000000000000000   -0.0006982800520474
  -1.6113599249124531   31.8087121577310192   -0.0005558786400894
   0.0000000000000000    0.0000000000000000   16.1950000000000003
Cu H C N
12 44 66 55
direct
   0.2480600000000000    0.0012400000000000    0.9304900000000000 Cu
   0.2479100000000000    0.1679900000000000    0.5694700000000000 Cu
   0.7515100000000000    0.3317833333333333    0.0695100000000000 Cu
   0.7515600000000000    0.1650600000000000    0.4305100000000000 Cu
   0.2480600000000000    0.3345733333333333    0.9304900000000000 Cu
   0.2479100000000000    0.5013233333333333    0.5694700000000000 Cu
   0.7515100000000000    0.6651166666666666    0.0695100000000000 Cu
   0.7515600000000000    0.4983933333333333    0.4305100000000000 Cu
   0.2480600000000000    0.6679066666666666    0.9304900000000000 Cu
   0.2479100000000000    0.8346566666666666    0.5694700000000000 Cu
   0.7515100000000000    0.9984499999999999    0.0695100000000000 Cu
   0.7515600000000000    0.8317266666666666    0.4305100000000000 Cu
   0.4104500000000000    0.2321600000000000    0.4280100000000000 H
   0.2206900000000000    0.2763633333333333    0.3224200000000000 H
   0.7383000000000000    0.2379100000000000    0.1476000000000000 H
   0.9029100000000000    0.1942800000000000    0.2593100000000000 H
   0.5894800000000000    0.2678000000000000    0.9279600000000000 H
   0.7789400000000000    0.2235300000000000    0.8224100000000000 H
   0.2611600000000000    0.2619433333333333    0.6476000000000000 H
   0.0967300000000000    0.3056133333333333    0.7592500000000000 H
   0.5896400000000001    0.1010900000000000    0.5719500000000000 H
   0.7795500000000000    0.0569033333333333    0.6775600000000001 H
   0.2617800000000000    0.0952966666666667    0.8523600000000000 H
   0.0969700000000000    0.1389100000000000    0.7406500000000000 H
   0.4107200000000000    0.0656200000000000    0.0718700000000000 H
   0.2209200000000000    0.1098333333333333    0.1774600000000000 H
   0.7387800000000000    0.0714400000000000    0.3522800000000000 H
   0.9035400000000000    0.0278266666666667    0.2405700000000000 H
   0.5894800000000000    0.6011333333333333    0.9279600000000000 H
   0.7789400000000000    0.5568633333333333    0.8224100000000000 H
   0.2611600000000000    0.5952766666666667    0.6476000000000000 H
   0.0967300000000000    0.6389466666666666    0.7592500000000000 H
   0.5896400000000001    0.4344233333333333    0.5719500000000000 H
   0.7795500000000000    0.3902366666666667    0.6775600000000001 H
   0.2617800000000000    0.4286300000000000    0.8523600000000000 H
   0.0969700000000000    0.4722433333333333    0.7406500000000000 H
   0.4107200000000000    0.3989533333333333    0.0718700000000000 H
   0.2209200000000000    0.4431666666666667    0.1774600000000000 H
   0.7387800000000000    0.4047733333333333    0.3522800000000000 H
   0.9035400000000000    0.3611600000000000    0.2405700000000000 H
   0.4104500000000000    0.8988266666666667    0.4280100000000000 H
   0.2206900000000000    0.9430299999999999    0.3224200000000000 H
   0.7383000000000000    0.9045766666666666    0.1476000000000000 H
   0.9029100000000000    0.8609466666666666    0.2593100000000000 H
   0.5894800000000000    0.9344666666666666    0.9279600000000000 H
   0.7789400000000000    0.8901966666666666    0.8224100000000000 H
   0.2611600000000000    0.9286099999999999    0.6476000000000000 H
   0.0967300000000000    0.9722799999999999    0.7592500000000000 H
   0.5896400000000001    0.7677566666666666    0.5719500000000000 H
   0.7795500000000000    0.7235699999999999    0.6775600000000001 H
   0.2617800000000000    0.7619633333333333    0.8523600000000000 H
   0.0969700000000000    0.8055766666666666    0.7406500000000000 H
   0.4107200000000000    0.7322866666666666    0.0718700000000000 H
   0.2209200000000000    0.7765000000000000    0.1774600000000000 H
   0.7387800000000000    0.7381066666666667    0.3522800000000000 H
   0.9035400000000000    0.6944933333333333    0.2405700000000000 H
   0.4779600000000000    0.2343600000000000    0.3650800000000000 C
   0.3734800000000000    0.2589766666666666    0.3064400000000000 C
   0.4636900000000000    0.2607566666666666    0.2256200000000000 C
   0.6601700000000000    0.2374966666666666    0.2088300000000000 C
   0.7530100000000000    0.2133033333333333    0.2709900000000000 C
   0.3443600000000000    0.2838866666666666    0.1618100000000000 C
   0.5218100000000000    0.2655700000000000    0.8650400000000000 C
   0.6261500000000000    0.2409200000000000    0.8064300000000000 C
   0.5359200000000000    0.2391333333333333    0.7256100000000000 C
   0.3393600000000000    0.2623733333333333    0.7088200000000000 C
   0.2466600000000000    0.2865966666666667    0.7709500000000000 C
   0.6552100000000000    0.2159833333333333    0.6618300000000000 C
   0.5220700000000000    0.0988666666666667    0.6348700000000000 C
   0.6266400000000000    0.0742666666666667    0.6935100000000000 C
   0.5364200000000000    0.0724866666666667    0.7743200000000000 C
   0.3398400000000000    0.0957133333333333    0.7911200000000000 C
   0.2469100000000000    0.1198933333333333    0.7289700000000000 C
   0.6556999999999999    0.0493633333333333    0.8381200000000000 C
   0.4783200000000000    0.0678600000000000    0.1347800000000000 C
   0.3738100000000000    0.0924666666666667    0.1934200000000000 C
   0.4640300000000000    0.0942333333333333    0.2742400000000000 C
   0.6606600000000000    0.0710166666666667    0.2910400000000000 C
   0.7535800000000000    0.0468400000000000    0.2289000000000000 C
   0.3445600000000000    0.1173166666666667    0.3380400000000000 C
   0.5218100000000000    0.5989033333333333    0.8650400000000000 C
   0.6261500000000000    0.5742533333333333    0.8064300000000000 C
   0.5359200000000000    0.5724666666666667    0.7256100000000000 C
   0.3393600000000000    0.5957066666666666    0.7088200000000000 C
   0.2466600000000000    0.6199300000000000    0.7709500000000000 C
   0.6552100000000000    0.5493166666666667    0.6618300000000000 C
   0.5220700000000000    0.4322000000000000    0.6348700000000000 C
   0.6266400000000000    0.4076000000000000    0.6935100000000000 C
   0.5364200000000000    0.4058200000000000    0.7743200000000000 C
   0.3398400000000000    0.4290466666666666    0.7911200000000000 C
   0.2469100000000000    0.4532266666666667    0.7289700000000000 C
   0.6556999999999999    0.3826966666666666    0.8381200000000000 C
   0.4783200000000000    0.4011933333333333    0.1347800000000000 C
   0.3738100000000000    0.4258000000000000    0.1934200000000000 C
   0.4640300000000000    0.4275666666666667    0.2742400000000000 C
   0.6606600000000000    0.4043500000000000    0.2910400000000000 C
   0.7535800000000000    0.3801733333333333    0.2289000000000000 C
   0.3445600000000000    0.4506500000000000    0.3380400000000000 C
   0.4779600000000000    0.9010266666666666    0.3650800000000000 C
   0.3734800000000000    0.9256433333333333    0.3064400000000000 C
   0.4636900000000000    0.9274233333333333    0.2256200000000000 C
   0.6601700000000000    0.9041633333333332    0.2088300000000000 C
   0.7530100000000000    0.8799699999999999    0.2709900000000000 C
   0.3443600000000000    0.9505533333333333    0.1618100000000000 C
   0.5218100000000000    0.9322366666666666    0.8650400000000000 C
   0.6261500000000000    0.9075866666666665    0.8064300000000000 C
   0.5359200000000000    0.9057999999999999    0.7256100000000000 C
   0.3393600000000000    0.9290400000000000    0.7088200000000000 C
   0.2466600000000000    0.9532633333333334    0.7709500000000000 C
   0.6552100000000000    0.8826499999999999    0.6618300000000000 C
   0.5220700000000000    0.7655333333333333    0.6348700000000000 C
   0.6266400000000000    0.7409333333333333    0.6935100000000000 C
   0.5364200000000000    0.7391533333333333    0.7743200000000000 C
   0.3398400000000000    0.7623799999999999    0.7911200000000000 C
   0.2469100000000000    0.7865599999999999    0.7289700000000000 C
   0.6556999999999999    0.7160299999999999    0.8381200000000000 C
   0.4783200000000000    0.7345266666666667    0.1347800000000000 C
   0.3738100000000000    0.7591333333333333    0.1934200000000000 C
   0.4640300000000000    0.7608999999999999    0.2742400000000000 C
   0.6606600000000000    0.7376833333333332    0.2910400000000000 C
   0.7535800000000000    0.7135066666666666    0.2289000000000000 C
   0.3445600000000000    0.7839833333333333    0.3380400000000000 C
   0.6643400000000000    0.2110833333333333    0.3484100000000000 N
   0.4350800000000000    0.2971700000000000    0.0881400000000000 N
   0.2530700000000000    0.3133700000000000    0.0475200000000000 N
   0.0621200000000000    0.3101633333333333    0.0963300000000000 N
   0.1162400000000000    0.2922566666666667    0.1683000000000000 N
   0.3354800000000000    0.2888600000000000    0.8483700000000000 N
   0.5645800000000000    0.2027400000000000    0.5881100000000000 N
   0.7465800000000000    0.1865300000000000    0.5475300000000000 N
   0.9374500000000000    0.1896900000000000    0.5964000000000000 N
   0.8832700000000000    0.2075766666666667    0.6683900000000000 N
   0.3355800000000000    0.1221133333333333    0.6515500000000000 N
   0.5648700000000000    0.0360900000000000    0.9117800000000000 N
   0.7467900000000000    0.0198600000000000    0.9523700000000000 N
   0.9379300000000000    0.0231200000000000    0.9036500000000000 N
   0.8838200000000001    0.0409866666666667    0.8316400000000000 N
   0.6647900000000000    0.0446066666666667    0.1514800000000000 N
   0.4350300000000000    0.1304766666666667    0.4118300000000000 N
   0.2529800000000000    0.1466600000000000    0.4524300000000000 N
   0.0621700000000000    0.1435166666666667    0.4035300000000000 N
   0.1165200000000000    0.1257200000000000    0.3314700000000000 N
   0.3354800000000000    0.6221933333333334    0.8483700000000000 N
   0.5645800000000000    0.5360733333333333    0.5881100000000000 N
   0.7465800000000000    0.5198633333333333    0.5475300000000000 N
   0.9374500000000000    0.5230233333333333    0.5964000000000000 N
   0.8832700000000000    0.5409100000000000    0.6683900000000000 N
   0.3355800000000000    0.4554466666666667    0.6515500000000000 N
   0.5648700000000000    0.3694233333333333    0.9117800000000000 N
   0.7467900000000000    0.3531933333333333    0.9523700000000000 N
   0.9379300000000000    0.3564533333333333    0.9036500000000000 N
   0.8838200000000001    0.3743200000000000    0.8316400000000000 N
   0.6647900000000000    0.3779400000000000    0.1514800000000000 N
   0.4350300000000000    0.4638099999999999    0.4118300000000000 N
   0.2529800000000000    0.4799933333333333    0.4524300000000000 N
   0.0621700000000000    0.4768500000000000    0.4035300000000000 N
   0.1165200000000000    0.4590533333333333    0.3314700000000000 N
   0.6643400000000000    0.8777499999999999    0.3484100000000000 N
   0.4350800000000000    0.9638366666666667    0.0881400000000000 N
   0.2530700000000000    0.9800366666666667    0.0475200000000000 N
   0.0621200000000000    0.9768300000000000    0.0963300000000000 N
   0.1162400000000000    0.9589233333333333    0.1683000000000000 N
   0.3354800000000000    0.9555266666666666    0.8483700000000000 N
   0.5645800000000000    0.8694066666666667    0.5881100000000000 N
   0.7465800000000000    0.8531966666666666    0.5475300000000000 N
   0.9374500000000000    0.8563566666666667    0.5964000000000000 N
   0.8832700000000000    0.8742433333333333    0.6683900000000000 N
   0.3355800000000000    0.7887799999999999    0.6515500000000000 N
   0.5648700000000000    0.7027566666666666    0.9117800000000000 N
   0.7467900000000000    0.6865266666666666    0.9523700000000000 N
   0.9379300000000000    0.6897866666666667    0.9036500000000000 N
   0.8838200000000001    0.7076533333333332    0.8316400000000000 N
   0.6647900000000000    0.7112733333333333    0.1514800000000000 N
   0.4350300000000000    0.7971433333333333    0.4118300000000000 N
   0.2529800000000000    0.8133266666666666    0.4524300000000000 N
   0.0621700000000000    0.8101833333333333    0.4035300000000000 N
   0.1165200000000000    0.7923866666666666    0.3314700000000000 N
