K16 Y16 C62 O124
1.0
  15.2642031460715053    0.0000000000000000    7.9274272191840867
   7.5812833941025106   16.4480663183092410    3.9362942581578633
   0.0000000000000000    0.0000000000000000   18.5320000000000000
K Y C O
16 16 62 124
direct
   0.4380200000000000    0.1244800000000000    0.6245100000000000 K
   0.4380100000000000    0.6244800000000000    0.1245000000000000 K
   0.4380200000000000    0.6244700000000000    0.6245000000000001 K
   0.9379999999999999    0.1244800000000000    0.1245000000000000 K
   0.9379999999999999    0.1244800000000000    0.6245100000000000 K
   0.9379999999999999    0.6244800000000000    0.1245000000000000 K
   0.9380100000000000    0.6244700000000000    0.6245000000000001 K
   0.0619900000000000    0.3755200000000000    0.3755400000000000 K
   0.0620000000000000    0.3755200000000000    0.8755500000000001 K
   0.0620000000000000    0.8755200000000000    0.3755400000000000 K
   0.0620100000000000    0.8755100000000000    0.8755500000000001 K
   0.5619800000000000    0.3755200000000000    0.3755400000000000 K
   0.5619900000000000    0.3755200000000000    0.8755500000000001 K
   0.5619900000000000    0.8755200000000000    0.3755400000000000 K
   0.5620000000000001    0.8755100000000000    0.8755500000000001 K
   0.4380100000000000    0.1244800000000000    0.1245000000000000 K
   0.3127500000000000    0.3747400000000000    0.3747700000000000 Y
   0.3127600000000000    0.3747400000000000    0.8747700000000000 Y
   0.3127500000000000    0.8747400000000000    0.3747700000000000 Y
   0.3127600000000000    0.8747300000000000    0.8747000000000000 Y
   0.8127400000000000    0.3747400000000000    0.3747700000000000 Y
   0.8127500000000000    0.3747400000000000    0.8747000000000000 Y
   0.8127400000000000    0.8747400000000000    0.3747700000000000 Y
   0.8127500000000000    0.8747300000000000    0.8747700000000000 Y
   0.1872500000000000    0.1252600000000000    0.1252700000000000 Y
   0.1872600000000000    0.1252500000000000    0.6252799999999999 Y
   0.1872500000000000    0.6252600000000000    0.1252800000000000 Y
   0.1872700000000000    0.6252500000000000    0.6252799999999999 Y
   0.6872400000000000    0.1252600000000000    0.1252700000000000 Y
   0.6872500000000000    0.1252600000000000    0.6252799999999999 Y
   0.6872400000000000    0.6252600000000000    0.1252800000000000 Y
   0.6872600000000000    0.6252500000000000    0.6252799999999999 Y
   0.2921900000000000    0.2391500000000000    0.0112000000000000 C
   0.2922000000000000    0.2391400000000000    0.5112400000000000 C
   0.2922000000000000    0.7391400000000000    0.0112000000000000 C
   0.2922000000000000    0.7391400000000000    0.5112400000000000 C
   0.7921800000000000    0.2391400000000000    0.0112400000000000 C
   0.7921899999999999    0.2391400000000000    0.5112400000000000 C
   0.7921899999999999    0.7391400000000000    0.0112300000000000 C
   0.7921899999999999    0.7391400000000000    0.5112400000000000 C
   0.2921800000000000    0.0112300000000000    0.2391700000000000 C
   0.2921900000000000    0.0112200000000000    0.7391799999999999 C
   0.2921900000000000    0.5112200000000000    0.2391600000000000 C
   0.7921700000000000    0.0112300000000000    0.2391700000000000 C
   0.7921899999999999    0.0112200000000000    0.7391799999999999 C
   0.7921800000000000    0.5112200000000000    0.2391600000000000 C
   0.7922000000000000    0.5112100000000001    0.7391700000000000 C
   0.3032600000000000    0.4891000000000000    0.4891400000000000 C
   0.3032700000000000    0.4891000000000000    0.9891500000000000 C
   0.3032700000000000    0.9891000000000000    0.4891500000000000 C
   0.3032800000000000    0.9890900000000000    0.9891600000000000 C
   0.8032500000000000    0.4891100000000000    0.4891000000000000 C
   0.8032600000000000    0.4891000000000000    0.9891500000000000 C
   0.8032600000000000    0.9891000000000000    0.4891500000000000 C
   0.8032700000000000    0.9890900000000000    0.9891600000000000 C
   0.0311700000000000    0.2612100000000000    0.2612300000000000 C
   0.0311800000000000    0.2612000000000000    0.7612400000000000 C
   0.0311700000000000    0.7612000000000000    0.2612300000000000 C
   0.0311900000000000    0.7611900000000000    0.7612300000000000 C
   0.5311600000000000    0.2612000000000000    0.2612300000000000 C
   0.5311700000000000    0.2612000000000000    0.7612400000000000 C
   0.5311600000000000    0.7612000000000000    0.2612300000000000 C
   0.5311700000000000    0.7611900000000000    0.7612400000000000 C
   0.2078100000000000    0.2608600000000000    0.4888100000000000 C
   0.2078200000000000    0.2608600000000000    0.9888100000000000 C
   0.2078200000000000    0.7608600000000000    0.4888000000000000 C
   0.2078200000000000    0.7608500000000000    0.9888100000000000 C
   0.7078000000000000    0.2608600000000000    0.4888100000000000 C
   0.7078100000000001    0.2608500000000000    0.9888100000000000 C
   0.7078100000000001    0.7608600000000000    0.4888000000000000 C
   0.7078200000000000    0.7608500000000000    0.9888100000000000 C
   0.2078100000000000    0.4887800000000000    0.2608800000000000 C
   0.2078200000000000    0.9887800000000000    0.2608700000000000 C
   0.2078300000000000    0.9887700000000000    0.7608800000000000 C
   0.7078000000000000    0.4887900000000000    0.2608800000000000 C
   0.7078100000000001    0.4887800000000000    0.7608900000000000 C
   0.7078100000000001    0.9887800000000000    0.2608700000000000 C
   0.7078200000000000    0.9887700000000000    0.7608800000000000 C
   0.1967400000000000    0.0109100000000000    0.0108900000000000 C
   0.1967400000000000    0.0109000000000000    0.5109000000000000 C
   0.1967400000000000    0.5109000000000000    0.0109000000000000 C
   0.1967500000000000    0.5108900000000000    0.5109000000000000 C
   0.6967300000000000    0.0109000000000000    0.0108900000000000 C
   0.6967300000000000    0.0109000000000000    0.5109000000000000 C
   0.6967300000000000    0.5109000000000000    0.0109000000000000 C
   0.6967400000000000    0.5108900000000000    0.5109000000000000 C
   0.4688300000000000    0.2388000000000000    0.2388100000000000 C
   0.4688500000000000    0.2388000000000000    0.7388200000000000 C
   0.4688300000000000    0.7388000000000000    0.2388100000000000 C
   0.4688500000000000    0.7387899999999999    0.7388200000000000 C
   0.9688200000000000    0.2388000000000000    0.2388100000000000 C
   0.9688300000000000    0.2388000000000000    0.7388200000000000 C
   0.9688200000000000    0.7388000000000000    0.2388100000000000 C
   0.9688400000000000    0.7387899999999999    0.7388200000000000 C
   0.3458600000000000    0.2763100000000000    0.4738700000000000 O
   0.3458700000000000    0.2763000000000000    0.9738800000000000 O
   0.3458600000000000    0.7763099999999999    0.4738700000000000 O
   0.3458700000000000    0.7762900000000000    0.9738800000000000 O
   0.6806700000000000    0.9734000000000000    0.9734300000000000 O
   0.1338500000000000    0.0650000000000000    0.0649800000000000 O
   0.1338500000000000    0.0649900000000000    0.5649900000000000 O
   0.1338500000000000    0.5649900000000000    0.0649900000000000 O
   0.8458500000000000    0.2763100000000000    0.4738700000000000 O
   0.8458599999999999    0.2763000000000000    0.9738800000000000 O
   0.8458500000000000    0.7763099999999999    0.4738700000000000 O
   0.8458599999999999    0.7762900000000000    0.9738700000000000 O
   0.3006500000000000    0.1853600000000000    0.0657000000000000 O
   0.3006600000000000    0.1853500000000000    0.5657100000000000 O
   0.3006500000000000    0.6853600000000000    0.0657000000000000 O
   0.3006600000000000    0.6853500000000000    0.5657000000000000 O
   0.8006400000000000    0.1853600000000000    0.0657000000000000 O
   0.8006500000000000    0.1853500000000000    0.5657100000000000 O
   0.8006400000000000    0.6853600000000000    0.0657000000000000 O
   0.8006500000000000    0.6853500000000000    0.5657000000000000 O
   0.3458600000000000    0.4738400000000000    0.2763300000000000 O
   0.3458500000000000    0.9738500000000000    0.2763400000000000 O
   0.3458700000000000    0.9738400000000000    0.7763400000000000 O
   0.8458400000000000    0.4738500000000000    0.2763300000000000 O
   0.8458599999999999    0.4738400000000000    0.7763400000000000 O
   0.8458500000000000    0.9738500000000000    0.2763400000000000 O
   0.8458599999999999    0.9738400000000000    0.7763400000000000 O
   0.3006300000000000    0.0657000000000000    0.1853900000000000 O
   0.3006400000000000    0.0656900000000000    0.6854000000000000 O
   0.3006400000000000    0.5656900000000000    0.1853900000000000 O
   0.8006200000000000    0.0656900000000000    0.1853900000000000 O
   0.8006300000000000    0.0656900000000000    0.6854000000000000 O
   0.8006200000000000    0.5656900000000000    0.1853900000000000 O
   0.8006400000000000    0.5656800000000000    0.6853900000000001 O
   0.3193300000000000    0.0266000000000000    0.0266200000000000 O
   0.3193400000000000    0.0265900000000000    0.5266200000000000 O
   0.3193300000000000    0.5266000000000000    0.0266200000000000 O
   0.3193500000000000    0.5265900000000000    0.5266200000000000 O
   0.8193200000000000    0.0266000000000000    0.0266200000000000 O
   0.8193300000000000    0.0265900000000000    0.5266200000000000 O
   0.8193200000000000    0.5266000000000000    0.0266200000000000 O
   0.8193400000000000    0.5265900000000000    0.5266200000000000 O
   0.3661600000000000    0.4350100000000000    0.4350500000000000 O
   0.3661600000000000    0.4350100000000000    0.9350600000000000 O
   0.3661600000000000    0.9350100000000000    0.4350600000000000 O
   0.3661700000000000    0.9350000000000001    0.9350600000000000 O
   0.8661400000000000    0.4350200000000000    0.4350500000000000 O
   0.8661500000000000    0.4350100000000000    0.9350600000000000 O
   0.8661400000000000    0.9350100000000000    0.4350600000000000 O
   0.8661600000000000    0.9350000000000001    0.9350600000000000 O
   0.1218000000000000    0.2241600000000000    0.2241700000000000 O
   0.1218100000000000    0.2241500000000000    0.7241800000000000 O
   0.1218000000000000    0.7241500000000000    0.2241800000000000 O
   0.1218100000000000    0.7241400000000000    0.7241800000000000 O
   0.6217900000000000    0.2241500000000000    0.2241700000000000 O
   0.6218000000000000    0.2241500000000000    0.7241800000000000 O
   0.6217800000000000    0.7241500000000000    0.2241800000000000 O
   0.6218000000000000    0.7241400000000000    0.7241800000000000 O
   0.4857600000000000    0.3153700000000000    0.3153900000000000 O
   0.4857700000000000    0.3153700000000000    0.8154000000000000 O
   0.4857500000000000    0.8153800000000000    0.3153900000000000 O
   0.4857700000000000    0.8153600000000000    0.8154000000000000 O
   0.9857399999999999    0.3153800000000000    0.3153900000000000 O
   0.9857600000000000    0.3153700000000000    0.8154000000000000 O
   0.9857399999999999    0.8153800000000000    0.3150000000000000 O
   0.9857600000000000    0.8153600000000000    0.8154000000000000 O
   0.1541500000000000    0.2237000000000000    0.0261700000000000 O
   0.1541500000000000    0.2236900000000000    0.5261800000000000 O
   0.1541500000000000    0.7236900000000001    0.0261700000000000 O
   0.1541600000000000    0.7236800000000000    0.5261700000000000 O
   0.6541400000000001    0.2237000000000000    0.0261700000000000 O
   0.6541500000000000    0.2236900000000000    0.5261800000000000 O
   0.6541400000000001    0.7236900000000001    0.0261700000000000 O
   0.6541500000000000    0.7236800000000000    0.5261700000000000 O
   0.1993600000000000    0.3146500000000000    0.4343400000000000 O
   0.1993600000000000    0.3146400000000000    0.9343500000000000 O
   0.1993600000000000    0.8146500000000000    0.4343400000000000 O
   0.1993700000000000    0.8146400000000000    0.9343500000000000 O
   0.6993400000000000    0.3146500000000000    0.4343000000000000 O
   0.6993500000000000    0.3146400000000000    0.9343500000000000 O
   0.6993400000000000    0.8146500000000000    0.4343500000000000 O
   0.6993600000000000    0.8146400000000000    0.9343500000000000 O
   0.1541500000000000    0.0261600000000000    0.2237000000000000 O
   0.1541600000000000    0.0261500000000000    0.7237100000000000 O
   0.1541500000000000    0.5261600000000000    0.2237100000000000 O
   0.6541400000000001    0.0261500000000000    0.2237000000000000 O
   0.6541500000000000    0.0261500000000000    0.7237100000000000 O
   0.6541400000000001    0.5261600000000000    0.2237100000000000 O
   0.6541500000000000    0.5261500000000000    0.7237000000000000 O
   0.1993600000000000    0.4343100000000000    0.3146600000000000 O
   0.1993700000000000    0.9343100000000000    0.3146600000000000 O
   0.1993800000000000    0.9343000000000000    0.8146600000000001 O
   0.6993500000000000    0.4343200000000000    0.3146600000000000 O
   0.6993600000000000    0.4343100000000000    0.8146700000000000 O
   0.6993600000000000    0.9343100000000000    0.3146600000000000 O
   0.6993700000000000    0.9343000000000000    0.8146600000000001 O
   0.1806700000000000    0.4734000000000000    0.4734000000000000 O
   0.1806800000000000    0.4734000000000000    0.9734300000000000 O
   0.1806700000000000    0.9734100000000000    0.4734300000000000 O
   0.1806800000000000    0.9734000000000000    0.9734300000000000 O
   0.6806600000000000    0.4734100000000000    0.4734300000000000 O
   0.6806700000000000    0.4734000000000000    0.9734300000000000 O
   0.6806600000000000    0.9734100000000000    0.4734300000000000 O
   0.1338600000000000    0.5649800000000000    0.5649900000000000 O
   0.6338400000000000    0.0649900000000000    0.0649800000000000 O
   0.6338400000000000    0.0649900000000000    0.5649900000000000 O
   0.6338400000000000    0.5649900000000000    0.0649900000000000 O
   0.6338500000000000    0.5649800000000000    0.5649999999999999 O
   0.3782100000000000    0.2758500000000000    0.2758600000000000 O
   0.3782200000000000    0.2758500000000000    0.7758699999999999 O
   0.3782000000000000    0.7758500000000000    0.2758000000000000 O
   0.3782200000000000    0.7758400000000000    0.7758699999999999 O
   0.8781900000000000    0.2758600000000000    0.2758600000000000 O
   0.8782100000000000    0.2758500000000000    0.7758699999999999 O
   0.8781900000000000    0.7758500000000000    0.2758700000000000 O
   0.8782100000000000    0.7758400000000000    0.7758699999999999 O
   0.0142500000000000    0.1846300000000000    0.1846500000000000 O
   0.0142600000000000    0.1846200000000000    0.6846600000000000 O
   0.0142500000000000    0.6846300000000000    0.1846500000000000 O
   0.0142600000000000    0.6846200000000000    0.6846500000000000 O
   0.5142400000000000    0.1846300000000000    0.1846000000000000 O
   0.5142500000000000    0.1846300000000000    0.6846000000000000 O
   0.5142400000000000    0.6846300000000000    0.1846500000000000 O
   0.5142500000000000    0.6846200000000000    0.6846600000000000 O
