H2 O2
1.0
  37.7142919924012432    0.0000000000000000    3.6447605561819691
   2.4580526812543741   31.5483386717402183   14.9505955757407385
   0.0000000000000000    0.0000000000000000   39.1000000000000014
H O
2 2
direct
   0.5203740235557665    0.4351300605776899    0.0396065685410599 H
   0.3537073568890997    0.4351300605776900    0.7896065685410598 H
   0.5094016666666666    0.4530700000000000    0.0156750000000000 O
   0.3427350000000000    0.4530700000000000    0.7656750000000000 O
