H4 C8 O4
1.0
  15.6891841142137274    0.0000000000000000   -3.8388287055173036
   0.0049194456774472   16.3859602657602039    0.0357486780454411
   0.0000000000000000    0.0000000000000000   34.5940000000000012
H C O
4 8 4
direct
   0.6001900000000000    0.4150400000000000    0.7990150000000000 H
   0.4022600000000000    0.5953000000000001    0.7729400000000000 H
   0.3986700000000000    0.5848600000000000    0.7000000000000000 H
   0.5968900000000000    0.4049400000000000    0.7261000000000000 H
   0.5034000000000000    0.5130700000000000    0.8336450000000000 C
   0.5015100000000000    0.5059800000000000    0.7902600000000000 C
   0.5562600000000000    0.4518800000000000    0.7770500000000000 C
   0.4448300000000000    0.5539900000000000    0.7623550000000000 C
   0.4956200000000000    0.4864800000000000    0.6654350000000000 C
   0.4973600000000000    0.4939400000000000    0.7088050000000000 C
   0.4426400000000000    0.5480699999999999    0.7220150000000000 C
   0.5542000000000000    0.4461000000000000    0.7367300000000000 C
   0.4626800000000000    0.5680700000000000    0.8462200000000000 O
   0.5495000000000000    0.4590700000000000    0.8569500000000000 O
   0.5382500000000000    0.4326200000000000    0.6532500000000000 O
   0.4477700000000000    0.5388700000000000    0.6418000000000000 O
