H6 O4
1.0
  15.6891841142137274    0.0000000000000000   -3.8388287055173036
   0.0049194456774472   16.3859602657602039    0.0357486780454411
   0.0000000000000000    0.0000000000000000   34.5940000000000012
H O
6 4
direct
   0.9213864619356757    0.9143250023425978    0.1519257280080549 H
   1.0759073246050808    1.1083539861898024    0.1678369211127125 H
   1.0064410427520638    1.0192572887119722    0.1637615992938875 H
   0.0773546716477560    0.0854477068659231    0.3463922974869554 H
  -0.0758876578727549   -0.1084827993258348    0.3315774503020466 H
  -0.0069614083542860   -0.0193514334303566    0.3349740339305454 H
   0.9505300000000000    0.9587100000000000    0.1421000000000000 O
   1.0379600000000000    1.0672600000000001    0.1531350000000000 O
   0.0487200000000000    0.0415100000000000    0.3568350000000000 O
  -0.0382100000000000   -0.0673000000000000    0.3463700000000000 O
