H4 O2
1.0
  15.6891841142137274    0.0000000000000000   -3.8388287055173036
   0.0049194456774472   16.3859602657602039    0.0357486780454411
   0.0000000000000000    0.0000000000000000   34.5940000000000012
H O
4 2
direct
   0.7367478835579190    0.9272780029579956    0.3219752322102377 H
   0.6329571053868940    0.9000429094886926    0.3156121770952882 H
   0.1101516187295407    0.9741895435667656    0.5769273978677522 H
  -0.0072786774535986    0.9761753743254546    0.5673342384755895 H
   0.6760699999999999    0.9400500000000001    0.3127050000000000 O
   0.0523600000000000    0.9926900000000000    0.5644500000000000 O
