H5 O3
1.0
  15.6891841142137274    0.0000000000000000   -3.8388287055173036
   0.0049194456774472   16.3859602657602039    0.0357486780454411
   0.0000000000000000    0.0000000000000000   34.5940000000000012
H O
5 3
direct
   0.1474439398665262    0.1161749401791725    0.9266927055332179 H
   0.1232730992309595    0.1216026327035593    0.9682683905826264 H
   0.4158157145482948    0.4322516831451120    0.0323803712275634 H
   0.3882933846869097    0.4180181747481901    0.0950513602530490 H
   0.4496867316444830    0.4781472487719122    0.2163471393702067 H
   0.1210900000000000    0.1008900000000000    0.9415350000000000 O
   0.4030900000000000    0.4194600000000000    0.0042200000000000 O
   0.3820700000000000    0.4101800000000000    0.0667200000000000 O
