H4 O2
1.0
  15.6891841142137274    0.0000000000000000   -3.8388287055173036
   0.0049194456774472   16.3859602657602039    0.0357486780454411
   0.0000000000000000    0.0000000000000000   34.5940000000000012
H O
4 2
direct
   0.3667255154294683    0.0999687337492774    0.6841698900032022 H
   0.2629964924360511    0.0724369222254533    0.6777026459158404 H
   0.8887650992803627    0.0280238685903580    0.4225170931008157 H
   0.8913920705765623   -0.0086628465498975    0.4552094779447572 H
   0.3237000000000000    0.0598400000000000    0.6870450000000000 O
   0.9468400000000000    0.0102800000000000    0.4349750000000000 O
