H4 C8 O3
1.0
  15.6891841142137274    0.0000000000000000   -3.8388287055173036
   0.0049194456774472   16.3859602657602039    0.0357486780454411
   0.0000000000000000    0.0000000000000000   34.5940000000000012
H C O
4 8 3
direct
   0.1671700000000000    0.1975500000000000    0.0501850000000000 H
   0.2759200000000000    0.3067000000000000    0.0737600000000000 H
   0.2220500000000000    0.2052400000000000    0.9347099999999999 H
   0.3289700000000000    0.3165600000000000    0.9581750000000000 H
   0.2038800000000000    0.2227000000000000    0.0303050000000000 C
   0.3085700000000000    0.3184400000000000    0.0173150000000000 C
   0.2638900000000000    0.2838200000000000    0.0434250000000000 C
   0.3695800000000000    0.3878300000000000    0.0303000000000000 C
   0.1239400000000000    0.1279300000000000    0.9764349999999999 C
   0.1882300000000000    0.1944200000000000    0.9909600000000001 C
   0.2342900000000000    0.2280300000000000    0.9650950000000000 C
   0.2936100000000000    0.2895400000000000    0.9781250000000000 C
   0.4030900000000000    0.4194600000000000    0.0042200000000000 O
   0.3820700000000000    0.4101800000000000    0.0667200000000000 O
   0.1210900000000000    0.1008900000000000    0.9415350000000000 O
