Al96 P95 H3 O382
1.0
  19.1075995196612496    0.0000000000000000    5.3705441620231662
   1.1258513629456788   19.0599142236231671    5.3923768874848319
   0.0000000000000000    0.0000000000000000   31.0120000000000005
Al P H O
96 95 3 382
direct
   0.5593500000000000    0.6821500000000000    0.2098900000000000 Al
   0.4831400000000000    0.5984500000000000    0.4159600000000000 Al
   0.5316800000000000    0.8410200000000000    0.4370900000000000 Al
   0.4013900000000000    0.0168500000000000    0.8341000000000001 Al
   0.3177300000000000    0.9405400000000000    0.0401900000000000 Al
   0.5169000000000000    0.9015500000000000    0.5840400000000000 Al
   0.4406800000000000    0.8178500000000000    0.7901050000000001 Al
   0.4683600000000000    0.6589800000000000    0.5629000000000000 Al
   0.3408400000000000    0.0316800000000000    0.6870100000000000 Al
   0.1591900000000000    0.9683300000000000    0.8129850000000001 Al
   0.5986399999999999    0.4831700000000000    0.1658950000000000 Al
   0.6823000000000000    0.5594500000000000    0.9598050000000000 Al
   0.5986399999999999    0.4831700000000000    0.6658950000000000 Al
   0.6823000000000000    0.5594500000000000    0.4598050000000000 Al
   0.4831400000000000    0.5984500000000000    0.9159600000000000 Al
   0.5593500000000000    0.6821500000000000    0.7098900000000000 Al
   0.5316800000000000    0.8410200000000000    0.9370900000000000 Al
   0.4013900000000000    0.0168500000000000    0.3341000000000000 Al
   0.3177300000000000    0.9405400000000000    0.5401899999999999 Al
   0.5169000000000000    0.9015500000000000    0.0840400000000000 Al
   0.4406800000000000    0.8178500000000000    0.2901050000000000 Al
   0.4683600000000000    0.6589800000000000    0.0629000000000000 Al
   0.3408400000000000    0.0316800000000000    0.1870100000000000 Al
   0.6591900000000001    0.4683400000000000    0.8129850000000001 Al
   0.1591900000000000    0.9683300000000000    0.3129850000000000 Al
   0.0986400000000000    0.9831600000000000    0.1658950000000000 Al
   0.1823000000000000    0.0594600000000000    0.9598050000000000 Al
   0.9831400000000000    0.0984500000000000    0.4159600000000000 Al
   0.0593400000000000    0.1821600000000000    0.2098900000000000 Al
   0.0316800000000000    0.3410200000000000    0.4370900000000000 Al
   0.9014000000000000    0.5168400000000000    0.8341000000000001 Al
   0.8177300000000000    0.4405500000000000    0.0401900000000000 Al
   0.0168900000000000    0.4015500000000000    0.5840400000000000 Al
   0.9406800000000000    0.3178600000000000    0.7901050000000001 Al
   0.8408400000000000    0.5316700000000000    0.6870100000000000 Al
   0.9683600000000000    0.1589900000000000    0.5629000000000000 Al
   0.0986400000000000    0.9831600000000000    0.6658950000000000 Al
   0.1823000000000000    0.0594600000000000    0.4598050000000000 Al
   0.9831400000000000    0.0984500000000000    0.9159600000000000 Al
   0.0593400000000000    0.1821600000000000    0.7098900000000000 Al
   0.0316800000000000    0.3410200000000000    0.9370900000000000 Al
   0.8408400000000000    0.5316700000000000    0.1870100000000000 Al
   0.9014000000000000    0.5168400000000000    0.3341000000000000 Al
   0.8177300000000000    0.4405500000000000    0.5401899999999999 Al
   0.0168900000000000    0.4015500000000000    0.0840400000000000 Al
   0.9406800000000000    0.3178600000000000    0.2901050000000000 Al
   0.9683600000000000    0.1589900000000000    0.0629000000000000 Al
   0.6591900000000001    0.4683400000000000    0.3129850000000000 Al
   0.0986400000000000    0.4831700000000000    0.6658950000000000 Al
   0.1823000000000000    0.5594600000000000    0.4598050000000000 Al
   0.9831400000000000    0.5984500000000000    0.9159600000000000 Al
   0.0593400000000000    0.6821500000000000    0.7098900000000000 Al
   0.0316800000000000    0.8410200000000000    0.9370900000000000 Al
   0.9013900000000000    0.0168500000000000    0.3341000000000000 Al
   0.8177400000000000    0.9405400000000000    0.5401899999999999 Al
   0.0168900000000000    0.9015500000000000    0.0840400000000000 Al
   0.9406900000000000    0.8178500000000000    0.2901050000000000 Al
   0.9683600000000000    0.6589800000000000    0.0629000000000000 Al
   0.8408400000000000    0.0316800000000000    0.1870100000000000 Al
   0.1591900000000000    0.4683400000000000    0.8129850000000001 Al
   0.0986400000000000    0.4831700000000000    0.1658950000000000 Al
   0.1823000000000000    0.5594600000000000    0.9598050000000000 Al
   0.9831400000000000    0.5984500000000000    0.4159600000000000 Al
   0.0593400000000000    0.6821500000000000    0.2098900000000000 Al
   0.0316800000000000    0.8410200000000000    0.4370900000000000 Al
   0.9013900000000000    0.0168500000000000    0.8341000000000001 Al
   0.8177400000000000    0.9405400000000000    0.0401900000000000 Al
   0.0168900000000000    0.9015500000000000    0.5840400000000000 Al
   0.9406900000000000    0.8178500000000000    0.7901050000000001 Al
   0.9683600000000000    0.6589800000000000    0.5629000000000000 Al
   0.8408400000000000    0.0316800000000000    0.6870100000000000 Al
   0.1591900000000000    0.4683400000000000    0.3129850000000000 Al
   0.6591900000000001    0.9683300000000000    0.3129850000000000 Al
   0.6591900000000001    0.9683300000000000    0.8129850000000001 Al
   0.4831400000000000    0.0984500000000000    0.4159600000000000 Al
   0.5593399999999999    0.1821600000000000    0.2098900000000000 Al
   0.5986399999999999    0.9831600000000000    0.1658950000000000 Al
   0.6823000000000000    0.0594600000000000    0.9598050000000000 Al
   0.5316800000000000    0.3410200000000000    0.4370900000000000 Al
   0.4013900000000000    0.5168400000000000    0.8341000000000001 Al
   0.3177300000000000    0.4405500000000000    0.0401900000000000 Al
   0.5168900000000000    0.4015500000000000    0.5840400000000000 Al
   0.4406800000000000    0.3178600000000000    0.7901050000000001 Al
   0.3408400000000000    0.5316700000000000    0.6870100000000000 Al
   0.4683600000000000    0.1589900000000000    0.5629000000000000 Al
   0.4831400000000000    0.0984500000000000    0.9159600000000000 Al
   0.5593399999999999    0.1821600000000000    0.7098900000000000 Al
   0.5986399999999999    0.9831600000000000    0.6658950000000000 Al
   0.6823000000000000    0.0594600000000000    0.4598050000000000 Al
   0.5316800000000000    0.3410200000000000    0.9370900000000000 Al
   0.4013900000000000    0.5168400000000000    0.3341000000000000 Al
   0.3177300000000000    0.4405500000000000    0.5401899999999999 Al
   0.5168900000000000    0.4015500000000000    0.0840400000000000 Al
   0.4406800000000000    0.3178600000000000    0.2901050000000000 Al
   0.3408400000000000    0.5316700000000000    0.1870100000000000 Al
   0.4683600000000000    0.1589900000000000    0.0629000000000000 Al
   0.3948300000000000    0.0206800000000000    0.5848850000000000 P
   0.3948300000000000    0.0206800000000000    0.0848850000000000 P
   0.8948300000000000    0.0206800000000000    0.5848850000000000 P
   0.8948300000000000    0.0206800000000000    0.0848850000000000 P
   0.1052000000000000    0.9793200000000000    0.9151100000000000 P
   0.1052000000000000    0.9793200000000000    0.4151100000000000 P
   0.6052000000000000    0.9793200000000000    0.9151100000000000 P
   0.6052000000000000    0.9793200000000000    0.4151100000000000 P
   0.8948400000000000    0.5206800000000000    0.0848850000000000 P
   0.8948400000000000    0.5206800000000000    0.5848850000000000 P
   0.5207500000000000    0.8949300000000000    0.8348249999999999 P
   0.5207500000000000    0.8949300000000000    0.3348250000000000 P
   0.6052000000000000    0.4793300000000000    0.9151100000000000 P
   0.6052000000000000    0.4793300000000000    0.4151100000000000 P
   0.4792900000000000    0.6050700000000000    0.6651700000000000 P
   0.4792900000000000    0.6050700000000000    0.1651700000000000 P
   0.0207400000000000    0.3949400000000000    0.8348249999999999 P
   0.0207400000000000    0.3949400000000000    0.3348250000000000 P
   0.9792900000000000    0.1050800000000000    0.6651700000000000 P
   0.9792900000000000    0.1050800000000000    0.1651700000000000 P
   0.5612700000000000    0.6773400000000001    0.4611000000000000 P
   0.4684100000000000    0.6582200000000000    0.3129850000000000 P
   0.4387800000000000    0.8226599999999999    0.5388950000000000 P
   0.3417200000000000    0.0315500000000000    0.9370200000000000 P
   0.3222900000000000    0.9386400000000000    0.7891300000000000 P
   0.5316300000000000    0.8417800000000000    0.6870149999999999 P
   0.6583100000000000    0.4684600000000000    0.0629750000000000 P
   0.6583100000000000    0.4684600000000000    0.5629750000000000 P
   0.5612700000000000    0.6773400000000001    0.9611000000000001 P
   0.6777400000000000    0.5613700000000000    0.7108650000000000 P
   0.4684100000000000    0.6582200000000000    0.8129850000000001 P
   0.4387800000000000    0.8226599999999999    0.0388950000000000 P
   0.3417200000000000    0.0315500000000000    0.4370200000000000 P
   0.3222900000000000    0.9386400000000000    0.2891300000000000 P
   0.5316300000000000    0.8417800000000000    0.1870150000000000 P
   0.1583100000000000    0.9684600000000000    0.0629750000000000 P
   0.0612600000000000    0.1773400000000000    0.4611000000000000 P
   0.1777300000000000    0.0613800000000000    0.2108650000000000 P
   0.9684100000000000    0.1582300000000000    0.3129850000000000 P
   0.8417300000000000    0.5315400000000000    0.9370200000000000 P
   0.9387799999999999    0.3226700000000000    0.5388950000000000 P
   0.8222900000000000    0.4386400000000000    0.7891300000000000 P
   0.0316200000000000    0.3417900000000000    0.6870149999999999 P
   0.1583100000000000    0.9684600000000000    0.5629750000000000 P
   0.0612600000000000    0.1773400000000000    0.9611000000000001 P
   0.1777300000000000    0.0613800000000000    0.7108650000000000 P
   0.9684100000000000    0.1582300000000000    0.8129850000000001 P
   0.8417300000000000    0.5315400000000000    0.4370200000000000 P
   0.9387799999999999    0.3226700000000000    0.0388950000000000 P
   0.8222900000000000    0.4386400000000000    0.2891300000000000 P
   0.0316200000000000    0.3417900000000000    0.1870150000000000 P
   0.1052000000000000    0.4793300000000000    0.9151100000000000 P
   0.1052000000000000    0.4793300000000000    0.4151100000000000 P
   0.3948300000000000    0.5206800000000000    0.0848850000000000 P
   0.3948300000000000    0.5206800000000000    0.5848850000000000 P
   0.4792800000000000    0.1050800000000000    0.6651700000000000 P
   0.4792800000000000    0.1050800000000000    0.1651700000000000 P
   0.5207400000000000    0.3949400000000000    0.8348249999999999 P
   0.5207400000000000    0.3949400000000000    0.3348250000000000 P
   0.0207400000000000    0.8949300000000000    0.8348249999999999 P
   0.0207400000000000    0.8949300000000000    0.3348250000000000 P
   0.9792900000000000    0.6050700000000000    0.6651700000000000 P
   0.9792900000000000    0.6050700000000000    0.1651700000000000 P
   0.0612600000000000    0.6773400000000001    0.9611000000000001 P
   0.1583100000000000    0.4684600000000000    0.5629750000000000 P
   0.1777400000000000    0.5613700000000000    0.7108650000000000 P
   0.9684100000000000    0.6582200000000000    0.8129850000000001 P
   0.8417300000000000    0.0315500000000000    0.4370200000000000 P
   0.8223000000000000    0.9386400000000000    0.2891300000000000 P
   0.9387799999999999    0.8226599999999999    0.0388950000000000 P
   0.0316200000000000    0.8417800000000000    0.1870150000000000 P
   0.0612600000000000    0.6773400000000001    0.4611000000000000 P
   0.1583100000000000    0.4684600000000000    0.0629750000000000 P
   0.1777400000000000    0.5613700000000000    0.2108650000000000 P
   0.9684100000000000    0.6582200000000000    0.3129850000000000 P
   0.8417300000000000    0.0315500000000000    0.9370200000000000 P
   0.8223000000000000    0.9386400000000000    0.7891300000000000 P
   0.9387799999999999    0.8226599999999999    0.5388950000000000 P
   0.0316200000000000    0.8417800000000000    0.6870149999999999 P
   0.5612600000000000    0.1773400000000000    0.4611000000000000 P
   0.4684100000000000    0.1582300000000000    0.3129850000000000 P
   0.6777400000000000    0.0613800000000000    0.2108650000000000 P
   0.6583100000000000    0.9684600000000000    0.0629750000000000 P
   0.3222900000000000    0.4386400000000000    0.7891300000000000 P
   0.3417300000000000    0.5315400000000000    0.9370200000000000 P
   0.4387700000000000    0.3226700000000000    0.5388950000000000 P
   0.5316200000000000    0.3417900000000000    0.6870149999999999 P
   0.5612600000000000    0.1773400000000000    0.9611000000000001 P
   0.4684100000000000    0.1582300000000000    0.8129850000000001 P
   0.6777400000000000    0.0613800000000000    0.7108650000000000 P
   0.6583100000000000    0.9684600000000000    0.5629750000000000 P
   0.3222900000000000    0.4386400000000000    0.2891300000000000 P
   0.3417300000000000    0.5315400000000000    0.4370200000000000 P
   0.4387700000000000    0.3226700000000000    0.0388950000000000 P
   0.5316200000000000    0.3417900000000000    0.1870150000000000 P
   0.6052585208169571    0.6241038808134437    0.1781777415557091 H
   0.7654601228152735    0.5426489263736693    0.1717600456805444 H
   0.6603716800324168    0.5517116443395241    0.1415457348930640 H
   0.3417700000000000    0.0055100000000000    0.5611800000000000 O
   0.4050700000000000    0.1001700000000000    0.5689000000000000 O
   0.3663100000000000    0.9974200000000000    0.6378850000000000 O
   0.4661400000000000    0.9805100000000000    0.5706900000000000 O
   0.3417700000000000    0.0055100000000000    0.0611800000000000 O
   0.4050700000000000    0.1001700000000000    0.0689000000000000 O
   0.3663100000000000    0.9974200000000000    0.1378850000000000 O
   0.4661400000000000    0.9805100000000000    0.0706900000000000 O
   0.8417700000000000    0.0055100000000000    0.5611800000000000 O
   0.9050700000000000    0.1001700000000000    0.5689250000000000 O
   0.8663100000000000    0.9974200000000000    0.6378850000000000 O
   0.9661500000000000    0.9805100000000000    0.5706900000000000 O
   0.8417700000000000    0.0055100000000000    0.0611800000000000 O
   0.9050700000000000    0.1001700000000000    0.0689250000000000 O
   0.8663100000000000    0.9974200000000000    0.1378850000000000 O
   0.9661500000000000    0.9805100000000000    0.0706900000000000 O
   0.1582600000000000    0.9944900000000000    0.9388200000000000 O
   0.0949800000000000    0.8998300000000000    0.9310650000000000 O
   0.1337200000000000    0.0026000000000000    0.8621099999999999 O
   0.0338800000000000    0.0194800000000000    0.9293050000000000 O
   0.1582600000000000    0.9944900000000000    0.4388200000000000 O
   0.0949800000000000    0.8998300000000000    0.4310650000000000 O
   0.1337200000000000    0.0026000000000000    0.3621100000000000 O
   0.0338800000000000    0.0194800000000000    0.4293050000000000 O
   0.6582600000000000    0.9944900000000000    0.9388200000000000 O
   0.5949800000000000    0.8998300000000000    0.9310650000000000 O
   0.6337200000000000    0.0026000000000000    0.8621099999999999 O
   0.5338800000000000    0.0194800000000000    0.9293050000000000 O
   0.6582600000000000    0.9944900000000000    0.4388200000000000 O
   0.5949800000000000    0.8998300000000000    0.4310650000000000 O
   0.6337200000000000    0.0026000000000000    0.3621100000000000 O
   0.5338800000000000    0.0194800000000000    0.4293050000000000 O
   0.8417800000000000    0.5054999999999999    0.0611800000000000 O
   0.9050700000000000    0.6001700000000000    0.0689250000000000 O
   0.8663100000000000    0.4974200000000000    0.1378850000000000 O
   0.9661400000000000    0.4805200000000000    0.0706900000000000 O
   0.8417800000000000    0.5054999999999999    0.5611800000000000 O
   0.9050700000000000    0.6001700000000000    0.5689250000000000 O
   0.8663100000000000    0.4974200000000000    0.6378850000000000 O
   0.9661400000000000    0.4805200000000000    0.5706900000000000 O
   0.5056100000000000    0.8418400000000000    0.8111400000000000 O
   0.6001200000000000    0.9054100000000000    0.8187599999999999 O
   0.4977300000000000    0.8661799999999999    0.8878150000000000 O
   0.4803800000000000    0.9662100000000000    0.8207249999999999 O
   0.5056100000000000    0.8418400000000000    0.3111400000000000 O
   0.6001200000000000    0.9054100000000000    0.3187600000000000 O
   0.4977300000000000    0.8661799999999999    0.3878150000000000 O
   0.4803800000000000    0.9662100000000000    0.3207250000000000 O
   0.6582500000000000    0.4945000000000000    0.9388200000000000 O
   0.5949800000000000    0.3998300000000000    0.9310650000000000 O
   0.6337200000000000    0.5025900000000000    0.8621099999999999 O
   0.5338900000000000    0.5194800000000001    0.9293050000000000 O
   0.6582500000000000    0.4945000000000000    0.4388200000000000 O
   0.5949800000000000    0.3998300000000000    0.4310650000000000 O
   0.6337200000000000    0.5025900000000000    0.3621100000000000 O
   0.5338900000000000    0.5194800000000001    0.4293050000000000 O
   0.4944200000000000    0.6581600000000000    0.6888600000000000 O
   0.3999100000000000    0.5945900000000000    0.6812350000000000 O
   0.5023000000000000    0.6338300000000000    0.6121850000000000 O
   0.5196600000000000    0.5338000000000001    0.6792650000000000 O
   0.4944200000000000    0.6581600000000000    0.1888600000000000 O
   0.3999100000000000    0.5945900000000000    0.1812350000000000 O
   0.5023000000000000    0.6338300000000000    0.1121850000000000 O
   0.5196600000000000    0.5338000000000001    0.1792650000000000 O
   0.0056000000000000    0.3418400000000000    0.8111400000000000 O
   0.1001200000000000    0.4054200000000000    0.8187599999999999 O
   0.9977300000000000    0.3661800000000000    0.8878150000000000 O
   0.9803800000000000    0.4662100000000000    0.8207249999999999 O
   0.0056000000000000    0.3418400000000000    0.3111400000000000 O
   0.1001200000000000    0.4054200000000000    0.3187600000000000 O
   0.9977300000000000    0.3661800000000000    0.3878150000000000 O
   0.9803800000000000    0.4662100000000000    0.3207250000000000 O
   0.9944200000000000    0.1581700000000000    0.6888600000000000 O
   0.8999100000000000    0.0945900000000000    0.6812350000000000 O
   0.0022900000000000    0.1338400000000000    0.6121850000000000 O
   0.0196500000000000    0.0338000000000000    0.6792650000000000 O
   0.9944200000000000    0.1581700000000000    0.1888600000000000 O
   0.8999100000000000    0.0945900000000000    0.1812350000000000 O
   0.0022900000000000    0.1338400000000000    0.1121850000000000 O
   0.0196500000000000    0.0338000000000000    0.1792650000000000 O
   0.5727500000000000    0.7563100000000000    0.4433100000000000 O
   0.6314000000000000    0.6373600000000000    0.4450150000000000 O
   0.5382600000000000    0.6564200000000000    0.5143900000000000 O
   0.5041200000000000    0.6599400000000000    0.4409700000000000 O
   0.6371800000000000    0.6313200000000000    0.1950900000000000 O
   0.5309100000000000    0.6689800000000000    0.2701500000000000 O
   0.4988100000000000    0.6298000000000000    0.3557000000000000 O
   0.4189400000000000    0.6059099999999999    0.3106750000000000 O
   0.4257600000000000    0.7285100000000000    0.3153750000000000 O
   0.4272900000000000    0.7436900000000000    0.5566750000000000 O
   0.3686500000000000    0.8626400000000000    0.5549800000000000 O
   0.4617900000000000    0.8435900000000000    0.4856050000000000 O
   0.4959200000000000    0.8400400000000000    0.5590349999999999 O
   0.3307800000000000    0.9690500000000000    0.9799300000000000 O
   0.3700600000000000    0.0010700000000000    0.8943600000000000 O
   0.3941500000000000    0.0808900000000000    0.9393500000000000 O
   0.2715700000000000    0.0744000000000000    0.9344900000000000 O
   0.2435400000000000    0.9265700000000000    0.8075000000000000 O
   0.3628600000000000    0.8686900000000000    0.8049050000000000 O
   0.3420500000000000    0.9618200000000000    0.7358300000000000 O
   0.3399700000000000    0.9959600000000000    0.8089900000000000 O
   0.4691300000000000    0.8310300000000000    0.7298500000000000 O
   0.5810900000000000    0.8941000000000000    0.6893250000000000 O
   0.5742699999999999    0.7714900000000000    0.6846250000000000 O
   0.5012300000000000    0.8702000000000000    0.6440000000000000 O
   0.6692500000000000    0.5309400000000000    0.0200650000000000 O
   0.6299700000000000    0.4989400000000000    0.1056350000000000 O
   0.6058800000000000    0.4191200000000000    0.0606500000000000 O
   0.7284600000000000    0.4256100000000000    0.0655000000000000 O
   0.6692500000000000    0.5309400000000000    0.5200650000000000 O
   0.6299700000000000    0.4989400000000000    0.6056350000000000 O
   0.6058800000000000    0.4191200000000000    0.5606500000000000 O
   0.7284600000000000    0.4256100000000000    0.5655000000000000 O
   0.5727500000000000    0.7563100000000000    0.9433100000000000 O
   0.6314000000000000    0.6373600000000000    0.9450149999999999 O
   0.5382600000000000    0.6564200000000000    0.0143900000000000 O
   0.5041200000000000    0.6599400000000000    0.9409700000000000 O
   0.7564900000000000    0.5734399999999999    0.6924700000000000 O
   0.6371800000000000    0.6313200000000000    0.6950900000000000 O
   0.6579800000000000    0.5381800000000000    0.7641500000000000 O
   0.6600700000000000    0.5040500000000000    0.6910050000000000 O
   0.5309100000000000    0.6689800000000000    0.7701500000000000 O
   0.4988100000000000    0.6298000000000000    0.8557000000000000 O
   0.4189400000000000    0.6059099999999999    0.8106750000000000 O
   0.4257600000000000    0.7285100000000000    0.8153750000000000 O
   0.4272900000000000    0.7436900000000000    0.0566750000000000 O
   0.3686500000000000    0.8626400000000000    0.0549800000000000 O
   0.4617900000000000    0.8435900000000000    0.9856050000000001 O
   0.4959200000000000    0.8400400000000000    0.0590350000000000 O
   0.3307800000000000    0.9690500000000000    0.4799300000000000 O
   0.3700600000000000    0.0010700000000000    0.3943600000000000 O
   0.3941500000000000    0.0808900000000000    0.4393500000000000 O
   0.2715700000000000    0.0744000000000000    0.4344900000000000 O
   0.2435400000000000    0.9265700000000000    0.3075000000000000 O
   0.3628600000000000    0.8686900000000000    0.3049050000000000 O
   0.3420500000000000    0.9618200000000000    0.2358300000000000 O
   0.3399700000000000    0.9959600000000000    0.3089900000000000 O
   0.4691300000000000    0.8310300000000000    0.2298500000000000 O
   0.5810900000000000    0.8941000000000000    0.1893250000000000 O
   0.5742699999999999    0.7714900000000000    0.1846250000000000 O
   0.5012300000000000    0.8702000000000000    0.1440000000000000 O
   0.1692500000000000    0.0309500000000000    0.0200650000000000 O
   0.1299700000000000    0.9989300000000000    0.1056350000000000 O
   0.1058800000000000    0.9191100000000000    0.0606500000000000 O
   0.2284600000000000    0.9256000000000000    0.0655000000000000 O
   0.0727400000000000    0.2563100000000000    0.4433100000000000 O
   0.1313900000000000    0.1373700000000000    0.4450000000000000 O
   0.0382500000000000    0.1564300000000000    0.5143900000000000 O
   0.0041100000000000    0.1599500000000000    0.4409700000000000 O
   0.2564900000000000    0.0734500000000000    0.1924700000000000 O
   0.1371700000000000    0.1313300000000000    0.1950900000000000 O
   0.1579700000000000    0.0381900000000000    0.2641500000000000 O
   0.1600600000000000    0.0040500000000000    0.1910050000000000 O
   0.0309000000000000    0.1689800000000000    0.2701500000000000 O
   0.9988000000000000    0.1298100000000000    0.3557000000000000 O
   0.9257600000000000    0.2285200000000000    0.3153750000000000 O
   0.9189400000000000    0.1059100000000000    0.3106500000000000 O
   0.8307800000000000    0.4690600000000000    0.9799300000000000 O
   0.8700700000000000    0.5010700000000000    0.8943600000000000 O
   0.8941500000000000    0.5808800000000000    0.9393500000000000 O
   0.7715800000000000    0.5744000000000000    0.9344900000000000 O
   0.9272899999999999    0.2437000000000000    0.5566750000000000 O
   0.8686400000000000    0.3626500000000000    0.5549800000000000 O
   0.9617900000000000    0.3436000000000000    0.4856050000000000 O
   0.9959200000000000    0.3400500000000000    0.5590349999999999 O
   0.7435400000000000    0.4265700000000000    0.8075000000000000 O
   0.8628600000000000    0.3686900000000000    0.8049050000000000 O
   0.8420500000000000    0.4618300000000000    0.7358300000000000 O
   0.8399700000000000    0.4959700000000000    0.8089900000000000 O
   0.9691300000000000    0.3310300000000000    0.7298500000000000 O
   0.0012200000000000    0.3702100000000000    0.6442950000000001 O
   0.0810900000000000    0.3941000000000000    0.6893250000000000 O
   0.0742700000000000    0.2715000000000000    0.6846250000000000 O
   0.1692500000000000    0.0309500000000000    0.5200650000000000 O
   0.1299700000000000    0.9989300000000000    0.6056350000000000 O
   0.1058800000000000    0.9191100000000000    0.5606500000000000 O
   0.2284600000000000    0.9256000000000000    0.5655000000000000 O
   0.0727400000000000    0.2563100000000000    0.9433100000000000 O
   0.1313900000000000    0.1373700000000000    0.9450000000000001 O
   0.0382500000000000    0.1564300000000000    0.0143900000000000 O
   0.0041100000000000    0.1599500000000000    0.9409700000000000 O
   0.2564900000000000    0.0734500000000000    0.6924700000000000 O
   0.1371700000000000    0.1313300000000000    0.6950900000000000 O
   0.1579700000000000    0.0381900000000000    0.7641500000000000 O
   0.1600600000000000    0.0040500000000000    0.6910050000000000 O
   0.0309000000000000    0.1689800000000000    0.7701500000000000 O
   0.9988000000000000    0.1298100000000000    0.8557000000000000 O
   0.9257600000000000    0.2285200000000000    0.8153750000000000 O
   0.9189400000000000    0.1059100000000000    0.8106500000000000 O
   0.7564900000000000    0.5734399999999999    0.1924700000000000 O
   0.8307800000000000    0.4690600000000000    0.4799300000000000 O
   0.8700700000000000    0.5010700000000000    0.3943600000000000 O
   0.8941500000000000    0.5808800000000000    0.4393500000000000 O
   0.7715800000000000    0.5744000000000000    0.4344900000000000 O
   0.9272899999999999    0.2437000000000000    0.0566750000000000 O
   0.8686400000000000    0.3626500000000000    0.0549800000000000 O
   0.9617900000000000    0.3436000000000000    0.9856050000000001 O
   0.9959200000000000    0.3400500000000000    0.0590350000000000 O
   0.7435400000000000    0.4265700000000000    0.3075000000000000 O
   0.8628600000000000    0.3686900000000000    0.3049050000000000 O
   0.8420500000000000    0.4618300000000000    0.2358300000000000 O
   0.8399700000000000    0.4959700000000000    0.3089900000000000 O
   0.9691300000000000    0.3310300000000000    0.2298500000000000 O
   0.0012200000000000    0.3702100000000000    0.1442950000000000 O
   0.0810900000000000    0.3941000000000000    0.1893250000000000 O
   0.0742700000000000    0.2715000000000000    0.1846250000000000 O
   0.1582500000000000    0.4945000000000000    0.9388200000000000 O
   0.0949700000000000    0.3998300000000000    0.9310650000000000 O
   0.1337200000000000    0.5025900000000000    0.8621099999999999 O
   0.0338800000000000    0.5194800000000001    0.9293050000000000 O
   0.1582500000000000    0.4945000000000000    0.4388200000000000 O
   0.0949700000000000    0.3998300000000000    0.4310650000000000 O
   0.1337200000000000    0.5025900000000000    0.3621100000000000 O
   0.0338800000000000    0.5194800000000001    0.4293050000000000 O
   0.3417700000000000    0.5054999999999999    0.0611800000000000 O
   0.4050700000000000    0.6001700000000000    0.0689000000000000 O
   0.3663100000000000    0.4974200000000000    0.1378850000000000 O
   0.4661400000000000    0.4805200000000000    0.0706900000000000 O
   0.3417700000000000    0.5054999999999999    0.5611800000000000 O
   0.4050700000000000    0.6001700000000000    0.5689000000000000 O
   0.3663100000000000    0.4974200000000000    0.6378850000000000 O
   0.4661400000000000    0.4805200000000000    0.5706900000000000 O
   0.4944200000000000    0.1581600000000000    0.6888600000000000 O
   0.3999100000000000    0.0945900000000000    0.6812350000000000 O
   0.5022900000000000    0.1338400000000000    0.6121850000000000 O
   0.5196499999999999    0.0338000000000000    0.6792650000000000 O
   0.4944200000000000    0.1581600000000000    0.1888600000000000 O
   0.3999100000000000    0.0945900000000000    0.1812350000000000 O
   0.5022900000000000    0.1338400000000000    0.1121850000000000 O
   0.5196499999999999    0.0338000000000000    0.1792650000000000 O
   0.5056000000000000    0.3418400000000000    0.8111400000000000 O
   0.6001200000000000    0.4054200000000000    0.8187599999999999 O
   0.4977300000000000    0.3661800000000000    0.8878150000000000 O
   0.4803800000000000    0.4662100000000000    0.8207249999999999 O
   0.5056000000000000    0.3418400000000000    0.3111400000000000 O
   0.6001200000000000    0.4054200000000000    0.3187600000000000 O
   0.4977300000000000    0.3661800000000000    0.3878150000000000 O
   0.4803800000000000    0.4662100000000000    0.3207250000000000 O
   0.0056000000000000    0.8418400000000000    0.8111400000000000 O
   0.1001200000000000    0.9054100000000000    0.8187599999999999 O
   0.9977300000000000    0.8661799999999999    0.8878150000000000 O
   0.9803800000000000    0.9662100000000000    0.8207249999999999 O