H3 O2
1.0
  19.1075995196612496    0.0000000000000000    5.3705441620231662
   1.1258513629456788   19.0599142236231671    5.3923768874848319
   0.0000000000000000    0.0000000000000000   31.0120000000000005
H O
3 2
direct
   0.7654601228152735    0.5426489263736693    0.1717600456805444 H
   0.6052585208169571    0.6241038808134437    0.1781777415557091 H
   0.6603716800324168    0.5517116443395241    0.1415457348930640 H
   0.7564900000000000    0.5734399999999999    0.1924700000000000 O
   0.6371800000000000    0.6313200000000000    0.1950900000000000 O
