P1 O4
1.0
  19.1075995196612496    0.0000000000000000    5.3705441620231662
   1.1258513629456788   19.0599142236231671    5.3923768874848319
   0.0000000000000000    0.0000000000000000   31.0120000000000005
P O
1 4
direct
   0.6777400000000000    0.5613700000000000    0.2108650000000000 P
   0.7564900000000000    0.5734399999999999    0.1924700000000000 O
   0.6600700000000000    0.5040500000000000    0.1910050000000000 O
   0.6579800000000000    0.5381800000000000    0.2641500000000000 O
   0.6371800000000000    0.6313200000000000    0.1950900000000000 O
