V32 H130 C248 O128
1.0
  27.4319999832874686    0.0000000000000000   -0.0009575574406155
  -0.0007441909398712   14.2129999805171252    0.0000000000000009
   0.0000000000000000    0.0000000000000000   31.9680000000000000
V H C O
32 130 248 128
direct
   0.6096100000000000    0.7364000000000001    0.9993449999999999 V
   0.7345400000000000    0.7639800000000000    0.9995499999999999 V
   0.5153750000000000    0.2636300000000000    0.7493450000000000 V
   0.3904500000000000    0.2360500000000000    0.7495499999999999 V
   0.6096100000000000    0.7364000000000001    0.4993450000000000 V
   0.7345400000000000    0.7639800000000000    0.4995500000000000 V
   0.5153750000000000    0.2636300000000000    0.2493450000000000 V
   0.3904500000000000    0.2360500000000000    0.2495500000000000 V
   0.3596150000000000    0.7364100000000000    0.9993449999999999 V
   0.4845400000000000    0.7639800000000000    0.9995499999999999 V
   0.2653750000000000    0.2636300000000000    0.7493450000000000 V
   0.1404450000000000    0.2360500000000000    0.7495499999999999 V
   0.3596150000000000    0.7364100000000000    0.4993450000000000 V
   0.4845400000000000    0.7639800000000000    0.4995500000000000 V
   0.2653750000000000    0.2636300000000000    0.2493450000000000 V
   0.1404450000000000    0.2360500000000000    0.2495500000000000 V
   0.2345400000000000    0.7639800000000000    0.4995500000000000 V
   0.1096100000000000    0.7364000000000001    0.4993450000000000 V
   0.0153750000000000    0.2636300000000000    0.2493450000000000 V
   0.8904500000000000    0.2360500000000000    0.2495500000000000 V
   0.1096100000000000    0.7364000000000001    0.9993449999999999 V
   0.2345400000000000    0.7639800000000000    0.9995499999999999 V
   0.0153750000000000    0.2636300000000000    0.7493450000000000 V
   0.8904500000000000    0.2360500000000000    0.7495499999999999 V
   0.8596150000000000    0.7364100000000000    0.4993450000000000 V
   0.9845400000000000    0.7639800000000000    0.4995500000000000 V
   0.7653750000000000    0.2636300000000000    0.2493450000000000 V
   0.6404449999999999    0.2360500000000000    0.2495500000000000 V
   0.8596150000000000    0.7364100000000000    0.9993449999999999 V
   0.9845400000000000    0.7639800000000000    0.9995499999999999 V
   0.7653750000000000    0.2636300000000000    0.7493450000000000 V
   0.6404449999999999    0.2360500000000000    0.7495499999999999 V
   0.4874200000000000    0.0730300000000000    0.1530250000000000 H
   0.4823650000000000    0.9564700000000000    0.0941100000000000 H
   0.6376350000000000    0.9185200000000000    0.0991300000000000 H
   0.6427050000000000    0.0352900000000000    0.1579500000000000 H
   0.7675900000000000    0.4644700000000000    0.8411500000000001 H
   0.7624700000000000    0.5810600000000000    0.9000400000000000 H
   0.6123499999999999    0.4259400000000000    0.8462600000000000 H
   0.6072050000000000    0.5427400000000000    0.9050549999999999 H
   0.6375450000000000    0.9268600000000000    0.9029950000000000 H
   0.6426200000000000    0.0434100000000000    0.8440850000000000 H
   0.4822850000000000    0.9649300000000000    0.9080100000000000 H
   0.4873700000000000    0.0816900000000000    0.8491500000000001 H
   0.3573800000000000    0.5358200000000000    0.5912450000000000 H
   0.3624900000000000    0.4192300000000000    0.6501350000000000 H
   0.5177850000000001    0.4570600000000000    0.6549800000000000 H
   0.5126500000000001    0.5738700000000000    0.5961800000000000 H
   0.4874200000000000    0.0730300000000000    0.6530250000000000 H
   0.4823650000000000    0.9564700000000000    0.5941100000000000 H
   0.6376350000000000    0.9185200000000000    0.5991299999999999 H
   0.6427050000000000    0.0352900000000000    0.6579500000000000 H
   0.7675900000000000    0.4644700000000000    0.3411500000000000 H
   0.7624700000000000    0.5810600000000000    0.4000400000000000 H
   0.6123499999999999    0.4259400000000000    0.3462600000000000 H
   0.6072050000000000    0.5427400000000000    0.4050550000000000 H
   0.6375450000000000    0.9268600000000000    0.4029950000000000 H
   0.6426200000000000    0.0434100000000000    0.3440850000000000 H
   0.4822850000000000    0.9649300000000000    0.4080100000000000 H
   0.4873700000000000    0.0816900000000000    0.3491500000000000 H
   0.3573800000000000    0.5358200000000000    0.0912450000000000 H
   0.3624900000000000    0.4192300000000000    0.1501350000000000 H
   0.5177850000000001    0.4570600000000000    0.1549800000000000 H
   0.5126500000000001    0.5738700000000000    0.0961800000000000 H
   0.3876450000000000    0.9185700000000000    0.0991100000000000 H
   0.3927150000000000    0.0353300000000000    0.1579350000000000 H
   0.2323600000000000    0.9564400000000000    0.0941250000000000 H
   0.2374100000000000    0.0730000000000000    0.1530350000000000 H
   0.5175850000000000    0.4644700000000000    0.8411550000000000 H
   0.5124649999999999    0.5810600000000000    0.9000450000000000 H
   0.3623550000000000    0.4259300000000000    0.8462600000000000 H
   0.3572100000000000    0.5427400000000000    0.9050600000000000 H
   0.2322800000000000    0.9649500000000000    0.9080200000000000 H
   0.2373700000000000    0.0817200000000000    0.8490000000000000 H
   0.3926200000000000    0.0433700000000000    0.8440650000000001 H
   0.3875500000000000    0.9268100000000000    0.9029750000000001 H
   0.2626500000000000    0.5738700000000000    0.5961800000000000 H
   0.2677850000000000    0.4570600000000000    0.6549800000000000 H
   0.1073750000000000    0.5358100000000000    0.5912400000000000 H
   0.1124900000000000    0.4192100000000000    0.6501300000000000 H
   0.3876450000000000    0.9185700000000000    0.5991100000000000 H
   0.3927150000000000    0.0353300000000000    0.6579349999999999 H
   0.2323600000000000    0.9564400000000000    0.5941250000000000 H
   0.2374100000000000    0.0730000000000000    0.6530350000000000 H
   0.5175850000000000    0.4644700000000000    0.3411550000000000 H
   0.5124649999999999    0.5810600000000000    0.4000450000000000 H
   0.3623550000000000    0.4259300000000000    0.3462600000000000 H
   0.3572100000000000    0.5427400000000000    0.4050600000000000 H
   0.2322800000000000    0.9649500000000000    0.4080200000000000 H
   0.2373700000000000    0.0817200000000000    0.3490000000000000 H
   0.3926200000000000    0.0433700000000000    0.3440650000000000 H
   0.3875500000000000    0.9268100000000000    0.4029750000000000 H
   0.2626500000000000    0.5738700000000000    0.0961800000000000 H
   0.2677850000000000    0.4570600000000000    0.1549800000000000 H
   0.1073750000000000    0.5358100000000000    0.0912400000000000 H
   0.1124900000000000    0.4192100000000000    0.1501300000000000 H
   0.2045639553313736    0.7850555625913185    0.4830690165459514 H
   0.2675900000000000    0.4644700000000000    0.3411500000000000 H
   0.2624700000000000    0.5810600000000000    0.4000400000000000 H
   0.1123500000000000    0.4259400000000000    0.3462600000000000 H
   0.1072050000000000    0.5427400000000000    0.4050550000000000 H
   0.9874200000000000    0.0730300000000000    0.6530250000000000 H
   0.9823649999999999    0.9564700000000000    0.5941100000000000 H
   0.1376350000000000    0.9185200000000000    0.5991299999999999 H
   0.1427050000000000    0.0352900000000000    0.6579500000000000 H
   0.1312808581751488    0.8235990099172779    0.4614507912514300 H
   0.0473821676921290    0.8321974377848763    0.4648124802850971 H
   0.1383519958746376    0.1257258969742964    0.3061382601248485 H
  -0.0028835630446245    0.1549288278530594    0.3077287912676048 H
   0.0657065665280169    0.1309949220734180    0.3119687710003994 H
   0.8573800000000000    0.5358200000000000    0.0912450000000000 H
   0.8624900000000000    0.4192300000000000    0.1501350000000000 H
   0.0177850000000000    0.4570600000000000    0.1549800000000000 H
   0.0126500000000000    0.5738700000000000    0.0961800000000000 H
   0.9874200000000000    0.0730300000000000    0.1530250000000000 H
   0.9823649999999999    0.9564700000000000    0.0941100000000000 H
   0.1376350000000000    0.9185200000000000    0.0991300000000000 H
   0.1427050000000000    0.0352900000000000    0.1579500000000000 H
   0.2675900000000000    0.4644700000000000    0.8411500000000001 H
   0.2624700000000000    0.5810600000000000    0.9000400000000000 H
   0.1123500000000000    0.4259400000000000    0.8462600000000000 H
   0.1072050000000000    0.5427400000000000    0.9050549999999999 H
   0.1375450000000000    0.9268600000000000    0.9029950000000000 H
   0.1426200000000000    0.0434100000000000    0.8440850000000000 H
   0.9822850000000001    0.9649300000000000    0.9080100000000000 H
   0.9873700000000001    0.0816900000000000    0.8491500000000001 H
   0.8573800000000000    0.5358200000000000    0.5912450000000000 H
   0.8624900000000000    0.4192300000000000    0.6501350000000000 H
   0.0177850000000000    0.4570600000000000    0.6549800000000000 H
   0.0126500000000000    0.5738700000000000    0.5961800000000000 H
   0.8876450000000000    0.9185700000000000    0.5991100000000000 H
   0.8927149999999999    0.0353300000000000    0.6579349999999999 H
   0.7323600000000000    0.9564400000000000    0.5941250000000000 H
   0.7374100000000000    0.0730000000000000    0.6530350000000000 H
   0.0175850000000000    0.4644700000000000    0.3411550000000000 H
   0.0124650000000000    0.5810600000000000    0.4000450000000000 H
   0.8623550000000000    0.4259300000000000    0.3462600000000000 H
   0.8572100000000000    0.5427400000000000    0.4050600000000000 H
   0.7322800000000000    0.9649500000000000    0.4080200000000000 H
   0.7373700000000000    0.0817200000000000    0.3490000000000000 H
   0.8926200000000000    0.0433700000000000    0.3440650000000000 H
   0.8875500000000001    0.9268100000000000    0.4029750000000000 H
   0.7626500000000001    0.5738700000000000    0.0961800000000000 H
   0.7677849999999999    0.4570600000000000    0.1549800000000000 H
   0.6073750000000000    0.5358100000000000    0.0912400000000000 H
   0.6124900000000000    0.4192100000000000    0.1501300000000000 H
   0.8876450000000000    0.9185700000000000    0.0991100000000000 H
   0.8927149999999999    0.0353300000000000    0.1579350000000000 H
   0.7323600000000000    0.9564400000000000    0.0941250000000000 H
   0.7374100000000000    0.0730000000000000    0.1530350000000000 H
   0.0175850000000000    0.4644700000000000    0.8411550000000000 H
   0.0124650000000000    0.5810600000000000    0.9000450000000000 H
   0.8623550000000000    0.4259300000000000    0.8462600000000000 H
   0.8572100000000000    0.5427400000000000    0.9050600000000000 H
   0.7322800000000000    0.9649500000000000    0.9080200000000000 H
   0.7373700000000000    0.0817200000000000    0.8490000000000000 H
   0.8926200000000000    0.0433700000000000    0.8440650000000001 H
   0.8875500000000001    0.9268100000000000    0.9029750000000001 H
   0.7626500000000001    0.5738700000000000    0.5961800000000000 H
   0.7677849999999999    0.4570600000000000    0.6549800000000000 H
   0.6073750000000000    0.5358100000000000    0.5912400000000000 H
   0.6124900000000000    0.4192100000000000    0.6501300000000000 H
   0.5683400000000000    0.1310600000000000    0.1931850000000000 C
   0.5568500000000000    0.8624600000000000    0.0581850000000000 C
   0.5199650000000000    0.0386200000000000    0.1409700000000000 C
   0.5171950000000000    0.9740799999999999    0.1084250000000000 C
   0.5597250000000000    0.9308600000000000    0.0932950000000000 C
   0.6050750000000000    0.9528700000000000    0.1112050000000000 C
   0.6078500000000000    0.0175000000000000    0.1437100000000000 C
   0.5653400000000000    0.0609700000000000    0.1587400000000000 C
   0.6932150000000000    0.3685600000000000    0.8058000000000001 C
   0.6816100000000000    0.6373700000000000    0.9408550000000000 C
   0.7327250000000000    0.4820800000000000    0.8554200000000001 C
   0.7299150000000000    0.5466400000000000    0.8879500000000000 C
   0.6448850000000000    0.4605600000000000    0.8580000000000000 C
   0.6420650000000000    0.5252100000000000    0.8907600000000000 C
   0.6902450000000000    0.4384300000000000    0.8404000000000000 C
   0.6845600000000001    0.5686600000000001    0.9058550000000001 C
   0.5681400000000000    0.1375700000000000    0.8081499999999999 C
   0.5566250000000000    0.8689800000000000    0.9431950000000000 C
   0.6050000000000000    0.9613400000000000    0.8909600000000000 C
   0.6077800000000000    0.0258800000000000    0.8584149999999999 C
   0.5171300000000000    0.9826400000000000    0.8937500000000000 C
   0.5199200000000000    0.0472700000000000    0.8612450000000000 C
   0.5596300000000000    0.9390800000000000    0.9087499999999999 C
   0.5652600000000000    0.0691900000000000    0.8433100000000000 C
   0.4317750000000000    0.6314700000000000    0.5558000000000000 C
   0.4433700000000000    0.3626600000000000    0.6908550000000000 C
   0.3922500000000000    0.5181100000000000    0.6054800000000000 C
   0.3950550000000000    0.4535400000000000    0.6380250000000001 C
   0.4829250000000000    0.4747000000000000    0.6407200000000000 C
   0.4801100000000000    0.5393600000000000    0.6082100000000000 C
   0.4404200000000000    0.4313900000000000    0.6558600000000000 C
   0.4347400000000000    0.5616200000000000    0.5904000000000000 C
   0.5683400000000000    0.1310600000000000    0.6931849999999999 C
   0.5568500000000000    0.8624600000000000    0.5581850000000000 C
   0.5199650000000000    0.0386200000000000    0.6409700000000000 C
   0.5171950000000000    0.9740799999999999    0.6084250000000000 C
   0.5597250000000000    0.9308600000000000    0.5932950000000000 C
   0.6050750000000000    0.9528700000000000    0.6112050000000000 C
   0.6078500000000000    0.0175000000000000    0.6437100000000000 C
   0.5653400000000000    0.0609700000000000    0.6587400000000000 C
   0.6932150000000000    0.3685600000000000    0.3058000000000000 C
   0.6816100000000000    0.6373700000000000    0.4408550000000000 C
   0.7327250000000000    0.4820800000000000    0.3554200000000000 C
   0.7299150000000000    0.5466400000000000    0.3879500000000000 C
   0.6448850000000000    0.4605600000000000    0.3580000000000000 C
   0.6420650000000000    0.5252100000000000    0.3907600000000000 C
   0.6902450000000000    0.4384300000000000    0.3404000000000000 C
   0.6845600000000001    0.5686600000000001    0.4058550000000000 C
   0.5681400000000000    0.1375700000000000    0.3081500000000000 C
   0.5566250000000000    0.8689800000000000    0.4431950000000000 C
   0.6050000000000000    0.9613400000000000    0.3909600000000000 C
   0.6077800000000000    0.0258800000000000    0.3584150000000000 C
   0.5171300000000000    0.9826400000000000    0.3937500000000000 C
   0.5199200000000000    0.0472700000000000    0.3612450000000000 C
   0.5596300000000000    0.9390800000000000    0.4087500000000000 C
   0.5652600000000000    0.0691900000000000    0.3433100000000000 C
   0.4317750000000000    0.6314700000000000    0.0558000000000000 C
   0.4433700000000000    0.3626600000000000    0.1908550000000000 C
   0.3922500000000000    0.5181100000000000    0.1054800000000000 C
   0.3950550000000000    0.4535400000000000    0.1380250000000000 C
   0.4829250000000000    0.4747000000000000    0.1407200000000000 C
   0.4801100000000000    0.5393600000000000    0.1082100000000000 C
   0.4404200000000000    0.4313900000000000    0.1558600000000000 C
   0.4347400000000000    0.5616200000000000    0.0904000000000000 C
   0.3183450000000000    0.1310600000000000    0.1931850000000000 C
   0.3068550000000000    0.8624700000000000    0.0581850000000000 C
   0.3550800000000000    0.9529000000000000    0.1111500000000000 C
   0.3578600000000000    0.0175300000000000    0.1437000000000000 C
   0.2671950000000000    0.9740700000000000    0.1084300000000000 C
   0.2699700000000000    0.0386100000000000    0.1409750000000000 C
   0.3153450000000000    0.0609800000000000    0.1587350000000000 C
   0.3097300000000000    0.9308700000000000    0.0932500000000000 C
   0.4432200000000000    0.3685600000000000    0.8058449999999999 C
   0.4316150000000000    0.6373700000000000    0.9408550000000000 C
   0.4827300000000000    0.4820700000000000    0.8554250000000000 C
   0.4799200000000000    0.5466400000000000    0.8879750000000000 C
   0.4345650000000000    0.5686600000000001    0.9058550000000001 C
   0.3948850000000000    0.4605500000000000    0.8582500000000000 C
   0.3920700000000000    0.5252000000000000    0.8907600000000000 C
   0.4402500000000000    0.4384300000000000    0.8404050000000001 C
   0.3066300000000000    0.8689800000000000    0.9431950000000000 C
   0.3181450000000000    0.1375700000000000    0.8081900000000000 C
   0.2671350000000000    0.9826500000000000    0.8937550000000001 C
   0.2699250000000000    0.0472800000000000    0.8612500000000001 C
   0.3577850000000000    0.0258500000000000    0.8584050000000000 C
   0.3550000000000000    0.9613100000000000    0.8909450000000000 C
   0.3096350000000000    0.9390700000000000    0.9085000000000000 C
   0.3152650000000000    0.0691800000000000    0.8433050000000000 C
   0.1817700000000000    0.6314700000000000    0.5558400000000000 C
   0.1933650000000000    0.3626600000000000    0.6908550000000000 C
   0.2301100000000000    0.5393600000000000    0.6082100000000000 C
   0.2329250000000000    0.4747000000000000    0.6407150000000000 C
   0.1422450000000000    0.5181000000000000    0.6054750000000000 C
   0.1450500000000000    0.4535300000000000    0.6380200000000000 C
   0.1904150000000000    0.4313800000000000    0.6558600000000000 C
   0.1847350000000000    0.5616100000000001    0.5904050000000000 C
   0.3183450000000000    0.1310600000000000    0.6931849999999999 C
   0.3068550000000000    0.8624700000000000    0.5581850000000000 C
   0.3550800000000000    0.9529000000000000    0.6111500000000000 C
   0.3578600000000000    0.0175300000000000    0.6436999999999999 C
   0.2671950000000000    0.9740700000000000    0.6084300000000000 C
   0.2699700000000000    0.0386100000000000    0.6409750000000000 C
   0.3153450000000000    0.0609800000000000    0.6587350000000000 C
   0.3097300000000000    0.9308700000000000    0.5932500000000001 C
   0.4432200000000000    0.3685600000000000    0.3058450000000000 C
   0.4316150000000000    0.6373700000000000    0.4408550000000000 C
   0.4827300000000000    0.4820700000000000    0.3554250000000000 C
   0.4799200000000000    0.5466400000000000    0.3879750000000000 C
   0.4345650000000000    0.5686600000000001    0.4058550000000000 C
   0.3948850000000000    0.4605500000000000    0.3582500000000000 C
   0.3920700000000000    0.5252000000000000    0.3907600000000000 C
   0.4402500000000000    0.4384300000000000    0.3404050000000000 C
   0.3066300000000000    0.8689800000000000    0.4431950000000000 C
   0.3181450000000000    0.1375700000000000    0.3081900000000000 C
   0.2671350000000000    0.9826500000000000    0.3937550000000000 C
   0.2699250000000000    0.0472800000000000    0.3612500000000000 C
   0.3577850000000000    0.0258500000000000    0.3584050000000000 C
   0.3550000000000000    0.9613100000000000    0.3909450000000000 C
   0.3096350000000000    0.9390700000000000    0.4085000000000000 C
   0.3152650000000000    0.0691800000000000    0.3433050000000000 C
   0.1817700000000000    0.6314700000000000    0.0558400000000000 C
   0.1933650000000000    0.3626600000000000    0.1908550000000000 C
   0.2301100000000000    0.5393600000000000    0.1082100000000000 C
   0.2329250000000000    0.4747000000000000    0.1407150000000000 C
   0.1422450000000000    0.5181000000000000    0.1054750000000000 C
   0.1450500000000000    0.4535300000000000    0.1380200000000000 C
   0.1904150000000000    0.4313800000000000    0.1558600000000000 C
   0.1847350000000000    0.5616100000000001    0.0904050000000000 C
   0.1932150000000000    0.3685600000000000    0.3058000000000000 C
   0.1816100000000000    0.6373700000000000    0.4408550000000000 C
   0.2327250000000000    0.4820800000000000    0.3554200000000000 C
   0.2299150000000000    0.5466400000000000    0.3879500000000000 C
   0.1448850000000000    0.4605600000000000    0.3580000000000000 C
   0.1420650000000000    0.5252100000000000    0.3907600000000000 C
   0.1902450000000000    0.4384300000000000    0.3404000000000000 C
   0.1845600000000000    0.5686600000000001    0.4058550000000000 C
   0.0683400000000000    0.1310600000000000    0.6931849999999999 C
   0.0568500000000000    0.8624600000000000    0.5581850000000000 C
   0.0199650000000000    0.0386200000000000    0.6409700000000000 C
   0.0171950000000000    0.9740799999999999    0.6084250000000000 C
   0.0597250000000000    0.9308600000000000    0.5932950000000000 C
   0.1050750000000000    0.9528700000000000    0.6112050000000000 C
   0.1078500000000000    0.0175000000000000    0.6437100000000000 C
   0.0653400000000000    0.0609700000000000    0.6587400000000000 C
   0.9317750000000000    0.6314700000000000    0.0558000000000000 C
   0.9433700000000000    0.3626600000000000    0.1908550000000000 C
   0.8922500000000000    0.5181100000000000    0.1054800000000000 C
   0.8950549999999999    0.4535400000000000    0.1380250000000000 C
   0.9829250000000000    0.4747000000000000    0.1407200000000000 C
   0.9801100000000000    0.5393600000000000    0.1082100000000000 C
   0.9404200000000000    0.4313900000000000    0.1558600000000000 C
   0.9347400000000000    0.5616200000000000    0.0904000000000000 C
   0.0683400000000000    0.1310600000000000    0.1931850000000000 C
   0.0568500000000000    0.8624600000000000    0.0581850000000000 C
   0.0199650000000000    0.0386200000000000    0.1409700000000000 C
   0.0171950000000000    0.9740799999999999    0.1084250000000000 C
   0.0597250000000000    0.9308600000000000    0.0932950000000000 C
   0.1050750000000000    0.9528700000000000    0.1112050000000000 C
   0.1078500000000000    0.0175000000000000    0.1437100000000000 C
   0.0653400000000000    0.0609700000000000    0.1587400000000000 C
   0.1932150000000000    0.3685600000000000    0.8058000000000001 C
   0.1816100000000000    0.6373700000000000    0.9408550000000000 C
   0.2327250000000000    0.4820800000000000    0.8554200000000001 C
   0.2299150000000000    0.5466400000000000    0.8879500000000000 C
   0.1448850000000000    0.4605600000000000    0.8580000000000000 C
   0.1420650000000000    0.5252100000000000    0.8907600000000000 C
   0.1902450000000000    0.4384300000000000    0.8404000000000000 C
   0.1845600000000000    0.5686600000000001    0.9058550000000001 C
   0.0681400000000000    0.1375700000000000    0.8081499999999999 C
   0.0566250000000000    0.8689800000000000    0.9431950000000000 C
   0.1050000000000000    0.9613400000000000    0.8909600000000000 C
   0.1077800000000000    0.0258800000000000    0.8584149999999999 C
   0.0171300000000000    0.9826400000000000    0.8937500000000000 C
   0.0199200000000000    0.0472700000000000    0.8612450000000000 C
   0.0596300000000000    0.9390800000000000    0.9087499999999999 C
   0.0652600000000000    0.0691900000000000    0.8433100000000000 C
   0.9317750000000000    0.6314700000000000    0.5558000000000000 C
   0.9433700000000000    0.3626600000000000    0.6908550000000000 C
   0.8922500000000000    0.5181100000000000    0.6054800000000000 C
   0.8950549999999999    0.4535400000000000    0.6380250000000001 C
   0.9829250000000000    0.4747000000000000    0.6407200000000000 C
   0.9801100000000000    0.5393600000000000    0.6082100000000000 C
   0.9404200000000000    0.4313900000000000    0.6558600000000000 C
   0.9347400000000000    0.5616200000000000    0.5904000000000000 C
   0.8183450000000000    0.1310600000000000    0.6931849999999999 C
   0.8068550000000000    0.8624700000000000    0.5581850000000000 C
   0.8550800000000001    0.9529000000000000    0.6111500000000000 C
   0.8578600000000001    0.0175300000000000    0.6436999999999999 C
   0.7671950000000001    0.9740700000000000    0.6084300000000000 C
   0.7699700000000000    0.0386100000000000    0.6409750000000000 C
   0.8153450000000000    0.0609800000000000    0.6587350000000000 C
   0.8097300000000001    0.9308700000000000    0.5932500000000001 C
   0.9432199999999999    0.3685600000000000    0.3058450000000000 C
   0.9316150000000001    0.6373700000000000    0.4408550000000000 C
   0.9827300000000000    0.4820700000000000    0.3554250000000000 C
   0.9799200000000000    0.5466400000000000    0.3879750000000000 C
   0.9345650000000000    0.5686600000000001    0.4058550000000000 C
   0.8948849999999999    0.4605500000000000    0.3582500000000000 C
   0.8920699999999999    0.5252000000000000    0.3907600000000000 C
   0.9402500000000000    0.4384300000000000    0.3404050000000000 C
   0.8066300000000000    0.8689800000000000    0.4431950000000000 C
   0.8181450000000000    0.1375700000000000    0.3081900000000000 C
   0.7671350000000000    0.9826500000000000    0.3937550000000000 C
   0.7699250000000000    0.0472800000000000    0.3612500000000000 C
   0.8577850000000000    0.0258500000000000    0.3584050000000000 C
   0.8550000000000000    0.9613100000000000    0.3909450000000000 C
   0.8096350000000000    0.9390700000000000    0.4085000000000000 C
   0.8152650000000000    0.0691800000000000    0.3433050000000000 C
   0.6817700000000000    0.6314700000000000    0.0558400000000000 C
   0.6933650000000000    0.3626600000000000    0.1908550000000000 C
   0.7301100000000000    0.5393600000000000    0.1082100000000000 C
   0.7329250000000000    0.4747000000000000    0.1407150000000000 C
   0.6422450000000000    0.5181000000000000    0.1054750000000000 C
   0.6450500000000000    0.4535300000000000    0.1380200000000000 C
   0.6904150000000000    0.4313800000000000    0.1558600000000000 C
   0.6847350000000000    0.5616100000000001    0.0904050000000000 C
   0.8183450000000000    0.1310600000000000    0.1931850000000000 C
   0.8068550000000000    0.8624700000000000    0.0581850000000000 C
   0.8550800000000001    0.9529000000000000    0.1111500000000000 C
   0.8578600000000001    0.0175300000000000    0.1437000000000000 C
   0.7671950000000001    0.9740700000000000    0.1084300000000000 C
   0.7699700000000000    0.0386100000000000    0.1409750000000000 C
   0.8153450000000000    0.0609800000000000    0.1587350000000000 C
   0.8097300000000001    0.9308700000000000    0.0932500000000000 C
   0.9432199999999999    0.3685600000000000    0.8058449999999999 C
   0.9316150000000001    0.6373700000000000    0.9408550000000000 C
   0.9827300000000000    0.4820700000000000    0.8554250000000000 C
   0.9799200000000000    0.5466400000000000    0.8879750000000000 C
   0.9345650000000000    0.5686600000000001    0.9058550000000001 C
   0.8948849999999999    0.4605500000000000    0.8582500000000000 C
   0.8920699999999999    0.5252000000000000    0.8907600000000000 C
   0.9402500000000000    0.4384300000000000    0.8404050000000001 C
   0.8066300000000000    0.8689800000000000    0.9431950000000000 C
   0.8181450000000000    0.1375700000000000    0.8081900000000000 C
   0.7671350000000000    0.9826500000000000    0.8937550000000001 C
   0.7699250000000000    0.0472800000000000    0.8612500000000001 C
   0.8577850000000000    0.0258500000000000    0.8584050000000000 C
   0.8550000000000000    0.9613100000000000    0.8909450000000000 C
   0.8096350000000000    0.9390700000000000    0.9085000000000000 C
   0.8152650000000000    0.0691800000000000    0.8433050000000000 C
   0.6817700000000000    0.6314700000000000    0.5558400000000000 C
   0.6933650000000000    0.3626600000000000    0.6908550000000000 C
   0.7301100000000000    0.5393600000000000    0.6082100000000000 C
   0.7329250000000000    0.4747000000000000    0.6407150000000000 C
   0.6422450000000000    0.5181000000000000    0.6054750000000000 C
   0.6450500000000000    0.4535300000000000    0.6380200000000000 C
   0.6904150000000000    0.4313800000000000    0.6558600000000000 C
   0.6847350000000000    0.5616100000000001    0.5904050000000000 C
   0.6107200000000000    0.1525000000000000    0.2066900000000000 O
   0.5281100000000000    0.1651400000000000    0.2066700000000000 O
   0.5146250000000000    0.8435400000000000    0.0436100000000000 O
   0.5970550000000000    0.8275100000000000    0.0450650000000000 O
   0.7354849999999999    0.3488500000000000    0.7915650000000001 O
   0.6530400000000001    0.3329200000000000    0.7930250000000000 O
   0.6392800000000000    0.6581600000000000    0.9546550000000000 O
   0.7218350000000000    0.6708400000000000    0.9546500000000000 O
   0.6103650000000000    0.1564900000000000    0.7936150000000000 O
   0.5279300000000000    0.1725200000000000    0.7950650000000000 O
   0.5142500000000000    0.8475300000000000    0.9566950000000001 O
   0.5968550000000000    0.8349000000000000    0.9566800000000000 O
   0.3895100000000000    0.6511900000000000    0.5415600000000000 O
   0.4719500000000000    0.6671000000000000    0.5430000000000000 O
   0.4857000000000000    0.3418700000000000    0.7046500000000000 O
   0.4031400000000000    0.3291900000000000    0.7046500000000000 O
   0.6107200000000000    0.1525000000000000    0.7066900000000000 O
   0.5281100000000000    0.1651400000000000    0.7066700000000000 O
   0.5146250000000000    0.8435400000000000    0.5436100000000000 O
   0.5970550000000000    0.8275100000000000    0.5450650000000000 O
   0.7354849999999999    0.3488500000000000    0.2915650000000000 O
   0.6530400000000001    0.3329200000000000    0.2930250000000000 O
   0.6392800000000000    0.6581600000000000    0.4546550000000000 O
   0.7218350000000000    0.6708400000000000    0.4546500000000000 O
   0.6103650000000000    0.1564900000000000    0.2936150000000000 O
   0.5279300000000000    0.1725200000000000    0.2950650000000000 O
   0.5142500000000000    0.8475300000000000    0.4566950000000000 O