H18 C30 O10
1.0
  18.6259498180625194    0.0000000000000000    0.0432362696924546
  -1.2899800293838910   29.0433477369398005    0.0329811307345853
   0.0000000000000000    0.0000000000000000   27.6490000000000009
H C O
18 30 10
direct
   0.5553100000000000    0.1652950000000000    0.3657800000000000 H
   0.5896700000000000    0.2778050000000000    0.2649300000000000 H
   0.3907700000000000    0.1957800000000000    0.2627000000000000 H
   0.6736000000000000    0.1778900000000000    0.3729200000000000 H
   0.6245500000000000    0.2169200000000000    0.4085500000000000 H
   0.8048400000000000    0.1950800000000000    0.3564200000000000 H
   0.9178700000000000    0.2317500000000000    0.3875800000000000 H
   0.7959000000000001    0.3217850000000000    0.4763100000000000 H
   0.6833300000000000    0.2829750000000000    0.4473600000000000 H
   0.9922500000000000    0.2951400000000000    0.3851800000000000 H
   0.1040300000000000    0.3332000000000000    0.4155300000000000 H
   0.0032700000000000    0.3541350000000000    0.5534800000000000 H
   0.8908600000000000    0.3171400000000000    0.5230100000000000 H
   0.1223100000000000    0.3820400000000000    0.5424700000000000 H
   0.1721500000000000    0.3410300000000000    0.5101500000000000 H
   0.2111900000000000    0.4623600000000000    0.4157900000000000 H
   0.4133100000000000    0.4829300000000000    0.4907400000000000 H
   0.2509300000000000    0.3889400000000000    0.5485600000000000 H
   0.9376300000000000    0.3198850000000000    0.4993200000000000 C
   0.1310100000000000    0.3670450000000000    0.5064600000000000 C
   0.4690600000000000    0.1770700000000000    0.3161100000000000 C
   0.5365799999999999    0.1874050000000000    0.3371200000000000 C
   0.5793100000000000    0.2246500000000000    0.3194400000000000 C
   0.5552100000000000    0.2499900000000000    0.2797600000000000 C
   0.4874600000000000    0.2398500000000000    0.2598300000000000 C
   0.4433600000000000    0.2037000000000000    0.2783100000000000 C
   0.4265000000000000    0.1361300000000000    0.3332800000000000 C
   0.4621000000000000    0.2667650000000000    0.2176000000000000 C
   0.6673400000000000    0.2144450000000000    0.3812600000000000 C
   0.7360700000000000    0.2369200000000000    0.3992900000000000 C
   0.8028800000000000    0.2228800000000000    0.3828300000000000 C
   0.8665000000000000    0.2438300000000000    0.4000400000000000 C
   0.8655700000000000    0.2797650000000000    0.4340700000000000 C
   0.7983500000000000    0.2935450000000000    0.4505400000000000 C
   0.7348900000000000    0.2722200000000000    0.4337000000000000 C
   0.9331100000000000    0.3022350000000000    0.4521000000000000 C
   0.9945600000000000    0.3072500000000000    0.4224800000000000 C
   0.0578200000000000    0.3286250000000000    0.4396200000000000 C
   0.0621200000000000    0.3454250000000000    0.4871200000000000 C
   0.0011200000000000    0.3409100000000000    0.5166200000000000 C
   0.2234100000000000    0.4223050000000000    0.4807200000000000 C
   0.2467300000000000    0.4545750000000000    0.4456000000000000 C
   0.3154200000000000    0.4756200000000000    0.4489100000000000 C
   0.3602500000000000    0.4661000000000000    0.4880300000000000 C
   0.3358300000000000    0.4353850000000000    0.5238100000000000 C
   0.2677600000000000    0.4128700000000000    0.5200200000000000 C
   0.3824500000000000    0.4265250000000000    0.5668000000000000 C
   0.3429600000000000    0.5077950000000000    0.4107700000000000 C
   0.3689000000000000    0.1231150000000000    0.3102700000000000 O
   0.4471500000000000    0.1135100000000000    0.3701900000000000 O
   0.6444900000000000    0.2383800000000000    0.3377600000000000 O
   0.1565300000000000    0.4023200000000000    0.4730000000000000 O
   0.3687300000000000    0.3945100000000000    0.5957300000000000 O
   0.4380700000000000    0.4556450000000000    0.5701400000000000 O
   0.3940600000000000    0.2693050000000000    0.2128300000000000 O
   0.5096800000000000    0.2849600000000000    0.1893300000000000 O
   0.4104000000000000    0.5151350000000000    0.4066300000000000 O
   0.2967700000000000    0.5268150000000000    0.3828300000000000 O
