Zn32 H270 C450 O150
1.0
  18.6259498180625194    0.0000000000000000    0.0432362696924546
  -1.2899800293838910   29.0433477369398005    0.0329811307345853
   0.0000000000000000    0.0000000000000000   27.6490000000000009
Zn H C O
32 270 450 150
direct
   0.8494000000000000    0.0603800000000000    0.3336800000000000 Zn
   0.4967500000000000    0.0528600000000000    0.3789200000000000 Zn
   0.9967400000000000    0.0528600000000000    0.3789200000000000 Zn
   0.1506700000000000    0.1896550000000000    0.8334800000000000 Zn
   0.6506700000000000    0.1896550000000000    0.8334800000000000 Zn
   0.0033300000000000    0.1970450000000000    0.8790500000000000 Zn
   0.5033200000000000    0.1970450000000000    0.8790500000000000 Zn
   0.1505800000000000    0.4396100000000000    0.6663000000000000 Zn
   0.6505700000000000    0.4396100000000000    0.6663000000000000 Zn
   0.0032400000000000    0.4471300000000000    0.6210700000000000 Zn
   0.5032300000000000    0.4471300000000000    0.6210700000000000 Zn
   0.3493100000000000    0.3103400000000000    0.1665100000000000 Zn
   0.8493100000000000    0.3103400000000000    0.1665100000000000 Zn
   0.4966600000000000    0.3029450000000000    0.1209300000000000 Zn
   0.9966500000000000    0.3029450000000000    0.1209300000000000 Zn
   0.3494100000000000    0.0603800000000000    0.3336800000000000 Zn
   0.8494000000000000    0.5603800000000000    0.3336800000000000 Zn
   0.4967500000000000    0.5528600000000000    0.3789200000000000 Zn
   0.9967400000000000    0.5528600000000000    0.3789200000000000 Zn
   0.1506700000000000    0.6896550000000000    0.8334800000000000 Zn
   0.6506700000000000    0.6896550000000000    0.8334800000000000 Zn
   0.0033300000000000    0.6970450000000000    0.8790500000000000 Zn
   0.5033200000000000    0.6970450000000000    0.8790500000000000 Zn
   0.1505800000000000    0.9396100000000001    0.6663000000000000 Zn
   0.6505700000000000    0.9396100000000001    0.6663000000000000 Zn
   0.0032400000000000    0.9471300000000000    0.6210700000000000 Zn
   0.5032300000000000    0.9471300000000000    0.6210700000000000 Zn
   0.3493100000000000    0.8103400000000001    0.1665100000000000 Zn
   0.8493100000000000    0.8103400000000001    0.1665100000000000 Zn
   0.4966600000000000    0.8029450000000000    0.1209300000000000 Zn
   0.9966500000000000    0.8029450000000000    0.1209300000000000 Zn
   0.3494100000000000    0.5603800000000000    0.3336800000000000 Zn
   0.0553200000000000    0.1652950000000000    0.3657800000000000 H
   0.0896800000000000    0.2778050000000000    0.2649300000000000 H
   0.8907600000000000    0.1957800000000000    0.2627000000000000 H
   0.1736100000000000    0.1778900000000000    0.3729200000000000 H
   0.1245600000000000    0.2169200000000000    0.4085500000000000 H
   0.3048500000000000    0.1950850000000000    0.3564000000000000 H
   0.4178800000000000    0.2317550000000000    0.3875800000000000 H
   0.2959100000000000    0.3217750000000000    0.4763200000000000 H
   0.1833400000000000    0.2829700000000000    0.4473000000000000 H
   0.4922400000000000    0.2951500000000000    0.3851800000000000 H
   0.6040200000000000    0.3332050000000000    0.4155000000000000 H
   0.5032600000000000    0.3541250000000000    0.5534800000000000 H
   0.3908700000000000    0.3171350000000000    0.5230100000000000 H
   0.6223000000000000    0.3820400000000000    0.5424700000000000 H
   0.6721400000000000    0.3410300000000000    0.5101500000000000 H
   0.7111800000000000    0.4623600000000000    0.4157900000000000 H
   0.9133100000000000    0.4829350000000000    0.4907400000000000 H
   0.7509200000000000    0.3889400000000000    0.5485600000000000 H
   0.4454600000000000    0.0845100000000000    0.8663400000000000 H
   0.9454600000000000    0.0845100000000000    0.8663400000000000 H
   0.4106700000000000    0.4721950000000000    0.7656400000000000 H
   0.9106600000000000    0.4721900000000000    0.7656500000000001 H
   0.1095600000000000    0.0542800000000000    0.7624300000000001 H
   0.6095600000000000    0.0542800000000000    0.7624300000000001 H
   0.3274100000000000    0.0722500000000000    0.8736699999999999 H
   0.8274000000000000    0.0722500000000000    0.8736699999999999 H
   0.3759100000000000    0.0330750000000000    0.9094500000000000 H
   0.8759000000000000    0.0330800000000000    0.9094500000000000 H
   0.1961700000000000    0.0557750000000000    0.8575900000000000 H
   0.6961600000000000    0.0557750000000000    0.8575900000000000 H
   0.0826700000000000    0.0191050000000000    0.8885100000000000 H
   0.5826600000000000    0.0191050000000000    0.8885100000000000 H
   0.2034300000000000    0.4279950000000000    0.9766200000000000 H
   0.7034200000000000    0.4280000000000000    0.9766200000000000 H
   0.3164300000000000    0.4668750000000000    0.9480200000000000 H
   0.8164200000000000    0.4668750000000000    0.9480300000000000 H
   0.5079900000000001    0.4558100000000000    0.8855800000000000 H
   0.0000000000000000    0.4558100000000000    0.8855800000000000 H
   0.3959100000000000    0.4175750000000000    0.9156500000000000 H
   0.8959000000000000    0.4175800000000000    0.9156000000000000 H
   0.4956500000000000    0.3952650000000000    0.0534300000000000 H
   0.9956400000000000    0.3952600000000000    0.0534300000000000 H
   0.1083600000000000    0.4322800000000000    0.0231800000000000 H
   0.6083499999999999    0.4322850000000000    0.0231800000000000 H
   0.3766000000000000    0.3679100000000000    0.0424400000000000 H
   0.8765900000000000    0.3679150000000000    0.0424400000000000 H
   0.3269300000000000    0.4088400000000000    0.0099000000000000 H
   0.8269300000000001    0.4088400000000000    0.0099100000000000 H
   0.2894700000000000    0.2878900000000000    0.9153400000000000 H
   0.7894700000000000    0.2878900000000000    0.9153400000000000 H
   0.0860300000000000    0.2672450000000000    0.9892900000000000 H
   0.5860200000000000    0.2672450000000000    0.9892900000000000 H
   0.2475600000000000    0.3609450000000000    0.0479700000000000 H
   0.7475500000000000    0.3609450000000000    0.0479700000000000 H
   0.4446700000000000    0.3346950000000000    0.6342000000000000 H
   0.9446600000000001    0.3346950000000000    0.6342000000000000 H
   0.4103100000000000    0.2221900000000000    0.7350500000000000 H
   0.9103000000000000    0.2221900000000000    0.7350500000000000 H
   0.1092200000000000    0.3042100000000000    0.7372000000000000 H
   0.6092100000000000    0.3042100000000000    0.7372000000000000 H
   0.3263700000000000    0.3221000000000000    0.6270600000000000 H
   0.8263700000000000    0.3221000000000000    0.6270600000000000 H
   0.3754300000000000    0.2830650000000000    0.5914300000000000 H
   0.8754300000000000    0.2830650000000000    0.5914300000000000 H
   0.1951400000000000    0.3049000000000000    0.6435600000000000 H
   0.6951300000000000    0.3049050000000000    0.6435600000000000 H
   0.0821100000000000    0.2682300000000000    0.6124000000000001 H
   0.5821100000000000    0.2682300000000000    0.6124000000000001 H
   0.2040800000000000    0.1782000000000000    0.5236700000000000 H
   0.7040700000000000    0.1782000000000000    0.5236700000000000 H
   0.3166600000000000    0.2170150000000000    0.5526200000000000 H
   0.8166500000000000    0.2170100000000000    0.5526200000000000 H
   0.5077500000000000    0.2048350000000000    0.6148000000000000 H
   0.0000000000000000    0.2048350000000000    0.6148100000000000 H
   0.3959700000000000    0.1667800000000000    0.5844000000000000 H
   0.8959600000000000    0.1667750000000000    0.5844000000000000 H
   0.4967200000000000    0.1458550000000000    0.4465000000000000 H
   0.9967100000000000    0.1458550000000000    0.4465000000000000 H
   0.1091300000000000    0.1828450000000000    0.4769000000000000 H
   0.6091200000000000    0.1828450000000000    0.4769700000000000 H
   0.3776900000000000    0.1179400000000000    0.4575100000000000 H
   0.8776800000000000    0.1179400000000000    0.4575100000000000 H
   0.3278500000000000    0.1589550000000000    0.4898300000000000 H
   0.8278400000000000    0.1589550000000000    0.4898000000000000 H
   0.2888000000000000    0.0376250000000000    0.5841900000000000 H
   0.7887900000000000    0.0376250000000000    0.5841900000000000 H
   0.0866800000000000    0.0170500000000000    0.5092400000000000 H
   0.5866700000000000    0.0170550000000000    0.5092000000000000 H
   0.2490600000000000    0.1110500000000000    0.4514200000000000 H
   0.7490599999999999    0.1110500000000000    0.4514200000000000 H
   0.0545300000000000    0.4154800000000000    0.1336500000000000 H
   0.5545200000000000    0.4154800000000000    0.1336500000000000 H
   0.0893200000000000    0.0278000000000000    0.2343400000000000 H
   0.5893100000000000    0.0277950000000000    0.2343000000000000 H
   0.3904300000000000    0.4457150000000000    0.2375600000000000 H
   0.8904200000000000    0.4457150000000000    0.2375600000000000 H
   0.1725800000000000    0.4277350000000000    0.1263200000000000 H
   0.6725800000000000    0.4277350000000000    0.1263200000000000 H
   0.1240800000000000    0.4669050000000000    0.0905400000000000 H
   0.6240800000000000    0.4669050000000000    0.0905400000000000 H
   0.3038300000000000    0.4442150000000000    0.1424000000000000 H
   0.8038200000000000    0.4442150000000000    0.1424100000000000 H
   0.4173200000000000    0.4808800000000000    0.1114800000000000 H
   0.9173100000000000    0.4808850000000000    0.1114800000000000 H
   0.2965600000000000    0.0719850000000000    0.0233000000000000 H
   0.7965500000000000    0.0719850000000000    0.0233700000000000 H
   0.1835600000000000    0.0331100000000000    0.0519600000000000 H
   0.6835500000000000    0.0331100000000000    0.0519700000000000 H
   0.9920099999999999    0.0441750000000000    0.1144100000000000 H
   0.4920000000000000    0.0441750000000000    0.1144000000000000 H
   0.1040800000000000    0.0824050000000000    0.0843400000000000 H
   0.6040700000000000    0.0824100000000000    0.0843400000000000 H
   0.0043400000000000    0.1047300000000000    0.9465600000000000 H
   0.5043299999999999    0.1047250000000000    0.9465000000000000 H
   0.3916400000000000    0.0677100000000000    0.9768100000000000 H
   0.8916300000000000    0.0677150000000000    0.9768100000000000 H
   0.1233900000000000    0.1320750000000000    0.9575500000000000 H
   0.6233900000000000    0.1320750000000000    0.9575500000000000 H
   0.1730600000000000    0.0911500000000000    0.9900800000000000 H
   0.6730500000000000    0.0911500000000000    0.9900700000000000 H
   0.2105100000000000    0.2121000000000000    0.0846500000000000 H
   0.7105000000000000    0.2121000000000000    0.0846500000000000 H
   0.4139500000000000    0.2327550000000000    0.0106900000000000 H
   0.9139400000000000    0.2327550000000000    0.0106900000000000 H
   0.2524300000000000    0.1390450000000000    0.9520200000000000 H
   0.7524200000000000    0.1390450000000000    0.9520200000000000 H
   0.0553200000000000    0.6652950000000000    0.3657800000000000 H
   0.5553100000000000    0.6652950000000000    0.3657800000000000 H
   0.0896800000000000    0.7778050000000001    0.2649300000000000 H
   0.5896700000000000    0.7778050000000001    0.2649300000000000 H
   0.3907700000000000    0.6957800000000001    0.2627000000000000 H
   0.8907600000000000    0.6957800000000001    0.2627000000000000 H
   0.1736100000000000    0.6778900000000000    0.3729200000000000 H
   0.6736000000000000    0.6778900000000000    0.3729200000000000 H
   0.1245600000000000    0.7169200000000000    0.4085500000000000 H
   0.6245500000000000    0.7169200000000000    0.4085500000000000 H
   0.3048500000000000    0.6950850000000000    0.3564000000000000 H
   0.8048400000000000    0.6950800000000000    0.3564200000000000 H
   0.4178800000000000    0.7317549999999999    0.3875800000000000 H
   0.9178700000000000    0.7317500000000000    0.3875800000000000 H
   0.2959100000000000    0.8217749999999999    0.4763200000000000 H
   0.7959000000000001    0.8217850000000000    0.4763100000000000 H
   0.1833400000000000    0.7829699999999999    0.4473000000000000 H
   0.6833300000000000    0.7829750000000000    0.4473600000000000 H
   0.9922500000000000    0.7951400000000000    0.3851800000000000 H
   0.4922400000000000    0.7951500000000000    0.3851800000000000 H
   0.1040300000000000    0.8331999999999999    0.4155300000000000 H
   0.6040200000000000    0.8332050000000000    0.4155000000000000 H
   0.0032700000000000    0.8541350000000000    0.5534800000000000 H
   0.5032600000000000    0.8541250000000000    0.5534800000000000 H
   0.3908700000000000    0.8171349999999999    0.5230100000000000 H
   0.8908600000000000    0.8171400000000000    0.5230100000000000 H
   0.1223100000000000    0.8820399999999999    0.5424700000000000 H
   0.6223000000000000    0.8820399999999999    0.5424700000000000 H
   0.1721500000000000    0.8410299999999999    0.5101500000000000 H
   0.6721400000000000    0.8410299999999999    0.5101500000000000 H
   0.2111900000000000    0.9623600000000000    0.4157900000000000 H
   0.7111800000000000    0.9623600000000000    0.4157900000000000 H
   0.4133100000000000    0.9829300000000001    0.4907400000000000 H
   0.9133100000000000    0.9829350000000000    0.4907400000000000 H
   0.2509300000000000    0.8889400000000001    0.5485600000000000 H
   0.7509200000000000    0.8889400000000001    0.5485600000000000 H
   0.4454600000000000    0.5845100000000000    0.8663400000000000 H
   0.9454600000000000    0.5845100000000000    0.8663400000000000 H
   0.4106700000000000    0.9721949999999999    0.7656400000000000 H
   0.9106600000000000    0.9721900000000000    0.7656500000000001 H
   0.1095600000000000    0.5542800000000000    0.7624300000000001 H
   0.6095600000000000    0.5542800000000000    0.7624300000000001 H
   0.3274100000000000    0.5722500000000000    0.8736699999999999 H
   0.8274000000000000    0.5722500000000000    0.8736699999999999 H
   0.3759100000000000    0.5330750000000000    0.9094500000000000 H
   0.8759000000000000    0.5330800000000000    0.9094500000000000 H
   0.1961700000000000    0.5557750000000000    0.8575900000000000 H
   0.6961600000000000    0.5557750000000000    0.8575900000000000 H
   0.0826700000000000    0.5191050000000000    0.8885100000000000 H
   0.5826600000000000    0.5191050000000000    0.8885100000000000 H
   0.2034300000000000    0.9279950000000000    0.9766200000000000 H
   0.7034200000000000    0.9279999999999999    0.9766200000000000 H
   0.3164300000000000    0.9668749999999999    0.9480200000000000 H
   0.8164200000000000    0.9668749999999999    0.9480300000000000 H
   0.5079900000000001    0.9558100000000000    0.8855800000000000 H
   0.0000000000000000    0.9558100000000000    0.8855800000000000 H
   0.3959100000000000    0.9175750000000000    0.9156500000000000 H
   0.8959000000000000    0.9175800000000001    0.9156000000000000 H
   0.4956500000000000    0.8952650000000000    0.0534300000000000 H
   0.9956400000000000    0.8952599999999999    0.0534300000000000 H
   0.1083600000000000    0.9322800000000000    0.0231800000000000 H
   0.6083499999999999    0.9322850000000000    0.0231800000000000 H
   0.3766000000000000    0.8679100000000000    0.0424400000000000 H
   0.8765900000000000    0.8679150000000000    0.0424400000000000 H
   0.3269300000000000    0.9088400000000000    0.0099000000000000 H
   0.8269300000000001    0.9088400000000000    0.0099100000000000 H
   0.2894700000000000    0.7878900000000000    0.9153400000000000 H
   0.7894700000000000    0.7878900000000000    0.9153400000000000 H
   0.0860300000000000    0.7672450000000000    0.9892900000000000 H
   0.5860200000000000    0.7672450000000000    0.9892900000000000 H
   0.2475600000000000    0.8609450000000001    0.0479700000000000 H
   0.7475500000000000    0.8609450000000001    0.0479700000000000 H
   0.4446700000000000    0.8346950000000000    0.6342000000000000 H
   0.9446600000000001    0.8346950000000000    0.6342000000000000 H
   0.4103100000000000    0.7221900000000000    0.7350500000000000 H
   0.9103000000000000    0.7221900000000000    0.7350500000000000 H
   0.1092200000000000    0.8042100000000000    0.7372000000000000 H
   0.6092100000000000    0.8042100000000000    0.7372000000000000 H
   0.3263700000000000    0.8221000000000001    0.6270600000000000 H
   0.8263700000000000    0.8221000000000001    0.6270600000000000 H
   0.3754300000000000    0.7830650000000000    0.5914300000000000 H
   0.8754300000000000    0.7830650000000000    0.5914300000000000 H
   0.1951400000000000    0.8048999999999999    0.6435600000000000 H
   0.6951300000000000    0.8049050000000000    0.6435600000000000 H
   0.0821100000000000    0.7682300000000000    0.6124000000000001 H
   0.5821100000000000    0.7682300000000000    0.6124000000000001 H
   0.2040800000000000    0.6782000000000000    0.5236700000000000 H
   0.7040700000000000    0.6782000000000000    0.5236700000000000 H
   0.3166600000000000    0.7170150000000000    0.5526200000000000 H
   0.8166500000000000    0.7170100000000000    0.5526200000000000 H
   0.5077500000000000    0.7048350000000000    0.6148000000000000 H
   0.0000000000000000    0.7048350000000000    0.6148100000000000 H
   0.3959700000000000    0.6667800000000000    0.5844000000000000 H
   0.8959600000000000    0.6667750000000000    0.5844000000000000 H
   0.4967200000000000    0.6458550000000001    0.4465000000000000 H
   0.9967100000000000    0.6458550000000001    0.4465000000000000 H
   0.1091300000000000    0.6828450000000000    0.4769000000000000 H
   0.6091200000000000    0.6828450000000000    0.4769700000000000 H
   0.3776900000000000    0.6179400000000000    0.4575100000000000 H
   0.8776800000000000    0.6179400000000000    0.4575100000000000 H
   0.3278500000000000    0.6589550000000000    0.4898300000000000 H
   0.8278400000000000    0.6589550000000000    0.4898000000000000 H
   0.2888000000000000    0.5376250000000000    0.5841900000000000 H
   0.7887900000000000    0.5376250000000000    0.5841900000000000 H
   0.0866800000000000    0.5170500000000000    0.5092400000000000 H
   0.5866700000000000    0.5170550000000000    0.5092000000000000 H
   0.2490600000000000    0.6110500000000000    0.4514200000000000 H
   0.7490599999999999    0.6110500000000000    0.4514200000000000 H
   0.0545300000000000    0.9154800000000001    0.1336500000000000 H
   0.5545200000000000    0.9154800000000001    0.1336500000000000 H
   0.0893200000000000    0.5278000000000000    0.2343400000000000 H
   0.5893100000000000    0.5277950000000000    0.2343000000000000 H
   0.3904300000000000    0.9457150000000000    0.2375600000000000 H
   0.8904200000000000    0.9457150000000000    0.2375600000000000 H
   0.1725800000000000    0.9277350000000000    0.1263200000000000 H
   0.6725800000000000    0.9277350000000000    0.1263200000000000 H
   0.1240800000000000    0.9669050000000000    0.0905400000000000 H
   0.6240800000000000    0.9669050000000000    0.0905400000000000 H
   0.3038300000000000    0.9442150000000000    0.1424000000000000 H
   0.8038200000000000    0.9442150000000000    0.1424100000000000 H
   0.4173200000000000    0.9808800000000000    0.1114800000000000 H
   0.9173100000000000    0.9808850000000000    0.1114800000000000 H
   0.2965600000000000    0.5719850000000000    0.0233000000000000 H
   0.7965500000000000    0.5719850000000000    0.0233700000000000 H
   0.1835600000000000    0.5331100000000000    0.0519600000000000 H
   0.6835500000000000    0.5331100000000000    0.0519700000000000 H
   0.9920099999999999    0.5441750000000000    0.1144100000000000 H
   0.4920000000000000    0.5441750000000000    0.1144000000000000 H
   0.1040800000000000    0.5824050000000001    0.0843400000000000 H
   0.6040700000000000    0.5824100000000000    0.0843400000000000 H
   0.0043400000000000    0.6047300000000000    0.9465600000000000 H
   0.5043299999999999    0.6047250000000000    0.9465000000000000 H
   0.3916400000000000    0.5677100000000000    0.9768100000000000 H
   0.8916300000000000    0.5677150000000000    0.9768100000000000 H
   0.1233900000000000    0.6320749999999999    0.9575500000000000 H
   0.6233900000000000    0.6320749999999999    0.9575500000000000 H
   0.1730600000000000    0.5911500000000000    0.9900800000000000 H
   0.6730500000000000    0.5911500000000000    0.9900700000000000 H
   0.2105100000000000    0.7121000000000000    0.0846500000000000 H
   0.7105000000000000    0.7121000000000000    0.0846500000000000 H
   0.4139500000000000    0.7327550000000000    0.0106900000000000 H
   0.9139400000000000    0.7327550000000000    0.0106900000000000 H
   0.2524300000000000    0.6390450000000000    0.9520200000000000 H
   0.7524200000000000    0.6390450000000000    0.9520200000000000 H
   0.5011200000000000    0.3409100000000000    0.5166200000000000 C
   0.4376400000000000    0.3198800000000000    0.4993200000000000 C
   0.4372800000000000    0.4046800000000000    0.9871600000000000 C
   0.9372700000000000    0.4046800000000000    0.9871600000000000 C
   0.4980700000000000    0.4088150000000000    0.0166800000000000 C
   0.9980599999999999    0.4088100000000000    0.0166800000000000 C
   0.0617200000000000    0.4299050000000000    0.9995100000000000 C
   0.9690500000000000    0.1770700000000000    0.3161100000000000 C
   0.0365800000000000    0.1874050000000000    0.3371200000000000 C
   0.0793100000000000    0.2246500000000000    0.3194400000000000 C
   0.0552200000000000    0.2499900000000000    0.2797600000000000 C
   0.9874500000000000    0.2398500000000000    0.2598300000000000 C
   0.9433500000000000    0.2037000000000000    0.2783100000000000 C
   0.9264900000000000    0.1361300000000000    0.3332800000000000 C
   0.9620900000000000    0.2667650000000000    0.2176000000000000 C
   0.1673500000000000    0.2144450000000000    0.3812600000000000 C
   0.2360800000000000    0.2369200000000000    0.3992900000000000 C
   0.3028900000000000    0.2228850000000000    0.3828200000000000 C
   0.3665100000000000    0.2438350000000000    0.4000400000000000 C
   0.3655700000000000    0.2797650000000000    0.4340700000000000 C
   0.2983600000000000    0.2935400000000000    0.4505500000000000 C
   0.2349000000000000    0.2722150000000000    0.4337000000000000 C
   0.4331200000000000    0.3022350000000000    0.4521100000000000 C
   0.4945500000000000    0.3072550000000000    0.4224800000000000 C
   0.5578100000000000    0.3286300000000000    0.4396000000000000 C
   0.5621100000000000    0.3454250000000000    0.4871200000000000 C
   0.8423500000000000    0.2574300000000000    0.0901600000000000 C
   0.3845200000000000    0.1765000000000000    0.9346300000000000 C
   0.8845200000000000    0.1764950000000000    0.9346300000000000 C
   0.6310000000000000    0.3670450000000000    0.5064600000000000 C
   0.7234000000000000    0.4223050000000000    0.4807200000000000 C
   0.7467200000000001    0.4545750000000000    0.4456000000000000 C
   0.8154100000000000    0.4756200000000000    0.4489100000000000 C
   0.8602400000000000    0.4661000000000000    0.4880300000000000 C
   0.8358200000000000    0.4353850000000000    0.5238100000000000 C
   0.7677500000000000    0.4128700000000000    0.5200200000000000 C
   0.3429600000000000    0.0077950000000000    0.4107700000000000 C
   0.8429500000000000    0.0077950000000000    0.4107700000000000 C
   0.8824400000000000    0.4265250000000000    0.5668000000000000 C
   0.0314300000000000    0.0728650000000000    0.8162000000000000 C
   0.5314200000000000    0.0728650000000000    0.8162000000000000 C
   0.4640200000000000    0.0624650000000000    0.8375600000000000 C
   0.9640100000000000    0.0624650000000000    0.8375600000000000 C
   0.4212200000000000    0.0252650000000000    0.8201000000000001 C
   0.9212100000000000    0.0252650000000000    0.8201000000000001 C
   0.4451800000000000    0.4999850000000000    0.7803000000000000 C
   0.9451700000000000    0.4999850000000000    0.7803000000000000 C
   0.0128600000000000    0.0101750000000000    0.7600300000000000 C
   0.5128600000000000    0.0101750000000000    0.7600300000000000 C
   0.0570200000000000    0.0463100000000000    0.7782900000000000 C
   0.5570200000000000    0.0463100000000000    0.7782900000000000 C
   0.0738600000000000    0.1138300000000000    0.8332200000000000 C
   0.5738500000000000    0.1138300000000000    0.8332200000000000 C
   0.0380900000000000    0.4832650000000000    0.7177000000000000 C
   0.5380900000000000    0.4832650000000000    0.7177400000000000 C
   0.3333333333333333    0.0356750000000000    0.8821800000000000 C
   0.8333000000000000    0.0356750000000000    0.8821800000000000 C
   0.2643100000000000    0.0134050000000000    0.9002200000000000 C
   0.7643000000000000    0.0134100000000000    0.9002000000000000 C
   0.1977400000000000    0.0277650000000000    0.8838400000000000 C
   0.6977300000000000    0.0277700000000000    0.8838400000000000 C
   0.1338800000000000    0.0068050000000000    0.9008800000000000 C
   0.6338700000000000    0.0068050000000000    0.9008800000000000 C
   0.1343700000000000    0.4705400000000000    0.9346300000000000 C
   0.6343600000000000    0.4705400000000000    0.9346300000000000 C
   0.2013500000000000    0.4564700000000000    0.9510500000000000 C
   0.7013400000000000    0.4564700000000000    0.9510000000000000 C
   0.2650300000000000    0.4778300000000000    0.9344200000000000 C
   0.7650200000000000    0.4778350000000000    0.9344200000000000 C
   0.0666200000000000    0.4479900000000000    0.9524400000000000 C
   0.5666099999999999    0.4479900000000000    0.9524500000000000 C
   0.5053800000000001    0.4433600000000000    0.9227900000000000 C
   0.0000000000000000    0.4433600000000000    0.9227900000000000 C
   0.4419500000000000    0.4218800000000000    0.9397700000000000 C
   0.9419400000000000    0.4218800000000000    0.9397700000000000 C
   0.5617100000000000    0.4299100000000000    0.9995100000000000 C
   0.3682500000000000    0.3829250000000000    0.0063800000000000 C
   0.8682500000000000    0.3829250000000000    0.0063800000000000 C
   0.2762700000000000    0.3277050000000000    0.9802800000000000 C
   0.7762600000000000    0.3277050000000000    0.9802000000000000 C
   0.2534600000000000    0.2956150000000000    0.9450100000000000 C
   0.7534500000000000    0.2956150000000000    0.9450100000000000 C
   0.1846900000000000    0.2746050000000000    0.9480000000000000 C
   0.6846800000000000    0.2746050000000000    0.9480000000000000 C
   0.1391500000000000    0.2840700000000000    0.9868600000000000 C
   0.6391400000000000    0.2840700000000000    0.9868000000000000 C
   0.1629700000000000    0.3146750000000000    0.0227500000000000 C
   0.6629600000000000    0.3146700000000000    0.0227500000000000 C
   0.2311800000000000    0.3371100000000000    0.0193400000000000 C
   0.7311800000000001    0.3371100000000000    0.0193400000000000 C
   0.1576200000000000    0.2425650000000000    0.9098200000000000 C
   0.6576200000000000    0.2425650000000000    0.9098000000000001 C
   0.1154600000000000    0.3235050000000000    0.0653500000000000 C
   0.6154500000000001    0.3235050000000000    0.0653500000000000 C
   0.0309300000000000    0.3229200000000000    0.6838700000000000 C
   0.5309199999999999    0.3229200000000000    0.6838700000000000 C
   0.4634100000000000    0.3125800000000000    0.6628600000000000 C
   0.9634000000000000    0.3125800000000000    0.6628600000000000 C
   0.4206700000000000    0.2753400000000000    0.6805400000000000 C
   0.9206700000000000    0.2753400000000000    0.6805400000000000 C
   0.4447700000000000    0.2500000000000000    0.7202200000000000 C
   0.9447700000000000    0.2500000000000000    0.7202200000000000 C
   0.0125300000000000    0.2601450000000000    0.7401500000000000 C
   0.5125200000000000    0.2601450000000000    0.7401500000000000 C
   0.0566300000000000    0.2962900000000000    0.7216700000000000 C
   0.5566200000000000    0.2962900000000000    0.7216700000000000 C
   0.0734900000000000    0.3638600000000000    0.6666666666666666 C
   0.5734900000000001    0.3638600000000000    0.6666666666666666 C
   0.0378900000000000    0.2332250000000000    0.7823400000000000 C
   0.5378800000000000    0.2332250000000000    0.7823400000000000 C
   0.3326400000000000    0.2855400000000000    0.6187200000000000 C
   0.8326300000000000    0.2855400000000000    0.6187200000000000 C
   0.2639100000000000    0.2630650000000000    0.6006899999999999 C
   0.7639000000000000    0.2630650000000000    0.6006899999999999 C
   0.1970900000000000    0.2771000000000000    0.6171600000000000 C
   0.6970900000000000    0.2771050000000000    0.6171000000000000 C
   0.1334800000000000    0.2561500000000000    0.5999400000000000 C
   0.6334800000000000    0.2561500000000000    0.5999400000000000 C
   0.1344200000000000    0.2202150000000000    0.5659200000000000 C
   0.6344100000000000    0.2202150000000000    0.5659000000000000 C
   0.2016400000000000    0.2064400000000000    0.5494400000000000 C
   0.7016300000000000    0.2064400000000000    0.5494400000000000 C
   0.2650900000000000    0.2277700000000000    0.5662900000000000 C
   0.7650800000000000    0.2277650000000000    0.5662900000000000 C
   0.0668800000000000    0.1977450000000000    0.5478700000000000 C
   0.5668700000000000    0.1977450000000000    0.5478700000000000 C
   0.5054400000000000    0.1927300000000000    0.5775000000000000 C
   0.0000000000000000    0.1927300000000000    0.5775000000000000 C
   0.4421700000000000    0.1713550000000000    0.5603700000000000 C
   0.9421600000000000    0.1713550000000000    0.5603700000000000 C
   0.4378700000000000    0.1545600000000000    0.5128600000000000 C
   0.9378700000000000    0.1545600000000000    0.5128600000000000 C
   0.4988700000000000    0.1590750000000000    0.4833600000000000 C
   0.9988600000000000    0.1590750000000000    0.4833600000000000 C