H2 O2
1.0
  23.4419613823394783    0.0000000000000000    0.0425505452927404
 -11.4757943052027418   18.9732630224001433   -9.1145000602062485
   0.0000000000000000    0.0000000000000000   14.0589999999999993
H O
2 2
direct
   0.2913547653220178    0.4845005289262276    0.3829310670602184 H
   0.5671346139926785    0.7392393795083062    0.6372187499867240 H
   0.2871200000000000    0.4411600000000000    0.3299100000000000 O
   0.5725800000000000    0.7832600000000000    0.6901200000000000 O
