H4 O2
1.0
  23.4419613823394783    0.0000000000000000    0.0425505452927404
 -11.4757943052027418   18.9732630224001433   -9.1145000602062485
   0.0000000000000000    0.0000000000000000   14.0589999999999993
H O
4 2
direct
   0.7596614710443230    0.9302599071319025    0.6643224302946449 H
   0.7290791723447836    0.8497177776787450    0.5900400621654176 H
   0.1281790951862347    0.8680674844489316    0.4215659131823641 H
   0.0984336285849394    0.7881913362407283    0.3444588812617163 H
   0.7260200000000000    0.8827100000000000    0.6542900000000000 O
   0.1322200000000000    0.8362600000000000    0.3569700000000000 O
