H5 O3
1.0
  23.9485633203019930    0.0000000000000000    0.1446232812719079
   1.0877398435903378   14.3998747850284232    0.0539370760117913
   0.0000000000000000    0.0000000000000000   14.4529999999999994
H O
5 3
direct
   0.4832290787654678    0.8473627060444465    0.2676114861537167 H
   0.4562972597118667    0.7619922305454907    0.3280860007984890 H
   0.5543223952691209    0.7229280397609589    1.0267387458516501 H
   0.5187290974645042    0.5121588104945201    0.2021306351833980 H
   0.5347429524204218    0.6213028509439614    0.1186292635322300 H
   0.4619566666666666    0.8280999999999999    0.3214600000000000 O
   0.5531333333333333    0.6601800000000000    1.0504599999999999 O
   0.5332566666666667    0.5428700000000000    0.1482800000000000 O
