Zn16 H184 C276 N14 O66
1.0
  25.4324920662568523    0.0000000000000000   -6.9537258573934411
  -1.7713841604652190   12.5656600921010249   -3.5347296368792565
   0.0000000000000000    0.0000000000000000   27.9600000000000009
Zn H C N O
16 184 276 14 66
direct
   0.5908200000000000    0.8669000000000000    0.4312000000000000 Zn
   0.5666250000000000    0.8181300000000000    0.3188100000000000 Zn
   0.0908200000000000    0.8669000000000000    0.4312000000000000 Zn
   0.0666250000000000    0.8181300000000000    0.3188100000000000 Zn
   0.0908200000000000    0.8669000000000000    0.9312000000000000 Zn
   0.0666250000000000    0.8181300000000000    0.8188100000000000 Zn
   0.5908200000000000    0.8669000000000000    0.9312000000000000 Zn
   0.5666250000000000    0.8181300000000000    0.8188100000000000 Zn
   0.9091899999999999    0.1331200000000000    0.5688100000000000 Zn
   0.9333899999999999    0.1818900000000000    0.6812000000000000 Zn
   0.4091900000000000    0.1331200000000000    0.5688100000000000 Zn
   0.4333900000000000    0.1818900000000000    0.6812000000000000 Zn
   0.4091900000000000    0.1331200000000000    0.0688100000000000 Zn
   0.4333900000000000    0.1818900000000000    0.1812000000000000 Zn
   0.9091899999999999    0.1331200000000000    0.0688100000000000 Zn
   0.9333899999999999    0.1818900000000000    0.1812000000000000 Zn
   0.6085600000000000    0.5838400000000000    0.6961850000000001 H
   0.6229100000000000    0.6576900000000000    0.7632800000000000 H
   0.5576200000000000    0.5953800000000000    0.7277400000000001 H
   0.7076500000000000    0.7830300000000000    0.5532000000000000 H
   0.7017650000000000    0.8850200000000000    0.5218450000000000 H
   0.6709050000000000    0.7540000000000000    0.4861500000000000 H
   0.6567550000000000    0.8018200000000000    0.6118050000000000 H
   0.5041550000000000    0.9128300000000000    0.5752000000000000 H
   0.5192150000000000    0.9216700000000000    0.4924700000000000 H
   0.5987750000000001    0.6854200000000000    0.6376150000000000 H
   0.5431150000000000    0.9910200000000000    0.6749600000000000 H
   0.5389300000000000    0.9611000000000000    0.7578350000000000 H
   0.1085600000000000    0.5838400000000000    0.6961850000000001 H
   0.1229100000000000    0.6576900000000000    0.7632800000000000 H
   0.0576200000000000    0.5953800000000000    0.7277400000000001 H
   0.2076500000000000    0.7830300000000000    0.5532000000000000 H
   0.2017650000000000    0.8850200000000000    0.5218450000000000 H
   0.1709050000000000    0.7540000000000000    0.4861500000000000 H
   0.1567550000000000    0.8018200000000000    0.6118050000000000 H
   0.0041550000000000    0.9128300000000000    0.5752000000000000 H
   0.0192150000000000    0.9216700000000000    0.4924700000000000 H
   0.0987750000000000    0.6854200000000000    0.6376150000000000 H
   0.0431150000000000    0.9910200000000000    0.6749600000000000 H
   0.0389300000000000    0.9611000000000000    0.7578350000000000 H
   0.5491000000000000    0.4723600000000000    0.2758150000000000 H
   0.5506700000000000    0.2813900000000000    0.2689500000000000 H
   0.5880450000000000    0.5523500000000000    0.4418700000000000 H
   0.5979900000000000    0.2159800000000000    0.4780000000000000 H
   0.5967200000000000    0.4074900000000000    0.4847100000000000 H
   0.5677750000000000    0.1386400000000000    0.3128300000000000 H
   0.8928900000000000    0.8043100000000000    0.2723750000000000 H
   0.7971750000000000    0.8064600000000000    0.2653450000000000 H
   0.9301250000000000    0.8643800000000000    0.4374350000000000 H
   0.7628349999999999    0.9009000000000000    0.4737650000000000 H
   0.8583149999999999    0.8979200000000001    0.4809850000000000 H
   0.7243300000000000    0.8234700000000000    0.3078250000000000 H
   0.0491000000000000    0.4723600000000000    0.2758150000000000 H
   0.0506700000000000    0.2813900000000000    0.2689500000000000 H
   0.0880450000000000    0.5523500000000000    0.4418700000000000 H
   0.0979900000000000    0.2159800000000000    0.4780000000000000 H
   0.0967200000000000    0.4074900000000000    0.4847100000000000 H
   0.0677750000000000    0.1386400000000000    0.3128300000000000 H
   0.3928900000000000    0.8043100000000000    0.2723750000000000 H
   0.2971750000000000    0.8064600000000000    0.2653450000000000 H
   0.4301250000000000    0.8643800000000000    0.4374350000000000 H
   0.2628350000000000    0.9009000000000000    0.4737650000000000 H
   0.3583150000000000    0.8979200000000001    0.4809850000000000 H
   0.2243300000000000    0.8234700000000000    0.3078250000000000 H
   0.6085600000000000    0.5838400000000000    0.1961850000000000 H
   0.6229100000000000    0.6576900000000000    0.2632800000000000 H
   0.5576200000000000    0.5953800000000000    0.2277400000000000 H
   0.7076500000000000    0.7830300000000000    0.0532000000000000 H
   0.7017650000000000    0.8850200000000000    0.0218450000000000 H
   0.6709050000000000    0.7540000000000000    0.9861500000000001 H
   0.6567550000000000    0.8018200000000000    0.1118050000000000 H
   0.5041550000000000    0.9128300000000000    0.0752000000000000 H
   0.5192150000000000    0.9216700000000000    0.9924700000000000 H
   0.5987750000000001    0.6854200000000000    0.1376150000000000 H
   0.5431150000000000    0.9910200000000000    0.1749600000000000 H
   0.5389300000000000    0.9611000000000000    0.2578350000000000 H
   0.1085600000000000    0.5838400000000000    0.1961850000000000 H
   0.1229100000000000    0.6576900000000000    0.2632800000000000 H
   0.0576200000000000    0.5953800000000000    0.2277400000000000 H
   0.2076500000000000    0.7830300000000000    0.0532000000000000 H
   0.2017650000000000    0.8850200000000000    0.0218450000000000 H
   0.1709050000000000    0.7540000000000000    0.9861500000000001 H
   0.1567550000000000    0.8018200000000000    0.1118050000000000 H
   0.0041550000000000    0.9128300000000000    0.0752000000000000 H
   0.0192150000000000    0.9216700000000000    0.9924700000000000 H
   0.0987750000000000    0.6854200000000000    0.1376150000000000 H
   0.0431150000000000    0.9910200000000000    0.1749600000000000 H
   0.0389300000000000    0.9611000000000000    0.2578350000000000 H
   0.0491000000000000    0.4723600000000000    0.7758149999999999 H
   0.0506700000000000    0.2813900000000000    0.7689500000000000 H
   0.0880450000000000    0.5523500000000000    0.9418700000000000 H
   0.0979900000000000    0.2159800000000000    0.9780000000000000 H
   0.0967200000000000    0.4074900000000000    0.9847100000000000 H
   0.0677750000000000    0.1386400000000000    0.8128299999999999 H
   0.3928900000000000    0.8043100000000000    0.7723750000000000 H
   0.2971750000000000    0.8064600000000000    0.7653449999999999 H
   0.4301250000000000    0.8643800000000000    0.9374350000000000 H
   0.2628350000000000    0.9009000000000000    0.9737650000000000 H
   0.3583150000000000    0.8979200000000001    0.9809850000000000 H
   0.2243300000000000    0.8234700000000000    0.8078250000000000 H
   0.5491000000000000    0.4723600000000000    0.7758149999999999 H
   0.5506700000000000    0.2813900000000000    0.7689500000000000 H
   0.5880450000000000    0.5523500000000000    0.9418700000000000 H
   0.5979900000000000    0.2159800000000000    0.9780000000000000 H
   0.5967200000000000    0.4074900000000000    0.9847100000000000 H
   0.5677750000000000    0.1386400000000000    0.8128299999999999 H
   0.8928900000000000    0.8043100000000000    0.7723750000000000 H
   0.7971750000000000    0.8064600000000000    0.7653449999999999 H
   0.9301250000000000    0.8643800000000000    0.9374350000000000 H
   0.7628349999999999    0.9009000000000000    0.9737650000000000 H
   0.8583149999999999    0.8979200000000001    0.9809850000000000 H
   0.7243300000000000    0.8234700000000000    0.8078250000000000 H
   0.4453530096571214    0.1228798103867583    0.7668558005248622 H
   0.4239314051406577    0.2423982850086127    0.7806434664448583 H
   0.8914599999999999    0.4161900000000000    0.8038250000000000 H
   0.8771050000000000    0.3423400000000000    0.7367350000000000 H
   0.9423950000000000    0.4046500000000000    0.7722750000000000 H
   0.7923600000000000    0.2169800000000000    0.9468099999999999 H
   0.8291100000000000    0.2460200000000000    0.0138250000000000 H
   0.7982500000000000    0.1150000000000000    0.9781650000000000 H
   0.8432600000000000    0.1982000000000000    0.8882050000000000 H
   0.9958600000000000    0.0871900000000000    0.9247799999999999 H
   0.9808000000000000    0.0783500000000000    0.0075450000000000 H
   0.9012450000000001    0.3146000000000000    0.8623950000000000 H
   0.9569000000000000    0.0090000000000000    0.8250500000000001 H
   0.9610850000000000    0.0389300000000000    0.7421750000000000 H
   0.9509099999999999    0.5276700000000000    0.7241950000000000 H
   0.9493450000000000    0.7186399999999999    0.7310600000000000 H
   0.9119750000000000    0.4476700000000000    0.5581400000000000 H
   0.9020300000000000    0.7840500000000000    0.5219750000000000 H
   0.9033000000000000    0.5925400000000000    0.5153000000000000 H
   0.9322400000000000    0.8613800000000000    0.6871800000000000 H
   0.5698900000000000    0.1356400000000000    0.5625800000000000 H
   0.6071250000000000    0.1957100000000000    0.7276400000000001 H
   0.7028400000000000    0.1935600000000000    0.7346650000000000 H
   0.7371799999999999    0.0991300000000000    0.5262500000000000 H
   0.6416999999999999    0.1021000000000000    0.5190300000000000 H
   0.7756850000000000    0.1765500000000000    0.6921900000000000 H
   0.4509100000000000    0.5276700000000000    0.7241950000000000 H
   0.4493450000000000    0.7186399999999999    0.7310600000000000 H
   0.4119750000000000    0.4476700000000000    0.5581400000000000 H
   0.4020300000000000    0.7840500000000000    0.5219750000000000 H
   0.4033000000000000    0.5925400000000000    0.5153000000000000 H
   0.4322400000000000    0.8613800000000000    0.6871800000000000 H
   0.0698900000000000    0.1356400000000000    0.5625800000000000 H
   0.1071250000000000    0.1957100000000000    0.7276400000000001 H
   0.2028400000000000    0.1935600000000000    0.7346650000000000 H
   0.2371800000000000    0.0991300000000000    0.5262500000000000 H
   0.1417000000000000    0.1021000000000000    0.5190300000000000 H
   0.2756850000000000    0.1765500000000000    0.6921900000000000 H
   0.4388808259025642    0.1097510181196495    0.9831093617803233 H
   0.3791974701126411    0.1524657694991085    0.9696264975734350 H
   0.8914599999999999    0.4161900000000000    0.3038250000000000 H
   0.8771050000000000    0.3423400000000000    0.2367350000000000 H
   0.9423950000000000    0.4046500000000000    0.2722750000000000 H
   0.7923600000000000    0.2169800000000000    0.4468100000000000 H
   0.8291100000000000    0.2460200000000000    0.5138250000000000 H
   0.7982500000000000    0.1150000000000000    0.4781650000000000 H
   0.8432600000000000    0.1982000000000000    0.3882050000000000 H
   0.9958600000000000    0.0871900000000000    0.4247800000000000 H
   0.9808000000000000    0.0783500000000000    0.5075450000000000 H
   0.9012450000000001    0.3146000000000000    0.3623950000000000 H
   0.9569000000000000    0.0090000000000000    0.3250500000000000 H
   0.9610850000000000    0.0389300000000000    0.2421750000000000 H
   0.3914600000000000    0.4161900000000000    0.3038250000000000 H
   0.3771050000000000    0.3423400000000000    0.2367350000000000 H
   0.4423950000000000    0.4046500000000000    0.2722750000000000 H
   0.2923600000000000    0.2169800000000000    0.4468100000000000 H
   0.3291100000000000    0.2460200000000000    0.5138250000000000 H
   0.2982500000000000    0.1150000000000000    0.4781650000000000 H
   0.3432600000000000    0.1982000000000000    0.3882050000000000 H
   0.4958600000000000    0.0871900000000000    0.4247800000000000 H
   0.4808000000000000    0.0783500000000000    0.5075450000000000 H
   0.4012450000000000    0.3146000000000000    0.3623950000000000 H
   0.4569000000000000    0.0090000000000000    0.3250500000000000 H
   0.4610850000000000    0.0389300000000000    0.2421750000000000 H
   0.4509100000000000    0.5276700000000000    0.2241950000000000 H
   0.4493450000000000    0.7186399999999999    0.2310600000000000 H
   0.4119750000000000    0.4476700000000000    0.0581400000000000 H
   0.4020300000000000    0.7840500000000000    0.0219750000000000 H
   0.4033000000000000    0.5925400000000000    0.0153000000000000 H
   0.4322400000000000    0.8613800000000000    0.1871800000000000 H
   0.0698900000000000    0.1356400000000000    0.0625800000000000 H
   0.1071250000000000    0.1957100000000000    0.2276400000000000 H
   0.2028400000000000    0.1935600000000000    0.2346650000000000 H
   0.2371800000000000    0.0991300000000000    0.0262500000000000 H
   0.1417000000000000    0.1021000000000000    0.0190300000000000 H
   0.2756850000000000    0.1765500000000000    0.1921900000000000 H
   0.9509099999999999    0.5276700000000000    0.2241950000000000 H
   0.9493450000000000    0.7186399999999999    0.2310600000000000 H
   0.9119750000000000    0.4476700000000000    0.0581400000000000 H
   0.9020300000000000    0.7840500000000000    0.0219750000000000 H
   0.9033000000000000    0.5925400000000000    0.0153000000000000 H
   0.9322400000000000    0.8613800000000000    0.1871800000000000 H
   0.5698900000000000    0.1356400000000000    0.0625800000000000 H
   0.6071250000000000    0.1957100000000000    0.2276400000000000 H
   0.7028400000000000    0.1935600000000000    0.2346650000000000 H
   0.7371799999999999    0.0991300000000000    0.0262500000000000 H
   0.6416999999999999    0.1021000000000000    0.0190300000000000 H
   0.7756850000000000    0.1765500000000000    0.1921900000000000 H
   0.5934550000000000    0.6374600000000000    0.7249400000000000 C
   0.6808650000000001    0.8130800000000000    0.5245700000000000 C
   0.6250900000000000    0.8283400000000000    0.5861000000000000 C
   0.5407900000000000    0.8912500000000000    0.5668900000000000 C
   0.5490450000000000    0.8973500000000000    0.5207300000000000 C
   0.6316500000000000    0.8381999999999999    0.5395600000000000 C
   0.5793450000000000    0.8538700000000000    0.6004650000000000 C
   0.5855250000000000    0.7488899999999999    0.6634850000000000 C
   0.5539900000000000    0.9177200000000000    0.6831700000000001 C
   0.5510800000000000    0.9013300000000000    0.7293700000000000 C
   0.5807500000000000    0.7359000000000000    0.7101150000000001 C
   0.5726550000000000    0.8404400000000000    0.6493000000000000 C
   0.0934550000000000    0.6374600000000000    0.7249400000000000 C
   0.1808650000000000    0.8130800000000000    0.5245700000000000 C
   0.1250900000000000    0.8283400000000000    0.5861000000000000 C
   0.0407900000000000    0.8912500000000000    0.5668900000000000 C
   0.0490450000000000    0.8973500000000000    0.5207300000000000 C
   0.1316500000000000    0.8381999999999999    0.5395600000000000 C
   0.0793450000000000    0.8538700000000000    0.6004650000000000 C
   0.0855250000000000    0.7488899999999999    0.6634850000000000 C
   0.0539900000000000    0.9177200000000000    0.6831700000000001 C
   0.0510800000000000    0.9013300000000000    0.7293700000000000 C
   0.0807500000000000    0.7359000000000000    0.7101150000000001 C
   0.0726550000000000    0.8404400000000000    0.6493000000000000 C
   0.5829400000000000    0.0496900000000000    0.3907850000000000 C
   0.5716500000000000    0.6401700000000000    0.3640500000000000 C
   0.5582549999999999    0.4464100000000000    0.3105900000000000 C
   0.5593250000000000    0.3402500000000000    0.3069250000000000 C
   0.5797650000000000    0.4920700000000000    0.4043950000000000 C
   0.5695600000000000    0.5239100000000000    0.3598000000000000 C
   0.5800850000000000    0.3834900000000000    0.4019450000000000 C
   0.5908450000000000    0.2424600000000000    0.4434700000000000 C
   0.5898950000000001    0.3485200000000000    0.4470050000000000 C
   0.5735150000000000    0.1978700000000000    0.3501400000000000 C
   0.5829400000000000    0.1655500000000000    0.3945950000000000 C
   0.5708650000000000    0.3058600000000000    0.3522250000000000 C
   0.9752650000000000    0.8343300000000000    0.3595650000000000 C
   0.6797150000000001    0.8562800000000000    0.3855100000000000 C
   0.8793299999999999    0.8184399999999999    0.3068250000000000 C
   0.8263100000000000    0.8200900000000000    0.3031050000000000 C
   0.9008450000000000    0.8528700000000000    0.4000700000000000 C
   0.9173800000000000    0.8342000000000001    0.3557300000000000 C
   0.8468300000000000    0.8578900000000000    0.3977950000000000 C
   0.7761450000000000    0.8827500000000000    0.4391000000000000 C
   0.8292150000000000    0.8807300000000000    0.4429600000000000 C
   0.7541200000000000    0.8399600000000000    0.3453500000000000 C
   0.7378050000000000    0.8603100000000000    0.3898250000000000 C
   0.8084200000000000    0.8395000000000000    0.3480250000000000 C
   0.0829400000000000    0.0496900000000000    0.3907850000000000 C
   0.0716500000000000    0.6401700000000000    0.3640500000000000 C
   0.0582550000000000    0.4464100000000000    0.3105900000000000 C
   0.0593250000000000    0.3402500000000000    0.3069250000000000 C
   0.0797650000000000    0.4920700000000000    0.4043950000000000 C
   0.0695600000000000    0.5239100000000000    0.3598000000000000 C
   0.0800850000000000    0.3834900000000000    0.4019450000000000 C
   0.0908450000000000    0.2424600000000000    0.4434700000000000 C
   0.0898950000000000    0.3485200000000000    0.4470050000000000 C
   0.0735150000000000    0.1978700000000000    0.3501400000000000 C
   0.0829400000000000    0.1655500000000000    0.3945950000000000 C
   0.0708650000000000    0.3058600000000000    0.3522250000000000 C
   0.4752650000000000    0.8343300000000000    0.3595650000000000 C
   0.1797150000000000    0.8562800000000000    0.3855100000000000 C
   0.3793300000000000    0.8184399999999999    0.3068250000000000 C
   0.3263100000000000    0.8200900000000000    0.3031050000000000 C
   0.4008450000000000    0.8528700000000000    0.4000700000000000 C
   0.4173800000000000    0.8342000000000001    0.3557300000000000 C
   0.3468300000000000    0.8578900000000000    0.3977950000000000 C
   0.2761450000000000    0.8827500000000000    0.4391000000000000 C
   0.3292150000000000    0.8807300000000000    0.4429600000000000 C
   0.2541200000000000    0.8399600000000000    0.3453500000000000 C
   0.2378050000000000    0.8603100000000000    0.3898250000000000 C
   0.3084200000000000    0.8395000000000000    0.3480250000000000 C
   0.5934550000000000    0.6374600000000000    0.2249400000000000 C
   0.6808650000000001    0.8130800000000000    0.0245700000000000 C
   0.6250900000000000    0.8283400000000000    0.0861000000000000 C
   0.5407900000000000    0.8912500000000000    0.0668900000000000 C
   0.5490450000000000    0.8973500000000000    0.0207300000000000 C
   0.6316500000000000    0.8381999999999999    0.0395600000000000 C
   0.5793450000000000    0.8538700000000000    0.1004650000000000 C
   0.5855250000000000    0.7488899999999999    0.1634850000000000 C
   0.5539900000000000    0.9177200000000000    0.1831700000000000 C
   0.5510800000000000    0.9013300000000000    0.2293700000000000 C
   0.5807500000000000    0.7359000000000000    0.2101150000000000 C
   0.5726550000000000    0.8404400000000000    0.1493000000000000 C
   0.0934550000000000    0.6374600000000000    0.2249400000000000 C
   0.1808650000000000    0.8130800000000000    0.0245700000000000 C
   0.1250900000000000    0.8283400000000000    0.0861000000000000 C
   0.0407900000000000    0.8912500000000000    0.0668900000000000 C
   0.0490450000000000    0.8973500000000000    0.0207300000000000 C
   0.1316500000000000    0.8381999999999999    0.0395600000000000 C
   0.0793450000000000    0.8538700000000000    0.1004650000000000 C
   0.0855250000000000    0.7488899999999999    0.1634850000000000 C
   0.0539900000000000    0.9177200000000000    0.1831700000000000 C
   0.0510800000000000    0.9013300000000000    0.2293700000000000 C
   0.0807500000000000    0.7359000000000000    0.2101150000000000 C
   0.0726550000000000    0.8404400000000000    0.1493000000000000 C
   0.0829400000000000    0.0496900000000000    0.8907849999999999 C
   0.0716500000000000    0.6401700000000000    0.8640500000000000 C
   0.0582550000000000    0.4464100000000000    0.8105899999999999 C
   0.0593250000000000    0.3402500000000000    0.8069250000000000 C
   0.0797650000000000    0.4920700000000000    0.9043950000000001 C
   0.0695600000000000    0.5239100000000000    0.8598000000000000 C
   0.0800850000000000    0.3834900000000000    0.9019450000000000 C
   0.0908450000000000    0.2424600000000000    0.9434700000000000 C
   0.0898950000000000    0.3485200000000000    0.9470050000000000 C
   0.0735150000000000    0.1978700000000000    0.8501400000000000 C
   0.0829400000000000    0.1655500000000000    0.8945950000000000 C
   0.0708650000000000    0.3058600000000000    0.8522250000000000 C
   0.4752650000000000    0.8343300000000000    0.8595650000000000 C
   0.1797150000000000    0.8562800000000000    0.8855100000000000 C
   0.3793300000000000    0.8184399999999999    0.8068250000000000 C
   0.3263100000000000    0.8200900000000000    0.8031050000000000 C
   0.4008450000000000    0.8528700000000000    0.9000699999999999 C
   0.4173800000000000    0.8342000000000001    0.8557300000000000 C
   0.3468300000000000    0.8578900000000000    0.8977950000000000 C
   0.2761450000000000    0.8827500000000000    0.9391000000000000 C
   0.3292150000000000    0.8807300000000000    0.9429600000000000 C
   0.2541200000000000    0.8399600000000000    0.8453500000000000 C
   0.2378050000000000    0.8603100000000000    0.8898250000000000 C
   0.3084200000000000    0.8395000000000000    0.8480250000000000 C
   0.5829400000000000    0.0496900000000000    0.8907849999999999 C
   0.5716500000000000    0.6401700000000000    0.8640500000000000 C
   0.5582549999999999    0.4464100000000000    0.8105899999999999 C
   0.5593250000000000    0.3402500000000000    0.8069250000000000 C
   0.5797650000000000    0.4920700000000000    0.9043950000000001 C
   0.5695600000000000    0.5239100000000000    0.8598000000000000 C
   0.5800850000000000    0.3834900000000000    0.9019450000000000 C
   0.5908450000000000    0.2424600000000000    0.9434700000000000 C
   0.5898950000000001    0.3485200000000000    0.9470050000000000 C
   0.5735150000000000    0.1978700000000000    0.8501400000000000 C
   0.5829400000000000    0.1655500000000000    0.8945950000000000 C
   0.5708650000000000    0.3058600000000000    0.8522250000000000 C
   0.9752650000000000    0.8343300000000000    0.8595650000000000 C
   0.6797150000000001    0.8562800000000000    0.8855100000000000 C
   0.8793299999999999    0.8184399999999999    0.8068250000000000 C
   0.8263100000000000    0.8200900000000000    0.8031050000000000 C
   0.9008450000000000    0.8528700000000000    0.9000699999999999 C
   0.9173800000000000    0.8342000000000001    0.8557300000000000 C
   0.8468300000000000    0.8578900000000000    0.8977950000000000 C
   0.7761450000000000    0.8827500000000000    0.9391000000000000 C
   0.8292150000000000    0.8807300000000000    0.9429600000000000 C
   0.7541200000000000    0.8399600000000000    0.8453500000000000 C
   0.7378050000000000    0.8603100000000000    0.8898250000000000 C
   0.8084200000000000    0.8395000000000000    0.8480250000000000 C
   0.9065600000000000    0.3625700000000000    0.7750699999999999 C
   0.8191500000000000    0.1869400000000000    0.9754400000000000 C
   0.8749250000000000    0.1716800000000000    0.9138500000000001 C
   0.9592250000000000    0.1087700000000000    0.9331199999999999 C
   0.9509700000000000    0.1026700000000000    0.9792799999999999 C
   0.8683650000000001    0.1618300000000000    0.9604500000000000 C
   0.9206750000000000    0.1461500000000000    0.8995500000000001 C
   0.9144900000000000    0.2511300000000000    0.8365250000000000 C
   0.9460299999999999    0.0823000000000000    0.8168450000000000 C
   0.9489350000000000    0.0987000000000000    0.7706400000000000 C
   0.9192650000000000    0.2641300000000000    0.7898950000000000 C
   0.9273600000000000    0.1595800000000000    0.8506700000000000 C
   0.9170750000000000    0.9503300000000000    0.6092299999999999 C
   0.9283600000000001    0.3598500000000000    0.6359600000000000 C
   0.9417599999999999    0.5536100000000000    0.6894200000000000 C
   0.9406900000000000    0.6597800000000000    0.6930850000000000 C
   0.9202500000000000    0.5079500000000000    0.5956000000000000 C
   0.9304600000000001    0.4761100000000000    0.6402000000000000 C
   0.9199300000000000    0.6165300000000000    0.5980650000000000 C
   0.9091750000000001    0.7575700000000000    0.5565400000000000 C
   0.9101200000000000    0.6515000000000000    0.5530100000000000 C
   0.9265000000000000    0.8021500000000000    0.6498699999999999 C
   0.9170750000000000    0.8344700000000000    0.6054150000000000 C
   0.9291499999999999    0.6941600000000000    0.6477850000000001 C
   0.8203000000000000    0.1437500000000000    0.6145000000000000 C
   0.5247500000000000    0.1656900000000000    0.6400000000000000 C
   0.5991700000000000    0.1471500000000000    0.5999400000000000 C
   0.5826300000000000    0.1658200000000000    0.6442500000000000 C
   0.6531800000000000    0.1421300000000000    0.6022200000000000 C
   0.6206800000000000    0.1815800000000000    0.6931849999999999 C
   0.6737000000000000    0.1799300000000000    0.6969050000000000 C
   0.7238650000000000    0.1172800000000000    0.5609100000000000 C
   0.6708000000000001    0.1193000000000000    0.5570550000000000 C
   0.7458950000000000    0.1600600000000000    0.6546450000000000 C
   0.7622100000000001    0.1397100000000000    0.6101850000000000 C
   0.6915900000000000    0.1605300000000000    0.6519900000000000 C
   0.4170750000000000    0.9503300000000000    0.6092299999999999 C
   0.4283600000000000    0.3598500000000000    0.6359600000000000 C
   0.4417600000000000    0.5536100000000000    0.6894200000000000 C
   0.4406900000000000    0.6597800000000000    0.6930850000000000 C
   0.4202500000000000    0.5079500000000000    0.5956000000000000 C
   0.4304600000000000    0.4761100000000000    0.6402000000000000 C
   0.4199300000000000    0.6165300000000000    0.5980650000000000 C
   0.4091750000000000    0.7575700000000000    0.5565400000000000 C
   0.4101200000000000    0.6515000000000000    0.5530100000000000 C
   0.4265000000000000    0.8021500000000000    0.6498699999999999 C
   0.4170750000000000    0.8344700000000000    0.6054150000000000 C
   0.4291500000000000    0.6941600000000000    0.6477850000000001 C
   0.3203000000000000    0.1437500000000000    0.6145000000000000 C
   0.0247500000000000    0.1656900000000000    0.6400000000000000 C
   0.0991700000000000    0.1471500000000000    0.5999400000000000 C
   0.0826300000000000    0.1658200000000000    0.6442500000000000 C
   0.1531800000000000    0.1421300000000000    0.6022200000000000 C
   0.1206800000000000    0.1815800000000000    0.6931849999999999 C
   0.1737000000000000    0.1799300000000000    0.6969050000000000 C
   0.2238650000000000    0.1172800000000000    0.5609100000000000 C
   0.1708000000000000    0.1193000000000000    0.5570550000000000 C
   0.2458950000000000    0.1600600000000000    0.6546450000000000 C
   0.2622100000000000    0.1397100000000000    0.6101850000000000 C
   0.1915900000000000    0.1605300000000000    0.6519900000000000 C
   0.9065600000000000    0.3625700000000000    0.2750700000000000 C
   0.8191500000000000    0.1869400000000000    0.4754400000000000 C
   0.8749250000000000    0.1716800000000000    0.4138500000000000 C
   0.9592250000000000    0.1087700000000000    0.4331200000000000 C
   0.9509700000000000    0.1026700000000000    0.4792800000000000 C
   0.8683650000000001    0.1618300000000000    0.4604500000000000 C
   0.9206750000000000    0.1461500000000000    0.3995500000000000 C
   0.9144900000000000    0.2511300000000000    0.3365250000000000 C
   0.9460299999999999    0.0823000000000000    0.3168450000000000 C
   0.9489350000000000    0.0987000000000000    0.2706400000000000 C
   0.9192650000000000    0.2641300000000000    0.2898950000000000 C
   0.9273600000000000    0.1595800000000000    0.3506700000000000 C
   0.4065600000000000    0.3625700000000000    0.2750700000000000 C
   0.3191500000000000    0.1869400000000000    0.4754400000000000 C
   0.3749250000000000    0.1716800000000000    0.4138500000000000 C
   0.4592250000000000    0.1087700000000000    0.4331200000000000 C
   0.4509700000000000    0.1026700000000000    0.4792800000000000 C
   0.3683650000000000    0.1618300000000000    0.4604500000000000 C
   0.4206750000000000    0.1461500000000000    0.3995500000000000 C
   0.4144900000000000    0.2511300000000000    0.3365250000000000 C
   0.4460300000000000    0.0823000000000000    0.3168450000000000 C
   0.4489350000000000    0.0987000000000000    0.2706400000000000 C
   0.4192650000000000    0.2641300000000000    0.2898950000000000 C
   0.4273600000000000    0.1595800000000000    0.3506700000000000 C
   0.4170750000000000    0.9503300000000000    0.1092300000000000 C
   0.4283600000000000    0.3598500000000000    0.1359600000000000 C
   0.4417600000000000    0.5536100000000000    0.1894200000000000 C
   0.4406900000000000    0.6597800000000000    0.1930850000000000 C
   0.4202500000000000    0.5079500000000000    0.0956000000000000 C
   0.4304600000000000    0.4761100000000000    0.1402000000000000 C
   0.4199300000000000    0.6165300000000000    0.0980650000000000 C
   0.4091750000000000    0.7575700000000000    0.0565400000000000 C
   0.4101200000000000    0.6515000000000000    0.0530100000000000 C