H4 O2
1.0
  25.4324920662568523    0.0000000000000000   -6.9537258573934411
  -1.7713841604652190   12.5656600921010249   -3.5347296368792565
   0.0000000000000000    0.0000000000000000   27.9600000000000009
H O
4 2
direct
   0.4453530096571214    0.1228798103867583    0.7668558005248622 H
   0.4239314051406577    0.2423982850086127    0.7806434664448583 H
   0.4388808259025642    0.1097510181196495    0.9831093617803233 H
   0.3791974701126411    0.1524657694991085    0.9696264975734350 H
   0.4359150000000000    0.1865900000000000    0.7568850000000000 O
   0.4070250000000000    0.1284100000000000    0.9932000000000001 O
