H6 C12 O4
1.0
  25.4324920662568523    0.0000000000000000   -6.9537258573934411
  -1.7713841604652190   12.5656600921010249   -3.5347296368792565
   0.0000000000000000    0.0000000000000000   27.9600000000000009
H C O
6 12 4
direct
   0.4509100000000000    0.5276700000000000    0.2241950000000000 H
   0.4493450000000000    0.7186399999999999    0.2310600000000000 H
   0.4119750000000000    0.4476700000000000    0.0581400000000000 H
   0.4322400000000000    0.8613800000000000    0.1871800000000000 H
   0.4020300000000000    0.7840500000000000    0.0219750000000000 H
   0.4033000000000000    0.5925400000000000    0.0153000000000000 H
   0.4283600000000000    0.3598500000000000    0.1359600000000000 C
   0.4304600000000000    0.4761100000000000    0.1402000000000000 C
   0.4417600000000000    0.5536100000000000    0.1894200000000000 C
   0.4406900000000000    0.6597800000000000    0.1930850000000000 C
   0.4202500000000000    0.5079500000000000    0.0956000000000000 C
   0.4291500000000000    0.6941600000000000    0.1477850000000000 C
   0.4265000000000000    0.8021500000000000    0.1498700000000000 C
   0.4170750000000000    0.8344700000000000    0.1054150000000000 C
   0.4170750000000000    0.9503300000000000    0.1092300000000000 C
   0.4091750000000000    0.7575700000000000    0.0565400000000000 C
   0.4101200000000000    0.6515000000000000    0.0530100000000000 C
   0.4199300000000000    0.6165300000000000    0.0980650000000000 C
   0.4472550000000000    0.3348800000000000    0.1775000000000000 O
   0.4071900000000000    0.2948200000000000    0.0909750000000000 O
   0.4177350000000000   -0.0228500000000001    0.0685850000000000 O
   0.4176350000000000    0.0136900000000000    0.1526150000000000 O
