H4 C8 O4
1.0
  14.5266050307790131    0.0000000000000000   -0.2013213345522075
  -0.0213026867472787   15.8099851762076327   -0.0038631117279226
   0.0000000000000000    0.0000000000000000   18.9549999999999983
H C O
4 8 4
direct
   0.6636700000000000    0.7399700000000000    0.2435900000000000 H
   0.3912900000000000    0.6330600000000000    0.2436600000000000 H
   0.3646100000000000    0.6946900000000000    0.3630100000000000 H
   0.6370200000000000    0.8017100000000000    0.3636100000000000 H
   0.5410900000000000    0.6516400000000000    0.1631000000000000 C
   0.5285600000000000    0.6838800000000000    0.2362700000000000 C
   0.5986399999999999    0.7302900000000000    0.2703300000000000 C
   0.4446600000000000    0.6699500000000000    0.2703000000000000 C
   0.4792500000000000    0.7956900000000000    0.4380300000000000 C
   0.4988900000000000    0.7527000000000000    0.3698200000000000 C
   0.4298500000000000    0.7042200000000000    0.3366000000000000 C
   0.5839200000000000    0.7644700000000000    0.3368800000000000 C
   0.4724700000000000    0.6110400000000000    0.1358400000000000 O
   0.6167899999999999    0.6668700000000000    0.1325000000000000 O
   0.5429800000000000    0.8404300000000000    0.4662000000000000 O
   0.3981800000000000    0.7857600000000000    0.4627100000000000 O
