H18 C12 N4
1.0
  35.3299999139029310    0.0000000000000000    0.0024664992969184
  -0.0059625619510336   15.5299970009341344   -0.0075893894172890
   0.0000000000000000    0.0000000000000000   39.5399999999999991
H C N
18 12 4
direct
   0.4963150000000000    0.8592500000000000    0.3592550000000000 H
   0.4896850000000000    0.8396700000000000    0.4218600000000000 H
   0.4350050000000000    0.7375400000000000    0.4237600000000000 H
   0.4480150000000000    0.6929500000000000    0.3844950000000000 H
   0.4224450000000000    0.7529200000000000    0.3326500000000000 H
   0.3790200000000000    0.8985800000000000    0.3175050000000000 H
   0.3887750000000000    0.9534800000000000    0.4378800000000000 H
   0.4184800000000000    0.8646900000000000    0.4471100000000000 H
   0.4388600000000000    0.9619200000000000    0.4322050000000000 H
   0.6224000000000000    0.6459900000000000    0.4459500000000000 H
   0.5801250000000000    0.7997200000000000    0.4420450000000000 H
   0.5771800000000000    0.7361500000000000    0.3221450000000000 H
   0.6056500000000000    0.6418000000000000    0.3241550000000000 H
   0.5562300000000000    0.6352700000000000    0.3319700000000000 H
   0.5546500000000000    0.8828800000000000    0.3949200000000000 H
   0.5638250000000000    0.8502999999999999    0.3529000000000000 H
   0.5081550000000000    0.7500300000000000    0.3544750000000000 H
   0.5042150000000000    0.7315500000000000    0.4185650000000000 H
   0.4893000000000000    0.7833100000000000    0.4049300000000000 C
   0.4486150000000000    0.7524500000000000    0.3994900000000000 C
   0.4143850000000000    0.8083100000000000    0.3477200000000000 C
   0.3928000000000000    0.8791700000000000    0.3407800000000000 C
   0.4094100000000000    0.8885400000000000    0.3944250000000000 C
   0.4142450000000000    0.9188800000000000    0.4297150000000000 C
   0.6079800000000000    0.6767200000000000    0.4249800000000000 C
   0.5869450000000001    0.7506600000000000    0.4235100000000000 C
   0.5888350000000000    0.6905300000000000    0.3722000000000000 C
   0.5816000000000000    0.6753400000000001    0.3357450000000000 C
   0.5516250000000000    0.8292700000000000    0.3770150000000000 C
   0.5101050000000000    0.8047500000000000    0.3721050000000000 C
   0.3896750000000000    0.9285600000000001    0.3699700000000000 N
   0.4247350000000000    0.8147700000000000    0.3814900000000000 N
   0.6091900000000000    0.6398900000000000    0.3929650000000000 N
   0.5749750000000000    0.7586400000000000    0.3902200000000000 N
