H2 O2
1.0
  35.3299999139029310    0.0000000000000000    0.0024664992969184
  -0.0059625619510336   15.5299970009341344   -0.0075893894172890
   0.0000000000000000    0.0000000000000000   39.5399999999999991
H O
2 2
direct
   0.7998454129348048    0.9471504309093131    0.1818834530398665 H
   0.8148725628692207    0.0115544181946005    0.3186240678067440 H
   0.7905850000000000    0.9145700000000000    0.1623750000000000 O
   0.8119350000000001    0.0184500000000000    0.3430850000000000 O
