H6 C12 N2 O4
1.0
  35.3299999139029310    0.0000000000000000    0.0024664992969184
  -0.0059625619510336   15.5299970009341344   -0.0075893894172890
   0.0000000000000000    0.0000000000000000   39.5399999999999991
H C N O
6 12 2 4
direct
   0.8624250000000000    0.8570500000000000    0.1760800000000000 H
   0.8971950000000000    0.7599200000000000    0.2171600000000000 H
   0.8731949999999999    0.7505600000000000    0.2761150000000000 H
   0.7447800000000000    0.0512500000000000    0.3289200000000000 H
   0.6842350000000000    0.0232500000000000    0.2966100000000000 H
   0.6885800000000000    0.9439500000000000    0.2417100000000000 H
   0.8599650000000000    0.7946600000000000    0.2581750000000000 C
   0.8127350000000000    0.8945000000000000    0.2479500000000000 C
   0.8029150000000000    0.9579500000000000    0.1883500000000000 C
   0.8231350000000000    0.9014400000000000    0.2136900000000000 C
   0.8540250000000000    0.8526500000000000    0.2025650000000000 C
   0.8731400000000000    0.7991000000000000    0.2249800000000000 C
   0.7787550000000000    0.9394300000000000    0.2617550000000000 C
   0.7795500000000000    0.9866400000000000    0.2922750000000000 C
   0.7449150000000000    0.0163200000000000    0.3050000000000000 C
   0.7115500000000000    0.0011500000000000    0.2872100000000000 C
   0.7140000000000000    0.9566200000000000    0.2566550000000000 C
   0.8158500000000000    0.0092600000000000    0.3104850000000000 C
   0.7466349999999999    0.9258200000000000    0.2440850000000000 N
   0.8304750000000001    0.8407200000000000    0.2696600000000000 N
   0.8003650000000000    0.0370000000000000    0.1925000000000000 O
   0.7905850000000000    0.9145700000000000    0.1623750000000000 O
   0.8458749999999999    0.0193700000000000    0.2944750000000000 O
   0.8119350000000001    0.0184500000000000    0.3430850000000000 O
