Zn32 H750 C756 N188 O128
1.0
  35.3299999139029310    0.0000000000000000    0.0024664992969184
  -0.0059625619510336   15.5299970009341344   -0.0075893894172890
   0.0000000000000000    0.0000000000000000   39.5399999999999991
Zn H C N O
32 750 756 188 128
direct
   0.3581500000000000    0.0372500000000000    0.3708100000000000 Zn
   0.0168950000000000    0.9627000000000000    0.1207650000000000 Zn
   0.2668400000000000    0.9627300000000000    0.1208100000000000 Zn
   0.1419250000000000    0.5373599999999999    0.3792550000000000 Zn
   0.3919150000000000    0.5373599999999999    0.3792550000000000 Zn
   0.2331250000000000    0.4627200000000000    0.1292500000000000 Zn
   0.4831000000000000    0.4627400000000000    0.1292550000000000 Zn
   0.1081850000000000    0.0372500000000000    0.3708050000000000 Zn
   0.8581500000000000    0.0372500000000000    0.3708100000000000 Zn
   0.5168950000000000    0.9627000000000000    0.1207650000000000 Zn
   0.7668400000000000    0.9627300000000000    0.1208100000000000 Zn
   0.6419250000000000    0.5373599999999999    0.3792550000000000 Zn
   0.8919150000000000    0.5373599999999999    0.3792550000000000 Zn
   0.7331250000000000    0.4627200000000000    0.1292500000000000 Zn
   0.9831000000000000    0.4627400000000000    0.1292550000000000 Zn
   0.6081850000000000    0.0372500000000000    0.3708050000000000 Zn
   0.3581500000000000    0.0372500000000000    0.8708100000000000 Zn
   0.0168950000000000    0.9627000000000000    0.6207650000000000 Zn
   0.2668400000000000    0.9627300000000000    0.6208100000000000 Zn
   0.1419250000000000    0.5373599999999999    0.8792550000000000 Zn
   0.3919150000000000    0.5373599999999999    0.8792550000000000 Zn
   0.2331250000000000    0.4627200000000000    0.6292500000000000 Zn
   0.4831000000000000    0.4627400000000000    0.6292550000000000 Zn
   0.1081850000000000    0.0372500000000000    0.8708050000000001 Zn
   0.8581500000000000    0.0372500000000000    0.8708100000000000 Zn
   0.5168950000000000    0.9627000000000000    0.6207650000000000 Zn
   0.7668400000000000    0.9627300000000000    0.6208100000000000 Zn
   0.6419250000000000    0.5373599999999999    0.8792550000000000 Zn
   0.8919150000000000    0.5373599999999999    0.8792550000000000 Zn
   0.7331250000000000    0.4627200000000000    0.6292500000000000 Zn
   0.9831000000000000    0.4627400000000000    0.6292550000000000 Zn
   0.6081850000000000    0.0372500000000000    0.8708050000000001 Zn
   0.0126450000000000    0.1432000000000000    0.4261250000000000 H
   0.2626450000000000    0.1432000000000000    0.4261350000000000 H
   0.2278050000000000    0.2401500000000000    0.4672500000000000 H
   0.4778000000000000    0.2401400000000000    0.4672700000000000 H
   0.0017150000000000    0.2492100000000000    0.0262750000000000 H
   0.2516950000000000    0.2492100000000000    0.0262850000000000 H
   0.1302400000000000    0.9485700000000000    0.0788300000000000 H
   0.3801900000000000    0.9485200000000000    0.0788550000000000 H
   0.1907850000000000    0.9768000000000000    0.0465550000000000 H
   0.4407400000000000    0.9767200000000000    0.0465500000000000 H
   0.1864450000000000    0.0564200000000000    0.4917500000000000 H
   0.4364200000000000    0.0563700000000000    0.4917950000000000 H
   0.1277500000000000    0.1457400000000000    0.3041200000000000 H
   0.3777200000000000    0.1457000000000000    0.3041250000000000 H
   0.1701600000000000    0.2993300000000000    0.3080550000000000 H
   0.4201450000000000    0.2992900000000000    0.3080500000000000 H
   0.1728250000000000    0.2362900000000000    0.4279750000000000 H
   0.4228200000000000    0.2362800000000000    0.4279700000000000 H
   0.1444550000000000    0.1417300000000000    0.4259550000000000 H
   0.3944500000000000    0.1417200000000000    0.4259550000000000 H
   0.1938900000000000    0.1355300000000000    0.4181750000000000 H
   0.4438850000000000    0.1355200000000000    0.4181700000000000 H
   0.1955950000000000    0.3827000000000000    0.3552850000000000 H
   0.4455850000000000    0.3826800000000000    0.3552700000000000 H
   0.1864900000000000    0.3499800000000000    0.3972700000000000 H
   0.4364750000000000    0.3499600000000000    0.3972500000000000 H
   0.2421050000000000    0.2495700000000000    0.3954850000000000 H
   0.4920950000000000    0.2495700000000000    0.3954850000000000 H
   0.0039650000000000    0.3588200000000000    0.3908300000000000 H
   0.2539700000000000    0.3588200000000000    0.3908350000000000 H
   0.2459150000000000    0.2314600000000000    0.3313500000000000 H
   0.4959150000000000    0.2314500000000000    0.3313750000000000 H
   0.0104400000000000    0.3396100000000000    0.3281850000000000 H
   0.2604350000000000    0.3396100000000000    0.3281500000000000 H
   0.0651200000000000    0.2375600000000000    0.3260800000000000 H
   0.3151050000000000    0.2375600000000000    0.3260750000000000 H
   0.0521800000000000    0.1927500000000000    0.3653100000000000 H
   0.3021700000000000    0.1927400000000000    0.3653050000000000 H
   0.0775900000000000    0.2529700000000000    0.4172350000000000 H
   0.3275850000000000    0.2529600000000000    0.4172300000000000 H
   0.1210200000000000    0.3986600000000000    0.4324900000000000 H
   0.3710100000000000    0.3986600000000000    0.4324900000000000 H
   0.1116300000000000    0.4534800000000000    0.3121650000000000 H
   0.3616200000000000    0.4534800000000000    0.3121650000000000 H
   0.0822500000000000    0.3641400000000000    0.3027750000000000 H
   0.3322400000000000    0.3641400000000000    0.3027700000000000 H
   0.0614900000000000    0.4611100000000000    0.3175000000000000 H
   0.3114850000000000    0.4611200000000000    0.3175000000000000 H
   0.1127550000000000    0.8568100000000000    0.1760000000000000 H
   0.3624250000000000    0.8570500000000000    0.1760800000000000 H
   0.1472750000000000    0.7595800000000000    0.2171900000000000 H
   0.3971950000000000    0.7599200000000000    0.2171600000000000 H
   0.1230950000000000    0.7505700000000000    0.2761050000000000 H
   0.3731950000000000    0.7505600000000000    0.2761150000000000 H
   0.2447800000000000    0.0512500000000000    0.3289200000000000 H
   0.4949150000000000    0.0508900000000000    0.3288500000000000 H
   0.1842350000000000    0.0232500000000000    0.2966100000000000 H
   0.4343800000000000    0.0231000000000000    0.2965200000000000 H
   0.1885800000000000    0.9439500000000000    0.2417100000000000 H
   0.4387750000000000    0.9447000000000000    0.2414250000000000 H
   0.2473050000000000    0.8539800000000000    0.0541050000000000 H
   0.4972850000000000    0.8539600000000001    0.0540800000000000 H
   0.2049250000000000    0.7003600000000000    0.0580900000000000 H
   0.4549200000000000    0.7003200000000001    0.0580900000000000 H
   0.2021700000000000    0.7640100000000000    0.1779900000000000 H
   0.4521550000000000    0.7640800000000000    0.1779700000000000 H
   0.2306050000000000    0.8584500000000000    0.1759350000000000 H
   0.4805600000000000    0.8585700000000001    0.1759150000000000 H
   0.1811800000000000    0.8648000000000000    0.1681500000000000 H
   0.4311250000000000    0.8648200000000000    0.1681200000000000 H
   0.1795100000000000    0.6171700000000000    0.1053450000000000 H
   0.4294900000000000    0.6172000000000000    0.1053550000000000 H
   0.1885850000000000    0.6501500000000000    0.1473250000000000 H
   0.4385800000000000    0.6502000000000000    0.1473250000000000 H
   0.1329350000000000    0.7503900000000000    0.1450000000000000 H
   0.3829250000000000    0.7504500000000000    0.1455050000000000 H
   0.1210950000000000    0.6411200000000000    0.1408500000000000 H
   0.3710900000000000    0.6411700000000000    0.1408600000000000 H
   0.1291850000000000    0.7682600000000001    0.0813750000000000 H
   0.3791800000000000    0.7682900000000000    0.0813800000000000 H
   0.1146550000000000    0.6601100000000000    0.0782050000000000 H
   0.3646500000000000    0.6601399999999999    0.0782150000000000 H
   0.0599950000000000    0.7621800000000000    0.0760500000000000 H
   0.3099850000000000    0.7622000000000000    0.0760500000000000 H
   0.0729200000000000    0.8071900000000000    0.1152700000000000 H
   0.3229050000000000    0.8072100000000000    0.1152700000000000 H
   0.0474500000000000    0.7473100000000000    0.1672050000000000 H
   0.2974550000000000    0.7473000000000000    0.1672000000000000 H
   0.0040450000000000    0.6016300000000000    0.1825250000000000 H
   0.2540550000000000    0.6016100000000000    0.1825300000000000 H
   0.0136000000000000    0.5457500000000000    0.0622850000000000 H
   0.2636000000000000    0.5457700000000000    0.0622850000000000 H
   0.4365000000000000    0.0385700000000000    0.1824800000000000 H
   0.0427150000000000    0.6354100000000000    0.0527750000000000 H
   0.2927150000000000    0.6354200000000000    0.0527750000000000 H
   0.0637600000000000    0.5388800000000000    0.0676100000000000 H
   0.3137600000000000    0.5388900000000000    0.0676100000000000 H
   0.2378300000000000    0.6431400000000000    0.3240100000000000 H
   0.4878200000000000    0.6432000000000000    0.3240000000000000 H
   0.0223850000000000    0.7403600000000000    0.2827500000000000 H
   0.2724000000000000    0.7402600000000000    0.2828000000000000 H
   0.2482050000000000    0.7492799999999999    0.2238950000000000 H
   0.4981700000000000    0.7493600000000000    0.2238850000000000 H
   0.1198650000000000    0.4490900000000000    0.1711900000000000 H
   0.3698400000000000    0.4491000000000000    0.1712000000000000 H
   0.0593550000000000    0.4768300000000000    0.2035850000000000 H
   0.3093350000000000    0.4768400000000000    0.2036000000000000 H
   0.0638050000000000    0.5551600000000000    0.2586500000000000 H
   0.3137950000000000    0.5551900000000000    0.2587000000000000 H
   0.1224000000000000    0.6459900000000000    0.4459500000000000 H
   0.3723950000000000    0.6460000000000000    0.4459750000000000 H
   0.0801250000000000    0.7997200000000000    0.4420450000000000 H
   0.3301200000000000    0.7997200000000000    0.4420450000000000 H
   0.0771800000000000    0.7361500000000000    0.3221450000000000 H
   0.3271800000000000    0.7361300000000000    0.3221400000000000 H
   0.1056500000000000    0.6418000000000000    0.3241550000000000 H
   0.3556400000000000    0.6417700000000000    0.3241550000000000 H
   0.0562300000000000    0.6352700000000000    0.3319700000000000 H
   0.3062200000000000    0.6352700000000000    0.3319700000000000 H
   0.0546500000000000    0.8828800000000000    0.3949200000000000 H
   0.3046500000000000    0.8828800000000000    0.3949100000000000 H
   0.0638250000000000    0.8502999999999999    0.3529000000000000 H
   0.3138200000000000    0.8502700000000000    0.3529050000000000 H
   0.0081550000000000    0.7500300000000000    0.3544750000000000 H
   0.2581450000000000    0.7500300000000000    0.3544750000000000 H
   0.2463200000000000    0.8592500000000000    0.3592550000000000 H
   0.0042150000000000    0.7315500000000000    0.4185650000000000 H
   0.2542200000000000    0.7315600000000000    0.4185650000000000 H
   0.2396950000000000    0.8396700000000000    0.4218600000000000 H
   0.1850200000000000    0.7375300000000000    0.4237650000000000 H
   0.1980300000000000    0.6929300000000000    0.3845050000000000 H
   0.1724600000000000    0.7528899999999999    0.3326950000000000 H
   0.1290450000000000    0.8985600000000000    0.3175050000000000 H
   0.1387800000000000    0.9534700000000000    0.4378750000000000 H
   0.1684900000000000    0.8646800000000000    0.4471100000000000 H
   0.1888700000000000    0.9619100000000000    0.4322050000000000 H
   0.1373750000000000    0.3564400000000000    0.0739500000000000 H
   0.3873600000000000    0.3564200000000000    0.0739500000000000 H
   0.1026600000000000    0.2598400000000000    0.0326450000000000 H
   0.3526450000000000    0.2598200000000000    0.0326000000000000 H
   0.1265300000000000    0.2519000000000000    0.4736000000000000 H
   0.3765200000000000    0.2518800000000000    0.4735000000000000 H
   0.0053650000000000    0.5512700000000000    0.4212550000000000 H
   0.2553700000000000    0.5512800000000000    0.4212550000000000 H
   0.0657900000000000    0.5231300000000000    0.4537000000000000 H
   0.3157900000000000    0.5231400000000000    0.4536950000000000 H
   0.0611700000000000    0.4446100000000000    0.0087300000000000 H
   0.3111750000000000    0.4446200000000000    0.0087250000000000 H
   0.0027150000000000    0.3543700000000000    0.1959700000000000 H
   0.2526450000000000    0.3544100000000000    0.1959850000000000 H
   0.0450550000000000    0.2007400000000000    0.1920150000000000 H
   0.2949150000000000    0.2006800000000000    0.1921000000000000 H
   0.0478650000000000    0.2639400000000000    0.0721100000000000 H
   0.2979000000000000    0.2637600000000000    0.0721800000000000 H
   0.0194200000000000    0.3583400000000000    0.0741250000000000 H
   0.2694650000000000    0.3581800000000000    0.0741500000000000 H
   0.0688450000000000    0.3648000000000000    0.0819450000000000 H
   0.3188900000000000    0.3646200000000000    0.0820050000000000 H
   0.0704200000000000    0.1173500000000000    0.1447800000000000 H
   0.3204000000000000    0.1172800000000000    0.1449700000000000 H
   0.0613050000000000    0.1501200000000000    0.1028000000000000 H
   0.3112700000000000    0.1498000000000000    0.1029700000000000 H
   0.1170000000000000    0.2503100000000000    0.1045000000000000 H
   0.3669500000000000    0.2500900000000000    0.1046050000000000 H
   0.1287950000000000    0.1410600000000000    0.1092150000000000 H
   0.3787450000000000    0.1408500000000000    0.1093050000000000 H
   0.1208300000000000    0.2685800000000000    0.1686250000000000 H
   0.3708700000000000    0.2683900000000000    0.1687150000000000 H
   0.1353150000000000    0.1604300000000000    0.1718400000000000 H
   0.3853850000000000    0.1602600000000000    0.1719150000000000 H
   0.1900200000000000    0.2625200000000000    0.1738900000000000 H
   0.4400600000000000    0.2624000000000000    0.1739150000000000 H
   0.1770800000000000    0.3072000000000000    0.1346400000000000 H
   0.4270700000000000    0.3070900000000000    0.1346500000000000 H
   0.2025900000000000    0.2470700000000000    0.0827500000000000 H
   0.4524600000000000    0.2469100000000000    0.0827750000000000 H
   0.2459750000000000    0.1013200000000000    0.0675650000000000 H
   0.4959050000000000    0.1012800000000000    0.0675100000000000 H
   0.2363550000000000    0.0468700000000000    0.1879550000000000 H
   0.4866150000000000    0.0467000000000000    0.1878650000000000 H
   0.2066350000000000    0.1356700000000000    0.1971500000000000 H
   0.4570850000000000    0.1357500000000000    0.1972350000000000 H
   0.1862550000000000    0.0383500000000000    0.1823400000000000 H
   0.5126450000000000    0.1432000000000000    0.4261250000000000 H
   0.7626450000000000    0.1432000000000000    0.4261350000000000 H
   0.7278050000000000    0.2401500000000000    0.4672500000000000 H
   0.9778000000000000    0.2401400000000000    0.4672700000000000 H
   0.5017150000000000    0.2492100000000000    0.0262750000000000 H
   0.7516950000000000    0.2492100000000000    0.0262850000000000 H
   0.6302400000000000    0.9485700000000000    0.0788300000000000 H
   0.8801900000000000    0.9485200000000000    0.0788550000000000 H
   0.6907850000000000    0.9768000000000000    0.0465550000000000 H
   0.9407400000000000    0.9767200000000000    0.0465500000000000 H
   0.6864450000000000    0.0564200000000000    0.4917500000000000 H
   0.9364200000000000    0.0563700000000000    0.4917950000000000 H
   0.6277500000000000    0.1457400000000000    0.3041200000000000 H
   0.8777200000000001    0.1457000000000000    0.3041250000000000 H
   0.6701600000000000    0.2993300000000000    0.3080550000000000 H
   0.9201450000000000    0.2992900000000000    0.3080500000000000 H
   0.6728250000000000    0.2362900000000000    0.4279750000000000 H
   0.9228200000000000    0.2362800000000000    0.4279700000000000 H
   0.6444550000000000    0.1417300000000000    0.4259550000000000 H
   0.8944500000000000    0.1417200000000000    0.4259550000000000 H
   0.6938900000000000    0.1355300000000000    0.4181750000000000 H
   0.9438850000000000    0.1355200000000000    0.4181700000000000 H
   0.6955950000000000    0.3827000000000000    0.3552850000000000 H
   0.9455850000000000    0.3826800000000000    0.3552700000000000 H
   0.6864900000000000    0.3499800000000000    0.3972700000000000 H
   0.9364749999999999    0.3499600000000000    0.3972500000000000 H
   0.7421050000000000    0.2495700000000000    0.3954850000000000 H
   0.9920949999999999    0.2495700000000000    0.3954850000000000 H
   0.5039650000000000    0.3588200000000000    0.3908300000000000 H
   0.7539700000000000    0.3588200000000000    0.3908350000000000 H
   0.7459150000000000    0.2314600000000000    0.3313500000000000 H
   0.9959150000000000    0.2314500000000000    0.3313750000000000 H
   0.5104400000000000    0.3396100000000000    0.3281850000000000 H
   0.7604350000000000    0.3396100000000000    0.3281500000000000 H
   0.5651200000000000    0.2375600000000000    0.3260800000000000 H
   0.8151050000000000    0.2375600000000000    0.3260750000000000 H
   0.5521800000000000    0.1927500000000000    0.3653100000000000 H
   0.8021700000000000    0.1927400000000000    0.3653050000000000 H
   0.5775900000000000    0.2529700000000000    0.4172350000000000 H
   0.8275850000000000    0.2529600000000000    0.4172300000000000 H
   0.6210200000000000    0.3986600000000000    0.4324900000000000 H
   0.8710100000000001    0.3986600000000000    0.4324900000000000 H
   0.6116300000000000    0.4534800000000000    0.3121650000000000 H
   0.8616200000000001    0.4534800000000000    0.3121650000000000 H
   0.5822500000000000    0.3641400000000000    0.3027750000000000 H
   0.8322400000000000    0.3641400000000000    0.3027700000000000 H
   0.5614900000000000    0.4611100000000000    0.3175000000000000 H
   0.8114850000000000    0.4611200000000000    0.3175000000000000 H
   0.6127549999999999    0.8568100000000000    0.1760000000000000 H
   0.8624250000000000    0.8570500000000000    0.1760800000000000 H
   0.6472750000000000    0.7595800000000000    0.2171900000000000 H
   0.8971950000000000    0.7599200000000000    0.2171600000000000 H
   0.6230950000000000    0.7505700000000000    0.2761050000000000 H
   0.8731949999999999    0.7505600000000000    0.2761150000000000 H
   0.7447800000000000    0.0512500000000000    0.3289200000000000 H
   0.9949150000000000    0.0508900000000000    0.3288500000000000 H
   0.6842350000000000    0.0232500000000000    0.2966100000000000 H
   0.9343800000000000    0.0231000000000000    0.2965200000000000 H
   0.6885800000000000    0.9439500000000000    0.2417100000000000 H
   0.9387750000000000    0.9447000000000000    0.2414250000000000 H
   0.7473050000000000    0.8539800000000000    0.0541050000000000 H
   0.9972850000000000    0.8539600000000001    0.0540800000000000 H
   0.7049250000000000    0.7003600000000000    0.0580900000000000 H
   0.9549200000000000    0.7003200000000001    0.0580900000000000 H
   0.7021700000000000    0.7640100000000000    0.1779900000000000 H
   0.9521550000000000    0.7640800000000000    0.1779700000000000 H
   0.7306049999999999    0.8584500000000000    0.1759350000000000 H
   0.9805600000000000    0.8585700000000001    0.1759150000000000 H
   0.6811800000000000    0.8648000000000000    0.1681500000000000 H
   0.9311250000000000    0.8648200000000000    0.1681200000000000 H
   0.6795100000000001    0.6171700000000000    0.1053450000000000 H
   0.9294899999999999    0.6172000000000000    0.1053550000000000 H
   0.6885850000000000    0.6501500000000000    0.1473250000000000 H
   0.9385800000000000    0.6502000000000000    0.1473250000000000 H
   0.6329350000000000    0.7503900000000000    0.1450000000000000 H
   0.8829250000000000    0.7504500000000000    0.1455050000000000 H
   0.6210950000000000    0.6411200000000000    0.1408500000000000 H
   0.8710899999999999    0.6411700000000000    0.1408600000000000 H
   0.6291850000000000    0.7682600000000001    0.0813750000000000 H
   0.8791800000000001    0.7682900000000000    0.0813800000000000 H
   0.6146550000000000    0.6601100000000000    0.0782050000000000 H
   0.8646499999999999    0.6601399999999999    0.0782150000000000 H
   0.5599950000000000    0.7621800000000000    0.0760500000000000 H
   0.8099850000000000    0.7622000000000000    0.0760500000000000 H
   0.5729200000000000    0.8071900000000000    0.1152700000000000 H
   0.8229050000000000    0.8072100000000000    0.1152700000000000 H
   0.5474500000000000    0.7473100000000000    0.1672050000000000 H
   0.7974550000000000    0.7473000000000000    0.1672000000000000 H
   0.5040450000000000    0.6016300000000000    0.1825250000000000 H
   0.7540549999999999    0.6016100000000000    0.1825300000000000 H
   0.5135999999999999    0.5457500000000000    0.0622850000000000 H
   0.7636000000000001    0.5457700000000000    0.0622850000000000 H
   0.9365000000000000    0.0385700000000000    0.1824800000000000 H
   0.5427150000000001    0.6354100000000000    0.0527750000000000 H
   0.7927150000000001    0.6354200000000000    0.0527750000000000 H
   0.5637600000000000    0.5388800000000000    0.0676100000000000 H
   0.8137600000000000    0.5388900000000000    0.0676100000000000 H
   0.7378300000000000    0.6431400000000000    0.3240100000000000 H
   0.9878199999999999    0.6432000000000000    0.3240000000000000 H
   0.5223850000000000    0.7403600000000000    0.2827500000000000 H
   0.7724000000000000    0.7402600000000000    0.2828000000000000 H
   0.7482050000000000    0.7492799999999999    0.2238950000000000 H
   0.9981700000000000    0.7493600000000000    0.2238850000000000 H
   0.6198650000000000    0.4490900000000000    0.1711900000000000 H
   0.8698399999999999    0.4491000000000000    0.1712000000000000 H
   0.5593550000000000    0.4768300000000000    0.2035850000000000 H
   0.8093350000000000    0.4768400000000000    0.2036000000000000 H
   0.5638050000000000    0.5551600000000000    0.2586500000000000 H
   0.8137950000000000    0.5551900000000000    0.2587000000000000 H
   0.8723950000000000    0.6460000000000000    0.4459750000000000 H
   0.8301200000000000    0.7997200000000000    0.4420450000000000 H
   0.8271800000000000    0.7361300000000000    0.3221400000000000 H
   0.8556400000000000    0.6417700000000000    0.3241550000000000 H
   0.8062199999999999    0.6352700000000000    0.3319700000000000 H
   0.8046500000000000    0.8828800000000000    0.3949100000000000 H
   0.8138200000000000    0.8502700000000000    0.3529050000000000 H
   0.7581450000000001    0.7500300000000000    0.3544750000000000 H
   0.7463200000000000    0.8592500000000000    0.3592550000000000 H
   0.9963150000000001    0.8592500000000000    0.3592550000000000 H
   0.7542200000000000    0.7315600000000000    0.4185650000000000 H
   0.7396950000000000    0.8396700000000000    0.4218600000000000 H
   0.9896849999999999    0.8396700000000000    0.4218600000000000 H
   0.6850200000000000    0.7375300000000000    0.4237650000000000 H
   0.9350050000000000    0.7375400000000000    0.4237600000000000 H
   0.6980300000000000    0.6929300000000000    0.3845050000000000 H
   0.9480150000000001    0.6929500000000000    0.3844950000000000 H
   0.6724600000000001    0.7528899999999999    0.3326950000000000 H
   0.9224450000000000    0.7529200000000000    0.3326500000000000 H
   0.6290450000000000    0.8985600000000000    0.3175050000000000 H
   0.8790200000000000    0.8985800000000000    0.3175050000000000 H
   0.6387800000000000    0.9534700000000000    0.4378750000000000 H
   0.8887750000000000    0.9534800000000000    0.4378800000000000 H
   0.6684900000000000    0.8646800000000000    0.4471100000000000 H
   0.9184800000000000    0.8646900000000000    0.4471100000000000 H
   0.6888700000000000    0.9619100000000000    0.4322050000000000 H
   0.9388600000000000    0.9619200000000000    0.4322050000000000 H
   0.6373750000000000    0.3564400000000000    0.0739500000000000 H
   0.8873599999999999    0.3564200000000000    0.0739500000000000 H
   0.6026600000000000    0.2598400000000000    0.0326450000000000 H
   0.8526450000000000    0.2598200000000000    0.0326000000000000 H
   0.6265300000000000    0.2519000000000000    0.4736000000000000 H
   0.8765200000000000    0.2518800000000000    0.4735000000000000 H
   0.5053650000000000    0.5512700000000000    0.4212550000000000 H
   0.7553700000000000    0.5512800000000000    0.4212550000000000 H
   0.5657900000000000    0.5231300000000000    0.4537000000000000 H
   0.8157900000000000    0.5231400000000000    0.4536950000000000 H
   0.5611699999999999    0.4446100000000000    0.0087300000000000 H
   0.8111750000000000    0.4446200000000000    0.0087250000000000 H
   0.5027150000000000    0.3543700000000000    0.1959700000000000 H
   0.7526450000000000    0.3544100000000000    0.1959850000000000 H
   0.5450550000000000    0.2007400000000000    0.1920150000000000 H
   0.7949150000000000    0.2006800000000000    0.1921000000000000 H
   0.5478650000000000    0.2639400000000000    0.0721100000000000 H
   0.7979000000000001    0.2637600000000000    0.0721800000000000 H
   0.5194200000000000    0.3583400000000000    0.0741250000000000 H
   0.7694650000000001    0.3581800000000000    0.0741500000000000 H
   0.5688450000000000    0.3648000000000000    0.0819450000000000 H
   0.8188900000000000    0.3646200000000000    0.0820050000000000 H
   0.5704200000000000    0.1173500000000000    0.1447800000000000 H
   0.8204000000000000    0.1172800000000000    0.1449700000000000 H
   0.5613049999999999    0.1501200000000000    0.1028000000000000 H
   0.8112699999999999    0.1498000000000000    0.1029700000000000 H
   0.6170000000000000    0.2503100000000000    0.1045000000000000 H
   0.8669500000000000    0.2500900000000000    0.1046050000000000 H
   0.6287950000000000    0.1410600000000000    0.1092150000000000 H
   0.8787450000000000    0.1408500000000000    0.1093050000000000 H
   0.6208300000000000    0.2685800000000000    0.1686250000000000 H
   0.8708700000000000    0.2683900000000000    0.1687150000000000 H
   0.6353150000000000    0.1604300000000000    0.1718400000000000 H
   0.8853850000000000    0.1602600000000000    0.1719150000000000 H
   0.6900200000000000    0.2625200000000000    0.1738900000000000 H
   0.9400600000000000    0.2624000000000000    0.1739150000000000 H
   0.6770800000000000    0.3072000000000000    0.1346400000000000 H
   0.9270700000000001    0.3070900000000000    0.1346500000000000 H
   0.7025900000000000    0.2470700000000000    0.0827500000000000 H
   0.9524600000000000    0.2469100000000000    0.0827750000000000 H
   0.7459750000000001    0.1013200000000000    0.0675650000000000 H
   0.9959050000000000    0.1012800000000000    0.0675100000000000 H
   0.7363550000000000    0.0468700000000000    0.1879550000000000 H
   0.9866150000000000    0.0467000000000000    0.1878650000000000 H
   0.7066350000000000    0.1356700000000000    0.1971500000000000 H
   0.9570850000000000    0.1357500000000000    0.1972350000000000 H
   0.6862550000000001    0.0383500000000000    0.1823400000000000 H
   0.0126450000000000    0.1432000000000000    0.9261250000000000 H
   0.2626450000000000    0.1432000000000000    0.9261349999999999 H
   0.2278050000000000    0.2401500000000000    0.9672499999999999 H
   0.4778000000000000    0.2401400000000000    0.9672700000000001 H
   0.0017150000000000    0.2492100000000000    0.5262750000000000 H
   0.2516950000000000    0.2492100000000000    0.5262850000000000 H
   0.1302400000000000    0.9485700000000000    0.5788300000000000 H
   0.3801900000000000    0.9485200000000000    0.5788550000000000 H
   0.1907850000000000    0.9768000000000000    0.5465550000000000 H
   0.4407400000000000    0.9767200000000000    0.5465500000000000 H
   0.1864450000000000    0.0564200000000000    0.9917500000000000 H
   0.4364200000000000    0.0563700000000000    0.9917950000000000 H
   0.1277500000000000    0.1457400000000000    0.8041199999999999 H
   0.3777200000000000    0.1457000000000000    0.8041250000000000 H
   0.1701600000000000    0.2993300000000000    0.8080550000000000 H
   0.4201450000000000    0.2992900000000000    0.8080499999999999 H
   0.1728250000000000    0.2362900000000000    0.9279750000000000 H
   0.4228200000000000    0.2362800000000000    0.9279700000000000 H
   0.1444550000000000    0.1417300000000000    0.9259550000000000 H
   0.3944500000000000    0.1417200000000000    0.9259550000000000 H
   0.1938900000000000    0.1355300000000000    0.9181750000000000 H
   0.4438850000000000    0.1355200000000000    0.9181699999999999 H
   0.1955950000000000    0.3827000000000000    0.8552850000000001 H
   0.4455850000000000    0.3826800000000000    0.8552700000000000 H
   0.1864900000000000    0.3499800000000000    0.8972700000000000 H
   0.4364750000000000    0.3499600000000000    0.8972500000000000 H
   0.2421050000000000    0.2495700000000000    0.8954850000000000 H
   0.4920950000000000    0.2495700000000000    0.8954850000000000 H
   0.0039650000000000    0.3588200000000000    0.8908300000000000 H
   0.2539700000000000    0.3588200000000000    0.8908350000000000 H
   0.2459150000000000    0.2314600000000000    0.8313500000000000 H
   0.4959150000000000    0.2314500000000000    0.8313750000000000 H
   0.0104400000000000    0.3396100000000000    0.8281849999999999 H
   0.2604350000000000    0.3396100000000000    0.8281499999999999 H
   0.0651200000000000    0.2375600000000000    0.8260799999999999 H
   0.3151050000000000    0.2375600000000000    0.8260750000000000 H
   0.0521800000000000    0.1927500000000000    0.8653100000000000 H
   0.3021700000000000    0.1927400000000000    0.8653050000000000 H