Cu48 H138 C368 O184
1.0
  27.1502720750192950    0.0000000000000000    1.2708761750963269
   1.1419482315138278   27.1366229824440666    1.3055693567294169
   0.0000000000000000    0.0000000000000000   27.2079999999999984
Cu H C O
48 138 368 184
direct
   0.0106000000000000    0.0105450000000000    0.2918850000000000 Cu
   0.2919350000000000    0.0107800000000000    0.0096350000000000 Cu
   0.2080950000000000    0.4909550000000000    0.4901800000000000 Cu
   0.4909100000000000    0.4909350000000000    0.2081800000000000 Cu
   0.4893100000000000    0.2085950000000000    0.4903500000000000 Cu
   0.0091800000000000    0.2924050000000000    0.0098800000000000 Cu
   0.5106000000000001    0.0105450000000000    0.2918850000000000 Cu
   0.7919350000000001    0.0107800000000000    0.0096350000000000 Cu
   0.7080950000000000    0.4909550000000000    0.4901800000000000 Cu
   0.9909100000000000    0.4909350000000000    0.2081800000000000 Cu
   0.9893100000000000    0.2085950000000000    0.4903500000000000 Cu
   0.5091800000000000    0.2924050000000000    0.0098800000000000 Cu
   0.0106000000000000    0.5105450000000000    0.2918850000000000 Cu
   0.2919350000000000    0.5107800000000000    0.0096350000000000 Cu
   0.2080950000000000    0.9909550000000000    0.4901800000000000 Cu
   0.4909100000000000    0.9909350000000000    0.2081800000000000 Cu
   0.4893100000000000    0.7085950000000000    0.4903500000000000 Cu
   0.0091800000000000    0.7924050000000000    0.0098800000000000 Cu
   0.5106000000000001    0.5105450000000000    0.2918850000000000 Cu
   0.7919350000000001    0.5107800000000000    0.0096350000000000 Cu
   0.7080950000000000    0.9909550000000000    0.4901800000000000 Cu
   0.9909100000000000    0.9909350000000000    0.2081800000000000 Cu
   0.9893100000000000    0.7085950000000000    0.4903500000000000 Cu
   0.5091800000000000    0.7924050000000000    0.0098800000000000 Cu
   0.0106000000000000    0.0105450000000000    0.7918850000000000 Cu
   0.2919350000000000    0.0107800000000000    0.5096349999999999 Cu
   0.2080950000000000    0.4909550000000000    0.9901800000000001 Cu
   0.4909100000000000    0.4909350000000000    0.7081800000000000 Cu
   0.4893100000000000    0.2085950000000000    0.9903500000000001 Cu
   0.0091800000000000    0.2924050000000000    0.5098800000000000 Cu
   0.5106000000000001    0.0105450000000000    0.7918850000000000 Cu
   0.7919350000000001    0.0107800000000000    0.5096349999999999 Cu
   0.7080950000000000    0.4909550000000000    0.9901800000000001 Cu
   0.9909100000000000    0.4909350000000000    0.7081800000000000 Cu
   0.9893100000000000    0.2085950000000000    0.9903500000000001 Cu
   0.5091800000000000    0.2924050000000000    0.5098800000000000 Cu
   0.0106000000000000    0.5105450000000000    0.7918850000000000 Cu
   0.2919350000000000    0.5107800000000000    0.5096349999999999 Cu
   0.2080950000000000    0.9909550000000000    0.9901800000000001 Cu
   0.4909100000000000    0.9909350000000000    0.7081800000000000 Cu
   0.4893100000000000    0.7085950000000000    0.9903500000000001 Cu
   0.0091800000000000    0.7924050000000000    0.5098800000000000 Cu
   0.5106000000000001    0.5105450000000000    0.7918850000000000 Cu
   0.7919350000000001    0.5107800000000000    0.5096349999999999 Cu
   0.7080950000000000    0.9909550000000000    0.9901800000000001 Cu
   0.9909100000000000    0.9909350000000000    0.7081800000000000 Cu
   0.9893100000000000    0.7085950000000000    0.9903500000000001 Cu
   0.5091800000000000    0.7924050000000000    0.5098800000000000 Cu
   0.4991750000000000    0.2178650000000000    0.3325000000000000 H
   0.3334800000000000    0.0000000000000000    0.2173600000000000 H
   0.2164700000000000    0.3333333333333333    0.0000000000000000 H
   0.2836950000000000    0.0007900000000000    0.1673750000000000 H
   0.0005500000000000    0.1681500000000000    0.2828500000000000 H
   0.1665250000000000    0.2833000000000000    0.0003550000000000 H
   0.4991150000000000    0.2837800000000000    0.1675800000000000 H
   0.1682100000000000    0.0007200000000000    0.2827250000000000 H
   0.2821650000000000    0.1683950000000000    0.4998150000000000 H
   0.2177000000000000    0.0000000000000000    0.3323800000000000 H
   0.0000000000000000    0.3333333333333333    0.2172250000000000 H
   0.3317100000000000    0.2180250000000000    0.0000000000000000 H
   0.0082150000000000    0.3687750000000000    0.3682750000000000 H
   0.3687500000000000    0.0078800000000000    0.3684700000000000 H
   0.3677250000000000    0.3690300000000000    0.0079450000000000 H
   0.1324700000000000    0.4938450000000000    0.1317150000000000 H
   0.4917000000000000    0.1326950000000000    0.1319950000000000 H
   0.1311550000000000    0.1321200000000000    0.4918500000000000 H
   0.9991749999999999    0.2178650000000000    0.3325000000000000 H
   0.8334800000000000    0.0000000000000000    0.2173600000000000 H
   0.7164699999999999    0.3333333333333333    0.0000000000000000 H
   0.7836950000000000    0.0007900000000000    0.1673750000000000 H
   0.5005500000000001    0.1681500000000000    0.2828500000000000 H
   0.6665250000000000    0.2833000000000000    0.0003550000000000 H
   0.9991150000000000    0.2837800000000000    0.1675800000000000 H
   0.6682100000000000    0.0007200000000000    0.2827250000000000 H
   0.7821650000000000    0.1683950000000000    0.4998150000000000 H
   0.7177000000000000    0.0000000000000000    0.3323800000000000 H
   0.5000000000000000    0.3333333333333333    0.2172250000000000 H
   0.8317099999999999    0.2180250000000000    0.0000000000000000 H
   0.5082150000000000    0.3687750000000000    0.3682750000000000 H
   0.8687500000000000    0.0078800000000000    0.3684700000000000 H
   0.8677250000000001    0.3690300000000000    0.0079450000000000 H
   0.9917000000000000    0.1326950000000000    0.1319950000000000 H
   0.6311550000000000    0.1321200000000000    0.4918500000000000 H
   0.4991750000000000    0.7178650000000000    0.3325000000000000 H
   0.3334800000000000    0.5000000000000000    0.2173600000000000 H
   0.2164700000000000    0.8333333333333333    0.0000000000000000 H
   0.2836950000000000    0.5007900000000000    0.1673750000000000 H
   0.0005500000000000    0.6681500000000000    0.2828500000000000 H
   0.1665250000000000    0.7833000000000000    0.0003550000000000 H
   0.4991150000000000    0.7837799999999999    0.1675800000000000 H
   0.1682100000000000    0.5007200000000001    0.2827250000000000 H
   0.2821650000000000    0.6683950000000000    0.4998150000000000 H
   0.2177000000000000    0.5000000000000000    0.3323800000000000 H
   0.0000000000000000    0.8333333333333333    0.2172250000000000 H
   0.3317100000000000    0.7180250000000000    0.0000000000000000 H
   0.0082150000000000    0.8687750000000001    0.3682750000000000 H
   0.3687500000000000    0.5078800000000000    0.3684700000000000 H
   0.3677250000000000    0.8690300000000000    0.0079450000000000 H
   0.1324700000000000    0.9938450000000000    0.1317150000000000 H
   0.4917000000000000    0.6326950000000000    0.1319950000000000 H
   0.1311550000000000    0.6321200000000000    0.4918500000000000 H
   0.9991749999999999    0.7178650000000000    0.3325000000000000 H
   0.7164699999999999    0.8333333333333333    0.0000000000000000 H
   0.5005500000000001    0.6681500000000000    0.2828500000000000 H
   0.6665250000000000    0.7833000000000000    0.0003550000000000 H
   0.9991150000000000    0.7837799999999999    0.1675800000000000 H
   0.7821650000000000    0.6683950000000000    0.4998150000000000 H
   0.5000000000000000    0.8333333333333333    0.2172250000000000 H
   0.8317099999999999    0.7180250000000000    0.0000000000000000 H
   0.5082150000000000    0.8687750000000001    0.3682750000000000 H
   0.8677250000000001    0.8690300000000000    0.0079450000000000 H
   0.6324700000000000    0.9938450000000000    0.1317150000000000 H
   0.9917000000000000    0.6326950000000000    0.1319950000000000 H
   0.6311550000000000    0.6321200000000000    0.4918500000000000 H
   0.4991750000000000    0.2178650000000000    0.8325000000000000 H
   0.3334800000000000    0.0000000000000000    0.7173600000000000 H
   0.2164700000000000    0.3333333333333333    0.5000000000000000 H
   0.2836950000000000    0.0007900000000000    0.6673750000000001 H
   0.0005500000000000    0.1681500000000000    0.7828500000000000 H
   0.1665250000000000    0.2833000000000000    0.5003550000000000 H
   0.4991150000000000    0.2837800000000000    0.6675800000000001 H
   0.1682100000000000    0.0007200000000000    0.7827250000000000 H
   0.2821650000000000    0.1683950000000000    0.9998150000000000 H
   0.2177000000000000    0.0000000000000000    0.8323800000000000 H
   0.0000000000000000    0.3333333333333333    0.7172250000000000 H
   0.3317100000000000    0.2180250000000000    0.5000000000000000 H
   0.0082150000000000    0.3687750000000000    0.8682750000000000 H
   0.3687500000000000    0.0078800000000000    0.8684700000000001 H
   0.3677250000000000    0.3690300000000000    0.5079450000000000 H
   0.1324700000000000    0.4938450000000000    0.6317150000000000 H
   0.4917000000000000    0.1326950000000000    0.6319950000000000 H
   0.1311550000000000    0.1321200000000000    0.9918500000000000 H
   0.9991749999999999    0.2178650000000000    0.8325000000000000 H
   0.8334800000000000    0.0000000000000000    0.7173600000000000 H
   0.7164699999999999    0.3333333333333333    0.5000000000000000 H
   0.7836950000000000    0.0007900000000000    0.6673750000000001 H
   0.5005500000000001    0.1681500000000000    0.7828500000000000 H
   0.6665250000000000    0.2833000000000000    0.5003550000000000 H
   0.9991150000000000    0.2837800000000000    0.6675800000000001 H
   0.6682100000000000    0.0007200000000000    0.7827250000000000 H
   0.7821650000000000    0.1683950000000000    0.9998150000000000 H
   0.7177000000000000    0.0000000000000000    0.8323800000000000 H
   0.5000000000000000    0.3333333333333333    0.7172250000000000 H
   0.8317099999999999    0.2180250000000000    0.5000000000000000 H
   0.5082150000000000    0.3687750000000000    0.8682750000000000 H
   0.8687500000000000    0.0078800000000000    0.8684700000000001 H
   0.8677250000000001    0.3690300000000000    0.5079450000000000 H
   0.6324700000000000    0.4938450000000000    0.6317150000000000 H
   0.9917000000000000    0.1326950000000000    0.6319950000000000 H
   0.6311550000000000    0.1321200000000000    0.9918500000000000 H
   0.4991750000000000    0.7178650000000000    0.8325000000000000 H
   0.3334800000000000    0.5000000000000000    0.7173600000000000 H
   0.2164700000000000    0.8333333333333333    0.5000000000000000 H
   0.2836950000000000    0.5007900000000000    0.6673750000000001 H
   0.0005500000000000    0.6681500000000000    0.7828500000000000 H
   0.1665250000000000    0.7833000000000000    0.5003550000000000 H
   0.4991150000000000    0.7837799999999999    0.6675800000000001 H
   0.1682100000000000    0.5007200000000001    0.7827250000000000 H
   0.2821650000000000    0.6683950000000000    0.9998150000000000 H
   0.2177000000000000    0.5000000000000000    0.8323800000000000 H
   0.0000000000000000    0.8333333333333333    0.7172250000000000 H
   0.3317100000000000    0.7180250000000000    0.5000000000000000 H
   0.0082150000000000    0.8687750000000001    0.8682750000000000 H
   0.3687500000000000    0.5078800000000000    0.8684700000000001 H
   0.3677250000000000    0.8690300000000000    0.5079450000000000 H
   0.1324700000000000    0.9938450000000000    0.6317150000000000 H
   0.4917000000000000    0.6326950000000000    0.6319950000000000 H
   0.1311550000000000    0.6321200000000000    0.9918500000000000 H
   0.9991749999999999    0.7178650000000000    0.8325000000000000 H
   0.8334800000000000    0.5000000000000000    0.7173600000000000 H
   0.7164699999999999    0.8333333333333333    0.5000000000000000 H
   0.7836950000000000    0.5007900000000000    0.6673750000000001 H
   0.5005500000000001    0.6681500000000000    0.7828500000000000 H
   0.6665250000000000    0.7833000000000000    0.5003550000000000 H
   0.9991150000000000    0.7837799999999999    0.6675800000000001 H
   0.6682100000000000    0.5007200000000001    0.7827250000000000 H
   0.7821650000000000    0.6683950000000000    0.9998150000000000 H
   0.7177000000000000    0.5000000000000000    0.8323800000000000 H
   0.5000000000000000    0.8333333333333333    0.7172250000000000 H
   0.8317099999999999    0.7180250000000000    0.5000000000000000 H
   0.5082150000000000    0.8687750000000001    0.8682750000000000 H
   0.8687500000000000    0.5078800000000000    0.8684700000000001 H
   0.8677250000000001    0.8690300000000000    0.5079450000000000 H
   0.6324700000000000    0.9938450000000000    0.6317150000000000 H
   0.9917000000000000    0.6326950000000000    0.6319950000000000 H
   0.6311550000000000    0.6321200000000000    0.9918500000000000 H
   0.0032250000000000    0.2757400000000000    0.4084600000000000 C
   0.0011500000000000    0.2561400000000000    0.3194500000000000 C
   0.0037900000000000    0.2913750000000000    0.3549800000000000 C
   0.4091700000000000    0.0036450000000000    0.2755250000000000 C
   0.3202150000000000    0.0017150000000000    0.2556000000000000 C
   0.3556500000000000    0.0040000000000000    0.2910150000000000 C
   0.2747800000000000    0.4092000000000000    0.0040100000000000 C
   0.2547550000000000    0.3202050000000000    0.0018150000000000 C
   0.2901900000000000    0.3557150000000000    0.0042500000000000 C
   0.2253800000000000    0.4976600000000000    0.0915800000000000 C
   0.2453750000000000    0.4994150000000000    0.1805350000000000 C
   0.2099850000000000    0.4973150000000000    0.1450550000000000 C
   0.4965850000000000    0.0924000000000000    0.2248400000000000 C
   0.4986300000000000    0.1813750000000000    0.2446250000000000 C
   0.4960100000000000    0.1459100000000000    0.2093500000000000 C
   0.0907800000000000    0.2249600000000000    0.4965300000000000 C
   0.1797600000000000    0.2450700000000000    0.4986000000000000 C
   0.1443100000000000    0.2096000000000000    0.4960800000000000 C
   0.4955850000000000    0.2256800000000000    0.0918200000000000 C
   0.4979050000000000    0.2454450000000000    0.1807450000000000 C
   0.4954250000000000    0.2101500000000000    0.1452800000000000 C
   0.0923650000000000    0.4976700000000000    0.2247400000000000 C
   0.1813850000000000    0.4993950000000000    0.2444500000000000 C
   0.1458350000000000    0.4973050000000000    0.2091500000000000 C
   0.2243900000000000    0.0923750000000000    0.4960700000000000 C
   0.2438450000000000    0.1814150000000000    0.4983550000000000 C
   0.2086150000000000    0.1457600000000000    0.4958250000000000 C
   0.2755200000000000    0.0039300000000000    0.4083500000000000 C
   0.2560500000000000    0.0018600000000000    0.3193350000000000 C
   0.2912800000000000    0.0041350000000000    0.3549400000000000 C
   0.0044950000000000    0.4090900000000000    0.2752200000000000 C
   0.0020150000000000    0.3201450000000000    0.2555250000000000 C
   0.0045250000000000    0.3555950000000000    0.2908300000000000 C
   0.4076700000000000    0.2759500000000000    0.0036500000000000 C
   0.3186050000000000    0.2562950000000000    0.0016150000000000 C
   0.3542200000000000    0.2915850000000000    0.0040350000000000 C
   0.0008900000000000    0.2696350000000000    0.2689500000000000 C
   0.0060550000000000    0.3413300000000000    0.3407500000000000 C
   0.2696350000000000    0.0013050000000000    0.2688750000000000 C
   0.3413150000000000    0.0058600000000000    0.3409050000000000 C
   0.2680950000000000    0.2697100000000000    0.0010550000000000 C
   0.3401500000000000    0.3415300000000000    0.0059350000000000 C
   0.2319250000000000    0.4998600000000000    0.2310000000000000 C
   0.1599900000000000    0.4956600000000000    0.1592200000000000 C
   0.4989450000000000    0.2319300000000000    0.2312150000000000 C
   0.4938250000000000    0.1601600000000000    0.1594600000000000 C
   0.2303200000000000    0.2318600000000000    0.4991650000000000 C
   0.1586050000000000    0.1597200000000000    0.4940250000000000 C
   0.5032250000000000    0.2757400000000000    0.4084600000000000 C
   0.5011500000000000    0.2561400000000000    0.3194500000000000 C
   0.5037900000000000    0.2913750000000000    0.3549800000000000 C
   0.9091700000000000    0.0036450000000000    0.2755250000000000 C
   0.8202150000000000    0.0017150000000000    0.2556000000000000 C
   0.8556500000000000    0.0040000000000000    0.2910150000000000 C
   0.7747800000000000    0.4092000000000000    0.0040100000000000 C
   0.7547550000000001    0.3202050000000000    0.0018150000000000 C
   0.7901899999999999    0.3557150000000000    0.0042500000000000 C
   0.9965850000000001    0.0924000000000000    0.2248400000000000 C
   0.9986300000000000    0.1813750000000000    0.2446250000000000 C
   0.9960100000000001    0.1459100000000000    0.2093500000000000 C
   0.5907800000000000    0.2249600000000000    0.4965300000000000 C
   0.6797600000000000    0.2450700000000000    0.4986000000000000 C
   0.6443099999999999    0.2096000000000000    0.4960800000000000 C
   0.9955849999999999    0.2256800000000000    0.0918200000000000 C
   0.9979050000000000    0.2454450000000000    0.1807450000000000 C
   0.9954250000000000    0.2101500000000000    0.1452800000000000 C
   0.7243900000000000    0.0923750000000000    0.4960700000000000 C
   0.7438450000000000    0.1814150000000000    0.4983550000000000 C
   0.7086150000000000    0.1457600000000000    0.4958250000000000 C
   0.7755200000000000    0.0039300000000000    0.4083500000000000 C
   0.7560500000000000    0.0018600000000000    0.3193350000000000 C
   0.7912800000000000    0.0041350000000000    0.3549400000000000 C
   0.5044950000000000    0.4090900000000000    0.2752200000000000 C
   0.5020150000000000    0.3201450000000000    0.2555250000000000 C
   0.5045250000000000    0.3555950000000000    0.2908300000000000 C
   0.9076700000000000    0.2759500000000000    0.0036500000000000 C
   0.8186050000000000    0.2562950000000000    0.0016150000000000 C
   0.8542200000000000    0.2915850000000000    0.0040350000000000 C
   0.5008899999999999    0.2696350000000000    0.2689500000000000 C
   0.5060550000000000    0.3413300000000000    0.3407500000000000 C
   0.7696350000000001    0.0013050000000000    0.2688750000000000 C
   0.8413150000000000    0.0058600000000000    0.3409050000000000 C
   0.7680950000000000    0.2697100000000000    0.0010550000000000 C
   0.8401500000000000    0.3415300000000000    0.0059350000000000 C
   0.9989450000000000    0.2319300000000000    0.2312150000000000 C
   0.9938250000000000    0.1601600000000000    0.1594600000000000 C
   0.7303200000000000    0.2318600000000000    0.4991650000000000 C
   0.6586050000000000    0.1597200000000000    0.4940250000000000 C
   0.0032250000000000    0.7757400000000000    0.4084600000000000 C
   0.0011500000000000    0.7561400000000000    0.3194500000000000 C
   0.0037900000000000    0.7913749999999999    0.3549800000000000 C
   0.4091700000000000    0.5036450000000000    0.2755250000000000 C
   0.3202150000000000    0.5017150000000000    0.2556000000000000 C
   0.3556500000000000    0.5040000000000000    0.2910150000000000 C
   0.2747800000000000    0.9092000000000000    0.0040100000000000 C
   0.2547550000000000    0.8202050000000001    0.0018150000000000 C
   0.2901900000000000    0.8557150000000000    0.0042500000000000 C
   0.2253800000000000    0.9976600000000000    0.0915800000000000 C
   0.2453750000000000    0.9994149999999999    0.1805350000000000 C
   0.2099850000000000    0.9973150000000000    0.1450550000000000 C
   0.4965850000000000    0.5924000000000000    0.2248400000000000 C
   0.4986300000000000    0.6813750000000001    0.2446250000000000 C
   0.4960100000000000    0.6459100000000000    0.2093500000000000 C
   0.0907800000000000    0.7249600000000000    0.4965300000000000 C
   0.1797600000000000    0.7450700000000000    0.4986000000000000 C
   0.1443100000000000    0.7096000000000000    0.4960800000000000 C
   0.4955850000000000    0.7256800000000000    0.0918200000000000 C
   0.4979050000000000    0.7454450000000000    0.1807450000000000 C
   0.4954250000000000    0.7101500000000001    0.1452800000000000 C
   0.0923650000000000    0.9976700000000001    0.2247400000000000 C
   0.1813850000000000    0.9993950000000000    0.2444500000000000 C
   0.1458350000000000    0.9973050000000000    0.2091500000000000 C
   0.2243900000000000    0.5923750000000000    0.4960700000000000 C
   0.2438450000000000    0.6814150000000000    0.4983550000000000 C
   0.2086150000000000    0.6457600000000000    0.4958250000000000 C
   0.2755200000000000    0.5039300000000000    0.4083500000000000 C
   0.2560500000000000    0.5018600000000000    0.3193350000000000 C
   0.2912800000000000    0.5041350000000000    0.3549400000000000 C
   0.0044950000000000    0.9090900000000000    0.2752200000000000 C
   0.0020150000000000    0.8201450000000000    0.2555250000000000 C
   0.0045250000000000    0.8555950000000000    0.2908300000000000 C
   0.4076700000000000    0.7759499999999999    0.0036500000000000 C
   0.3186050000000000    0.7562949999999999    0.0016150000000000 C
   0.3542200000000000    0.7915850000000000    0.0040350000000000 C
   0.0008900000000000    0.7696350000000001    0.2689500000000000 C
   0.0060550000000000    0.8413300000000000    0.3407500000000000 C
   0.2696350000000000    0.5013050000000000    0.2688750000000000 C
   0.3413150000000000    0.5058600000000000    0.3409050000000000 C
   0.2680950000000000    0.7697100000000000    0.0010550000000000 C
   0.3401500000000000    0.8415300000000000    0.0059350000000000 C
   0.2319250000000000    0.9998600000000000    0.2310000000000000 C
   0.1599900000000000    0.9956600000000000    0.1592200000000000 C
   0.4989450000000000    0.7319300000000000    0.2312150000000000 C
   0.4938250000000000    0.6601600000000000    0.1594600000000000 C
   0.2303200000000000    0.7318600000000000    0.4991650000000000 C
   0.1586050000000000    0.6597200000000000    0.4940250000000000 C
   0.5032250000000000    0.7757400000000000    0.4084600000000000 C
   0.5011500000000000    0.7561400000000000    0.3194500000000000 C
   0.5037900000000000    0.7913749999999999    0.3549800000000000 C
   0.7747800000000000    0.9092000000000000    0.0040100000000000 C
   0.7547550000000001    0.8202050000000001    0.0018150000000000 C
   0.7901899999999999    0.8557150000000000    0.0042500000000000 C
   0.7253800000000000    0.9976600000000000    0.0915800000000000 C
   0.7453750000000000    0.9994149999999999    0.1805350000000000 C
   0.7099850000000000    0.9973150000000000    0.1450550000000000 C
   0.9965850000000001    0.5924000000000000    0.2248400000000000 C
   0.9986300000000000    0.6813750000000001    0.2446250000000000 C
   0.9960100000000001    0.6459100000000000    0.2093500000000000 C
   0.5907800000000000    0.7249600000000000    0.4965300000000000 C
   0.6797600000000000    0.7450700000000000    0.4986000000000000 C
   0.6443099999999999    0.7096000000000000    0.4960800000000000 C
   0.9955849999999999    0.7256800000000000    0.0918200000000000 C
   0.9979050000000000    0.7454450000000000    0.1807450000000000 C
   0.9954250000000000    0.7101500000000001    0.1452800000000000 C
   0.5923650000000000    0.9976700000000001    0.2247400000000000 C
   0.6813850000000000    0.9993950000000000    0.2444500000000000 C
   0.6458349999999999    0.9973050000000000    0.2091500000000000 C
   0.7243900000000000    0.5923750000000000    0.4960700000000000 C
   0.7438450000000000    0.6814150000000000    0.4983550000000000 C
   0.7086150000000000    0.6457600000000000    0.4958250000000000 C
   0.5044950000000000    0.9090900000000000    0.2752200000000000 C
   0.5020150000000000    0.8201450000000000    0.2555250000000000 C
   0.5045250000000000    0.8555950000000000    0.2908300000000000 C
   0.9076700000000000    0.7759499999999999    0.0036500000000000 C
   0.8186050000000000    0.7562949999999999    0.0016150000000000 C
   0.8542200000000000    0.7915850000000000    0.0040350000000000 C
   0.5008899999999999    0.7696350000000001    0.2689500000000000 C
   0.5060550000000000    0.8413300000000000    0.3407500000000000 C
   0.7680950000000000    0.7697100000000000    0.0010550000000000 C
   0.8401500000000000    0.8415300000000000    0.0059350000000000 C
   0.7319249999999999    0.9998600000000000    0.2310000000000000 C
   0.6599900000000000    0.9956600000000000    0.1592200000000000 C
   0.9989450000000000    0.7319300000000000    0.2312150000000000 C
   0.9938250000000000    0.6601600000000000    0.1594600000000000 C
   0.7303200000000000    0.7318600000000000    0.4991650000000000 C
   0.6586050000000000    0.6597200000000000    0.4940250000000000 C
   0.0032250000000000    0.2757400000000000    0.9084600000000000 C
   0.0011500000000000    0.2561400000000000    0.8194500000000000 C
   0.0037900000000000    0.2913750000000000    0.8549800000000001 C
   0.4091700000000000    0.0036450000000000    0.7755250000000000 C
   0.3202150000000000    0.0017150000000000    0.7556000000000000 C
   0.3556500000000000    0.0040000000000000    0.7910150000000000 C
   0.2747800000000000    0.4092000000000000    0.5040100000000000 C
   0.2547550000000000    0.3202050000000000    0.5018150000000000 C
   0.2901900000000000    0.3557150000000000    0.5042500000000000 C
   0.2253800000000000    0.4976600000000000    0.5915800000000000 C
   0.2453750000000000    0.4994150000000000    0.6805350000000000 C
   0.2099850000000000    0.4973150000000000    0.6450549999999999 C
   0.4965850000000000    0.0924000000000000    0.7248400000000000 C
   0.4986300000000000    0.1813750000000000    0.7446250000000000 C
   0.4960100000000000    0.1459100000000000    0.7093500000000000 C
   0.0907800000000000    0.2249600000000000    0.9965300000000000 C
   0.1797600000000000    0.2450700000000000    0.9985999999999999 C
   0.1443100000000000    0.2096000000000000    0.9960800000000001 C
   0.4955850000000000    0.2256800000000000    0.5918200000000000 C
   0.4979050000000000    0.2454450000000000    0.6807449999999999 C
   0.4954250000000000    0.2101500000000000    0.6452800000000000 C
   0.0923650000000000    0.4976700000000000    0.7247399999999999 C
   0.1813850000000000    0.4993950000000000    0.7444500000000001 C
   0.1458350000000000    0.4973050000000000    0.7091499999999999 C
   0.2243900000000000    0.0923750000000000    0.9960700000000000 C
   0.2438450000000000    0.1814150000000000    0.9983550000000000 C
   0.2086150000000000    0.1457600000000000    0.9958250000000000 C
   0.2755200000000000    0.0039300000000000    0.9083500000000000 C
   0.2560500000000000    0.0018600000000000    0.8193349999999999 C
   0.2912800000000000    0.0041350000000000    0.8549400000000000 C
   0.0044950000000000    0.4090900000000000    0.7752200000000000 C
   0.0020150000000000    0.3201450000000000    0.7555250000000000 C
   0.0045250000000000    0.3555950000000000    0.7908299999999999 C
   0.4076700000000000    0.2759500000000000    0.5036500000000000 C
   0.3186050000000000    0.2562950000000000    0.5016150000000000 C
   0.3542200000000000    0.2915850000000000    0.5040350000000000 C
   0.0008900000000000    0.2696350000000000    0.7689500000000000 C
   0.0060550000000000    0.3413300000000000    0.8407500000000000 C
   0.2696350000000000    0.0013050000000000    0.7688750000000000 C
   0.3413150000000000    0.0058600000000000    0.8409050000000000 C
   0.2680950000000000    0.2697100000000000    0.5010550000000000 C
   0.3401500000000000    0.3415300000000000    0.5059350000000000 C
   0.2319250000000000    0.4998600000000000    0.7310000000000000 C
   0.1599900000000000    0.4956600000000000    0.6592200000000000 C
   0.4989450000000000    0.2319300000000000    0.7312149999999999 C
   0.4938250000000000    0.1601600000000000    0.6594599999999999 C
   0.2303200000000000    0.2318600000000000    0.9991650000000001 C
   0.1586050000000000    0.1597200000000000    0.9940249999999999 C
   0.5032250000000000    0.2757400000000000    0.9084600000000000 C
   0.5011500000000000    0.2561400000000000    0.8194500000000000 C
   0.5037900000000000    0.2913750000000000    0.8549800000000001 C
   0.9091700000000000    0.0036450000000000    0.7755250000000000 C
   0.8202150000000000    0.0017150000000000    0.7556000000000000 C
   0.8556500000000000    0.0040000000000000    0.7910150000000000 C
   0.7747800000000000    0.4092000000000000    0.5040100000000000 C
   0.7547550000000001    0.3202050000000000    0.5018150000000000 C
   0.7901899999999999    0.3557150000000000    0.5042500000000000 C
   0.7253800000000000    0.4976600000000000    0.5915800000000000 C
   0.7453750000000000    0.4994150000000000    0.6805350000000000 C
   0.7099850000000000    0.4973150000000000    0.6450549999999999 C
   0.9965850000000001    0.0924000000000000    0.7248400000000000 C
   0.9986300000000000    0.1813750000000000    0.7446250000000000 C
   0.9960100000000001    0.1459100000000000    0.7093500000000000 C
   0.5907800000000000    0.2249600000000000    0.9965300000000000 C
   0.6797600000000000    0.2450700000000000    0.9985999999999999 C
   0.6443099999999999    0.2096000000000000    0.9960800000000001 C
   0.9955849999999999    0.2256800000000000    0.5918200000000000 C
   0.9979050000000000    0.2454450000000000    0.6807449999999999 C
   0.9954250000000000    0.2101500000000000    0.6452800000000000 C
   0.5923650000000000    0.4976700000000000    0.7247399999999999 C
   0.6813850000000000    0.4993950000000000    0.7444500000000001 C
   0.6458349999999999    0.4973050000000000    0.7091499999999999 C
   0.7243900000000000    0.0923750000000000    0.9960700000000000 C
   0.7438450000000000    0.1814150000000000    0.9983550000000000 C