Fe3 H13 Pt3 C23 N17 O1
1.0
   6.7564999495753835    0.0000000000000000   -0.0008254621943239
  -0.0001248826360984    7.1534999945517654   -0.0002497042560310
   0.0000000000000000    0.0000000000000000   21.5594999999999999
Fe H Pt C N O
3 13 3 23 17 1
direct
   0.9999300000000000    0.5001000000000000    0.8333299999999999 Fe
   0.9999300000000000    0.5001000000000000    0.1666633333333333 Fe
   0.9999300000000000    0.5001000000000000    0.4999966666666666 Fe
   0.6859499999999999    0.2097400000000000    0.8332400000000000 H
   0.6859600000000000    0.7904400000000000    0.8332533333333333 H
   0.3139900000000000    0.2097400000000000    0.8333933333333332 H
   0.3140000000000000    0.7904400000000000    0.8334100000000000 H
   0.6859499999999999    0.2097400000000000    0.1665733333333333 H
   0.6859600000000000    0.7904400000000000    0.1665866666666667 H
   0.3139900000000000    0.2097400000000000    0.1667266666666666 H
   0.3140000000000000    0.7904400000000000    0.1667433333333333 H
   0.0000933817705578    0.7834323723863016    0.0719418886353685 H
   0.6859499999999999    0.2097400000000000    0.4999066666666666 H
   0.6859600000000000    0.7904400000000000    0.4999200000000000 H
   0.3139900000000000    0.2097400000000000    0.5000599999999999 H
   0.3140000000000000    0.7904400000000000    0.5000766666666666 H
   0.0000000000000000    0.0000100000000000    0.0000000000000000 Pt
   0.0000000000000000    0.0000100000000000    0.3333333333333333 Pt
   0.0000000000000000    0.0000100000000000    0.6666666666666666 Pt
   0.6024500000000000    0.3395000000000000    0.8333033333333333 C
   0.6024500000000000    0.6606700000000000    0.8333100000000000 C
   0.3975000000000000    0.3395000000000000    0.8333433333333333 C
   0.3975000000000000    0.6606700000000000    0.8333499999999999 C
   0.9998700000000000    0.1976500000000000    0.9344833333333333 C
   0.0000900000000000    0.1976500000000000    0.7321833333333333 C
   0.0001000000000000    0.8024300000000000    0.7321866666666667 C
   0.9998700000000000    0.8024300000000000    0.9344800000000000 C
   0.6024500000000000    0.3395000000000000    0.1666366666666667 C
   0.6024500000000000    0.6606700000000000    0.1666433333333333 C
   0.3975000000000000    0.3395000000000000    0.1666766666666666 C
   0.3975000000000000    0.6606700000000000    0.1666833333333333 C
   0.9998700000000000    0.1976500000000000    0.2678166666666666 C
   0.0000900000000000    0.1976500000000000    0.0655166666666667 C
   0.9998700000000000    0.8024300000000000    0.2678133333333333 C
   0.6024500000000000    0.3395000000000000    0.4999700000000000 C
   0.6024500000000000    0.6606700000000000    0.4999766666666666 C
   0.3975000000000000    0.3395000000000000    0.5000100000000000 C
   0.3975000000000000    0.6606700000000000    0.5000166666666667 C
   0.9998700000000000    0.1976500000000000    0.6011500000000000 C
   0.0000900000000000    0.1976500000000000    0.3988500000000000 C
   0.0001000000000000    0.8024300000000000    0.3988533333333333 C
   0.9998700000000000    0.8024300000000000    0.6011466666666667 C
   0.7082400000000000    0.5000900000000000    0.8332766666666667 N
   0.2917100000000000    0.5000900000000000    0.8333800000000000 N
   0.9999000000000000    0.3125200000000000    0.8956833333333333 N
   0.0000500000000000    0.3125300000000000    0.7709833333333334 N
   0.0000600000000000    0.6876100000000001    0.7709999999999999 N
   0.9999000000000000    0.6876100000000001    0.8956633333333333 N
   0.7082400000000000    0.5000900000000000    0.1666100000000000 N
   0.2917100000000000    0.5000900000000000    0.1667133333333333 N
   0.9999000000000000    0.3125200000000000    0.2290166666666667 N
   0.0000500000000000    0.3125300000000000    0.1043166666666667 N
   0.9999000000000000    0.6876100000000001    0.2289966666666667 N
   0.7082400000000000    0.5000900000000000    0.4999433333333333 N
   0.2917100000000000    0.5000900000000000    0.5000466666666666 N
   0.9999000000000000    0.3125200000000000    0.5623500000000000 N
   0.0000500000000000    0.3125300000000000    0.4376500000000000 N
   0.0000600000000000    0.6876100000000001    0.4376666666666666 N
   0.9999000000000000    0.6876100000000001    0.5623300000000000 N
   0.0000599999999999    0.6876100000000001    0.1043333333333333 O
