H4 C8 O4
1.0
  15.9801014253424505    0.0000000000000000    9.1715311391156611
   5.3109123408596162   15.0783344869568499    9.1788014036230674
   0.0000000000000000    0.0000000000000000   18.4340000000000011
H C O
4 8 4
direct
   0.5681400000000000    0.3356700000000000    0.0480300000000000 H
   0.3356200000000000    0.5681700000000000    0.0483500000000000 H
   0.6644000000000000    0.4318200000000000    0.9516300000000000 H
   0.4318900000000000    0.6643300000000000    0.9519500000000000 H
   0.5390800000000000    0.4076600000000000    0.0266000000000000 C
   0.4076400000000000    0.5390900000000000    0.0267800000000000 C
   0.5923900000000000    0.4609100000000000    0.9732000000000000 C
   0.4609500000000000    0.5923400000000000    0.9733800000000000 C
   0.3890300000000000    0.3891000000000000    0.1112100000000000 C
   0.4463700000000000    0.4464000000000000    0.0537300000000000 C
   0.6109900000000000    0.6109000000000000    0.8887800000000000 C
   0.5536600000000000    0.5535900000000000    0.9462500000000000 C
   0.4286300000000000    0.3053200000000000    0.1334100000000000 O
   0.3052300000000000    0.4287000000000000    0.1333000000000000 O
   0.6948000000000000    0.5713000000000000    0.8666000000000000 O
   0.5713900000000000    0.6946700000000000    0.8665700000000000 O
