Zn8 H26 C40 O26
1.0
  15.9801014253424505    0.0000000000000000    9.1715311391156611
   5.3109123408596162   15.0783344869568499    9.1788014036230674
   0.0000000000000000    0.0000000000000000   18.4340000000000011
Zn H C O
8 26 40 26
direct
   0.3804800000000000    0.2066300000000000    0.2066300000000000 Zn
   0.2065900000000000    0.3804600000000000    0.2067300000000000 Zn
   0.2065900000000000    0.2067300000000000    0.3804700000000000 Zn
   0.2063800000000000    0.2063500000000000    0.2063000000000000 Zn
   0.6195500000000000    0.7933700000000000    0.7933500000000000 Zn
   0.7934300000000000    0.6195300000000000    0.7932500000000000 Zn
   0.7936400000000000    0.7936400000000000    0.7936500000000000 Zn
   0.7934300000000000    0.7932700000000000    0.6195000000000001 Zn
   0.3356300000000000    0.0477900000000000    0.0477700000000000 H
   0.4318900000000000    0.9516300000000000    0.9516100000000000 H
   0.6643900000000000    0.9522100000000000    0.9522100000000000 H
   0.5681400000000000    0.0483700000000000    0.0483700000000000 H
   0.9520600000000000    0.6643100000000000    0.9524200000000000 H
   0.0483000000000000    0.5679999999999999    0.0485600000000000 H
   0.9517200000000000    0.4320000000000000    0.9514200000000000 H
   0.0479700000000000    0.3356800000000000    0.0475000000000000 H
   0.9517200000000000    0.9514500000000000    0.4319800000000000 H
   0.0479600000000000    0.0475900000000000    0.3356700000000000 H
   0.9520700000000000    0.9524000000000000    0.6643100000000000 H
   0.0483000000000000    0.0485500000000000    0.5679999999999999 H
   0.4929018189645394    0.2808796862546329    0.1135658671103712 H
   0.2807775775998742    0.4929466566335389    0.1133882177101097 H
   0.3946067621948022    0.3947131587252693    0.1057046343356650 H
   0.0481700000000000    0.3356700000000000    0.5681700000000000 H
   0.9518500000000000    0.4318400000000000    0.6643300000000000 H
   0.0481800000000000    0.5681500000000000    0.3356500000000000 H
   0.9518500000000000    0.6643300000000000    0.4318100000000000 H
   0.5071179232726898    0.7191053717778049    0.8864310576784437 H
   0.7192572279805248    0.5070535495571720    0.8864732801253620 H
   0.6054181598457851    0.6052817632409646    0.8942203597752114 H
   0.5681400000000000    0.0480400000000000    0.3356500000000000 H
   0.6644099999999999    0.9516500000000000    0.4318100000000000 H
   0.3356200000000000    0.0483500000000000    0.5681800000000000 H
   0.4318900000000000    0.9519500000000000    0.6643300000000000 H
   0.3889500000000000    0.1109500000000000    0.1109400000000000 C
   0.6110700000000000    0.8890400000000001    0.8890400000000001 C
   0.4076400000000000    0.0264700000000000    0.0264600000000000 C
   0.4609800000000000    0.9731900000000000    0.9731800000000000 C
   0.4463100000000000    0.0536300000000000    0.0536000000000000 C
   0.5923800000000000    0.9735300000000000    0.9735200000000001 C
   0.5390400000000000    0.0268000000000000    0.0268000000000000 C
   0.5537100000000000    0.9463600000000000    0.9463600000000000 C
   0.8890300000000000    0.6110900000000000    0.8890400000000001 C
   0.1109900000000000    0.3889100000000000    0.1109400000000000 C
   0.9734600000000000    0.5923300000000000    0.9736399999999999 C
   0.0267600000000000    0.5389699999999999    0.0269100000000000 C
   0.9463600000000000    0.5537100000000000    0.9463800000000000 C
   0.9732600000000000    0.4610300000000000    0.9730700000000000 C
   0.0265600000000000    0.4076700000000000    0.0263400000000000 C
   0.0536700000000000    0.4462900000000000    0.0536000000000000 C
   0.1109900000000000    0.1109600000000000    0.3889000000000000 C
   0.8890400000000001    0.8890400000000001    0.6110800000000000 C
   0.9732600000000000    0.9730900000000000    0.4610200000000000 C
   0.0265600000000000    0.0263600000000000    0.4076600000000000 C
   0.9734699999999999    0.9736399999999999    0.5923000000000000 C
   0.0267600000000000    0.0269000000000000    0.5389000000000000 C
   0.0536600000000000    0.0536100000000000    0.4462800000000000 C
   0.9463600000000000    0.9463800000000000    0.5537000000000000 C
   0.1111300000000000    0.3891000000000000    0.3891000000000000 C
   0.8888900000000000    0.6109000000000000    0.6108800000000000 C
   0.0266800000000000    0.4076500000000000    0.5390800000000000 C
   0.9733400000000000    0.4609200000000000    0.5923400000000000 C
   0.0266800000000000    0.5390700000000000    0.4076400000000000 C
   0.9733400000000000    0.5923400000000000    0.4609000000000000 C
   0.0537100000000000    0.4463900000000000    0.4463900000000000 C
   0.9463100000000000    0.5536100000000000    0.5535900000000000 C
   0.6109900000000000    0.8888000000000000    0.6108800000000000 C
   0.3890300000000000    0.1112000000000000    0.3891000000000000 C
   0.5390700000000000    0.0266200000000000    0.4076000000000000 C
   0.5923900000000000    0.9732100000000000    0.4609000000000000 C
   0.5536600000000000    0.9462600000000000    0.5535800000000000 C
   0.4076300000000000    0.0267900000000000    0.5390800000000000 C
   0.4609500000000000    0.9733800000000000    0.5923400000000000 C
   0.4463600000000000    0.0537400000000000    0.4464000000000000 C
   0.4285800000000000    0.1331700000000000    0.1331600000000000 O
   0.3051200000000000    0.1329300000000000    0.1329200000000000 O
   0.5714399999999999    0.8668300000000000    0.8668200000000000 O
   0.6949100000000000    0.8670600000000001    0.8670600000000001 O
   0.8667700000000000    0.5714900000000001    0.8668500000000000 O
   0.8671200000000000    0.6948800000000001    0.8670200000000000 O
   0.1332600000000000    0.4285000000000000    0.1331000000000000 O
   0.1329000000000000    0.3051200000000000    0.1329000000000000 O
   0.1332400000000000    0.1331500000000000    0.4285000000000000 O
   0.1328900000000000    0.1329900000000000    0.3051100000000000 O
   0.8667800000000000    0.8668400000000001    0.5714800000000000 O
   0.8671300000000000    0.8670000000000000    0.6948700000000000 O
   0.4286300000000000    0.3053200000000000    0.1334100000000000 O
   0.3052300000000000    0.4287000000000000    0.1333000000000000 O
   0.2499700000000000    0.2500000000000000    0.2499900000000000 O
   0.1332600000000000    0.4286900000000000    0.3053100000000000 O
   0.1332700000000000    0.3053100000000000    0.4287000000000000 O
   0.8667500000000000    0.6946800000000000    0.5712800000000000 O
   0.8667600000000000    0.5713100000000000    0.6946700000000000 O
   0.5713900000000000    0.6946700000000000    0.8665700000000000 O
   0.6948000000000000    0.5713000000000000    0.8666000000000000 O
   0.5713900000000000    0.8665600000000000    0.6946000000000000 O
   0.6948000000000000    0.8667100000000000    0.5712800000000000 O
   0.3052300000000000    0.1332900000000000    0.4287000000000000 O
   0.4286300000000000    0.1334300000000000    0.3053200000000000 O
   0.7500599999999999    0.7500000000000000    0.7499900000000000 O
