H6 O4
1.0
  15.9801014253424505    0.0000000000000000    9.1715311391156611
   5.3109123408596162   15.0783344869568499    9.1788014036230674
   0.0000000000000000    0.0000000000000000   18.4340000000000011
H O
6 4
direct
   0.5071179232726898    0.7191053717778049    0.8864310576784437 H
   0.7192572279805248    0.5070535495571720    0.8864732801253620 H
   0.6054181598457851    0.6052817632409646    0.8942203597752114 H
   0.4929018189645394    0.2808796862546329    0.1135658671103712 H
   0.2807775775998742    0.4929466566335389    0.1133882177101097 H
   0.3946067621948022    0.3947131587252693    0.1057046343356650 H
   0.5713900000000000    0.6946700000000000    0.8665700000000000 O
   0.6948000000000000    0.5713000000000000    0.8666000000000000 O
   0.4286300000000000    0.3053200000000000    0.1334100000000000 O
   0.3052300000000000    0.4287000000000000    0.1333000000000000 O
