H4 C8 O4
1.0
  14.5649711699903417    0.0000000000000000   -0.0289796023122512
  -0.0013260220939771   15.8546174234590040   -0.1101344515380852
   0.0000000000000000    0.0000000000000000   18.8560000000000016
H C O
4 8 4
direct
   0.8662300000000001    0.7953200000000000    0.1342700000000000 H
   0.8398600000000001    0.7318300000000000    0.2541200000000000 H
   0.1129200000000000    0.6286300000000000    0.2508300000000000 H
   0.1394600000000000    0.6922500000000000    0.1317400000000000 H
   0.0240200000000000    0.7924600000000001    0.0586100000000000 C
   0.0047500000000000    0.7484300000000000    0.1265800000000000 C
   0.9195500000000000    0.7585499999999999    0.1602800000000000 C
   0.9049600000000000    0.7233700000000000    0.2266900000000000 C
   0.9752700000000000    0.6774800000000000    0.2597700000000000 C
   0.0593800000000000    0.6651500000000000    0.2249400000000000 C
   0.0741200000000000    0.7005400000000001    0.1587900000000000 C
   0.9626000000000000    0.6444800000000001    0.3329200000000000 C
   0.0309800000000000    0.6037700000000000    0.3593400000000000 O
   0.8870100000000000    0.6593900000000000    0.3643400000000000 O
   0.9592600000000000    0.8353400000000000    1.0307500000000001 O
   0.1055000000000000    0.7853300000000000    1.0338000000000001 O
