Zn16 H52 C88 O52
1.0
  14.5649711699903417    0.0000000000000000   -0.0289796023122512
  -0.0013260220939771   15.8546174234590040   -0.1101344515380852
   0.0000000000000000    0.0000000000000000   18.8560000000000016
Zn H C O
16 52 88 52
direct
   0.3434700000000000    0.3634100000000000    0.0342400000000000 Zn
   0.4692700000000000    0.0710200000000000    0.5382600000000000 Zn
   0.6561200000000000    0.1367600000000000    0.5339400000000000 Zn
   0.4685900000000000    0.5699700000000000    0.9567500000000000 Zn
   0.6556900000000000    0.6342200000000000    0.9628500000000000 Zn
   0.5307600000000000    0.9286700000000000    0.4585900000000000 Zn
   0.3439100000000000    0.8631100000000000    0.4630100000000000 Zn
   0.9690100000000000    0.9264900000000000    0.9592200000000000 Zn
   0.1560600000000000    0.8624500000000000    0.9634600000000000 Zn
   0.0313900000000000    0.5699100000000000    0.4569600000000000 Zn
   0.8442300000000000    0.6342000000000000    0.4628000000000000 Zn
   0.0308600000000000    0.0706000000000000    0.0380700000000000 Zn
   0.8439000000000000    0.1359500000000000    0.0338100000000000 Zn
   0.9721400000000000    0.4298600000000000    0.5402100000000000 Zn
   0.1566300000000000    0.3635100000000000    0.5344200000000000 Zn
   0.5278800000000000    0.4299200000000000    0.0401800000000000 Zn
   0.6333700000000000    0.2977100000000000    0.8642500000000000 H
   0.6595100000000000    0.2356900000000000    0.7431400000000000 H
   0.3879100000000000    0.1293100000000000    0.7458600000000000 H
   0.3616500000000000    0.1913100000000000    0.8662800000000000 H
   0.1108400000000000    0.6173800000000000    0.0112100000000000 H
   0.0526800000000000    0.3519200000000000    0.0166300000000000 H
   0.3668100000000000    0.2021700000000000    0.3625200000000000 H
   0.3398500000000000    0.2653600000000000    0.2425800000000000 H
   0.6121600000000000    0.3702800000000000    0.2464300000000000 H
   0.6393500000000000    0.3067900000000000    0.3655600000000000 H
   0.8883400000000000    0.8819100000000000    0.5098800000000000 H
   0.9472400000000000    0.1473200000000000    0.5177300000000000 H
   0.8881599999999999    0.3810800000000000    0.9856300000000000 H
   0.9463400000000000    0.6465300000000000    0.0000000000000000 H
   0.6331000000000000    0.7969800000000000    0.6349399999999999 H
   0.6595000000000000    0.7330800000000000    0.7546700000000000 H
   0.3869900000000000    0.6287000000000000    0.7498600000000000 H
   0.3604400000000000    0.6926300000000000    0.6308800000000000 H
   0.1115400000000000    0.1176600000000000    0.4867900000000000 H
   0.0526100000000000    0.8522800000000000    0.4788900000000000 H
   0.8662300000000001    0.7953200000000000    0.1342700000000000 H
   0.8398600000000001    0.7318300000000000    0.2541200000000000 H
   0.1129200000000000    0.6286300000000000    0.2508300000000000 H
   0.1394600000000000    0.6922500000000000    0.1317400000000000 H
   0.3881700000000000    0.1161600000000000    0.9860800000000000 H
   0.4478400000000000    0.8509000000000000    0.0000000000000000 H
   0.1350800000000000    0.7022000000000000    0.6334700000000000 H
   0.1598500000000000    0.7635100000000000    0.7550700000000000 H
   0.8879600000000000    0.8692299999999999    0.7504000000000000 H
   0.8629500000000000    0.8076400000000000    0.6295800000000000 H
   0.6115400000000000    0.3815500000000000    0.4859500000000000 H
   0.5533800000000000    0.6469800000000000    0.4799000000000000 H
   0.1337500000000000    0.2010400000000000    0.8623499999999999 H
   0.1604900000000000    0.2646700000000000    0.7426400000000000 H
   0.8880800000000000    0.3693600000000000    0.7461500000000000 H
   0.8610400000000000    0.3052500000000000    0.8649700000000000 H
   0.6121200000000000    0.8811400000000000    0.0103400000000000 H
   0.5524900000000000    0.1464200000000000    0.0170600000000000 H
   0.8668000000000000    0.2980200000000000    0.3634700000000000 H
   0.8408700000000000    0.2360000000000000    0.2422500000000000 H
   0.1122400000000000    0.1291400000000000    0.2462800000000000 H
   0.1382900000000000    0.1911300000000000    0.3668100000000000 H
   0.3890500000000000    0.6179500000000000    0.5108200000000001 H
   0.4472000000000000    0.3525000000000000    0.5169200000000000 H
   0.3478500000000000    0.5082700000000000    0.0332100000000000 H
   0.6513000000000000    0.9922000000000000    0.5338200000000000 H
   0.6486800000000000    0.4902600000000000    0.9635600000000000 H
   0.3486100000000000    0.0076000000000000    0.4630900000000000 H
   0.1508700000000000    0.0063200000000000    0.9632200000000000 H
   0.8510700000000000    0.4902800000000000    0.4635600000000000 H
   0.8494200000000000    0.9916000000000000    0.0339900000000000 H
   0.1523200000000000    0.5083700000000000    0.5334600000000000 H
   0.4760200000000000    0.2928400000000000    0.9404500000000000 C
   0.4955800000000000    0.2491300000000000    0.8718300000000000 C
   0.5803100000000000    0.2605400000000000    0.8378800000000000 C
   0.5947600000000000    0.2262100000000000    0.7707100000000000 C
   0.5247500000000000    0.1799400000000000    0.7370400000000000 C
   0.4412100000000000    0.1661800000000000    0.7721300000000000 C
   0.4266400000000000    0.2006600000000000    0.8390600000000000 C
   0.5372700000000000    0.1478600000000000    0.6631500000000000 C
   0.1897500000000000    0.4662100000000000    0.0330300000000000 C
   0.0911900000000000    0.4829400000000000    0.0160400000000000 C
   0.0615600000000000    0.5661300000000000    0.0056900000000000 C
   0.0285700000000000    0.4161500000000000    0.0086200000000000 C
   0.5244799999999999    0.2061800000000000    0.4386700000000000 C
   0.5049700000000000    0.2499000000000000    0.3705100000000000 C
   0.4198400000000000    0.2392200000000000    0.3366000000000000 C
   0.4049400000000000    0.2742400000000000    0.2701300000000000 C
   0.4748500000000000    0.3206100000000000    0.2372100000000000 C
   0.5589200000000000    0.3334400000000000    0.2722100000000000 C
   0.5740000000000000    0.2981200000000000    0.3384000000000000 C
   0.4615900000000000    0.3536700000000000    0.1641100000000000 C
   0.8098100000000000    0.0335200000000000    0.5329600000000000 C
   0.9082900000000000    0.0163900000000000    0.5159200000000000 C
   0.9377100000000000    0.9330700000000000    0.5048899999999999 C
   0.9711100000000000    0.0829900000000000    0.5091800000000000 C
   0.8092200000000001    0.5323800000000000    0.9639799999999999 C
   0.9078100000000000    0.5155100000000000    0.9808800000000000 C
   0.9374600000000000    0.4323300000000000    0.9911799999999999 C
   0.9704500000000000    0.5823000000000000    0.0000000000000000 C
   0.4755400000000000    0.7935500000000000    0.5583200000000000 C
   0.4948700000000000    0.7495000000000001    0.6264000000000000 C
   0.5798800000000000    0.7598700000000000    0.6605799999999999 C
   0.5944900000000000    0.7244300000000000    0.7269500000000000 C
   0.5243700000000000    0.6780600000000000    0.7596100000000000 C
   0.4404300000000000    0.6655500000000000    0.7243400000000000 C
   0.4256900000000000    0.7011700000000000    0.6582200000000000 C
   0.5371500000000000    0.6447200000000000    0.8327400000000000 C
   0.1901100000000000    0.9661600000000000    0.4638700000000000 C
   0.0915800000000000    0.9832100000000000    0.4807700000000000 C
   0.0621500000000000    0.0665300000000000    0.4917700000000000 C
   0.0287500000000000    0.9166100000000000    0.4874700000000000 C
   0.0240200000000000    0.7924600000000001    0.0586100000000000 C
   0.0047500000000000    0.7484300000000000    0.1265800000000000 C
   0.9195500000000000    0.7585499999999999    0.1602800000000000 C
   0.9049700000000001    0.7233700000000000    0.2266900000000000 C
   0.9752800000000000    0.6774800000000000    0.2597700000000000 C
   0.0593900000000000    0.6651500000000000    0.2249400000000000 C
   0.0741200000000000    0.7005400000000001    0.1587900000000000 C
   0.9626000000000000    0.6444800000000001    0.3329300000000000 C
   0.3099500000000000    0.9643600000000000    0.9638099999999999 C
   0.4085200000000000    0.9817300000000000    0.9806600000000000 C
   0.4377500000000000    0.0651900000000000    0.9913200000000000 C
   0.4715500000000000    0.9153400000000000    0.0000000000000000 C
   0.9782400000000000    0.7065800000000000    0.5561000000000000 C
   0.9971400000000000    0.7502799999999999    0.6249300000000000 C
   0.0816400000000000    0.7390200000000000    0.6595500000000000 C
   0.0953200000000000    0.7729800000000000    0.7269800000000000 C
   0.0248400000000000    0.8188500000000000    0.7602400000000000 C
   0.9416000000000000    0.8326100000000000    0.7244600000000000 C
   0.9277500000000000    0.7983800000000000    0.6572900000000000 C
   0.0367100000000000    0.8504600000000000    0.8343699999999999 C
   0.6904600000000000    0.5327000000000000    0.4639400000000000 C
   0.5919200000000000    0.5159600000000000    0.4808400000000000 C
   0.5622900000000000    0.4328200000000000    0.4913400000000000 C
   0.5293099999999999    0.5827700000000000    0.4880400000000000 C
   0.9762900000000000    0.2046700000000000    0.9382500000000000 C
   0.9955000000000001    0.2485400000000000    0.8701500000000000 C
   0.0806200000000000    0.2381100000000000    0.8364000000000000 C
   0.0954200000000000    0.2734100000000000    0.7700600000000000 C
   0.0254700000000000    0.3198900000000000    0.7370900000000000 C
   0.9413899999999999    0.3324400000000000    0.7719300000000000 C
   0.9263900000000000    0.2967800000000000    0.8379600000000000 C
   0.0386500000000000    0.3533800000000000    0.6641300000000000 C
   0.6903000000000000    0.0330000000000000    0.0329300000000000 C
   0.5918000000000000    0.0155900000000000    0.0158200000000000 C
   0.5625900000000000    0.9321300000000000    0.0050900000000000 C
   0.5287800000000000    0.0819800000000000    0.0087400000000000 C
   0.0239900000000000    0.2928700000000000    0.4404300000000000 C
   0.0044800000000000    0.2492200000000000    0.3717100000000000 C
   0.9198600000000000    0.2607600000000000    0.3373500000000000 C
   0.9055299999999999    0.2264100000000000    0.2701300000000000 C
   0.9755300000000000    0.1800000000000000    0.2368000000000000 C
   0.0589600000000000    0.1661300000000000    0.2722900000000000 C
   0.0734100000000000    0.2006300000000000    0.3392800000000000 C
   0.9630100000000000    0.1478400000000000    0.1628900000000000 C
   0.3102300000000000    0.4667300000000000    0.5330500000000000 C
   0.4086800000000000    0.4835100000000000    0.5159899999999999 C
   0.4382800000000000    0.5666600000000001    0.5054500000000000 C
   0.4712700000000000    0.4167000000000000    0.5087600000000000 C
   0.0309900000000000    0.6037700000000000    0.3593400000000000 O
   0.8870100000000000    0.6593900000000000    0.3643400000000000 O
   0.2851800000000000    0.8856500000000000    0.9689900000000000 O
   0.5398400000000000    0.3367000000000000    0.9688600000000001 O
   0.3946200000000000    0.2846600000000000    0.9652600000000000 O
   0.4689800000000000    0.1075400000000000    0.6358100000000000 O
   0.6129800000000000    0.1631800000000000    0.6321400000000000 O
   0.2147000000000000    0.3875000000000000    0.0280000000000000 O
   0.2423100000000000    0.5263600000000001    0.0495700000000000 O
   0.4603000000000000    0.1627000000000000    0.4663000000000000 O
   0.6058500000000000    0.2142900000000000    0.4638800000000000 O
   0.5286999999999999    0.3961400000000000    0.1380200000000000 O
   0.3864800000000000    0.3370500000000000    0.1323100000000000 O
   0.7849500000000000    0.1121900000000000    0.5279700000000001 O
   0.7572800000000000    0.9736900000000001    0.5494900000000000 O
   0.7846300000000000    0.6112500000000000    0.9690800000000001 O
   0.7564100000000000    0.4724600000000000    0.9475000000000000 O
   0.5397100000000000    0.8371400000000000    0.5307800000000000 O
   0.3941700000000000    0.7855600000000000    0.5330600000000000 O
   0.4689000000000000    0.6038400000000000    0.8589400000000000 O
   0.6128100000000000    0.6595299999999999    0.8643400000000000 O
   0.2150400000000000    0.8875200000000000    0.4688800000000000 O
   0.2426100000000000    0.0000000000000000    0.4474300000000000 O
   0.9592600000000000    0.8353400000000000    0.0307500000000000 O
   0.1055000000000000    0.7853300000000000    0.0338000000000000 O
   0.2572300000000000    0.0000000000000000    0.9472800000000000 O
   0.0426900000000000    0.6631800000000000    0.5281300000000000 O
   0.8969400000000000    0.7142800000000000    0.5308000000000000 O
   0.9690000000000000    0.8920500000000000    0.8610300000000000 O
   0.1114800000000000    0.8334300000000000    0.8663300000000000 O
   0.7152600000000000    0.6115100000000000    0.4690600000000000 O
   0.7430800000000000    0.4727200000000000    0.4474500000000000 O
   0.0411100000000000    0.1622500000000000    0.9664100000000000 O
   0.8946600000000000    0.2116700000000000    0.9629100000000000 O
   0.9715100000000000    0.3960300000000000    0.6380600000000000 O
   0.1137000000000000    0.3369700000000000    0.6324100000000000 O
   0.7149900000000000    0.1117100000000000    0.0278400000000000 O
   0.7430200000000000    0.9733600000000000    0.0496300000000000 O
   0.9601700000000000    0.3366800000000000    0.4687300000000000 O
   0.1054200000000000    0.2846900000000000    0.4654400000000000 O
   0.0311900000000000    0.1074300000000000    0.1357200000000000 O
   0.8872400000000000    0.1632100000000000    0.1317200000000000 O
   0.2852900000000000    0.3880100000000000    0.5280500000000000 O
   0.2577300000000000    0.5268500000000000    0.5496300000000000 O
   0.4031900000000000    0.4808300000000000    0.0085500000000000 O
   0.5958100000000000    0.0192100000000000    0.5091300000000000 O
   0.5940200000000000    0.5184200000000000    0.9881200000000000 O
   0.4041400000000000    0.9805900000000000    0.4877200000000000 O
   0.0956300000000000    0.9794200000000000    0.9880200000000000 O
   0.9058800000000000    0.5183800000000000    0.4881200000000000 O
   0.9046999999999999    0.0183100000000000    0.0091000000000000 O
   0.0968300000000000    0.4808400000000000    0.5088300000000000 O
