H4 O2
1.0
  14.6369772584821618    0.0000000000000000   -0.0258018347412706
   0.0047797328171397   15.1104200959569219   -1.0375440606814748
   0.0000000000000000    0.0000000000000000   16.0820000000000007
H O
4 2
direct
   0.6749747587847653    0.3717349919586518    0.7536367251851033 H
   0.7094656937838467    0.2697524611584891    0.7186809715850553 H
   0.2948816978042372    0.2254243181236279    0.8166314201287904 H
   0.3224597668691241    0.1328954410850441    0.7580490434231880 H
   0.7230900000000000    0.3326400000000000    0.7302999999999999 O
   0.2769000000000000    0.1678800000000000    0.7902900000000000 O
