P1 O4
1.0
   9.0204999876348939    0.0000000000000000    0.0004723122753120
   3.2666669034701989    8.4141287913221081    0.0001575334182772
   0.0000000000000000    0.0000000000000000   19.5169999999999995
P O
1 4
direct
   0.6301300000000000    0.3331500000000000    0.5831100000000000 P
   0.6564800000000000    0.1724100000000000    0.6166600000000000 O
   0.7429400000000000    0.4101200000000000    0.6138900000000000 O
   0.4551400000000000    0.4429500000000000    0.5943400000000000 O
   0.6669500000000000    0.3049500000000000    0.5064500000000000 O
