Al12 P11 H3 O50
1.0
   9.0204999876348939    0.0000000000000000    0.0004723122753120
   3.2666669034701989    8.4141287913221081    0.0001575334182772
   0.0000000000000000    0.0000000000000000   19.5169999999999995
Al P H O
12 11 3 50
direct
   0.6969800000000000    0.0194500000000000    0.6763300000000000 Al
   0.1669200000000000    0.8564000000000001    0.0828300000000000 Al
   0.1967700000000000    0.5194100000000000    0.8264800000000000 Al
   0.2947400000000000    0.9984200000000000    0.8176200000000000 Al
   0.3030600000000000    0.9803200000000000    0.3264500000000000 Al
   0.2051600000000000    0.5012400000000000    0.3176200000000000 Al
   0.3331200000000000    0.6434700000000000    0.5828300000000000 Al
   0.8031100000000000    0.4803500000000000    0.1763000000000000 Al
   0.7052200000000000    0.0012700000000000    0.1851800000000000 Al
   0.6669100000000000    0.3563100000000000    0.4199500000000000 Al
   0.7948900000000000    0.4984900000000000    0.6851699999999999 Al
   0.8329600000000000    0.1433900000000000    0.9199500000000000 Al
   0.4913700000000000    0.7957100000000000    0.1592700000000000 P
   0.5085000000000000    0.2040400000000000    0.8435200000000000 P
   0.0087200000000000    0.7041400000000000    0.6593300000000000 P
   0.9913200000000000    0.2956600000000000    0.3434700000000000 P
   0.1298400000000000    0.8330700000000000    0.9196900000000000 P
   0.4875400000000000    0.8076600000000000    0.6923200000000000 P
   0.3699300000000000    0.6666666666666666    0.4196800000000000 P
   0.0125400000000000    0.6921400000000000    0.1923400000000000 P
   0.8700200000000000    0.1666400000000000    0.0830900000000000 P
   0.5125000000000000    0.1920700000000000    0.3104600000000000 P
   0.9873700000000000    0.3076000000000000    0.8104400000000000 P
   0.6217186054323706    0.2295036891427126    0.6593438550055408 H
   0.6340511919157756    0.4198375957215317    0.5072820397357508 H
   0.5755285132248906    0.4551047913087271    0.6187073341615466 H
   0.2684200000000000    0.9268200000000000    0.2416200000000000 O
   0.4163400000000000    0.7810800000000000    0.2330600000000000 O
   0.3664000000000000    0.8242000000000000    0.1032800000000000 O
   0.6224499999999999    0.6325499999999999    0.1523800000000000 O
   0.5541800000000000    0.9319700000000000    0.1586600000000000 O
   0.7314900000000000    0.0729200000000000    0.7611900000000000 O
   0.5835000000000000    0.2186100000000000    0.7697100000000000 O
   0.6334700000000000    0.1756400000000000    0.8995000000000000 O
   0.3773900000000000    0.3671800000000000    0.8503900000000000 O
   0.4457300000000000    0.0677600000000000    0.8441600000000000 O
   0.2316000000000000    0.5729700000000000    0.7416800000000000 O
   0.0837500000000000    0.7187800000000000    0.7331200000000000 O
   0.1336900000000000    0.6756200000000000    0.6033400000000000 O
   0.8776800000000000    0.8673000000000000    0.6524300000000000 O
   0.9459600000000000    0.5678600000000000    0.6587499999999999 O
   0.7684200000000000    0.4268100000000000    0.2611200000000000 O
   0.9163300000000000    0.2810500000000000    0.2696700000000000 O
   0.8663400000000000    0.3241400000000000    0.3994500000000000 O
   0.1224000000000000    0.1325100000000000    0.3503600000000000 O
   0.0540700000000000    0.4319500000000000    0.3440900000000000 O
   0.6564800000000000    0.1724100000000000    0.6166600000000000 O
   0.1562100000000000    0.6722500000000000    0.8862100000000001 O
   0.9548500000000000    0.9428400000000000    0.9084500000000000 O
   0.2426300000000000    0.9099699999999999    0.8888200000000001 O
   0.1667200000000000    0.8050400000000000    0.0000000000000000 O
   0.4046600000000000    0.7686400000000000    0.6299100000000000 O
   0.3697800000000000    0.8587300000000000    0.7524700000000000 O
   0.5420100000000000    0.9451300000000000    0.6720600000000000 O
   0.6314700000000000    0.6607300000000000    0.7148800000000000 O
   0.3435500000000000    0.8273600000000000    0.3861200000000000 O
   0.3330800000000000    0.6948100000000000    0.4963200000000000 O
   0.5449300000000000    0.5568400000000000    0.4084500000000000 O
   0.2571600000000000    0.5896100000000000    0.3888800000000000 O
   0.0953500000000000    0.7312900000000000    0.1299400000000000 O
   0.1302900000000000    0.6410100000000000    0.2524800000000000 O
   0.9581300000000000    0.5546400000000000    0.1720500000000000 O
   0.8685700000000000    0.8390000000000000    0.2149300000000000 O
   0.8436000000000000    0.3274400000000000    0.1166000000000000 O
   0.8331300000000000    0.1947500000000000    0.0064500000000000 O
   0.0450200000000000    0.0569400000000000    0.0943200000000000 O
   0.7573000000000000    0.0896200000000000    0.1139400000000000 O
   0.5953300000000000    0.2311700000000000    0.3728700000000000 O
   0.6302600000000000    0.1410100000000000    0.2503100000000000 O
   0.4581000000000000    0.0545400000000000    0.3307200000000000 O
   0.3685200000000000    0.3389500000000000    0.2879100000000000 O
   0.6669500000000000    0.3049500000000000    0.5064500000000000 O
   0.9045299999999999    0.2685300000000000    0.8728500000000000 O
   0.8696900000000000    0.3585800000000000    0.7502700000000000 O
   0.0416900000000000    0.4451900000000000    0.8306900000000000 O
   0.1314000000000000    0.1607300000000000    0.7879100000000000 O
