H3 O2
1.0
   9.0204999876348939    0.0000000000000000    0.0004723122753120
   3.2666669034701989    8.4141287913221081    0.0001575334182772
   0.0000000000000000    0.0000000000000000   19.5169999999999995
H O
3 2
direct
   0.6340511919157756    0.4198375957215317    0.5072820397357508 H
   0.6217186054323706    0.2295036891427126    0.6593438550055408 H
   0.5755285132248906    0.4551047913087271    0.6187073341615466 H
   0.6669500000000000    0.3049500000000000    0.5064500000000000 O
   0.6564800000000000    0.1724100000000000    0.6166600000000000 O
