P1 O5
1.0
   9.0204999876348939    0.0000000000000000    0.0004723122753120
   3.2666669034701989    8.4141287913221081    0.0001575334182772
   0.0000000000000000    0.0000000000000000   19.5169999999999995
P O
1 5
direct
   0.5085000000000000    0.2040400000000000    0.8435200000000000 P
   0.7314900000000000    0.0729200000000000    0.7611900000000000 O
   0.5835000000000000    0.2186100000000000    0.7697100000000000 O
   0.3773900000000000    0.3671800000000000    0.8503900000000000 O
   0.4457300000000000    0.0677600000000000    0.8441600000000000 O
   0.6334700000000000    0.1756400000000000    0.8995000000000000 O
