P1 H7 C5 N1 O7
1.0
  26.7568481983942519    0.0000000000000000   -0.0901303949083012
  -0.0291085900901343   10.1034573897671400   -0.0037031260775704
   0.0000000000000000    0.0000000000000000   30.1020000000000003
P H C N O
1 7 5 1 7
direct
   0.6653133333333333    0.3647400000000000    0.8929450000000000 P
   0.6010100000000000    0.2300700000000000    0.9109050000000001 H
   0.7291599999999999    0.3517900000000000    0.8384499999999999 H
   0.6994199999999999    0.1944900000000000    0.8430750000000000 H
   0.7098500000000000    0.0704500000000000    0.9060100000000000 H
   0.7734700000000000    0.0476000000000000    0.9168250000000000 H
   0.8065000000000000    0.1262700000000000    0.8520300000000001 H
   0.8079099999999999    0.3005900000000000    0.8438749999999999 H
   0.7145633333333333    0.2788300000000000    0.8622200000000000 C
   0.7431933333333333    0.1207100000000000    0.9191700000000000 C
   0.7353400000000000    0.1465000000000000    0.9684850000000000 C
   0.8040033333333333    0.2224400000000000    0.8691300000000000 C
   0.8482533333333333    0.2418900000000000    0.9008400000000000 C
   0.7558533333333333    0.2399500000000000    0.8925000000000001 N
   0.6370366666666667    0.2607400000000000    0.9220349999999999 O
   0.6306733333333333    0.4288900000000000    0.8588400000000000 O
   0.7453466666666666    0.2583100000000000    0.9849700000000000 O
   0.7201200000000000    1.0474399999999999    0.9911099999999999 O
   0.8880933333333333    0.1814800000000000    0.8920950000000001 O
   0.8418633333333333    0.3222700000000000    0.9333199999999999 O
   0.6937533333333333    0.4619200000000000    0.9230550000000000 O
