H9 O6
1.0
  26.7568481983942519    0.0000000000000000   -0.0901303949083012
  -0.0291085900901343   10.1034573897671400   -0.0037031260775704
   0.0000000000000000    0.0000000000000000   30.1020000000000003
H O
9 6
direct
   0.7490923576414585    0.1981499817233851    0.9600906366976943 H
   0.7197835277827107    1.1136457564319802    0.9677836561891054 H
   0.8467371417072682    0.2609622195466530    0.9085467142432855 H
   0.7876681083690849    0.2283803902206436    0.8770584362910590 H
   0.7286228283270232    0.2655911245978527    0.8725305233327423 H
   0.6880511173638423    0.4246372574804823    0.9522985955444250 H
   0.5988472373820773    0.3835474040207708    0.8557473952461487 H
   0.6195578598121942    0.3562138089387666    0.9158452789435074 H
   0.7432218502098065    0.6763982509078199    0.8376645267366444 H
   0.7453466666666666    0.2583100000000000    0.9849700000000000 O
   0.7201200000000000    1.0474399999999999    0.9911099999999999 O
   0.8418633333333333    0.3222700000000000    0.9333199999999999 O
   0.7558533333333333    0.2399500000000000    0.8925000000000001 O
   0.6937533333333333    0.4619200000000000    0.9230550000000000 O
   0.6306733333333333    0.4288900000000000    0.8588400000000000 O
