Y128 H390 C1143 O768
1.0
  35.0152377587538055    0.0000000000000000   -0.0125281898734082
  -0.0028948174368921   36.0415597236735863   -0.0033968369985608
   0.0000000000000000    0.0000000000000000   29.7979999999999983
Y H C O
128 390 1143 768
direct
   0.8747700000000000    0.8750975000000000    0.2432300000000000 Y
   0.9998000000000000    0.8751150000000000    0.3965200000000000 Y
   0.6247700000000000    0.8750975000000000    0.2432300000000000 Y
   0.7498000000000000    0.8751150000000000    0.3965200000000000 Y
   0.1247700000000000    0.8750975000000000    0.2432300000000000 Y
   0.2498000000000000    0.8751150000000000    0.3965200000000000 Y
   0.3747700000000000    0.8750975000000000    0.2432300000000000 Y
   0.4998000000000000    0.8751150000000000    0.3965200000000000 Y
   0.8747700000000000    0.6250975000000000    0.2432300000000000 Y
   0.9998000000000000    0.6251150000000000    0.3965200000000000 Y
   0.6247700000000000    0.6250975000000000    0.2432300000000000 Y
   0.7498000000000000    0.6251150000000000    0.3965200000000000 Y
   0.1247700000000000    0.6250975000000000    0.2432300000000000 Y
   0.2498000000000000    0.6251150000000000    0.3965200000000000 Y
   0.3747700000000000    0.6250975000000000    0.2432300000000000 Y
   0.4998000000000000    0.6251150000000000    0.3965200000000000 Y
   0.6247700000000000    0.1250975000000000    0.2432300000000000 Y
   0.7498000000000000    0.1251150000000000    0.3965200000000000 Y
   0.3747700000000000    0.1250975000000000    0.2432300000000000 Y
   0.4998000000000000    0.1251150000000000    0.3965200000000000 Y
   0.1247700000000000    0.1250975000000000    0.2432300000000000 Y
   0.2498000000000000    0.1251150000000000    0.3965200000000000 Y
   0.8747700000000000    0.1250975000000000    0.2432300000000000 Y
   0.9998000000000000    0.1251150000000000    0.3965200000000000 Y
   0.7501500000000000    0.5000975000000000    0.4932350000000000 Y
   0.8751725000000000    0.5001075000000000    0.6465150000000000 Y
   0.0001500000000000    0.5000975000000000    0.4932350000000000 Y
   0.1251725000000000    0.5001075000000000    0.6465150000000000 Y
   0.5001500000000000    0.5000975000000000    0.4932350000000000 Y
   0.6251725000000000    0.5001075000000000    0.6465150000000000 Y
   0.2501500000000000    0.5000975000000000    0.4932350000000000 Y
   0.3751725000000000    0.5001075000000000    0.6465150000000000 Y
   0.0001500000000000    0.2500975000000000    0.4932350000000000 Y
   0.1251725000000000    0.2501075000000000    0.6465150000000000 Y
   0.6247700000000000    0.3750975000000000    0.2432300000000000 Y
   0.7498000000000000    0.3751150000000000    0.3965200000000000 Y
   0.7501500000000000    0.2500975000000000    0.4932350000000000 Y
   0.8751725000000000    0.2501075000000000    0.6465150000000000 Y
   0.5001500000000000    0.2500975000000000    0.4932350000000000 Y
   0.6251725000000000    0.2501075000000000    0.6465150000000000 Y
   0.2501500000000000    0.2500975000000000    0.4932350000000000 Y
   0.3751725000000000    0.2501075000000000    0.6465150000000000 Y
   0.3747700000000000    0.3750975000000000    0.2432300000000000 Y
   0.4998000000000000    0.3751150000000000    0.3965200000000000 Y
   0.1247700000000000    0.3750975000000000    0.2432300000000000 Y
   0.2498000000000000    0.3751150000000000    0.3965200000000000 Y
   0.8747700000000000    0.3750975000000000    0.2432300000000000 Y
   0.9998000000000000    0.3751150000000000    0.3965200000000000 Y
   0.7501500000000000    0.0000975000000000    0.4932350000000000 Y
   0.8751725000000000    0.0001075000000000    0.6465150000000000 Y
   0.0001500000000000    0.0000975000000000    0.4932350000000000 Y
   0.1251725000000000    0.0001075000000000    0.6465150000000000 Y
   0.5001500000000000    0.0000975000000000    0.4932350000000000 Y
   0.6251725000000000    0.0001075000000000    0.6465150000000000 Y
   0.2501500000000000    0.0000975000000000    0.4932350000000000 Y
   0.3751725000000000    0.0001075000000000    0.6465150000000000 Y
   0.7501500000000000    0.7500975000000000    0.4932350000000000 Y
   0.8751725000000000    0.7501075000000000    0.6465150000000000 Y
   0.5001500000000000    0.7500975000000000    0.4932350000000000 Y
   0.6251725000000000    0.7501075000000000    0.6465150000000000 Y
   0.0001500000000000    0.7500975000000000    0.4932350000000000 Y
   0.1251725000000000    0.7501075000000000    0.6465150000000000 Y
   0.2501500000000000    0.7500975000000000    0.4932350000000000 Y
   0.3751725000000000    0.7501075000000000    0.6465150000000000 Y
   0.0001500000000000    0.2500975000000000    0.9932350000000000 Y
   0.1251725000000000    0.2501075000000000    0.1465150000000000 Y
   0.7501500000000000    0.2500975000000000    0.9932350000000000 Y
   0.8751725000000000    0.2501075000000000    0.1465150000000000 Y
   0.5001500000000000    0.2500975000000000    0.9932350000000000 Y
   0.6251725000000000    0.2501075000000000    0.1465150000000000 Y
   0.2501500000000000    0.2500975000000000    0.9932350000000000 Y
   0.3751725000000000    0.2501075000000000    0.1465150000000000 Y
   0.7501500000000000    0.5000975000000000    0.9932350000000000 Y
   0.8751725000000000    0.5001075000000000    0.1465150000000000 Y
   0.0001500000000000    0.5000975000000000    0.9932350000000000 Y
   0.1251725000000000    0.5001075000000000    0.1465150000000000 Y
   0.5001500000000000    0.5000975000000000    0.9932350000000000 Y
   0.6251725000000000    0.5001075000000000    0.1465150000000000 Y
   0.2501500000000000    0.5000975000000000    0.9932350000000000 Y
   0.3751725000000000    0.5001075000000000    0.1465150000000000 Y
   0.7501500000000000    0.0000975000000000    0.9932350000000000 Y
   0.8751725000000000    0.0001075000000000    0.1465150000000000 Y
   0.5001500000000000    0.0000975000000000    0.9932350000000000 Y
   0.6251725000000000    0.0001075000000000    0.1465150000000000 Y
   0.0001500000000000    0.0000975000000000    0.9932350000000000 Y
   0.1251725000000000    0.0001075000000000    0.1465150000000000 Y
   0.2501500000000000    0.0000975000000000    0.9932350000000000 Y
   0.3751725000000000    0.0001075000000000    0.1465150000000000 Y
   0.7501500000000000    0.7500975000000000    0.9932350000000000 Y
   0.8751725000000000    0.7501075000000000    0.1465150000000000 Y
   0.5001500000000000    0.7500975000000000    0.9932350000000000 Y
   0.6251725000000000    0.7501075000000000    0.1465150000000000 Y
   0.0001500000000000    0.7500975000000000    0.9932350000000000 Y
   0.1251725000000000    0.7501075000000000    0.1465150000000000 Y
   0.2501500000000000    0.7500975000000000    0.9932350000000000 Y
   0.3751725000000000    0.7501075000000000    0.1465150000000000 Y
   0.1247700000000000    0.8750975000000000    0.7432300000000001 Y
   0.2498000000000000    0.8751150000000000    0.8965200000000000 Y
   0.8747700000000000    0.8750975000000000    0.7432300000000001 Y
   0.9998000000000000    0.8751150000000000    0.8965200000000000 Y
   0.3747700000000000    0.8750975000000000    0.7432300000000001 Y
   0.4998000000000000    0.8751150000000000    0.8965200000000000 Y
   0.6247700000000000    0.8750975000000000    0.7432300000000001 Y
   0.7498000000000000    0.8751150000000000    0.8965200000000000 Y
   0.1247700000000000    0.6250975000000000    0.7432300000000001 Y
   0.2498000000000000    0.6251150000000000    0.8965200000000000 Y
   0.8747700000000000    0.6250975000000000    0.7432300000000001 Y
   0.9998000000000000    0.6251150000000000    0.8965200000000000 Y
   0.3747700000000000    0.6250975000000000    0.7432300000000001 Y
   0.4998000000000000    0.6251150000000000    0.8965200000000000 Y
   0.6247700000000000    0.6250975000000000    0.7432300000000001 Y
   0.7498000000000000    0.6251150000000000    0.8965200000000000 Y
   0.1247700000000000    0.1250975000000000    0.7432300000000001 Y
   0.2498000000000000    0.1251150000000000    0.8965200000000000 Y
   0.8747700000000000    0.1250975000000000    0.7432300000000001 Y
   0.9998000000000000    0.1251150000000000    0.8965200000000000 Y
   0.3747700000000000    0.1250975000000000    0.7432300000000001 Y
   0.4998000000000000    0.1251150000000000    0.8965200000000000 Y
   0.6247700000000000    0.1250975000000000    0.7432300000000001 Y
   0.7498000000000000    0.1251150000000000    0.8965200000000000 Y
   0.1247700000000000    0.3750975000000000    0.7432300000000001 Y
   0.2498000000000000    0.3751150000000000    0.8965200000000000 Y
   0.8747700000000000    0.3750975000000000    0.7432300000000001 Y
   0.9998000000000000    0.3751150000000000    0.8965200000000000 Y
   0.3747700000000000    0.3750975000000000    0.7432300000000001 Y
   0.4998000000000000    0.3751150000000000    0.8965200000000000 Y
   0.6247700000000000    0.3750975000000000    0.7432300000000001 Y
   0.7498000000000000    0.3751150000000000    0.8965200000000000 Y
   0.6716954436346962    0.3324110746883971    0.2699549804502233 H
   0.6769495468043440    0.2477346027835757    0.2017749795312742 H
   0.6824307522233899    0.2858396428698067    0.2421311701694832 H
   0.9203650000000000    0.9629125000000001    0.2503250000000000 H
   0.9374350000000000    0.0662525000000000    0.3199950000000000 H
   0.9542500000000000    0.9628300000000000    0.3895200000000000 H
   0.8293475000000000    0.7874025000000000    0.2502850000000000 H
   0.7953600000000000    0.7873000000000000    0.3894200000000000 H
   0.8124275000000000    0.6839649999999999    0.3197550000000000 H
   0.6703650000000000    0.9629125000000001    0.2503250000000000 H
   0.6874350000000000    0.0662525000000000    0.3199950000000000 H
   0.7042500000000000    0.9628300000000000    0.3895200000000000 H
   0.5793475000000000    0.7874025000000000    0.2502850000000000 H
   0.5453600000000000    0.7873000000000000    0.3894200000000000 H
   0.5624275000000000    0.6839649999999999    0.3197550000000000 H
   0.1703650000000000    0.9629125000000001    0.2503250000000000 H
   0.1874350000000000    0.0662525000000000    0.3199950000000000 H
   0.2042500000000000    0.9628300000000000    0.3895200000000000 H
   0.0793475000000000    0.7874025000000000    0.2502850000000000 H
   0.0453600000000000    0.7873000000000000    0.3894200000000000 H
   0.0624275000000000    0.6839649999999999    0.3197550000000000 H
   0.4203650000000000    0.9629125000000001    0.2503250000000000 H
   0.4374350000000000    0.0662525000000000    0.3199950000000000 H
   0.4542500000000000    0.9628300000000000    0.3895200000000000 H
   0.3293475000000000    0.7874025000000000    0.2502850000000000 H
   0.2953600000000000    0.7873000000000000    0.3894200000000000 H
   0.3124275000000000    0.6839649999999999    0.3197550000000000 H
   0.9203650000000000    0.7129125000000001    0.2503250000000000 H
   0.9374350000000000    0.8162525000000000    0.3199950000000000 H
   0.9542500000000000    0.7128300000000000    0.3895200000000000 H
   0.8293475000000000    0.5374025000000000    0.2502850000000000 H
   0.7953600000000000    0.5373000000000000    0.3894200000000000 H
   0.8124275000000000    0.4339650000000000    0.3197550000000000 H
   0.6703650000000000    0.7129125000000001    0.2503250000000000 H
   0.6874350000000000    0.8162525000000000    0.3199950000000000 H
   0.7042500000000000    0.7128300000000000    0.3895200000000000 H
   0.5793475000000000    0.5374025000000000    0.2502850000000000 H
   0.5453600000000000    0.5373000000000000    0.3894200000000000 H
   0.5624275000000000    0.4339650000000000    0.3197550000000000 H
   0.1703650000000000    0.7129125000000001    0.2503250000000000 H
   0.1874350000000000    0.8162525000000000    0.3199950000000000 H
   0.2042500000000000    0.7128300000000000    0.3895200000000000 H
   0.0793475000000000    0.5374025000000000    0.2502850000000000 H
   0.0453600000000000    0.5373000000000000    0.3894200000000000 H
   0.0624275000000000    0.4339650000000000    0.3197550000000000 H
   0.4203650000000000    0.7129125000000001    0.2503250000000000 H
   0.4374350000000000    0.8162525000000000    0.3199950000000000 H
   0.4542500000000000    0.7128300000000000    0.3895200000000000 H
   0.3293475000000000    0.5374025000000000    0.2502850000000000 H
   0.2953600000000000    0.5373000000000000    0.3894200000000000 H
   0.3124275000000000    0.4339650000000000    0.3197550000000000 H
   0.7185818881258862    0.1725393346021799    0.3608527792451288 H
   0.6556716256576884    0.1725517285156357    0.2792282808329629 H
   0.6870375487622904    0.1983038034352966    0.3201261445397649 H
   0.5793475000000000    0.0374025000000000    0.2502850000000000 H
   0.5453600000000000    0.0373000000000000    0.3894200000000000 H
   0.5624275000000000    0.9339649999999999    0.3197550000000000 H
   0.4203650000000000    0.2129125000000000    0.2503250000000000 H
   0.4374350000000000    0.3162525000000000    0.3199950000000000 H
   0.4542500000000000    0.2128300000000000    0.3895200000000000 H
   0.3293475000000000    0.0374025000000000    0.2502850000000000 H
   0.2953600000000000    0.0373000000000000    0.3894200000000000 H
   0.3124275000000000    0.9339649999999999    0.3197550000000000 H
   0.1703650000000000    0.2129125000000000    0.2503250000000000 H
   0.1874350000000000    0.3162525000000000    0.3199950000000000 H
   0.2042500000000000    0.2128300000000000    0.3895200000000000 H
   0.0793475000000000    0.0374025000000000    0.2502850000000000 H
   0.0453600000000000    0.0373000000000000    0.3894200000000000 H
   0.0624275000000000    0.9339649999999999    0.3197550000000000 H
   0.9203650000000000    0.2129125000000000    0.2503250000000000 H
   0.9374350000000000    0.3162525000000000    0.3199950000000000 H
   0.9542500000000000    0.2128300000000000    0.3895200000000000 H
   0.8293475000000000    0.0374025000000000    0.2502850000000000 H
   0.7953600000000000    0.0373000000000000    0.3894200000000000 H
   0.8124275000000000    0.9339649999999999    0.3197550000000000 H
   0.7956325000000000    0.4123825000000000    0.5002450000000001 H
   0.8295300000000000    0.4122750000000000    0.6394350000000000 H
   0.8124825000000000    0.3089450000000000    0.5697449999999999 H
   0.9545750000000000    0.5879075000000000    0.5003200000000000 H
   0.9205900000000000    0.5878025000000000    0.6394550000000000 H
   0.9375100000000001    0.6912350000000000    0.5700000000000001 H
   0.0456325000000000    0.4123825000000000    0.5002450000000001 H
   0.0795300000000000    0.4122750000000000    0.6394350000000000 H
   0.0624825000000000    0.3089450000000000    0.5697449999999999 H
   0.2045750000000000    0.5879075000000000    0.5003200000000000 H
   0.1705900000000000    0.5878025000000000    0.6394550000000000 H
   0.1875100000000000    0.6912350000000000    0.5700000000000001 H
   0.5456325000000000    0.4123825000000000    0.5002450000000001 H
   0.5795300000000000    0.4122750000000000    0.6394350000000000 H
   0.5624825000000000    0.3089450000000000    0.5697449999999999 H
   0.7045750000000000    0.5879075000000000    0.5003200000000000 H
   0.6705900000000000    0.5878025000000000    0.6394550000000000 H
   0.6875100000000001    0.6912350000000000    0.5700000000000001 H
   0.2956325000000000    0.4123825000000000    0.5002450000000001 H
   0.3295300000000000    0.4122750000000000    0.6394350000000000 H
   0.3124825000000000    0.3089450000000000    0.5697449999999999 H
   0.4545750000000000    0.5879075000000000    0.5003200000000000 H
   0.4205900000000000    0.5878025000000000    0.6394550000000000 H
   0.4375100000000000    0.6912350000000000    0.5700000000000001 H
   0.0456325000000000    0.1623825000000000    0.5002450000000001 H
   0.0795300000000000    0.1622750000000000    0.6394350000000000 H
   0.0624825000000000    0.0589450000000000    0.5697449999999999 H
   0.2045750000000000    0.3379075000000000    0.5003200000000000 H
   0.1705900000000000    0.3378025000000000    0.6394550000000000 H
   0.1875100000000000    0.4412350000000000    0.5700000000000001 H
   0.6703650000000000    0.4629125000000000    0.2503250000000000 H
   0.6874350000000000    0.5662525000000000    0.3199950000000000 H
   0.7042500000000000    0.4628300000000000    0.3895200000000000 H
   0.5793475000000000    0.2874025000000000    0.2502850000000000 H
   0.5453600000000000    0.2873000000000000    0.3894200000000000 H
   0.5624275000000000    0.1839650000000000    0.3197550000000000 H
   0.7956325000000000    0.1623825000000000    0.5002450000000001 H
   0.8295300000000000    0.1622750000000000    0.6394350000000000 H
   0.8124825000000000    0.0589450000000000    0.5697449999999999 H
   0.7040455821725481    0.3442699471505239    0.3849035752833331 H
   0.6984967631424515    0.2534189527252120    0.4557834395200071 H
   0.6964964575772046    0.2993853336075404    0.4221198587827659 H
   0.9545750000000000    0.3379075000000000    0.5003200000000000 H
   0.9205900000000000    0.3378025000000000    0.6394550000000000 H
   0.9375100000000001    0.4412350000000000    0.5700000000000001 H
   0.5456325000000000    0.1623825000000000    0.5002450000000001 H
   0.5795300000000000    0.1622750000000000    0.6394350000000000 H
   0.5624825000000000    0.0589450000000000    0.5697449999999999 H
   0.7045750000000000    0.3379075000000000    0.5003200000000000 H
   0.6705900000000000    0.3378025000000000    0.6394550000000000 H
   0.6875100000000001    0.4412350000000000    0.5700000000000001 H
   0.2956325000000000    0.1623825000000000    0.5002450000000001 H
   0.3295300000000000    0.1622750000000000    0.6394350000000000 H
   0.3124825000000000    0.0589450000000000    0.5697449999999999 H
   0.4545750000000000    0.3379075000000000    0.5003200000000000 H
   0.4205900000000000    0.3378025000000000    0.6394550000000000 H
   0.4375100000000000    0.4412350000000000    0.5700000000000001 H
   0.4203650000000000    0.4629125000000000    0.2503250000000000 H
   0.4374350000000000    0.5662525000000000    0.3199950000000000 H
   0.4542500000000000    0.4628300000000000    0.3895200000000000 H
   0.3293475000000000    0.2874025000000000    0.2502850000000000 H
   0.2953600000000000    0.2873000000000000    0.3894200000000000 H
   0.3124275000000000    0.1839650000000000    0.3197550000000000 H
   0.1703650000000000    0.4629125000000000    0.2503250000000000 H
   0.1874350000000000    0.5662525000000000    0.3199950000000000 H
   0.2042500000000000    0.4628300000000000    0.3895200000000000 H
   0.0793475000000000    0.2874025000000000    0.2502850000000000 H
   0.0453600000000000    0.2873000000000000    0.3894200000000000 H
   0.0624275000000000    0.1839650000000000    0.3197550000000000 H
   0.9203650000000000    0.4629125000000000    0.2503250000000000 H
   0.9374350000000000    0.5662525000000000    0.3199950000000000 H
   0.9542500000000000    0.4628300000000000    0.3895200000000000 H
   0.8293475000000000    0.2874025000000000    0.2502850000000000 H
   0.7953600000000000    0.2873000000000000    0.3894200000000000 H
   0.8124275000000000    0.1839650000000000    0.3197550000000000 H
   0.7956325000000000    0.9123825000000000    0.5002450000000001 H
   0.8295300000000000    0.9122749999999999    0.6394350000000000 H
   0.8124825000000000    0.8089450000000000    0.5697449999999999 H
   0.9545750000000000    0.0879075000000000    0.5003200000000000 H
   0.9205900000000000    0.0878025000000000    0.6394550000000000 H
   0.9375100000000001    0.1912350000000000    0.5700000000000001 H
   0.0456325000000000    0.9123825000000000    0.5002450000000001 H
   0.0795300000000000    0.9122749999999999    0.6394350000000000 H
   0.0624825000000000    0.8089450000000000    0.5697449999999999 H
   0.2045750000000000    0.0879075000000000    0.5003200000000000 H
   0.1705900000000000    0.0878025000000000    0.6394550000000000 H
   0.1875100000000000    0.1912350000000000    0.5700000000000001 H
   0.5456325000000000    0.9123825000000000    0.5002450000000001 H
   0.5795300000000000    0.9122749999999999    0.6394350000000000 H
   0.5624825000000000    0.8089450000000000    0.5697449999999999 H
   0.7045750000000000    0.0879075000000000    0.5003200000000000 H
   0.6705900000000000    0.0878025000000000    0.6394550000000000 H
   0.6875100000000001    0.1912350000000000    0.5700000000000001 H
   0.2956325000000000    0.9123825000000000    0.5002450000000001 H
   0.3295300000000000    0.9122749999999999    0.6394350000000000 H
   0.3124825000000000    0.8089450000000000    0.5697449999999999 H
   0.4545750000000000    0.0879075000000000    0.5003200000000000 H
   0.4205900000000000    0.0878025000000000    0.6394550000000000 H
   0.4375100000000000    0.1912350000000000    0.5700000000000001 H
   0.7956325000000000    0.6623825000000000    0.5002450000000001 H
   0.8295300000000000    0.6622749999999999    0.6394350000000000 H
   0.8124825000000000    0.5589450000000000    0.5697449999999999 H
   0.9545750000000000    0.8379075000000000    0.5003200000000000 H
   0.9205900000000000    0.8378025000000000    0.6394550000000000 H
   0.9375100000000001    0.9412350000000000    0.5700000000000001 H
   0.5456325000000000    0.6623825000000000    0.5002450000000001 H
   0.5795300000000000    0.6622749999999999    0.6394350000000000 H
   0.5624825000000000    0.5589450000000000    0.5697449999999999 H
   0.7045750000000000    0.8379075000000000    0.5003200000000000 H
   0.6705900000000000    0.8378025000000000    0.6394550000000000 H
   0.6875100000000001    0.9412350000000000    0.5700000000000001 H
   0.0456325000000000    0.6623825000000000    0.5002450000000001 H
   0.0795300000000000    0.6622749999999999    0.6394350000000000 H
   0.0624825000000000    0.5589450000000000    0.5697449999999999 H
   0.2045750000000000    0.8379075000000000    0.5003200000000000 H
   0.1705900000000000    0.8378025000000000    0.6394550000000000 H
   0.1875100000000000    0.9412350000000000    0.5700000000000001 H
   0.2956325000000000    0.6623825000000000    0.5002450000000001 H
   0.3295300000000000    0.6622749999999999    0.6394350000000000 H
   0.3124825000000000    0.5589450000000000    0.5697449999999999 H
   0.4545750000000000    0.8379075000000000    0.5003200000000000 H
   0.4205900000000000    0.8378025000000000    0.6394550000000000 H
   0.4375100000000000    0.9412350000000000    0.5700000000000001 H
   0.0456325000000000    0.1623825000000000    0.0002450000000000 H
   0.0795300000000000    0.1622750000000000    0.1394350000000000 H
   0.0624825000000000    0.0589450000000000    0.0697450000000000 H
   0.2045750000000000    0.3379075000000000    0.0003200000000000 H
   0.1705900000000000    0.3378025000000000    0.1394550000000000 H
   0.1875100000000000    0.4412350000000000    0.0700000000000000 H
   0.7956325000000000    0.1623825000000000    0.0002450000000000 H
   0.8295300000000000    0.1622750000000000    0.1394350000000000 H
   0.8124825000000000    0.0589450000000000    0.0697450000000000 H
   0.9545750000000000    0.3379075000000000    0.0003200000000000 H
   0.9205900000000000    0.3378025000000000    0.1394550000000000 H
   0.9375100000000001    0.4412350000000000    0.0700000000000000 H
   0.5456325000000000    0.1623825000000000    0.0002450000000000 H
   0.5795300000000000    0.1622750000000000    0.1394350000000000 H
   0.5624825000000000    0.0589450000000000    0.0697450000000000 H
   0.7045750000000000    0.3379075000000000    0.0003200000000000 H
   0.6705900000000000    0.3378025000000000    0.1394550000000000 H
   0.6875100000000001    0.4412350000000000    0.0700000000000000 H
   0.2956325000000000    0.1623825000000000    0.0002450000000000 H
   0.3295300000000000    0.1622750000000000    0.1394350000000000 H
   0.3124825000000000    0.0589450000000000    0.0697450000000000 H
   0.4545750000000000    0.3379075000000000    0.0003200000000000 H
   0.4205900000000000    0.3378025000000000    0.1394550000000000 H
   0.4375100000000000    0.4412350000000000    0.0700000000000000 H
   0.7956325000000000    0.4123825000000000    0.0002450000000000 H
   0.8295300000000000    0.4122750000000000    0.1394350000000000 H
   0.8124825000000000    0.3089450000000000    0.0697450000000000 H
   0.9545750000000000    0.5879075000000000    0.0003200000000000 H
   0.9205900000000000    0.5878025000000000    0.1394550000000000 H
   0.9375100000000001    0.6912350000000000    0.0700000000000000 H
   0.0456325000000000    0.4123825000000000    0.0002450000000000 H
   0.0795300000000000    0.4122750000000000    0.1394350000000000 H
   0.0624825000000000    0.3089450000000000    0.0697450000000000 H
   0.2045750000000000    0.5879075000000000    0.0003200000000000 H
   0.1705900000000000    0.5878025000000000    0.1394550000000000 H
   0.1875100000000000    0.6912350000000000    0.0700000000000000 H
   0.5456325000000000    0.4123825000000000    0.0002450000000000 H
   0.5795300000000000    0.4122750000000000    0.1394350000000000 H
   0.5624825000000000    0.3089450000000000    0.0697450000000000 H
   0.7045750000000000    0.5879075000000000    0.0003200000000000 H
   0.6705900000000000    0.5878025000000000    0.1394550000000000 H
   0.6875100000000001    0.6912350000000000    0.0700000000000000 H
   0.2956325000000000    0.4123825000000000    0.0002450000000000 H
   0.3295300000000000    0.4122750000000000    0.1394350000000000 H
   0.3124825000000000    0.3089450000000000    0.0697450000000000 H
   0.4545750000000000    0.5879075000000000    0.0003200000000000 H
   0.4205900000000000    0.5878025000000000    0.1394550000000000 H
   0.4375100000000000    0.6912350000000000    0.0700000000000000 H
   0.7956325000000000    0.9123825000000000    0.0002450000000000 H
   0.8295300000000000    0.9122749999999999    0.1394350000000000 H
   0.8124825000000000    0.8089450000000000    0.0697450000000000 H
   0.9545750000000000    0.0879075000000000    0.0003200000000000 H
   0.9205900000000000    0.0878025000000000    0.1394550000000000 H
   0.9375100000000001    0.1912350000000000    0.0700000000000000 H
   0.5456325000000000    0.9123825000000000    0.0002450000000000 H
   0.5795300000000000    0.9122749999999999    0.1394350000000000 H
   0.5624825000000000    0.8089450000000000    0.0697450000000000 H
   0.7045750000000000    0.0879075000000000    0.0003200000000000 H
   0.6705900000000000    0.0878025000000000    0.1394550000000000 H
   0.6875100000000001    0.1912350000000000    0.0700000000000000 H
   0.0456325000000000    0.9123825000000000    0.0002450000000000 H
   0.0795300000000000    0.9122749999999999    0.1394350000000000 H
   0.0624825000000000    0.8089450000000000    0.0697450000000000 H
   0.2045750000000000    0.0879075000000000    0.0003200000000000 H
   0.1705900000000000    0.0878025000000000    0.1394550000000000 H
   0.1875100000000000    0.1912350000000000    0.0700000000000000 H
   0.2956325000000000    0.9123825000000000    0.0002450000000000 H
   0.3295300000000000    0.9122749999999999    0.1394350000000000 H
   0.3124825000000000    0.8089450000000000    0.0697450000000000 H
   0.4545750000000000    0.0879075000000000    0.0003200000000000 H
   0.4205900000000000    0.0878025000000000    0.1394550000000000 H
   0.4375100000000000    0.1912350000000000    0.0700000000000000 H
   0.7956325000000000    0.6623825000000000    0.0002450000000000 H
   0.8295300000000000    0.6622749999999999    0.1394350000000000 H
   0.8124825000000000    0.5589450000000000    0.0697450000000000 H
   0.9545750000000000    0.8379075000000000    0.0003200000000000 H
   0.9205900000000000    0.8378025000000000    0.1394550000000000 H
   0.9375100000000001    0.9412350000000000    0.0700000000000000 H
   0.5456325000000000    0.6623825000000000    0.0002450000000000 H
   0.5795300000000000    0.6622749999999999    0.1394350000000000 H
   0.5624825000000000    0.5589450000000000    0.0697450000000000 H
   0.7045750000000000    0.8379075000000000    0.0003200000000000 H
   0.6705900000000000    0.8378025000000000    0.1394550000000000 H
   0.6875100000000001    0.9412350000000000    0.0700000000000000 H
   0.0456325000000000    0.6623825000000000    0.0002450000000000 H
   0.0795300000000000    0.6622749999999999    0.1394350000000000 H
   0.0624825000000000    0.5589450000000000    0.0697450000000000 H
   0.2045750000000000    0.8379075000000000    0.0003200000000000 H
   0.1705900000000000    0.8378025000000000    0.1394550000000000 H
   0.1875100000000000    0.9412350000000000    0.0700000000000000 H
   0.2956325000000000    0.6623825000000000    0.0002450000000000 H
   0.3295300000000000    0.6622749999999999    0.1394350000000000 H
   0.3124825000000000    0.5589450000000000    0.0697450000000000 H
   0.4545750000000000    0.8379075000000000    0.0003200000000000 H
   0.4205900000000000    0.8378025000000000    0.1394550000000000 H
   0.4375100000000000    0.9412350000000000    0.0700000000000000 H
   0.1703650000000000    0.9629125000000001    0.7503250000000000 H
   0.1874350000000000    0.0662525000000000    0.8199950000000000 H
   0.2042500000000000    0.9628300000000000    0.8895200000000000 H
   0.0793475000000000    0.7874025000000000    0.7502850000000000 H
   0.0453600000000000    0.7873000000000000    0.8894200000000000 H
   0.0624275000000000    0.6839649999999999    0.8197550000000000 H
   0.9203650000000000    0.9629125000000001    0.7503250000000000 H
   0.9374350000000000    0.0662525000000000    0.8199950000000000 H
   0.9542500000000000    0.9628300000000000    0.8895200000000000 H
   0.8293475000000000    0.7874025000000000    0.7502850000000000 H
   0.7953600000000000    0.7873000000000000    0.8894200000000000 H
   0.8124275000000000    0.6839649999999999    0.8197550000000000 H
   0.4203650000000000    0.9629125000000001    0.7503250000000000 H
   0.4374350000000000    0.0662525000000000    0.8199950000000000 H
   0.4542500000000000    0.9628300000000000    0.8895200000000000 H