H3 C9 O6
1.0
  35.0152377587538055    0.0000000000000000   -0.0125281898734082
  -0.0028948174368921   36.0415597236735863   -0.0033968369985608
   0.0000000000000000    0.0000000000000000   29.7979999999999983
H C O
3 9 6
direct
   0.7042500000000000    0.2128300000000000    0.3895200000000000 H
   0.6703650000000000    0.2129125000000000    0.2503250000000000 H
   0.6874350000000000    0.3162525000000000    0.3199950000000000 H
   0.6872950000000000    0.2083050000000000    0.3199250000000000 C
   0.6993475000000000    0.2301225000000000    0.3589400000000000 C
   0.6775949999999999    0.2278725000000000    0.2809250000000000 C
   0.6872199999999999    0.1666975000000000    0.3199450000000000 C
   0.6973850000000000    0.2666850000000000    0.3589650000000000 C
   0.6873975000000000    0.2860450000000000    0.3199800000000000 C
   0.6773899999999999    0.2667375000000000    0.2809550000000000 C
   0.7097000000000000    0.2875925000000000    0.3999550000000000 C
   0.6651724999999999    0.2877800000000000    0.2400250000000000 C
   0.6657750000000000    0.1498875000000000    0.2921600000000000 O
   0.7086275000000000    0.1498725000000000    0.3477600000000000 O
   0.7131275000000000    0.2699275000000000    0.4366750000000000 O
   0.7165874999999999    0.3220550000000000    0.3958800000000000 O
   0.6582125000000000    0.3222050000000000    0.2443300000000000 O
   0.6619150000000000    0.2703100000000000    0.2031400000000000 O
