H9 O6
1.0
  35.0152377587538055    0.0000000000000000   -0.0125281898734082
  -0.0028948174368921   36.0415597236735863   -0.0033968369985608
   0.0000000000000000    0.0000000000000000   29.7979999999999983
H O
9 6
direct
   0.7185818881258862    0.1725393346021799    0.3608527792451288 H
   0.6556716256576884    0.1725517285156357    0.2792282808329629 H
   0.6870375487622904    0.1983038034352966    0.3201261445397649 H
   0.7040455821725481    0.3442699471505239    0.3849035752833331 H
   0.6984967631424515    0.2534189527252120    0.4557834395200071 H
   0.6964964575772046    0.2993853336075404    0.4221198587827659 H
   0.6716954436346962    0.3324110746883971    0.2699549804502233 H
   0.6769495468043440    0.2477346027835757    0.2017749795312742 H
   0.6824307522233899    0.2858396428698067    0.2421311701694832 H
   0.7086275000000000    0.1498725000000000    0.3477600000000000 O
   0.6657750000000000    0.1498875000000000    0.2921600000000000 O
   0.7165874999999999    0.3220550000000000    0.3958800000000000 O
   0.7131275000000000    0.2699275000000000    0.4366750000000000 O
   0.6582125000000000    0.3222050000000000    0.2443300000000000 O
   0.6619150000000000    0.2703100000000000    0.2031400000000000 O
