H22 C26 N4 O2
1.0
  10.4041024676796905    0.0000000000000000    3.4142571435118025
  -2.0131201314028822   11.4378131485210215    6.2318679154856964
   0.0000000000000000    0.0000000000000000   27.6419999999999995
H C N O
22 26 4 2
direct
   0.9022900000000000    0.7844400000000000    0.9335500000000000 H
   0.8941500000000000    0.7112600000000000    0.8652250000000000 H
   0.7062200000000000    0.7412900000000000    0.8292600000000000 H
   0.5522000000000000    0.9036999999999999    0.9340600000000000 H
   0.4063800000000000    0.8127600000000000    0.8956250000000000 H
   0.5035800000000000    0.9442300000000000    0.8325199999999999 H
   0.5425900000000000    0.7489300000000000    0.7409950000000000 H
   0.4152100000000000    0.7958400000000000    0.6749800000000000 H
   0.2242900000000000    0.8962900000000000    0.6873100000000000 H
   0.2940300000000000    0.9095800000000001    0.8297550000000000 H
   0.1112000000000000    0.9883999999999999    0.8031699999999999 H
   0.0979900000000000    0.2152800000000000    0.5663250000000000 H
   0.1063800000000000    0.2886400000000000    0.6345600000000000 H
   0.2947200000000000    0.2590800000000000    0.6702600000000000 H
   0.4486300000000000    0.0968700000000000    0.5653550000000001 H
   0.5945300000000000    0.1868700000000000    0.6036350000000000 H
   0.4968900000000000    0.0564800000000000    0.6673400000000000 H
   0.4584400000000000    0.2524700000000000    0.7579950000000000 H
   0.5845700000000000    0.2045700000000000    0.8245549999999999 H
   0.7751100000000000    0.1035100000000000    0.8126400000000000 H
   0.7074500000000000    0.0916200000000000    0.6694950000000000 H
   0.8893900000000000    0.0119000000000000    0.6966100000000000 H
   0.8213500000000000    0.7930700000000001    0.9175900000000000 C
   0.8162800000000000    0.7531700000000000    0.8797400000000000 C
   0.7114800000000000    0.7695300000000000    0.8598450000000000 C
   0.6137400000000000    0.8246400000000000    0.8788549999999999 C
   0.6258500000000000    0.8607500000000000    0.9175249999999999 C
   0.4994200000000000    0.8489900000000000    0.8579950000000001 C
   0.4276300000000000    0.8270300000000000    0.7888299999999999 C
   0.4600700000000000    0.7939700000000000    0.7456700000000001 C
   0.3869600000000000    0.8191300000000000    0.7093950000000000 C
   0.2800900000000000    0.8749800000000000    0.7162450000000000 C
   0.2450100000000000    0.9058800000000000    0.7604250000000000 C
   0.3207000000000000    0.8833900000000000    0.7963650000000000 C
   0.1306900000000000    0.9600400000000000    0.7703400000000000 C
   0.1790800000000000    0.2068300000000000    0.5821900000000000 C
   0.1843100000000000    0.2468600000000000    0.6199749999999999 C
   0.2892800000000000    0.2307000000000000    0.6397450000000000 C
   0.3871700000000000    0.1758700000000000    0.6205900000000000 C
   0.3748800000000000    0.1396100000000000    0.5820000000000000 C
   0.5016600000000000    0.1516900000000000    0.6413400000000000 C
   0.5737500000000000    0.1743500000000000    0.7102450000000000 C
   0.5407999999999999    0.2071800000000000    0.7534900000000000 C
   0.6132200000000000    0.1814600000000000    0.7900800000000000 C
   0.7198700000000000    0.1252600000000000    0.7834650000000001 C
   0.7554400000000000    0.0945800000000000    0.7392050000000000 C
   0.6804300000000000    0.1176200000000000    0.7029600000000000 C
   0.8696600000000000    0.0402000000000000    0.7294700000000001 C
   0.7273600000000000    0.8458900000000000    0.9363699999999999 N
   0.0515900000000000    0.9735100000000000    0.7419400000000000 N
   0.2731800000000000    0.1542300000000000    0.5632850000000000 N
   0.9484300000000000    0.0265200000000000    0.7580350000000000 N
   0.5065499999999999    0.7979400000000000    0.8218099999999999 O
   0.4957200000000000    0.2041700000000000    0.6768400000000000 O
