H6 O4
1.0
  13.6419999979222037    0.0000000000000000   -0.0002380978165466
   0.0000000000000024   14.7880000000000003    0.0000000000000009
   0.0000000000000000    0.0000000000000000   30.2740000000000009
H O
6 4
direct
   0.5484447758164875    0.2996892979203059    0.8128847852854182 H
   0.6962724232412278    0.3418234955087507    0.7811849329728044 H
   0.8066248646653785    0.3712118594516763    0.7548396507492076 H
   0.7726062339349103    0.6136492425958489    0.9257151397092301 H
   0.6410802375129178    0.7346564333512160    0.8920535675013397 H
   0.7041325352319801    0.7106613931474537    0.8349868489623128 H
   0.5992200000000000    0.3054100000000000    0.7906299999999999 O
   0.7420400000000000    0.3469800000000000    0.7611250000000001 O
   0.7543800000000001    0.6138600000000000    0.9566850000000000 O
   0.6532300000000000    0.7112500000000000    0.9214800000000001 O
