H8 O4
1.0
  24.9299979913573324    0.0000000000000000    0.0100075431292343
  -0.0019506356270032   15.9679998711278444   -0.0005573883498013
   0.0000000000000000    0.0000000000000000   31.9439999999999991
H O
8 4
direct
   0.4518967208957564    0.3634545468309809    0.0589678783252572 H
   0.5130115911038304    0.3797159283924240    0.0405882577891362 H
   0.5093306593407213    0.4412471567250513    0.0452434629752027 H
   0.5475392479254841    0.3595610671991098    0.0565882990017388 H
   0.5481251569247086    0.1179649465451855    0.1817318633680246 H
   0.4847097040582142    0.0852237708043586    0.1867469511907955 H
   0.4524817194787446    0.1131619315228131    0.1797662045138505 H
   0.4898558731329993    0.1127536478502060    0.2215572761080371 H
   0.4717500000000000    0.4013900000000000    0.0405550000000000 O
   0.5275150000000000    0.3982800000000000    0.0387200000000000 O
   0.5282650000000000    0.0811700000000000    0.2007100000000000 O
   0.4725100000000000    0.0774100000000000    0.1991150000000000 O
