H3 C2 N4
1.0
  36.9278441978257561    0.0000000000000000   -2.2935396009458366
   0.0137502069252431   27.5859963042114664   -0.0038517322071204
   0.0000000000000000    0.0000000000000000   35.1360000000000028
H C N
3 2 4
direct
   0.4885200000000000    0.3483400000000000    0.4210300000000000 H
   0.5091700000000000    0.3646100000000000    0.5689550000000000 H
   0.5004966666666666    0.4192500000000000    0.5458150000000001 H
   0.4939133333333333    0.3444150000000000    0.4515650000000000 C
   0.5036966666666667    0.3606050000000000    0.5112600000000000 C
   0.4974966666666666    0.3820850000000000    0.4763900000000000 N
   0.4979600000000000    0.3020450000000000    0.4691400000000000 N
   0.5040666666666667    0.3120200000000000    0.5079850000000000 N
   0.5106066666666667    0.3849750000000000    0.5446450000000000 N
