H2 O2
1.0
  36.9278441978257561    0.0000000000000000   -2.2935396009458366
   0.0137502069252431   27.5859963042114664   -0.0038517322071204
   0.0000000000000000    0.0000000000000000   35.1360000000000028
H O
2 2
direct
   0.5019332888357592    0.3667142509367569    0.5013424217800413 H
   0.4949737857086988    0.3333116967518364    0.4561706302710993 H
   0.4974966666666666    0.3820850000000000    0.4763900000000000 O
   0.4979600000000000    0.3020450000000000    0.4691400000000000 O
