H1 O1
1.0
  37.6261371698635543    0.0000000000000000    3.5898482801662146
   1.2259877661506180   15.6469254717315867    7.2583704286379787
   0.0000000000000000    0.0000000000000000   19.2940000000000005
H O
1 1
direct
   0.3103391022059746    0.1996779991243749    0.5888189647150388 H
   0.3354200000000000    0.1786400000000000    0.5963000000000001 O
