Ba96 C190 O380
1.0
  37.6261371698635543    0.0000000000000000    3.5898482801662146
   1.2259877661506180   15.6469254717315867    7.2583704286379787
   0.0000000000000000    0.0000000000000000   19.2940000000000005
Ba C O
96 190 380
direct
   0.1199800000000000    0.2353000000000000    0.8501400000000000 Ba
   0.1199800000000000    0.7353100000000000    0.3501000000000000 Ba
   0.1199800000000000    0.7353100000000000    0.8501400000000000 Ba
   0.2866466666666667    0.2352900000000000    0.3501000000000000 Ba
   0.2866433333333333    0.2353000000000000    0.8501400000000000 Ba
   0.2866433333333333    0.7353100000000000    0.3501500000000000 Ba
   0.2866433333333333    0.7353100000000000    0.8501400000000000 Ba
   0.1309866666666666    0.4313400000000000    0.4667200000000000 Ba
   0.1309866666666666    0.4313400000000000    0.9667100000000000 Ba
   0.1309866666666666    0.9313500000000000    0.4667200000000000 Ba
   0.1309866666666666    0.9313600000000000    0.9667100000000000 Ba
   0.2976533333333333    0.4313400000000000    0.4667200000000000 Ba
   0.2976533333333333    0.4313400000000000    0.9667100000000000 Ba
   0.2976533333333333    0.9313500000000000    0.4667200000000000 Ba
   0.2976500000000000    0.9313600000000000    0.9667100000000000 Ba
   0.0466833333333333    0.2647300000000000    0.1498400000000000 Ba
   0.0466833333333333    0.2647300000000000    0.6498300000000000 Ba
   0.0466833333333333    0.7647400000000000    0.1498400000000000 Ba
   0.0466800000000000    0.7647500000000000    0.6498300000000000 Ba
   0.2133500000000000    0.2647300000000000    0.1498400000000000 Ba
   0.2133466666666667    0.2647300000000000    0.6498300000000000 Ba
   0.2133466666666667    0.7647400000000000    0.1498400000000000 Ba
   0.2133466666666667    0.7647500000000000    0.6498300000000000 Ba
   0.0356766666666667    0.0686800000000000    0.0332700000000000 Ba
   0.0356766666666667    0.0686900000000000    0.5332600000000000 Ba
   0.0356766666666667    0.5686900000000000    0.0332700000000000 Ba
   0.0356733333333333    0.5687000000000000    0.5332600000000000 Ba
   0.2023433333333333    0.0686800000000000    0.0332700000000000 Ba
   0.2023400000000000    0.0686900000000000    0.5332600000000000 Ba
   0.2023400000000000    0.5686900000000000    0.0332700000000000 Ba
   0.2023400000000000    0.5687000000000000    0.5332600000000000 Ba
   0.1199800000000000    0.2352900000000000    0.3501000000000000 Ba
   0.4533133333333333    0.2353000000000000    0.8501400000000000 Ba
   0.4533133333333333    0.7353100000000000    0.3501000000000000 Ba
   0.4533133333333333    0.7353100000000000    0.8501400000000000 Ba
   0.6199800000000000    0.2352900000000000    0.3501000000000000 Ba
   0.6199766666666666    0.2353000000000000    0.8501400000000000 Ba
   0.6199766666666666    0.7353100000000000    0.3501500000000000 Ba
   0.6199766666666666    0.7353100000000000    0.8501400000000000 Ba
   0.4643200000000000    0.4313400000000000    0.4667200000000000 Ba
   0.4643200000000000    0.4313400000000000    0.9667100000000000 Ba
   0.4643200000000000    0.9313500000000000    0.4667200000000000 Ba
   0.4643200000000000    0.9313600000000000    0.9667100000000000 Ba
   0.6309866666666666    0.4313400000000000    0.4667200000000000 Ba
   0.6309866666666666    0.4313400000000000    0.9667100000000000 Ba
   0.6309866666666666    0.9313500000000000    0.4667200000000000 Ba
   0.6309833333333332    0.9313600000000000    0.9667100000000000 Ba
   0.3800166666666667    0.2647300000000000    0.1498400000000000 Ba
   0.3800166666666667    0.2647300000000000    0.6498300000000000 Ba
   0.3800166666666667    0.7647400000000000    0.1498400000000000 Ba
   0.3800133333333333    0.7647500000000000    0.6498300000000000 Ba
   0.5466833333333333    0.2647300000000000    0.1498400000000000 Ba
   0.5466800000000001    0.2647300000000000    0.6498300000000000 Ba
   0.5466800000000001    0.7647400000000000    0.1498400000000000 Ba
   0.5466800000000001    0.7647500000000000    0.6498300000000000 Ba
   0.3690099999999999    0.0686800000000000    0.0332700000000000 Ba
   0.3690099999999999    0.0686900000000000    0.5332600000000000 Ba
   0.3690099999999999    0.5686900000000000    0.0332700000000000 Ba
   0.3690066666666666    0.5687000000000000    0.5332600000000000 Ba
   0.5356766666666666    0.0686800000000000    0.0332700000000000 Ba
   0.5356733333333333    0.0686900000000000    0.5332600000000000 Ba
   0.5356733333333333    0.5686900000000000    0.0332700000000000 Ba
   0.5356733333333333    0.5687000000000000    0.5332600000000000 Ba
   0.4533133333333333    0.2352900000000000    0.3501000000000000 Ba
   0.7866466666666666    0.2353000000000000    0.8501400000000000 Ba
   0.7866466666666666    0.7353100000000000    0.3501000000000000 Ba
   0.7866466666666666    0.7353100000000000    0.8501400000000000 Ba
   0.9533133333333332    0.2352900000000000    0.3501000000000000 Ba
   0.9533099999999999    0.2353000000000000    0.8501400000000000 Ba
   0.9533099999999999    0.7353100000000000    0.3501500000000000 Ba
   0.9533099999999999    0.7353100000000000    0.8501400000000000 Ba
   0.7976533333333333    0.4313400000000000    0.4667200000000000 Ba
   0.7976533333333333    0.4313400000000000    0.9667100000000000 Ba
   0.7976533333333333    0.9313500000000000    0.4667200000000000 Ba
   0.7976533333333333    0.9313600000000000    0.9667100000000000 Ba
   0.9643200000000000    0.4313400000000000    0.4667200000000000 Ba
   0.9643200000000000    0.4313400000000000    0.9667100000000000 Ba
   0.9643200000000000    0.9313500000000000    0.4667200000000000 Ba
   0.9643166666666666    0.9313600000000000    0.9667100000000000 Ba
   0.7133499999999999    0.2647300000000000    0.1498400000000000 Ba
   0.7133499999999999    0.2647300000000000    0.6498300000000000 Ba
   0.7133499999999999    0.7647400000000000    0.1498400000000000 Ba
   0.7133466666666666    0.7647500000000000    0.6498300000000000 Ba
   0.8800166666666667    0.2647300000000000    0.1498400000000000 Ba
   0.8800133333333333    0.2647300000000000    0.6498300000000000 Ba
   0.8800133333333333    0.7647400000000000    0.1498400000000000 Ba
   0.8800133333333333    0.7647500000000000    0.6498300000000000 Ba
   0.7023433333333333    0.0686800000000000    0.0332700000000000 Ba
   0.7023433333333333    0.0686900000000000    0.5332600000000000 Ba
   0.7023433333333333    0.5686900000000000    0.0332700000000000 Ba
   0.7023400000000000    0.5687000000000000    0.5332600000000000 Ba
   0.8690099999999999    0.0686800000000000    0.0332700000000000 Ba
   0.8690066666666666    0.0686900000000000    0.5332600000000000 Ba
   0.8690066666666666    0.5686900000000000    0.0332700000000000 Ba
   0.8690066666666666    0.5687000000000000    0.5332600000000000 Ba
   0.7866466666666666    0.2352900000000000    0.3501000000000000 Ba
   0.0303933333333333    0.2941400000000000    0.4133000000000000 C
   0.0303933333333333    0.2941400000000000    0.9133500000000000 C
   0.0303933333333333    0.7941400000000000    0.4133700000000000 C
   0.0303933333333333    0.7941600000000000    0.9133000000000000 C
   0.1970600000000000    0.2941300000000000    0.4133600000000000 C
   0.1970566666666667    0.2941400000000000    0.9133500000000000 C
   0.1970600000000000    0.7941500000000000    0.4133600000000000 C
   0.1970566666666667    0.7941600000000000    0.9133500000000000 C
   0.0542533333333333    0.3418600000000000    0.4408000000000000 C
   0.0542533333333333    0.3418700000000000    0.9407000000000000 C
   0.0542533333333333    0.8418900000000000    0.4407800000000000 C
   0.0542533333333333    0.8418700000000000    0.9407900000000000 C
   0.2209200000000000    0.3418700000000000    0.4407900000000000 C
   0.2209200000000000    0.3418700000000000    0.9407900000000000 C
   0.2209200000000000    0.8418800000000000    0.4407900000000000 C
   0.2209166666666667    0.8418800000000000    0.9407900000000000 C
   0.0235500000000000    0.1092700000000000    0.3410300000000000 C
   0.0235500000000000    0.1092700000000000    0.8410300000000001 C
   0.0235500000000000    0.6092800000000000    0.3410300000000000 C
   0.0235466666666667    0.6092800000000000    0.8410300000000001 C
   0.1902166666666666    0.1092700000000000    0.3410300000000000 C
   0.1902133333333333    0.1092700000000000    0.8410300000000001 C
   0.1902133333333333    0.6092800000000000    0.3410300000000000 C
   0.1902133333333333    0.6092800000000000    0.8410300000000001 C
   0.0648833333333333    0.1063100000000000    0.3423600000000000 C
   0.0648800000000000    0.1063100000000000    0.8423500000000000 C
   0.0648800000000000    0.6063200000000000    0.3423600000000000 C
   0.0648800000000000    0.6063300000000000    0.8423500000000000 C
   0.2315466666666667    0.1063100000000000    0.3423600000000000 C
   0.2315466666666667    0.1063100000000000    0.8423500000000000 C
   0.2315466666666667    0.6063200000000000    0.3423600000000000 C
   0.2315466666666667    0.6063300000000000    0.8423500000000000 C
   0.1362700000000000    0.2058800000000000    0.0866300000000000 C
   0.1362700000000000    0.2058800000000000    0.5866000000000000 C
   0.1362700000000000    0.7059100000000000    0.0866100000000000 C
   0.1362666666666666    0.7059000000000000    0.5866200000000000 C
   0.3029366666666666    0.2058900000000000    0.0866200000000000 C
   0.3029333333333333    0.7059000000000000    0.0866300000000000 C
   0.3029333333333333    0.7059000000000000    0.5866000000000000 C
   0.1124100000000000    0.1581600000000000    0.0591000000000000 C
   0.1124066666666667    0.1581700000000000    0.5591699999999999 C
   0.1124100000000000    0.6581600000000000    0.0590000000000000 C
   0.1124066666666667    0.6581800000000000    0.5591699999999999 C
   0.2790733333333333    0.1581600000000000    0.0591900000000000 C
   0.2790733333333333    0.6581800000000000    0.0591800000000000 C
   0.2790733333333333    0.6581900000000001    0.5591699999999999 C
   0.1431133333333333    0.3907500000000000    0.1589500000000000 C
   0.1431133333333333    0.3907600000000000    0.6589400000000000 C
   0.1431133333333333    0.8907700000000000    0.1589500000000000 C
   0.1431100000000000    0.8907700000000000    0.6589400000000000 C
   0.3097800000000000    0.3907500000000000    0.1589500000000000 C
   0.3097766666666666    0.3907600000000000    0.6589400000000000 C
   0.3097766666666666    0.8907700000000000    0.1589500000000000 C
   0.3097766666666666    0.8907700000000000    0.6589400000000000 C
   0.1017800000000000    0.3937100000000000    0.1576200000000000 C
   0.1017800000000000    0.3937200000000000    0.6576000000000000 C
   0.1017800000000000    0.8937300000000000    0.1576200000000000 C
   0.1017800000000000    0.8937300000000000    0.6576000000000000 C
   0.2684466666666666    0.3937100000000000    0.1576200000000000 C
   0.2684466666666666    0.3937200000000000    0.6576000000000000 C
   0.2684466666666666    0.8937300000000000    0.1576200000000000 C
   0.2684433333333333    0.8937300000000000    0.6576000000000000 C
   0.3637266666666666    0.2941400000000000    0.4133000000000000 C
   0.3637266666666666    0.2941400000000000    0.9133500000000000 C
   0.3637266666666666    0.7941400000000000    0.4133700000000000 C
   0.3637266666666666    0.7941600000000000    0.9133000000000000 C
   0.5303933333333333    0.2941300000000000    0.4133600000000000 C
   0.5303899999999999    0.2941400000000000    0.9133500000000000 C
   0.5303933333333333    0.7941500000000000    0.4133600000000000 C
   0.5303899999999999    0.7941600000000000    0.9133500000000000 C
   0.3875866666666666    0.3418600000000000    0.4408000000000000 C
   0.3875866666666666    0.3418700000000000    0.9407000000000000 C
   0.3875866666666666    0.8418900000000000    0.4407800000000000 C
   0.3875866666666666    0.8418700000000000    0.9407900000000000 C
   0.5542533333333333    0.3418700000000000    0.4407900000000000 C
   0.5542533333333333    0.3418700000000000    0.9407900000000000 C
   0.5542533333333333    0.8418800000000000    0.4407900000000000 C
   0.5542499999999999    0.8418800000000000    0.9407900000000000 C
   0.3568833333333333    0.1092700000000000    0.3410300000000000 C
   0.3568833333333333    0.1092700000000000    0.8410300000000001 C
   0.3568833333333333    0.6092800000000000    0.3410300000000000 C
   0.3568800000000000    0.6092800000000000    0.8410300000000001 C
   0.5235500000000000    0.1092700000000000    0.3410300000000000 C
   0.5235466666666666    0.1092700000000000    0.8410300000000001 C
   0.5235466666666666    0.6092800000000000    0.3410300000000000 C
   0.5235466666666666    0.6092800000000000    0.8410300000000001 C
   0.3982166666666667    0.1063100000000000    0.3423600000000000 C
   0.3982133333333333    0.1063100000000000    0.8423500000000000 C
   0.3982133333333333    0.6063200000000000    0.3423600000000000 C
   0.3982133333333333    0.6063300000000000    0.8423500000000000 C
   0.5648800000000000    0.1063100000000000    0.3423600000000000 C
   0.5648800000000000    0.1063100000000000    0.8423500000000000 C
   0.5648800000000000    0.6063200000000000    0.3423600000000000 C
   0.5648800000000000    0.6063300000000000    0.8423500000000000 C
   0.4696033333333333    0.2058800000000000    0.0866300000000000 C
   0.4696033333333333    0.2058800000000000    0.5866000000000000 C
   0.4696033333333333    0.7059100000000000    0.0866100000000000 C
   0.4696000000000000    0.7059000000000000    0.5866200000000000 C
   0.6362699999999999    0.2058900000000000    0.0866200000000000 C
   0.6362666666666666    0.2058900000000000    0.5866100000000000 C
   0.6362666666666666    0.7059000000000000    0.0866300000000000 C
   0.6362666666666666    0.7059000000000000    0.5866000000000000 C
   0.4457433333333333    0.1581600000000000    0.0591000000000000 C
   0.4457400000000000    0.1581700000000000    0.5591699999999999 C
   0.4457433333333333    0.6581600000000000    0.0590000000000000 C
   0.4457400000000000    0.6581800000000000    0.5591699999999999 C
   0.6124066666666665    0.1581600000000000    0.0591900000000000 C
   0.6124066666666665    0.1581600000000000    0.5591800000000000 C
   0.6124066666666665    0.6581800000000000    0.0591800000000000 C
   0.6124066666666665    0.6581900000000001    0.5591699999999999 C
   0.4764466666666666    0.3907500000000000    0.1589500000000000 C
   0.4764466666666666    0.3907600000000000    0.6589400000000000 C
   0.4764466666666666    0.8907700000000000    0.1589500000000000 C
   0.4764433333333333    0.8907700000000000    0.6589400000000000 C
   0.6431133333333333    0.3907500000000000    0.1589500000000000 C
   0.6431100000000000    0.3907600000000000    0.6589400000000000 C
   0.6431100000000000    0.8907700000000000    0.1589500000000000 C
   0.6431100000000000    0.8907700000000000    0.6589400000000000 C
   0.4351133333333333    0.3937100000000000    0.1576200000000000 C
   0.4351133333333333    0.3937200000000000    0.6576000000000000 C
   0.4351133333333333    0.8937300000000000    0.1576200000000000 C
   0.4351133333333333    0.8937300000000000    0.6576000000000000 C
   0.6017800000000000    0.3937100000000000    0.1576200000000000 C
   0.6017800000000000    0.3937200000000000    0.6576000000000000 C
   0.6017800000000000    0.8937300000000000    0.1576200000000000 C
   0.6017766666666666    0.8937300000000000    0.6576000000000000 C
   0.6970600000000000    0.2941400000000000    0.4133000000000000 C
   0.6970600000000000    0.2941400000000000    0.9133500000000000 C
   0.6970600000000000    0.7941400000000000    0.4133700000000000 C
   0.6970600000000000    0.7941600000000000    0.9133000000000000 C
   0.8637266666666666    0.2941300000000000    0.4133600000000000 C
   0.8637233333333333    0.2941400000000000    0.9133500000000000 C
   0.8637266666666666    0.7941500000000000    0.4133600000000000 C
   0.8637233333333333    0.7941600000000000    0.9133500000000000 C
   0.7209200000000000    0.3418600000000000    0.4408000000000000 C
   0.7209200000000000    0.3418700000000000    0.9407000000000000 C
   0.7209200000000000    0.8418900000000000    0.4407800000000000 C
   0.7209200000000000    0.8418700000000000    0.9407900000000000 C
   0.8875866666666666    0.3418700000000000    0.4407900000000000 C
   0.8875866666666666    0.3418700000000000    0.9407900000000000 C
   0.8875866666666666    0.8418800000000000    0.4407900000000000 C
   0.8875833333333333    0.8418800000000000    0.9407900000000000 C
   0.6902166666666666    0.1092700000000000    0.3410300000000000 C
   0.6902166666666666    0.1092700000000000    0.8410300000000001 C
   0.6902166666666666    0.6092800000000000    0.3410300000000000 C
   0.6902133333333333    0.6092800000000000    0.8410300000000001 C
   0.8568833333333332    0.1092700000000000    0.3410300000000000 C
   0.8568800000000000    0.1092700000000000    0.8410300000000001 C
   0.8568800000000000    0.6092800000000000    0.3410300000000000 C
   0.8568800000000000    0.6092800000000000    0.8410300000000001 C
   0.7315499999999999    0.1063100000000000    0.3423600000000000 C
   0.7315466666666666    0.1063100000000000    0.8423500000000000 C
   0.7315466666666666    0.6063200000000000    0.3423600000000000 C
   0.7315466666666666    0.6063300000000000    0.8423500000000000 C
   0.8982133333333333    0.1063100000000000    0.3423600000000000 C
   0.8982133333333333    0.1063100000000000    0.8423500000000000 C
   0.8982133333333333    0.6063200000000000    0.3423600000000000 C
   0.8982133333333333    0.6063300000000000    0.8423500000000000 C
   0.8029366666666666    0.2058800000000000    0.0866300000000000 C
   0.8029366666666666    0.2058800000000000    0.5866000000000000 C
   0.8029366666666666    0.7059100000000000    0.0866100000000000 C
   0.8029333333333333    0.7059000000000000    0.5866200000000000 C
   0.9696033333333333    0.2058900000000000    0.0866200000000000 C
   0.9696000000000000    0.2058900000000000    0.5866100000000000 C
   0.9696000000000000    0.7059000000000000    0.0866300000000000 C
   0.9696000000000000    0.7059000000000000    0.5866000000000000 C
   0.7790766666666666    0.1581600000000000    0.0591000000000000 C
   0.7790733333333333    0.1581700000000000    0.5591699999999999 C
   0.7790766666666666    0.6581600000000000    0.0590000000000000 C
   0.7790733333333333    0.6581800000000000    0.5591699999999999 C
   0.9457399999999999    0.1581600000000000    0.0591900000000000 C
   0.9457399999999999    0.1581600000000000    0.5591800000000000 C
   0.9457399999999999    0.6581800000000000    0.0591800000000000 C
   0.9457399999999999    0.6581900000000001    0.5591699999999999 C
   0.8097799999999999    0.3907500000000000    0.1589500000000000 C
   0.8097799999999999    0.3907600000000000    0.6589400000000000 C
   0.8097799999999999    0.8907700000000000    0.1589500000000000 C
   0.8097766666666666    0.8907700000000000    0.6589400000000000 C
   0.9764466666666667    0.3907500000000000    0.1589500000000000 C
   0.9764433333333333    0.3907600000000000    0.6589400000000000 C
   0.9764433333333333    0.8907700000000000    0.1589500000000000 C
   0.9764433333333333    0.8907700000000000    0.6589400000000000 C
   0.7684466666666666    0.3937100000000000    0.1576200000000000 C
   0.7684466666666666    0.3937200000000000    0.6576000000000000 C
   0.7684466666666666    0.8937300000000000    0.1576200000000000 C
   0.7684466666666666    0.8937300000000000    0.6576000000000000 C
   0.9351133333333332    0.3937100000000000    0.1576200000000000 C
   0.9351133333333332    0.3937200000000000    0.6576000000000000 C
   0.9351133333333332    0.8937300000000000    0.1576200000000000 C
   0.9351099999999999    0.8937300000000000    0.6576000000000000 C
   0.1645766666666666    0.3213800000000000    0.4036800000000000 O
   0.1645766666666666    0.3213900000000000    0.9036700000000000 O
   0.1645766666666666    0.8214000000000000    0.4036800000000000 O
   0.1645766666666666    0.8214000000000000    0.9036000000000000 O
   0.3271900000000000    0.9300700000000000    0.5955700000000000 O
   0.1572900000000000    0.3447400000000000    0.2211100000000000 O
   0.1572900000000000    0.3447500000000000    0.7211000000000000 O
   0.1572900000000000    0.8447500000000000    0.2211100000000000 O
   0.3312433333333333    0.3213800000000000    0.4036700000000000 O
   0.3312400000000000    0.3213900000000000    0.9036700000000000 O
   0.3312433333333333    0.8214000000000000    0.4036800000000000 O
   0.3312400000000000    0.8214000000000000    0.9036000000000000 O
   0.0449400000000000    0.2282300000000000    0.4052600000000000 O
   0.0449366666666667    0.2282300000000000    0.9052500000000000 O
   0.0449366666666667    0.7282400000000000    0.4052600000000000 O
   0.0449366666666667    0.7282500000000000    0.9052500000000000 O
   0.2116033333333333    0.2282200000000000    0.4052600000000000 O
   0.2116033333333333    0.2282300000000000    0.9052500000000000 O
   0.2116033333333333    0.7282400000000000    0.4052600000000000 O
   0.2116033333333333    0.7282500000000000    0.9052500000000000 O
   0.0399000000000000    0.3702300000000000    0.4887000000000000 O
   0.0398966666666667    0.3702400000000000    0.9886900000000000 O
   0.0398966666666667    0.8702500000000000    0.4887000000000000 O
   0.0398966666666667    0.8702500000000000    0.9887000000000000 O
   0.2065633333333333    0.3702300000000000    0.4887000000000000 O
   0.2065633333333333    0.3702400000000000    0.9880000000000000 O
   0.2065633333333333    0.8702500000000000    0.4887000000000000 O
   0.2065633333333333    0.8702500000000000    0.9887000000000000 O
   0.0865800000000000    0.3469000000000000    0.4156300000000000 O
   0.0865766666666667    0.3469000000000000    0.9156000000000000 O
   0.0865800000000000    0.8469100000000001    0.4156300000000000 O
   0.0865766666666667    0.8469100000000001    0.9156300000000001 O
   0.2532466666666666    0.3469000000000000    0.4156300000000000 O
   0.2532433333333333    0.3469000000000000    0.9156000000000000 O
   0.2532433333333333    0.8469100000000001    0.4156300000000000 O
   0.2532433333333333    0.8469200000000000    0.9156300000000001 O
   0.0061366666666667    0.0699700000000000    0.4044000000000000 O
   0.0061366666666667    0.0699700000000000    0.9040000000000000 O
   0.0061366666666667    0.5699800000000000    0.4044000000000000 O
   0.0061333333333333    0.5699900000000000    0.9040000000000000 O
   0.1728033333333333    0.0699700000000000    0.4044000000000000 O
   0.1728000000000000    0.0699700000000000    0.9040000000000000 O
   0.1728033333333333    0.5699800000000000    0.4044000000000000 O
   0.1728000000000000    0.5699900000000000    0.9040000000000000 O
   0.0093733333333333    0.1552800000000000    0.2788700000000000 O
   0.0093700000000000    0.1552800000000000    0.7788600000000000 O
   0.0093700000000000    0.6552900000000000    0.2788700000000000 O
   0.0093700000000000    0.6553000000000000    0.7788600000000000 O
   0.1760366666666666    0.1552800000000000    0.2788700000000000 O
   0.1760366666666666    0.1552800000000000    0.7788600000000000 O
   0.1760366666666666    0.6552900000000000    0.2788700000000000 O
   0.1760366666666666    0.6553000000000000    0.7788600000000000 O
   0.0789600000000000    0.0643800000000000    0.4066700000000000 O
   0.0789600000000000    0.0643900000000000    0.9066600000000000 O
   0.0789600000000000    0.5643899999999999    0.4066700000000000 O
   0.0789600000000000    0.5644000000000000    0.9066600000000000 O
   0.2456266666666667    0.0643800000000000    0.4066700000000000 O
   0.2456233333333333    0.0643900000000000    0.9066600000000000 O
   0.2456266666666667    0.5643899999999999    0.4066700000000000 O
   0.2456233333333333    0.5644000000000000    0.9066600000000000 O
   0.0815733333333333    0.1509000000000000    0.2810600000000000 O
   0.0815733333333333    0.1509100000000000    0.7810500000000000 O
   0.0815733333333333    0.6509200000000001    0.2810600000000000 O
   0.0815700000000000    0.6509200000000001    0.7810500000000000 O
   0.2482400000000000    0.1509000000000000    0.2810600000000000 O
   0.2482366666666667    0.1509100000000000    0.7810500000000000 O
   0.2482366666666667    0.6509200000000001    0.2810600000000000 O
   0.2482366666666667    0.6509200000000001    0.7810500000000000 O
   0.0020866666666667    0.1786300000000000    0.0963100000000000 O
   0.0020866666666667    0.1786400000000000    0.5963000000000001 O
   0.0020866666666667    0.6786500000000000    0.0963100000000000 O
   0.0020833333333333    0.6786500000000000    0.5963000000000001 O
   0.1687533333333333    0.1786300000000000    0.0963100000000000 O
   0.1687500000000000    0.1786400000000000    0.5963000000000001 O
   0.1687500000000000    0.6786500000000000    0.0963000000000000 O
   0.1687500000000000    0.6786500000000000    0.5963000000000001 O
   0.1217233333333333    0.2717900000000000    0.0947200000000000 O
   0.1217233333333333    0.2717900000000000    0.5947000000000000 O
   0.1217233333333333    0.7718100000000000    0.0947200000000000 O
   0.1217233333333333    0.7718100000000000    0.5947200000000000 O
   0.2883900000000000    0.2717900000000000    0.0947200000000000 O
   0.2883900000000000    0.7718100000000000    0.0947200000000000 O
   0.2883900000000000    0.7718100000000000    0.5947200000000000 O
   0.1267633333333333    0.1297900000000000    0.0112800000000000 O
   0.1267633333333333    0.1297900000000000    0.5112700000000000 O
   0.1267633333333333    0.6298000000000000    0.0112800000000000 O
   0.1267633333333333    0.6298100000000000    0.5112700000000000 O
   0.2934300000000000    0.1297900000000000    0.0112800000000000 O
   0.2934300000000000    0.6298000000000000    0.0112800000000000 O
   0.2934266666666666    0.6298100000000000    0.5112700000000000 O
   0.0800833333333333    0.1531200000000000    0.0843500000000000 O
   0.0800833333333333    0.1531300000000000    0.5843400000000000 O
   0.0800833333333333    0.6531300000000000    0.0843500000000000 O
   0.0800833333333333    0.6531400000000001    0.5843400000000000 O
   0.2467500000000000    0.1531200000000000    0.0843500000000000 O
   0.2467500000000000    0.6531400000000001    0.0843500000000000 O
   0.2467500000000000    0.6531400000000001    0.5843400000000000 O
   0.1605266666666667    0.4300500000000000    0.0955800000000000 O
   0.1605266666666667    0.4300600000000000    0.5955700000000000 O
   0.1605266666666667    0.9300700000000000    0.0955800000000000 O
   0.1605233333333333    0.9300700000000000    0.5955700000000000 O
   0.3271933333333333    0.4300500000000000    0.0955800000000000 O
   0.3271900000000000    0.4300600000000000    0.5955700000000000 O
   0.3271900000000000    0.9300700000000000    0.0955800000000000 O
   0.1572900000000000    0.8447600000000000    0.7211000000000000 O
   0.3239566666666667    0.3447400000000000    0.2211100000000000 O
   0.3239566666666667    0.3447500000000000    0.7211000000000000 O
   0.3239566666666667    0.8447500000000000    0.2211100000000000 O
   0.3239566666666667    0.8447600000000000    0.7211000000000000 O
   0.0877033333333333    0.4356400000000000    0.0933100000000000 O
   0.0877033333333333    0.4356400000000000    0.5933000000000000 O
   0.0877033333333333    0.9356500000000000    0.0933100000000000 O
   0.0877000000000000    0.9356600000000000    0.5933000000000000 O
   0.2543700000000000    0.4356400000000000    0.0933100000000000 O
   0.2543666666666666    0.4356400000000000    0.5933000000000000 O
   0.2543666666666666    0.9356500000000000    0.0933100000000000 O
   0.2543666666666666    0.9356600000000000    0.5933000000000000 O
   0.0850900000000000    0.3491200000000000    0.2189200000000000 O
   0.0850900000000000    0.3491200000000000    0.7189100000000000 O
   0.0850900000000000    0.8491300000000001    0.2189200000000000 O
   0.0850866666666667    0.8491400000000000    0.7189100000000000 O
   0.2517566666666666    0.3491200000000000    0.2189200000000000 O
   0.2517533333333333    0.3491200000000000    0.7189100000000000 O
   0.2517533333333333    0.8491300000000001    0.2189200000000000 O
   0.2517533333333333    0.8491400000000000    0.7189100000000000 O
   0.4979100000000000    0.3213800000000000    0.4036800000000000 O
   0.4979100000000000    0.3213900000000000    0.9036700000000000 O
   0.4979100000000000    0.8214000000000000    0.4036800000000000 O
   0.4979100000000000    0.8214000000000000    0.9036000000000000 O
   0.6605233333333334    0.9300700000000000    0.5955700000000000 O
   0.4906233333333333    0.3447400000000000    0.2211100000000000 O
   0.4906233333333333    0.3447500000000000    0.7211000000000000 O
   0.4906233333333333    0.8447500000000000    0.2211100000000000 O
   0.6645766666666666    0.3213800000000000    0.4036700000000000 O
   0.6645733333333332    0.3213900000000000    0.9036700000000000 O
   0.6645766666666666    0.8214000000000000    0.4036800000000000 O
   0.6645733333333332    0.8214000000000000    0.9036000000000000 O
   0.3782733333333333    0.2282300000000000    0.4052600000000000 O
   0.3782700000000000    0.2282300000000000    0.9052500000000000 O
   0.3782700000000000    0.7282400000000000    0.4052600000000000 O
   0.3782700000000000    0.7282500000000000    0.9052500000000000 O
   0.5449366666666666    0.2282200000000000    0.4052600000000000 O
   0.5449366666666666    0.2282300000000000    0.9052500000000000 O
   0.5449366666666666    0.7282400000000000    0.4052600000000000 O
   0.5449366666666666    0.7282500000000000    0.9052500000000000 O
   0.3732333333333333    0.3702300000000000    0.4887000000000000 O
   0.3732300000000000    0.3702400000000000    0.9886900000000000 O
   0.3732300000000000    0.8702500000000000    0.4887000000000000 O
   0.3732300000000000    0.8702500000000000    0.9887000000000000 O
   0.5398966666666667    0.3702300000000000    0.4887000000000000 O