H4 C8 O4
1.0
  31.9891992506546572    0.0000000000000000   18.1672253055307102
   5.2868816845647686   15.0962374292151296    9.0824959969260490
   0.0000000000000000    0.0000000000000000   36.7879999999999967
H C O
4 8 4
direct
   0.4757950000000000    0.4321000000000000    0.3320650000000000 H
   0.4758050000000000    0.6641300000000000    0.2160350000000000 H
   0.5241950000000000    0.3358900000000000    0.2839650000000000 H
   0.5242000000000000    0.5679200000000000    0.1679350000000000 H
   0.4865850000000000    0.4610600000000000    0.2961150000000000 C
   0.4865900000000000    0.5922400000000000    0.2305000000000000 C
   0.4441850000000000    0.6109200000000000    0.3054500000000000 C
   0.4730250000000000    0.5536100000000000    0.2768000000000000 C
   0.5134000000000000    0.4077800000000000    0.2694800000000000 C
   0.5134050000000000    0.5389600000000000    0.2038850000000000 C
   0.5557950000000000    0.3891000000000000    0.1945500000000000 C
   0.5269800000000000    0.4464000000000000    0.2232000000000000 C
   0.4330750000000000    0.6945800000000000    0.2857200000000000 O
   0.4330650000000000    0.5714600000000000    0.3472850000000000 O
   0.5669300000000000    0.4285600000000000    0.1527150000000000 O
   0.5669200000000000    0.3054400000000000    0.2142800000000000 O
