H6 O4
1.0
  31.9891992506546572    0.0000000000000000   18.1672253055307102
   5.2868816845647686   15.0962374292151296    9.0824959969260490
   0.0000000000000000    0.0000000000000000   36.7879999999999967
H O
6 4
direct
   0.5570244601623157    0.4927270507544208    0.1405319688378314 H
   0.5570074094654354    0.2810778765387378    0.2463648704704791 H
   0.5531441420175756    0.3946785667847217    0.1973367833923608 H
   0.4429705398376844    0.5072929492455792    0.3594680311621686 H
   0.4429875905345645    0.7189421234612622    0.2536351295295209 H
   0.4468508579824244    0.6053414332152783    0.3026632166076392 H
   0.5669300000000000    0.4285600000000000    0.1527150000000000 O
   0.5669200000000000    0.3054400000000000    0.2142800000000000 O
   0.4330650000000000    0.5714600000000000    0.3472850000000000 O
   0.4330750000000000    0.6945800000000000    0.2857200000000000 O
