Zn32 H92 C184 O100
1.0
  31.9891992506546572    0.0000000000000000   18.1672253055307102
   5.2868816845647686   15.0962374292151296    9.0824959969260490
   0.0000000000000000    0.0000000000000000   36.7879999999999967
Zn H C O
32 92 184 100
direct
   0.3969850000000000    0.7939300000000000    0.3969650000000000 Zn
   0.1034850000000000    0.3802000000000000    0.1034650000000000 Zn
   0.1034850000000000    0.2069400000000000    0.1901000000000000 Zn
   0.1901000000000000    0.2069800000000000    0.1034850000000000 Zn
   0.3098950000000000    0.7930400000000000    0.3965150000000000 Zn
   0.3965100000000000    0.7930800000000000    0.3099000000000000 Zn
   0.3965100000000000    0.6198200000000000    0.3965350000000000 Zn
   0.1030100000000000    0.2060900000000000    0.1030350000000000 Zn
   0.8969849999999999    0.7939300000000000    0.3969650000000000 Zn
   0.6034850000000000    0.3802000000000000    0.1034650000000000 Zn
   0.6034850000000000    0.2069400000000000    0.1901000000000000 Zn
   0.6900999999999999    0.2069800000000000    0.1034850000000000 Zn
   0.8098950000000000    0.7930400000000000    0.3965150000000000 Zn
   0.8965099999999999    0.7930800000000000    0.3099000000000000 Zn
   0.8965099999999999    0.6198200000000000    0.3965350000000000 Zn
   0.6030100000000000    0.2060900000000000    0.1030350000000000 Zn
   0.3969850000000000    0.7939300000000000    0.8969650000000000 Zn
   0.1034850000000000    0.3802000000000000    0.6034650000000000 Zn
   0.1034850000000000    0.2069400000000000    0.6900999999999999 Zn
   0.1901000000000000    0.2069800000000000    0.6034850000000000 Zn
   0.3098950000000000    0.7930400000000000    0.8965150000000000 Zn
   0.3965100000000000    0.7930800000000000    0.8099000000000001 Zn
   0.3965100000000000    0.6198200000000000    0.8965350000000001 Zn
   0.1030100000000000    0.2060900000000000    0.6030350000000000 Zn
   0.8969849999999999    0.7939300000000000    0.8969650000000000 Zn
   0.6034850000000000    0.3802000000000000    0.6034650000000000 Zn
   0.6034850000000000    0.2069400000000000    0.6900999999999999 Zn
   0.6900999999999999    0.2069800000000000    0.6034850000000000 Zn
   0.8098950000000000    0.7930400000000000    0.8965150000000000 Zn
   0.8965099999999999    0.7930800000000000    0.8099000000000001 Zn
   0.8965099999999999    0.6198200000000000    0.8965350000000001 Zn
   0.6030100000000000    0.2060900000000000    0.6030350000000000 Zn
   0.0241950000000000    0.3358900000000000    0.2839650000000000 H
   0.2839600000000000    0.0483900000000000    0.1679350000000000 H
   0.1679300000000000    0.5679300000000000    0.0241950000000000 H
   0.3320600000000000    0.9516400000000000    0.2160300000000000 H
   0.2160350000000000    0.6641300000000000    0.4758100000000000 H
   0.2160350000000000    0.9516300000000000    0.3320650000000000 H
   0.3320650000000000    0.4320900000000000    0.4758050000000000 H
   0.1679300000000000    0.0483800000000000    0.2839700000000000 H
   0.0242000000000000    0.5679200000000000    0.1679350000000000 H
   0.2839600000000000    0.3358900000000000    0.0241900000000000 H
   0.0245450000000000    0.5674200000000000    0.0245400000000000 H
   0.0235400000000000    0.3359300000000000    0.0235350000000000 H
   0.0245450000000000    0.0490800000000000    0.2837100000000000 H
   0.0235450000000000    0.0470900000000000    0.1679550000000000 H
   0.2837050000000000    0.0490800000000000    0.0245400000000000 H
   0.1679550000000000    0.0470900000000000    0.0235450000000000 H
   0.2162900000000000    0.9509300000000001    0.4754650000000000 H
   0.3320400000000000    0.9529300000000001    0.4764600000000000 H
   0.4754500000000000    0.9509400000000000    0.2162900000000000 H
   0.4764500000000000    0.9529300000000001    0.3320450000000000 H
   0.4754500000000000    0.4326000000000000    0.4754600000000000 H
   0.4764550000000000    0.6640900000000000    0.4764650000000000 H
   0.7839600000000000    0.0483900000000000    0.1679350000000000 H
   0.6679300000000000    0.5679300000000000    0.0241950000000000 H
   0.8320600000000000    0.9516400000000000    0.2160300000000000 H
   0.9757950000000000    0.4321000000000000    0.3320650000000000 H
   0.7160350000000000    0.6641300000000000    0.4758100000000000 H
   0.9758050000000000    0.6641300000000000    0.2160350000000000 H
   0.7160350000000000    0.9516300000000000    0.3320650000000000 H
   0.8320650000000001    0.4320900000000000    0.4758050000000000 H
   0.6679300000000000    0.0483800000000000    0.2839700000000000 H
   0.7839600000000000    0.3358900000000000    0.0241900000000000 H
   0.5245450000000000    0.5674200000000000    0.0245400000000000 H
   0.5235400000000000    0.3359300000000000    0.0235350000000000 H
   0.5245450000000000    0.0490800000000000    0.2837100000000000 H
   0.5235450000000000    0.0470900000000000    0.1679550000000000 H
   0.7837050000000000    0.0490800000000000    0.0245400000000000 H
   0.6679550000000000    0.0470900000000000    0.0235450000000000 H
   0.7162900000000000    0.9509300000000001    0.4754650000000000 H
   0.8320400000000000    0.9529300000000001    0.4764600000000000 H
   0.9754499999999999    0.9509400000000000    0.2162900000000000 H
   0.9764500000000000    0.9529300000000001    0.3320450000000000 H
   0.9754499999999999    0.4326000000000000    0.4754600000000000 H
   0.9764550000000001    0.6640900000000000    0.4764650000000000 H
   0.0241950000000000    0.3358900000000000    0.7839650000000000 H
   0.2839600000000000    0.0483900000000000    0.6679349999999999 H
   0.1679300000000000    0.5679300000000000    0.5241950000000000 H
   0.3320600000000000    0.9516400000000000    0.7160299999999999 H
   0.4757950000000000    0.4321000000000000    0.8320650000000001 H
   0.2160350000000000    0.6641300000000000    0.9758100000000001 H
   0.4758050000000000    0.6641300000000000    0.7160350000000000 H
   0.2160350000000000    0.9516300000000000    0.8320650000000001 H
   0.3320650000000000    0.4320900000000000    0.9758050000000000 H
   0.1679300000000000    0.0483800000000000    0.7839700000000001 H
   0.0242000000000000    0.5679200000000000    0.6679349999999999 H
   0.2839600000000000    0.3358900000000000    0.5241900000000000 H
   0.0245450000000000    0.5674200000000000    0.5245400000000000 H
   0.0235400000000000    0.3359300000000000    0.5235350000000000 H
   0.0245450000000000    0.0490800000000000    0.7837100000000000 H
   0.0235450000000000    0.0470900000000000    0.6679550000000000 H
   0.2837050000000000    0.0490800000000000    0.5245400000000000 H
   0.1679550000000000    0.0470900000000000    0.5235450000000000 H
   0.2162900000000000    0.9509300000000001    0.9754650000000000 H
   0.3320400000000000    0.9529300000000001    0.9764600000000000 H
   0.4754500000000000    0.9509400000000000    0.7162900000000000 H
   0.4764500000000000    0.9529300000000001    0.8320449999999999 H
   0.4754500000000000    0.4326000000000000    0.9754600000000000 H
   0.4764550000000000    0.6640900000000000    0.9764650000000000 H
   0.5241950000000000    0.3358900000000000    0.7839650000000000 H
   0.7839600000000000    0.0483900000000000    0.6679349999999999 H
   0.6679300000000000    0.5679300000000000    0.5241950000000000 H
   0.8320600000000000    0.9516400000000000    0.7160299999999999 H
   0.9757950000000000    0.4321000000000000    0.8320650000000001 H
   0.7160350000000000    0.6641300000000000    0.9758100000000001 H
   0.9758050000000000    0.6641300000000000    0.7160350000000000 H
   0.7160350000000000    0.9516300000000000    0.8320650000000001 H
   0.8320650000000001    0.4320900000000000    0.9758050000000000 H
   0.6679300000000000    0.0483800000000000    0.7839700000000001 H
   0.5242000000000000    0.5679200000000000    0.6679349999999999 H
   0.7839600000000000    0.3358900000000000    0.5241900000000000 H
   0.5245450000000000    0.5674200000000000    0.5245400000000000 H
   0.5235400000000000    0.3359300000000000    0.5235350000000000 H
   0.5245450000000000    0.0490800000000000    0.7837100000000000 H
   0.5235450000000000    0.0470900000000000    0.6679550000000000 H
   0.7837050000000000    0.0490800000000000    0.5245400000000000 H
   0.6679550000000000    0.0470900000000000    0.5235450000000000 H
   0.7162900000000000    0.9509300000000001    0.9754650000000000 H
   0.8320400000000000    0.9529300000000001    0.9764600000000000 H
   0.9754499999999999    0.9509400000000000    0.7162900000000000 H
   0.9764500000000000    0.9529300000000001    0.8320449999999999 H
   0.9754499999999999    0.4326000000000000    0.9754600000000000 H
   0.9764550000000001    0.6640900000000000    0.9764650000000000 H
   0.0134000000000000    0.4077800000000000    0.2694800000000000 C
   0.2694750000000000    0.0268100000000000    0.2038850000000000 C
   0.2038800000000000    0.5389600000000000    0.0134000000000000 C
   0.2961100000000000    0.9732100000000000    0.2305200000000000 C
   0.2305200000000000    0.5922400000000000    0.4866000000000000 C
   0.2305200000000000    0.9732000000000000    0.2961150000000000 C
   0.2961150000000000    0.4610600000000000    0.4865950000000000 C
   0.2038800000000000    0.0268000000000000    0.2694800000000000 C
   0.0134050000000000    0.5389600000000000    0.2038850000000000 C
   0.2694750000000000    0.4077800000000000    0.0134000000000000 C
   0.0554900000000000    0.3885900000000000    0.0554800000000000 C
   0.0268200000000000    0.4460900000000000    0.0268200000000000 C
   0.0136000000000000    0.5386500000000000    0.0136000000000000 C
   0.0130400000000000    0.4078100000000000    0.0130400000000000 C
   0.0554900000000000    0.1109800000000000    0.1942900000000000 C
   0.0268250000000000    0.0536400000000000    0.2230400000000000 C
   0.0136000000000000    0.0272100000000000    0.2693200000000000 C
   0.0130400000000000    0.0260900000000000    0.2035000000000000 C
   0.1942800000000000    0.1109900000000000    0.0554950000000000 C
   0.2230350000000000    0.0536600000000000    0.0268200000000000 C
   0.2693150000000000    0.0272000000000000    0.0136000000000000 C
   0.2038950000000000    0.0260800000000000    0.0130400000000000 C
   0.3057150000000000    0.8890200000000000    0.4445100000000000 C
   0.2769600000000000    0.9463700000000000    0.4731500000000000 C
   0.2306800000000000    0.9728100000000000    0.4864050000000000 C
   0.2961000000000000    0.9739300000000000    0.4869600000000000 C
   0.4445000000000000    0.8890500000000000    0.3057100000000000 C
   0.4731750000000000    0.9463700000000000    0.2769600000000000 C
   0.4863950000000000    0.9728200000000000    0.2306800000000000 C
   0.4869550000000000    0.9739300000000000    0.2961050000000000 C
   0.4445050000000000    0.6114300000000000    0.4445200000000000 C
   0.4731750000000000    0.5539300000000000    0.4731850000000000 C
   0.4863950000000000    0.4613700000000000    0.4864000000000000 C
   0.4869600000000000    0.5922100000000000    0.4869600000000000 C
   0.0557950000000000    0.3891000000000000    0.1945500000000000 C
   0.0269800000000000    0.4464000000000000    0.2232000000000000 C
   0.1945500000000000    0.1115800000000000    0.1945550000000000 C
   0.2231950000000000    0.0539600000000000    0.2232000000000000 C
   0.1945500000000000    0.3891200000000000    0.0557850000000000 C
   0.2231950000000000    0.4464100000000000    0.0269750000000000 C
   0.3054450000000000    0.8884200000000000    0.3054450000000000 C
   0.2768000000000000    0.9460900000000000    0.2768000000000000 C
   0.3054450000000000    0.6109000000000000    0.4442050000000000 C
   0.2767950000000000    0.5536100000000000    0.4730400000000000 C
   0.7694750000000000    0.0268100000000000    0.2038850000000000 C
   0.7038800000000001    0.5389600000000000    0.0134000000000000 C
   0.7961100000000000    0.9732100000000000    0.2305200000000000 C
   0.9865850000000000    0.4610600000000000    0.2961150000000000 C
   0.7305200000000001    0.5922400000000000    0.4866000000000000 C
   0.9865900000000001    0.5922400000000000    0.2305000000000000 C
   0.7305200000000001    0.9732000000000000    0.2961150000000000 C
   0.7961150000000000    0.4610600000000000    0.4865950000000000 C
   0.7038800000000001    0.0268000000000000    0.2694800000000000 C
   0.7694750000000000    0.4077800000000000    0.0134000000000000 C
   0.5554900000000000    0.3885900000000000    0.0554800000000000 C
   0.5268200000000000    0.4460900000000000    0.0268200000000000 C
   0.5135999999999999    0.5386500000000000    0.0136000000000000 C
   0.5130400000000001    0.4078100000000000    0.0130400000000000 C
   0.5554900000000000    0.1109800000000000    0.1942900000000000 C
   0.5268250000000000    0.0536400000000000    0.2230400000000000 C
   0.5135999999999999    0.0272100000000000    0.2693200000000000 C
   0.5130400000000001    0.0260900000000000    0.2035000000000000 C
   0.6942800000000000    0.1109900000000000    0.0554950000000000 C
   0.7230350000000000    0.0536600000000000    0.0268200000000000 C
   0.7693150000000000    0.0272000000000000    0.0136000000000000 C
   0.7038949999999999    0.0260800000000000    0.0130400000000000 C
   0.8057150000000000    0.8890200000000000    0.4445100000000000 C
   0.7769600000000000    0.9463700000000000    0.4731500000000000 C
   0.7306800000000000    0.9728100000000000    0.4864050000000000 C
   0.7961000000000000    0.9739300000000000    0.4869600000000000 C
   0.9445000000000000    0.8890500000000000    0.3057100000000000 C
   0.9731750000000000    0.9463700000000000    0.2769600000000000 C
   0.9863950000000000    0.9728200000000000    0.2306800000000000 C
   0.9869550000000000    0.9739300000000000    0.2961050000000000 C
   0.9445049999999999    0.6114300000000000    0.4445200000000000 C
   0.9731750000000000    0.5539300000000000    0.4731850000000000 C
   0.9863950000000000    0.4613700000000000    0.4864000000000000 C
   0.9869600000000001    0.5922100000000000    0.4869600000000000 C
   0.6945500000000000    0.1115800000000000    0.1945550000000000 C
   0.7231950000000000    0.0539600000000000    0.2232000000000000 C
   0.6945500000000000    0.3891200000000000    0.0557850000000000 C
   0.7231950000000000    0.4464100000000000    0.0269750000000000 C
   0.8054450000000000    0.8884200000000000    0.3054450000000000 C
   0.7767999999999999    0.9460900000000000    0.2768000000000000 C
   0.9441850000000001    0.6109200000000000    0.3054500000000000 C
   0.9730250000000000    0.5536100000000000    0.2768000000000000 C
   0.8054450000000000    0.6109000000000000    0.4442050000000000 C
   0.7767950000000000    0.5536100000000000    0.4730400000000000 C
   0.0134000000000000    0.4077800000000000    0.7694799999999999 C
   0.2694750000000000    0.0268100000000000    0.7038850000000000 C
   0.2038800000000000    0.5389600000000000    0.5134000000000000 C
   0.2961100000000000    0.9732100000000000    0.7305200000000001 C
   0.4865850000000000    0.4610600000000000    0.7961150000000000 C
   0.2305200000000000    0.5922400000000000    0.9865999999999999 C
   0.4865900000000000    0.5922400000000000    0.7305000000000000 C
   0.2305200000000000    0.9732000000000000    0.7961150000000000 C
   0.2961150000000000    0.4610600000000000    0.9865950000000000 C
   0.2038800000000000    0.0268000000000000    0.7694799999999999 C
   0.0134050000000000    0.5389600000000000    0.7038850000000000 C
   0.2694750000000000    0.4077800000000000    0.5134000000000000 C
   0.0554900000000000    0.3885900000000000    0.5554800000000000 C
   0.0268200000000000    0.4460900000000000    0.5268200000000000 C
   0.0136000000000000    0.5386500000000000    0.5135999999999999 C
   0.0130400000000000    0.4078100000000000    0.5130400000000001 C
   0.0554900000000000    0.1109800000000000    0.6942900000000000 C
   0.0268250000000000    0.0536400000000000    0.7230400000000000 C
   0.0136000000000000    0.0272100000000000    0.7693200000000000 C
   0.0130400000000000    0.0260900000000000    0.7035000000000000 C
   0.1942800000000000    0.1109900000000000    0.5554950000000000 C
   0.2230350000000000    0.0536600000000000    0.5268200000000000 C
   0.2693150000000000    0.0272000000000000    0.5135999999999999 C
   0.2038950000000000    0.0260800000000000    0.5130400000000001 C
   0.3057150000000000    0.8890200000000000    0.9445100000000000 C
   0.2769600000000000    0.9463700000000000    0.9731500000000000 C
   0.2306800000000000    0.9728100000000000    0.9864050000000000 C
   0.2961000000000000    0.9739300000000000    0.9869600000000001 C
   0.4445000000000000    0.8890500000000000    0.8057099999999999 C
   0.4731750000000000    0.9463700000000000    0.7769600000000000 C
   0.4863950000000000    0.9728200000000000    0.7306800000000000 C
   0.4869550000000000    0.9739300000000000    0.7961050000000001 C
   0.4445050000000000    0.6114300000000000    0.9445200000000000 C
   0.4731750000000000    0.5539300000000000    0.9731850000000000 C
   0.4863950000000000    0.4613700000000000    0.9863999999999999 C
   0.4869600000000000    0.5922100000000000    0.9869600000000001 C
   0.0557950000000000    0.3891000000000000    0.6945500000000000 C
   0.0269800000000000    0.4464000000000000    0.7232000000000001 C
   0.1945500000000000    0.1115800000000000    0.6945550000000000 C
   0.2231950000000000    0.0539600000000000    0.7232000000000001 C
   0.1945500000000000    0.3891200000000000    0.5557850000000000 C
   0.2231950000000000    0.4464100000000000    0.5269750000000000 C
   0.3054450000000000    0.8884200000000000    0.8054450000000000 C
   0.2768000000000000    0.9460900000000000    0.7767999999999999 C
   0.4441850000000000    0.6109200000000000    0.8054500000000000 C
   0.4730250000000000    0.5536100000000000    0.7767999999999999 C
   0.3054450000000000    0.6109000000000000    0.9442050000000000 C
   0.2767950000000000    0.5536100000000000    0.9730400000000000 C
   0.5134000000000000    0.4077800000000000    0.7694799999999999 C
   0.7694750000000000    0.0268100000000000    0.7038850000000000 C
   0.7038800000000001    0.5389600000000000    0.5134000000000000 C
   0.7961100000000000    0.9732100000000000    0.7305200000000001 C
   0.9865850000000000    0.4610600000000000    0.7961150000000000 C
   0.7305200000000001    0.5922400000000000    0.9865999999999999 C
   0.9865900000000001    0.5922400000000000    0.7305000000000000 C
   0.7305200000000001    0.9732000000000000    0.7961150000000000 C
   0.7961150000000000    0.4610600000000000    0.9865950000000000 C
   0.7038800000000001    0.0268000000000000    0.7694799999999999 C
   0.5134050000000000    0.5389600000000000    0.7038850000000000 C
   0.7694750000000000    0.4077800000000000    0.5134000000000000 C
   0.5554900000000000    0.3885900000000000    0.5554800000000000 C
   0.5268200000000000    0.4460900000000000    0.5268200000000000 C
   0.5135999999999999    0.5386500000000000    0.5135999999999999 C
   0.5130400000000001    0.4078100000000000    0.5130400000000001 C
   0.5554900000000000    0.1109800000000000    0.6942900000000000 C
   0.5268250000000000    0.0536400000000000    0.7230400000000000 C
   0.5135999999999999    0.0272100000000000    0.7693200000000000 C
   0.5130400000000001    0.0260900000000000    0.7035000000000000 C
   0.6942800000000000    0.1109900000000000    0.5554950000000000 C
   0.7230350000000000    0.0536600000000000    0.5268200000000000 C
   0.7693150000000000    0.0272000000000000    0.5135999999999999 C
   0.7038949999999999    0.0260800000000000    0.5130400000000001 C
   0.8057150000000000    0.8890200000000000    0.9445100000000000 C
   0.7769600000000000    0.9463700000000000    0.9731500000000000 C
   0.7306800000000000    0.9728100000000000    0.9864050000000000 C
   0.7961000000000000    0.9739300000000000    0.9869600000000001 C
   0.9445000000000000    0.8890500000000000    0.8057099999999999 C
   0.9731750000000000    0.9463700000000000    0.7769600000000000 C
   0.9863950000000000    0.9728200000000000    0.7306800000000000 C
   0.9869550000000000    0.9739300000000000    0.7961050000000001 C
   0.9445049999999999    0.6114300000000000    0.9445200000000000 C
   0.9731750000000000    0.5539300000000000    0.9731850000000000 C
   0.9863950000000000    0.4613700000000000    0.9863999999999999 C
   0.9869600000000001    0.5922100000000000    0.9869600000000001 C
   0.5557950000000000    0.3891000000000000    0.6945500000000000 C
   0.5269800000000000    0.4464000000000000    0.7232000000000001 C
   0.6945500000000000    0.1115800000000000    0.6945550000000000 C
   0.7231950000000000    0.0539600000000000    0.7232000000000001 C
   0.6945500000000000    0.3891200000000000    0.5557850000000000 C
   0.7231950000000000    0.4464100000000000    0.5269750000000000 C
   0.8054450000000000    0.8884200000000000    0.8054450000000000 C
   0.7767999999999999    0.9460900000000000    0.7767999999999999 C
   0.9441850000000001    0.6109200000000000    0.8054500000000000 C
   0.9730250000000000    0.5536100000000000    0.7767999999999999 C
   0.8054450000000000    0.6109000000000000    0.9442050000000000 C
   0.7767950000000000    0.5536100000000000    0.9730400000000000 C
   0.0669300000000000    0.4285600000000000    0.1527150000000000 O
   0.1527150000000000    0.1337900000000000    0.2142950000000000 O
   0.2142850000000000    0.3054600000000000    0.0669400000000000 O
   0.2857100000000000    0.8661200000000000    0.3472750000000000 O
   0.3472750000000000    0.5714399999999999    0.4331000000000000 O
   0.3472800000000000    0.8662400000000000    0.2857000000000000 O
   0.2857100000000000    0.6945600000000000    0.4330650000000000 O
   0.2142800000000000    0.1339100000000000    0.1527250000000000 O
   0.0669200000000000    0.3054400000000000    0.2142800000000000 O
   0.1527150000000000    0.4285800000000000    0.0665000000000000 O
   0.0663300000000000    0.3048900000000000    0.0663650000000000 O
   0.0667400000000000    0.4280700000000000    0.0667000000000000 O
   0.0663300000000000    0.1327500000000000    0.1524400000000000 O
   0.0667350000000000    0.1334200000000000    0.2140350000000000 O
   0.1524300000000000    0.1327200000000000    0.0663550000000000 O
   0.2140250000000000    0.1334700000000000    0.0667200000000000 O
   0.3475650000000000    0.8673000000000000    0.4336400000000000 O
   0.2859700000000000    0.8665500000000000    0.4332800000000000 O
   0.4336650000000000    0.8672700000000000    0.3475600000000000 O
   0.4332600000000000    0.8666000000000000    0.2859650000000000 O
   0.4336600000000000    0.6951200000000000    0.4336350000000000 O
   0.4332550000000000    0.5719400000000000    0.4333000000000000 O
   0.1249550000000000    0.2499200000000000    0.1249600000000000 O
   0.3750400000000000    0.7501000000000000    0.3750400000000000 O
   0.6527149999999999    0.1337900000000000    0.2142950000000000 O
   0.7142850000000001    0.3054600000000000    0.0669400000000000 O
   0.7857100000000000    0.8661200000000000    0.3472750000000000 O
   0.9330750000000000    0.6945800000000000    0.2857200000000000 O
   0.8472750000000000    0.5714399999999999    0.4331000000000000 O
   0.9330650000000000    0.5714600000000000    0.3472850000000000 O
   0.8472800000000000    0.8662400000000000    0.2857000000000000 O
   0.7857100000000000    0.6945600000000000    0.4330650000000000 O
   0.7142800000000000    0.1339100000000000    0.1527250000000000 O
   0.6527149999999999    0.4285800000000000    0.0665000000000000 O
   0.5663300000000000    0.3048900000000000    0.0663650000000000 O
   0.5667400000000000    0.4280700000000000    0.0667000000000000 O
   0.5663300000000000    0.1327500000000000    0.1524400000000000 O
   0.5667350000000000    0.1334200000000000    0.2140350000000000 O
   0.6524300000000001    0.1327200000000000    0.0663550000000000 O
   0.7140250000000000    0.1334700000000000    0.0667200000000000 O
   0.8475650000000000    0.8673000000000000    0.4336400000000000 O
   0.7859700000000001    0.8665500000000000    0.4332800000000000 O
   0.9336650000000000    0.8672700000000000    0.3475600000000000 O
   0.9332600000000000    0.8666000000000000    0.2859650000000000 O
   0.9336599999999999    0.6951200000000000    0.4336350000000000 O
   0.9332549999999999    0.5719400000000000    0.4333000000000000 O
   0.6249550000000000    0.2499200000000000    0.1249600000000000 O
   0.8750400000000000    0.7501000000000000    0.3750400000000000 O
   0.0669300000000000    0.4285600000000000    0.6527149999999999 O
   0.1527150000000000    0.1337900000000000    0.7142950000000000 O
   0.2142850000000000    0.3054600000000000    0.5669400000000000 O
   0.2857100000000000    0.8661200000000000    0.8472750000000000 O
   0.4330750000000000    0.6945800000000000    0.7857200000000000 O
   0.3472750000000000    0.5714399999999999    0.9331000000000000 O
   0.4330650000000000    0.5714600000000000    0.8472850000000001 O
   0.3472800000000000    0.8662400000000000    0.7857000000000001 O
   0.2857100000000000    0.6945600000000000    0.9330650000000000 O
   0.2142800000000000    0.1339100000000000    0.6527250000000000 O
   0.0669200000000000    0.3054400000000000    0.7142800000000000 O
   0.1527150000000000    0.4285800000000000    0.5665000000000000 O
   0.0663300000000000    0.3048900000000000    0.5663650000000000 O
   0.0667400000000000    0.4280700000000000    0.5667000000000000 O
   0.0663300000000000    0.1327500000000000    0.6524400000000000 O
   0.0667350000000000    0.1334200000000000    0.7140350000000000 O
   0.1524300000000000    0.1327200000000000    0.5663549999999999 O
   0.2140250000000000    0.1334700000000000    0.5667200000000000 O
   0.3475650000000000    0.8673000000000000    0.9336400000000000 O
   0.2859700000000000    0.8665500000000000    0.9332800000000000 O
   0.4336650000000000    0.8672700000000000    0.8475600000000000 O
   0.4332600000000000    0.8666000000000000    0.7859650000000000 O
   0.4336600000000000    0.6951200000000000    0.9336350000000000 O
   0.4332550000000000    0.5719400000000000    0.9333000000000000 O
   0.1249550000000000    0.2499200000000000    0.6249600000000000 O
   0.3750400000000000    0.7501000000000000    0.8750400000000000 O
   0.5669300000000000    0.4285600000000000    0.6527149999999999 O
   0.6527149999999999    0.1337900000000000    0.7142950000000000 O
   0.7142850000000001    0.3054600000000000    0.5669400000000000 O
   0.7857100000000000    0.8661200000000000    0.8472750000000000 O
   0.9330750000000000    0.6945800000000000    0.7857200000000000 O
   0.8472750000000000    0.5714399999999999    0.9331000000000000 O
   0.9330650000000000    0.5714600000000000    0.8472850000000001 O
   0.8472800000000000    0.8662400000000000    0.7857000000000001 O
   0.7857100000000000    0.6945600000000000    0.9330650000000000 O
   0.7142800000000000    0.1339100000000000    0.6527250000000000 O
   0.5669200000000000    0.3054400000000000    0.7142800000000000 O
   0.6527149999999999    0.4285800000000000    0.5665000000000000 O
   0.5663300000000000    0.3048900000000000    0.5663650000000000 O
   0.5667400000000000    0.4280700000000000    0.5667000000000000 O
   0.5663300000000000    0.1327500000000000    0.6524400000000000 O
   0.5667350000000000    0.1334200000000000    0.7140350000000000 O
   0.6524300000000001    0.1327200000000000    0.5663549999999999 O
   0.7140250000000000    0.1334700000000000    0.5667200000000000 O
   0.8475650000000000    0.8673000000000000    0.9336400000000000 O
   0.7859700000000001    0.8665500000000000    0.9332800000000000 O
   0.9336650000000000    0.8672700000000000    0.8475600000000000 O
   0.9332600000000000    0.8666000000000000    0.7859650000000000 O
   0.9336599999999999    0.6951200000000000    0.9336350000000000 O
   0.9332549999999999    0.5719400000000000    0.9333000000000000 O
   0.6249550000000000    0.2499200000000000    0.6249600000000000 O
   0.8750400000000000    0.7501000000000000    0.8750400000000000 O
