H6 O4
1.0
  12.7744939569268663    0.0000000000000000    6.4444680264889955
   6.3711446118167903   14.1457436025424421    3.2153989280410284
   0.0000000000000000    0.0000000000000000   31.6900000000000013
H O
6 4
direct
   0.1430257651781717    0.4162043873350706    0.9600407122486301 H
   0.4832589861824738    0.3553940874377909    0.8904413242119650 H
   0.3184950354726075    0.3821562199402830    0.9228377831278007 H
   0.4653758462518015    1.1109587013150788    0.7554999516847327 H
   0.5526111026310145    1.1090836762857783    0.8006540327365782 H
   0.6293934669763084    1.0986184786628441    0.8317474657321142 H
   0.2172500000000000    0.4162600000000000    0.9513450000000000 O
   0.4036200000000000    0.3822200000000000    0.9128650000000000 O
   0.5319500000000000    1.0820699999999999    0.7630150000000000 O
   0.6162700000000000    1.0814599999999999    0.8078400000000000 O
