H3 C6 N1 O2
1.0
  22.4076322837576711    0.0000000000000000   -8.1096803534973443
  -6.0991404069988659   21.5722673291818730   -8.0842024698807453
   0.0000000000000000    0.0000000000000000   15.2699999999999996
H C N O
3 6 1 2
direct
   0.9495300000000000    0.2652300000000000    0.0781300000000000 H
   0.9467200000000000    0.1006500000000000    0.1370200000000000 H
   0.0214200000000000    0.2858200000000000    0.3794900000000000 H
   0.9589299999999999    0.2425400000000000    0.1304500000000000 C
   0.9439800000000000    0.1779200000000000    0.0934300000000000 C
   0.9574100000000000    0.1508700000000000    0.1637100000000000 C
   0.9851700000000000    0.1899300000000000    0.2672700000000000 C
   0.9988899999999999    0.2541200000000000    0.2990300000000000 C
   0.9163600000000000    0.1393100000000000    0.9793600000000000 C
   0.9855300000000000    0.2797700000000000    0.2307900000000000 N
   0.9042400000000000    0.0806900000000000    0.9496000000000000 O
   0.9088800000000000    0.1695800000000000    0.9237400000000000 O
