H4 C8 O9
1.0
  36.8298868894992992    0.0000000000000000    0.0912781829752019
   0.0190612944700715   11.0958786088818311    0.8512501477307993
   0.0000000000000000    0.0000000000000000   36.5730000000000004
H C O
4 8 9
direct
   0.7900250000000000    0.4423300000000000    0.8026966666666666 H
   0.7776475000000000    0.5701000000000001    0.7265233333333333 H
   0.8529175000000000    0.4939100000000000    0.7987933333333332 H
   0.8376800000000000    0.7351700000000000    0.7816799999999999 H
   0.7342975000000000    0.5385500000000000    0.7662866666666667 C
   0.8131800000000000    0.6562900000000000    0.8311433333333333 C
   0.7993600000000000    0.4670800000000000    0.7745633333333333 C
   0.7739800000000000    0.5639500000000000    0.7564233333333333 C
   0.8353050000000000    0.5378100000000000    0.7776466666666666 C
   0.8201075000000000    0.6578400000000000    0.7896700000000000 C
   0.8013749999999999    0.3545600000000000    0.7531333333333333 C
   0.8572675000000000    0.5601400000000000    0.7419533333333332 C
   0.7187675000000000    0.5933500000000000    0.7914800000000000 O
   0.7199275000000001    0.4588500000000000    0.7482366666666667 O
   0.7860675000000000    0.6773200000000000    0.7700066666666666 O
   0.8436550000000000    0.6405900000000000    0.7185900000000000 O
   0.7821325000000000    0.6874300000000000    0.8427699999999999 O
   0.8393425000000000    0.6244000000000000    0.8520200000000000 O
   0.7922400000000001    0.2544800000000000    0.7719033333333333 O
   0.8874325000000001    0.5105700000000000    0.7374999999999999 O
   0.8109475000000000    0.3643400000000000    0.7206399999999999 O
