H10 C11 N3 O2
1.0
  30.6320000000000014    0.0000000000000000    0.0000000000000019
  -0.0231341591104070   19.2099822781236895    0.0120699981809175
   0.0000000000000000    0.0000000000000000   38.9699999999999989
H C N O
10 11 3 2
direct
   0.4031550000000000    0.7286400000000000    0.7399000000000000 H
   0.4621400000000000    0.6433600000000000    0.7285850000000000 H
   0.4973150000000000    0.8938900000000000    0.7457000000000000 H
   0.5574450000000000    0.8087400000000000    0.7387400000000000 H
   0.5001150000000000    0.5588000000000000    0.7630900000000000 H
   0.5181950000000000    0.6259400000000001    0.7913200000000000 H
   0.5482550000000000    0.5464000000000000    0.7883050000000000 H
   0.6005250000000000    0.7846600000000000    0.6919350000000000 H
   0.5570000000000001    0.7497500000000000    0.6671899999999999 H
   0.6118250000000000    0.7205600000000000    0.6600800000000000 H
   0.4097100000000000    0.8682100000000000    0.7489650000000000 C
   0.4462400000000000    0.8168200000000000    0.7435400000000000 C
   0.4369200000000000    0.7459700000000000    0.7390650000000000 C
   0.4701500000000000    0.6978900000000000    0.7331449999999999 C
   0.4898350000000000    0.8389200000000000    0.7425750000000000 C
   0.5134550000000000    0.7211000000000000    0.7329650000000000 C
   0.5235750000000000    0.7914000000000000    0.7379550000000000 C
   0.5291399999999999    0.5846000000000000    0.7738800000000000 C
   0.5571100000000000    0.6136000000000000    0.7464000000000000 C
   0.5831550000000000    0.6798300000000000    0.7048250000000000 C
   0.5882150000000000    0.7370800000000000    0.6795550000000000 C
   0.5945050000000001    0.5870400000000000    0.7352550000000000 N
   0.6108550000000000    0.6280100000000000    0.7089700000000000 N
   0.5486900000000000    0.6729200000000000    0.7277500000000000 N
   0.4218200000000000    0.9328900000000000    0.7513350000000000 O
   0.3710100000000000    0.8476500000000000    0.7507100000000000 O
