Zn32 H630 C693 N189 O126
1.0
  30.6320000000000014    0.0000000000000000    0.0000000000000019
  -0.0231341591104070   19.2099822781236895    0.0120699981809175
   0.0000000000000000    0.0000000000000000   38.9699999999999989
Zn H C N O
32 630 693 189 126
direct
   0.3776800000000000    0.4998800000000000    0.2513300000000000 Zn
   0.1223750000000000    0.5025500000000001    0.0000000000000000 Zn
   0.3723850000000000    0.5025500000000001    0.0000000000000000 Zn
   0.1223550000000000    0.9996300000000000    0.2499850000000000 Zn
   0.3723650000000000    0.9996300000000000    0.2499850000000000 Zn
   0.1276400000000000    0.0000000000000000    0.0000000000000000 Zn
   0.3776450000000000    0.0000000000000000    0.0000000000000000 Zn
   0.1276700000000000    0.4998800000000000    0.2513300000000000 Zn
   0.8776800000000000    0.4998800000000000    0.2513300000000000 Zn
   0.6223750000000000    0.5025500000000001    0.0000000000000000 Zn
   0.8723850000000000    0.5025500000000001    0.0000000000000000 Zn
   0.6223550000000000    0.9996300000000000    0.2499850000000000 Zn
   0.8723650000000001    0.9996300000000000    0.2499850000000000 Zn
   0.6276400000000000    0.0000000000000000    0.0000000000000000 Zn
   0.8776450000000000    0.0000000000000000    0.0000000000000000 Zn
   0.6276700000000000    0.4998800000000000    0.2513300000000000 Zn
   0.3776800000000000    0.4998800000000000    0.7513300000000001 Zn
   0.1223750000000000    0.5025500000000001    0.5000000000000000 Zn
   0.3723850000000000    0.5025500000000001    0.5000000000000000 Zn
   0.1223550000000000    0.9996300000000000    0.7499850000000000 Zn
   0.3723650000000000    0.9996300000000000    0.7499850000000000 Zn
   0.1276400000000000    0.0000000000000000    0.5000000000000000 Zn
   0.3776450000000000    0.0000000000000000    0.5000000000000000 Zn
   0.1276700000000000    0.4998800000000000    0.7513300000000001 Zn
   0.8776800000000000    0.4998800000000000    0.7513300000000001 Zn
   0.6223750000000000    0.5025500000000001    0.5000000000000000 Zn
   0.8723850000000000    0.5025500000000001    0.5000000000000000 Zn
   0.6223550000000000    0.9996300000000000    0.7499850000000000 Zn
   0.8723650000000001    0.9996300000000000    0.7499850000000000 Zn
   0.6276400000000000    0.0000000000000000    0.5000000000000000 Zn
   0.8776450000000000    0.0000000000000000    0.5000000000000000 Zn
   0.6276700000000000    0.4998800000000000    0.7513300000000001 Zn
   0.1531450000000000    0.7286400000000000    0.2399000000000000 H
   0.4031550000000000    0.7286400000000000    0.2399000000000000 H
   0.2121300000000000    0.6433600000000000    0.2285850000000000 H
   0.4621400000000000    0.6433600000000000    0.2285850000000000 H
   0.0574450000000000    0.8087400000000000    0.2387400000000000 H
   0.3074500000000000    0.8087400000000000    0.2387400000000000 H
   0.2473050000000000    0.8938900000000000    0.2457000000000000 H
   0.4973150000000000    0.8938900000000000    0.2457000000000000 H
   0.0001150000000000    0.5588000000000000    0.2630900000000000 H
   0.2501250000000000    0.5588000000000000    0.2630900000000000 H
   0.0181950000000000    0.6259400000000001    0.2913200000000000 H
   0.2682000000000000    0.6259400000000001    0.2913200000000000 H
   0.0482550000000000    0.5464000000000000    0.2883050000000000 H
   0.2982650000000000    0.5464000000000000    0.2883000000000000 H
   0.1005250000000000    0.7846600000000000    0.1919350000000000 H
   0.3505300000000000    0.7846600000000000    0.1919350000000000 H
   0.0570000000000000    0.7497500000000000    0.1671900000000000 H
   0.3070100000000000    0.7497500000000000    0.1671900000000000 H
   0.1118250000000000    0.7205600000000000    0.1600800000000000 H
   0.3618300000000000    0.7205600000000000    0.1600800000000000 H
   0.0757050000000000    0.5233700000000000    0.3808500000000000 H
   0.3257100000000000    0.5233700000000000    0.3808600000000000 H
   0.0161650000000000    0.5287400000000000    0.3376100000000000 H
   0.2661700000000000    0.5287400000000000    0.3376100000000000 H
   0.1706600000000000    0.5118900000000000    0.4187650000000000 H
   0.4206700000000000    0.5118900000000000    0.4187650000000000 H
   0.2302450000000000    0.5092800000000000    0.4614950000000000 H
   0.4802500000000000    0.5092800000000000    0.4614950000000000 H
   0.1820100000000000    0.3962400000000000    0.2924800000000000 H
   0.4320200000000000    0.3962400000000000    0.2924800000000000 H
   0.2065500000000000    0.3937800000000000    0.3342500000000000 H
   0.4565600000000000    0.3937800000000000    0.3342500000000000 H
   0.2328150000000000    0.4384400000000000    0.3001850000000000 H
   0.4828200000000000    0.4384400000000000    0.3001850000000000 H
   0.1232400000000000    0.6760800000000000    0.3600000000000000 H
   0.3732450000000000    0.6760800000000000    0.3600000000000000 H
   0.1759950000000000    0.6591000000000000    0.3823350000000000 H
   0.4260050000000000    0.6591000000000000    0.3823350000000000 H
   0.1297050000000000    0.6136700000000000    0.3983000000000000 H
   0.3797100000000000    0.6136700000000000    0.3983000000000000 H
   0.0962300000000000    0.2733400000000000    0.4900350000000000 H
   0.3462400000000000    0.2733400000000000    0.4900300000000000 H
   0.0371800000000000    0.3584300000000000    0.4785850000000000 H
   0.2871850000000000    0.3584300000000000    0.4785500000000000 H
   0.1920500000000000    0.1927200000000000    0.4885900000000000 H
   0.4420600000000000    0.1927200000000000    0.4885900000000000 H
   0.0022700000000000    0.1077400000000000    0.4955850000000000 H
   0.2522800000000000    0.1077400000000000    0.4955850000000000 H
   0.2494350000000000    0.4430900000000000    0.0130150000000000 H
   0.4994400000000000    0.4430900000000000    0.0130150000000000 H
   0.2318200000000000    0.3752500000000000    0.0410450000000000 H
   0.4818250000000000    0.3752500000000000    0.0410450000000000 H
   0.2014500000000000    0.4545600000000000    0.0385250000000000 H
   0.4514550000000000    0.4545600000000000    0.0385000000000000 H
   0.1485250000000000    0.2171800000000000    0.4422300000000000 H
   0.3985350000000000    0.2171800000000000    0.4422000000000000 H
   0.1918650000000000    0.2519500000000000    0.4172250000000000 H
   0.4418750000000000    0.2519500000000000    0.4172250000000000 H
   0.1370150000000000    0.2812800000000000    0.4103900000000000 H
   0.3870250000000000    0.2812900000000000    0.4103500000000000 H
   0.1744800000000000    0.4784800000000000    0.1308700000000000 H
   0.4244900000000000    0.4784800000000000    0.1308700000000000 H
   0.2340600000000000    0.4730500000000000    0.0876500000000000 H
   0.4840700000000000    0.4730500000000000    0.0876500000000000 H
   0.0794900000000000    0.4900100000000000    0.1688450000000000 H
   0.3294950000000000    0.4900100000000000    0.1688450000000000 H
   0.0198550000000000    0.4927200000000000    0.2115400000000000 H
   0.2698650000000000    0.4927200000000000    0.2115400000000000 H
   0.0680750000000000    0.6060400000000000    0.0426350000000000 H
   0.3180800000000000    0.6060400000000000    0.0426350000000000 H
   0.0435050000000000    0.6082400000000000    0.0844000000000000 H
   0.2935100000000000    0.6082400000000000    0.0844000000000000 H
   0.0173000000000000    0.5637000000000000    0.0502900000000000 H
   0.2673100000000000    0.5637000000000000    0.0502900000000000 H
   0.1270850000000000    0.3260200000000000    0.1145150000000000 H
   0.3770900000000000    0.3260200000000000    0.1145150000000000 H
   0.0742900000000000    0.3427600000000000    0.1323250000000000 H
   0.3243000000000000    0.3427600000000000    0.1323250000000000 H
   0.1205150000000000    0.3882700000000000    0.1483450000000000 H
   0.3705200000000000    0.3882700000000000    0.1483000000000000 H
   0.0970400000000000    0.2288800000000000    0.2397950000000000 H
   0.3470450000000000    0.2288800000000000    0.2397950000000000 H
   0.0379850000000000    0.1438600000000000    0.2278350000000000 H
   0.2879900000000000    0.1438600000000000    0.2278350000000000 H
   0.1927700000000000    0.3086000000000000    0.2395550000000000 H
   0.4427750000000000    0.3086000000000000    0.2395550000000000 H
   0.0029850000000000    0.3936600000000000    0.2471000000000000 H
   0.2529950000000000    0.3936600000000000    0.2471250000000000 H
   0.2501650000000000    0.0584400000000000    0.2617750000000000 H
   0.0000000000000000    0.0584400000000000    0.2617750000000000 H
   0.2318700000000000    0.1243200000000000    0.2906000000000000 H
   0.4818750000000000    0.1243200000000000    0.2906000000000000 H
   0.2020600000000000    0.0445200000000000    0.2868250000000000 H
   0.4520650000000000    0.0445200000000000    0.2868250000000000 H
   0.1497100000000000    0.2860300000000000    0.1925400000000000 H
   0.3997150000000000    0.2860300000000000    0.1925400000000000 H
   0.1930650000000000    0.2519300000000000    0.1674050000000000 H
   0.4430750000000000    0.2519300000000000    0.1674050000000000 H
   0.1381700000000000    0.2229700000000000    0.1602150000000000 H
   0.3881800000000000    0.2229600000000000    0.1602150000000000 H
   0.1746150000000000    0.0231700000000000    0.3796000000000000 H
   0.4246200000000000    0.0231800000000000    0.3796000000000000 H
   0.2341900000000000    0.0283300000000000    0.3363750000000000 H
   0.4842000000000000    0.0283300000000000    0.3363750000000000 H
   0.0796050000000000    0.0000000000000000    0.4176100000000000 H
   0.3296100000000000    0.0000000000000000    0.4176100000000000 H
   0.0200000000000000    0.0000000000000000    0.4603050000000000 H
   0.2700100000000000    0.0000000000000000    0.4603050000000000 H
   0.0682250000000000    0.8956600000000000    0.2915450000000000 H
   0.3182350000000000    0.8956499999999999    0.2915450000000000 H
   0.0436600000000000    0.8935100000000000    0.3333333333333333 H
   0.2936700000000000    0.8935100000000000    0.3333333333333333 H
   0.0174300000000000    0.9377500000000000    0.2991350000000000 H
   0.2674350000000000    0.9377500000000000    0.2991350000000000 H
   0.1272200000000000    0.1761800000000000    0.3629900000000000 H
   0.3772250000000000    0.1761800000000000    0.3629900000000000 H
   0.0744550000000000    0.1592500000000000    0.3808650000000000 H
   0.3244650000000000    0.1592500000000000    0.3808650000000000 H
   0.1207100000000000    0.1139800000000000    0.3968950000000000 H
   0.3707200000000000    0.1139800000000000    0.3968950000000000 H
   0.1536350000000000    0.7725600000000000    0.4897200000000000 H
   0.4036450000000000    0.7725600000000000    0.4897200000000000 H
   0.2126400000000000    0.8576400000000000    0.4777200000000000 H
   0.4626500000000000    0.8576400000000000    0.4777200000000000 H
   0.0579300000000000    0.6929600000000000    0.4893800000000000 H
   0.3079400000000000    0.6929600000000000    0.4893800000000000 H
   0.2477700000000000    0.6078300000000000    0.4969200000000000 H
   0.4977800000000000    0.6078300000000000    0.4969200000000000 H
   0.0001450000000000    0.9433800000000000    0.0115800000000000 H
   0.2501550000000000    0.9433800000000000    0.0115800000000000 H
   0.0181050000000000    0.8770500000000000    0.0403150000000000 H
   0.2681150000000000    0.8770500000000000    0.0403150000000000 H
   0.0480750000000000    0.9567600000000001    0.0369000000000000 H
   0.2980800000000000    0.9567600000000001    0.0369000000000000 H
   0.1013150000000000    0.7159799999999999    0.4427300000000000 H
   0.3513250000000000    0.7159799999999999    0.4427300000000000 H
   0.0581100000000000    0.7499700000000000    0.4173750000000000 H
   0.3081200000000000    0.7499700000000000    0.4173750000000000 H
   0.1130200000000000    0.7791600000000000    0.4104650000000000 H
   0.3630250000000000    0.7791600000000000    0.4104650000000000 H
   0.0752450000000000    0.9787900000000000    0.1295800000000000 H
   0.3252500000000000    0.9787800000000000    0.1295800000000000 H
   0.0156050000000000    0.9734800000000000    0.0864050000000000 H
   0.2656100000000000    0.9734800000000000    0.0864050000000000 H
   0.1703000000000000    0.9898800000000000    0.1676900000000000 H
   0.4203100000000000    0.9898700000000000    0.1676900000000000 H
   0.2299700000000000    0.9925200000000000    0.2103400000000000 H
   0.4799800000000000    0.9925100000000000    0.2103400000000000 H
   0.1816200000000000    0.1067200000000000    0.0417400000000000 H
   0.4316300000000000    0.1067200000000000    0.0417400000000000 H
   0.2063050000000000    0.1085100000000000    0.0834750000000000 H
   0.4563100000000000    0.1085100000000000    0.0834750000000000 H
   0.2324150000000000    0.0644900000000000    0.0491850000000000 H
   0.4824250000000000    0.0644900000000000    0.0491850000000000 H
   0.1224900000000000    0.8260000000000000    0.1130900000000000 H
   0.3725000000000000    0.8260000000000000    0.1130900000000000 H
   0.1752900000000000    0.8427200000000000    0.1309350000000000 H
   0.4253000000000000    0.8427200000000000    0.1309000000000000 H
   0.1291150000000000    0.8881400000000000    0.1469750000000000 H
   0.3791200000000000    0.8881300000000000    0.1469750000000000 H
   0.6531450000000000    0.7286400000000000    0.2399000000000000 H
   0.9031549999999999    0.7286400000000000    0.2399000000000000 H
   0.7121300000000000    0.6433600000000000    0.2285850000000000 H
   0.9621400000000000    0.6433600000000000    0.2285850000000000 H
   0.5574450000000000    0.8087400000000000    0.2387400000000000 H
   0.8074500000000000    0.8087400000000000    0.2387400000000000 H
   0.7473050000000000    0.8938900000000000    0.2457000000000000 H
   0.9973150000000000    0.8938900000000000    0.2457000000000000 H
   0.5001150000000000    0.5588000000000000    0.2630900000000000 H
   0.7501249999999999    0.5588000000000000    0.2630900000000000 H
   0.5181950000000000    0.6259400000000001    0.2913200000000000 H
   0.7682000000000000    0.6259400000000001    0.2913200000000000 H
   0.5482550000000000    0.5464000000000000    0.2883050000000000 H
   0.7982650000000000    0.5464000000000000    0.2883000000000000 H
   0.6005250000000000    0.7846600000000000    0.1919350000000000 H
   0.8505300000000000    0.7846600000000000    0.1919350000000000 H
   0.5570000000000001    0.7497500000000000    0.1671900000000000 H
   0.8070100000000000    0.7497500000000000    0.1671900000000000 H
   0.6118250000000000    0.7205600000000000    0.1600800000000000 H
   0.8618300000000000    0.7205600000000000    0.1600800000000000 H
   0.5757050000000000    0.5233700000000000    0.3808500000000000 H
   0.8257099999999999    0.5233700000000000    0.3808600000000000 H
   0.5161650000000000    0.5287400000000000    0.3376100000000000 H
   0.7661700000000000    0.5287400000000000    0.3376100000000000 H
   0.6706600000000000    0.5118900000000000    0.4187650000000000 H
   0.9206700000000000    0.5118900000000000    0.4187650000000000 H
   0.7302450000000000    0.5092800000000000    0.4614950000000000 H
   0.9802500000000001    0.5092800000000000    0.4614950000000000 H
   0.6820100000000000    0.3962400000000000    0.2924800000000000 H
   0.9320200000000001    0.3962400000000000    0.2924800000000000 H
   0.7065500000000000    0.3937800000000000    0.3342500000000000 H
   0.9565600000000001    0.3937800000000000    0.3342500000000000 H
   0.7328150000000000    0.4384400000000000    0.3001850000000000 H
   0.9828200000000000    0.4384400000000000    0.3001850000000000 H
   0.6232400000000000    0.6760800000000000    0.3600000000000000 H
   0.8732450000000000    0.6760800000000000    0.3600000000000000 H
   0.6759950000000000    0.6591000000000000    0.3823350000000000 H
   0.9260050000000000    0.6591000000000000    0.3823350000000000 H
   0.6297050000000000    0.6136700000000000    0.3983000000000000 H
   0.8797100000000000    0.6136700000000000    0.3983000000000000 H
   0.5962300000000000    0.2733400000000000    0.4900350000000000 H
   0.8462400000000000    0.2733400000000000    0.4900300000000000 H
   0.5371800000000000    0.3584300000000000    0.4785850000000000 H
   0.7871850000000000    0.3584300000000000    0.4785500000000000 H
   0.6920500000000001    0.1927200000000000    0.4885900000000000 H
   0.9420600000000000    0.1927200000000000    0.4885900000000000 H
   0.5022700000000000    0.1077400000000000    0.4955850000000000 H
   0.7522800000000001    0.1077400000000000    0.4955850000000000 H
   0.7494350000000000    0.4430900000000000    0.0130150000000000 H
   0.9994400000000000    0.4430900000000000    0.0130150000000000 H
   0.7318200000000000    0.3752500000000000    0.0410450000000000 H
   0.9818249999999999    0.3752500000000000    0.0410450000000000 H
   0.7014500000000000    0.4545600000000000    0.0385250000000000 H
   0.9514549999999999    0.4545600000000000    0.0385000000000000 H
   0.6485250000000000    0.2171800000000000    0.4422300000000000 H
   0.8985350000000000    0.2171800000000000    0.4422000000000000 H
   0.6918650000000000    0.2519500000000000    0.4172250000000000 H
   0.9418750000000000    0.2519500000000000    0.4172250000000000 H
   0.6370150000000000    0.2812800000000000    0.4103900000000000 H
   0.8870250000000000    0.2812900000000000    0.4103500000000000 H
   0.6744800000000000    0.4784800000000000    0.1308700000000000 H
   0.9244900000000000    0.4784800000000000    0.1308700000000000 H
   0.7340599999999999    0.4730500000000000    0.0876500000000000 H
   0.9840700000000000    0.4730500000000000    0.0876500000000000 H
   0.5794900000000001    0.4900100000000000    0.1688450000000000 H
   0.8294950000000000    0.4900100000000000    0.1688450000000000 H
   0.5198550000000000    0.4927200000000000    0.2115400000000000 H
   0.7698650000000000    0.4927200000000000    0.2115400000000000 H
   0.5680750000000000    0.6060400000000000    0.0426350000000000 H
   0.8180799999999999    0.6060400000000000    0.0426350000000000 H
   0.5435050000000000    0.6082400000000000    0.0844000000000000 H
   0.7935099999999999    0.6082400000000000    0.0844000000000000 H
   0.5173000000000000    0.5637000000000000    0.0502900000000000 H
   0.7673099999999999    0.5637000000000000    0.0502900000000000 H
   0.6270850000000000    0.3260200000000000    0.1145150000000000 H
   0.8770899999999999    0.3260200000000000    0.1145150000000000 H
   0.5742900000000000    0.3427600000000000    0.1323250000000000 H
   0.8243000000000000    0.3427600000000000    0.1323250000000000 H
   0.6205150000000000    0.3882700000000000    0.1483450000000000 H
   0.8705200000000000    0.3882700000000000    0.1483000000000000 H
   0.5970400000000000    0.2288800000000000    0.2397950000000000 H
   0.8470450000000000    0.2288800000000000    0.2397950000000000 H
   0.5379850000000000    0.1438600000000000    0.2278350000000000 H
   0.7879900000000000    0.1438600000000000    0.2278350000000000 H
   0.6927700000000000    0.3086000000000000    0.2395550000000000 H
   0.9427749999999999    0.3086000000000000    0.2395550000000000 H
   0.5029850000000000    0.3936600000000000    0.2471000000000000 H
   0.7529950000000001    0.3936600000000000    0.2471250000000000 H
   0.7501650000000000    0.0584400000000000    0.2617750000000000 H
   0.5000000000000000    0.0584400000000000    0.2617750000000000 H
   0.7318700000000000    0.1243200000000000    0.2906000000000000 H
   0.9818750000000001    0.1243200000000000    0.2906000000000000 H
   0.7020600000000000    0.0445200000000000    0.2868250000000000 H
   0.9520649999999999    0.0445200000000000    0.2868250000000000 H
   0.6497100000000000    0.2860300000000000    0.1925400000000000 H
   0.8997150000000000    0.2860300000000000    0.1925400000000000 H
   0.6930650000000000    0.2519300000000000    0.1674050000000000 H
   0.9430750000000000    0.2519300000000000    0.1674050000000000 H
   0.6381700000000000    0.2229700000000000    0.1602150000000000 H
   0.8881800000000000    0.2229600000000000    0.1602150000000000 H
   0.6746150000000000    0.0231700000000000    0.3796000000000000 H
   0.9246200000000000    0.0231800000000000    0.3796000000000000 H
   0.7341900000000000    0.0283300000000000    0.3363750000000000 H
   0.9842000000000000    0.0283300000000000    0.3363750000000000 H
   0.5796050000000000    0.0000000000000000    0.4176100000000000 H
   0.8296100000000000    0.0000000000000000    0.4176100000000000 H
   0.5200000000000000    0.0000000000000000    0.4603050000000000 H
   0.7700100000000000    0.0000000000000000    0.4603050000000000 H
   0.5682250000000000    0.8956600000000000    0.2915450000000000 H
   0.8182350000000000    0.8956499999999999    0.2915450000000000 H
   0.5436600000000000    0.8935100000000000    0.3333333333333333 H
   0.7936700000000000    0.8935100000000000    0.3333333333333333 H
   0.5174300000000001    0.9377500000000000    0.2991350000000000 H
   0.7674350000000000    0.9377500000000000    0.2991350000000000 H
   0.6272200000000000    0.1761800000000000    0.3629900000000000 H
   0.8772249999999999    0.1761800000000000    0.3629900000000000 H
   0.5744549999999999    0.1592500000000000    0.3808650000000000 H
   0.8244650000000000    0.1592500000000000    0.3808650000000000 H
   0.6207100000000000    0.1139800000000000    0.3968950000000000 H
   0.8707199999999999    0.1139800000000000    0.3968950000000000 H
   0.6536350000000000    0.7725600000000000    0.4897200000000000 H
   0.9036450000000000    0.7725600000000000    0.4897200000000000 H
   0.7126399999999999    0.8576400000000000    0.4777200000000000 H
   0.9626500000000000    0.8576400000000000    0.4777200000000000 H
   0.5579300000000000    0.6929600000000000    0.4893800000000000 H
   0.8079400000000000    0.6929600000000000    0.4893800000000000 H
   0.7477700000000000    0.6078300000000000    0.4969200000000000 H
   0.9977800000000000    0.6078300000000000    0.4969200000000000 H
   0.5001450000000000    0.9433800000000000    0.0115800000000000 H
   0.7501550000000000    0.9433800000000000    0.0115800000000000 H
   0.5181050000000000    0.8770500000000000    0.0403150000000000 H
   0.7681150000000000    0.8770500000000000    0.0403150000000000 H
   0.5480750000000000    0.9567600000000001    0.0369000000000000 H
   0.7980800000000000    0.9567600000000001    0.0369000000000000 H
   0.6013150000000000    0.7159799999999999    0.4427300000000000 H
   0.8513250000000000    0.7159799999999999    0.4427300000000000 H
   0.5581100000000000    0.7499700000000000    0.4173750000000000 H
   0.8081199999999999    0.7499700000000000    0.4173750000000000 H
   0.6130200000000000    0.7791600000000000    0.4104650000000000 H
   0.8630249999999999    0.7791600000000000    0.4104650000000000 H
   0.5752450000000000    0.9787900000000000    0.1295800000000000 H
   0.8252500000000000    0.9787800000000000    0.1295800000000000 H
   0.5156050000000000    0.9734800000000000    0.0864050000000000 H
   0.7656100000000000    0.9734800000000000    0.0864050000000000 H
   0.6703000000000000    0.9898800000000000    0.1676900000000000 H
   0.9203100000000000    0.9898700000000000    0.1676900000000000 H
   0.7299700000000000    0.9925200000000000    0.2103400000000000 H
   0.9799800000000001    0.9925100000000000    0.2103400000000000 H
   0.6816200000000000    0.1067200000000000    0.0417400000000000 H
   0.9316300000000000    0.1067200000000000    0.0417400000000000 H
   0.7063050000000000    0.1085100000000000    0.0834750000000000 H
   0.9563100000000000    0.1085100000000000    0.0834750000000000 H
   0.7324150000000000    0.0644900000000000    0.0491850000000000 H
   0.9824250000000000    0.0644900000000000    0.0491850000000000 H
   0.6224900000000000    0.8260000000000000    0.1130900000000000 H
   0.8725000000000001    0.8260000000000000    0.1130900000000000 H
   0.6752899999999999    0.8427200000000000    0.1309350000000000 H
   0.9253000000000000    0.8427200000000000    0.1309000000000000 H
   0.6291150000000000    0.8881400000000000    0.1469750000000000 H
   0.8791200000000000    0.8881300000000000    0.1469750000000000 H
   0.1531450000000000    0.7286400000000000    0.7399000000000000 H
   0.2121300000000000    0.6433600000000000    0.7285850000000000 H
   0.0574450000000000    0.8087400000000000    0.7387400000000000 H
   0.3074500000000000    0.8087400000000000    0.7387400000000000 H
   0.2473050000000000    0.8938900000000000    0.7457000000000000 H
   0.0001150000000000    0.5588000000000000    0.7630900000000000 H
   0.2501250000000000    0.5588000000000000    0.7630900000000000 H
   0.0181950000000000    0.6259400000000001    0.7913200000000000 H
   0.2682000000000000    0.6259400000000001    0.7913200000000000 H
   0.0482550000000000    0.5464000000000000    0.7883050000000000 H
   0.2982650000000000    0.5464000000000000    0.7883000000000000 H
   0.1005250000000000    0.7846600000000000    0.6919350000000000 H
   0.3505300000000000    0.7846600000000000    0.6919350000000000 H
   0.0570000000000000    0.7497500000000000    0.6671899999999999 H
   0.3070100000000000    0.7497500000000000    0.6671899999999999 H
   0.1118250000000000    0.7205600000000000    0.6600800000000000 H
   0.3618300000000000    0.7205600000000000    0.6600800000000000 H
   0.0757050000000000    0.5233700000000000    0.8808500000000000 H
   0.3257100000000000    0.5233700000000000    0.8808600000000000 H
   0.0161650000000000    0.5287400000000000    0.8376100000000000 H
   0.2661700000000000    0.5287400000000000    0.8376100000000000 H
   0.1706600000000000    0.5118900000000000    0.9187650000000001 H
   0.4206700000000000    0.5118900000000000    0.9187650000000001 H
   0.2302450000000000    0.5092800000000000    0.9614950000000000 H
   0.4802500000000000    0.5092800000000000    0.9614950000000000 H
   0.1820100000000000    0.3962400000000000    0.7924800000000001 H
   0.4320200000000000    0.3962400000000000    0.7924800000000001 H
   0.2065500000000000    0.3937800000000000    0.8342499999999999 H
   0.4565600000000000    0.3937800000000000    0.8342499999999999 H
   0.2328150000000000    0.4384400000000000    0.8001849999999999 H
   0.4828200000000000    0.4384400000000000    0.8001849999999999 H
   0.1232400000000000    0.6760800000000000    0.8600000000000000 H
   0.3732450000000000    0.6760800000000000    0.8600000000000000 H
   0.1759950000000000    0.6591000000000000    0.8823350000000000 H
   0.4260050000000000    0.6591000000000000    0.8823350000000000 H
   0.1297050000000000    0.6136700000000000    0.8983000000000000 H
   0.3797100000000000    0.6136700000000000    0.8983000000000000 H
   0.0962300000000000    0.2733400000000000    0.9900350000000000 H
   0.3462400000000000    0.2733400000000000    0.9900300000000000 H
   0.0371800000000000    0.3584300000000000    0.9785850000000000 H
   0.2871850000000000    0.3584300000000000    0.9785500000000000 H
   0.1920500000000000    0.1927200000000000    0.9885900000000001 H
   0.4420600000000000    0.1927200000000000    0.9885900000000001 H
   0.0022700000000000    0.1077400000000000    0.9955849999999999 H
   0.2522800000000000    0.1077400000000000    0.9955849999999999 H
   0.2494350000000000    0.4430900000000000    0.5130150000000000 H
   0.4994400000000000    0.4430900000000000    0.5130150000000000 H
   0.2318200000000000    0.3752500000000000    0.5410450000000000 H
   0.4818250000000000    0.3752500000000000    0.5410450000000000 H
   0.2014500000000000    0.4545600000000000    0.5385250000000000 H
   0.4514550000000000    0.4545600000000000    0.5385000000000000 H
   0.1485250000000000    0.2171800000000000    0.9422300000000000 H
   0.3985350000000000    0.2171800000000000    0.9421999999999999 H
   0.1918650000000000    0.2519500000000000    0.9172250000000000 H
   0.4418750000000000    0.2519500000000000    0.9172250000000000 H
   0.1370150000000000    0.2812800000000000    0.9103900000000000 H
   0.3870250000000000    0.2812900000000000    0.9103500000000000 H
   0.1744800000000000    0.4784800000000000    0.6308700000000000 H
   0.4244900000000000    0.4784800000000000    0.6308700000000000 H
   0.2340600000000000    0.4730500000000000    0.5876500000000000 H
   0.4840700000000000    0.4730500000000000    0.5876500000000000 H
   0.0794900000000000    0.4900100000000000    0.6688450000000000 H
   0.3294950000000000    0.4900100000000000    0.6688450000000000 H
   0.0198550000000000    0.4927200000000000    0.7115400000000001 H
   0.2698650000000000    0.4927200000000000    0.7115400000000001 H
   0.0680750000000000    0.6060400000000000    0.5426350000000000 H
   0.3180800000000000    0.6060400000000000    0.5426350000000000 H
   0.0435050000000000    0.6082400000000000    0.5844000000000000 H
   0.2935100000000000    0.6082400000000000    0.5844000000000000 H
   0.0173000000000000    0.5637000000000000    0.5502899999999999 H
   0.2673100000000000    0.5637000000000000    0.5502899999999999 H
   0.1270850000000000    0.3260200000000000    0.6145150000000000 H
   0.3770900000000000    0.3260200000000000    0.6145150000000000 H
   0.0742900000000000    0.3427600000000000    0.6323250000000000 H
   0.3243000000000000    0.3427600000000000    0.6323250000000000 H
   0.1205150000000000    0.3882700000000000    0.6483449999999999 H
   0.3705200000000000    0.3882700000000000    0.6483000000000000 H
   0.0970400000000000    0.2288800000000000    0.7397950000000000 H
   0.3470450000000000    0.2288800000000000    0.7397950000000000 H
   0.0379850000000000    0.1438600000000000    0.7278350000000000 H
   0.2879900000000000    0.1438600000000000    0.7278350000000000 H
   0.1927700000000000    0.3086000000000000    0.7395550000000000 H
   0.4427750000000000    0.3086000000000000    0.7395550000000000 H
   0.0029850000000000    0.3936600000000000    0.7471000000000000 H