H6 O4
1.0
   9.8979987321491230    0.0000000000000000    0.0050098277776024
  -0.4600206363705521   16.5516054419755925    0.0101147059850220
   0.0000000000000000    0.0000000000000000   24.3739999999999988
H O
6 4
direct
   1.0295616636625444    0.3431301028626312    0.6595681041534037 H
   0.9149421544517233    0.4417297009493880    0.8095316199978211 H
   0.9948996997784003    0.3820867872549728    0.7423738479733849 H
  -0.0295987471253460    0.1568305134196735    0.8404279214171626 H
   0.0850463341885214    0.0582612106271102    0.6904121610674445 H
   0.0050819883236611    0.1178840625290352    0.7575864908656890 H
   0.9690400000000000    0.3801800000000000    0.6772250000000000 O
   0.8993500000000000    0.4405800000000000    0.7702500000000000 O
   0.0309200000000000    0.1197900000000000    0.8227599999999999 O
   0.1006200000000000    0.0594100000000000    0.7296950000000000 O
