Zn12 P22 H66 C66 O88
1.0
  27.7883774746488754    0.0000000000000000   -4.5659608327741124
  -1.8123302258589966   10.3802471012707311   -0.1909195354028790
   0.0000000000000000    0.0000000000000000   21.1389999999999993
Zn P H C O
12 22 66 66 88
direct
   0.0832866666666667    0.0203400000000000    0.4894900000000000 Zn
   0.2500400000000000    0.9796600000000000    0.0105150000000000 Zn
   0.4166200000000000    0.0203400000000000    0.4894900000000000 Zn
   0.5833733333333333    0.9796600000000000    0.0105150000000000 Zn
   0.7499533333333332    0.0203400000000000    0.4894900000000000 Zn
   0.9167066666666666    0.9796600000000000    0.0105150000000000 Zn
   0.0832866666666667    0.0203400000000000    0.9894900000000000 Zn
   0.2500400000000000    0.9796600000000000    0.5105150000000001 Zn
   0.4166200000000000    0.0203400000000000    0.9894900000000000 Zn
   0.5833733333333333    0.9796600000000000    0.5105150000000001 Zn
   0.7499533333333332    0.0203400000000000    0.9894900000000000 Zn
   0.9167066666666666    0.9796600000000000    0.5105150000000001 Zn
   0.3297566666666666    0.7986000000000000    0.0211350000000000 P
   0.1695333333333333    0.9594200000000001    0.1008250000000000 P
   0.0035766666666667    0.2014000000000000    0.4788750000000000 P
   0.1637933333333333    0.0405800000000000    0.3991850000000000 P
   0.6630900000000000    0.7986000000000000    0.0211350000000000 P
   0.5028666666666667    0.9594200000000001    0.1008250000000000 P
   0.4971266666666666    0.0405800000000000    0.3991850000000000 P
   0.9964233333333332    0.7986000000000000    0.0211350000000000 P
   0.8361999999999999    0.9594200000000001    0.1008250000000000 P
   0.6702433333333333    0.2014000000000000    0.4788750000000000 P
   0.8304600000000000    0.0405800000000000    0.3991850000000000 P
   0.1695333333333333    0.9594200000000001    0.6008249999999999 P
   0.0035766666666667    0.2014000000000000    0.9788749999999999 P
   0.1637933333333333    0.0405800000000000    0.8991850000000000 P
   0.6630900000000000    0.7986000000000000    0.5211350000000000 P
   0.5028666666666667    0.9594200000000001    0.6008249999999999 P
   0.3369100000000000    0.2014000000000000    0.9788749999999999 P
   0.4971266666666666    0.0405800000000000    0.8991850000000000 P
   0.9964233333333332    0.7986000000000000    0.5211350000000000 P
   0.8361999999999999    0.9594200000000001    0.6008249999999999 P
   0.6702433333333333    0.2014000000000000    0.9788749999999999 P
   0.8304600000000000    0.0405800000000000    0.8991850000000000 P
   0.0006400000000000    0.8045400000000000    0.1256250000000000 H
   0.0746833333333333    0.6584300000000000    0.0409650000000000 H
   0.1667366666666667    0.7501300000000000    0.0970750000000000 H
   0.2554400000000000    0.0440100000000000    0.1671950000000000 H
   0.0916100000000000    0.9203000000000000    0.1715250000000000 H
   0.0891166666666666    0.3360800000000000    0.0210800000000000 H
   0.1665933333333333    0.2498700000000000    0.4029350000000000 H
   0.0778900000000000    0.9560000000000000    0.3328150000000000 H
   0.2417200000000000    0.0797100000000000    0.3284800000000000 H
   0.3339733333333333    0.8045400000000000    0.1256250000000000 H
   0.5775500000000000    0.6639200000000000    0.4789300000000000 H
   0.4080166666666666    0.6584300000000000    0.0409650000000000 H
   0.5000700000000000    0.7501300000000000    0.0970750000000000 H
   0.5887733333333334    0.0440100000000000    0.1671950000000000 H
   0.4249433333333333    0.9203000000000000    0.1715250000000000 H
   0.6660266666666665    0.1954600000000000    0.3743800000000000 H
   0.4224500000000000    0.3360800000000000    0.0210800000000000 H
   0.5919833333333333    0.3415700000000000    0.4590400000000000 H
   0.4999266666666666    0.2498700000000000    0.4029350000000000 H
   0.4112233333333333    0.9560000000000000    0.3328150000000000 H
   0.5750533333333333    0.0797100000000000    0.3284800000000000 H
   0.6673066666666666    0.8045400000000000    0.1256250000000000 H
   0.9108833333333333    0.6639200000000000    0.4789300000000000 H
   0.7413500000000000    0.6584300000000000    0.0409650000000000 H
   0.8334033333333333    0.7501300000000000    0.0970750000000000 H
   0.9221066666666666    0.0440100000000000    0.1671950000000000 H
   0.7582766666666666    0.9203000000000000    0.1715250000000000 H
   0.9993599999999999    0.1954600000000000    0.3743800000000000 H
   0.7557833333333333    0.3360800000000000    0.0210800000000000 H
   0.9253166666666666    0.3415700000000000    0.4590400000000000 H
   0.8332599999999999    0.2498700000000000    0.4029350000000000 H
   0.7445566666666666    0.9560000000000000    0.3328150000000000 H
   0.9083866666666667    0.0797100000000000    0.3284800000000000 H
   0.0006400000000000    0.8045400000000000    0.6256250000000000 H
   0.2442166666666667    0.6639200000000000    0.9789300000000001 H
   0.0746833333333333    0.6584300000000000    0.5409650000000000 H
   0.1667366666666667    0.7501300000000000    0.5970750000000000 H
   0.2554400000000000    0.0440100000000000    0.6671950000000000 H
   0.0916100000000000    0.9203000000000000    0.6715250000000000 H
   0.3326933333333333    0.1954600000000000    0.8743799999999999 H
   0.0891166666666666    0.3360800000000000    0.5210800000000000 H
   0.2586500000000000    0.3415700000000000    0.9590400000000000 H
   0.1665933333333333    0.2498700000000000    0.9029350000000000 H
   0.0778900000000000    0.9560000000000000    0.8328150000000001 H
   0.2417200000000000    0.0797100000000000    0.8284800000000000 H
   0.5775500000000000    0.6639200000000000    0.9789300000000001 H
   0.5000700000000000    0.7501300000000000    0.5970750000000000 H
   0.5887733333333334    0.0440100000000000    0.6671950000000000 H
   0.4249433333333333    0.9203000000000000    0.6715250000000000 H
   0.6660266666666665    0.1954600000000000    0.8743799999999999 H
   0.5919833333333333    0.3415700000000000    0.9590400000000000 H
   0.4999266666666666    0.2498700000000000    0.9029350000000000 H
   0.4112233333333333    0.9560000000000000    0.8328150000000001 H
   0.5750533333333333    0.0797100000000000    0.8284800000000000 H
   0.6673066666666666    0.8045400000000000    0.6256250000000000 H
   0.9108833333333333    0.6639200000000000    0.9789300000000001 H
   0.7413500000000000    0.6584300000000000    0.5409650000000000 H
   0.8334033333333333    0.7501300000000000    0.5970750000000000 H
   0.9221066666666666    0.0440100000000000    0.6671950000000000 H
   0.7582766666666666    0.9203000000000000    0.6715250000000000 H
   0.9993599999999999    0.1954600000000000    0.8743799999999999 H
   0.7557833333333333    0.3360800000000000    0.5210800000000000 H
   0.9253166666666666    0.3415700000000000    0.9590400000000000 H
   0.8332599999999999    0.2498700000000000    0.9029350000000000 H
   0.7445566666666666    0.9560000000000000    0.8328150000000001 H
   0.9083866666666667    0.0797100000000000    0.8284800000000000 H
   0.3298833333333333    0.6302300000000000    0.0088700000000000 C
   0.0417833333333333    0.5890300000000001    0.0231200000000000 C
   0.2128366666666667    0.0296500000000000    0.2295600000000000 C
   0.1698300000000000    0.9833400000000000    0.1848950000000000 C
   0.1246666666666667    0.9549600000000000    0.2059250000000000 C
   0.0462233333333333    0.4599800000000000    0.0148350000000000 C
   0.0034500000000000    0.3697700000000000    0.4911350000000000 C
   0.1204933333333333    0.9703500000000000    0.2704500000000000 C
   0.1635000000000000    0.0166600000000000    0.3151100000000000 C
   0.2086633333333333    0.0450400000000000    0.2940850000000000 C
   0.6204433333333332    0.5400199999999999    0.4851750000000000 C
   0.6632166666666666    0.6302300000000000    0.0088700000000000 C
   0.3751166666666667    0.5890300000000001    0.0231200000000000 C
   0.5461700000000000    0.0296500000000000    0.2295600000000000 C
   0.5031633333333333    0.9833400000000000    0.1848950000000000 C
   0.4580000000000000    0.9549600000000000    0.2059250000000000 C
   0.3795566666666667    0.4599800000000000    0.0148350000000000 C
   0.6248833333333332    0.4109700000000000    0.4768900000000000 C
   0.4538266666666667    0.9703500000000000    0.2704500000000000 C
   0.4968333333333333    0.0166600000000000    0.3151100000000000 C
   0.5419966666666667    0.0450400000000000    0.2940850000000000 C
   0.9537766666666666    0.5400199999999999    0.4851750000000000 C
   0.9965499999999999    0.6302300000000000    0.0088700000000000 C
   0.7084499999999999    0.5890300000000001    0.0231200000000000 C
   0.8795033333333333    0.0296500000000000    0.2295600000000000 C
   0.8364966666666667    0.9833400000000000    0.1848950000000000 C
   0.7913333333333333    0.9549600000000000    0.2059250000000000 C
   0.7128899999999999    0.4599800000000000    0.0148350000000000 C
   0.6701166666666666    0.3697700000000000    0.4911350000000000 C
   0.9582166666666666    0.4109700000000000    0.4768900000000000 C
   0.7871600000000000    0.9703500000000000    0.2704500000000000 C
   0.8301666666666666    0.0166600000000000    0.3151100000000000 C
   0.8753299999999999    0.0450400000000000    0.2940850000000000 C
   0.2871100000000000    0.5400199999999999    0.9851750000000000 C
   0.0417833333333333    0.5890300000000001    0.5231200000000000 C
   0.2128366666666667    0.0296500000000000    0.7295600000000000 C
   0.1698300000000000    0.9833400000000000    0.6848950000000000 C
   0.1246666666666667    0.9549600000000000    0.7059250000000000 C
   0.0462233333333333    0.4599800000000000    0.5148350000000000 C
   0.0034500000000000    0.3697700000000000    0.9911350000000000 C
   0.2915500000000000    0.4109700000000000    0.9768900000000000 C
   0.1204933333333333    0.9703500000000000    0.7704500000000001 C
   0.1635000000000000    0.0166600000000000    0.8151100000000000 C
   0.2086633333333333    0.0450400000000000    0.7940849999999999 C
   0.6204433333333332    0.5400199999999999    0.9851750000000000 C
   0.6632166666666666    0.6302300000000000    0.5088700000000000 C
   0.5461700000000000    0.0296500000000000    0.7295600000000000 C
   0.5031633333333333    0.9833400000000000    0.6848950000000000 C
   0.4580000000000000    0.9549600000000000    0.7059250000000000 C
   0.3367833333333333    0.3697700000000000    0.9911350000000000 C
   0.6248833333333332    0.4109700000000000    0.9768900000000000 C
   0.4538266666666667    0.9703500000000000    0.7704500000000001 C
   0.4968333333333333    0.0166600000000000    0.8151100000000000 C
   0.5419966666666667    0.0450400000000000    0.7940849999999999 C
   0.9537766666666666    0.5400199999999999    0.9851750000000000 C
   0.9965499999999999    0.6302300000000000    0.5088700000000000 C
   0.7084499999999999    0.5890300000000001    0.5231200000000000 C
   0.8795033333333333    0.0296500000000000    0.7295600000000000 C
   0.8364966666666667    0.9833400000000000    0.6848950000000000 C
   0.7913333333333333    0.9549600000000000    0.7059250000000000 C
   0.7128899999999999    0.4599800000000000    0.5148350000000000 C
   0.6701166666666666    0.3697700000000000    0.9911350000000000 C
   0.9582166666666666    0.4109700000000000    0.9768900000000000 C
   0.7871600000000000    0.9703500000000000    0.7704500000000001 C
   0.8301666666666666    0.0166600000000000    0.8151100000000000 C
   0.8753299999999999    0.0450400000000000    0.7940849999999999 C
   0.0210433333333333    0.8397700000000000    0.0947450000000000 O
   0.2758900000000000    0.8153300000000000    0.0105700000000000 O
   0.0292533333333333    0.8770500000000000    0.4809050000000000 O
   0.1457366666666667    0.8109600000000000    0.0802750000000000 O
   0.2232766666666667    0.9838800000000000    0.0916800000000000 O
   0.1357466666666667    0.0381200000000000    0.0625150000000000 O
   0.2582666666666666    0.0609200000000000    0.2140300000000000 O
   0.0574400000000000    0.1846700000000000    0.4894350000000000 O
   0.3040733333333333    0.1229500000000000    0.0191000000000000 O
   0.0916766666666667    0.4296400000000000    0.0304600000000000 O
   0.1875933333333333    0.1890400000000000    0.4197350000000000 O
   0.1100533333333333    0.0161200000000000    0.4083250000000000 O
   0.1975833333333333    0.9618800000000000    0.4374900000000000 O
   0.0750633333333333    0.9390900000000000    0.2859800000000000 O
   0.3543766666666667    0.8397700000000000    0.0947450000000000 O
   0.6092233333333332    0.8153300000000000    0.0105700000000000 O
   0.5749900000000000    0.5703500000000000    0.4695500000000000 O
   0.4790700000000000    0.8109600000000000    0.0802750000000000 O
   0.5566100000000000    0.9838800000000000    0.0916800000000000 O
   0.4690799999999999    0.0381200000000000    0.0625150000000000 O
   0.5915999999999999    0.0609200000000000    0.2140300000000000 O
   0.6456233333333332    0.1602300000000000    0.4052650000000000 O
   0.6374066666666667    0.1229500000000000    0.0191000000000000 O
   0.4250100000000000    0.4296400000000000    0.0304600000000000 O
   0.5209266666666666    0.1890400000000000    0.4197350000000000 O
   0.4433866666666667    0.0161200000000000    0.4083250000000000 O
   0.5309166666666667    0.9618800000000000    0.4374900000000000 O
   0.4083966666666666    0.9390900000000000    0.2859800000000000 O
   0.6877099999999999    0.8397700000000000    0.0947450000000000 O
   0.9425566666666666    0.8153300000000000    0.0105700000000000 O
   0.6959200000000000    0.8770500000000000    0.4809050000000000 O
   0.9083233333333333    0.5703500000000000    0.4695500000000000 O
   0.8124033333333333    0.8109600000000000    0.0802750000000000 O
   0.8899433333333333    0.9838800000000000    0.0916800000000000 O
   0.8024133333333333    0.0381200000000000    0.0625150000000000 O
   0.9249333333333333    0.0609200000000000    0.2140300000000000 O
   0.9789566666666666    0.1602300000000000    0.4052650000000000 O
   0.7241066666666667    0.1846700000000000    0.4894350000000000 O
   0.9707399999999999    0.1229500000000000    0.0191000000000000 O
   0.7583433333333333    0.4296400000000000    0.0304600000000000 O
   0.8542599999999999    0.1890400000000000    0.4197350000000000 O
   0.7767200000000000    0.0161200000000000    0.4083250000000000 O
   0.8642500000000000    0.9618800000000000    0.4374900000000000 O
   0.7417300000000000    0.9390900000000000    0.2859800000000000 O
   0.0210433333333333    0.8397700000000000    0.5947450000000000 O
   0.0292533333333333    0.8770500000000000    0.9809050000000000 O
   0.2416566666666667    0.5703500000000000    0.9695500000000000 O
   0.1457366666666667    0.8109600000000000    0.5802750000000000 O
   0.2232766666666667    0.9838800000000000    0.5916800000000000 O
   0.1357466666666667    0.0381200000000000    0.5625150000000000 O
   0.2582666666666666    0.0609200000000000    0.7140299999999999 O
   0.3122900000000000    0.1602300000000000    0.9052650000000000 O
   0.0574400000000000    0.1846700000000000    0.9894350000000001 O
   0.0916766666666667    0.4296400000000000    0.5304600000000000 O
   0.1875933333333333    0.1890400000000000    0.9197350000000000 O
   0.1100533333333333    0.0161200000000000    0.9083250000000000 O
   0.1975833333333333    0.9618800000000000    0.9374899999999999 O
   0.0750633333333333    0.9390900000000000    0.7859800000000000 O
   0.6092233333333332    0.8153300000000000    0.5105700000000000 O
   0.3625866666666667    0.8770500000000000    0.9809050000000000 O
   0.5749900000000000    0.5703500000000000    0.9695500000000000 O
   0.4790700000000000    0.8109600000000000    0.5802750000000000 O
   0.5566100000000000    0.9838800000000000    0.5916800000000000 O
   0.4690799999999999    0.0381200000000000    0.5625150000000000 O
   0.5915999999999999    0.0609200000000000    0.7140299999999999 O
   0.6456233333333332    0.1602300000000000    0.9052650000000000 O
   0.3907733333333333    0.1846700000000000    0.9894350000000001 O
   0.6374066666666667    0.1229500000000000    0.5191000000000000 O
   0.5209266666666666    0.1890400000000000    0.9197350000000000 O
   0.4433866666666667    0.0161200000000000    0.9083250000000000 O
   0.5309166666666667    0.9618800000000000    0.9374899999999999 O
   0.4083966666666666    0.9390900000000000    0.7859800000000000 O
   0.6877099999999999    0.8397700000000000    0.5947450000000000 O
   0.9425566666666666    0.8153300000000000    0.5105700000000000 O
   0.6959200000000000    0.8770500000000000    0.9809050000000000 O
   0.9083233333333333    0.5703500000000000    0.9695500000000000 O
   0.8124033333333333    0.8109600000000000    0.5802750000000000 O
   0.8899433333333333    0.9838800000000000    0.5916800000000000 O
   0.8024133333333333    0.0381200000000000    0.5625150000000000 O
   0.9249333333333333    0.0609200000000000    0.7140299999999999 O
   0.9789566666666666    0.1602300000000000    0.9052650000000000 O
   0.7241066666666667    0.1846700000000000    0.9894350000000001 O
   0.9707399999999999    0.1229500000000000    0.5191000000000000 O
   0.7583433333333333    0.4296400000000000    0.5304600000000000 O
   0.8542599999999999    0.1890400000000000    0.9197350000000000 O
   0.7767200000000000    0.0161200000000000    0.9083250000000000 O
   0.8642500000000000    0.9618800000000000    0.9374899999999999 O
   0.7417300000000000    0.9390900000000000    0.7859800000000000 O
