H6 O4
1.0
  38.7179988441706371    0.0000000000000000   -0.0094605920228783
   0.0122432104983388   29.2299973246188109   -0.0025507986985502
   0.0000000000000000    0.0000000000000000   30.2500000000000000
H O
6 4
direct
   0.0687307900690105    0.7829976587562358    0.2127032994386148 H
   0.1385660311920517    0.8640066755055572    0.1513568990595667 H
   0.1039424024722250    0.8217525548171618    0.1790919388772989 H
   0.1412173975924725    0.6713887223793110    0.0619163284663452 H
   0.0699334527363144    0.7018480969588105    0.0242811075454605 H
   0.1052251391583822    0.7226193660346640    0.0671571061441823 H
   0.0842000000000000    0.8088450000000000    0.2092450000000000 O
   0.1232300000000000    0.8539800000000000    0.1747800000000000 O
   0.1309500000000000    0.6513599999999999    0.0399850000000000 O
   0.0801166666666667    0.6736400000000000    0.0135250000000000 O
