H6 C12 O4
1.0
  38.7179988441706371    0.0000000000000000   -0.0094605920228783
   0.0122432104983388   29.2299973246188109   -0.0025507986985502
   0.0000000000000000    0.0000000000000000   30.2500000000000000
H C O
6 12 4
direct
   0.1263366666666667    0.6735599999999999    0.1218750000000000 H
   0.1221966666666667    0.7314450000000000    0.1821550000000000 H
   0.0877333333333333    0.8697050000000000    0.1096500000000000 H
   0.0688133333333333    0.8899450000000000    0.0338750000000000 H
   0.0659033333333333    0.8299550000000000    0.9755199999999999 H
   0.0820600000000000    0.7501800000000001    0.9924900000000000 H
   0.1056033333333333    0.6796000000000000    0.0399650000000000 C
   0.1057733333333333    0.7179949999999999    0.0721350000000000 C
   0.1170533333333333    0.7079650000000000    0.1146350000000000 C
   0.1152966666666667    0.7408049999999999    0.1484100000000000 C
   0.1049466666666667    0.7851800000000000    0.1393000000000000 C
   0.0953566666666667    0.7978700000000001    0.0953200000000000 C
   0.0942933333333333    0.7632800000000000    0.0613350000000000 C
   0.0860366666666667    0.8435000000000000    0.0841950000000000 C
   0.0757733333333333    0.8547600000000000    0.0419350000000000 C
   0.0742933333333333    0.8207650000000000    0.0087700000000000 C
   0.0833833333333333    0.7761600000000000    0.0181800000000000 C
   0.1039600000000000    0.8188100000000000    0.1770600000000000 C
   0.1309500000000000    0.6513599999999999    0.0399850000000000 O
   0.0801166666666667    0.6736400000000000    0.0135250000000000 O
   0.1232300000000000    0.8539800000000000    0.1747800000000000 O
   0.0842000000000000    0.8088450000000000    0.2092450000000000 O
