H6 O4
1.0
  30.5284062921430106    0.0000000000000000   15.8548544383681733
  15.1625667882050212   32.8961326366184821    7.8725885163157265
   0.0000000000000000    0.0000000000000000   37.0640000000000001
H O
6 4
direct
   0.0350460829319339    0.5506706621610269    0.8006623877741519 H
   0.0717590724658332    0.4790187826760839    0.7290261716941768 H
   0.0339519223165832    0.5188516306206267    0.7688469960144088 H
   0.2149595262068025    0.4493311311703754    0.6993616820730147 H
   0.1782437261576041    0.5209840134719655    0.7709989103774694 H
   0.2160502374718665    0.4811537745078173    0.7311785915046873 H
   0.0669250000000000    0.5324950000000001    0.7824949999999999 O
   0.0903350000000000    0.4867050000000000    0.7367150000000000 O
   0.1830800000000000    0.4675050000000000    0.7175300000000000 O
   0.1596700000000000    0.5132949999999999    0.7633099999999999 O
