C2 O4
1.0
  30.5284062921430106    0.0000000000000000   15.8548544383681733
  15.1625667882050212   32.8961326366184821    7.8725885163157265
   0.0000000000000000    0.0000000000000000   37.0640000000000001
C O
2 4
direct
   0.1516350000000000    0.4945500000000000    0.7445750000000000 C
   0.0983700000000000    0.5054500000000000    0.7554500000000000 C
   0.1830800000000000    0.4675050000000000    0.7175300000000000 O
   0.0903350000000000    0.4867050000000000    0.7367150000000000 O
   0.0669250000000000    0.5324950000000001    0.7824949999999999 O
   0.1596700000000000    0.5132949999999999    0.7633099999999999 O
