H6 C12 O4
1.0
  38.1487380993852767    0.0000000000000000  -10.4305887860901620
  -5.3141524813956567   37.6969802763030728  -10.6041889106377702
   0.0000000000000000    0.0000000000000000   13.9800000000000004
H C O
6 12 4
direct
   0.9672733333333332    0.8425566666666666    0.4483900000000000 H
   0.9662299999999999    0.9062133333333333    0.4621200000000000 H
   0.9413166666666666    0.8158900000000000    0.1162800000000000 H
   0.9548266666666666    0.9537933333333333    0.3743600000000000 H
   0.9346866666666667    0.9280166666666666    0.0439500000000000 H
   0.9355333333333333    0.8641799999999999    0.0306000000000000 H
   0.9522400000000000    0.7866166666666666    0.2719200000000000 C
   0.9536399999999999    0.8253699999999999    0.2804000000000000 C
   0.9611733333333332    0.8512033333333333    0.3788400000000000 C
   0.9604600000000000    0.8865933333333333    0.3861700000000000 C
   0.9468333333333333    0.8359833333333333    0.1912000000000000 C
   0.9527666666666665    0.8980533333333333    0.2955700000000000 C
   0.9510000000000000    0.9340499999999999    0.2997400000000000 C
   0.9447166666666666    0.9448233333333333    0.2108300000000000 C
   0.9447166666666666    0.9834433333333332    0.2184600000000000 C
   0.9394499999999999    0.9191900000000000    0.1130800000000000 C
   0.9400799999999999    0.8838333333333332    0.1060200000000000 C
   0.9466200000000000    0.8721766666666666    0.1961300000000000 C
   0.9450900000000000    0.0045633333333333    0.3052300000000000 O
   0.9648366666666666    0.7782933333333333    0.3550000000000000 O
   0.9381266666666666    0.7649400000000000    0.1819500000000000 O
   0.9451566666666666    0.9923833333333333    0.1371700000000000 O
