H12 C12 N2
1.0
  38.1487380993852767    0.0000000000000000  -10.4305887860901620
  -5.3141524813956567   37.6969802763030728  -10.6041889106377702
   0.0000000000000000    0.0000000000000000   13.9800000000000004
H C N
12 12 2
direct
   0.0128100000000000    0.9738899999999999    0.9849400000000000 H
   0.0027700000000000    0.9709433333333333    0.1504000000000000 H
   0.1045033333333333    0.9339400000000000    0.2236100000000000 H
   0.1345100000000000    0.9616733333333333    0.0436900000000000 H
   0.1384333333333333    0.9276766666666666    0.1064000000000000 H
   0.1139366666666667    0.9179999999999999    0.9723000000000001 H
   0.0259533333333333    0.9870333333333332    0.5156700000000000 H
   0.0287433333333333    0.9970066666666666    0.3499200000000000 H
   0.0658500000000000    0.8951399999999999    0.2752300000000000 H
   0.0384133333333333    0.8651266666666666    0.4554800000000000 H
   0.0723733333333333    0.8612799999999999    0.3923700000000000 H
   0.0819400000000000    0.8858966666666666    0.5265600000000000 H
   0.0326966666666667    0.9657833333333332    0.0414600000000000 C
   0.0271933333333333    0.9637499999999999    0.1337800000000000 C
   0.0528966666666667    0.9512900000000000    0.2009300000000000 C
   0.0833933333333333    0.9427800000000000    0.1722000000000000 C
   0.0877666666666667    0.9460666666666666    0.0791200000000000 C
   0.1205766666666667    0.9376933333333333    0.0491400000000000 C
   0.0340533333333333    0.9671099999999999    0.4587400000000000 C
   0.0359933333333333    0.9725733333333333    0.3663400000000000 C
   0.0484366666666667    0.9468133333333333    0.2986000000000000 C
   0.0570166666666667    0.9162966666666665    0.3269700000000000 C
   0.0538333333333333    0.9119666666666666    0.4202300000000000 C
   0.0623033333333333    0.8791533333333332    0.4498800000000000 C
   0.0619933333333333    0.9572033333333333    0.0136100000000000 N
   0.0427333333333333    0.9378099999999999    0.4862500000000000 N
