H9 O6
1.0
   8.7538094396884514    0.0000000000000000   -0.0031320474683521
  -0.0007237043592230    9.0103899309183966   -0.0008492092496402
   0.0000000000000000    0.0000000000000000   14.8989999999999991
H O
9 6
direct
   0.6752442105727020    0.6836615338210809    0.3744980975717696 H
   0.6526786351694129   -0.3136049342614050    0.2737725053597665 H
  -0.1870288565513149   -0.1703864006543624    1.0399719239896230 H
   0.7924544254076884    0.4907652913603366    0.9036766052104885 H
  -0.2296652875568040   -0.3567000104566195    0.9843887774806279 H
   0.6250692740561063    0.1900118465615966    0.2214091192564250 H
   0.7296064392234407    0.1415045363136993    0.2959916720084785 H
  -0.1229675461616882    0.1902361118944448    1.0584489824787231 H
   0.7513101341532590    0.2932020542645822    0.1400012729023423 H
   0.6469300000000000    0.5796000000000000    0.3732400000000000 O
   0.6334700000000000   -0.2118200000000000    0.2917200000000000 O
  -0.1331000000000001   -0.2111900000000000    0.9887400000000000 O
   0.8524500000000000    0.5811700000000000    0.9063800000000000 O
   0.6650500000000000    0.0993400000000000    0.1953400000000000 O
  -0.1633100000000000    0.0995700000000000    1.0843300000000000 O
