Cd8 H10 C42 N63 O3
1.0
  14.1530373134598921    0.0000000000000000   -1.5622598387630748
   1.2391993816077134   12.7808012683038363   -1.7541675611942449
   0.0000000000000000    0.0000000000000000   12.9600000000000009
Cd H C N O
8 10 42 63 3
direct
   0.2962700000000000    0.0644300000000000    0.3429000000000000 Cd
   0.2036300000000000    0.9356600000000000    0.6571600000000000 Cd
   0.5463100000000000    0.6571200000000000    0.9355599999999999 Cd
   0.4537200000000000    0.3429200000000000    0.0644500000000000 Cd
   0.9537000000000000    0.3428700000000000    0.0643700000000000 Cd
   0.0463200000000000    0.6571600000000000    0.9356400000000000 Cd
   0.7963900000000000    0.0643800000000000    0.3428500000000000 Cd
   0.7037600000000001    0.9356100000000001    0.6570400000000000 Cd
   0.1623188852787968    0.4773193779355887    0.8367358504599541 H
   0.2735200000000000    0.5879600000000000    0.4648100000000000 H
   0.1631170479449098    0.1623304079433260    0.6581727033592231 H
   0.2481292426385613    0.7079427947064939    0.6665642548910039 H
   0.4765500000000000    0.4648200000000000    0.5879700000000000 H
   0.5234700000000000    0.5352200000000000    0.4120400000000000 H
   0.9764200000000000    0.4648200000000000    0.5879400000000000 H
   0.0236100000000000    0.5352100000000000    0.4120700000000000 H
   0.7265000000000000    0.4120800000000000    0.5352000000000000 H
   0.7735600000000000    0.5879500000000000    0.4648600000000000 H
   0.3814300000000000    0.5695500000000000    0.0370700000000000 C
   0.2521600000000000    0.3071800000000000    0.3398100000000000 C
   0.2802200000000000    0.4745900000000000    0.3336200000000000 C
   0.3337200000000000    0.8243600000000000    0.3474100000000000 C
   0.3102700000000000    0.6519200000000001    0.3344000000000000 C
   0.3290200000000000    0.5311300000000000    0.1911500000000000 C
   0.3684900000000000    0.0371600000000000    0.5696500000000000 C
   0.4978500000000000    0.3397800000000000    0.3071900000000000 C
   0.4697700000000000    0.3336300000000000    0.4746000000000000 C
   0.4163100000000000    0.3474400000000000    0.8243900000000000 C
   0.4397600000000000    0.3344400000000000    0.6519600000000000 C
   0.4209000000000000    0.1912200000000000    0.5311700000000000 C
   0.6315300000000000    0.9628700000000000    0.4303600000000000 C
   0.5021800000000000    0.6602500000000000    0.6928200000000000 C
   0.5302500000000000    0.6664099999999999    0.5254000000000000 C
   0.5837100000000000    0.6526000000000000    0.1756200000000000 C
   0.5602500000000000    0.6656000000000000    0.3480000000000000 C
   0.5791200000000000    0.8088200000000000    0.4688300000000000 C
   0.8686300000000000    0.0370800000000000    0.5694800000000000 C
   0.9978399999999999    0.3398400000000000    0.3071500000000000 C
   0.9697900000000000    0.3336400000000000    0.4745500000000000 C
   0.9162300000000000    0.3473300000000000    0.8243100000000000 C
   0.9396900000000000    0.3343800000000000    0.6518800000000000 C
   0.9210300000000000    0.1911400000000000    0.5310600000000000 C
   0.1313900000000000    0.9629600000000000    0.4305300000000000 C
   0.0000000000000000    0.6602000000000000    0.6928600000000000 C
   0.0302400000000000    0.6664000000000000    0.5254600000000000 C
   0.0838000000000000    0.6527100000000000    0.1757000000000000 C
   0.0603400000000000    0.6656500000000000    0.3481300000000000 C
   0.0790000000000000    0.8088900000000000    0.4689500000000000 C
   0.6185900000000000    0.4304800000000000    0.9629000000000000 C
   0.7478700000000000    0.6928500000000000    0.6602000000000000 C
   0.7198000000000000    0.5254500000000000    0.6663900000000000 C
   0.6663000000000000    0.1756800000000000    0.6526000000000000 C
   0.6897600000000000    0.3481100000000000    0.6656100000000000 C
   0.6710100000000000    0.4689000000000000    0.8088600000000000 C
   0.8815000000000000    0.5696200000000000    0.0371700000000000 C
   0.7522600000000000    0.3071700000000000    0.3398300000000000 C
   0.7802900000000000    0.4745800000000000    0.3336600000000000 C
   0.8337800000000000    0.8243400000000000    0.3474100000000000 C
   0.8103200000000000    0.6519200000000001    0.3344500000000000 C
   0.8291200000000000    0.5311300000000000    0.1912100000000000 C
   0.2859100000000000    0.5735100000000000    0.3862100000000000 N
   0.4038400000000000    0.6184700000000000    0.9748000000000000 N
   0.3589900000000000    0.5017300000000000    0.0935400000000000 N
   0.2500300000000000    0.2190700000000000    0.3025100000000000 N
   0.2515000000000000    0.4023400000000000    0.3871200000000000 N
   0.3028500000000000    0.4515900000000000    0.2358100000000000 N
   0.3515300000000000    0.9008500000000000    0.3155600000000000 N
   0.3154900000000000    0.7460400000000000    0.3914000000000000 N
   0.3302400000000000    0.6315000000000000    0.2348000000000000 N
   0.4641600000000000    0.3862200000000000    0.5735400000000000 N
   0.3461200000000000    0.9749100000000001    0.6185900000000000 N
   0.3909000000000000    0.0936300000000000    0.5018000000000000 N
   0.4999800000000000    0.3024800000000000    0.2190800000000000 N
   0.4985200000000000    0.3871000000000000    0.4023500000000000 N
   0.4470900000000000    0.2358400000000000    0.4516200000000000 N
   0.3984800000000000    0.3155700000000000    0.9008000000000000 N
   0.4345900000000000    0.3914700000000000    0.7460900000000000 N
   0.4197300000000000    0.2349400000000000    0.6315400000000000 N
   0.5358600000000000    0.6138100000000000    0.4264600000000000 N
   0.6539100000000000    0.0251300000000000    0.3814200000000000 N
   0.6091299999999999    0.9064100000000000    0.4982000000000000 N
   0.5000500000000000    0.6975600000000000    0.7809300000000000 N
   0.5015100000000000    0.6129300000000000    0.5976600000000000 N
   0.5529400000000000    0.7641900000000000    0.5483900000000000 N
   0.6015500000000000    0.6844600000000000    0.0991400000000000 N
   0.5654400000000001    0.6085700000000001    0.2539200000000000 N
   0.5803100000000000    0.7651000000000000    0.3684700000000000 N
   0.9640300000000001    0.3862300000000000    0.5734000000000000 N
   0.8462200000000000    0.9748500000000000    0.6183999999999999 N
   0.8910900000000000    0.0935300000000000    0.5016500000000000 N
   0.9999700000000000    0.3025400000000000    0.2190300000000000 N
   0.9984800000000000    0.3871600000000000    0.4023100000000000 N
   0.9472300000000000    0.2358100000000000    0.4515000000000000 N
   0.8984300000000000    0.3154500000000000    0.9008000000000000 N
   0.9344300000000000    0.3913900000000000    0.7460000000000000 N
   0.9197500000000000    0.2348400000000000    0.6314300000000000 N
   0.0359900000000000    0.6138100000000000    0.4265300000000000 N
   0.1538000000000000    0.0251800000000000    0.3815700000000000 N
   0.1089400000000000    0.9065100000000000    0.4983600000000000 N
   0.0000000000000000    0.6975000000000000    0.7809800000000000 N
   0.0000000000000000    0.6128800000000000    0.5970000000000000 N
   0.0527900000000000    0.7642300000000000    0.5484599999999999 N
   0.1015900000000000    0.6845800000000000    0.0992100000000000 N
   0.0655900000000000    0.6086500000000000    0.2540100000000000 N
   0.0802700000000000    0.7651900000000000    0.3685800000000000 N
   0.7141200000000000    0.4265200000000000    0.6138000000000000 N
   0.5961800000000000    0.3815600000000000    0.0252100000000000 N
   0.6410400000000001    0.4983000000000000    0.9064700000000000 N
   0.7500000000000000    0.7809700000000001    0.6975000000000000 N
   0.7485200000000000    0.5976900000000001    0.6128900000000000 N
   0.6971700000000000    0.5484500000000000    0.7642000000000000 N
   0.6485000000000000    0.0991800000000000    0.6844000000000000 N
   0.6845300000000000    0.2540000000000000    0.6085700000000001 N
   0.6697800000000000    0.3685400000000000    0.7651400000000000 N
   0.7859600000000000    0.5735100000000000    0.3862600000000000 N
   0.9038700000000000    0.6186300000000000    0.9749500000000000 N
   0.8591100000000000    0.5017400000000000    0.0936100000000000 N
   0.7501500000000000    0.2190500000000000    0.3025100000000000 N
   0.7515700000000000    0.4023300000000000    0.3871500000000000 N
   0.8029200000000000    0.4515900000000000    0.2358500000000000 N
   0.8516400000000000    0.9008000000000000    0.3155400000000000 N
   0.8154900000000000    0.7460599999999999    0.3914600000000000 N
   0.8303500000000000    0.6314900000000000    0.2349300000000000 N
   0.1409200000000000    0.4982900000000000    0.9064000000000000 O
   0.1483800000000000    0.0992400000000000    0.6844700000000000 O
   0.2498700000000000    0.7809800000000000    0.6975000000000000 O
