H4 C8 O4
1.0
   9.5871503859265701    0.0000000000000000    1.6611584745676851
  14.0896041477610758   37.1040908595017882    2.5498896935415472
   0.0000000000000000    0.0000000000000000   20.9349999999999987
H C O
4 8 4
direct
   0.0579300000000000    0.6150766666666667    0.9267300000000001 H
   0.8062600000000000    0.6638900000000000    0.9393600000000000 H
   0.1936700000000000    0.6666666666666666    0.0606500000000000 H
   0.9420100000000000    0.7182799999999999    0.0732800000000000 H
   0.2944100000000000    0.6101633333333333    0.9820500000000000 C
   0.1416400000000000    0.6391366666666667    0.9927600000000000 C
   0.0315200000000000    0.6378833333333334    0.9586200000000000 C
   0.8917600000000000    0.6651066666666666    0.9655899999999999 C
   0.1081700000000000    0.6666666666666666    0.0344200000000000 C
   0.7055200000000000    0.7231900000000000    0.0179600000000000 C
   0.8582900000000000    0.6942199999999999    0.0072600000000000 C
   0.9684199999999999    0.6954699999999999    0.0413900000000000 C
   0.3875800000000000    0.6134666666666666    0.0169600000000000 O
   0.3240800000000000    0.5856399999999999    0.9421700000000000 O
   0.6123600000000000    0.7198800000000000    0.9830500000000000 O
   0.6758500000000000    0.7477199999999999    0.0578400000000000 O
