H24 C25 N4 O4
1.0
   9.5871503859265701    0.0000000000000000    1.6611584745676851
  14.0896041477610758   37.1040908595017882    2.5498896935415472
   0.0000000000000000    0.0000000000000000   20.9349999999999987
H C N O
24 25 4 4
direct
   0.9203000000000000    0.6259766666666666    0.1381200000000000 H
   0.8799700000000000    0.5842533333333333    0.0653400000000000 H
   0.4428000000000000    0.6518400000000000    0.0621900000000000 H
   0.7008600000000000    0.6259866666666667    0.3622400000000000 H
   0.8664600000000000    0.5835466666666667    0.4336200000000000 H
   0.1026600000000000    0.6514500000000000    0.4383500000000000 H
   0.3898300000000000    0.8817999999999999    0.0467300000000000 H
   0.3701400000000000    0.8320000000000000    0.1231200000000000 H
   0.8446399999999999    0.8010166666666666    0.1254100000000000 H
   0.8448700000000000    0.8503866666666666    0.0489200000000000 H
   0.7625700000000000    0.7770300000000000    0.2280000000000000 H
   0.7859000000000000    0.7469133333333333    0.1627200000000000 H
   0.5136800000000000    0.7050433333333332    0.2428100000000000 H
   0.5327400000000000    0.7328300000000000    0.1730300000000000 H
   0.4640200000000000    0.6966366666666667    0.1317600000000000 H
   0.4636900000000000    0.8811266666666666    0.4556900000000000 H
   0.6345600000000000    0.8316933333333333    0.3802200000000000 H
   0.2537400000000000    0.8011199999999999    0.3699300000000000 H
   0.1033400000000000    0.8499833333333333    0.4460600000000000 H
   0.4108600000000000    0.7764933333333333    0.2713000000000000 H
   0.4758600000000000    0.7465800000000000    0.3371700000000000 H
   0.8723600000000000    0.7054100000000000    0.2583800000000000 H
   0.7710600000000000    0.7334966666666667    0.3274600000000000 H
   0.9471500000000000    0.6969299999999999    0.3699000000000000 H
   0.6939200000000000    0.6642699999999999    0.1434300000000000 C
   0.8120900000000000    0.6321633333333333    0.1230900000000000 C
   0.7897900000000000    0.6090933333333333    0.0824800000000000 C
   0.5462000000000000    0.6470166666666666    0.0806600000000000 C
   0.8133500000000000    0.6644833333333333    0.3577300000000000 C
   0.7908500000000001    0.6321133333333333    0.3773700000000000 C
   0.8824900000000000    0.6086466666666666    0.4172300000000000 C
   0.0133400000000000    0.6467300000000000    0.4198200000000000 C
   0.4862700000000000    0.8635966666666666    0.0666800000000000 C
   0.4756500000000000    0.8362399999999999    0.1088500000000000 C
   0.6034800000000000    0.8135766666666666    0.1334000000000000 C
   0.7396600000000000    0.8182866666666666    0.1108900000000000 C
   0.7405500000000000    0.8463333333333333    0.0679800000000000 C
   0.7073600000000000    0.7632200000000000    0.2029900000000000 C
   0.5898000000000000    0.7161633333333333    0.2112900000000000 C
   0.5581800000000000    0.6715966666666666    0.1212200000000000 C
   0.4224600000000000    0.8631366666666667    0.4342000000000000 C
   0.5161700000000000    0.8359766666666666    0.3924800000000000 C
   0.4571700000000000    0.8135033333333332    0.3660800000000000 C
   0.3063600000000000    0.8181999999999999    0.3863100000000000 C
   0.2202700000000000    0.8460299999999999    0.4289500000000000 C
   0.5062200000000000    0.7629999999999999    0.2968700000000000 C
   0.7634300000000001    0.7165866666666666    0.2896700000000000 C
   0.9276000000000000    0.6717133333333333    0.3799600000000000 C
   0.6425200000000000    0.7393200000000000    0.2502200000000000 C
   0.6581700000000000    0.6158533333333334    0.0612500000000000 N
   0.9944300000000000    0.6152700000000000    0.4384800000000000 N
   0.6162700000000000    0.8694366666666666    0.0469400000000000 N
   0.2747400000000000    0.8689433333333333    0.4517600000000000 N
   0.5821000000000000    0.7892533333333333    0.1778700000000000 O
   0.7189700000000000    0.6864199999999999    0.1826600000000000 O
   0.5525099999999999    0.7893466666666666    0.3221600000000000 O
   0.7217400000000000    0.6869333333333333    0.3191200000000000 O
