H8 O4
1.0
   9.5871503859265701    0.0000000000000000    1.6611584745676851
  14.0896041477610758   37.1040908595017882    2.5498896935415472
   0.0000000000000000    0.0000000000000000   20.9349999999999987
H O
8 4
direct
   1.0081071349972635    0.6380242393978800    0.4249836838154978 H
   0.9136904106420278    0.6104927513532757    0.4231528937479282 H
   0.7530946019689525    0.6109780080840541    0.0765611176097923 H
   0.5771594507151111    0.6384000757722135    0.0752931790802866 H
   0.2353307941669065    0.8523654690106673    0.4352568976491121 H
   0.3811375840095443    0.8647609930647029    0.4391121420578960 H
   0.7061582536464177    0.8527266707964992    0.0621576444860044 H
   0.5226258315108588    0.8652298824822313    0.0611595068151973 H
   0.9944300000000000    0.6152700000000000    0.4384800000000000 O
   0.6581700000000000    0.6158533333333334    0.0612500000000000 O
   0.2747400000000000    0.8689433333333333    0.4517600000000000 O
   0.6162700000000000    0.8694366666666666    0.0469400000000000 O
