Cd96 H385 C379 N315 O1
1.0
  31.4800000000000004    0.0000000000000000    0.0000000000000019
  -7.8441173763278504   21.7986171906132675   -0.0004043404277917
   0.0000000000000000    0.0000000000000000   27.0680000000000014
Cd H C N O
96 385 379 315 1
direct
   0.1787100000000000    0.3433300000000000    0.8750000000000000 Cd
   0.0713000000000000    0.6566900000000000    0.1250000000000000 Cd
   0.9929700000000000    0.3440300000000000    0.1000000000000000 Cd
   0.2570400000000000    0.6559900000000000    0.8750000000000000 Cd
   0.1250050000000000    0.5000100000000000    0.9999950000000000 Cd
   0.1250050000000000    0.5000100000000000    0.7500000000000000 Cd
   0.1787100000000000    0.3433300000000000    0.3750000000000000 Cd
   0.0713000000000000    0.6566900000000000    0.6250000000000000 Cd
   0.9929700000000000    0.3440300000000000    0.6000000000000000 Cd
   0.2570400000000000    0.6559900000000000    0.3750000000000000 Cd
   0.1250050000000000    0.5000100000000000    0.4999950000000000 Cd
   0.1250050000000000    0.5000100000000000    0.2500000000000000 Cd
   0.3213000000000000    0.1566800000000000    0.6250000000000000 Cd
   0.3213000000000000    0.1566800000000000    0.1250000000000000 Cd
   0.4287100000000000    0.8433400000000000    0.8750000000000000 Cd
   0.4287100000000000    0.8433400000000000    0.3750000000000000 Cd
   0.5070450000000000    0.1559800000000000    0.8750000000000000 Cd
   0.2429700000000000    0.8440400000000000    0.1249950000000000 Cd
   0.3750050000000000    0.0000000000000000    0.2500000000000000 Cd
   0.3750050000000000    0.0000000000000000    0.0000000000000000 Cd
   0.5070450000000000    0.1559800000000000    0.3750000000000000 Cd
   0.2429700000000000    0.8440400000000000    0.6249950000000000 Cd
   0.3750050000000000    0.0000000000000000    0.7500000000000000 Cd
   0.3750050000000000    0.0000000000000000    0.5000000000000000 Cd
   0.8212999999999999    0.1566800000000000    0.6250000000000000 Cd
   0.8212999999999999    0.1566800000000000    0.1250000000000000 Cd
   0.9287099999999999    0.8433400000000000    0.8750000000000000 Cd
   0.9287099999999999    0.8433400000000000    0.3750000000000000 Cd
   0.0070450000000000    0.1559800000000000    0.8750000000000000 Cd
   0.7429700000000000    0.8440400000000000    0.1249950000000000 Cd
   0.8750050000000000    0.0000000000000000    0.2500000000000000 Cd
   0.8750050000000000    0.0000000000000000    0.0000000000000000 Cd
   0.0070450000000000    0.1559800000000000    0.3750000000000000 Cd
   0.7429700000000000    0.8440400000000000    0.6249950000000000 Cd
   0.8750050000000000    0.0000000000000000    0.7500000000000000 Cd
   0.8750050000000000    0.0000000000000000    0.5000000000000000 Cd
   0.6787100000000000    0.3433300000000000    0.8750000000000000 Cd
   0.5713000000000000    0.6566900000000000    0.1250000000000000 Cd
   0.4929700000000000    0.3440300000000000    0.1000000000000000 Cd
   0.7570399999999999    0.6559900000000000    0.8750000000000000 Cd
   0.6250050000000000    0.5000100000000000    0.9999950000000000 Cd
   0.6250050000000000    0.5000100000000000    0.7500000000000000 Cd
   0.6787100000000000    0.3433300000000000    0.3750000000000000 Cd
   0.5713000000000000    0.6566900000000000    0.6250000000000000 Cd
   0.4929700000000000    0.3440300000000000    0.6000000000000000 Cd
   0.7570399999999999    0.6559900000000000    0.3750000000000000 Cd
   0.6250050000000000    0.5000100000000000    0.4999950000000000 Cd
   0.6250050000000000    0.5000100000000000    0.2500000000000000 Cd
   0.5713000000000000    0.1566800000000000    0.6250000000000000 Cd
   0.5713000000000000    0.1566800000000000    0.1250000000000000 Cd
   0.6787100000000000    0.8433400000000000    0.3750000000000000 Cd
   0.6787100000000000    0.8433400000000000    0.8750000000000000 Cd
   0.4929700000000000    0.8440400000000000    0.6249950000000000 Cd
   0.6250050000000000    0.0000000000000000    0.7500000000000000 Cd
   0.7570399999999999    0.1559800000000000    0.3750000000000000 Cd
   0.6250050000000000    0.0000000000000000    0.4999950000000000 Cd
   0.4929700000000000    0.8440400000000000    0.1249950000000000 Cd
   0.6250050000000000    0.0000000000000000    0.2500000000000000 Cd
   0.7570399999999999    0.1559800000000000    0.8750000000000000 Cd
   0.6250050000000000    0.0000000000000000    0.9999950000000000 Cd
   0.8212999999999999    0.6566900000000000    0.1250000000000000 Cd
   0.8212999999999999    0.6566900000000000    0.6250000000000000 Cd
   0.9287099999999999    0.3433300000000000    0.8750000000000000 Cd
   0.9287099999999999    0.3433300000000000    0.3750000000000000 Cd
   0.0070450000000000    0.6559900000000000    0.3750000000000000 Cd
   0.7429700000000000    0.3440300000000000    0.6249950000000000 Cd
   0.8750050000000000    0.5000100000000000    0.5000000000000000 Cd
   0.8750050000000000    0.5000100000000000    0.7500000000000000 Cd
   0.0070450000000000    0.6559900000000000    0.8750000000000000 Cd
   0.7429700000000000    0.3440300000000000    0.1249950000000000 Cd
   0.8750050000000000    0.5000100000000000    0.0000000000000000 Cd
   0.8750050000000000    0.5000100000000000    0.2500000000000000 Cd
   0.0713000000000000    0.1566800000000000    0.6250000000000000 Cd
   0.0713000000000000    0.1566800000000000    0.1250000000000000 Cd
   0.1787100000000000    0.8433400000000000    0.3750000000000000 Cd
   0.1787100000000000    0.8433400000000000    0.8750000000000000 Cd
   0.9929700000000000    0.8440400000000000    0.6249950000000000 Cd
   0.1250050000000000    0.0000000000000000    0.7500000000000000 Cd
   0.2570400000000000    0.1559800000000000    0.3750000000000000 Cd
   0.1250050000000000    0.0000000000000000    0.4999950000000000 Cd
   0.9929700000000000    0.8440400000000000    0.1249950000000000 Cd
   0.1250050000000000    0.0000000000000000    0.2500000000000000 Cd
   0.2570400000000000    0.1559800000000000    0.8750000000000000 Cd
   0.1250050000000000    0.0000000000000000    0.9999950000000000 Cd
   0.3213000000000000    0.6566900000000000    0.1250000000000000 Cd
   0.3213000000000000    0.6566900000000000    0.6250000000000000 Cd
   0.4287100000000000    0.3433300000000000    0.8750000000000000 Cd
   0.4287100000000000    0.3433300000000000    0.3750000000000000 Cd
   0.5070450000000000    0.6559900000000000    0.8750000000000000 Cd
   0.2429700000000000    0.3440300000000000    0.1249950000000000 Cd
   0.3750050000000000    0.5000100000000000    0.0000000000000000 Cd
   0.3750050000000000    0.5000100000000000    0.2500000000000000 Cd
   0.5070450000000000    0.6559900000000000    0.3750000000000000 Cd
   0.2429700000000000    0.3440300000000000    0.6249950000000000 Cd
   0.3750050000000000    0.5000100000000000    0.5000000000000000 Cd
   0.3750050000000000    0.5000100000000000    0.7500000000000000 Cd
   0.2296250000000000    0.0561800000000000    0.7023850000000000 H
   0.1995950000000000    0.0969600000000000    0.6695750000000000 H
   0.2296250000000000    0.0561800000000000    0.5476150000000000 H
   0.1995950000000000    0.0969600000000000    0.5804000000000000 H
   0.2696400000000000    0.0005800000000000    0.6579600000000000 H
   0.2696400000000000    0.0005800000000000    0.5920350000000000 H
   0.2020250000000000    0.9447000000000000    0.5476100000000000 H
   0.1517200000000000    0.9036400000000000    0.5803950000000000 H
   0.2020250000000000    0.9447000000000000    0.7023850000000000 H
   0.1517200000000000    0.9036500000000000    0.6696000000000000 H
   0.1110600000000000    0.9591700000000000    0.6250000000000000 H
   0.1313250000000000    0.0410600000000000    0.6250000000000000 H
   0.2296250000000000    0.0561800000000000    0.2023850000000000 H
   0.1995950000000000    0.0969600000000000    0.1695750000000000 H
   0.2296250000000000    0.0561800000000000    0.0476150000000000 H
   0.1995950000000000    0.0969600000000000    0.0804000000000000 H
   0.2696400000000000    0.0005800000000000    0.1579600000000000 H
   0.2696400000000000    0.0005800000000000    0.0920350000000000 H
   0.2020250000000000    0.9447000000000000    0.0476100000000000 H
   0.1517200000000000    0.9036400000000000    0.0803950000000000 H
   0.2020250000000000    0.9447000000000000    0.2023850000000000 H
   0.1517200000000000    0.9036500000000000    0.1696000000000000 H
   0.1110600000000000    0.9591700000000000    0.1250000000000000 H
   0.1313250000000000    0.0410600000000000    0.1250000000000000 H
   0.2020250000000000    0.4446900000000000    0.5476000000000000 H
   0.1517200000000000    0.4036400000000000    0.5803950000000000 H
   0.2020250000000000    0.4447000000000000    0.7023850000000000 H
   0.1517200000000000    0.4036400000000000    0.6696000000000000 H
   0.2696400000000000    0.5005800000000000    0.6579650000000000 H
   0.2696400000000000    0.5005800000000000    0.5920350000000000 H
   0.2296250000000000    0.5561900000000000    0.7023850000000000 H
   0.1995950000000000    0.5969700000000000    0.6695750000000000 H
   0.2296250000000000    0.5561900000000000    0.5476150000000000 H
   0.1995950000000000    0.5969700000000000    0.5804250000000000 H
   0.1110600000000000    0.4591600000000000    0.6250000000000000 H
   0.1313250000000000    0.5410600000000000    0.6250000000000000 H
   0.2020250000000000    0.4446900000000000    0.0476000000000000 H
   0.1517200000000000    0.4036400000000000    0.0803950000000000 H
   0.2020250000000000    0.4447000000000000    0.2023850000000000 H
   0.1517200000000000    0.4036400000000000    0.1696000000000000 H
   0.2696400000000000    0.5005800000000000    0.1579650000000000 H
   0.2696400000000000    0.5005800000000000    0.0920350000000000 H
   0.2296250000000000    0.5561900000000000    0.2023850000000000 H
   0.1995950000000000    0.5969700000000000    0.1695750000000000 H
   0.2296250000000000    0.5561900000000000    0.0476150000000000 H
   0.1995950000000000    0.5969700000000000    0.0804250000000000 H
   0.1110600000000000    0.4591600000000000    0.1250000000000000 H
   0.1313250000000000    0.5410600000000000    0.1250000000000000 H
   0.7020250000000000    0.4446900000000000    0.5476000000000000 H
   0.6517200000000000    0.4036400000000000    0.5803950000000000 H
   0.7020250000000000    0.4447000000000000    0.7023850000000000 H
   0.6517200000000000    0.4036400000000000    0.6696000000000000 H
   0.7696400000000000    0.5005800000000000    0.6579650000000000 H
   0.7696400000000000    0.5005800000000000    0.5920350000000000 H
   0.7296250000000000    0.5561900000000000    0.7023850000000000 H
   0.6995950000000000    0.5969700000000000    0.6695750000000000 H
   0.7296250000000000    0.5561900000000000    0.5476150000000000 H
   0.6995950000000000    0.5969700000000000    0.5804250000000000 H
   0.6110600000000000    0.4591600000000000    0.6250000000000000 H
   0.6313250000000000    0.5410600000000000    0.6250000000000000 H
   0.7296250000000000    0.0561800000000000    0.7023850000000000 H
   0.6995950000000000    0.0969600000000000    0.6695750000000000 H
   0.7296250000000000    0.0561800000000000    0.5476150000000000 H
   0.6995950000000000    0.0969600000000000    0.5804000000000000 H
   0.7696400000000000    0.0005800000000000    0.6579600000000000 H
   0.7696400000000000    0.0005800000000000    0.5920350000000000 H
   0.7020250000000000    0.9447000000000000    0.5476100000000000 H
   0.6517200000000000    0.9036400000000000    0.5803950000000000 H
   0.7020250000000000    0.9447000000000000    0.7023850000000000 H
   0.6517200000000000    0.9036500000000000    0.6696000000000000 H
   0.6110600000000000    0.9591700000000000    0.6250000000000000 H
   0.6313250000000000    0.0410600000000000    0.6250000000000000 H
   0.7020250000000000    0.4446900000000000    0.0476000000000000 H
   0.6517200000000000    0.4036400000000000    0.0803950000000000 H
   0.7020250000000000    0.4447000000000000    0.2023850000000000 H
   0.6517200000000000    0.4036400000000000    0.1696000000000000 H
   0.7696400000000000    0.5005800000000000    0.1579650000000000 H
   0.7696400000000000    0.5005800000000000    0.0920350000000000 H
   0.7296250000000000    0.5561900000000000    0.2023850000000000 H
   0.6995950000000000    0.5969700000000000    0.1695750000000000 H
   0.7296250000000000    0.5561900000000000    0.0476150000000000 H
   0.6995950000000000    0.5969700000000000    0.0804250000000000 H
   0.6110600000000000    0.4591600000000000    0.1250000000000000 H
   0.6313250000000000    0.5410600000000000    0.1250000000000000 H
   0.7296250000000000    0.0561800000000000    0.2023850000000000 H
   0.6995950000000000    0.0969600000000000    0.1695750000000000 H
   0.7296250000000000    0.0561800000000000    0.0476150000000000 H
   0.6995950000000000    0.0969600000000000    0.0804000000000000 H
   0.7696400000000000    0.0005800000000000    0.1579600000000000 H
   0.7696400000000000    0.0005800000000000    0.0920350000000000 H
   0.7020250000000000    0.9447000000000000    0.0476100000000000 H
   0.6517200000000000    0.9036400000000000    0.0803950000000000 H
   0.7020250000000000    0.9447000000000000    0.2023850000000000 H
   0.6517200000000000    0.9036500000000000    0.1696000000000000 H
   0.6110600000000000    0.9591700000000000    0.1250000000000000 H
   0.6313250000000000    0.0410600000000000    0.1250000000000000 H
   0.4796300000000000    0.5561900000000000    0.7023850000000000 H
   0.4496000000000000    0.5969700000000000    0.6695750000000000 H
   0.4796300000000000    0.5561900000000000    0.5476150000000000 H
   0.4495950000000000    0.5969700000000000    0.5804000000000000 H
   0.5196450000000000    0.5005800000000000    0.6579600000000000 H
   0.5196450000000000    0.5005800000000000    0.5920350000000000 H
   0.4520300000000000    0.4446900000000000    0.5476100000000000 H
   0.4017250000000000    0.4036400000000000    0.5803950000000000 H
   0.4520300000000000    0.4446900000000000    0.7023850000000000 H
   0.4017250000000000    0.4036400000000000    0.6696000000000000 H
   0.3610600000000000    0.4591600000000000    0.6250000000000000 H
   0.3813250000000000    0.5410600000000000    0.6250000000000000 H
   0.4796300000000000    0.0561800000000000    0.7023850000000000 H
   0.4495950000000000    0.0969600000000000    0.6695750000000000 H
   0.4796300000000000    0.0561800000000000    0.5476150000000000 H
   0.4495950000000000    0.0969600000000000    0.5804250000000000 H
   0.5196400000000000    0.0005800000000000    0.6579500000000000 H
   0.5196400000000000    0.0005800000000000    0.5920350000000000 H
   0.4520300000000000    0.9447000000000000    0.5476100000000000 H
   0.4017200000000000    0.9036400000000000    0.5803950000000000 H
   0.4520300000000000    0.9447000000000000    0.7023850000000000 H
   0.4017200000000000    0.9036500000000000    0.6696000000000000 H
   0.3610600000000000    0.9591600000000000    0.6250000000000000 H
   0.3813250000000000    0.0410600000000000    0.6250000000000000 H
   0.4796300000000000    0.5561900000000000    0.2023850000000000 H
   0.4496000000000000    0.5969700000000000    0.1695750000000000 H
   0.4796300000000000    0.5561900000000000    0.0476150000000000 H
   0.4495950000000000    0.5969700000000000    0.0804000000000000 H
   0.5196450000000000    0.5005800000000000    0.1579600000000000 H
   0.5196450000000000    0.5005800000000000    0.0920350000000000 H
   0.4520300000000000    0.4446900000000000    0.0476100000000000 H
   0.4017250000000000    0.4036400000000000    0.0803950000000000 H
   0.4520300000000000    0.4446900000000000    0.2023850000000000 H
   0.4017250000000000    0.4036400000000000    0.1696000000000000 H
   0.3610600000000000    0.4591600000000000    0.1250000000000000 H
   0.3813250000000000    0.5410600000000000    0.1250000000000000 H
   0.4796300000000000    0.0561800000000000    0.2023850000000000 H
   0.4495950000000000    0.0969600000000000    0.1695750000000000 H
   0.4796300000000000    0.0561800000000000    0.0476150000000000 H
   0.4495950000000000    0.0969600000000000    0.0804250000000000 H
   0.5196400000000000    0.0005800000000000    0.1579500000000000 H
   0.5196400000000000    0.0005800000000000    0.0920350000000000 H
   0.4520300000000000    0.9447000000000000    0.0476100000000000 H
   0.4017200000000000    0.9036400000000000    0.0803950000000000 H
   0.4520300000000000    0.9447000000000000    0.2023850000000000 H
   0.4017200000000000    0.9036500000000000    0.1696000000000000 H
   0.3610600000000000    0.9591600000000000    0.1250000000000000 H
   0.3813250000000000    0.0410600000000000    0.1250000000000000 H
   0.9796300000000000    0.5561900000000000    0.2023850000000000 H
   0.9496000000000000    0.5969700000000000    0.1695750000000000 H
   0.9796300000000000    0.5561900000000000    0.0476150000000000 H
   0.9495950000000000    0.5969700000000000    0.0804000000000000 H
   0.0196450000000000    0.5005800000000000    0.1579600000000000 H
   0.0196450000000000    0.5005800000000000    0.0920350000000000 H
   0.9520299999999999    0.4446900000000000    0.0476100000000000 H
   0.9017250000000000    0.4036400000000000    0.0803950000000000 H
   0.9520299999999999    0.4446900000000000    0.2023850000000000 H
   0.9017250000000000    0.4036400000000000    0.1696000000000000 H
   0.8610599999999999    0.4591600000000000    0.1250000000000000 H
   0.8813250000000000    0.5410600000000000    0.1250000000000000 H
   0.9796300000000000    0.0561800000000000    0.2023850000000000 H
   0.9495950000000000    0.0969600000000000    0.1695750000000000 H
   0.9796300000000000    0.0561800000000000    0.0476150000000000 H
   0.9495950000000000    0.0969600000000000    0.0804250000000000 H
   0.0196400000000000    0.0005800000000000    0.1579500000000000 H
   0.0196400000000000    0.0005800000000000    0.0920350000000000 H
   0.9520299999999999    0.9447000000000000    0.0476100000000000 H
   0.9017200000000001    0.9036400000000000    0.0803950000000000 H
   0.9520299999999999    0.9447000000000000    0.2023850000000000 H
   0.9017200000000001    0.9036500000000000    0.1696000000000000 H
   0.8610599999999999    0.9591600000000000    0.1250000000000000 H
   0.8813250000000000    0.0410600000000000    0.1250000000000000 H
   0.9796300000000000    0.5561900000000000    0.7023850000000000 H
   0.9496000000000000    0.5969700000000000    0.6695750000000000 H
   0.9796300000000000    0.5561900000000000    0.5476150000000000 H
   0.9495950000000000    0.5969700000000000    0.5804000000000000 H
   0.0196450000000000    0.5005800000000000    0.6579600000000000 H
   0.0196450000000000    0.5005800000000000    0.5920350000000000 H
   0.9520299999999999    0.4446900000000000    0.5476100000000000 H
   0.9017250000000000    0.4036400000000000    0.5803950000000000 H
   0.9520299999999999    0.4446900000000000    0.7023850000000000 H
   0.9017250000000000    0.4036400000000000    0.6696000000000000 H
   0.8610599999999999    0.4591600000000000    0.6250000000000000 H
   0.8813250000000000    0.5410600000000000    0.6250000000000000 H
   0.9796300000000000    0.0561800000000000    0.7023850000000000 H
   0.9495950000000000    0.0969600000000000    0.6695750000000000 H
   0.9796300000000000    0.0561800000000000    0.5476150000000000 H
   0.9495950000000000    0.0969600000000000    0.5804250000000000 H
   0.0196400000000000    0.0005800000000000    0.6579500000000000 H
   0.0196400000000000    0.0005800000000000    0.5920350000000000 H
   0.9520299999999999    0.9447000000000000    0.5476100000000000 H
   0.9017200000000001    0.9036400000000000    0.5803950000000000 H
   0.9520299999999999    0.9447000000000000    0.7023850000000000 H
   0.9017200000000001    0.9036500000000000    0.6696000000000000 H
   0.8610599999999999    0.9591600000000000    0.6250000000000000 H
   0.8813250000000000    0.0410600000000000    0.6250000000000000 H
   0.2979850000000000    0.5553300000000000    0.9523900000000001 H
   0.3482900000000000    0.5963800000000000    0.9196050000000000 H
   0.2979850000000000    0.5553300000000000    0.7976150000000000 H
   0.3482900000000000    0.5963800000000000    0.8304000000000000 H
   0.2303700000000000    0.4994400000000000    0.8420400000000000 H
   0.2303700000000000    0.4994400000000000    0.9079650000000000 H
   0.2703850000000000    0.4438300000000000    0.7976150000000000 H
   0.3004150000000000    0.4030500000000000    0.8304250000000000 H
   0.2703850000000000    0.4438300000000000    0.9523850000000000 H
   0.3004150000000000    0.4030500000000000    0.9195500000000000 H
   0.3686850000000000    0.4589600000000000    0.8750000000000000 H
   0.3889550000000000    0.5408600000000000    0.8750000000000000 H
   0.7979849999999999    0.5553300000000000    0.4523900000000000 H
   0.8482900000000000    0.5963800000000000    0.4196050000000000 H
   0.7979849999999999    0.5553300000000000    0.2976150000000000 H
   0.8482900000000000    0.5963800000000000    0.3304000000000000 H
   0.7303700000000000    0.4994400000000000    0.3420400000000000 H
   0.7303700000000000    0.4994400000000000    0.4079650000000000 H
   0.7703850000000000    0.4438300000000000    0.2976150000000000 H
   0.8004150000000000    0.4030500000000000    0.3304250000000000 H
   0.7703850000000000    0.4438300000000000    0.4523850000000000 H
   0.8004150000000000    0.4030500000000000    0.4195500000000000 H
   0.8686849999999999    0.4589600000000000    0.3750000000000000 H
   0.8889549999999999    0.5408600000000000    0.3750000000000000 H
   0.7979849999999999    0.0553200000000000    0.4523500000000000 H
   0.8482900000000000    0.0963800000000000    0.4196050000000000 H
   0.7979849999999999    0.0553200000000000    0.2976150000000000 H
   0.8482900000000000    0.0963800000000000    0.3304000000000000 H
   0.7303750000000000    0.9994300000000000    0.3420350000000000 H
   0.7303750000000000    0.9994300000000000    0.4079650000000000 H
   0.7703850000000000    0.9438400000000000    0.2976150000000000 H
   0.8004150000000000    0.9030600000000000    0.3304250000000000 H
   0.7703850000000000    0.9438400000000000    0.4523850000000000 H
   0.8004150000000000    0.9030600000000000    0.4195750000000000 H
   0.8686849999999999    0.9589600000000000    0.3750000000000000 H
   0.8889500000000000    0.0408500000000000    0.3750000000000000 H
   0.2979850000000000    0.5553300000000000    0.4523900000000000 H
   0.3482900000000000    0.5963800000000000    0.4196050000000000 H
   0.2979850000000000    0.5553300000000000    0.2976150000000000 H
   0.3482900000000000    0.5963800000000000    0.3304000000000000 H
   0.2303700000000000    0.4994400000000000    0.3420400000000000 H
   0.2303700000000000    0.4994400000000000    0.4079650000000000 H
   0.2703850000000000    0.4438300000000000    0.2976150000000000 H
   0.3004150000000000    0.4030500000000000    0.3304250000000000 H
   0.2703850000000000    0.4438300000000000    0.4523850000000000 H
   0.3004150000000000    0.4030500000000000    0.4195500000000000 H
   0.3686850000000000    0.4589600000000000    0.3750000000000000 H
   0.3889550000000000    0.5408600000000000    0.3750000000000000 H
   0.2979850000000000    0.0553200000000000    0.4523500000000000 H
   0.3482900000000000    0.0963800000000000    0.4196050000000000 H
   0.2979850000000000    0.0553200000000000    0.2976150000000000 H
   0.3482900000000000    0.0963800000000000    0.3304000000000000 H
   0.2303750000000000    0.9994300000000000    0.3420350000000000 H
   0.2303750000000000    0.9994300000000000    0.4079650000000000 H
   0.2703850000000000    0.9438400000000000    0.2976150000000000 H
   0.3004150000000000    0.9030600000000000    0.3304250000000000 H
   0.2703850000000000    0.9438400000000000    0.4523850000000000 H
   0.3004150000000000    0.9030600000000000    0.4195750000000000 H
   0.3686850000000000    0.9589600000000000    0.3750000000000000 H
   0.3889500000000000    0.0408500000000000    0.3750000000000000 H
   0.7979849999999999    0.5553300000000000    0.9523900000000001 H
   0.8482900000000000    0.5963800000000000    0.9196050000000000 H
   0.7979849999999999    0.5553300000000000    0.7976150000000000 H
   0.8482900000000000    0.5963800000000000    0.8304000000000000 H
   0.7303700000000000    0.4994400000000000    0.8420400000000000 H
   0.7303700000000000    0.4994400000000000    0.9079650000000000 H
   0.7703850000000000    0.4438300000000000    0.7976150000000000 H
   0.8004150000000000    0.4030500000000000    0.8304250000000000 H
   0.7703850000000000    0.4438300000000000    0.9523850000000000 H
   0.8004150000000000    0.4030500000000000    0.9195500000000000 H
   0.8686849999999999    0.4589600000000000    0.8750000000000000 H
   0.8889549999999999    0.5408600000000000    0.8750000000000000 H
   0.7979849999999999    0.0553200000000000    0.9523500000000000 H
   0.8482900000000000    0.0963800000000000    0.9196050000000000 H
   0.7979849999999999    0.0553200000000000    0.7976150000000000 H
   0.8482900000000000    0.0963800000000000    0.8304000000000000 H
   0.7303750000000000    0.9994300000000000    0.8420350000000000 H
   0.7303750000000000    0.9994300000000000    0.9079650000000000 H
   0.7703850000000000    0.9438400000000000    0.7976150000000000 H
   0.8004150000000000    0.9030600000000000    0.8304250000000000 H
   0.7703850000000000    0.9438400000000000    0.9523850000000000 H
   0.8004150000000000    0.9030600000000000    0.9195750000000000 H
   0.8686849999999999    0.9589600000000000    0.8750000000000000 H
   0.8889500000000000    0.0408500000000000    0.8750000000000000 H
   0.2979850000000000    0.0553200000000000    0.9523500000000000 H
   0.3482900000000000    0.0963800000000000    0.9196050000000000 H
   0.2979850000000000    0.0553200000000000    0.7976150000000000 H
   0.3482900000000000    0.0963800000000000    0.8304000000000000 H
   0.2303750000000000    0.9994300000000000    0.8420350000000000 H
   0.2303750000000000    0.9994300000000000    0.9079650000000000 H
   0.2703850000000000    0.9438400000000000    0.7976150000000000 H
   0.3004150000000000    0.9030600000000000    0.8304250000000000 H
   0.2703850000000000    0.9438400000000000    0.9523850000000000 H
   0.3004150000000000    0.9030600000000000    0.9195750000000000 H
   0.3686850000000000    0.9589600000000000    0.8750000000000000 H
   0.3889500000000000    0.0408500000000000    0.8750000000000000 H
   0.6186850000000000    0.4589600000000000    0.3750000000000000 H
   0.6389500000000000    0.5408600000000000    0.3750000000000000 H
   0.5479849999999999    0.5553300000000000    0.4523500000000000 H
   0.5982900000000000    0.5963800000000000    0.4196050000000000 H
   0.5479849999999999    0.5553200000000000    0.2976150000000000 H
   0.5982900000000000    0.5963800000000000    0.3304000000000000 H
   0.4803700000000000    0.4994400000000000    0.3420350000000000 H
   0.4803700000000000    0.4994400000000000    0.4079650000000000 H
   0.5203850000000000    0.4438300000000000    0.2976150000000000 H
   0.5504150000000000    0.4030500000000000    0.3304250000000000 H
   0.5203850000000000    0.4438300000000000    0.4523850000000000 H
   0.5504150000000000    0.4030500000000000    0.4195750000000000 H
   0.6186850000000000    0.9589600000000000    0.3750000000000000 H
   0.6389500000000000    0.0408500000000000    0.3750000000000000 H
   0.5479849999999999    0.0553200000000000    0.4523900000000000 H
   0.5982900000000000    0.0963700000000000    0.4196050000000000 H
   0.5479849999999999    0.0553200000000000    0.2976150000000000 H
   0.5982900000000000    0.0963800000000000    0.3304000000000000 H
   0.4803700000000000    0.9994300000000000    0.3420400000000000 H
   0.4803700000000000    0.9994300000000000    0.4079650000000000 H
   0.5203850000000000    0.9438400000000000    0.2976150000000000 H
   0.5504150000000000    0.9030600000000000    0.3304250000000000 H
   0.5203850000000000    0.9438400000000000    0.4523850000000000 H
   0.5504150000000000    0.9030600000000000    0.4195500000000000 H
   0.1186850000000000    0.4589600000000000    0.8750000000000000 H
   0.1389500000000000    0.5408600000000000    0.8750000000000000 H
   0.0479850000000000    0.5553300000000000    0.9523500000000000 H
   0.0982900000000000    0.5963800000000000    0.9196050000000000 H
   0.0479850000000000    0.5553200000000000    0.7976150000000000 H
   0.0982900000000000    0.5963800000000000    0.8304000000000000 H
   0.9803700000000000    0.4994400000000000    0.8420350000000000 H
   0.9803700000000000    0.4994400000000000    0.9079650000000000 H
   0.0203850000000000    0.4438300000000000    0.7976150000000000 H
   0.0504150000000000    0.4030500000000000    0.8304250000000000 H
   0.0203850000000000    0.4438300000000000    0.9523850000000000 H
   0.0504150000000000    0.4030500000000000    0.9195750000000000 H
   0.1186850000000000    0.9589600000000000    0.8750000000000000 H
   0.1389500000000000    0.0408500000000000    0.8750000000000000 H
   0.0479850000000000    0.0553200000000000    0.9523900000000001 H
   0.0982900000000000    0.0963700000000000    0.9196050000000000 H
   0.0479850000000000    0.0553200000000000    0.7976150000000000 H
   0.0982900000000000    0.0963800000000000    0.8304000000000000 H
   0.9803700000000000    0.9994300000000000    0.8420400000000000 H
   0.9803700000000000    0.9994300000000000    0.9079650000000000 H
   0.0203850000000000    0.9438400000000000    0.7976150000000000 H
   0.0504150000000000    0.9030600000000000    0.8304250000000000 H
   0.0203850000000000    0.9438400000000000    0.9523850000000000 H
   0.0504150000000000    0.9030600000000000    0.9195500000000000 H
   0.1186850000000000    0.4589600000000000    0.3750000000000000 H
   0.1389500000000000    0.5408600000000000    0.3750000000000000 H
   0.0479850000000000    0.5553300000000000    0.4523500000000000 H