Zn48 H95 C95 O190
1.0
  20.2109999722951983    0.0000000000000000    0.0010582454848767
   0.0209199603599703   23.0180582952081316   -0.4765329722679704
   0.0000000000000000    0.0000000000000000   14.9429999999999996
Zn H C O
48 95 95 190
direct
   0.4639200000000000    0.8775900000000000    0.1316600000000000 Zn
   0.9639100000000000    0.3775900000000000    0.1316600000000000 Zn
   0.9639100000000000    0.8775900000000000    0.1316600000000000 Zn
   0.0586000000000000    0.3702000000000000    0.3087500000000000 Zn
   0.0586100000000000    0.8702000000000000    0.3087500000000000 Zn
   0.5585900000000000    0.3702000000000000    0.3087500000000000 Zn
   0.5586000000000000    0.8702000000000000    0.3087500000000000 Zn
   0.2139200000000000    0.3724400000000000    0.3683600000000000 Zn
   0.2139200000000000    0.8724499999999999    0.3683600000000000 Zn
   0.7139100000000000    0.3724400000000000    0.3683600000000000 Zn
   0.7139100000000000    0.8724499999999999    0.3683600000000000 Zn
   0.3085800000000000    0.3798300000000000    0.1912400000000000 Zn
   0.3085900000000000    0.8798400000000000    0.1912400000000000 Zn
   0.8085700000000000    0.3798300000000000    0.1912400000000000 Zn
   0.8085700000000000    0.8798400000000000    0.1912400000000000 Zn
   0.0360700000000000    0.1224200000000000    0.8683400000000000 Zn
   0.0360700000000000    0.6224300000000000    0.8683400000000000 Zn
   0.5360600000000000    0.1224200000000000    0.8683400000000000 Zn
   0.5360600000000000    0.6224300000000000    0.8683400000000000 Zn
   0.4413800000000000    0.1298100000000000    0.6912500000000000 Zn
   0.4413900000000000    0.6298200000000000    0.6912500000000000 Zn
   0.9413700000000000    0.1298100000000000    0.6912500000000000 Zn
   0.9413700000000000    0.6298200000000000    0.6912500000000000 Zn
   0.2860700000000000    0.1275700000000000    0.6316400000000000 Zn
   0.2860700000000000    0.6275700000000000    0.6316400000000000 Zn
   0.7860600000000000    0.1275700000000000    0.6316400000000000 Zn
   0.7860600000000000    0.6275700000000000    0.6316400000000000 Zn
   0.1914000000000000    0.1201800000000000    0.8087600000000000 Zn
   0.1914100000000000    0.6201800000000000    0.8087600000000000 Zn
   0.6913899999999999    0.1201800000000000    0.8087600000000000 Zn
   0.6913899999999999    0.6201800000000000    0.8087600000000000 Zn
   0.0000000000000000    0.2500000000000000    0.0000000000000000 Zn
   0.4639200000000000    0.3775900000000000    0.1316600000000000 Zn
   0.0000000000000000    0.7500100000000000    0.0000000000000000 Zn
   0.4999900000000000    0.2500000000000000    0.0000000000000000 Zn
   0.4999900000000000    0.7500100000000000    0.0000000000000000 Zn
   0.2499900000000000    0.0000000000000000    0.5000000000000000 Zn
   0.2500000000000000    0.5000100000000000    0.5000000000000000 Zn
   0.7499800000000000    0.0000000000000000    0.5000000000000000 Zn
   0.7499800000000000    0.5000100000000000    0.5000000000000000 Zn
   0.0000000000000000    0.0000000000000000    0.0000000000000000 Zn
   0.9999800000000000    0.5000100000000000    0.0000000000000000 Zn
   0.4999900000000000    0.0000000000000000    0.0000000000000000 Zn
   0.4999900000000000    0.5000100000000000    0.0000000000000000 Zn
   0.2499900000000000    0.2500000000000000    0.5000000000000000 Zn
   0.2500000000000000    0.7500100000000000    0.5000000000000000 Zn
   0.7499800000000000    0.2500000000000000    0.5000000000000000 Zn
   0.7499800000000000    0.7500100000000000    0.5000000000000000 Zn
   0.3787900000000000    0.4292400000000000    0.3715500000000000 H
   0.3787900000000000    0.9292400000000000    0.3715000000000000 H
   0.8787800000000000    0.4292400000000000    0.3715000000000000 H
   0.8787800000000000    0.9292400000000000    0.3715600000000000 H
   0.0280400000000000    0.2365400000000000    0.2682700000000000 H
   0.0280500000000000    0.7365400000000000    0.2682700000000000 H
   0.5280300000000000    0.2365400000000000    0.2682700000000000 H
   0.5280300000000000    0.7365400000000000    0.2682700000000000 H
   0.3045100000000000    0.2800000000000000    0.0471700000000000 H
   0.3045100000000000    0.7800100000000000    0.0471700000000000 H
   0.8045000000000000    0.2800000000000000    0.0471700000000000 H
   0.8045000000000000    0.7800000000000000    0.0471700000000000 H
   0.1053000000000000    0.4904300000000000    0.2303500000000000 H
   0.1053000000000000    0.9904300000000000    0.2303500000000000 H
   0.6052900000000000    0.4904300000000000    0.2303500000000000 H
   0.6052900000000000    0.9904300000000000    0.2303500000000000 H
   0.0809100000000000    0.3440800000000000    0.9216500000000000 H
   0.0809100000000000    0.8440900000000000    0.9216500000000000 H
   0.5808900000000000    0.3440800000000000    0.9216400000000000 H
   0.5809000000000000    0.8440900000000000    0.9216500000000000 H
   0.3541600000000000    0.0012300000000000    0.0122500000000000 H
   0.3541600000000000    0.5012300000000000    0.0122500000000000 H
   0.8541400000000000    0.0012200000000000    0.0122500000000000 H
   0.8541500000000000    0.5012300000000000    0.0122500000000000 H
   0.1288900000000000    0.3207700000000000    0.1284000000000000 H
   0.1288900000000000    0.8207800000000000    0.1284000000000000 H
   0.6288700000000000    0.3207700000000000    0.1284800000000000 H
   0.6288800000000000    0.8207800000000000    0.1284000000000000 H
   0.2779300000000000    0.0134500000000000    0.2317000000000000 H
   0.2779300000000000    0.5134500000000000    0.2317000000000000 H
   0.7779199999999999    0.0134500000000000    0.2317000000000000 H
   0.7779199999999999    0.5134500000000000    0.2317100000000000 H
   0.0544800000000000    0.4702300000000000    0.4528100000000000 H
   0.0544800000000000    0.9702400000000000    0.4528100000000000 H
   0.5544600000000000    0.4702300000000000    0.4528100000000000 H
   0.5544700000000000    0.9702400000000000    0.4528100000000000 H
   0.3553500000000000    0.7595000000000000    0.2696500000000000 H
   0.8553300000000000    0.2594900000000000    0.2696500000000000 H
   0.8553400000000000    0.7595000000000000    0.2696500000000000 H
   0.3309200000000000    0.4058300000000000    0.5782900000000000 H
   0.3309300000000000    0.9058400000000000    0.5782900000000000 H
   0.8309100000000000    0.4058300000000000    0.5782900000000000 H
   0.8309100000000000    0.9058400000000000    0.5782900000000000 H
   0.1042700000000000    0.2488800000000000    0.4878500000000000 H
   0.1042700000000000    0.7488899999999999    0.4878500000000000 H
   0.6042600000000000    0.2488800000000000    0.4878500000000000 H
   0.6042600000000000    0.7488899999999999    0.4878500000000000 H
   0.1212000000000000    0.0707700000000000    0.6284500000000000 H
   0.1212000000000000    0.5707800000000000    0.6284500000000000 H
   0.6211900000000000    0.0707700000000000    0.6284500000000000 H
   0.6211900000000000    0.5707800000000000    0.6284500000000000 H
   0.4719400000000000    0.2634700000000000    0.7317300000000000 H
   0.4719500000000000    0.7634800000000000    0.7317300000000000 H
   0.9719400000000000    0.2634700000000000    0.7317300000000000 H
   0.9719300000000000    0.7634800000000000    0.7317300000000000 H
   0.1954800000000000    0.2200100000000000    0.9528300000000000 H
   0.1954800000000000    0.7200100000000000    0.9528300000000000 H
   0.6954700000000000    0.2200100000000000    0.9528300000000000 H
   0.6954700000000000    0.7200100000000000    0.9528300000000000 H
   0.3946900000000000    0.0095800000000000    0.7696499999999999 H
   0.3946900000000000    0.5095800000000000    0.7696499999999999 H
   0.8946800000000000    0.0095800000000000    0.7696499999999999 H
   0.8946800000000000    0.5095900000000000    0.7696499999999999 H
   0.4190800000000000    0.1559200000000000    0.0783500000000000 H
   0.4190800000000000    0.6559300000000000    0.0783000000000000 H
   0.9190700000000001    0.1559200000000000    0.0783600000000000 H
   0.9190700000000001    0.6559300000000000    0.0783600000000000 H
   0.1458300000000000    0.4987800000000000    0.9877500000000000 H
   0.1458400000000000    0.9987900000000000    0.9877500000000000 H
   0.6458199999999999    0.4987800000000000    0.9877500000000000 H
   0.6458199999999999    0.9987900000000000    0.9877500000000000 H
   0.3711000000000000    0.1792400000000000    0.8715200000000000 H
   0.3711000000000000    0.6792400000000000    0.8715200000000000 H
   0.8710900000000000    0.1792400000000000    0.8715200000000000 H
   0.8710900000000000    0.6792400000000000    0.8715200000000000 H
   0.2220500000000000    0.4865600000000000    0.7683000000000000 H
   0.2220600000000000    0.9865600000000000    0.7683000000000000 H
   0.7220400000000000    0.4865600000000000    0.7683000000000000 H
   0.7220500000000000    0.9865699999999999    0.7683000000000000 H
   0.4455100000000000    0.0297800000000000    0.5471900000000000 H
   0.4455100000000000    0.5297800000000000    0.5471900000000000 H
   0.9455000000000000    0.0297700000000000    0.5471900000000000 H
   0.9455000000000000    0.5297800000000000    0.5471900000000000 H
   0.1446400000000000    0.2405200000000000    0.7303500000000001 H
   0.1446500000000000    0.7405200000000000    0.7303500000000001 H
   0.6446300000000000    0.2405200000000000    0.7303500000000001 H
   0.6446300000000000    0.7405200000000000    0.7303500000000001 H
   0.1690600000000000    0.0941800000000000    0.4217100000000000 H
   0.1690700000000000    0.5941800000000000    0.4217100000000000 H
   0.6690500000000000    0.0941800000000000    0.4217100000000000 H
   0.6690600000000000    0.5941800000000000    0.4217100000000000 H
   0.3957200000000000    0.2511300000000000    0.5121000000000000 H
   0.3957200000000000    0.7511300000000000    0.5121000000000000 H
   0.8957100000000000    0.2511300000000000    0.5121599999999999 H
   0.8957100000000000    0.7511300000000000    0.5121599999999999 H
   0.9864800000000000    0.7406800000000000    0.7931000000000000 C
   0.1416400000000000    0.2124700000000000    0.9464600000000000 C
   0.1416500000000000    0.7124700000000000    0.9464600000000000 C
   0.6416300000000000    0.2124700000000000    0.9464600000000000 C
   0.4193400000000000    0.4130800000000000    0.3282800000000000 C
   0.4193400000000000    0.9130800000000000    0.3282800000000000 C
   0.9193300000000000    0.4130800000000000    0.3282800000000000 C
   0.9193300000000000    0.9130800000000000    0.3282800000000000 C
   0.0135000000000000    0.2593400000000000    0.2069000000000000 C
   0.0135100000000000    0.7593400000000000    0.2069000000000000 C
   0.5134900000000000    0.2593400000000000    0.2069000000000000 C
   0.5134900000000000    0.7593400000000000    0.2069000000000000 C
   0.3583500000000000    0.2875400000000000    0.0535000000000000 C
   0.3583500000000000    0.7875400000000000    0.0535400000000000 C
   0.8583300000000000    0.2875400000000000    0.0535400000000000 C
   0.8583400000000000    0.7875400000000000    0.0535000000000000 C
   0.0686000000000000    0.4758600000000000    0.1796700000000000 C
   0.0686100000000000    0.9758599999999999    0.1796700000000000 C
   0.5685900000000000    0.4758600000000000    0.1796700000000000 C
   0.5686000000000000    0.9758599999999999    0.1796700000000000 C
   0.0505200000000000    0.3714500000000000    0.9670299999999999 C
   0.0505200000000000    0.8714600000000000    0.9670299999999999 C
   0.5505100000000001    0.3714500000000000    0.9670299999999999 C
   0.5505100000000001    0.8714600000000000    0.9670299999999999 C
   0.3631800000000000    0.4649100000000000    0.0575800000000000 C
   0.3631900000000000    0.9649200000000000    0.0575800000000000 C
   0.8631700000000000    0.4649100000000000    0.0575800000000000 C
   0.8631799999999999    0.9649200000000000    0.0575800000000000 C
   0.1694000000000000    0.3369500000000000    0.1717000000000000 C
   0.1694100000000000    0.8369500000000000    0.1717000000000000 C
   0.6693900000000000    0.3369500000000000    0.1717000000000000 C
   0.6693900000000000    0.8369500000000000    0.1717000000000000 C
   0.2634300000000000    0.4906700000000000    0.2930900000000000 C
   0.2634300000000000    0.9906800000000000    0.2930900000000000 C
   0.7634200000000000    0.4906700000000000    0.2930000000000000 C
   0.7634200000000000    0.9906800000000000    0.2930900000000000 C
   0.1083100000000000    0.4626300000000000    0.4464200000000000 C
   0.1083200000000000    0.9626300000000000    0.4464200000000000 C
   0.6083000000000000    0.4626300000000000    0.4464200000000000 C
   0.6083100000000000    0.9626300000000000    0.4464200000000000 C
   0.3186300000000000    0.7741200000000000    0.3203200000000000 C
   0.8186200000000000    0.2741100000000000    0.3203200000000000 C
   0.8186200000000000    0.7741200000000000    0.3203200000000000 C
   0.3005200000000000    0.3785100000000000    0.5329400000000000 C
   0.3005200000000000    0.8785100000000000    0.5329400000000000 C
   0.8005100000000001    0.3785100000000000    0.5329400000000000 C
   0.8005100000000001    0.8785100000000000    0.5329400000000000 C
   0.1132400000000000    0.2851700000000000    0.4424700000000000 C
   0.1132500000000000    0.7851700000000000    0.4424700000000000 C
   0.6132300000000001    0.2851700000000000    0.4424700000000000 C
   0.6132300000000001    0.7851700000000000    0.4424700000000000 C
   0.0806500000000000    0.0869300000000000    0.6717200000000000 C
   0.0806500000000000    0.5869400000000000    0.6717200000000000 C
   0.5806400000000000    0.0869300000000000    0.6717200000000000 C
   0.5806400000000000    0.5869400000000000    0.6717200000000000 C
   0.4864800000000000    0.2406700000000000    0.7931000000000000 C
   0.4864900000000000    0.7406800000000000    0.7931000000000000 C
   0.9864700000000000    0.2406700000000000    0.7931000000000000 C
   0.6416300000000000    0.7124700000000000    0.9464600000000000 C
   0.4313800000000000    0.0241500000000000    0.8203300000000000 C
   0.4313900000000000    0.5241600000000000    0.8203300000000000 C
   0.9313700000000000    0.0241500000000000    0.8203300000000000 C
   0.9313700000000000    0.5241600000000000    0.8203300000000000 C
   0.4494700000000000    0.1285500000000000    0.0329700000000000 C
   0.4494700000000000    0.6285600000000000    0.0329700000000000 C
   0.9494600000000000    0.1285500000000000    0.0329700000000000 C
   0.9494600000000000    0.6285600000000000    0.0329700000000000 C
   0.1368000000000000    0.0351000000000000    0.9424200000000000 C
   0.1368100000000000    0.5351000000000000    0.9424200000000000 C
   0.6367900000000000    0.0351000000000000    0.9424200000000000 C
   0.6367900000000000    0.5351000000000000    0.9424200000000000 C
   0.3305900000000000    0.1630600000000000    0.8282700000000000 C
   0.3305900000000000    0.6630700000000000    0.8282700000000000 C
   0.8305700000000000    0.1630600000000000    0.8282700000000000 C
   0.8305800000000000    0.6630700000000000    0.8282700000000000 C
   0.2365600000000000    0.0093300000000000    0.7069100000000000 C
   0.2365600000000000    0.5093400000000000    0.7069100000000000 C
   0.7365400000000000    0.0093300000000000    0.7069100000000000 C
   0.7365500000000000    0.5093400000000000    0.7069100000000000 C
   0.3916700000000000    0.0373800000000000    0.5535800000000000 C
   0.3916700000000000    0.5373900000000000    0.5535800000000000 C
   0.8916600000000000    0.0373800000000000    0.5535800000000000 C
   0.8916600000000000    0.5373900000000000    0.5535800000000000 C
   0.1813600000000000    0.2259000000000000    0.6796800000000000 C
   0.1813600000000000    0.7259000000000000    0.6796800000000000 C
   0.6813399999999999    0.2259000000000000    0.6796800000000000 C
   0.6813500000000000    0.7259000000000000    0.6796800000000000 C
   0.1994700000000000    0.1215000000000000    0.4670600000000000 C
   0.1994700000000000    0.6215100000000000    0.4670600000000000 C
   0.6994600000000000    0.1215000000000000    0.4670600000000000 C
   0.6994600000000000    0.6215100000000000    0.4670600000000000 C
   0.3867400000000000    0.2148400000000000    0.5575400000000000 C
   0.3867500000000000    0.7148500000000000    0.5575400000000000 C
   0.8867300000000000    0.2148400000000000    0.5575400000000000 C
   0.8867300000000000    0.7148500000000000    0.5575400000000000 C
   0.3754600000000000    0.3256700000000000    0.1135200000000000 O
   0.3754700000000000    0.8256800000000000    0.1135000000000000 O
   0.8754500000000000    0.3256700000000000    0.1135000000000000 O
   0.8754500000000000    0.8256700000000000    0.1135000000000000 O
   0.3962200000000000    0.2586000000000000    0.0034200000000000 O
   0.2471800000000000    0.9796899999999999    0.6373400000000000 O
   0.7471600000000000    0.4796800000000000    0.6373400000000000 O
   0.7471700000000000    0.9796899999999999    0.6373400000000000 O
   0.3745600000000000    0.0756000000000000    0.6134900000000000 O
   0.3745600000000000    0.5756100000000000    0.6134900000000000 O
   0.8745500000000000    0.0756000000000000    0.6134900000000000 O
   0.8745500000000000    0.5756100000000000    0.6134900000000000 O
   0.3538000000000000    0.0084200000000000    0.5035600000000000 O
   0.4047900000000000    0.4020900000000000    0.2460500000000000 O
   0.4048000000000000    0.9021000000000000    0.2460500000000000 O
   0.9047800000000000    0.4020900000000000    0.2460500000000000 O
   0.9047800000000000    0.9021000000000000    0.2460500000000000 O
   0.4753000000000000    0.4077000000000000    0.3640600000000000 O
   0.4753000000000000    0.9077100000000000    0.3640600000000000 O
   0.9752900000000000    0.4077000000000000    0.3640600000000000 O
   0.9752900000000000    0.9077100000000000    0.3640600000000000 O
   0.0090500000000000    0.3150000000000000    0.2148600000000000 O
   0.0090500000000000    0.8149999999999999    0.2148600000000000 O
   0.5090400000000000    0.3150000000000000    0.2148600000000000 O
   0.5090400000000000    0.8149999999999999    0.2148600000000000 O
   0.0028000000000000    0.2296900000000000    0.1373000000000000 O
   0.0028000000000000    0.7297000000000000    0.1373000000000000 O
   0.5027900000000000    0.2296900000000000    0.1373000000000000 O
   0.5027900000000000    0.7297000000000000    0.1373000000000000 O
   0.3962200000000000    0.7586000000000001    0.0034200000000000 O
   0.8962100000000000    0.2586000000000000    0.0034200000000000 O
   0.8962100000000000    0.7586000000000001    0.0034200000000000 O
   0.0442500000000000    0.4250100000000000    0.1914700000000000 O
   0.0442500000000000    0.9250200000000000    0.1914700000000000 O
   0.5442399999999999    0.4250100000000000    0.1914700000000000 O
   0.5442399999999999    0.9250200000000000    0.1914700000000000 O
   0.0555500000000000    0.0098100000000000    0.1177800000000000 O
   0.0555500000000000    0.5098200000000001    0.1177800000000000 O
   0.5555400000000000    0.0098100000000000    0.1177800000000000 O
   0.5555400000000000    0.5098200000000001    0.1177800000000000 O
   0.0138300000000000    0.3430800000000000    0.0220300000000000 O
   0.0138300000000000    0.8430900000000000    0.0220300000000000 O
   0.5138200000000001    0.3430800000000000    0.0220000000000000 O
   0.5138200000000001    0.8430900000000000    0.0220300000000000 O
   0.0551700000000000    0.4253100000000000    0.9614100000000000 O
   0.0551700000000000    0.9253100000000000    0.9614100000000000 O
   0.5551600000000000    0.4253100000000000    0.9614100000000000 O
   0.5551600000000000    0.9253100000000000    0.9614100000000000 O
   0.4238400000000000    0.4480300000000000    0.0632300000000000 O
   0.4238500000000000    0.9480400000000000    0.0632300000000000 O
   0.9238300000000000    0.4480300000000000    0.0632300000000000 O
   0.9238300000000000    0.9480400000000000    0.0632300000000000 O
   0.3142000000000000    0.4446400000000000    0.0979800000000000 O
   0.3142000000000000    0.9446400000000000    0.0979800000000000 O
   0.8141900000000000    0.4446400000000000    0.0979800000000000 O
   0.8141900000000000    0.9446400000000000    0.0979800000000000 O
   0.1548500000000000    0.3479200000000000    0.2539700000000000 O
   0.1548500000000000    0.8479300000000000    0.2539700000000000 O
   0.6548300000000000    0.3479200000000000    0.2539700000000000 O
   0.6548400000000000    0.8479300000000000    0.2539700000000000 O
   0.2253500000000000    0.3423400000000000    0.1359400000000000 O
   0.2253500000000000    0.8423500000000000    0.1359400000000000 O
   0.7253300000000000    0.3423400000000000    0.1359400000000000 O
   0.7253400000000000    0.8423500000000000    0.1359400000000000 O
   0.2589300000000000    0.4350200000000000    0.2851200000000000 O
   0.2589300000000000    0.9350300000000000    0.2851200000000000 O
   0.7589200000000000    0.4350200000000000    0.2851200000000000 O
   0.7589200000000000    0.9350300000000000    0.2851200000000000 O
   0.2528100000000000    0.0203200000000000    0.3626600000000000 O
   0.2528200000000000    0.5203300000000000    0.3626600000000000 O
   0.7528000000000000    0.0203200000000000    0.3626600000000000 O
   0.7528000000000000    0.5203300000000000    0.3626600000000000 O
   0.1254300000000000    0.4244100000000000    0.3865200000000000 O
   0.1254300000000000    0.9244100000000000    0.3865200000000000 O
   0.6254200000000000    0.4244100000000000    0.3865200000000000 O
   0.6254200000000000    0.9244100000000000    0.3865200000000000 O
   0.1461800000000000    0.4915900000000000    0.4964400000000000 O
   0.1461900000000000    0.9916000000000000    0.4964400000000000 O
   0.6461700000000000    0.4915900000000000    0.4964400000000000 O
   0.6461700000000000    0.9916000000000000    0.4964400000000000 O
   0.2942800000000000    0.8250000000000000    0.3085000000000000 O
   0.7942600000000000    0.3250000000000000    0.3085000000000000 O
   0.7942600000000000    0.8250000000000000    0.3085000000000000 O
   0.3055600000000000    0.7401700000000000    0.3822000000000000 O
   0.8055500000000000    0.2401700000000000    0.3822000000000000 O
   0.8055500000000000    0.7401700000000000    0.3822000000000000 O
   0.2638200000000000    0.4069300000000000    0.4779000000000000 O
   0.2638300000000000    0.9069300000000000    0.4779000000000000 O
   0.7638100000000000    0.4069300000000000    0.4779200000000000 O
   0.7638200000000001    0.9069300000000000    0.4779000000000000 O
   0.3051400000000000    0.3246500000000000    0.5386000000000000 O
   0.3051400000000000    0.8246500000000000    0.5386000000000000 O
   0.8051199999999999    0.3246500000000000    0.5386000000000000 O
   0.8051300000000000    0.8246500000000000    0.5386000000000000 O
   0.1738700000000000    0.3020300000000000    0.4368000000000000 O
   0.1738800000000000    0.8020400000000000    0.4368000000000000 O
   0.6738600000000000    0.3020300000000000    0.4368000000000000 O
   0.6738600000000000    0.8020400000000000    0.4368000000000000 O
   0.0642400000000000    0.3054200000000000    0.4020100000000000 O
   0.0642400000000000    0.8054300000000000    0.4020100000000000 O
   0.5642200000000001    0.3054200000000000    0.4020100000000000 O
   0.5642300000000000    0.8054300000000000    0.4020100000000000 O
   0.0951900000000000    0.0979100000000000    0.7539500000000000 O
   0.0952000000000000    0.5979200000000000    0.7539500000000000 O
   0.5951800000000000    0.0979100000000000    0.7539500000000000 O
   0.5951800000000000    0.5979200000000000    0.7539500000000000 O
   0.0246900000000000    0.0923100000000000    0.6359000000000000 O
   0.0246900000000000    0.5923100000000000    0.6359399999999999 O
   0.5246700000000000    0.0923100000000000    0.6359399999999999 O
   0.5246800000000000    0.5923100000000000    0.6359399999999999 O
   0.4909400000000000    0.1850100000000000    0.7851500000000000 O
   0.4909400000000000    0.6850200000000000    0.7851500000000000 O
   0.9909200000000000    0.1850100000000000    0.7851500000000000 O
   0.9909300000000000    0.6850200000000000    0.7851500000000000 O
   0.4971900000000000    0.2703200000000000    0.8626400000000000 O
   0.4971900000000000    0.7703200000000000    0.8626400000000000 O
   0.9971800000000000    0.2703200000000000    0.8626400000000000 O
   0.9971800000000000    0.7703200000000000    0.8626400000000000 O
   0.1245200000000000    0.1743400000000000    0.8864800000000000 O
   0.1245300000000000    0.6743400000000001    0.8864800000000000 O
   0.6245100000000000    0.1743400000000000    0.8864800000000000 O
   0.6245200000000000    0.6743400000000001    0.8864800000000000 O
   0.1037700000000000    0.2414100000000000    0.9965900000000000 O
   0.1037700000000000    0.7414100000000000    0.9965900000000000 O
   0.6037600000000000    0.2414100000000000    0.9965000000000001 O
   0.6037600000000000    0.7414200000000000    0.9965900000000000 O
   0.4557400000000000    0.0750000000000000    0.8085300000000000 O
   0.4557400000000000    0.5750000000000000    0.8085300000000000 O
   0.9557300000000000    0.0750000000000000    0.8085300000000000 O
   0.9557300000000000    0.5750000000000000    0.8085300000000000 O
   0.4444400000000000    0.4902000000000000    0.8822300000000000 O
   0.4444400000000000    0.9902000000000000    0.8822300000000000 O
   0.9444300000000000    0.4902000000000000    0.8822300000000000 O
   0.9444300000000000    0.9902000000000000    0.8822300000000000 O
   0.4861600000000000    0.1569300000000000    0.9779800000000000 O
   0.4861600000000000    0.6569300000000000    0.9779800000000000 O
   0.9861500000000000    0.1569300000000000    0.9779800000000000 O
   0.9861500000000000    0.6569300000000000    0.9779800000000000 O
   0.4448200000000000    0.0747000000000000    0.0385900000000000 O
   0.4448200000000000    0.5747100000000001    0.0385900000000000 O
   0.9448100000000000    0.0747000000000000    0.0385900000000000 O
   0.9448100000000000    0.5747100000000001    0.0385900000000000 O
   0.0761400000000000    0.0519800000000000    0.9367700000000000 O
   0.0761500000000000    0.5519800000000000    0.9367700000000000 O
   0.5761300000000000    0.0519800000000000    0.9367700000000000 O
   0.5761400000000000    0.5519800000000000    0.9367700000000000 O
   0.1857900000000000    0.0553700000000000    0.9020200000000000 O
   0.1857900000000000    0.5553800000000000    0.9020200000000000 O
   0.6857799999999999    0.0553700000000000    0.9020200000000000 O
   0.6857799999999999    0.5553800000000000    0.9020200000000000 O
   0.3451400000000000    0.1520900000000000    0.7460300000000000 O
   0.3451400000000000    0.6520899999999999    0.7460300000000000 O
   0.8451300000000000    0.1520900000000000    0.7460300000000000 O
   0.8451300000000000    0.6520899999999999    0.7460300000000000 O
   0.2746400000000000    0.1576700000000000    0.8640700000000000 O
   0.2746400000000000    0.6576800000000000    0.8640700000000000 O
   0.7746300000000000    0.1576700000000000    0.8640000000000000 O
   0.7746300000000000    0.6576700000000000    0.8640700000000000 O
   0.2410600000000000    0.0649800000000000    0.7148800000000000 O
   0.2410600000000000    0.5649900000000000    0.7148800000000000 O
   0.7410500000000000    0.0649800000000000    0.7148800000000000 O
   0.7410500000000000    0.5649900000000000    0.7148800000000000 O
   0.2471700000000000    0.4796800000000000    0.6373400000000000 O
   0.3538100000000000    0.5084200000000000    0.5035600000000000 O
   0.8537900000000000    0.0084200000000000    0.5035600000000000 O
   0.8538000000000000    0.5084200000000000    0.5035600000000000 O
   0.2057100000000000    0.1750100000000000    0.6914800000000000 O
   0.2057200000000000    0.6750200000000000    0.6914800000000000 O
   0.7057000000000000    0.1750100000000000    0.6914800000000000 O
   0.7057099999999999    0.6750200000000000    0.6914800000000000 O
   0.1944300000000000    0.2598400000000000    0.6178000000000000 O
   0.1944300000000000    0.7598500000000000    0.6178000000000000 O
   0.6944200000000000    0.2598400000000000    0.6178000000000000 O
   0.6944200000000000    0.7598500000000000    0.6178000000000000 O
   0.2361600000000000    0.0930800000000000    0.5220800000000000 O
   0.2361700000000000    0.5930900000000000    0.5220800000000000 O
   0.7361500000000000    0.0930800000000000    0.5220800000000000 O
   0.7361500000000000    0.5930900000000000    0.5220800000000000 O
   0.1948500000000000    0.1753600000000000    0.4614000000000000 O
   0.1948500000000000    0.6753700000000000    0.4614000000000000 O
   0.6948400000000000    0.1753600000000000    0.4614000000000000 O
   0.6948400000000000    0.6753700000000000    0.4614000000000000 O
   0.3261100000000000    0.1979800000000000    0.5632000000000000 O
   0.3261200000000000    0.6979800000000000    0.5632000000000000 O
   0.8260999999999999    0.1979800000000000    0.5632000000000000 O
   0.8261100000000000    0.6979800000000000    0.5632000000000000 O
   0.4357500000000000    0.1945900000000000    0.5979900000000000 O
   0.4357600000000000    0.6945900000000000    0.5979900000000000 O
   0.9357400000000000    0.1945900000000000    0.5979900000000000 O
   0.9357400000000000    0.6945900000000000    0.5979900000000000 O
