H8 O4
1.0
  22.9579999999999984    0.0000000000000000    0.0000000000000014
   0.0000000000000040   25.0300000000000011    0.0000000000000015
   0.0000000000000000    0.0000000000000000   29.7040000000000006
H O
8 4
direct
   0.2360487463060040    0.4253577182533081    0.7043226878150382 H
   0.2670770811993982    0.4321153757442415    0.6450295540129343 H
   0.2360487463060040    0.4253577182533081    0.7956623121849619 H
   0.2670766150686706    0.4321146798575383    0.8549555266250045 H
   0.7316829638219909    0.0910571724257107    0.8163831946836841 H
   0.7639306805961078    0.0746609380289962    0.7956633612818443 H
   0.7316829638219909    0.0910571724257107    0.6836018053163160 H
   0.7639306805961078    0.0746609380289962    0.7043216387181557 H
   0.2516000000000000    0.4389100000000000    0.6758550000000000 O
   0.2516000000000000    0.4389100000000000    0.8241300000000000 O
   0.7483800000000000    0.0611050000000000    0.8241300000000000 O
   0.7483800000000000    0.0611050000000000    0.6758550000000000 O
