H6 O4
1.0
  31.9621899834977015    0.0000000000000000   18.2671565236300317
   5.3045721465810676   15.0963279590164969    9.1165482774750419
   0.0000000000000000    0.0000000000000000   36.8220000000000027
H O
6 4
direct
   0.9965001991379741    0.6139479409658781    0.8904625937866201 H
   0.8904449689674081    0.6136595530643917    0.9964279906662511 H
   0.9473527931621643    0.6060622694619441    0.9473306177912417 H
   0.0035096889344979    0.3860419353677844    0.1095303956381519 H
   0.1095621934054088    0.3863483622472199    0.0035668653802293 H
   0.0526537747736300    0.3939395740941868    0.0526628329968282 H
   0.9643750000000000    0.6337100000000000    0.9026850000000000 O
   0.9026850000000000    0.6335400000000000    0.9643250000000000 O
   0.0356350000000000    0.3662800000000000    0.0973100000000000 O
   0.0973250000000000    0.3664600000000000    0.0356700000000000 O
