H4 C6 O4
1.0
  13.5439809886022076    0.0000000000000000    0.0226931791954840
  -0.0226938427815009   14.8004031342478459    0.1309696653672147
   0.0000000000000000    0.0000000000000000   21.5990000000000002
H C O
4 6 4
direct
   0.4922000000000000    0.3769800000000000    0.1851500000000000 H
   0.5090900000000000    0.2091100000000000    0.2696200000000000 H
   0.5004600000000000    0.4170600000000000    0.2966400000000000 H
   0.5159800000000000    0.2513800000000000    0.3835400000000000 H
   0.4973700000000000    0.2412400000000000    0.1455400000000000 C
   0.4972900000000000    0.3055600000000000    0.1980500000000000 C
   0.5041099999999999    0.2811800000000000    0.2583800000000000 C
   0.5050900000000000    0.3450500000000000    0.3083600000000000 C
   0.5111599999999999    0.3220800000000000    0.3689900000000000 C
   0.5103100000000000    0.3894400000000000    0.4197800000000000 C
   0.4994500000000000    0.1558600000000000    0.1571600000000000 O
   0.4960000000000000    0.2735300000000000    0.0908600000000000 O
   0.5120100000000000    0.3553100000000000    0.4744000000000000 O
   0.5079200000000000    0.4727100000000000    0.4051600000000000 O
