Zn8 H92 C120 N12 O32
1.0
  13.5439809886022076    0.0000000000000000    0.0226931791954840
  -0.0226938427815009   14.8004031342478459    0.1309696653672147
   0.0000000000000000    0.0000000000000000   21.5990000000000002
Zn H C N O
8 92 120 12 32
direct
   0.4997300000000000    0.8939700000000000    0.9334800000000000 Zn
   0.4998700000000000    0.6055300000000000    0.4344700000000000 Zn
   0.5003100000000000    0.1060300000000000    0.0664800000000000 Zn
   0.9997300000000000    0.6060400000000000    0.0664900000000000 Zn
   0.0003500000000000    0.1055400000000000    0.4344600000000000 Zn
   0.0003100000000000    0.3939600000000000    0.9334900000000000 Zn
   0.9996800000000000    0.8944600000000000    0.5655000000000000 Zn
   0.5001700000000000    0.3945100000000000    0.5654800000000000 Zn
   0.6587700000000000    0.4776300000000000    0.6487000000000001 H
   0.8366600000000000    0.5223100000000001    0.6428500000000000 H
   0.8586400000000000    0.3615300000000000    0.4770900000000000 H
   0.6798800000000000    0.3292400000000000    0.4883100000000000 H
   0.9925300000000000    0.5183700000000000    0.5883699999999999 H
   0.3190900000000000    0.4697600000000000    0.6343400000000000 H
   0.1398000000000000    0.4938200000000000    0.6155500000000000 H
   0.1665100000000000    0.3229200000000000    0.4556100000000000 H
   0.3465000000000000    0.3074000000000000    0.4808000000000000 H
   0.0064800000000000    0.3728700000000000    0.4875600000000000 H
   0.4896800000000000    0.1183200000000000    0.6867400000000000 H
   0.5089300000000000    0.2886900000000000    0.7665800000000000 H
   0.4997700000000000    0.0816900000000000    0.7992100000000000 H
   0.5161100000000000    0.2500000000000000    0.8816400000000000 H
   0.3408000000000000    0.9805500000000000    0.8504000000000000 H
   0.1634500000000000    0.0259800000000000    0.8570900000000000 H
   0.1418400000000000    0.8613200000000000    0.0230500000000000 H
   0.3201800000000000    0.8284000000000000    0.0110500000000000 H
   0.0076900000000000    0.0200500000000000    0.9115000000000000 H
   0.6819300000000000    0.9717400000000000    0.8645100000000000 H
   0.8608600000000000    0.9962000000000000    0.8841000000000000 H
   0.8325500000000000    0.8219000000000000    0.0443800000000000 H
   0.6529800000000000    0.8060500000000000    0.0182900000000000 H
   0.9931600000000000    0.8723800000000000    0.0125900000000000 H
   0.5078300000000000    0.6230200000000000    0.8148000000000000 H
   0.4909000000000000    0.7909200000000000    0.7303500000000001 H
   0.4995600000000000    0.5829700000000000    0.7032900000000000 H
   0.4840100000000000    0.7486800000000000    0.6164100000000000 H
   0.3412600000000000    0.5223500000000000    0.3512800000000000 H
   0.1633700000000000    0.4776700000000000    0.3571300000000000 H
   0.1413900000000000    0.6385100000000000    0.5228600000000000 H
   0.3201500000000000    0.6707900000000000    0.5116400000000000 H
   0.0074900000000000    0.4816500000000000    0.4116000000000000 H
   0.6809500000000001    0.5303099999999999    0.3656300000000000 H
   0.8602300000000001    0.5062400000000000    0.3844100000000000 H
   0.8335100000000000    0.6770900000000000    0.5443800000000000 H
   0.6535200000000000    0.6926099999999999    0.5191900000000000 H
   0.9935500000000000    0.6271400000000000    0.5124200000000000 H
   0.5103900000000000    0.8819800000000000    0.3131900000000000 H
   0.4910900000000000    0.7114800000000000    0.2335000000000000 H
   0.5002500000000000    0.9184099999999999    0.2006600000000000 H
   0.4839000000000000    0.7499900000000000    0.1183400000000000 H
   0.6592100000000000    0.0194500000000000    0.1495100000000000 H
   0.8365700000000000    0.9740400000000000    0.1428800000000000 H
   0.8581900000000000    0.1387000000000000    0.9769200000000000 H
   0.6798500000000000    0.1716100000000000    0.9889100000000000 H
   0.9923300000000000    0.9799700000000000    0.0884000000000000 H
   0.3181100000000000    0.0282700000000000    0.1354000000000000 H
   0.1391800000000000    0.0038200000000000    0.1158000000000000 H
   0.1674800000000000    0.1781100000000000    0.9555900000000001 H
   0.3470600000000000    0.1939500000000000    0.9816700000000000 H
   0.0068800000000000    0.1276500000000000    0.9873900000000000 H
   0.4922000000000000    0.3769800000000000    0.1851500000000000 H
   0.5090900000000000    0.2091100000000000    0.2696200000000000 H
   0.5004600000000000    0.4170600000000000    0.2966400000000000 H
   0.5159800000000000    0.2513800000000000    0.3835400000000000 H
   0.0000000000000000    0.8770300000000000    0.1851300000000000 H
   0.9908600000000000    0.7091100000000000    0.2696400000000000 H
   0.9994700000000000    0.9171000000000000    0.2966300000000000 H
   0.9839599999999999    0.7513800000000000    0.3835800000000000 H
   0.1594900000000000    0.0222900000000000    0.3513400000000000 H
   0.3371900000000000    0.9776800000000000    0.3572800000000000 H
   0.3586000000000000    0.1385600000000000    0.5229900000000000 H
   0.1800400000000000    0.1708400000000000    0.5116700000000000 H
   0.4928500000000000    0.9821000000000000    0.4116100000000000 H
   0.8195500000000000    0.0304500000000000    0.3656800000000000 H
   0.6400600000000000    0.0065500000000000    0.3844800000000000 H
   0.6666666666666666    0.1773200000000000    0.5444700000000000 H
   0.8469100000000001    0.1927300000000000    0.5192300000000000 H
   0.5066400000000000    0.1271600000000000    0.5127100000000000 H
   0.9897300000000000    0.3821500000000000    0.3132800000000000 H
   0.0088200000000000    0.2116500000000000    0.2335900000000000 H
   0.9996300000000000    0.4185300000000000    0.2006600000000000 H
   0.0155400000000000    0.2500300000000000    0.1183800000000000 H
   0.9923900000000000    0.1229700000000000    0.8148500000000000 H
   0.0091400000000000    0.2908900000000000    0.7303400000000000 H
   0.0005500000000000    0.0829100000000000    0.7033500000000000 H
   0.0160200000000000    0.2486300000000000    0.6163999999999999 H
   0.8405800000000000    0.9777400000000001    0.6486400000000000 H
   0.6628800000000000    0.0223700000000000    0.6427000000000000 H
   0.6413900000000000    0.8615000000000000    0.4770000000000000 H
   0.8199500000000000    0.8291800000000000    0.4883100000000000 H
   0.5071900000000000    0.0179600000000000    0.5884200000000001 H
   0.1804400000000000    0.9695300000000000    0.6343299999999999 H
   0.3599300000000000    0.9934600000000000    0.6155600000000000 H
   0.3333333333333333    0.8227900000000000    0.4555100000000000 H
   0.1531500000000000    0.8073300000000000    0.4807300000000000 H
   0.4933900000000000    0.8729300000000000    0.4873000000000000 H
   0.0000000000000000    0.6178500000000000    0.6866900000000000 H
   0.9911900000000000    0.7883400000000000    0.7663800000000000 H
   0.0000000000000000    0.5814700000000000    0.7993200000000000 H
   0.9844500000000000    0.7499700000000000    0.8816000000000001 H
   0.7062700000000000    0.4536700000000000    0.6115600000000000 C
   0.8055099999999999    0.4774800000000000    0.6081200000000000 C
   0.8634300000000000    0.4479600000000000    0.5583000000000000 C
   0.8182199999999999    0.3894500000000000    0.5162099999999999 C
   0.7182300000000000    0.3702900000000000    0.5222000000000000 C
   0.9626500000000000    0.4890200000000000    0.5458499999999999 C
   0.2820900000000000    0.4379500000000000    0.5953900000000000 C
   0.1816600000000000    0.4506700000000000    0.5844800000000000 C
   0.2022600000000000    0.8474200000000000    0.5093600000000000 C
   0.4621200000000000    0.9343399999999999    0.5074000000000000 C
   0.0000000000000000    0.7523800000000000    0.6434200000000000 C
   0.0000000000000000    0.6896200000000000    0.6976300000000000 C
   0.9967800000000000    0.7159500000000000    0.7572300000000000 C
   0.1380800000000000    0.4122600000000000    0.5321700000000000 C
   0.1980200000000000    0.3564900000000000    0.4957500000000000 C
   0.2974300000000000    0.3475600000000000    0.5094300000000000 C
   0.0378100000000000    0.4344100000000000    0.5074900000000000 C
   0.4951900000000000    0.2528400000000000    0.6435000000000000 C
   0.4954900000000000    0.1900900000000000    0.6977300000000000 C
   0.5033400000000000    0.2163000000000000    0.7573299999999999 C
   0.5045900000000000    0.1540500000000000    0.8089900000000000 C
   0.5111000000000000    0.1788800000000000    0.8689600000000000 C
   0.5103200000000000    0.1128800000000000    0.9213700000000000 C
   0.2935500000000000    0.9559400000000000    0.8878000000000000 C
   0.1945500000000000    0.9801600000000000    0.8917300000000000 C
   0.1368000000000000    0.9495100000000000    0.9417000000000000 C
   0.1820900000000000    0.8900200000000000    0.9837399999999999 C
   0.2818200000000000    0.8704499999999999    0.9772999999999999 C
   0.0375900000000000    0.9900700000000000    0.9542200000000000 C
   0.7184600000000000    0.9392700000000000    0.9037300000000000 C
   0.8187500000000000    0.9522600000000000    0.9151300000000000 C
   0.8618700000000000    0.9128300000000000    0.9676700000000000 C
   0.8015200000000000    0.8562000000000000    0.0040000000000000 C
   0.7023300000000000    0.8469900000000000    0.9897800000000000 C
   0.9621300000000000    0.9344700000000000    0.9926000000000000 C
   0.5026600000000000    0.7587600000000000    0.8544200000000000 C
   0.5027400000000000    0.6944500000000000    0.8018999999999999 C
   0.4959000000000000    0.7188400000000000    0.7415800000000000 C
   0.4949200000000000    0.6549900000000000    0.6915900000000000 C
   0.4888500000000000    0.6779700000000000    0.6309600000000000 C
   0.4897100000000000    0.6106100000000000    0.5801800000000000 C
   0.2937600000000000    0.5463200000000000    0.3884100000000000 C
   0.1945200000000000    0.5225200000000000    0.3918600000000000 C
   0.1365900000000000    0.5520600000000000    0.4416400000000000 C
   0.1818100000000000    0.6105699999999999    0.4837000000000000 C
   0.2818000000000000    0.6297400000000000    0.4777500000000000 C
   0.0373800000000000    0.5110000000000000    0.4541200000000000 C
   0.7179400000000000    0.5621100000000000    0.4045800000000000 C
   0.8183700000000000    0.5493800000000000    0.4154900000000000 C
   0.8619500000000000    0.5877700000000000    0.4678100000000000 C
   0.8020100000000000    0.6435200000000000    0.5042300000000000 C
   0.7026000000000000    0.6524700000000000    0.4905500000000000 C
   0.9622200000000000    0.5656099999999999    0.4924800000000000 C
   0.5048800000000000    0.7474600000000000    0.3564700000000000 C
   0.5045700000000000    0.8101900000000000    0.3022600000000000 C
   0.4966900000000000    0.7838800000000000    0.2426800000000000 C
   0.4954200000000000    0.8460299999999999    0.1909600000000000 C
   0.4889200000000000    0.8211200000000000    0.1310000000000000 C
   0.4896900000000000    0.8871100000000000    0.0785700000000000 C
   0.7064700000000000    0.0440700000000000    0.1121100000000000 C
   0.8054600000000000    0.0198500000000000    0.1082400000000000 C
   0.8632300000000001    0.0505100000000000    0.0582800000000000 C
   0.8179400000000000    0.1100000000000000    0.0162300000000000 C
   0.7181999999999999    0.1295700000000000    0.0226700000000000 C
   0.9624400000000000    0.0099600000000000    0.0457600000000000 C
   0.2815800000000000    0.0607400000000000    0.0962400000000000 C
   0.1812900000000000    0.0477600000000000    0.0848500000000000 C
   0.1381600000000000    0.0871800000000000    0.0323000000000000 C
   0.1985200000000000    0.1438100000000000    0.9959800000000000 C
   0.2977000000000000    0.1530200000000000    0.0101900000000000 C
   0.0379000000000000    0.0655500000000000    0.0073000000000000 C
   0.4973700000000000    0.2412400000000000    0.1455400000000000 C
   0.4972900000000000    0.3055600000000000    0.1980500000000000 C
   0.5041099999999999    0.2811800000000000    0.2583800000000000 C
   0.5050900000000000    0.3450500000000000    0.3083600000000000 C
   0.5111599999999999    0.3220800000000000    0.3689900000000000 C
   0.5103100000000000    0.3894400000000000    0.4197800000000000 C
   0.0000000000000000    0.7412600000000000    0.1455400000000000 C
   0.0000000000000000    0.8055900000000000    0.1980000000000000 C
   0.9958200000000000    0.7812000000000000    0.2583900000000000 C
   0.9948500000000000    0.8450700000000000    0.3083700000000000 C
   0.9888100000000000    0.8220900000000000    0.3690100000000000 C
   0.9897000000000000    0.8894500000000000    0.4197900000000000 C
   0.2068000000000000    0.0463100000000000    0.3885000000000000 C
   0.3059500000000000    0.0225200000000000    0.3919900000000000 C
   0.3636700000000000    0.0521000000000000    0.4417900000000000 C
   0.3183400000000000    0.1105900000000000    0.4838700000000000 C
   0.2184500000000000    0.1297500000000000    0.4778000000000000 C
   0.4627800000000000    0.0111800000000000    0.4542000000000000 C
   0.7824900000000000    0.0622800000000000    0.4046300000000000 C
   0.6819499999999999    0.0496500000000000    0.4155500000000000 C
   0.6383000000000000    0.0880400000000000    0.4678900000000000 C
   0.6982699999999999    0.1437500000000000    0.5043100000000000 C
   0.7977800000000000    0.1526300000000000    0.4906200000000000 C
   0.5379000000000000    0.0657400000000000    0.4926000000000000 C
   0.9953800000000000    0.2476200000000000    0.3565500000000000 C
   0.9955600000000000    0.3103700000000000    0.3023400000000000 C
   0.0032400000000000    0.2840500000000000    0.2427000000000000 C
   0.0043500000000000    0.3461400000000000    0.1909900000000000 C
   0.0106600000000000    0.3211600000000000    0.1310300000000000 C
   0.0098900000000000    0.3871100000000000    0.0785700000000000 C
   0.9974400000000000    0.2587400000000000    0.8544400000000000 C
   0.9974200000000000    0.1944200000000000    0.8018999999999999 C
   0.0041900000000000    0.2188100000000000    0.7415900000000000 C
   0.0051700000000000    0.1549300000000000    0.6916099999999999 C
   0.0112000000000000    0.1779100000000000    0.6309700000000000 C
   0.0103200000000000    0.1105500000000000    0.5801900000000000 C
   0.7932500000000000    0.9537300000000000    0.6114900000000000 C
   0.6941000000000001    0.9775400000000000    0.6080000000000000 C
   0.6363600000000000    0.9479600000000000    0.5582200000000000 C
   0.6816600000000000    0.8894700000000000    0.5161000000000000 C
   0.7815500000000000    0.8702800000000001    0.5221700000000000 C
   0.5372500000000000    0.9888900000000000    0.5458200000000000 C
   0.2175200000000000    0.9377300000000000    0.5953700000000000 C
   0.3180500000000000    0.9503800000000000    0.5844600000000000 C
   0.3617300000000000    0.9120300000000000    0.5321200000000000 C
   0.3017700000000000    0.8563200000000000    0.4956800000000000 C
   0.9956700000000001    0.6538600000000000    0.8089900000000000 C
   0.9893600000000000    0.6788400000000000    0.8689500000000000 C
   0.9901400000000000    0.6128900000000000    0.9214000000000000 C
   0.6615799999999999    0.4032600000000000    0.5680400000000000 N
   0.3404900000000000    0.3897200000000000    0.5575000000000000 N
   0.3382300000000000    0.9040300000000000    0.9310900000000000 N
   0.6597300000000000    0.8897699999999999    0.9413100000000000 N
   0.3384500000000000    0.5967500000000000    0.4319200000000000 N
   0.6595400000000000    0.6103200000000000    0.4424600000000000 N
   0.6617800000000000    0.0959700000000000    0.0688700000000000 N
   0.3403100000000000    0.1102300000000000    0.0586500000000000 N
   0.1619700000000000    0.0967800000000000    0.4319600000000000 N
   0.8408800000000000    0.1104200000000000    0.4425300000000000 N
   0.8380600000000000    0.9032400000000000    0.5680200000000000 N
   0.1591400000000000    0.8895999999999999    0.5574600000000000 N
   0.4991900000000000    0.3384600000000000    0.6535400000000000 O
   0.4918100000000000    0.2191000000000000    0.5898600000000001 O
   0.5119200000000000    0.1483700000000000    0.9752100000000000 O
   0.5080600000000000    0.0293300000000000    0.9087000000000000 O
   0.5005800000000000    0.8441400000000000    0.8428099999999999 O
   0.5040400000000000    0.7264600000000000    0.9091000000000000 O
   0.4880000000000000    0.6447200000000000    0.5255500000000000 O
   0.4921200000000000    0.5273400000000000    0.5948000000000000 O
   0.5008600000000000    0.6618400000000000    0.3464700000000000 O
   0.5083100000000000    0.7811500000000000    0.4101600000000000 O
   0.4881100000000000    0.8516100000000000    0.0247400000000000 O
   0.4919800000000000    0.9706500000000000    0.0911600000000000 O
   0.4994500000000000    0.1558600000000000    0.1571600000000000 O
   0.4960000000000000    0.2735300000000000    0.0908600000000000 O
   0.5120100000000000    0.3553100000000000    0.4744000000000000 O
   0.5079200000000000    0.4727100000000000    0.4051600000000000 O
   0.0004700000000000    0.6558800000000000    0.1571700000000000 O
   0.0000000000000000    0.7735400000000000    0.0908500000000000 O
   0.9879900000000000    0.8553300000000000    0.4744200000000000 O
   0.9921200000000000    0.9727400000000000    0.4051600000000000 O
   0.9996699999999999    0.1620300000000000    0.3465100000000000 O
   0.9917700000000000    0.2812400000000000    0.4102600000000000 O
   0.0114200000000000    0.3515900000000000    0.0247000000000000 O
   0.0077700000000000    0.4706600000000000    0.0911000000000000 O
   0.9995600000000000    0.3441200000000000    0.8428099999999999 O
   0.9960000000000000    0.2264600000000000    0.9091300000000000 O
   0.0120400000000000    0.1446700000000000    0.5255600000000000 O
   0.0079200000000000    0.0272700000000000    0.5948200000000000 O
   0.0003600000000000    0.8379700000000000    0.6534700000000000 O
   0.0000000000000000    0.7187600000000000    0.5897200000000000 O
   0.9886100000000000    0.6484200000000000    0.9752300000000000 O
   0.9922600000000000    0.5293500000000000    0.9088000000000001 O
