H12 C15 N1 O2
1.0
  31.1119890822003811    0.0000000000000000    0.0260643251214410
  -0.0076569481633004   18.9475705300504025  -10.8957772269769801
   0.0000000000000000    0.0000000000000000   21.8419999999999987
H C N O
12 15 1 2
direct
   0.1320600000000000    0.9340200000000000    0.3510800000000000 H
   0.1542350000000000    0.9953300000000000    0.3293100000000000 H
   0.1599450000000000    0.9024000000000000    0.2698600000000000 H
   0.2194150000000000    0.8476900000000001    0.2771100000000000 H
   0.2666900000000000    0.7980200000000000    0.2078500000000000 H
   0.3191650000000000    0.7098600000000000    0.1311200000000000 H
   0.3902800000000000    0.7411500000000000    0.3143000000000000 H
   0.3367050000000000    0.8298500000000000    0.3911800000000000 H
   0.3492200000000000    0.6086000000000000    0.0799200000000000 H
   0.4077000000000000    0.5337900000000000    0.0016800000000000 H
   0.4996850000000000    0.6326300000000000    0.1569200000000000 H
   0.4461100000000000    0.7162300000000000    0.2420500000000000 H
   0.1596100000000000    0.9438900000000000    0.3255500000000000 C
   0.2004550000000000    0.9458200000000000    0.3642000000000000 C
   0.2288550000000000    0.8879500000000000    0.3300100000000000 C
   0.2687050000000000    0.8790500000000000    0.3552300000000000 C
   0.2978300000000000    0.8204600000000000    0.3057200000000000 C
   0.2932100000000000    0.7851300000000000    0.2319300000000000 C
   0.3232050000000000    0.7353499999999999    0.1880000000000000 C
   0.3592900000000000    0.7194199999999999    0.2165500000000000 C
   0.3632900000000000    0.7534700000000000    0.2904900000000000 C
   0.3331200000000000    0.8028999999999999    0.3340600000000000 C
   0.3923500000000000    0.6702800000000000    0.1691700000000000 C
   0.3820600000000000    0.6172900000000000    0.1001100000000000 C
   0.4144250000000000    0.5744899999999999    0.0558500000000000 C
   0.4659450000000000    0.6296700000000000    0.1422400000000000 C
   0.4356500000000000    0.6755000000000000    0.1898000000000000 C
   0.4558600000000000    0.5799700000000000    0.0758100000000000 N
   0.2834750000000000    0.9175700000000000    0.4178500000000000 O
   0.2058900000000000    0.0002300000000000    0.4251100000000000 O
