Zn12 H281 C345 N23 O49
1.0
  31.1119890822003811    0.0000000000000000    0.0260643251214410
  -0.0076569481633004   18.9475705300504025  -10.8957772269769801
   0.0000000000000000    0.0000000000000000   21.8419999999999987
Zn H C N O
12 281 345 23 49
direct
   0.5000050000000000    0.5000000000000000    0.0000000000000000 Zn
   0.0000050000000000    0.5000000000000000    0.0000000000000000 Zn
   0.7500050000000000    0.4999900000000000    0.9999900000000000 Zn
   0.2500050000000000    0.4999900000000000    0.9999900000000000 Zn
   0.0000000000000000    0.0000000000000000    0.5000000000000000 Zn
   0.0000000000000000    0.5000000000000000    0.4999900000000000 Zn
   0.2500050000000000    0.4999900000000000    0.5000000000000000 Zn
   0.2500000000000000    0.0000100000000000    0.5000000000000000 Zn
   0.5000000000000000    0.5000000000000000    0.4999900000000000 Zn
   0.7500000000000000    0.0000100000000000    0.5000000000000000 Zn
   0.7500050000000000    0.4999900000000000    0.5000000000000000 Zn
   0.5000000000000000    0.0000000000000000    0.5000000000000000 Zn
   0.4257626410731228    0.5759894635713940    0.0613115497965375 H
   0.4631902146436806    0.6160941118285500    0.1240942001764704 H
   0.4097950000000000    0.3674400000000000    0.0977200000000000 H
   0.3819600000000000    0.4170000000000000    0.0660000000000000 H
   0.4041200000000000    0.3341600000000000    0.0000000000000000 H
   0.4692900000000000    0.4294600000000000    0.1525500000000000 H
   0.6961400000000000    0.5259200000000001    0.2836600000000000 H
   0.5992550000000000    0.4714900000000000    0.3917900000000000 H
   0.6577900000000000    0.4679500000000000    0.4665600000000000 H
   0.7497600000000000    0.5243200000000000    0.3672900000000000 H
   0.5865950000000000    0.5613300000000000    0.1700000000000000 H
   0.6402350000000000    0.5732400000000000    0.2587900000000000 H
   0.5166600000000000    0.4099000000000000    0.2023100000000000 H
   0.5691950000000000    0.4214200000000000    0.2905400000000000 H
   0.5902200000000000    0.6325400000000000    0.9022700000000000 H
   0.5958900000000000    0.6658300000000000    0.9952000000000000 H
   0.6180550000000000    0.5829900000000000    0.9340000000000001 H
   0.5307300000000000    0.5705100000000000    0.8474400000000000 H
   0.3038750000000000    0.4740600000000000    0.7163300000000000 H
   0.4007600000000000    0.5285000000000000    0.6082100000000000 H
   0.3422200000000000    0.5320400000000000    0.5334400000000000 H
   0.2502550000000000    0.4756600000000000    0.6327000000000000 H
   0.4134200000000000    0.4386500000000000    0.8299500000000000 H
   0.3597850000000000    0.4267300000000000    0.7410000000000000 H
   0.4833550000000000    0.5900800000000000    0.7976900000000000 H
   0.4308250000000000    0.5785500000000000    0.7094500000000000 H
   0.9097950000000000    0.3674400000000000    0.0977200000000000 H
   0.8819600000000001    0.4170000000000000    0.0660000000000000 H
   0.9041200000000000    0.3341600000000000    0.0000000000000000 H
   0.9692900000000000    0.4294600000000000    0.1525500000000000 H
   0.1961400000000000    0.5259200000000001    0.2836600000000000 H
   0.0992550000000000    0.4714900000000000    0.3917900000000000 H
   0.1577900000000000    0.4679500000000000    0.4665600000000000 H
   0.2497600000000000    0.5243200000000000    0.3672900000000000 H
   0.0865950000000000    0.5613300000000000    0.1700000000000000 H
   0.1402350000000000    0.5732400000000000    0.2587900000000000 H
   0.0166600000000000    0.4099000000000000    0.2023100000000000 H
   0.0691950000000000    0.4214200000000000    0.2905400000000000 H
   0.0902200000000000    0.6325400000000000    0.9022700000000000 H
   0.0958900000000000    0.6658300000000000    0.9952000000000000 H
   0.1180550000000000    0.5829900000000000    0.9340000000000001 H
   0.0307300000000000    0.5705100000000000    0.8474400000000000 H
   0.8038750000000000    0.4740600000000000    0.7163300000000000 H
   0.9007600000000000    0.5285000000000000    0.6082100000000000 H
   0.8422200000000000    0.5320400000000000    0.5334400000000000 H
   0.7502550000000000    0.4756600000000000    0.6327000000000000 H
   0.9134200000000000    0.4386500000000000    0.8299500000000000 H
   0.8597850000000000    0.4267300000000000    0.7410000000000000 H
   0.9833550000000000    0.5900800000000000    0.7976900000000000 H
   0.9308250000000000    0.5785500000000000    0.7094500000000000 H
   0.8402300000000000    0.6325100000000000    0.9022500000000000 H
   0.8459000000000000    0.6658100000000000    0.9952000000000000 H
   0.8680600000000001    0.5829600000000000    0.9339800000000000 H
   0.7807299999999999    0.5705100000000000    0.8474300000000000 H
   0.5538700000000000    0.4740800000000000    0.7163300000000000 H
   0.6507550000000000    0.5284900000000000    0.6082000000000000 H
   0.5002500000000000    0.4756800000000000    0.6327100000000000 H
   0.5922200000000000    0.5320300000000000    0.5334200000000000 H
   0.6634100000000001    0.4386600000000000    0.8299500000000000 H
   0.6097700000000000    0.4267500000000000    0.7412100000000000 H
   0.7333550000000000    0.5900700000000000    0.7976000000000000 H
   0.6808200000000000    0.5785600000000000    0.7094500000000000 H
   0.6597800000000000    0.3674700000000000    0.0977300000000000 H
   0.6319500000000000    0.4170200000000000    0.0660000000000000 H
   0.6541100000000000    0.3341700000000000    0.0000000000000000 H
   0.7192800000000000    0.4294800000000000    0.1525000000000000 H
   0.9461400000000000    0.5259200000000001    0.2836600000000000 H
   0.8492550000000000    0.4714900000000000    0.3917900000000000 H
   0.9077900000000000    0.4679500000000000    0.4665600000000000 H
   0.9997549999999999    0.5243200000000000    0.3672900000000000 H
   0.8366000000000000    0.5613400000000000    0.1700000000000000 H
   0.8902300000000001    0.5732500000000000    0.2587900000000000 H
   0.7666550000000000    0.4099100000000000    0.2023000000000000 H
   0.8191900000000000    0.4214300000000000    0.2905400000000000 H
   0.3402300000000000    0.6325100000000000    0.9022500000000000 H
   0.3459000000000000    0.6658100000000000    0.9952000000000000 H
   0.3680600000000000    0.5829600000000000    0.9339800000000000 H
   0.2807300000000000    0.5705100000000000    0.8474300000000000 H
   0.0538700000000000    0.4740800000000000    0.7163300000000000 H
   0.1507550000000000    0.5284900000000000    0.6082000000000000 H
   0.0002500000000000    0.4756800000000000    0.6327100000000000 H
   0.0922200000000000    0.5320300000000000    0.5334200000000000 H
   0.1634100000000000    0.4386600000000000    0.8299500000000000 H
   0.1097700000000000    0.4267500000000000    0.7412100000000000 H
   0.2333550000000000    0.5900700000000000    0.7976000000000000 H
   0.1808200000000000    0.5785600000000000    0.7094500000000000 H
   0.1597800000000000    0.3674700000000000    0.0977300000000000 H
   0.1319500000000000    0.4170200000000000    0.0660000000000000 H
   0.1541100000000000    0.3341700000000000    0.0000000000000000 H
   0.2192800000000000    0.4294800000000000    0.1525000000000000 H
   0.4461400000000000    0.5259200000000001    0.2836600000000000 H
   0.3492550000000000    0.4714900000000000    0.3917900000000000 H
   0.4077900000000000    0.4679500000000000    0.4665600000000000 H
   0.4997550000000000    0.5243200000000000    0.3672900000000000 H
   0.3366000000000000    0.5613400000000000    0.1700000000000000 H
   0.3902300000000000    0.5732500000000000    0.2587900000000000 H
   0.2666550000000000    0.4099100000000000    0.2023000000000000 H
   0.3191900000000000    0.4214300000000000    0.2905400000000000 H
   0.9099550000000001    0.9024000000000000    0.2698000000000000 H
   0.9042450000000000    0.9953300000000000    0.3293100000000000 H
   0.8820650000000000    0.9340200000000000    0.3510700000000000 H
   0.9694199999999999    0.8476900000000001    0.2771100000000000 H
   0.1961150000000000    0.7162300000000000    0.2420400000000000 H
   0.0992200000000000    0.6086000000000000    0.0799200000000000 H
   0.1577000000000000    0.5337900000000000    0.0016700000000000 H
   0.2496850000000000    0.6326200000000000    0.1569100000000000 H
   0.0867100000000000    0.8298500000000000    0.3911800000000000 H
   0.1402800000000000    0.7411500000000000    0.3143100000000000 H
   0.0691650000000000    0.7098600000000000    0.1311200000000000 H
   0.0166900000000000    0.7980200000000000    0.2078500000000000 H
   0.0900550000000000    0.0975800000000000    0.7301400000000000 H
   0.1179450000000000    0.0659600000000000    0.6489300000000000 H
   0.0957700000000000    0.0000000000000000    0.6707000000000000 H
   0.0305950000000000    0.1523000000000000    0.7228800000000000 H
   0.8039000000000001    0.2837600000000000    0.7579399999999999 H
   0.9007900000000000    0.3913800000000000    0.9200700000000001 H
   0.8423100000000000    0.4661900000000000    0.9983100000000000 H
   0.7503250000000000    0.3673600000000000    0.8430700000000000 H
   0.9133050000000000    0.1701300000000000    0.6088100000000000 H
   0.8597350000000000    0.2588400000000000    0.6856700000000000 H
   0.9833200000000000    0.2019600000000000    0.7921400000000000 H
   0.9308449999999999    0.2901300000000000    0.8688700000000000 H
   0.9041350000000000    0.6700700000000001    0.6659200000000000 H
   0.9098500000000000    0.7297100000000000    0.6320000000000000 H
   0.8819699999999999    0.6485800000000000    0.5830000000000000 H
   0.9692550000000000    0.7226399999999999    0.5703000000000000 H
   0.1960850000000000    0.7581300000000000    0.4741700000000000 H
   0.0992550000000000    0.9203300000000000    0.5287400000000000 H
   0.1578300000000000    0.9987200000000001    0.5324100000000000 H
   0.2497500000000000    0.8434400000000000    0.4759000000000000 H
   0.0865950000000000    0.6090100000000001    0.4385400000000000 H
   0.1402350000000000    0.6860100000000000    0.4267000000000000 H
   0.0166000000000000    0.7919900000000000    0.5900600000000000 H
   0.0691450000000000    0.8688600000000000    0.5786000000000000 H
   0.0901750000000000    0.2702900000000000    0.3675300000000000 H
   0.0958850000000000    0.3299300000000000    0.3340900000000000 H
   0.1180450000000000    0.3514300000000000    0.4170200000000000 H
   0.0307650000000000    0.2773600000000000    0.4297000000000000 H
   0.8039300000000000    0.2418700000000000    0.5258400000000000 H
   0.9007600000000000    0.0796600000000000    0.4712700000000000 H
   0.8421799999999999    0.0012800000000000    0.4675900000000000 H
   0.7502599999999999    0.1565600000000000    0.5240899999999999 H
   0.9134150000000000    0.3909900000000000    0.5614600000000000 H
   0.8597750000000000    0.3139900000000000    0.5733000000000000 H
   0.9834149999999999    0.2080000000000000    0.4099400000000000 H
   0.9308650000000001    0.1311300000000000    0.4213500000000000 H
   0.1598300000000000    0.7296800000000000    0.6324400000000000 H
   0.1541200000000000    0.6700600000000000    0.6658900000000000 H
   0.1319600000000000    0.6485400000000000    0.5829600000000000 H
   0.2192450000000000    0.7226200000000000    0.5702700000000001 H
   0.4460900000000000    0.7581200000000000    0.4741600000000000 H
   0.3492550000000000    0.9203200000000000    0.5287200000000000 H
   0.4078300000000000    0.9987100000000000    0.5323900000000000 H
   0.4997550000000000    0.8434300000000000    0.4759000000000000 H
   0.2666000000000000    0.7919800000000000    0.5900000000000000 H
   0.3191500000000000    0.8688500000000000    0.5786400000000000 H
   0.3366000000000000    0.6089900000000000    0.4385300000000000 H
   0.3902400000000000    0.6859900000000000    0.4267000000000000 H
   0.2017312386961277   -0.0414035239270824    0.3785027965006691 H
   0.3401750000000000    0.2702900000000000    0.3675300000000000 H
   0.3458900000000000    0.3299200000000000    0.3341000000000000 H
   0.3680500000000000    0.3514200000000000    0.4170300000000000 H
   0.2807600000000000    0.2773500000000000    0.4297100000000000 H
   0.1634100000000000    0.3909800000000000    0.5614000000000000 H
   0.1097700000000000    0.3139800000000000    0.5733000000000000 H
   0.2334100000000000    0.2080000000000000    0.4099400000000000 H
   0.1808650000000000    0.1311200000000000    0.4213500000000000 H
   0.0539200000000000    0.2418600000000000    0.5258300000000000 H
   0.1507550000000000    0.0796600000000000    0.4712700000000000 H
   0.0921750000000000    0.0012700000000000    0.4676000000000000 H
   0.0002550000000000    0.1565500000000000    0.5240899999999999 H
   0.1672517314199632    0.0420769754477004    0.3990563654125942 H
   0.2721994923209982    0.8881635981181346    0.3700455117901763 H
   0.3400650000000000    0.0975900000000000    0.7301299999999999 H
   0.3679500000000000    0.0659800000000000    0.6489000000000000 H
   0.3457750000000000    0.0000000000000000    0.6706000000000000 H
   0.2805950000000000    0.1523000000000000    0.7228800000000000 H
   0.0538950000000000    0.2837500000000000    0.7579600000000000 H
   0.1507900000000000    0.3913900000000000    0.9200700000000001 H
   0.0923100000000000    0.4662000000000000    0.9983200000000000 H
   0.0003200000000000    0.3673600000000000    0.8430900000000000 H
   0.1633000000000000    0.1701300000000000    0.6088200000000000 H
   0.1097250000000000    0.2588300000000000    0.6856800000000000 H
   0.1808450000000000    0.2901300000000000    0.8688000000000000 H
   0.2333200000000000    0.2019700000000000    0.7921500000000000 H
   0.4041350000000000    0.6700700000000001    0.6659200000000000 H
   0.4098500000000000    0.7297100000000000    0.6320000000000000 H
   0.3819700000000000    0.6485800000000000    0.5830000000000000 H
   0.4692550000000000    0.7226399999999999    0.5703000000000000 H
   0.6960850000000001    0.7581300000000000    0.4741700000000000 H
   0.5992550000000000    0.9203300000000000    0.5287400000000000 H
   0.6578300000000000    0.9987200000000001    0.5324100000000000 H
   0.7497500000000000    0.8434400000000000    0.4759000000000000 H
   0.5865950000000000    0.6090100000000001    0.4385400000000000 H
   0.6402350000000000    0.6860100000000000    0.4267000000000000 H
   0.5165999999999999    0.7919900000000000    0.5900600000000000 H
   0.5691450000000000    0.8688600000000000    0.5786000000000000 H
   0.5901750000000000    0.2702900000000000    0.3675300000000000 H
   0.5958850000000000    0.3299300000000000    0.3340900000000000 H
   0.6180450000000000    0.3514300000000000    0.4170200000000000 H
   0.5307650000000000    0.2773600000000000    0.4297000000000000 H
   0.3039300000000000    0.2418700000000000    0.5258400000000000 H
   0.4007600000000000    0.0796600000000000    0.4712700000000000 H
   0.3421800000000000    0.0012800000000000    0.4675900000000000 H
   0.2502600000000000    0.1565600000000000    0.5240899999999999 H
   0.4134150000000000    0.3909900000000000    0.5614600000000000 H
   0.3597750000000000    0.3139900000000000    0.5733000000000000 H
   0.4834150000000000    0.2080000000000000    0.4099400000000000 H
   0.4308650000000000    0.1311300000000000    0.4213500000000000 H
   0.6599450000000000    0.9024000000000000    0.2698600000000000 H
   0.6542350000000000    0.9953300000000000    0.3293100000000000 H
   0.6320600000000001    0.9340200000000000    0.3510800000000000 H
   0.7194150000000000    0.8476900000000001    0.2771100000000000 H
   0.9461100000000000    0.7162300000000000    0.2420500000000000 H
   0.8492200000000000    0.6086000000000000    0.0799200000000000 H
   0.9077000000000000    0.5337900000000000    0.0016800000000000 H
   0.9996849999999999    0.6326300000000000    0.1569200000000000 H
   0.8367050000000000    0.8298500000000000    0.3911800000000000 H
   0.8902800000000000    0.7411500000000000    0.3143000000000000 H
   0.8191649999999999    0.7098600000000000    0.1311200000000000 H
   0.7666900000000000    0.7980200000000000    0.2078500000000000 H
   0.8400650000000001    0.0975900000000000    0.7301299999999999 H
   0.8679500000000000    0.0659800000000000    0.6489000000000000 H
   0.8457749999999999    0.0000000000000000    0.6706000000000000 H
   0.7805949999999999    0.1523000000000000    0.7228800000000000 H
   0.5538950000000000    0.2837500000000000    0.7579600000000000 H
   0.6507900000000000    0.3913900000000000    0.9200700000000001 H
   0.5923100000000000    0.4662000000000000    0.9983200000000000 H
   0.5003200000000000    0.3673600000000000    0.8430900000000000 H
   0.6633000000000000    0.1701300000000000    0.6088200000000000 H
   0.6097250000000000    0.2588300000000000    0.6856800000000000 H
   0.6808450000000000    0.2901300000000000    0.8688000000000000 H
   0.7333200000000000    0.2019700000000000    0.7921500000000000 H
   0.6598300000000000    0.7296800000000000    0.6324400000000000 H
   0.6541200000000000    0.6700600000000000    0.6658900000000000 H
   0.6319600000000000    0.6485400000000000    0.5829600000000000 H
   0.7192450000000000    0.7226200000000000    0.5702700000000001 H
   0.9460900000000000    0.7581200000000000    0.4741600000000000 H
   0.8492550000000000    0.9203200000000000    0.5287200000000000 H
   0.9078300000000000    0.9987100000000000    0.5323900000000000 H
   0.9997549999999999    0.8434300000000000    0.4759000000000000 H
   0.7665999999999999    0.7919800000000000    0.5900000000000000 H
   0.8191500000000000    0.8688500000000000    0.5786400000000000 H
   0.8366000000000000    0.6089900000000000    0.4385300000000000 H
   0.8902399999999999    0.6859900000000000    0.4267000000000000 H
   0.8401750000000000    0.2702900000000000    0.3675300000000000 H
   0.8458900000000000    0.3299200000000000    0.3341000000000000 H
   0.8680500000000000    0.3514200000000000    0.4170300000000000 H
   0.7807600000000000    0.2773500000000000    0.4297100000000000 H
   0.6634100000000001    0.3909800000000000    0.5614000000000000 H
   0.6097700000000000    0.3139800000000000    0.5733000000000000 H
   0.7334100000000000    0.2080000000000000    0.4099400000000000 H
   0.6808650000000001    0.1311200000000000    0.4213500000000000 H
   0.5539200000000000    0.2418600000000000    0.5258300000000000 H
   0.6507550000000000    0.0796600000000000    0.4712700000000000 H
   0.5921750000000000    0.0012700000000000    0.4676000000000000 H
   0.5002550000000000    0.1565500000000000    0.5240899999999999 H
   0.4099550000000000    0.9024000000000000    0.2698000000000000 H
   0.4042450000000000    0.9953300000000000    0.3293100000000000 H
   0.3820650000000000    0.9340200000000000    0.3510700000000000 H
   0.4694200000000000    0.8476900000000001    0.2771100000000000 H
   0.6961150000000000    0.7162300000000000    0.2420400000000000 H
   0.5992200000000000    0.6086000000000000    0.0799200000000000 H
   0.6577000000000000    0.5337900000000000    0.0016700000000000 H
   0.7496849999999999    0.6326200000000000    0.1569100000000000 H
   0.5867100000000000    0.8298500000000000    0.3911800000000000 H
   0.6402800000000000    0.7411500000000000    0.3143100000000000 H
   0.5691650000000000    0.7098600000000000    0.1311200000000000 H
   0.5166900000000000    0.7980200000000000    0.2078500000000000 H
   0.5900550000000000    0.0975800000000000    0.7301400000000000 H
   0.6179450000000000    0.0659600000000000    0.6489300000000000 H
   0.5957700000000000    0.0000000000000000    0.6707000000000000 H
   0.5305950000000000    0.1523000000000000    0.7228800000000000 H
   0.3039000000000000    0.2837600000000000    0.7579399999999999 H
   0.4007900000000000    0.3913800000000000    0.9200700000000001 H
   0.3423100000000000    0.4661900000000000    0.9983100000000000 H
   0.2503250000000000    0.3673600000000000    0.8430700000000000 H
   0.4133050000000000    0.1701300000000000    0.6088100000000000 H
   0.3597350000000000    0.2588400000000000    0.6856700000000000 H
   0.4833200000000000    0.2019600000000000    0.7921400000000000 H
   0.4308450000000000    0.2901300000000000    0.8688700000000000 H
   0.4094950000000000    0.3816900000000000    0.0561800000000000 C
   0.4503600000000000    0.4184400000000000    0.0542600000000000 C
   0.4787650000000000    0.4420500000000000    0.1121600000000000 C
   0.5186300000000000    0.4761200000000000    0.1209800000000000 C
   0.6856949999999999    0.5143900000000000    0.3245000000000000 C
   0.6321050000000000    0.4829800000000000    0.3830000000000000 C
   0.6644850000000000    0.4814400000000000    0.4257800000000000 C
   0.7160100000000000    0.5126200000000000    0.3703300000000000 C
   0.6423850000000000    0.4990200000000000    0.3298800000000000 C
   0.5830450000000000    0.5312100000000000    0.1971100000000000 C
   0.6132450000000000    0.5371100000000000    0.2465000000000000 C
   0.5431750000000000    0.4468700000000000    0.2151200000000000 C
   0.5732050000000000    0.4529600000000000    0.2649300000000000 C
   0.5477650000000001    0.4852900000000000    0.1796600000000000 C
   0.6092900000000000    0.4972400000000000    0.2807000000000000 C
   0.5905150000000000    0.6182900000000000    0.9438200000000000 C
   0.5496500000000000    0.5815500000000000    0.9457400000000000 C
   0.5212500000000000    0.5579300000000000    0.8878300000000000 C
   0.4813850000000000    0.5238500000000000    0.8790100000000000 C
   0.3143200000000000    0.4855800000000000    0.6754900000000000 C
   0.3679100000000000    0.5170100000000000    0.6169800000000000 C
   0.3355300000000000    0.5185400000000000    0.5742200000000000 C
   0.2840050000000000    0.4873500000000000    0.6296600000000000 C
   0.3576300000000000    0.5009600000000000    0.6701000000000000 C
   0.4169750000000000    0.4687700000000000    0.8028800000000000 C
   0.3867700000000000    0.4628700000000000    0.7534300000000000 C
   0.4568400000000000    0.5531100000000000    0.7848700000000000 C
   0.4268100000000000    0.5470200000000000    0.7350700000000000 C
   0.4522500000000000    0.5146900000000000    0.8203400000000000 C
   0.3907300000000000    0.5027300000000000    0.7192600000000000 C
   0.9094949999999999    0.3816900000000000    0.0561800000000000 C
   0.9503600000000000    0.4184400000000000    0.0542600000000000 C
   0.9787650000000000    0.4420500000000000    0.1121600000000000 C
   0.0186300000000000    0.4761200000000000    0.1209800000000000 C
   0.1856950000000000    0.5143900000000000    0.3245000000000000 C
   0.1321050000000000    0.4829800000000000    0.3830000000000000 C
   0.1644850000000000    0.4814400000000000    0.4257800000000000 C
   0.2160100000000000    0.5126200000000000    0.3703300000000000 C
   0.1423850000000000    0.4990200000000000    0.3298800000000000 C
   0.0830450000000000    0.5312100000000000    0.1971100000000000 C
   0.1132450000000000    0.5371100000000000    0.2465000000000000 C
   0.0431750000000000    0.4468700000000000    0.2151200000000000 C
   0.0732050000000000    0.4529600000000000    0.2649300000000000 C
   0.0477650000000000    0.4852900000000000    0.1796600000000000 C
   0.1092900000000000    0.4972400000000000    0.2807000000000000 C
   0.0905150000000000    0.6182900000000000    0.9438200000000000 C
   0.0496500000000000    0.5815500000000000    0.9457400000000000 C
   0.0212500000000000    0.5579300000000000    0.8878300000000000 C
   0.9813850000000000    0.5238500000000000    0.8790100000000000 C
   0.8143199999999999    0.4855800000000000    0.6754900000000000 C
   0.8679100000000000    0.5170100000000000    0.6169800000000000 C
   0.8355300000000000    0.5185400000000000    0.5742200000000000 C
   0.7840050000000001    0.4873500000000000    0.6296600000000000 C
   0.8576300000000000    0.5009600000000000    0.6701000000000000 C
   0.9169750000000000    0.4687700000000000    0.8028800000000000 C
   0.8867700000000001    0.4628700000000000    0.7534300000000000 C
   0.9568400000000000    0.5531100000000000    0.7848700000000000 C
   0.9268100000000000    0.5470200000000000    0.7350700000000000 C
   0.9522500000000000    0.5146900000000000    0.8203400000000000 C
   0.8907300000000000    0.5027300000000000    0.7192600000000000 C
   0.8405250000000000    0.6182700000000000    0.9438000000000000 C
   0.7996550000000000    0.5815399999999999    0.9457300000000000 C
   0.7712550000000000    0.5579200000000000    0.8878200000000001 C
   0.7313750000000000    0.5238600000000000    0.8790100000000000 C
   0.5643150000000000    0.4856000000000000    0.6754900000000000 C
   0.6179050000000000    0.5170100000000000    0.6169700000000000 C
   0.5340000000000000    0.4873700000000000    0.6296600000000000 C
   0.5855250000000000    0.5185400000000000    0.5742100000000000 C
   0.6076250000000000    0.5009600000000000    0.6701100000000000 C
   0.6669650000000000    0.4687800000000000    0.8028800000000000 C
   0.6367600000000000    0.4628800000000000    0.7534300000000000 C
   0.7068350000000000    0.5531000000000000    0.7848700000000000 C
   0.6768050000000000    0.5470200000000000    0.7350600000000000 C
   0.7022450000000000    0.5146900000000000    0.8203300000000000 C
   0.6407200000000000    0.5027500000000000    0.7192600000000000 C
   0.6594850000000000    0.3817100000000000    0.0561800000000000 C
   0.7003550000000001    0.4184500000000000    0.0542600000000000 C
   0.7287550000000000    0.4420700000000000    0.1121700000000000 C
   0.7686299999999999    0.4761300000000000    0.1209800000000000 C
   0.9356900000000000    0.5144000000000000    0.3245000000000000 C
   0.8821049999999999    0.4829700000000000    0.3830100000000000 C
   0.9144850000000000    0.4814400000000000    0.4257000000000000 C
   0.9660100000000000    0.5126300000000000    0.3703300000000000 C
   0.8923850000000000    0.4990200000000000    0.3298800000000000 C
   0.8330450000000000    0.5312100000000000    0.1971100000000000 C
   0.8632450000000000    0.5371100000000000    0.2465600000000000 C
   0.7931750000000000    0.4468800000000000    0.2151200000000000 C
   0.8232050000000000    0.4529600000000000    0.2649000000000000 C
   0.7977650000000001    0.4853000000000000    0.1796600000000000 C
   0.8592900000000000    0.4972400000000000    0.2807300000000000 C
   0.3405250000000000    0.6182700000000000    0.9438000000000000 C
   0.2996550000000000    0.5815399999999999    0.9457300000000000 C
   0.2712550000000000    0.5579200000000000    0.8878200000000001 C
   0.2313750000000000    0.5238600000000000    0.8790100000000000 C
   0.0643150000000000    0.4856000000000000    0.6754900000000000 C
   0.1179050000000000    0.5170100000000000    0.6169700000000000 C
   0.0340000000000000    0.4873700000000000    0.6296600000000000 C
   0.0855250000000000    0.5185400000000000    0.5742100000000000 C
   0.1076250000000000    0.5009600000000000    0.6701100000000000 C
   0.1669650000000000    0.4687800000000000    0.8028800000000000 C
   0.1367600000000000    0.4628800000000000    0.7534300000000000 C
   0.2068350000000000    0.5531000000000000    0.7848700000000000 C
   0.1768050000000000    0.5470200000000000    0.7350600000000000 C
   0.2022450000000000    0.5146900000000000    0.8203300000000000 C
   0.1407200000000000    0.5027500000000000    0.7192600000000000 C
   0.1594850000000000    0.3817100000000000    0.0561800000000000 C
   0.2003550000000000    0.4184500000000000    0.0542600000000000 C
   0.2287550000000000    0.4420700000000000    0.1121700000000000 C
   0.2686300000000000    0.4761300000000000    0.1209800000000000 C
   0.4356900000000000    0.5144000000000000    0.3245000000000000 C
   0.3821050000000000    0.4829700000000000    0.3830100000000000 C
   0.4144850000000000    0.4814400000000000    0.4257000000000000 C
   0.4660100000000000    0.5126300000000000    0.3703300000000000 C
   0.3923850000000000    0.4990200000000000    0.3298800000000000 C
   0.3330450000000000    0.5312100000000000    0.1971100000000000 C
   0.3632450000000000    0.5371100000000000    0.2465600000000000 C
   0.2931750000000000    0.4468800000000000    0.2151200000000000 C
   0.3232050000000000    0.4529600000000000    0.2649000000000000 C
   0.2977650000000000    0.4853000000000000    0.1796600000000000 C
   0.3592900000000000    0.4972400000000000    0.2807300000000000 C
   0.9096200000000000    0.9438900000000000    0.3255400000000000 C
   0.9504600000000001    0.9458100000000000    0.3641900000000000 C
   0.9788650000000000    0.8879500000000000    0.3300100000000000 C
   0.0187050000000000    0.8790400000000000    0.3552300000000000 C
   0.1856550000000000    0.6755000000000000    0.1897900000000000 C
   0.1320600000000000    0.6172900000000000    0.1001100000000000 C
   0.1644200000000000    0.5744899999999999    0.0558400000000000 C
   0.2159450000000000    0.6296700000000000    0.1422300000000000 C
   0.1423500000000000    0.6702800000000000    0.1691700000000000 C
   0.0831250000000000    0.8028999999999999    0.3340600000000000 C
   0.1132950000000000    0.7534700000000000    0.2904900000000000 C
   0.0732050000000000    0.7353499999999999    0.1880000000000000 C
   0.0432100000000000    0.7851300000000000    0.2319300000000000 C
   0.0478300000000000    0.8204600000000000    0.3057200000000000 C
   0.1092900000000000    0.7194199999999999    0.2165500000000000 C
   0.0903950000000000    0.0560900000000000    0.6744500000000000 C
   0.0495550000000000    0.0541700000000000    0.6358000000000000 C
   0.0211500000000000    0.1120300000000000    0.6699000000000001 C
   0.9813100000000000    0.1209400000000000    0.6447600000000000 C
   0.8143600000000000    0.3244800000000000    0.8101900000000000 C
   0.8679500000000000    0.3826900000000000    0.8998800000000000 C
   0.8355900000000001    0.4255000000000000    0.9441000000000001 C
   0.7840650000000000    0.3703200000000000    0.8577500000000000 C
   0.8576600000000000    0.3297000000000000    0.8308200000000000 C