H2 C3 O4
1.0
  27.3293960471419375    0.0000000000000000   -7.2003302492637502
  -9.3848175587223679   25.6586157907666106   -7.2241425159889214
   0.0000000000000000    0.0000000000000000   28.2659999999999982
H C O
2 3 4
direct
   0.8190200000000001    0.1462200000000000    0.2655050000000000 H
   0.8537300000000000    0.1810450000000000    0.2346500000000000 H
   0.9010800000000000    0.1629400000000000    0.2957000000000000 C
   0.8371100000000000    0.0989850000000000    0.2043200000000000 C
   0.8512550000000000    0.1487750000000000    0.2500500000000000 C
   0.9258400000000000    0.2112100000000000    0.3215850000000000 O
   0.9132150000000000    0.1257250000000000    0.3067700000000000 O
   0.7888550000000000    0.0742550000000000    0.1784150000000000 O
   0.8743150000000000    0.0868400000000000    0.1932000000000000 O
