H6 C3 N6
1.0
  27.3293960471419375    0.0000000000000000   -7.2003302492637502
  -9.3848175587223679   25.6586157907666106   -7.2241425159889214
   0.0000000000000000    0.0000000000000000   28.2659999999999982
H C N
6 3 6
direct
   0.4106450000000000    0.7871850000000000    0.0532000000000000 H
   0.6270650000000000    0.8722449999999999    0.0876350000000000 H
   0.5876450000000000    0.8722500000000000    0.1270450000000000 H
   0.4855350000000000    0.7538850000000000    0.8817650000000000 H
   0.3817100000000000    0.7538800000000000    0.9855499999999999 H
   0.5532500000000000    0.7872000000000000    0.9107000000000001 H
   0.4596850000000000    0.7973200000000000    0.0116550000000000 C
   0.5485150000000000    0.8394950000000000    0.0485000000000000 C
   0.5116600000000000    0.7973250000000001    0.9597249999999999 C
   0.4127650000000000    0.7818350000000001    0.0165000000000000 N
   0.5552150000000000    0.8260350000000001    0.0016800000000000 N
   0.5016650000000000    0.8260400000000000    0.0552050000000000 N
   0.5908650000000000    0.8678850000000000    0.0908500000000000 N
   0.4628850000000000    0.7834150000000000    0.9629150000000000 N
   0.5166050000000000    0.7818450000000000    0.9128200000000000 N
