H6 O4
1.0
  27.3293960471419375    0.0000000000000000   -7.2003302492637502
  -9.3848175587223679   25.6586157907666106   -7.2241425159889214
   0.0000000000000000    0.0000000000000000   28.2659999999999982
H O
6 4
direct
   0.9182532614773279    0.2301951164052307    0.2981488122665652 H
   0.9004345165121936    0.0910182730742269    0.2810657603699797 H
   0.9034027368320444    0.1502792874432402    0.2764589459143927 H
   0.7698733232405912    0.0818829363092035    0.2018636858375346 H
   0.9090004802114731    0.0996305546128391    0.2189047361989178 H
   0.8497514394412141    0.0967110602780024    0.2235441693742216 H
   0.9258400000000000    0.2112100000000000    0.3215850000000000 O
   0.9132150000000000    0.1257250000000000    0.3067700000000000 O
   0.7888550000000000    0.0742550000000000    0.1784150000000000 O
   0.8743150000000000    0.0868400000000000    0.1932000000000000 O
