H6 O4
1.0
  27.5728018847195742    0.0000000000000000   10.0754817366716942
   6.8903488273584328   20.0777943406812618    2.5176662707014765
   0.0000000000000000    0.0000000000000000   21.3760000000000012
H O
6 4
direct
   0.7736627378224489    0.5817578398879264    0.3246977478431740 H
   0.8356190744014336    0.5750552220412782    0.3313920571959068 H
   0.9148569075913586    0.5587803161687419    0.3280260736177789 H
   0.7397466829972035    0.6505890289308854    0.3890122477158292 H
   0.8417105025303133    0.6414665018202973    0.4126495610801216 H
   0.8029914417130581    0.6394373658930734    0.4001230326839194 H
   0.7655950000000000    0.5569600000000000    0.2965700000000000 O
   0.8701400000000000    0.5468600000000000    0.3066800000000000 O
   0.7044550000000001    0.6797900000000000    0.4084900000000000 O
   0.8139700000000001    0.6589200000000000    0.4293000000000000 O
