Ca64 C252 O252
1.0
  27.5728018847195742    0.0000000000000000   10.0754817366716942
   6.8903488273584328   20.0777943406812618    2.5176662707014765
   0.0000000000000000    0.0000000000000000   21.3760000000000012
Ca C O
64 252 252
direct
   0.0312500000000000    0.2309000000000000    0.5191000000000000 Ca
   0.0312000000000000    0.7310900000000000    0.0191600000000000 Ca
   0.0312100000000000    0.7311200000000000    0.5188800000000000 Ca
   0.2812700000000000    0.2309600000000000    0.0189000000000000 Ca
   0.2812450000000000    0.2309000000000000    0.5191700000000000 Ca
   0.2812000000000000    0.7310900000000000    0.0191600000000000 Ca
   0.2812050000000000    0.7311200000000000    0.5188800000000000 Ca
   0.1562550000000000    0.2689000000000000    0.4810800000000000 Ca
   0.1562650000000000    0.2689300000000000    0.9808800000000000 Ca
   0.1562450000000000    0.7691300000000000    0.4808200000000000 Ca
   0.1562500000000000    0.7690800000000000    0.9811500000000000 Ca
   0.4062550000000000    0.2689000000000000    0.4810800000000000 Ca
   0.4062600000000000    0.2689300000000000    0.9808800000000000 Ca
   0.4062400000000000    0.7691300000000000    0.4808200000000000 Ca
   0.4062450000000000    0.7690800000000000    0.9811500000000000 Ca
   0.2092300000000000    0.0192100000000000    0.2688800000000000 Ca
   0.2092550000000000    0.0188700000000000    0.7691200000000000 Ca
   0.2093000000000000    0.5189100000000000    0.2689300000000000 Ca
   0.2091750000000000    0.5192200000000000    0.7690700000000000 Ca
   0.4592300000000000    0.0192100000000000    0.2688800000000000 Ca
   0.4592550000000000    0.0188600000000000    0.7691200000000000 Ca
   0.4592950000000000    0.5189100000000000    0.2689200000000000 Ca
   0.4591700000000000    0.5192200000000000    0.7690700000000000 Ca
   0.1033600000000000    0.4808400000000000    0.2308800000000000 Ca
   0.1032350000000000    0.4811100000000000    0.7311000000000000 Ca
   0.1032650000000000    0.9811100000000000    0.2308900000000000 Ca
   0.1032950000000000    0.9808400000000000    0.7311200000000000 Ca
   0.3533600000000000    0.4808400000000000    0.2308800000000000 Ca
   0.3532350000000000    0.4811100000000000    0.7310900000000000 Ca
   0.3532600000000000    0.9811100000000000    0.2308900000000000 Ca
   0.3532900000000000    0.9808500000000000    0.7311200000000000 Ca
   0.0312750000000000    0.2309600000000000    0.0188900000000000 Ca
   0.5312500000000000    0.2309000000000000    0.5191000000000000 Ca
   0.5312000000000000    0.7310900000000000    0.0191600000000000 Ca
   0.5312100000000000    0.7311200000000000    0.5188800000000000 Ca
   0.7812700000000000    0.2309600000000000    0.0189000000000000 Ca
   0.7812450000000000    0.2309000000000000    0.5191700000000000 Ca
   0.7812000000000000    0.7310900000000000    0.0191600000000000 Ca
   0.7812049999999999    0.7311200000000000    0.5188800000000000 Ca
   0.6562550000000000    0.2689000000000000    0.4810800000000000 Ca
   0.6562650000000000    0.2689300000000000    0.9808800000000000 Ca
   0.6562450000000000    0.7691300000000000    0.4808200000000000 Ca
   0.6562500000000000    0.7690800000000000    0.9811500000000000 Ca
   0.9062550000000000    0.2689000000000000    0.4810800000000000 Ca
   0.9062600000000001    0.2689300000000000    0.9808800000000000 Ca
   0.9062399999999999    0.7691300000000000    0.4808200000000000 Ca
   0.9062450000000000    0.7690800000000000    0.9811500000000000 Ca
   0.7092300000000000    0.0192100000000000    0.2688800000000000 Ca
   0.7092550000000000    0.0188700000000000    0.7691200000000000 Ca
   0.7093000000000000    0.5189100000000000    0.2689300000000000 Ca
   0.7091750000000000    0.5192200000000000    0.7690700000000000 Ca
   0.9592300000000000    0.0192100000000000    0.2688800000000000 Ca
   0.9592550000000000    0.0188600000000000    0.7691200000000000 Ca
   0.9592950000000000    0.5189100000000000    0.2689200000000000 Ca
   0.9591700000000001    0.5192200000000000    0.7690700000000000 Ca
   0.6033600000000000    0.4808400000000000    0.2308800000000000 Ca
   0.6032350000000000    0.4811100000000000    0.7311000000000000 Ca
   0.6032649999999999    0.9811100000000000    0.2308900000000000 Ca
   0.6032950000000000    0.9808400000000000    0.7311200000000000 Ca
   0.8533600000000000    0.4808400000000000    0.2308800000000000 Ca
   0.8532350000000000    0.4811100000000000    0.7310900000000000 Ca
   0.8532600000000000    0.9811100000000000    0.2308900000000000 Ca
   0.8532900000000000    0.9808500000000000    0.7311200000000000 Ca
   0.5312749999999999    0.2309600000000000    0.0188900000000000 Ca
   0.0572350000000000    0.3333333333333333    0.4108200000000000 C
   0.0571750000000000    0.3335000000000000    0.9108200000000000 C
   0.0571000000000000    0.8338200000000000    0.4108000000000000 C
   0.0571000000000000    0.8337900000000000    0.9112700000000000 C
   0.3072350000000000    0.3333333333333333    0.4108100000000000 C
   0.3071850000000000    0.3334800000000000    0.9108000000000001 C
   0.3071000000000000    0.8338100000000001    0.4108000000000000 C
   0.3070950000000000    0.8337900000000000    0.9112700000000000 C
   0.0127150000000000    0.3576800000000000    0.1158600000000000 C
   0.0125900000000000    0.3576100000000000    0.6163200000000000 C
   0.0124900000000000    0.8579900000000000    0.1159000000000000 C
   0.0125350000000000    0.8577399999999999    0.6160600000000001 C
   0.2627150000000000    0.3576600000000000    0.1158700000000000 C
   0.2625800000000000    0.3576100000000000    0.6163300000000000 C
   0.2624900000000000    0.8579900000000000    0.1159100000000000 C
   0.2625300000000000    0.8577399999999999    0.6160600000000001 C
   0.1795100000000000    0.1663200000000000    0.0888100000000000 C
   0.1794100000000000    0.1662500000000000    0.5891999999999999 C
   0.1794200000000000    0.6664000000000000    0.0890500000000000 C
   0.1792150000000000    0.6667900000000000    0.5892200000000000 C
   0.4295050000000000    0.1663200000000000    0.0888100000000000 C
   0.4294050000000000    0.1662500000000000    0.5891999999999999 C
   0.4294150000000000    0.6664000000000000    0.0890500000000000 C
   0.4292150000000000    0.6667900000000000    0.5891999999999999 C
   0.4994050000000000    0.1422600000000000    0.3839500000000000 C
   0.4994500000000000    0.1418500000000000    0.8843200000000000 C
   0.4995400000000000    0.6424900000000000    0.3836100000000000 C
   0.4994150000000000    0.6422800000000000    0.8842500000000000 C
   0.2494050000000000    0.1422500000000000    0.3839500000000000 C
   0.2494450000000000    0.1418500000000000    0.8843200000000000 C
   0.2495350000000000    0.6424900000000000    0.3836100000000000 C
   0.2494150000000000    0.6422800000000000    0.8842500000000000 C
   0.2375000000000000    0.4107800000000000    0.1663200000000000 C
   0.2373800000000000    0.4108900000000000    0.6666666666666666 C
   0.2373450000000000    0.9111200000000000    0.1663400000000000 C
   0.2374000000000000    0.9108400000000000    0.6665300000000000 C
   0.4875000000000000    0.4107700000000000    0.1663300000000000 C
   0.4873800000000000    0.4108900000000000    0.6666666666666666 C
   0.4873400000000000    0.9111200000000000    0.1663400000000000 C
   0.4873950000000000    0.9108500000000000    0.6665000000000000 C
   0.1796050000000000    0.1158100000000000    0.1418000000000000 C
   0.1794200000000000    0.1158000000000000    0.6423300000000000 C
   0.1795100000000000    0.6158700000000000    0.1421100000000000 C
   0.1791500000000000    0.6164900000000000    0.6425000000000000 C
   0.4296000000000000    0.1158200000000000    0.1418800000000000 C
   0.4294150000000000    0.1158000000000000    0.6423300000000000 C
   0.4295050000000000    0.6158700000000000    0.1421000000000000 C
   0.4291500000000000    0.6164900000000000    0.6425000000000000 C
   0.0260600000000000    0.0892000000000000    0.3334300000000000 C
   0.0260750000000000    0.0887300000000000    0.8338500000000000 C
   0.0261150000000000    0.5892900000000000    0.3332100000000000 C
   0.0260050000000000    0.5891800000000000    0.8337800000000000 C
   0.2760600000000000    0.0892000000000000    0.3334300000000000 C
   0.2760700000000000    0.0887300000000000    0.8338500000000000 C
   0.2761100000000000    0.5892800000000000    0.3332300000000000 C
   0.2760050000000000    0.5891700000000000    0.8337800000000000 C
   0.0586400000000000    0.3836700000000000    0.3575700000000000 C
   0.0586350000000000    0.3839500000000000    0.8576900000000000 C
   0.0584550000000000    0.8843100000000000    0.3577200000000000 C
   0.0585250000000000    0.8841900000000000    0.8581000000000000 C
   0.3086400000000000    0.3836700000000000    0.3575000000000000 C
   0.3086300000000000    0.3839600000000000    0.8577000000000000 C
   0.3084450000000000    0.8843200000000000    0.3577000000000000 C
   0.3085200000000000    0.8841900000000000    0.8581000000000000 C
   0.1331550000000000    0.1608900000000000    0.0834000000000000 C
   0.1331650000000000    0.1606800000000000    0.5835900000000001 C
   0.1331050000000000    0.6608900000000000    0.0835900000000000 C
   0.1330250000000000    0.6610900000000000    0.5835399999999999 C
   0.3831450000000000    0.1608900000000000    0.0834400000000000 C
   0.3831550000000000    0.1606900000000000    0.5835900000000001 C
   0.3831000000000000    0.6608900000000000    0.0835800000000000 C
   0.3830200000000000    0.6610900000000000    0.5835399999999999 C
   0.0631600000000000    0.3659100000000000    0.1076600000000000 C
   0.0630200000000000    0.3659500000000000    0.6079300000000000 C
   0.0630050000000000    0.8659200000000000    0.1079000000000000 C
   0.0630250000000000    0.8657899999999999    0.6078700000000000 C
   0.3131550000000000    0.3659200000000000    0.1076600000000000 C
   0.3130150000000000    0.3659600000000000    0.6079300000000000 C
   0.3130000000000000    0.8659200000000000    0.1079000000000000 C
   0.3130250000000000    0.8657899999999999    0.6078800000000000 C
   0.0053750000000000    0.3389600000000000    0.4164700000000000 C
   0.0054350000000000    0.3389400000000000    0.9160800000000000 C
   0.0052600000000000    0.8394200000000001    0.4164300000000000 C
   0.0053800000000000    0.8391200000000000    0.9165600000000000 C
   0.2553750000000000    0.3389700000000000    0.4164000000000000 C
   0.2554250000000000    0.3389500000000000    0.9161000000000000 C
   0.2552450000000000    0.8394400000000000    0.4164400000000000 C
   0.2553750000000000    0.8391300000000000    0.9165600000000000 C
   0.0498350000000000    0.1341700000000000    0.3921500000000000 C
   0.0499200000000000    0.1338300000000000    0.8923700000000000 C
   0.0499550000000000    0.6340600000000000    0.3920300000000000 C
   0.0498650000000000    0.6339700000000000    0.8925400000000000 C
   0.2998350000000000    0.1341700000000000    0.3921500000000000 C
   0.2999150000000000    0.1338300000000000    0.8923700000000000 C
   0.2999500000000000    0.6340400000000000    0.3920400000000000 C
   0.2998650000000000    0.6339700000000000    0.8925300000000000 C
   0.0365350000000000    0.4163400000000000    0.1608200000000000 C
   0.0364350000000000    0.4165100000000000    0.6609900000000000 C
   0.0364250000000000    0.9164099999999999    0.1609900000000000 C
   0.0364900000000000    0.9162000000000000    0.6610500000000000 C
   0.2865350000000000    0.4163200000000000    0.1608400000000000 C
   0.2864300000000000    0.4165100000000000    0.6609900000000000 C
   0.2864250000000000    0.9164099999999999    0.1609900000000000 C
   0.2864850000000000    0.9162100000000000    0.6610400000000000 C
   0.0040200000000000    0.3920800000000000    0.3659800000000000 C
   0.0041300000000000    0.3921400000000000    0.8650000000000000 C
   0.0038500000000000    0.8926400000000000    0.3660700000000000 C
   0.0040500000000000    0.8921900000000000    0.8660500000000000 C
   0.2540200000000000    0.3920700000000000    0.3659000000000000 C
   0.2541300000000000    0.3921200000000000    0.8656000000000000 C
   0.2538450000000000    0.8926400000000000    0.3660600000000000 C
   0.2540450000000000    0.8921800000000000    0.8660500000000000 C
   0.0750900000000000    0.0838100000000000    0.3389300000000000 C
   0.0751250000000000    0.0833900000000000    0.8392400000000000 C
   0.0751500000000000    0.5836000000000000    0.3389000000000000 C
   0.0750500000000000    0.5835399999999999    0.8393900000000000 C
   0.3250850000000000    0.0838000000000000    0.3389400000000000 C
   0.3251200000000000    0.0833900000000000    0.8392500000000001 C
   0.3251450000000000    0.5836100000000000    0.3388900000000000 C
   0.3250500000000000    0.5835500000000000    0.8393800000000000 C
   0.1331700000000000    0.1077100000000000    0.1338200000000000 C
   0.1331150000000000    0.1075500000000000    0.6340000000000000 C
   0.1331750000000000    0.6076400000000000    0.1339100000000000 C
   0.1329600000000000    0.6080400000000000    0.6340900000000000 C
   0.3831650000000000    0.1077200000000000    0.1338400000000000 C
   0.3831100000000000    0.1075500000000000    0.6340400000000000 C
   0.3831700000000000    0.6076400000000000    0.1339000000000000 C
   0.3829600000000000    0.6080300000000000    0.6340900000000000 C
   0.5572350000000000    0.3333333333333333    0.4108200000000000 C
   0.5571750000000000    0.3335000000000000    0.9108200000000000 C
   0.5571000000000000    0.8338200000000000    0.4108000000000000 C
   0.5571000000000000    0.8337900000000000    0.9112700000000000 C
   0.8072349999999999    0.3333333333333333    0.4108100000000000 C
   0.8071850000000000    0.3334800000000000    0.9108000000000001 C
   0.8070999999999999    0.8338100000000001    0.4108000000000000 C
   0.8070950000000000    0.8337900000000000    0.9112700000000000 C
   0.5127150000000000    0.3576800000000000    0.1158600000000000 C
   0.5125900000000000    0.3576100000000000    0.6163200000000000 C
   0.5124900000000000    0.8579900000000000    0.1159000000000000 C
   0.5125350000000000    0.8577399999999999    0.6160600000000001 C
   0.7627150000000000    0.3576600000000000    0.1158700000000000 C
   0.7625800000000000    0.3576100000000000    0.6163300000000000 C
   0.7624900000000000    0.8579900000000000    0.1159100000000000 C
   0.7625299999999999    0.8577399999999999    0.6160600000000001 C
   0.6795100000000001    0.1663200000000000    0.0888100000000000 C
   0.6794100000000000    0.1662500000000000    0.5891999999999999 C
   0.6794200000000000    0.6664000000000000    0.0890500000000000 C
   0.6792150000000000    0.6667900000000000    0.5892200000000000 C
   0.9295050000000000    0.1663200000000000    0.0888100000000000 C
   0.9294050000000000    0.1662500000000000    0.5891999999999999 C
   0.9294150000000000    0.6664000000000000    0.0890500000000000 C
   0.9292150000000000    0.6667900000000000    0.5891999999999999 C
   0.9994050000000000    0.1422600000000000    0.3839500000000000 C
   0.9994499999999999    0.1418500000000000    0.8843200000000000 C
   0.9995400000000000    0.6424900000000000    0.3836100000000000 C
   0.9994149999999999    0.6422800000000000    0.8842500000000000 C
   0.7494050000000000    0.1422500000000000    0.3839500000000000 C
   0.7494450000000000    0.1418500000000000    0.8843200000000000 C
   0.7494149999999999    0.6422800000000000    0.8842500000000000 C
   0.7375000000000000    0.4107800000000000    0.1663200000000000 C
   0.7373800000000000    0.4108900000000000    0.6666666666666666 C
   0.7373450000000000    0.9111200000000000    0.1663400000000000 C
   0.7374000000000001    0.9108400000000000    0.6665300000000000 C
   0.9875000000000000    0.4107700000000000    0.1663300000000000 C
   0.9873799999999999    0.4108900000000000    0.6666666666666666 C
   0.9873400000000000    0.9111200000000000    0.1663400000000000 C
   0.9873950000000000    0.9108500000000000    0.6665000000000000 C
   0.6796050000000000    0.1158100000000000    0.1418000000000000 C
   0.6794200000000000    0.1158000000000000    0.6423300000000000 C
   0.6795100000000001    0.6158700000000000    0.1421100000000000 C
   0.6791500000000000    0.6164900000000000    0.6425000000000000 C
   0.9296000000000000    0.1158200000000000    0.1418800000000000 C
   0.9294150000000000    0.1158000000000000    0.6423300000000000 C
   0.9295050000000000    0.6158700000000000    0.1421000000000000 C
   0.9291499999999999    0.6164900000000000    0.6425000000000000 C
   0.5260600000000000    0.0892000000000000    0.3334300000000000 C
   0.5260750000000000    0.0887300000000000    0.8338500000000000 C
   0.5261150000000000    0.5892900000000000    0.3332100000000000 C
   0.5260050000000001    0.5891800000000000    0.8337800000000000 C
   0.7760600000000000    0.0892000000000000    0.3334300000000000 C
   0.7760700000000000    0.0887300000000000    0.8338500000000000 C
   0.7760050000000001    0.5891700000000000    0.8337800000000000 C
   0.5586400000000000    0.3836700000000000    0.3575700000000000 C
   0.5586350000000000    0.3839500000000000    0.8576900000000000 C
   0.5584550000000000    0.8843100000000000    0.3577200000000000 C
   0.5585250000000000    0.8841900000000000    0.8581000000000000 C
   0.8086400000000000    0.3836700000000000    0.3575000000000000 C
   0.8086300000000000    0.3839600000000000    0.8577000000000000 C
   0.8084450000000001    0.8843200000000000    0.3577000000000000 C
   0.8085200000000000    0.8841900000000000    0.8581000000000000 C
   0.6331550000000000    0.1608900000000000    0.0834000000000000 C
   0.6331650000000000    0.1606800000000000    0.5835900000000001 C
   0.6331050000000000    0.6608900000000000    0.0835900000000000 C
   0.6330249999999999    0.6610900000000000    0.5835399999999999 C
   0.8831450000000001    0.1608900000000000    0.0834400000000000 C
   0.8831550000000000    0.1606900000000000    0.5835900000000001 C
   0.8831000000000000    0.6608900000000000    0.0835800000000000 C
   0.8830200000000000    0.6610900000000000    0.5835399999999999 C
   0.5631600000000000    0.3659100000000000    0.1076600000000000 C
   0.5630200000000000    0.3659500000000000    0.6079300000000000 C
   0.5630050000000000    0.8659200000000000    0.1079000000000000 C
   0.5630250000000000    0.8657899999999999    0.6078700000000000 C
   0.8131550000000001    0.3659200000000000    0.1076600000000000 C
   0.8130150000000000    0.3659600000000000    0.6079300000000000 C
   0.8129999999999999    0.8659200000000000    0.1079000000000000 C
   0.8130250000000000    0.8657899999999999    0.6078800000000000 C
   0.5053750000000000    0.3389600000000000    0.4164700000000000 C
   0.5054350000000000    0.3389400000000000    0.9160800000000000 C
   0.5052600000000000    0.8394200000000001    0.4164300000000000 C
   0.5053800000000001    0.8391200000000000    0.9165600000000000 C
   0.7553750000000000    0.3389700000000000    0.4164000000000000 C
   0.7554250000000000    0.3389500000000000    0.9161000000000000 C
   0.7552449999999999    0.8394400000000000    0.4164400000000000 C
   0.7553750000000000    0.8391300000000000    0.9165600000000000 C
   0.5498350000000000    0.1341700000000000    0.3921500000000000 C
   0.5499200000000000    0.1338300000000000    0.8923700000000000 C
   0.5499550000000000    0.6340600000000000    0.3920300000000000 C
   0.5498650000000000    0.6339700000000000    0.8925400000000000 C
   0.7998350000000001    0.1341700000000000    0.3921500000000000 C
   0.7999149999999999    0.1338300000000000    0.8923700000000000 C
   0.7998650000000000    0.6339700000000000    0.8925300000000000 C
   0.5365350000000000    0.4163400000000000    0.1608200000000000 C
   0.5364350000000000    0.4165100000000000    0.6609900000000000 C
   0.5364250000000000    0.9164099999999999    0.1609900000000000 C
   0.5364900000000000    0.9162000000000000    0.6610500000000000 C
   0.7865350000000000    0.4163200000000000    0.1608400000000000 C
   0.7864300000000000    0.4165100000000000    0.6609900000000000 C
   0.7864249999999999    0.9164099999999999    0.1609900000000000 C
   0.7864850000000000    0.9162100000000000    0.6610400000000000 C
   0.5040200000000000    0.3920800000000000    0.3659800000000000 C
   0.5041300000000000    0.3921400000000000    0.8650000000000000 C
   0.5038500000000000    0.8926400000000000    0.3660700000000000 C
   0.5040500000000000    0.8921900000000000    0.8660500000000000 C
   0.7540200000000000    0.3920700000000000    0.3659000000000000 C
   0.7541300000000000    0.3921200000000000    0.8656000000000000 C
   0.7538450000000000    0.8926400000000000    0.3660600000000000 C
   0.7540450000000001    0.8921800000000000    0.8660500000000000 C
   0.5750900000000000    0.0838100000000000    0.3389300000000000 C
   0.5751250000000000    0.0833900000000000    0.8392400000000000 C
   0.5751500000000001    0.5836000000000000    0.3389000000000000 C
   0.5750500000000001    0.5835399999999999    0.8393900000000000 C
   0.8250850000000001    0.0838000000000000    0.3389400000000000 C
   0.8251200000000001    0.0833900000000000    0.8392500000000001 C
   0.8250500000000001    0.5835500000000000    0.8393800000000000 C
   0.6331700000000000    0.1077100000000000    0.1338200000000000 C
   0.6331150000000000    0.1075500000000000    0.6340000000000000 C
   0.6331750000000000    0.6076400000000000    0.1339100000000000 C
   0.6329600000000000    0.6080400000000000    0.6340900000000000 C
   0.8831650000000000    0.1077200000000000    0.1338400000000000 C
   0.8831100000000001    0.1075500000000000    0.6340400000000000 C
   0.8831700000000000    0.6076400000000000    0.1339000000000000 C
   0.8829600000000000    0.6080300000000000    0.6340900000000000 C
   0.4424050000000000    0.9432600000000000    0.7030999999999999 O
   0.2062450000000000    0.0907800000000000    0.1789100000000000 O
   0.2059200000000000    0.0908500000000000    0.6795400000000000 O
   0.2060750000000000    0.5908500000000000    0.1792300000000000 O
   0.0470250000000000    0.4529700000000000    0.1932000000000000 O
   0.0469300000000000    0.4532500000000000    0.6932400000000000 O
   0.0469900000000000    0.9529000000000000    0.1934200000000000 O
   0.0470800000000000    0.9526800000000000    0.6934600000000000 O
   0.2970200000000000    0.4529700000000000    0.1932000000000000 O
   0.0860550000000000    0.2967500000000000    0.4431900000000000 O
   0.0859300000000000    0.2969100000000000    0.9432800000000000 O
   0.0859850000000000    0.7971300000000000    0.4430500000000000 O
   0.0858750000000000    0.7972900000000001    0.9437000000000000 O
   0.3360500000000000    0.2967400000000000    0.4431900000000000 O
   0.3359300000000000    0.2969100000000000    0.9432800000000000 O
   0.3359800000000000    0.7971400000000000    0.4430500000000000 O
   0.3358700000000000    0.7972900000000001    0.9437400000000000 O
   0.4986550000000000    0.3205400000000000    0.0908400000000000 O
   0.4985650000000000    0.3202700000000000    0.5915300000000000 O
   0.4983350000000000    0.8210400000000000    0.0908100000000000 O
   0.4984200000000000    0.8206800000000000    0.5910000000000000 O
   0.2486500000000000    0.3205400000000000    0.0908400000000000 O
   0.2485550000000000    0.3202700000000000    0.5915300000000000 O
   0.2483300000000000    0.8210400000000000    0.0908100000000000 O
   0.2484150000000000    0.8206700000000000    0.5910500000000000 O
   0.2062250000000000    0.2029000000000000    0.0564400000000000 O
   0.2061200000000000    0.2028600000000000    0.5568800000000000 O
   0.2060950000000000    0.7030600000000000    0.0567500000000000 O
   0.2059600000000000    0.7033199999999999    0.5568000000000000 O
   0.4562250000000000    0.2028900000000000    0.0564000000000000 O
   0.4561150000000000    0.2028600000000000    0.5568800000000000 O
   0.4560900000000000    0.7030600000000000    0.0567500000000000 O
   0.4559550000000000    0.7033300000000000    0.5568000000000000 O
   0.2042550000000000    0.1793000000000000    0.4089700000000000 O
   0.2043050000000000    0.1789100000000000    0.9093400000000000 O
   0.2044550000000000    0.6797900000000000    0.4084900000000000 O
   0.2043050000000000    0.6794700000000000    0.9091000000000000 O
   0.4542500000000000    0.1792900000000000    0.4089800000000000 O
   0.4543000000000000    0.1789100000000000    0.9093500000000000 O
   0.4544550000000000    0.6798000000000000    0.4084800000000000 O
   0.4542950000000000    0.6794800000000000    0.9091700000000000 O
   0.1924900000000000    0.4430800000000000    0.2029400000000000 O
   0.1923750000000000    0.4433300000000000    0.7031300000000000 O
   0.1923450000000000    0.9435600000000000    0.2028600000000000 O
   0.1924100000000000    0.9432600000000000    0.7030999999999999 O
   0.4424850000000000    0.4430900000000000    0.2029300000000000 O
   0.4423700000000000    0.4433300000000000    0.7031200000000000 O
   0.4423400000000000    0.9435600000000000    0.2028600000000000 O
   0.2055250000000000    0.5917100000000000    0.6798900000000000 O
   0.4562450000000000    0.0907800000000000    0.1789100000000000 O
   0.4559200000000000    0.0908500000000000    0.6795400000000000 O
   0.4560700000000000    0.5908600000000001    0.1792300000000000 O
   0.4555250000000000    0.5917100000000000    0.6798900000000000 O
   0.0155950000000000    0.0568100000000000    0.2967800000000000 O
   0.0155750000000000    0.0562900000000000    0.7972900000000001 O
   0.0155950000000000    0.5569600000000000    0.2965700000000000 O
   0.0154800000000000    0.5568900000000000    0.7971100000000000 O
   0.2655900000000000    0.0568100000000000    0.2967800000000000 O
   0.2655700000000000    0.0562900000000000    0.7972900000000001 O
   0.2655950000000000    0.5569600000000000    0.2965700000000000 O
   0.2654750000000000    0.5568900000000000    0.7971100000000000 O
   0.0913150000000000    0.4085000000000000    0.3202600000000000 O
   0.0912800000000000    0.4090000000000000    0.8207000000000000 O
   0.0911100000000000    0.9092400000000000    0.3205500000000000 O
   0.0911650000000000    0.9092200000000000    0.8210800000000000 O
   0.3413150000000000    0.4085000000000000    0.3202000000000000 O
   0.3412800000000000    0.4089800000000000    0.8206900000000000 O
   0.3411050000000000    0.9092400000000000    0.3205500000000000 O
   0.3411600000000000    0.9092200000000000    0.8210000000000000 O
   0.1063350000000000    0.1933500000000000    0.0470000000000000 O
   0.1064800000000000    0.1930200000000000    0.5469500000000000 O
   0.1062950000000000    0.6933400000000000    0.0471500000000000 O
   0.1064050000000000    0.6932800000000000    0.5467800000000000 O
   0.3563250000000000    0.1933600000000000    0.0470100000000000 O
   0.3564750000000000    0.1930200000000000    0.5469600000000000 O
   0.3562950000000000    0.6933400000000000    0.0471400000000000 O
   0.3564050000000000    0.6932800000000000    0.5467800000000000 O
   0.1082850000000000    0.3409900000000000    0.0705100000000000 O
   0.1081050000000000    0.3410100000000000    0.5706599999999999 O
   0.1081600000000000    0.8407200000000000    0.0709700000000000 O
   0.1081350000000000    0.8407100000000000    0.5707400000000000 O
   0.3582850000000000    0.3409800000000000    0.0705300000000000 O
   0.3580950000000000    0.3410100000000000    0.5706599999999999 O
   0.3581550000000000    0.8407200000000000    0.0709000000000000 O
   0.3581300000000000    0.8407200000000000    0.5707000000000000 O
   0.2265050000000000    0.3067200000000000    0.4532000000000000 O
   0.2265750000000000    0.3065500000000000    0.9525100000000000 O
   0.2264250000000000    0.8070700000000000    0.4530400000000000 O
   0.2265650000000000    0.8066900000000000    0.9530000000000000 O
   0.4765000000000000    0.3067200000000000    0.4532300000000000 O
   0.4765650000000000    0.3065500000000000    0.9525100000000000 O
   0.4764200000000000    0.8070600000000000    0.4530000000000000 O
   0.4765600000000000    0.8066800000000000    0.9530200000000000 O
   0.0638350000000000    0.1592100000000000    0.4293300000000000 O
   0.0640050000000000    0.1589300000000000    0.9294000000000000 O
   0.0639700000000000    0.6589100000000000    0.4293400000000000 O
   0.0639300000000000    0.6588700000000000    0.9297500000000000 O
   0.3138300000000000    0.1592100000000000    0.4293400000000000 O
   0.3140050000000000    0.1589200000000000    0.9294000000000000 O
   0.3139700000000000    0.6589200000000000    0.4293000000000000 O
   0.3139350000000000    0.6588800000000000    0.9297299999999999 O
   0.2969250000000000    0.4532500000000000    0.6932400000000000 O
   0.2969850000000000    0.9529000000000000    0.1934200000000000 O
   0.2970750000000000    0.9526800000000000    0.6934600000000000 O
   0.2213650000000000    0.4293600000000000    0.3411000000000000 O
   0.2215800000000000    0.4292900000000000    0.8405899999999999 O
   0.2211550000000000    0.9299100000000000    0.3412400000000000 O
   0.2214800000000000    0.9291000000000000    0.8408500000000000 O
   0.4713600000000000    0.4293500000000000    0.3410900000000000 O
   0.4715800000000000    0.4292800000000000    0.8405800000000000 O
   0.4711550000000000    0.9298999999999999    0.3412300000000000 O
   0.4714750000000000    0.9291100000000000    0.8408000000000000 O
   0.1201200000000000    0.0473600000000000    0.3065000000000000 O
   0.1201550000000000    0.0469800000000000    0.8067900000000000 O
   0.1201450000000000    0.5468600000000000    0.3066800000000000 O
   0.1200500000000000    0.5469200000000000    0.8070600000000000 O
   0.3701150000000000    0.0473500000000000    0.3065200000000000 O
   0.3701500000000000    0.0469800000000000    0.8067900000000000 O
   0.3701400000000000    0.5468600000000000    0.3066800000000000 O
   0.3700450000000000    0.5469200000000000    0.8070500000000000 O