H2 O2
1.0
  14.9845028243144682    0.0000000000000000    4.2772145267816262
  -7.4498092947070207   12.5146307726658161    5.6645818112498585
   0.0000000000000000    0.0000000000000000   31.3440000000000012
H O
2 2
direct
   0.4670727009707658    0.3680354362413861    0.2723662526064118 H
   0.3327246577015597    0.2987419271934679    0.2741662979211673 H
   0.4143100000000000    0.3280300000000000    0.3085350000000000 O
   0.3192300000000000    0.2783500000000000    0.3097900000000000 O
