H4 O2
1.0
  21.3444609125270830    0.0000000000000000   -1.6611048593040512
   1.4693550054446491   24.4029089548763949   -7.4257343345953384
   0.0000000000000000    0.0000000000000000   25.5199999999999996
H O
4 2
direct
   0.6085450926767948    0.0430818212125375    0.6477730140342152 H
   0.6044682012858082   -0.0244537317728609    0.6388535608831931 H
   0.3955321601702226    1.0244543689213863    0.3611681659463554 H
   0.3914623223994431    0.9569141884684599    0.3522412297360458 H
   0.6239600000000000    0.0099050000000000    0.6576500000000001 O
   0.3760400000000000    0.9900949999999999    0.3423750000000000 O
