H12 C12 N2
1.0
  21.3444609125270830    0.0000000000000000   -1.6611048593040512
   1.4693550054446491   24.4029089548763949   -7.4257343345953384
   0.0000000000000000    0.0000000000000000   25.5199999999999996
H C N
12 12 2
direct
   0.4700700000000000    0.0804650000000000    0.4296400000000000 H
   0.3854000000000000    0.0730450000000000    0.3549550000000000 H
   0.5464500000000000    0.0318650000000000    0.4798750000000000 H
   0.3755200000000000    0.9067550000000000    0.3326500000000000 H
   0.4595400000000000    0.9070050000000001    0.4071500000000000 H
   0.5478100000000000    0.9592050000000000    0.4652250000000000 H
   0.6244900000000000    0.0932400000000000    0.6673600000000000 H
   0.5405000000000000    0.0929850000000000    0.5928450000000000 H
   0.4522300000000000    0.0407900000000000    0.5347650000000000 H
   0.5299500000000000    0.9195249999999999    0.5703700000000000 H
   0.6145800000000000    0.9269600000000000    0.6450850000000000 H
   0.4535800000000000    0.9681250000000000    0.5201200000000000 H
   0.4497900000000000    0.0411800000000000    0.4095000000000000 C
   0.4029500000000000    0.0375300000000000    0.3683200000000000 C
   0.3973300000000000    0.9442900000000001    0.3559950000000000 C
   0.4439100000000000    0.9448250000000000    0.3970800000000000 C
   0.4703300000000000    0.9942900000000000    0.4257150000000000 C
   0.5169899999999999    0.9969300000000000    0.4734000000000000 C
   0.6026800000000000    0.0557050000000000    0.6440150000000000 C
   0.5561199999999999    0.0551700000000000    0.6029200000000000 C
   0.5296999999999999    0.0057000000000000    0.5742850000000000 C
   0.4830400000000000    0.0030600000000000    0.5266000000000000 C
   0.5502300000000000    0.9588099999999999    0.5901149999999999 C
   0.5970500000000000    0.9624699999999999    0.6317000000000000 C
   0.3760400000000000    0.9900949999999999    0.3423750000000000 N
   0.6239600000000000    0.0099050000000000    0.6576500000000001 N
