H9 C15 N6
1.0
  37.8459999769428919    0.0000000000000000    0.0013210746171501
   0.0006614448802871   37.8979999942278099    0.0000000000000023
   0.0000000000000000    0.0000000000000000   37.8939999999999984
H C N
9 15 6
direct
   0.3587900000000000    0.4320200000000000    0.2218750000000000 H
   0.4323800000000000    0.2783150000000000    0.1411050000000000 H
   0.2781650000000000    0.3587750000000000    0.0676000000000000 H
   0.4319300000000000    0.3584200000000000    0.2221250000000000 H
   0.2781500000000000    0.4323500000000000    0.1413000000000000 H
   0.3587100000000000    0.2780950000000000    0.0679300000000000 H
   0.3841800000000000    0.3841700000000000    0.1960050000000000 H
   0.3841550000000000    0.3039850000000000    0.1158350000000000 H
   0.3039200000000000    0.3842350000000000    0.1157750000000000 H
   0.3363150000000000    0.4368900000000000    0.2048700000000000 C
   0.3276400000000000    0.3727200000000000    0.1272850000000000 C
   0.4370350000000000    0.2952200000000000    0.1636700000000000 C
   0.2951850000000000    0.3362900000000000    0.0629250000000000 C
   0.4368200000000000    0.3360950000000000    0.2049800000000000 C
   0.2951800000000000    0.4370600000000000    0.1637750000000000 C
   0.3362700000000000    0.2951400000000000    0.0630850000000000 C
   0.3423550000000000    0.3881250000000000    0.1575500000000000 C
   0.3258800000000000    0.4189950000000000    0.1741300000000000 C
   0.3880800000000000    0.3423800000000000    0.1576150000000000 C
   0.4189250000000000    0.3258200000000000    0.1741750000000000 C
   0.3423650000000000    0.3424300000000000    0.1118700000000000 C
   0.3258600000000000    0.3258800000000000    0.0810100000000000 C
   0.3726600000000000    0.3726750000000000    0.1723000000000000 C
   0.3726500000000000    0.3276900000000000    0.1273250000000000 C
   0.3136400000000000    0.4633900000000000    0.2120250000000000 N
   0.4634550000000000    0.2881000000000000    0.1864700000000000 N
   0.2881350000000000    0.3134900000000000    0.0365150000000000 N
   0.4633200000000000    0.3133500000000000    0.2120050000000000 N
   0.2881050000000000    0.4634850000000000    0.1865350000000000 N
   0.3135400000000000    0.2880700000000000    0.0365950000000000 N
