H7 O4
1.0
  37.8459999769428919    0.0000000000000000    0.0013210746171501
   0.0006614448802871   37.8979999942278099    0.0000000000000023
   0.0000000000000000    0.0000000000000000   37.8939999999999984
H O
7 4
direct
   0.4591280277228554    0.3074724572068750    0.2030153978027593 H
   0.4590003384620382    0.2967349547836954    0.1926912188832705 H
   0.4440965997657162    0.3298494806916522    0.2069089854095908 H
   0.4442863865400453    0.2932658034759605    0.1699278203297893 H
   0.3074747953213008    0.4592508943445207    0.2030801148626670 H
   0.2932391128389613    0.4443091792551870    0.1700187585562178 H
   0.3300941884170134    0.4441601877375587    0.2068329506891408 H
   0.4633200000000000    0.3133500000000000    0.2120050000000000 O
   0.4634550000000000    0.2881000000000000    0.1864700000000000 O
   0.3136400000000000    0.4633900000000000    0.2120250000000000 O
   0.2881050000000000    0.4634850000000000    0.1865350000000000 O
