H12 O8
1.0
  38.0705753076474309    0.0000000000000000    3.0804741103840056
   1.6787593335387030   25.2509236655271216    4.1704346461465089
   0.0000000000000000    0.0000000000000000   25.8580000000000005
H O
12 8
direct
   0.1321302565062554    0.7671222777959223    0.4035363696134609 H
   0.2297261647801239    0.7944637244191360    0.3767193419824529 H
   0.1832696728974985    0.7705966186933949    0.3920260365881644 H
   0.1734150951060897    0.5843460337431891    0.5626596914955280 H
   0.1065309378260524    0.6858951374785472    0.5197389480915674 H
   0.1374439179114691    0.6412316514104777    0.5242936091748946 H
   0.3674951704302053    0.5976160755211525    0.2317637606232597 H
   0.2698060479972043    0.6232563038036691    0.2052919337892682 H
   0.3160944021036886    0.6086406785561971    0.2286712013818216 H
   0.3677348148599450    0.4451101558984304    0.3074482391815282 H
   0.3215177163706269    0.4015319471194138    0.4073406071336640 H
   0.3262725825160825    0.4108042536810462    0.3668596918108943 H
   0.1480000000000000    0.7953550000000000    0.3936050000000000 O
   0.2060340000000000    0.8110950000000000    0.3777800000000000 O
   0.1570660000000000    0.6044700000000000    0.5837850000000000 O
   0.1168220000000000    0.6666150000000000    0.5509400000000000 O
   0.3516560000000000    0.6071750000000000    0.2037400000000000 O
   0.2934940000000000    0.6222799999999999    0.1886850000000000 O
   0.3837960000000000    0.4507100000000000    0.3329300000000000 O
   0.3435840000000000    0.4168400000000000    0.3943250000000000 O
