Cu16 H84 C84 Br16 N28
1.0
  11.4617098870346972    0.0000000000000000    5.7228426035888020
   5.6944163912569525   12.7826637298226000    2.8452644750992726
   0.0000000000000000    0.0000000000000000   28.3799999999999990
Cu H C Br N
16 84 84 16 28
direct
   0.6457600000000000    0.5355799999999999    0.4998600000000000 Cu
   0.4304800000000000    0.5004600000000000    0.4816450000000000 Cu
   0.8943300000000000    0.5003200000000000    0.0189600000000000 Cu
   0.6458000000000000    0.9987400000000000    0.2684350000000000 Cu
   0.1819200000000000    0.9985400000000000    0.2311650000000000 Cu
   0.8946300000000000    0.0370900000000000    0.2501500000000000 Cu
   0.4303400000000000    0.9636800000000000    0.2503500000000000 Cu
   0.1818100000000000    0.4621800000000000    0.4995250000000000 Cu
   0.6457600000000000    0.5355799999999999    0.9998600000000000 Cu
   0.4304800000000000    0.5004600000000000    0.9816450000000000 Cu
   0.8943300000000000    0.5003200000000000    0.5189600000000000 Cu
   0.6458000000000000    0.9987400000000000    0.7684350000000000 Cu
   0.1819200000000000    0.9985400000000000    0.7311650000000001 Cu
   0.8946300000000000    0.0370900000000000    0.7501500000000000 Cu
   0.4303400000000000    0.9636800000000000    0.7503500000000001 Cu
   0.1818100000000000    0.4621800000000000    0.9995250000000000 Cu
   0.7186600000000000    0.4104100000000000    0.1294850000000000 H
   0.7835400000000000    0.3693500000000000    0.0639700000000000 H
   0.3583000000000000    0.2414400000000000    0.0434000000000000 H
   0.2929300000000000    0.3705700000000000    0.0655000000000000 H
   0.2238400000000000    0.2449000000000000    0.4539600000000000 H
   0.1633000000000000    0.3738400000000000    0.4313000000000000 H
   0.6965100000000000    0.4120000000000000    0.3702050000000000 H
   0.6709600000000000    0.3722000000000000    0.4359800000000000 H
   0.3793700000000000    0.7528200000000000    0.0449100000000000 H
   0.4049900000000000    0.6228700000000000    0.0663700000000000 H
   0.8518400000000000    0.5914500000000000    0.1285100000000000 H
   0.9128700000000000    0.6356900000000000    0.0634500000000000 H
   0.7191100000000000    0.2558400000000000    0.2056200000000000 H
   0.7851600000000000    0.1267100000000000    0.1834400000000000 H
   0.3586500000000000    0.0870500000000000    0.1197000000000000 H
   0.2942000000000000    0.1283200000000000    0.1851600000000000 H
   0.3790000000000000    0.0895400000000000    0.3783250000000000 H
   0.4053400000000000    0.1298000000000000    0.3125650000000000 H
   0.8522600000000000    0.2559400000000000    0.2947550000000000 H
   0.9129200000000000    0.1273100000000000    0.3177250000000000 H
   0.2250200000000000    0.9056800000000000    0.1218450000000000 H
   0.1630200000000000    0.8629400000000000    0.1871700000000000 H
   0.6962699999999999    0.7431300000000000    0.2062050000000000 H
   0.6710300000000000    0.8733900000000000    0.1853500000000000 H
   0.6704599999999999    0.2606600000000000    0.1299550000000000 H
   0.8318000000000000    0.1850700000000000    0.0912400000000000 H
   0.4077300000000000    0.2364700000000000    0.1189050000000000 H
   0.2465900000000000    0.3124000000000000    0.1577000000000000 H
   0.1834200000000000    0.2394800000000000    0.3774250000000000 H
   0.2708500000000000    0.3144500000000000    0.3391000000000000 H
   0.8927500000000000    0.2627900000000000    0.3709950000000000 H
   0.8059400000000000    0.1875900000000000    0.4096900000000000 H
   0.1831200000000000    0.7533500000000000    0.1207050000000000 H
   0.2697200000000000    0.6787300000000001    0.1589000000000000 H
   0.8927700000000000    0.7434900000000000    0.1307700000000000 H
   0.8063000000000000    0.8190900000000000    0.0926500000000000 H
   0.7186600000000000    0.4104100000000000    0.6294850000000000 H
   0.7835400000000000    0.3693500000000000    0.5639700000000000 H
   0.3583000000000000    0.2414400000000000    0.5434000000000000 H
   0.2929300000000000    0.3705700000000000    0.5655000000000000 H
   0.3776300000000000    0.5947200000000000    0.8731949999999999 H
   0.2753100000000000    0.6366100000000000    0.9387850000000000 H
   0.6957700000000000    0.7532900000000000    0.9545000000000000 H
   0.7989700000000000    0.6235000000000001    0.9328099999999999 H
   0.2238400000000000    0.2449000000000000    0.9539599999999999 H
   0.1633000000000000    0.3738400000000000    0.9313000000000000 H
   0.6965100000000000    0.4120000000000000    0.8702050000000000 H
   0.6709600000000000    0.3722000000000000    0.9359800000000000 H
   0.3793700000000000    0.7528200000000000    0.5449100000000000 H
   0.4049900000000000    0.6228700000000000    0.5663700000000000 H
   0.8518400000000000    0.5914500000000000    0.6285100000000000 H
   0.9128700000000000    0.6356900000000000    0.5634500000000000 H
   0.3770400000000000    0.7486000000000000    0.7967649999999999 H
   0.2747000000000000    0.8783300000000001    0.8187350000000000 H
   0.6962100000000000    0.9067700000000000    0.8777100000000000 H
   0.7993100000000000    0.8641600000000000    0.8122750000000001 H
   0.7191100000000000    0.2558400000000000    0.7056200000000000 H
   0.7851600000000000    0.1267100000000000    0.6834400000000000 H
   0.3586500000000000    0.0870500000000000    0.6197000000000000 H
   0.2942000000000000    0.1283200000000000    0.6851600000000000 H
   0.3790000000000000    0.0895400000000000    0.8783250000000000 H
   0.4053400000000000    0.1298000000000000    0.8125650000000000 H
   0.8522600000000000    0.2559400000000000    0.7947550000000000 H
   0.9129200000000000    0.1273100000000000    0.8177250000000000 H
   0.2250200000000000    0.9056800000000000    0.6218450000000000 H
   0.1630200000000000    0.8629400000000000    0.6871700000000001 H
   0.6962699999999999    0.7431300000000000    0.7062050000000000 H
   0.6710300000000000    0.8733900000000000    0.6853500000000000 H
   0.6704599999999999    0.2606600000000000    0.6299550000000000 H
   0.8318000000000000    0.1850700000000000    0.5912400000000000 H
   0.4077300000000000    0.2364700000000000    0.6189050000000000 H
   0.2465900000000000    0.3124000000000000    0.6577000000000000 H
   0.1832000000000000    0.7475300000000000    0.8735450000000000 H
   0.1981000000000000    0.8212500000000000    0.9112800000000000 H
   0.8901200000000000    0.7545100000000000    0.8781399999999999 H
   0.8766300000000000    0.6800300000000000    0.8402700000000001 H
   0.1834200000000000    0.2394800000000000    0.8774250000000000 H
   0.2708500000000000    0.3144500000000000    0.8391000000000000 H
   0.8927500000000000    0.2627900000000000    0.8709950000000000 H
   0.8059400000000000    0.1875900000000000    0.9096900000000000 H
   0.1831200000000000    0.7533500000000000    0.6207050000000001 H
   0.2697200000000000    0.6787300000000001    0.6589000000000000 H
   0.8927700000000000    0.7434900000000000    0.6307700000000001 H
   0.8063000000000000    0.8190900000000000    0.5926500000000000 H
   0.9207800000000000    0.3300100000000000    0.0958500000000000 C
   0.1563200000000000    0.3068400000000000    0.0843650000000000 C
   0.7920500000000000    0.3449800000000000    0.1018500000000000 C
   0.2850100000000000    0.2949500000000000    0.0769450000000000 C
   0.3625500000000000    0.3089200000000000    0.4139650000000000 C
   0.5742900000000000    0.3317300000000000    0.4037150000000000 C
   0.2459200000000000    0.2978500000000000    0.4204000000000000 C
   0.6876300000000000    0.3470200000000000    0.3981200000000000 C
   0.5017100000000000    0.6892900000000000    0.0852400000000000 C
   0.7135400000000000    0.6703200000000000    0.0961650000000000 C
   0.3882900000000000    0.6989400000000000    0.0781150000000000 C
   0.8301200000000000    0.6577900000000000    0.1016650000000000 C
   0.9211900000000000    0.1909300000000000    0.1648450000000000 C
   0.1567000000000000    0.1677600000000000    0.1533650000000000 C
   0.7927600000000000    0.2024700000000000    0.1721000000000000 C
   0.2855700000000000    0.1526200000000000    0.1473050000000000 C
   0.5018400000000000    0.1693600000000000    0.3452650000000000 C
   0.7136400000000001    0.1920300000000000    0.3350600000000000 C
   0.3884000000000000    0.1546100000000000    0.3505500000000000 C
   0.8302600000000000    0.2033000000000000    0.3284900000000000 C
   0.3625800000000000    0.8275700000000000    0.1545900000000000 C
   0.5742699999999999    0.8081400000000000    0.1657500000000000 C
   0.2460600000000000    0.8399900000000000    0.1490800000000000 C
   0.6876000000000000    0.7977400000000000    0.1732100000000000 C
   0.9788900000000000    0.2545200000000000    0.1274100000000000 C
   0.0986000000000000    0.2432800000000000    0.1218300000000000 C
   0.7686200000000000    0.2452700000000000    0.1222300000000000 C
   0.3094200000000000    0.2521100000000000    0.1267500000000000 C
   0.4840000000000000    0.2450000000000000    0.3769750000000000 C
   0.5921900000000000    0.2559900000000000    0.3720450000000000 C
   0.2660600000000000    0.2546500000000000    0.3702750000000000 C
   0.8102400000000000    0.2471800000000000    0.3784000000000000 C
   0.4839400000000000    0.7534500000000000    0.1227750000000000 C
   0.5921200000000000    0.7441700000000000    0.1281250000000000 C
   0.2656800000000000    0.7396000000000000    0.1282700000000000 C
   0.8103100000000000    0.7576600000000000    0.1230350000000000 C
   0.9207800000000000    0.3300100000000000    0.5958500000000000 C
   0.1563200000000000    0.3068400000000000    0.5843650000000000 C
   0.7920500000000000    0.3449800000000000    0.6018500000000000 C
   0.2850100000000000    0.2949500000000000    0.5769450000000000 C
   0.4398100000000000    0.6719400000000000    0.9052899999999999 C
   0.6347600000000000    0.6902100000000000    0.9148750000000000 C
   0.3345100000000000    0.6599699999999999    0.9005400000000000 C
   0.7395300000000000    0.6996500000000000    0.9213400000000000 C
   0.3625500000000000    0.3089200000000000    0.9139650000000000 C
   0.5742900000000000    0.3317300000000000    0.9037150000000000 C
   0.2459200000000000    0.2978500000000000    0.9204000000000000 C
   0.6876300000000000    0.3470200000000000    0.8981200000000000 C
   0.5017100000000000    0.6892900000000000    0.5852400000000000 C
   0.7135400000000000    0.6703200000000000    0.5961650000000001 C
   0.3882900000000000    0.6989400000000000    0.5781150000000000 C
   0.8301200000000000    0.6577900000000000    0.6016650000000000 C
   0.4396300000000000    0.8107400000000000    0.8361650000000000 C
   0.6347500000000000    0.8288700000000000    0.8456699999999999 C
   0.3341300000000000    0.8019200000000000    0.8300100000000000 C
   0.7397600000000000    0.8411300000000000    0.8505350000000000 C
   0.9211900000000000    0.1909300000000000    0.6648450000000000 C
   0.1567000000000000    0.1677600000000000    0.6533650000000000 C
   0.7927600000000000    0.2024700000000000    0.6721000000000000 C
   0.2855700000000000    0.1526200000000000    0.6473050000000000 C
   0.5018400000000000    0.1693600000000000    0.8452649999999999 C
   0.7136400000000001    0.1920300000000000    0.8350600000000000 C
   0.3884000000000000    0.1546100000000000    0.8505499999999999 C
   0.8302600000000000    0.2033000000000000    0.8284899999999999 C
   0.3625800000000000    0.8275700000000000    0.6545900000000000 C
   0.5742699999999999    0.8081400000000000    0.6657500000000001 C
   0.2460600000000000    0.8399900000000000    0.6490800000000000 C
   0.6876000000000000    0.7977400000000000    0.6732100000000000 C
   0.9788900000000000    0.2545200000000000    0.6274100000000000 C
   0.0986000000000000    0.2432800000000000    0.6218300000000000 C
   0.7686200000000000    0.2452700000000000    0.6222300000000001 C
   0.3094200000000000    0.2521100000000000    0.6267500000000000 C
   0.4871400000000000    0.7460900000000000    0.8732000000000000 C
   0.5873800000000000    0.7547700000000001    0.8777699999999999 C
   0.2532300000000000    0.7608600000000000    0.8804650000000001 C
   0.8207400000000000    0.7406800000000000    0.8709800000000000 C
   0.4840000000000000    0.2450000000000000    0.8769750000000001 C
   0.5921900000000000    0.2559900000000000    0.8720450000000000 C
   0.2660600000000000    0.2546500000000000    0.8702750000000000 C
   0.8102400000000000    0.2471800000000000    0.8784000000000001 C
   0.4839400000000000    0.7534500000000000    0.6227750000000000 C
   0.5921200000000000    0.7441700000000000    0.6281250000000000 C
   0.2656800000000000    0.7396000000000000    0.6282700000000000 C
   0.8103100000000000    0.7576600000000000    0.6230350000000000 C
   0.0379000000000000    0.5867900000000000    0.4565150000000000 Br
   0.5389900000000000    0.4116600000000000    0.0431550000000000 Br
   0.2011200000000000    0.5844200000000001    0.0445500000000000 Br
   0.8754600000000000    0.4122100000000000    0.4566350000000000 Br
   0.5391899999999999    0.0857900000000000    0.2060500000000000 Br
   0.0371200000000000    0.9137300000000000    0.2941000000000000 Br
   0.8754000000000000    0.9132400000000001    0.2060700000000000 Br
   0.2009400000000000    0.0884500000000000    0.2927000000000000 Br
   0.0379000000000000    0.5867900000000000    0.9565150000000000 Br
   0.5389900000000000    0.4116600000000000    0.5431550000000001 Br
   0.2011200000000000    0.5844200000000001    0.5445500000000000 Br
   0.8754600000000000    0.4122100000000000    0.9566350000000000 Br
   0.5391899999999999    0.0857900000000000    0.7060500000000001 Br
   0.0371200000000000    0.9137300000000000    0.7941000000000000 Br
   0.8754000000000000    0.9132400000000001    0.7060700000000000 Br
   0.2009400000000000    0.0884500000000000    0.7927000000000000 Br
   0.0980400000000000    0.3766100000000000    0.0551750000000000 N
   0.9786800000000000    0.3888700000000000    0.0613000000000000 N
   0.4576000000000000    0.3902300000000000    0.4382200000000000 N
   0.3507500000000000    0.3782600000000000    0.4436400000000000 N
   0.7253700000000000    0.6108800000000000    0.0614750000000000 N
   0.6184700000000000    0.6208900000000001    0.0557700000000000 N
   0.0985200000000000    0.1092700000000000    0.1881350000000000 N
   0.9792400000000000    0.1214800000000000    0.1941850000000000 N
   0.7255200000000001    0.1222000000000000    0.3056400000000000 N
   0.6186199999999999    0.1103700000000000    0.3110150000000000 N
   0.4576000000000000    0.8769800000000000    0.1950000000000000 N
   0.3507600000000000    0.8872500000000000    0.1891650000000000 N
   0.0980400000000000    0.3766100000000000    0.5551750000000000 N
   0.9786800000000000    0.3888700000000000    0.5613000000000000 N
   0.5866000000000000    0.6214900000000000    0.9444500000000000 N
   0.4885800000000000    0.6119000000000000    0.9394000000000000 N
   0.4576000000000000    0.3902300000000000    0.9382200000000001 N
   0.3507500000000000    0.3782600000000000    0.9436400000000000 N
   0.7253700000000000    0.6108800000000000    0.5614749999999999 N
   0.6184700000000000    0.6208900000000001    0.5557700000000000 N
   0.5864900000000000    0.8884600000000000    0.8112500000000000 N
   0.4882900000000000    0.8790100000000000    0.8063450000000000 N
   0.0985200000000000    0.1092700000000000    0.6881349999999999 N
   0.9792400000000000    0.1214800000000000    0.6941850000000001 N
   0.7255200000000001    0.1222000000000000    0.8056400000000000 N
   0.6186199999999999    0.1103700000000000    0.8110150000000000 N
   0.4576000000000000    0.8769800000000000    0.6950000000000001 N
   0.3507600000000000    0.8872500000000000    0.6891650000000000 N
