Cd10 H28 C26 N39 O2
1.0
  11.6041556812252260    0.0000000000000000    6.7010126791320381
   3.8666251732025012   10.9396921174944879    6.7051582490188615
   0.0000000000000000    0.0000000000000000   26.8019999999999996
Cd H C N O
10 28 26 39 2
direct
   0.9999800000000000    0.5000000000000000    0.8000000000000000 Cd
   0.9999900000000000    0.5000000000000000    0.7500000000000000 Cd
   0.4999700000000000    0.5000000000000000    0.7500000000000000 Cd
   0.8749800000000000    0.3750800000000000    0.6875350000000000 Cd
   0.1249700000000000    0.6249300000000000    0.8124600000000000 Cd
   0.9999800000000000    0.5000000000000000    0.3000000000000000 Cd
   0.9999900000000000    0.5000000000000000    0.2500000000000000 Cd
   0.4999700000000000    0.5000000000000000    0.2500000000000000 Cd
   0.8749800000000000    0.3750800000000000    0.1875350000000000 Cd
   0.1249700000000000    0.6249300000000000    0.3124600000000000 Cd
   0.8463300000000000    0.3466700000000000    0.0000000000000000 H
   0.8462700000000000    0.3464300000000000    0.8993350000000000 H
   0.7017500000000000    0.6532800000000000    0.4956400000000000 H
   0.4913400000000000    0.6534000000000000    0.6005000000000000 H
   0.4912300000000000    0.6534300000000000    0.8267100000000001 H
   0.7014700000000000    0.6535400000000000    0.8267599999999999 H
   0.2984800000000000    0.3464600000000000    0.6732350000000000 H
   0.5087200000000000    0.3465700000000000    0.6732850000000000 H
   0.5982873367055173    0.2185312514672230    0.7957781494141070 H
   0.7784919941886911    0.1590500808067892    0.7656273644093369 H
   0.2982000000000000    0.3467200000000000    0.0000000000000000 H
   0.5086100000000000    0.3466000000000000    0.8992000000000000 H
   0.2981900000000000    0.0000000000000000    0.6733550000000000 H
   0.5086000000000001    0.7984100000000000    0.6732950000000000 H
   0.8463300000000000    0.3466700000000000    0.5000000000000000 H
   0.8462700000000000    0.3464300000000000    0.3993350000000000 H
   0.7017500000000000    0.6532800000000000    0.9956400000000001 H
   0.4913400000000000    0.6534000000000000    0.1005000000000000 H
   0.4912300000000000    0.6534300000000000    0.3267100000000000 H
   0.7014700000000000    0.6535400000000000    0.3267600000000000 H
   0.2984800000000000    0.3464600000000000    0.1732350000000000 H
   0.5087200000000000    0.3465700000000000    0.1732850000000000 H
   0.7017600000000001    0.9912900000000000    0.3266400000000000 H
   0.4913500000000000    0.2015900000000000    0.3267000000000000 H
   0.2982000000000000    0.3467200000000000    0.5000000000000000 H
   0.5086100000000000    0.3466000000000000    0.3992000000000000 H
   0.2981900000000000    0.0000000000000000    0.1733550000000000 H
   0.5086000000000001    0.7984100000000000    0.1732950000000000 H
   0.8893000000000000    0.3895000000000000    0.9561999999999999 C
   0.8892700000000000    0.3894000000000000    0.9045250000000000 C
   0.6911900000000000    0.6104500000000000    0.5438450000000000 C
   0.5877200000000000    0.6105200000000000    0.5955600000000000 C
   0.5876400000000001    0.6105300000000000    0.8052650000000000 C
   0.6910400000000000    0.6105800000000000    0.8052850000000000 C
   0.3089200000000000    0.3894200000000000    0.6947099999999999 C
   0.4123100000000000    0.3894700000000000    0.6947300000000000 C
   0.3087600000000000    0.3895500000000000    0.9561500000000001 C
   0.4122300000000000    0.3894800000000000    0.9044000000000000 C
   0.3087600000000000    0.9123100000000000    0.6947700000000000 C
   0.4122200000000000    0.8088800000000000    0.6947400000000000 C
   0.8893000000000000    0.3895000000000000    0.4562000000000000 C
   0.8892700000000000    0.3894000000000000    0.4045250000000000 C
   0.6911900000000000    0.6104500000000000    0.0438450000000000 C
   0.5877200000000000    0.6105200000000000    0.0955600000000000 C
   0.5876400000000001    0.6105300000000000    0.3052650000000000 C
   0.6910400000000000    0.6105800000000000    0.3052850000000000 C
   0.3089200000000000    0.3894200000000000    0.1947100000000000 C
   0.4123100000000000    0.3894700000000000    0.1947300000000000 C
   0.6911900000000000    0.0877000000000000    0.3052250000000000 C
   0.5877300000000000    0.1911200000000000    0.3052550000000000 C
   0.3087600000000000    0.3895500000000000    0.4561500000000000 C
   0.4122300000000000    0.3894800000000000    0.4044000000000000 C
   0.3087600000000000    0.9123100000000000    0.1947700000000000 C
   0.4122200000000000    0.8088800000000000    0.1947400000000000 C
   0.9575800000000000    0.4575900000000000    0.8552100000000000 N
   0.9984000000000000    0.4983700000000000    0.8757500000000000 N
   0.9576200000000000    0.4577500000000000    0.9371450000000000 N
   0.7896800000000000    0.5422900000000000    0.5628750000000000 N
   0.7484300000000000    0.5016500000000000    0.6242449999999999 N
   0.6256900000000000    0.5423600000000000    0.6448350000000000 N
   0.7896000000000000    0.5423500000000000    0.7711650000000000 N
   0.7484400000000000    0.5015600000000000    0.7507850000000000 N
   0.6257100000000000    0.5422800000000000    0.7711300000000000 N
   0.2103500000000000    0.4576600000000000    0.7288300000000000 N
   0.2515100000000000    0.4984500000000000    0.7492099999999999 N
   0.3742400000000000    0.4577200000000000    0.7288650000000000 N
   0.2102700000000000    0.4577100000000000    0.9371000000000000 N
   0.2515300000000000    0.4983500000000000    0.8757500000000000 N
   0.3742600000000000    0.4576500000000000    0.8551599999999999 N
   0.2102700000000000    0.8742500000000000    0.7288550000000000 N
   0.2515300000000000    0.7515100000000000    0.7491800000000000 N
   0.3742600000000000    0.7103200000000000    0.7288150000000000 N
   0.9575800000000000    0.4575900000000000    0.3552100000000000 N
   0.9984000000000000    0.4983700000000000    0.3757500000000000 N
   0.9576200000000000    0.4577500000000000    0.4371450000000000 N
   0.7896800000000000    0.5422900000000000    0.0628750000000000 N
   0.7484300000000000    0.5016500000000000    0.1242450000000000 N
   0.6256900000000000    0.5423600000000000    0.1448350000000000 N
   0.7896000000000000    0.5423500000000000    0.2711650000000000 N
   0.7484400000000000    0.5015600000000000    0.2507850000000000 N
   0.6257100000000000    0.5422800000000000    0.2711300000000000 N
   0.2103500000000000    0.4576600000000000    0.2288300000000000 N
   0.2515100000000000    0.4984500000000000    0.2492100000000000 N
   0.3742400000000000    0.4577200000000000    0.2288650000000000 N
   0.7896800000000000    0.1257600000000000    0.2711400000000000 N
   0.7484300000000000    0.2485000000000000    0.2508150000000000 N
   0.6256900000000000    0.2896800000000000    0.2711800000000000 N
   0.2102700000000000    0.4577100000000000    0.4371000000000000 N
   0.2515300000000000    0.4983500000000000    0.3757500000000000 N
   0.3742600000000000    0.4576500000000000    0.3551600000000000 N
   0.2102700000000000    0.8742500000000000    0.2288550000000000 N
   0.2515300000000000    0.7515100000000000    0.2491800000000000 N
   0.3742600000000000    0.7103200000000000    0.2288150000000000 N
   0.6256900000000000    0.2896800000000000    0.7711800000000000 O
   0.7484300000000000    0.2485000000000000    0.7508150000000000 O
