H2 C2 N3
1.0
  11.6041556812252260    0.0000000000000000    6.7010126791320381
   3.8666251732025012   10.9396921174944879    6.7051582490188615
   0.0000000000000000    0.0000000000000000   26.8019999999999996
H C N
2 2 3
direct
   0.7017600000000001    0.9912900000000000    0.8266400000000000 H
   0.4913500000000000    0.2015900000000000    0.8267000000000000 H
   0.6911900000000000    0.0877000000000000    0.8052250000000001 C
   0.5877300000000000    0.1911200000000000    0.8052550000000001 C
   0.7896800000000000    0.1257600000000000    0.7711399999999999 N
   0.6256900000000000    0.2896800000000000    0.7711800000000000 N
   0.7484300000000000    0.2485000000000000    0.7508150000000000 N
