H2 O2
1.0
  11.6041556812252260    0.0000000000000000    6.7010126791320381
   3.8666251732025012   10.9396921174944879    6.7051582490188615
   0.0000000000000000    0.0000000000000000   26.8019999999999996
H O
2 2
direct
   0.5982873367055173    0.2185312514672230    0.7957781494141070 H
   0.7784919941886911    0.1590500808067892    0.7656273644093369 H
   0.6256900000000000    0.2896800000000000    0.7711800000000000 O
   0.7484300000000000    0.2485000000000000    0.7508150000000000 O
