H10 C12 N2
1.0
  16.0958741106343481    0.0000000000000000    1.5569449619722904
   1.4253685523167254   16.0484714759291229    1.5496721512487253
   0.0000000000000000    0.0000000000000000   26.8230000000000004
H C N
10 12 2
direct
   0.9843900000000000    0.5857800000000000    0.4913400000000000 H
   0.8320400000000000    0.5900700000000000    0.4855500000000000 H
   0.8050100000000000    0.8113800000000000    0.5669200000000000 H
   0.9593699999999999    0.7960300000000000    0.5698700000000000 H
   0.6815400000000000    0.7639899999999999    0.5409500000000000 H
   0.7025000000000000    0.6019700000000000    0.4871000000000000 H
   0.5512500000000000    0.7785500000000000    0.5402500000000000 H
   0.3980100000000000    0.7782600000000000    0.5372400000000001 H
   0.4247800000000000    0.5644800000000000    0.4623700000000000 H
   0.5808700000000000    0.5530000000000000    0.4632900000000000 H
   0.9416500000000000    0.6339500000000000    0.5078500000000000 C
   0.8565900000000000    0.6373900000000000    0.5046700000000000 C
   0.8041500000000000    0.7016900000000000    0.5259100000000000 C
   0.8421900000000000    0.7599900000000001    0.5497600000000000 C
   0.9279900000000000    0.7522000000000000    0.5516000000000000 C
   0.7141600000000000    0.7097900000000000    0.5240200000000000 C
   0.6702300000000000    0.6565600000000000    0.5037300000000000 C
   0.5801300000000000    0.6644600000000001    0.5022900000000000 C
   0.5267900000000000    0.7292000000000000    0.5227000000000001 C
   0.4414700000000000    0.7301900000000000    0.5211000000000000 C
   0.4562400000000000    0.6098300000000000    0.4794000000000000 C
   0.5423700000000000    0.6042800000000000    0.4798000000000000 C
   0.4060700000000000    0.6710900000000000    0.5002000000000000 N
   0.9772999999999999    0.6900700000000000    0.5310100000000000 N
