H2 O2
1.0
  16.0958741106343481    0.0000000000000000    1.5569449619722904
   1.4253685523167254   16.0484714759291229    1.5496721512487253
   0.0000000000000000    0.0000000000000000   26.8230000000000004
H O
2 2
direct
   0.4425054881031401    0.6266005042615436    0.4850941966803805 H
   0.9514541392236368    0.6493836127133379    0.5142192528588900 H
   0.4060700000000000    0.6710900000000000    0.5002000000000000 O
   0.9772999999999999    0.6900700000000000    0.5310100000000000 O
