H12 O8
1.0
  16.0958741106343481    0.0000000000000000    1.5569449619722904
   1.4253685523167254   16.0484714759291229    1.5496721512487253
   0.0000000000000000    0.0000000000000000   26.8230000000000004
H O
12 8
direct
   0.9242341898749092    0.4418513478830298    0.4138323555276540 H
   0.6744338031750492    0.4698793296905806    0.4403409861729650 H
   0.7978847613608775    0.4626894237808583    0.4244420232033838 H
   0.6831516022155318    0.2528382779004958    0.4249734666870671 H
   0.9299238417814467    0.2283252068864826    0.3902433560174690 H
   0.8098409426392336    0.2358775502424906    0.4030967262634774 H
   0.1763227045955179    0.9442103458399298    1.0155547615952767 H
   0.1956045157949826    0.6997850060291142    1.0554880470923416 H
   0.1783739296223165    0.8214349955484911    1.0388101429272802 H
   0.3951500511799035    0.9336558678350618    1.0424758892659876 H
   0.4184862010933336    0.6846903201355803    1.0655626227020378 H
   0.4115615175899391    0.8067303388133469    1.0580348994502167 H
   0.8707300000000000    0.4253600000000000    0.4289600000000000 O
   0.7295600000000000    0.4416300000000000    0.4437600000000000 O
   0.7397700000000000    0.2619800000000000    0.4306600000000000 O
   0.8794700000000000    0.2471200000000000    0.4100900000000000 O
   0.2049600000000000    0.8888300000000000    1.0144400000000000 O
   0.2153700000000000    0.7498899999999999    1.0373700000000001 O
   0.3850900000000000    0.8783200000000000    1.0348100000000000 O
   0.3989700000000000    0.7374700000000000    1.0484400000000000 O
