H24 C33 O12
1.0
  16.0958741106343481    0.0000000000000000    1.5569449619722904
   1.4253685523167254   16.0484714759291229    1.5496721512487253
   0.0000000000000000    0.0000000000000000   26.8230000000000004
H C O
24 33 12
direct
   0.6669300000000000    0.5618000000000000    0.3860700000000000 H
   0.6694200000000000    0.6955800000000000    0.3329900000000000 H
   0.9369800000000000    0.6816600000000000    0.3351100000000000 H
   0.9325500000000000    0.5459500000000000    0.3877400000000000 H
   0.6972100000000000    0.8384900000000000    0.2993600000000000 H
   0.7142400000000000    0.7563400000000000    0.2581700000000000 H
   0.6490899999999999    0.9269800000000000    0.2215200000000000 H
   0.7209600000000000    0.9405100000000000    0.1668000000000000 H
   0.6208100000000000    0.6913300000000000    0.1596000000000000 H
   0.5043900000000000    0.6824800000000000    0.1056500000000000 H
   0.4688800000000000    0.9487300000000000    0.0872300000000000 H
   0.5831700000000000    0.9598600000000000    0.1409000000000000 H
   0.8566800000000000    0.9161600000000000    0.2767400000000000 H
   0.8378500000000000    0.9818700000000000    0.2205200000000000 H
   0.6323700000000000    0.0840100000000000    0.3228400000000000 H
   0.6573300000000000    0.1924800000000000    0.3789300000000000 H
   0.9210700000000001    0.1365000000000000    0.3508900000000000 H
   0.8982000000000000    0.0291200000000000    0.2950400000000000 H
   0.8996200000000000    0.8045000000000000    0.2208000000000000 H
   0.8255400000000001    0.7679800000000000    0.1845200000000000 H
   0.9691100000000000    0.7325700000000001    0.1580000000000000 H
   0.1022700000000000    0.7103200000000000    0.1045200000000000 H
   0.0725900000000000    0.9623699999999999    0.0390600000000000 H
   0.9375900000000000    0.9860700000000000    0.0914800000000000 H
   0.7990200000000000    0.4643600000000000    0.4233900000000000 C
   0.7995000000000000    0.5450300000000000    0.3907300000000000 C
   0.7260500000000000    0.5882200000000000    0.3749000000000000 C
   0.7275600000000000    0.6634800000000000    0.3447400000000000 C
   0.8040600000000000    0.6967900000000000    0.3302000000000000 C
   0.8780900000000000    0.6547500000000001    0.3460000000000000 C
   0.8753900000000000    0.5796700000000000    0.3757800000000000 C
   0.7436100000000000    0.8055200000000000    0.2736000000000000 C
   0.7748500000000000    0.8676400000000000    0.2304800000000000 C
   0.7012900000000000    0.8964500000000000    0.1986000000000000 C
   0.6094800000000000    0.8253700000000000    0.1534400000000000 C
   0.5863699999999999    0.7473700000000000    0.1437400000000000 C
   0.5219200000000001    0.7426700000000001    0.1138900000000000 C
   0.4793100000000000    0.8154400000000001    0.0928400000000000 C
   0.5017100000000000    0.8925900000000000    0.1039800000000000 C
   0.5659500000000000    0.8987400000000000    0.1342500000000000 C
   0.4158800000000000    0.8104400000000000    0.0564300000000000 C
   0.8090300000000000    0.9413700000000000    0.2512800000000000 C
   0.7630600000000000    0.0485600000000000    0.3062700000000000 C
   0.6954000000000000    0.0958300000000000    0.3295700000000000 C
   0.7095200000000000    0.1557900000000000    0.3606200000000000 C
   0.7909900000000000    0.1706500000000000    0.3692000000000000 C
   0.8578500000000000    0.1247100000000000    0.3446500000000000 C
   0.8447900000000000    0.0640600000000000    0.3132900000000000 C
   0.8050600000000000    0.2313200000000000    0.4056100000000000 C
   0.8467500000000000    0.8237000000000000    0.1981900000000000 C
   0.9451900000000000    0.8614100000000000    0.1283300000000000 C
   0.9908700000000000    0.7832200000000000    0.1319400000000000 C
   0.0657900000000000    0.7705700000000000    0.1019200000000000 C
   0.0962200000000000    0.8347800000000000    0.0686300000000000 C
   0.0488800000000000    0.9123700000000000    0.0649500000000000 C
   0.9739500000000000    0.9257200000000000    0.0940000000000000 C
   0.1783200000000000    0.8229100000000000    0.0379000000000000 C
   0.7295600000000000    0.4416300000000000    0.4437600000000000 O
   0.8707300000000000    0.4253600000000000    0.4289600000000000 O
   0.8132900000000000    0.7693500000000000    0.3001400000000000 O
   0.6766900000000000    0.8219600000000000    0.1810900000000000 O
   0.3989700000000000    0.7374700000000000    1.0484400000000000 O
   0.3850900000000000    0.8783200000000000    1.0348100000000000 O
   0.7423700000000000    0.9884200000000000    0.2780700000000000 O
   0.8794700000000000    0.2471200000000000    0.4100900000000000 O
   0.7397700000000000    0.2619800000000000    0.4306600000000000 O
   0.8716200000000000    0.8813500000000000    0.1565500000000000 O
   0.2153700000000000    0.7498899999999999    1.0373700000000001 O
   0.2049600000000000    0.8888300000000000    1.0144400000000000 O
