H6 O4
1.0
  14.7209883767658187    0.0000000000000000    0.0184989493126706
  -3.2363343596795371   20.2186226815964751    0.0035737361582409
   0.0000000000000000    0.0000000000000000   13.1419999999999995
H O
6 4
direct
   0.4077728239882716    0.4840801726211212    0.4004022128773014 H
   0.2311157249280909    0.3650485326591877    0.5038811808831108 H
   0.3380351231116098    0.4042653896285122    0.4393258246570063 H
   0.0922171760117284    0.5159398273788787    0.5995877871226986 H
   0.2688742750719091    0.6349714673408122    0.4961088191168891 H
   0.1619548768883903    0.5957546103714877    0.5606641753429937 H
   0.3514500000000000    0.4890100000000000    0.4359100000000000 O
   0.2387000000000000    0.4129600000000000    0.5019500000000000 O
   0.1485400000000000    0.5110100000000000    0.5640800000000000 O
   0.2612900000000000    0.5870600000000000    0.4980400000000000 O
