C2 O4
1.0
  14.7209883767658187    0.0000000000000000    0.0184989493126706
  -3.2363343596795371   20.2186226815964751    0.0035737361582409
   0.0000000000000000    0.0000000000000000   13.1419999999999995
C O
2 4
direct
   0.2765500000000000    0.4723000000000000    0.4818100000000000 C
   0.2234400000000000    0.5277200000000000    0.5181800000000000 C
   0.3514500000000000    0.4890100000000000    0.4359100000000000 O
   0.2387000000000000    0.4129600000000000    0.5019500000000000 O
   0.1485400000000000    0.5110100000000000    0.5640800000000000 O
   0.2612900000000000    0.5870600000000000    0.4980400000000000 O
