La16 P16 H54 C46 O128
1.0
  14.7209883767658187    0.0000000000000000    0.0184989493126706
  -3.2363343596795371   20.2186226815964751    0.0035737361582409
   0.0000000000000000    0.0000000000000000   13.1419999999999995
La P H C O
16 16 54 46 128
direct
   0.0768800000000000    0.3888200000000000    0.5821100000000000 La
   0.4231100000000000    0.6112000000000000    0.4178800000000000 La
   0.0768800000000000    0.8888300000000000    0.5821100000000000 La
   0.4231100000000000    0.1111900000000000    0.4178000000000000 La
   0.0766800000000000    0.6388600000000000    0.9178200000000000 La
   0.0766800000000000    0.1388500000000000    0.9178200000000000 La
   0.4233100000000000    0.3611600000000000    0.0821700000000000 La
   0.4233100000000000    0.8611700000000000    0.0821700000000000 La
   0.5768600000000000    0.3888200000000000    0.5821100000000000 La
   0.9231000000000000    0.1111900000000000    0.4178000000000000 La
   0.9231000000000000    0.6112000000000000    0.4178000000000000 La
   0.5768700000000000    0.8888400000000000    0.5821100000000000 La
   0.5766700000000000    0.1388500000000000    0.9178200000000000 La
   0.9232900000000001    0.3611600000000000    0.0821700000000000 La
   0.5766700000000000    0.6388600000000000    0.9178200000000000 La
   0.9233000000000000    0.8611700000000000    0.0821700000000000 La
   0.1063800000000000    0.7091900000000000    0.5652900000000000 P
   0.3936100000000000    0.2908300000000000    0.4347000000000000 P
   0.3936200000000000    0.7908400000000000    0.4347000000000000 P
   0.1063700000000000    0.2091800000000000    0.5652900000000000 P
   0.3936700000000000    0.5407999999999999    0.0665100000000000 P
   0.1063200000000000    0.9592400000000000    0.9334800000000000 P
   0.3936700000000000    0.0407800000000000    0.0665100000000000 P
   0.1063200000000000    0.4592300000000000    0.9334800000000000 P
   0.6063600000000000    0.2091800000000000    0.5652900000000000 P
   0.8935999999999999    0.7908400000000000    0.4347000000000000 P
   0.8935999999999999    0.2908300000000000    0.4347000000000000 P
   0.6063600000000000    0.7091900000000000    0.5652900000000000 P
   0.8936600000000000    0.5407999999999999    0.0665100000000000 P
   0.6063100000000000    0.9592400000000000    0.9334800000000000 P
   0.8936600000000000    0.0407800000000000    0.0665100000000000 P
   0.6063000000000000    0.4592300000000000    0.9334800000000000 P
   0.0922171760117284    0.5159398273788787    0.5995877871226986 H
   0.2688742750719091    0.6349714673408122    0.4961088191168891 H
   0.2140700000000000    0.6445100000000000    0.5564500000000000 H
   0.1619548768883903    0.5957546103714877    0.5606641753429937 H
   0.4077728239882716    0.4840801726211212    0.4004022128773014 H
   0.2311157249280909    0.3650485326591877    0.5038811808831108 H
   0.2859200000000000    0.3555100000000000    0.4435400000000000 H
   0.3380351231116098    0.4042653896285122    0.4393258246570063 H
   0.2859200000000000    0.8555199999999999    0.4435400000000000 H
   0.2140700000000000    0.1445000000000000    0.5564500000000000 H
   0.0402600000000000    0.2571300000000000    0.7661900000000000 H
   0.9558400000000000    0.2027700000000000    0.6421300000000000 H
   0.0400900000000000    0.5071400000000000    0.7331700000000000 H
   0.9555500000000000    0.4526000000000000    0.8574700000000000 H
   0.0402700000000000    0.7571400000000000    0.7661900000000000 H
   0.9558400000000000    0.7027800000000000    0.6421300000000000 H
   0.0401000000000000    0.0000000000000000    0.7331700000000000 H
   0.9555600000000000    0.9526100000000000    0.8574700000000000 H
   0.2859600000000000    0.6054700000000000    0.0581500000000000 H
   0.2140300000000000    0.8945600000000000    0.9418400000000000 H
   0.4597200000000000    0.2428800000000000    0.2338000000000000 H
   0.5441200000000000    0.2972400000000000    0.3578500000000000 H
   0.4599000000000000    0.4928800000000000    0.2668000000000000 H
   0.5444099999999999    0.5474200000000000    0.1425200000000000 H
   0.4597300000000000    0.7429000000000000    0.2338000000000000 H
   0.5441200000000000    0.7972600000000000    0.3578500000000000 H
   0.4598900000000000    0.9928700000000000    0.2668000000000000 H
   0.5444099999999999    0.0474100000000000    0.1425200000000000 H
   0.2859600000000000    0.1054600000000000    0.0581500000000000 H
   0.2140300000000000    0.3945500000000000    0.9418400000000000 H
   0.7140500000000000    0.1445000000000000    0.5564500000000000 H
   0.7859100000000000    0.8555199999999999    0.4435400000000000 H
   0.7859100000000000    0.3555100000000000    0.4435400000000000 H
   0.7140600000000000    0.6445100000000000    0.5564500000000000 H
   0.9597100000000000    0.2428800000000000    0.2338000000000000 H
   0.0441300000000000    0.2972400000000000    0.3578000000000000 H
   0.9598800000000000    0.4928800000000000    0.2668000000000000 H
   0.0444300000000000    0.5474200000000000    0.1425200000000000 H
   0.9597100000000000    0.7429000000000000    0.2338000000000000 H
   0.0441400000000000    0.7972600000000000    0.3578000000000000 H
   0.9598800000000000    0.9928700000000000    0.2668000000000000 H
   0.0444200000000000    0.0474100000000000    0.1425200000000000 H
   0.7859500000000000    0.6054700000000000    0.0581500000000000 H
   0.7140200000000000    0.8945600000000000    0.9418400000000000 H
   0.5402500000000000    0.2571300000000000    0.7661900000000000 H
   0.4558500000000000    0.2027700000000000    0.6421300000000000 H
   0.5400800000000000    0.5071400000000000    0.7331700000000000 H
   0.4555600000000000    0.4526000000000000    0.8574700000000000 H
   0.5402600000000000    0.7571400000000000    0.7661900000000000 H
   0.4558600000000000    0.7027800000000000    0.6421300000000000 H
   0.5400800000000000    0.0000000000000000    0.7331700000000000 H
   0.4555700000000000    0.9526100000000000    0.8574700000000000 H
   0.7859400000000000    0.1054600000000000    0.0581500000000000 H
   0.7140200000000000    0.3945500000000000    0.9418400000000000 H
   0.2234300000000000    0.0277100000000000    0.5181800000000000 C
   0.2765600000000000    0.9723100000000000    0.4818100000000000 C
   0.9980000000000000    0.1083700000000000    0.6694500000000000 C
   0.0182100000000000    0.1831600000000000    0.6660300000000000 C
   0.9980700000000000    0.3583000000000000    0.8301900000000000 C
   0.0179900000000000    0.4331100000000000    0.8333500000000000 C
   0.9980000000000000    0.6083800000000000    0.6694500000000000 C
   0.0182100000000000    0.6831700000000001    0.6660300000000000 C
   0.9980800000000000    0.8583100000000000    0.8301900000000000 C
   0.0180000000000000    0.9331199999999999    0.8333500000000000 C
   0.2234900000000000    0.7777300000000000    0.9817000000000000 C
   0.2765000000000000    0.7223100000000000    0.0182600000000000 C
   0.5019900000000000    0.3916400000000000    0.3305400000000000 C
   0.4817800000000000    0.3168500000000000    0.3339600000000000 C
   0.5019100000000000    0.6417300000000000    0.1698000000000000 C
   0.4820000000000000    0.5669100000000000    0.1666400000000000 C
   0.5020000000000000    0.8916500000000001    0.3305400000000000 C
   0.4817800000000000    0.8168700000000000    0.3339600000000000 C
   0.5019100000000000    0.1417100000000000    0.1698000000000000 C
   0.4819900000000000    0.0669000000000000    0.1666400000000000 C
   0.2234900000000000    0.2777200000000000    0.9817000000000000 C
   0.2765000000000000    0.2222900000000000    0.0182600000000000 C
   0.7765500000000000    0.9723100000000000    0.4818100000000000 C
   0.7234200000000000    0.0277100000000000    0.5181800000000000 C
   0.7765400000000000    0.4723000000000000    0.4818100000000000 C
   0.7234200000000000    0.5277200000000000    0.5181800000000000 C
   0.0000000000000000    0.3916400000000000    0.3305400000000000 C
   0.9817600000000000    0.3168500000000000    0.3339600000000000 C
   0.0000000000000000    0.6417300000000000    0.1698000000000000 C
   0.9819800000000000    0.5669100000000000    0.1666400000000000 C
   0.0000000000000000    0.8916500000000001    0.3305400000000000 C
   0.9817700000000000    0.8168700000000000    0.3339600000000000 C
   0.0000000000000000    0.1417100000000000    0.1698000000000000 C
   0.9819800000000000    0.0669000000000000    0.1666400000000000 C
   0.7234800000000000    0.7777300000000000    0.9817000000000000 C
   0.7764900000000000    0.7223100000000000    0.0182600000000000 C
   0.4979800000000000    0.1083700000000000    0.6694500000000000 C
   0.5181900000000000    0.1831600000000000    0.6660300000000000 C
   0.4980600000000000    0.3583000000000000    0.8301900000000000 C
   0.5179800000000000    0.4331100000000000    0.8333500000000000 C
   0.4979900000000000    0.6083900000000000    0.6694500000000000 C
   0.5182000000000000    0.6831700000000001    0.6660300000000000 C
   0.4980700000000000    0.8583100000000000    0.8301900000000000 C
   0.5179900000000000    0.9331199999999999    0.8333500000000000 C
   0.7234699999999999    0.2777200000000000    0.9817000000000000 C
   0.7764900000000000    0.2222900000000000    0.0182600000000000 C
   0.1485400000000000    0.5110100000000000    0.5640800000000000 O
   0.2612900000000000    0.5870600000000000    0.4980400000000000 O
   0.1950300000000000    0.6809800000000000    0.6000799999999999 O
   0.1257900000000000    0.7843800000000000    0.5685500000000000 O
   0.0662200000000000    0.6776000000000000    0.4667100000000000 O
   0.3514500000000000    0.4890100000000000    0.4359100000000000 O
   0.2387000000000000    0.4129600000000000    0.5019500000000000 O
   0.3049600000000000    0.3190400000000000    0.3999100000000000 O
   0.3742000000000000    0.2156400000000000    0.4314400000000000 O
   0.4337700000000000    0.3224300000000000    0.5332800000000000 O
   0.3049600000000000    0.8190600000000000    0.3999100000000000 O
   0.3742000000000000    0.7156500000000000    0.4314400000000000 O
   0.4337700000000000    0.8224399999999999    0.5332800000000000 O
   0.1485300000000000    0.0110000000000000    0.5640800000000000 O
   0.2612800000000000    0.0870500000000000    0.4980400000000000 O
   0.3514600000000000    0.9890200000000000    0.4359100000000000 O
   0.2387100000000000    0.9129699999999999    0.5019500000000000 O
   0.1950300000000000    0.1809700000000000    0.6000799999999999 O
   0.1257900000000000    0.2843700000000000    0.5685500000000000 O
   0.0662200000000000    0.1775800000000000    0.4667100000000000 O
   0.9573199999999999    0.0774900000000000    0.5951800000000000 O
   0.0270500000000000    0.0808000000000000    0.7480000000000000 O
   0.0469900000000000    0.2081400000000000    0.7643200000000000 O
   0.9578300000000000    0.3274000000000000    0.9048000000000000 O
   0.0270600000000000    0.3307600000000000    0.7514600000000000 O
   0.0466800000000000    0.4581200000000000    0.7350000000000000 O
   0.9573300000000000    0.5775000000000000    0.5951800000000000 O
   0.0270500000000000    0.5808100000000000    0.7480000000000000 O
   0.0469900000000000    0.7081499999999999    0.7643200000000000 O
   0.9578400000000000    0.8274200000000000    0.9048000000000000 O
   0.0270700000000000    0.8307700000000000    0.7514600000000000 O
   0.0466800000000000    0.9581300000000000    0.7350000000000000 O
   0.3051100000000000    0.5690900000000000    0.1018100000000000 O
   0.3741200000000000    0.4656000000000000    0.0699900000000000 O
   0.4337800000000000    0.5723900000000000    0.9677900000000000 O
   0.1481400000000000    0.7608900000000000    0.9369700000000000 O
   0.2617300000000000    0.8371400000000000    0.0000000000000000 O
   0.3518500000000000    0.7391500000000000    0.0630200000000000 O
   0.2382600000000000    0.6629000000000000    0.9994700000000000 O
   0.1948800000000000    0.9309400000000000    0.8981800000000000 O
   0.1258700000000000    0.0344100000000000    0.9299900000000000 O
   0.0662100000000000    0.9276400000000000    0.0322000000000000 O
   0.5426400000000000    0.4225200000000000    0.4048100000000000 O
   0.4729400000000000    0.4192100000000000    0.2519000000000000 O
   0.4529900000000000    0.2918700000000000    0.2356700000000000 O
   0.5421300000000000    0.6726200000000000    0.0951800000000000 O
   0.4729300000000000    0.6692700000000000    0.2485300000000000 O
   0.4533100000000000    0.5419000000000000    0.2649800000000000 O
   0.5426400000000000    0.9225300000000000    0.4048000000000000 O
   0.4729500000000000    0.9192300000000000    0.2519000000000000 O
   0.4530000000000000    0.7918800000000000    0.2356700000000000 O
   0.5421300000000000    0.1726100000000000    0.0951800000000000 O
   0.4729200000000000    0.1692500000000000    0.2485300000000000 O
   0.4533100000000000    0.0418900000000000    0.2649800000000000 O
   0.3051100000000000    0.0690800000000000    0.1018100000000000 O
   0.3741200000000000    0.9656200000000000    0.0699900000000000 O
   0.4337800000000000    0.0723800000000000    0.9677900000000000 O
   0.1481400000000000    0.2608700000000000    0.9369700000000000 O
   0.2617300000000000    0.3371200000000000    0.0000000000000000 O
   0.3518500000000000    0.2391400000000000    0.0630200000000000 O
   0.2382600000000000    0.1628900000000000    0.9994700000000000 O
   0.1948800000000000    0.4309300000000000    0.8981800000000000 O
   0.1258700000000000    0.5344200000000000    0.9299900000000000 O
   0.0662100000000000    0.4276300000000000    0.0322000000000000 O
   0.6950100000000000    0.1809700000000000    0.6000799999999999 O
   0.6257700000000000    0.2843700000000000    0.5685500000000000 O
   0.5662000000000000    0.1775800000000000    0.4667100000000000 O
   0.8514400000000000    0.9890200000000000    0.4359100000000000 O
   0.7387000000000000    0.9129699999999999    0.5019500000000000 O
   0.6485200000000000    0.0110000000000000    0.5640800000000000 O
   0.7612700000000000    0.0870500000000000    0.4980400000000000 O
   0.8049500000000001    0.8190600000000000    0.3999100000000000 O
   0.8741900000000000    0.7156500000000000    0.4314400000000000 O
   0.9337600000000000    0.8224399999999999    0.5332800000000000 O
   0.8049500000000001    0.3190400000000000    0.3999100000000000 O
   0.8741900000000000    0.2156400000000000    0.4314400000000000 O
   0.9337600000000000    0.3224300000000000    0.5332800000000000 O
   0.8514400000000000    0.4890100000000000    0.4359100000000000 O
   0.7386900000000000    0.4129600000000000    0.5019500000000000 O
   0.6485300000000001    0.5110100000000000    0.5640800000000000 O
   0.7612700000000000    0.5870600000000000    0.4980400000000000 O
   0.6950200000000000    0.6809800000000000    0.6000799999999999 O
   0.6257800000000000    0.7843800000000000    0.5685500000000000 O
   0.5662100000000000    0.6776000000000000    0.4667100000000000 O
   0.9729300000000000    0.4192200000000000    0.2519900000000000 O
   0.0426500000000000    0.4225200000000000    0.4048100000000000 O
   0.9529800000000000    0.2918700000000000    0.2356700000000000 O
   0.9729100000000001    0.6692700000000000    0.2485300000000000 O
   0.0421400000000000    0.6726200000000000    0.0951800000000000 O
   0.9533000000000000    0.5419000000000000    0.2649800000000000 O
   0.9729300000000000    0.9192300000000000    0.2519900000000000 O
   0.0426500000000000    0.9225300000000000    0.4048100000000000 O
   0.9529900000000000    0.7918800000000000    0.2356700000000000 O
   0.9729100000000001    0.1692500000000000    0.2485300000000000 O
   0.0421400000000000    0.1726100000000000    0.0951800000000000 O
   0.9533000000000000    0.0418900000000000    0.2649800000000000 O
   0.8051000000000000    0.5690900000000000    0.1018100000000000 O
   0.8741100000000001    0.4656000000000000    0.0699900000000000 O
   0.9337700000000000    0.5723900000000000    0.9677900000000000 O
   0.6481300000000000    0.7608900000000000    0.9369700000000000 O
   0.7617200000000000    0.8371400000000000    0.0000000000000000 O
   0.8518400000000000    0.7391500000000000    0.0630200000000000 O
   0.7382500000000000    0.6629000000000000    0.9994700000000000 O
   0.6948700000000000    0.9309400000000000    0.8981800000000000 O
   0.6258500000000000    0.0344100000000000    0.9299900000000000 O
   0.5662000000000000    0.9276400000000000    0.0322000000000000 O
   0.4573400000000000    0.0774900000000000    0.5951800000000000 O
   0.5270300000000000    0.0808000000000000    0.7480000000000000 O
   0.5469800000000000    0.2081400000000000    0.7643200000000000 O
   0.4578400000000000    0.3274000000000000    0.9048000000000000 O
   0.5270500000000000    0.3307600000000000    0.7514600000000000 O
   0.5466600000000000    0.4581200000000000    0.7350000000000000 O
   0.4573400000000000    0.5775100000000000    0.5951800000000000 O
   0.5270400000000000    0.5808100000000000    0.7480000000000000 O
   0.5469800000000000    0.7081499999999999    0.7643200000000000 O
   0.4578500000000000    0.8274200000000000    0.9048000000000000 O
   0.5270600000000000    0.8307700000000000    0.7514600000000000 O
   0.5466700000000000    0.9581300000000000    0.7350000000000000 O
   0.8051000000000000    0.0690800000000000    0.1018100000000000 O
   0.8741100000000001    0.9656200000000000    0.0699900000000000 O
   0.9337600000000000    0.0723800000000000    0.9677900000000000 O
   0.6481300000000000    0.2608700000000000    0.9369700000000000 O
   0.7617200000000000    0.3371200000000000    0.0000000000000000 O
   0.8518300000000000    0.2391400000000000    0.0630200000000000 O
   0.7382400000000000    0.1628900000000000    0.9994700000000000 O
   0.6948600000000000    0.4309300000000000    0.8981800000000000 O
   0.6258600000000000    0.5344200000000000    0.9299900000000000 O
   0.5662000000000000    0.4276300000000000    0.0322000000000000 O
