H8 O5
1.0
  28.3439990286664418    0.0000000000000000   -0.0074204417630121
  -0.0091696265892718   14.9999757011760249   -0.0253945284857782
   0.0000000000000000    0.0000000000000000   30.7360000000000007
H O
8 5
direct
   0.1223874598448333    0.2186990500629501    0.2435088624570423 H
   0.1291980748830479    0.1434964622039994    0.2567434497618748 H
   0.1903808345944208    0.9634244741736351    0.2711131965256622 H
   0.1856543771274363    1.0492813538480352    0.2757236567329702 H
   0.1290500141170429    0.8777061951532260    0.2859825387207062 H
   0.1115081271227038    0.8117792251456376    0.2908844554519628 H
   0.1160050018233654    0.9505127185401058    0.2430289413426902 H
   0.0692140371798548    0.9837673576720360    0.2219534695077911 H
   0.1546350000000000    0.1995600000000000    0.2484050000000000 O
   0.2063650000000000    0.9065100000000000    0.2684800000000000 O
   0.2073550000000000    1.0971100000000000    0.2686100000000000 O
   0.1441500000000000    0.8239400000000000    0.2834950000000000 O
   0.0853400000000000    0.9301400000000000    0.2322600000000000 O
