H2 C5 N2 O4
1.0
  28.3439990286664418    0.0000000000000000   -0.0074204417630121
  -0.0091696265892718   14.9999757011760249   -0.0253945284857782
   0.0000000000000000    0.0000000000000000   30.7360000000000007
H C N O
2 5 2 4
direct
   0.1027400000000000    0.8146800000000000    0.8167650000000000 H
   0.8924449999999999    0.7321400000000000    0.8822950000000001 H
   0.0016300000000000    0.7798300000000000    0.8629450000000001 C
   0.0026650000000000    0.7533200000000000    0.9066500000000000 C
   0.0370450000000000    0.8067400000000000    0.8316000000000000 C
   0.0399100000000000    0.7512200000000000    0.9411050000000001 C
   0.9302300000000000    0.7437100000000000    0.8822000000000000 C
   0.9554549999999999    0.7734100000000000    0.8481000000000001 N
   0.9573800000000000    0.7305400000000000    0.9177400000000000 N
   0.0242200000000000    0.8357599999999999    0.7951200000000000 O
   0.0816400000000000    0.7973100000000000    0.8423499999999999 O
   0.0799550000000000    0.7813800000000000    0.9355550000000000 O
   0.0242950000000000    0.7153000000000000    0.9776750000000001 O
