H1 C5 N2 O4
1.0
  28.3439990286664418    0.0000000000000000   -0.0074204417630121
  -0.0091696265892718   14.9999757011760249   -0.0253945284857782
   0.0000000000000000    0.0000000000000000   30.7360000000000007
H C N O
1 5 2 4
direct
   0.0280300000000000    0.0036400000000000    0.2039100000000000 H
   0.1287650000000000    0.9589900000000000    0.2475100000000000 C
   0.1309250000000000    0.0516900000000000    0.2417800000000000 C
   0.0631300000000000    0.0040000000000000    0.2180650000000000 C
   0.1620200000000000    0.8952100000000000    0.2674250000000000 C
   0.1670000000000000    0.1186700000000000    0.2536800000000000 C
   0.0853400000000000    0.9301400000000000    0.2322600000000000 N
   0.0887650000000000    0.0788700000000000    0.2234850000000000 N
   0.1441500000000000    0.8239400000000000    0.2834950000000000 O
   0.2063650000000000    0.9065100000000000    0.2684800000000000 O
   0.2073550000000000    1.0971100000000000    0.2686100000000000 O
   0.1546350000000000    0.1995600000000000    0.2484050000000000 O
