Zn80 H95 C315 N126 O252
1.0
  28.3439990286664418    0.0000000000000000   -0.0074204417630121
  -0.0091696265892718   14.9999757011760249   -0.0253945284857782
   0.0000000000000000    0.0000000000000000   30.7360000000000007
Zn H C N O
80 95 315 126 252
direct
   0.1870950000000000    0.7070600000000000    0.2832300000000000 Zn
   0.0556250000000000    0.8046000000000000    0.2310950000000000 Zn
   0.0636250000000000    0.2069100000000000    0.2164650000000000 Zn
   0.3064000000000000    0.1956000000000000    0.0197300000000000 Zn
   0.3129500000000000    0.7929900000000000    0.0332700000000000 Zn
   0.4446100000000000    0.6956400000000000    0.4801750000000000 Zn
   0.4363500000000000    0.2929600000000000    0.4665050000000000 Zn
   0.3063000000000000    0.6955800000000000    0.2300350000000000 Zn
   0.3129300000000000    0.2929700000000000    0.2167150000000000 Zn
   0.4446200000000000    0.1955600000000000    0.2687900000000000 Zn
   0.4365150000000000    0.7931100000000000    0.2833550000000000 Zn
   0.1936400000000000    0.8043900000000000    0.4801650000000000 Zn
   0.1870900000000000    0.2070300000000000    0.4666800000000000 Zn
   0.0553800000000000    0.3044600000000000    0.0188750000000000 Zn
   0.0636450000000000    0.7070300000000000    0.0334000000000000 Zn
   0.0000300000000000    0.4999700000000000    0.2499950000000000 Zn
   0.2504950000000000    0.9998700000000000    0.2499100000000000 Zn
   0.0000350000000000    0.9999300000000000    0.4999950000000000 Zn
   0.2502600000000000    0.4999500000000000    0.4999900000000000 Zn
   0.1937100000000000    0.3044800000000000    0.2699050000000000 Zn
   0.6870950000000000    0.7070600000000000    0.2832300000000000 Zn
   0.5556250000000000    0.8046000000000000    0.2310950000000000 Zn
   0.5636250000000000    0.2069100000000000    0.2164650000000000 Zn
   0.8064000000000000    0.1956000000000000    0.0197300000000000 Zn
   0.8129500000000001    0.7929900000000000    0.0332700000000000 Zn
   0.9446099999999999    0.6956400000000000    0.4801750000000000 Zn
   0.9363500000000000    0.2929600000000000    0.4665050000000000 Zn
   0.8063000000000000    0.6955800000000000    0.2300350000000000 Zn
   0.8129299999999999    0.2929700000000000    0.2167150000000000 Zn
   0.9446200000000000    0.1955600000000000    0.2687900000000000 Zn
   0.9365150000000000    0.7931100000000000    0.2833550000000000 Zn
   0.6936400000000000    0.8043900000000000    0.4801650000000000 Zn
   0.6870900000000000    0.2070300000000000    0.4666800000000000 Zn
   0.5553800000000000    0.3044600000000000    0.0188750000000000 Zn
   0.5636450000000000    0.7070300000000000    0.0334000000000000 Zn
   0.5000300000000000    0.4999700000000000    0.2499950000000000 Zn
   0.7504950000000000    0.9998700000000000    0.2499100000000000 Zn
   0.5000350000000000    0.9999300000000000    0.4999950000000000 Zn
   0.7502599999999999    0.4999500000000000    0.4999900000000000 Zn
   0.6937100000000000    0.3044800000000000    0.2699050000000000 Zn
   0.1870950000000000    0.7070600000000000    0.7832300000000000 Zn
   0.0556250000000000    0.8046000000000000    0.7310950000000001 Zn
   0.0636250000000000    0.2069100000000000    0.7164650000000000 Zn
   0.3064000000000000    0.1956000000000000    0.5197300000000000 Zn
   0.3129500000000000    0.7929900000000000    0.5332700000000000 Zn
   0.4446100000000000    0.6956400000000000    0.9801750000000000 Zn
   0.4363500000000000    0.2929600000000000    0.9665049999999999 Zn
   0.3063000000000000    0.6955800000000000    0.7300350000000000 Zn
   0.3129300000000000    0.2929700000000000    0.7167150000000000 Zn
   0.4446200000000000    0.1955600000000000    0.7687900000000000 Zn
   0.4365150000000000    0.7931100000000000    0.7833550000000000 Zn
   0.1936400000000000    0.8043900000000000    0.9801650000000000 Zn
   0.1870900000000000    0.2070300000000000    0.9666800000000000 Zn
   0.0553800000000000    0.3044600000000000    0.5188750000000000 Zn
   0.0636450000000000    0.7070300000000000    0.5334000000000000 Zn
   0.0000300000000000    0.4999700000000000    0.7499950000000000 Zn
   0.2504950000000000    0.9998700000000000    0.7499100000000000 Zn
   0.0000350000000000    0.9999300000000000    0.9999950000000000 Zn
   0.2502600000000000    0.4999500000000000    0.9999899999999999 Zn
   0.1937100000000000    0.3044800000000000    0.7699050000000001 Zn
   0.6870950000000000    0.7070600000000000    0.7832300000000000 Zn
   0.5556250000000000    0.8046000000000000    0.7310950000000001 Zn
   0.5636250000000000    0.2069100000000000    0.7164650000000000 Zn
   0.8064000000000000    0.1956000000000000    0.5197300000000000 Zn
   0.8129500000000001    0.7929900000000000    0.5332700000000000 Zn
   0.9446099999999999    0.6956400000000000    0.9801750000000000 Zn
   0.9363500000000000    0.2929600000000000    0.9665049999999999 Zn
   0.8063000000000000    0.6955800000000000    0.7300350000000000 Zn
   0.8129299999999999    0.2929700000000000    0.7167150000000000 Zn
   0.9446200000000000    0.1955600000000000    0.7687900000000000 Zn
   0.9365150000000000    0.7931100000000000    0.7833550000000000 Zn
   0.6936400000000000    0.8043900000000000    0.9801650000000000 Zn
   0.6870900000000000    0.2070300000000000    0.9666800000000000 Zn
   0.5553800000000000    0.3044600000000000    0.5188750000000000 Zn
   0.5636450000000000    0.7070300000000000    0.5334000000000000 Zn
   0.5000300000000000    0.4999700000000000    0.7499950000000000 Zn
   0.7504950000000000    0.9998700000000000    0.7499100000000000 Zn
   0.5000350000000000    0.9999300000000000    0.9999950000000000 Zn
   0.7502599999999999    0.4999500000000000    0.9999899999999999 Zn
   0.6937100000000000    0.3044800000000000    0.7699050000000001 Zn
   0.1421350000000000    0.2679800000000000    0.3679450000000000 H
   0.2220100000000000    0.5039200000000000    0.2960150000000000 H
   0.3524650000000000    0.1830200000000000    0.4329950000000000 H
   0.1084000000000000    0.7685400000000000    0.1327050000000000 H
   0.3982950000000000    0.6835500000000000    0.0667750000000000 H
   0.3581250000000000    0.2324300000000000    0.1177450000000000 H
   0.2781650000000000    0.9962299999999999    0.0459550000000000 H
   0.1476300000000000    0.3144000000000000    0.1831100000000000 H
   0.3924450000000000    0.7321400000000000    0.3822950000000000 H
   0.4722700000000000    0.4963600000000000    0.4537200000000000 H
   0.1027400000000000    0.8146800000000000    0.3167650000000000 H
   0.3580000000000000    0.7318900000000000    0.1319350000000000 H
   0.2780850000000000    0.4961900000000000    0.2039550000000000 H
   0.1476650000000000    0.8169500000000000    0.0669100000000000 H
   0.3918200000000000    0.2313700000000000    0.3670700000000000 H
   0.4725200000000000    0.9962299999999999    0.2955850000000000 H
   0.1018800000000000    0.3165800000000000    0.4331700000000000 H
   0.1419350000000000    0.7673200000000000    0.3822850000000000 H
   0.2219850000000000    0.0037900000000000    0.4539350000000000 H
   0.3524100000000000    0.6856000000000000    0.3167900000000000 H
   0.1081450000000000    0.2682700000000000    0.1167850000000000 H
   0.0277300000000000    0.5037500000000000    0.0456600000000000 H
   0.3981350000000000    0.1856800000000000    0.1832200000000000 H
   0.6421350000000000    0.2679800000000000    0.3679450000000000 H
   0.7220100000000000    0.5039200000000000    0.2960150000000000 H
   0.8524650000000000    0.1830200000000000    0.4329950000000000 H
   0.6084000000000001    0.7685400000000000    0.1327050000000000 H
   0.5280300000000000    0.0036400000000000    0.2039100000000000 H
   0.8982950000000001    0.6835500000000000    0.0667750000000000 H
   0.8581250000000000    0.2324300000000000    0.1177450000000000 H
   0.7781650000000000    0.9962299999999999    0.0459550000000000 H
   0.6476300000000000    0.3144000000000000    0.1831100000000000 H
   0.8924449999999999    0.7321400000000000    0.3822950000000000 H
   0.9722700000000000    0.4963600000000000    0.4537200000000000 H
   0.6027400000000001    0.8146800000000000    0.3167650000000000 H
   0.8580000000000000    0.7318900000000000    0.1319350000000000 H
   0.7780850000000000    0.4961900000000000    0.2039550000000000 H
   0.6476649999999999    0.8169500000000000    0.0669100000000000 H
   0.8918200000000001    0.2313700000000000    0.3670700000000000 H
   0.9725200000000001    0.9962299999999999    0.2955850000000000 H
   0.6018800000000000    0.3165800000000000    0.4331700000000000 H
   0.6419350000000000    0.7673200000000000    0.3822850000000000 H
   0.7219850000000000    0.0037900000000000    0.4539350000000000 H
   0.8524100000000000    0.6856000000000000    0.3167900000000000 H
   0.6081450000000000    0.2682700000000000    0.1167850000000000 H
   0.5277300000000000    0.5037500000000000    0.0456600000000000 H
   0.8981350000000000    0.1856800000000000    0.1832200000000000 H
   0.1421350000000000    0.2679800000000000    0.8679450000000000 H
   0.2220100000000000    0.5039200000000000    0.7960149999999999 H
   0.3524650000000000    0.1830200000000000    0.9329950000000000 H
   0.1084000000000000    0.7685400000000000    0.6327050000000000 H
   0.0280300000000000    0.0036400000000000    0.7039100000000000 H
   0.3982950000000000    0.6835500000000000    0.5667750000000000 H
   0.3581250000000000    0.2324300000000000    0.6177450000000000 H
   0.2781650000000000    0.9962299999999999    0.5459550000000000 H
   0.1476300000000000    0.3144000000000000    0.6831100000000000 H
   0.3924450000000000    0.7321400000000000    0.8822950000000001 H
   0.4722700000000000    0.4963600000000000    0.9537200000000000 H
   0.1027400000000000    0.8146800000000000    0.8167650000000000 H
   0.3580000000000000    0.7318900000000000    0.6319350000000000 H
   0.2780850000000000    0.4961900000000000    0.7039550000000000 H
   0.1476650000000000    0.8169500000000000    0.5669100000000000 H
   0.3918200000000000    0.2313700000000000    0.8670700000000000 H
   0.4725200000000000    0.9962299999999999    0.7955850000000000 H
   0.1018800000000000    0.3165800000000000    0.9331700000000001 H
   0.1419350000000000    0.7673200000000000    0.8822850000000000 H
   0.2219850000000000    0.0037900000000000    0.9539350000000000 H
   0.3524100000000000    0.6856000000000000    0.8167900000000000 H
   0.1081450000000000    0.2682700000000000    0.6167850000000000 H
   0.0277300000000000    0.5037500000000000    0.5456600000000000 H
   0.3981350000000000    0.1856800000000000    0.6832199999999999 H
   0.6421350000000000    0.2679800000000000    0.8679450000000000 H
   0.7220100000000000    0.5039200000000000    0.7960149999999999 H
   0.8524650000000000    0.1830200000000000    0.9329950000000000 H
   0.6084000000000001    0.7685400000000000    0.6327050000000000 H
   0.5280300000000000    0.0036400000000000    0.7039100000000000 H
   0.8982950000000001    0.6835500000000000    0.5667750000000000 H
   0.8581250000000000    0.2324300000000000    0.6177450000000000 H
   0.7781650000000000    0.9962299999999999    0.5459550000000000 H
   0.6476300000000000    0.3144000000000000    0.6831100000000000 H
   0.8924449999999999    0.7321400000000000    0.8822950000000001 H
   0.9722700000000000    0.4963600000000000    0.9537200000000000 H
   0.6027400000000001    0.8146800000000000    0.8167650000000000 H
   0.8580000000000000    0.7318900000000000    0.6319350000000000 H
   0.7780850000000000    0.4961900000000000    0.7039550000000000 H
   0.6476649999999999    0.8169500000000000    0.5669100000000000 H
   0.8918200000000001    0.2313700000000000    0.8670700000000000 H
   0.9725200000000001    0.9962299999999999    0.7955850000000000 H
   0.6018800000000000    0.3165800000000000    0.9331700000000001 H
   0.6419350000000000    0.7673200000000000    0.8822850000000000 H
   0.7219850000000000    0.0037900000000000    0.9539350000000000 H
   0.8524100000000000    0.6856000000000000    0.8167900000000000 H
   0.6081450000000000    0.2682700000000000    0.6167850000000000 H
   0.5277300000000000    0.5037500000000000    0.5456600000000000 H
   0.8981350000000000    0.1856800000000000    0.6832199999999999 H
   0.2513500000000000    0.2198900000000000    0.3869100000000000 C
   0.2522000000000000    0.2460800000000000    0.3431300000000000 C
   0.1799050000000000    0.2562500000000000    0.3678800000000000 C
   0.2866800000000000    0.1932600000000000    0.4184350000000000 C
   0.2891900000000000    0.2485100000000000    0.3084600000000000 C
   0.1213500000000000    0.4589400000000000    0.2522000000000000 C
   0.1193350000000000    0.5517200000000000    0.2577350000000000 C
   0.1869550000000000    0.5042100000000000    0.2817700000000000 C
   0.0880150000000000    0.3950200000000000    0.2323350000000000 C
   0.0830650000000000    0.6181500000000000    0.2457200000000000 C
   0.0000000000000000    0.7200600000000000    0.1132650000000000 C
   0.0000000000000000    0.7462299999999999    0.1571150000000000 C
   0.0706400000000000    0.7566900000000000    0.1326100000000000 C
   0.4641100000000000    0.6934100000000000    0.0815600000000000 C
   0.4613350000000000    0.7484300000000000    0.1917750000000000 C
   0.2488000000000000    0.2791100000000000    0.1370200000000000 C
   0.2479450000000000    0.2532600000000000    0.0931850000000000 C
   0.3203200000000000    0.2437400000000000    0.1177800000000000 C
   0.2133800000000000    0.3052800000000000    0.1685550000000000 C
   0.2108300000000000    0.2511700000000000    0.0586450000000000 C
   0.3788000000000000    0.0408200000000000    0.0000000000000000 C
   0.3808600000000000    0.9481000000000001    0.0077600000000000 C
   0.3132200000000000    0.9958200000000000    0.0317200000000000 C
   0.4120900000000000    0.1046600000000000    0.4822750000000000 C
   0.4170600000000000    0.8814900000000000    0.4956750000000000 C
   0.0016300000000000    0.7798300000000000    0.3629450000000000 C
   0.0026650000000000    0.7533200000000000    0.4066500000000000 C
   0.4302300000000000    0.7437100000000000    0.3822000000000000 C
   0.0370450000000000    0.8067400000000000    0.3316000000000000 C
   0.0399100000000000    0.7512200000000000    0.4411050000000000 C
   0.3717250000000000    0.5412700000000000    0.4976650000000000 C
   0.3695250000000000    0.4485300000000000    0.4918750000000000 C
   0.4372350000000000    0.4960800000000000    0.4679900000000000 C
   0.3384650000000000    0.6050800000000000    0.0176200000000000 C
   0.3334800000000000    0.3814900000000000    0.0037600000000000 C
   0.2487800000000000    0.7799500000000000    0.1129700000000000 C
   0.2479350000000000    0.7537000000000000    0.1567250000000000 C
   0.3202300000000000    0.7436000000000000    0.1320100000000000 C
   0.2134250000000000    0.8066900000000000    0.0814800000000000 C
   0.2108550000000000    0.7513300000000001    0.1912800000000000 C
   0.3787300000000000    0.5411200000000000    0.2478200000000000 C
   0.3807350000000000    0.4483300000000000    0.2422750000000000 C
   0.3131350000000000    0.4958800000000000    0.2182150000000000 C
   0.4120950000000000    0.6050100000000000    0.2676750000000000 C
   0.4169800000000000    0.3818600000000000    0.2542950000000000 C
   0.0008550000000000    0.2799800000000000    0.3866600000000000 C
   0.0019650000000000    0.2537700000000000    0.3428400000000000 C
   0.4295750000000000    0.2432700000000000    0.3672250000000000 C
   0.0360250000000000    0.3066500000000000    0.4183300000000000 C
   0.0391150000000000    0.2515800000000000    0.3083250000000000 C
   0.3718550000000000    0.0410600000000000    0.2518650000000000 C
   0.3696200000000000    0.9483800000000000    0.2576400000000000 C
   0.4374300000000000    0.9959600000000000    0.2814100000000000 C
   0.3385250000000000    0.1049900000000000    0.2321750000000000 C
   0.3335000000000000    0.8814600000000000    0.2457350000000000 C
   0.2512550000000000    0.7209200000000000    0.3628950000000000 C
   0.2521400000000000    0.7467500000000000    0.4067300000000000 C
   0.1797400000000000    0.7561000000000000    0.3822000000000000 C
   0.2866600000000000    0.6947900000000000    0.3313550000000000 C
   0.2892850000000000    0.7488700000000000    0.4412300000000000 C
   0.1213550000000000    0.9591200000000000    0.4977500000000000 C
   0.1192800000000000    0.0518300000000000    0.4921400000000000 C
   0.1869300000000000    0.0041800000000000    0.4681650000000000 C
   0.0880800000000000    0.8952599999999999    0.0176150000000000 C
   0.0830500000000000    0.1183600000000000    0.0041850000000000 C
   0.0000000000000000    0.2207100000000000    0.1366700000000000 C
   0.0000000000000000    0.2469400000000000    0.0929350000000000 C
   0.0703550000000000    0.2567100000000000    0.1170600000000000 C
   0.4639050000000000    0.1942500000000000    0.1682600000000000 C
   0.4603400000000000    0.2488600000000000    0.0586950000000000 C
   0.1284900000000000    0.4588500000000000    0.0000000000000000 C
   0.1307100000000000    0.5515500000000000    0.0080350000000000 C
   0.0628450000000000    0.5040400000000000    0.0315550000000000 C
   0.1617800000000000    0.3950400000000000    0.4822850000000000 C
   0.1668250000000000    0.6185400000000000    0.4962750000000000 C
   0.7513500000000000    0.2198900000000000    0.3869100000000000 C
   0.7522000000000000    0.2460800000000000    0.3431300000000000 C
   0.6799050000000000    0.2562500000000000    0.3678800000000000 C
   0.7866800000000000    0.1932600000000000    0.4184350000000000 C
   0.7891900000000001    0.2485100000000000    0.3084600000000000 C
   0.6213500000000000    0.4589400000000000    0.2522000000000000 C
   0.6193350000000000    0.5517200000000000    0.2577350000000000 C
   0.6869550000000000    0.5042100000000000    0.2817700000000000 C
   0.5880150000000000    0.3950200000000000    0.2323350000000000 C
   0.5830649999999999    0.6181500000000000    0.2457200000000000 C
   0.5000000000000000    0.7200600000000000    0.1132650000000000 C
   0.5000000000000000    0.7462299999999999    0.1571150000000000 C
   0.5706400000000000    0.7566900000000000    0.1326100000000000 C
   0.9641100000000000    0.6934100000000000    0.0815600000000000 C
   0.9613350000000001    0.7484300000000000    0.1917750000000000 C
   0.6287650000000000    0.9589900000000000    0.2475100000000000 C
   0.6309250000000000    0.0516900000000000    0.2417800000000000 C
   0.5631300000000000    0.0040000000000000    0.2180650000000000 C
   0.6620200000000001    0.8952100000000000    0.2674250000000000 C
   0.6670000000000000    0.1186700000000000    0.2536800000000000 C
   0.7488000000000000    0.2791100000000000    0.1370200000000000 C
   0.7479450000000000    0.2532600000000000    0.0931850000000000 C
   0.8203199999999999    0.2437400000000000    0.1177800000000000 C
   0.7133800000000000    0.3052800000000000    0.1685550000000000 C
   0.7108300000000000    0.2511700000000000    0.0586450000000000 C
   0.8788000000000000    0.0408200000000000    0.0000000000000000 C
   0.8808600000000000    0.9481000000000001    0.0077600000000000 C
   0.8132200000000001    0.9958200000000000    0.0317200000000000 C
   0.9120900000000001    0.1046600000000000    0.4822750000000000 C
   0.9170600000000000    0.8814900000000000    0.4956750000000000 C
   0.5016300000000000    0.7798300000000000    0.3629450000000000 C
   0.5026650000000000    0.7533200000000000    0.4066500000000000 C
   0.9302300000000000    0.7437100000000000    0.3822000000000000 C
   0.5370450000000000    0.8067400000000000    0.3316000000000000 C
   0.5399100000000000    0.7512200000000000    0.4411050000000000 C
   0.8717250000000001    0.5412700000000000    0.4976650000000000 C
   0.8695250000000000    0.4485300000000000    0.4918750000000000 C
   0.9372350000000000    0.4960800000000000    0.4679900000000000 C
   0.8384650000000000    0.6050800000000000    0.0176200000000000 C
   0.8334800000000000    0.3814900000000000    0.0037600000000000 C
   0.7487800000000000    0.7799500000000000    0.1129700000000000 C
   0.7479350000000000    0.7537000000000000    0.1567250000000000 C
   0.8202300000000000    0.7436000000000000    0.1320100000000000 C
   0.7134250000000000    0.8066900000000000    0.0814800000000000 C
   0.7108550000000000    0.7513300000000001    0.1912800000000000 C
   0.8787300000000000    0.5411200000000000    0.2478200000000000 C
   0.8807350000000000    0.4483300000000000    0.2422750000000000 C
   0.8131349999999999    0.4958800000000000    0.2182150000000000 C
   0.9120950000000000    0.6050100000000000    0.2676750000000000 C
   0.9169800000000000    0.3818600000000000    0.2542950000000000 C
   0.5008550000000001    0.2799800000000000    0.3866600000000000 C
   0.5019650000000000    0.2537700000000000    0.3428400000000000 C
   0.9295750000000000    0.2432700000000000    0.3672250000000000 C
   0.5360250000000000    0.3066500000000000    0.4183300000000000 C
   0.5391150000000000    0.2515800000000000    0.3083250000000000 C
   0.8718550000000000    0.0410600000000000    0.2518650000000000 C
   0.8696200000000001    0.9483800000000000    0.2576400000000000 C
   0.9374300000000000    0.9959600000000000    0.2814100000000000 C
   0.8385250000000000    0.1049900000000000    0.2321750000000000 C
   0.8335000000000000    0.8814600000000000    0.2457350000000000 C
   0.7512550000000000    0.7209200000000000    0.3628950000000000 C
   0.7521400000000000    0.7467500000000000    0.4067300000000000 C
   0.6797400000000000    0.7561000000000000    0.3822000000000000 C
   0.7866600000000000    0.6947900000000000    0.3313550000000000 C
   0.7892850000000000    0.7488700000000000    0.4412300000000000 C
   0.6213550000000000    0.9591200000000000    0.4977500000000000 C
   0.6192800000000001    0.0518300000000000    0.4921400000000000 C
   0.6869300000000000    0.0041800000000000    0.4681650000000000 C
   0.5880800000000000    0.8952599999999999    0.0176150000000000 C
   0.5830500000000000    0.1183600000000000    0.0041850000000000 C
   0.5000000000000000    0.2207100000000000    0.1366700000000000 C
   0.5000000000000000    0.2469400000000000    0.0929350000000000 C
   0.5703549999999999    0.2567100000000000    0.1170600000000000 C
   0.9639050000000000    0.1942500000000000    0.1682600000000000 C
   0.9603400000000000    0.2488600000000000    0.0586950000000000 C
   0.6284900000000000    0.4588500000000000    0.0000000000000000 C
   0.6307100000000000    0.5515500000000000    0.0080350000000000 C
   0.5628450000000000    0.5040400000000000    0.0315550000000000 C
   0.6617800000000000    0.3950400000000000    0.4822850000000000 C
   0.6668250000000000    0.6185400000000000    0.4962750000000000 C
   0.2513500000000000    0.2198900000000000    0.8869100000000000 C
   0.2522000000000000    0.2460800000000000    0.8431299999999999 C
   0.1799050000000000    0.2562500000000000    0.8678800000000000 C
   0.2866800000000000    0.1932600000000000    0.9184350000000000 C
   0.2891900000000000    0.2485100000000000    0.8084600000000000 C
   0.1213500000000000    0.4589400000000000    0.7522000000000000 C
   0.1193350000000000    0.5517200000000000    0.7577350000000000 C
   0.1869550000000000    0.5042100000000000    0.7817700000000001 C
   0.0880150000000000    0.3950200000000000    0.7323350000000000 C
   0.0830650000000000    0.6181500000000000    0.7457199999999999 C
   0.0000000000000000    0.7200600000000000    0.6132649999999999 C
   0.0000000000000000    0.7462299999999999    0.6571150000000000 C
   0.0706400000000000    0.7566900000000000    0.6326100000000000 C
   0.4641100000000000    0.6934100000000000    0.5815600000000000 C
   0.4613350000000000    0.7484300000000000    0.6917750000000000 C
   0.1287650000000000    0.9589900000000000    0.7475100000000000 C
   0.1309250000000000    0.0516900000000000    0.7417800000000000 C
   0.0631300000000000    0.0040000000000000    0.7180650000000000 C
   0.1620200000000000    0.8952100000000000    0.7674250000000000 C
   0.1670000000000000    0.1186700000000000    0.7536800000000000 C
   0.2488000000000000    0.2791100000000000    0.6370200000000000 C
   0.2479450000000000    0.2532600000000000    0.5931850000000000 C
   0.3203200000000000    0.2437400000000000    0.6177800000000000 C
   0.2133800000000000    0.3052800000000000    0.6685550000000000 C
   0.2108300000000000    0.2511700000000000    0.5586450000000001 C
   0.3788000000000000    0.0408200000000000    0.5000000000000000 C
   0.3808600000000000    0.9481000000000001    0.5077600000000000 C
   0.3132200000000000    0.9958200000000000    0.5317200000000000 C
   0.4120900000000000    0.1046600000000000    0.9822750000000000 C
   0.4170600000000000    0.8814900000000000    0.9956750000000000 C
   0.0016300000000000    0.7798300000000000    0.8629450000000001 C
   0.0026650000000000    0.7533200000000000    0.9066500000000000 C
   0.4302300000000000    0.7437100000000000    0.8822000000000000 C
   0.0370450000000000    0.8067400000000000    0.8316000000000000 C
   0.0399100000000000    0.7512200000000000    0.9411050000000001 C
   0.3717250000000000    0.5412700000000000    0.9976650000000000 C
   0.3695250000000000    0.4485300000000000    0.9918750000000001 C
   0.4372350000000000    0.4960800000000000    0.9679900000000000 C
   0.3384650000000000    0.6050800000000000    0.5176200000000000 C
   0.3334800000000000    0.3814900000000000    0.5037600000000000 C
   0.2487800000000000    0.7799500000000000    0.6129700000000000 C
   0.2479350000000000    0.7537000000000000    0.6567250000000000 C
   0.3202300000000000    0.7436000000000000    0.6320100000000000 C
   0.2134250000000000    0.8066900000000000    0.5814800000000000 C
   0.2108550000000000    0.7513300000000001    0.6912800000000000 C
   0.3787300000000000    0.5411200000000000    0.7478200000000000 C
   0.3807350000000000    0.4483300000000000    0.7422750000000000 C
   0.3131350000000000    0.4958800000000000    0.7182150000000000 C
   0.4120950000000000    0.6050100000000000    0.7676750000000000 C
   0.4169800000000000    0.3818600000000000    0.7542949999999999 C
   0.0008550000000000    0.2799800000000000    0.8866600000000000 C
   0.0019650000000000    0.2537700000000000    0.8428400000000000 C
   0.4295750000000000    0.2432700000000000    0.8672250000000000 C
   0.0360250000000000    0.3066500000000000    0.9183300000000000 C
   0.0391150000000000    0.2515800000000000    0.8083250000000000 C
   0.3718550000000000    0.0410600000000000    0.7518650000000000 C
   0.3696200000000000    0.9483800000000000    0.7576400000000000 C
   0.4374300000000000    0.9959600000000000    0.7814099999999999 C
   0.3385250000000000    0.1049900000000000    0.7321750000000000 C
   0.3335000000000000    0.8814600000000000    0.7457350000000000 C
   0.2512550000000000    0.7209200000000000    0.8628950000000000 C
   0.2521400000000000    0.7467500000000000    0.9067300000000000 C
   0.1797400000000000    0.7561000000000000    0.8822000000000000 C
   0.2866600000000000    0.6947900000000000    0.8313550000000001 C
   0.2892850000000000    0.7488700000000000    0.9412300000000000 C
   0.1213550000000000    0.9591200000000000    0.9977500000000000 C
   0.1192800000000000    0.0518300000000000    0.9921400000000000 C
   0.1869300000000000    0.0041800000000000    0.9681649999999999 C
   0.0880800000000000    0.8952599999999999    0.5176150000000000 C
   0.0830500000000000    0.1183600000000000    0.5041850000000000 C
   0.0000000000000000    0.2207100000000000    0.6366700000000001 C
   0.0000000000000000    0.2469400000000000    0.5929350000000000 C
   0.0703550000000000    0.2567100000000000    0.6170599999999999 C
   0.4639050000000000    0.1942500000000000    0.6682600000000000 C
   0.4603400000000000    0.2488600000000000    0.5586949999999999 C
   0.1284900000000000    0.4588500000000000    0.5000000000000000 C
   0.1307100000000000    0.5515500000000000    0.5080350000000000 C
   0.0628450000000000    0.5040400000000000    0.5315550000000000 C
   0.1617800000000000    0.3950400000000000    0.9822850000000001 C
   0.1668250000000000    0.6185400000000000    0.9962750000000000 C
   0.7513500000000000    0.2198900000000000    0.8869100000000000 C
   0.7522000000000000    0.2460800000000000    0.8431299999999999 C
   0.6799050000000000    0.2562500000000000    0.8678800000000000 C
   0.7866800000000000    0.1932600000000000    0.9184350000000000 C
   0.7891900000000001    0.2485100000000000    0.8084600000000000 C
   0.6213500000000000    0.4589400000000000    0.7522000000000000 C
   0.6193350000000000    0.5517200000000000    0.7577350000000000 C
   0.6869550000000000    0.5042100000000000    0.7817700000000001 C
   0.5880150000000000    0.3950200000000000    0.7323350000000000 C
   0.5830649999999999    0.6181500000000000    0.7457199999999999 C
   0.5000000000000000    0.7200600000000000    0.6132649999999999 C
   0.5000000000000000    0.7462299999999999    0.6571150000000000 C
   0.5706400000000000    0.7566900000000000    0.6326100000000000 C
   0.9641100000000000    0.6934100000000000    0.5815600000000000 C
   0.9613350000000001    0.7484300000000000    0.6917750000000000 C
   0.6287650000000000    0.9589900000000000    0.7475100000000000 C
   0.6309250000000000    0.0516900000000000    0.7417800000000000 C
   0.5631300000000000    0.0040000000000000    0.7180650000000000 C
   0.6620200000000001    0.8952100000000000    0.7674250000000000 C
   0.6670000000000000    0.1186700000000000    0.7536800000000000 C
   0.7488000000000000    0.2791100000000000    0.6370200000000000 C
   0.7479450000000000    0.2532600000000000    0.5931850000000000 C
   0.8203199999999999    0.2437400000000000    0.6177800000000000 C
   0.7133800000000000    0.3052800000000000    0.6685550000000000 C
   0.7108300000000000    0.2511700000000000    0.5586450000000001 C
   0.8788000000000000    0.0408200000000000    0.5000000000000000 C