H1 O1
1.0
  36.5399735033230044    0.0000000000000000   -0.0440042776623805
   0.0150454183321506   20.9569552714949765    0.0406002949020030
   0.0000000000000000    0.0000000000000000   37.1799999999999997
H O
1 1
direct
   0.1016507924859144    0.7682588202446790    0.4963740849692194 H
   0.1251450000000000    0.7875300000000000    0.4899600000000000 O
