H4 C5 N5
1.0
  36.5399735033230044    0.0000000000000000   -0.0440042776623805
   0.0150454183321506   20.9569552714949765    0.0406002949020030
   0.0000000000000000    0.0000000000000000   37.1799999999999997
H C N
4 5 5
direct
   0.0798150000000000    0.7232499999999999    0.4832050000000000 H
   0.1847200000000000    0.9361900000000000    0.5533450000000000 H
   0.0840450000000000    0.9066100000000000    0.6181000000000000 H
   0.0548850000000000    0.8522500000000000    0.5954900000000000 H
   0.0926550000000000    0.7608800000000000    0.4988300000000000 C
   0.1612900000000000    0.9046000000000000    0.5493450000000000 C
   0.1054100000000000    0.8697500000000000    0.5719250000000000 C
   0.1030700000000000    0.8290100000000000    0.5416150000000000 C
   0.1322700000000000    0.8309900000000000    0.5170000000000000 C
   0.1251450000000000    0.7875300000000000    0.4899600000000000 N
   0.1622350000000000    0.8682800000000001    0.5196700000000000 N
   0.0779650000000000    0.7837300000000000    0.5290000000000000 N
   0.1354400000000000    0.9074400000000000    0.5749550000000000 N
   0.0802300000000000    0.8723200000000000    0.5987350000000000 N
