Zn64 H511 C698 N383 O128
1.0
  36.5399735033230044    0.0000000000000000   -0.0440042776623805
   0.0150454183321506   20.9569552714949765    0.0406002949020030
   0.0000000000000000    0.0000000000000000   37.1799999999999997
Zn H C N O
64 511 698 383 128
direct
   0.0328250000000000    0.5110100000000000    0.2997300000000000 Zn
   0.1577750000000000    0.4890800000000000    0.2003400000000000 Zn
   0.7828250000000000    0.5110100000000000    0.2997300000000000 Zn
   0.9077750000000000    0.4890800000000000    0.2003400000000000 Zn
   0.2828250000000000    0.5110100000000000    0.2997300000000000 Zn
   0.4077750000000000    0.4890800000000000    0.2003400000000000 Zn
   0.5328250000000000    0.5110100000000000    0.2997300000000000 Zn
   0.6577750000000000    0.4890800000000000    0.2003400000000000 Zn
   0.0328700000000000    0.2405700000000000    0.0496600000000000 Zn
   0.1577500000000000    0.2610100000000000    0.9503100000000000 Zn
   0.2828650000000000    0.2405600000000000    0.0496600000000000 Zn
   0.4077450000000000    0.2610100000000000    0.9503100000000000 Zn
   0.5328700000000000    0.2405700000000000    0.0496600000000000 Zn
   0.6577500000000001    0.2610100000000000    0.9503100000000000 Zn
   0.7828649999999999    0.2405600000000000    0.0496600000000000 Zn
   0.9077450000000000    0.2610100000000000    0.9503100000000000 Zn
   0.0328250000000000    0.5110100000000000    0.7997300000000001 Zn
   0.1577750000000000    0.4890800000000000    0.7003400000000000 Zn
   0.7828250000000000    0.5110100000000000    0.7997300000000001 Zn
   0.9077750000000000    0.4890800000000000    0.7003400000000000 Zn
   0.5328250000000000    0.5110100000000000    0.7997300000000001 Zn
   0.6577750000000000    0.4890800000000000    0.7003400000000000 Zn
   0.2828250000000000    0.5110100000000000    0.7997300000000001 Zn
   0.4077750000000000    0.4890800000000000    0.7003400000000000 Zn
   0.0328700000000000    0.2405700000000000    0.5496600000000000 Zn
   0.1577500000000000    0.2610100000000000    0.4503100000000000 Zn
   0.2828650000000000    0.2405600000000000    0.5496600000000000 Zn
   0.4077450000000000    0.2610100000000000    0.4503100000000000 Zn
   0.5328700000000000    0.2405700000000000    0.5496600000000000 Zn
   0.6577500000000001    0.2610100000000000    0.4503100000000000 Zn
   0.7828649999999999    0.2405600000000000    0.5496600000000000 Zn
   0.9077450000000000    0.2610100000000000    0.4503100000000000 Zn
   0.7828250000000000    0.0110100000000000    0.2997300000000000 Zn
   0.9077700000000000    0.9890700000000000    0.2003400000000000 Zn
   0.5328300000000000    0.0110100000000000    0.2997300000000000 Zn
   0.6577750000000000    0.9890700000000000    0.2003400000000000 Zn
   0.0328300000000000    0.0110100000000000    0.2997300000000000 Zn
   0.1577750000000000    0.9890700000000000    0.2003400000000000 Zn
   0.2828250000000000    0.0110100000000000    0.2997300000000000 Zn
   0.4077700000000000    0.9890700000000000    0.2003400000000000 Zn
   0.2828650000000000    0.7405600000000000    0.0496600000000000 Zn
   0.4077450000000000    0.7610100000000000    0.9503100000000000 Zn
   0.5328700000000000    0.7405600000000000    0.0496600000000000 Zn
   0.6577450000000000    0.7610100000000000    0.9503100000000000 Zn
   0.7828649999999999    0.7405600000000000    0.0496600000000000 Zn
   0.9077450000000000    0.7610100000000000    0.9503100000000000 Zn
   0.0328700000000000    0.7405600000000000    0.0496600000000000 Zn
   0.1577450000000000    0.7610100000000000    0.9503100000000000 Zn
   0.2828250000000000    0.0110100000000000    0.7997300000000001 Zn
   0.4077700000000000    0.9890700000000000    0.7003400000000000 Zn
   0.0328300000000000    0.0110100000000000    0.7997300000000001 Zn
   0.1577750000000000    0.9890700000000000    0.7003400000000000 Zn
   0.7828250000000000    0.0110100000000000    0.7997300000000001 Zn
   0.9077700000000000    0.9890700000000000    0.7003400000000000 Zn
   0.5328300000000000    0.0110100000000000    0.7997300000000001 Zn
   0.6577750000000000    0.9890700000000000    0.7003400000000000 Zn
   0.7828649999999999    0.7405600000000000    0.5496600000000000 Zn
   0.9077450000000000    0.7610100000000000    0.4503100000000000 Zn
   0.0328700000000000    0.7405600000000000    0.5496600000000000 Zn
   0.1577450000000000    0.7610100000000000    0.4503100000000000 Zn
   0.5328700000000000    0.7405600000000000    0.5496600000000000 Zn
   0.6577450000000000    0.7610100000000000    0.4503100000000000 Zn
   0.2828650000000000    0.7405600000000000    0.5496600000000000 Zn
   0.4077450000000000    0.7610100000000000    0.4503100000000000 Zn
   0.6732750174134142    0.8747168003330875    0.1700082478355916 H
   0.6988809278480296    0.9329651597105633    0.1514685613048403 H
   0.9550000000000001    0.4721400000000000    0.2667500000000000 H
   0.9296650000000000    0.6012500000000000    0.1541450000000000 H
   0.9587850000000000    0.6556999999999999    0.1314900000000000 H
   0.0592650000000000    0.6860800000000000    0.1964250000000000 H
   0.8038250000000000    0.5128500000000000    0.0992350000000000 H
   0.8698250000000001    0.6608300000000000    0.1462050000000000 H
   0.8380050000000000    0.7393400000000000    0.1060450000000000 H
   0.7749250000000000    0.5968900000000000    0.0597150000000000 H
   0.0799700000000000    0.5282400000000000    0.2333250000000000 H
   0.0548250000000000    0.3989100000000000    0.3457950000000000 H
   0.0839750000000000    0.3444300000000000    0.3684650000000000 H
   0.1843900000000000    0.3139700000000000    0.3036100000000000 H
   0.9290100000000000    0.4882600000000000    0.4005400000000000 H
   0.9945850000000001    0.3394900000000000    0.3537850000000000 H
   0.9625300000000000    0.2613600000000000    0.3939050000000000 H
   0.8998950000000000    0.4045900000000000    0.4400800000000000 H
   0.7050050000000000    0.4721400000000000    0.2667500000000000 H
   0.6796700000000000    0.6012500000000000    0.1541450000000000 H
   0.7087850000000000    0.6556999999999999    0.1314900000000000 H
   0.8092650000000000    0.6860800000000000    0.1964250000000000 H
   0.5538250000000000    0.5128500000000000    0.0992350000000000 H
   0.6198250000000000    0.6608300000000000    0.1462050000000000 H
   0.5880050000000000    0.7393400000000000    0.1060450000000000 H
   0.5249300000000000    0.5968900000000000    0.0597150000000000 H
   0.8299700000000000    0.5282400000000000    0.2333250000000000 H
   0.8048200000000000    0.3989100000000000    0.3457950000000000 H
   0.8339750000000000    0.3444300000000000    0.3684650000000000 H
   0.9343850000000000    0.3139700000000000    0.3036100000000000 H
   0.7445850000000001    0.3394900000000000    0.3537850000000000 H
   0.6790100000000000    0.4882600000000000    0.4005400000000000 H
   0.7125300000000000    0.2613600000000000    0.3939050000000000 H
   0.6499000000000000    0.4045900000000000    0.4400800000000000 H
   0.2050050000000000    0.4721400000000000    0.2667500000000000 H
   0.1796700000000000    0.6012500000000000    0.1541450000000000 H
   0.2087850000000000    0.6556999999999999    0.1314900000000000 H
   0.3092650000000000    0.6860800000000000    0.1964250000000000 H
   0.0538250000000000    0.5128500000000000    0.0992350000000000 H
   0.1198250000000000    0.6608300000000000    0.1462050000000000 H
   0.0880050000000000    0.7393400000000000    0.1060450000000000 H
   0.0249300000000000    0.5968900000000000    0.0597150000000000 H
   0.3299700000000000    0.5282400000000000    0.2333250000000000 H
   0.3048200000000000    0.3989100000000000    0.3457950000000000 H
   0.3339750000000000    0.3444300000000000    0.3684650000000000 H
   0.4343850000000000    0.3139700000000000    0.3036100000000000 H
   0.2445850000000000    0.3394900000000000    0.3537850000000000 H
   0.1790100000000000    0.4882600000000000    0.4005400000000000 H
   0.2125300000000000    0.2613600000000000    0.3939050000000000 H
   0.1499000000000000    0.4045900000000000    0.4400800000000000 H
   0.4550000000000000    0.4721400000000000    0.2667500000000000 H
   0.4296650000000000    0.6012500000000000    0.1541450000000000 H
   0.4587850000000000    0.6556999999999999    0.1314900000000000 H
   0.5592650000000000    0.6860800000000000    0.1964250000000000 H
   0.3038250000000000    0.5128500000000000    0.0992350000000000 H
   0.3698250000000000    0.6608300000000000    0.1462050000000000 H
   0.3380050000000000    0.7393400000000000    0.1060450000000000 H
   0.2749250000000000    0.5968900000000000    0.0597150000000000 H
   0.5799700000000000    0.5282400000000000    0.2333250000000000 H
   0.5548250000000000    0.3989100000000000    0.3457950000000000 H
   0.5839750000000000    0.3444300000000000    0.3684650000000000 H
   0.6843900000000001    0.3139700000000000    0.3036100000000000 H
   0.4290100000000000    0.4882600000000000    0.4005400000000000 H
   0.4945850000000000    0.3394900000000000    0.3537850000000000 H
   0.4625300000000000    0.2613600000000000    0.3939050000000000 H
   0.3998950000000000    0.4045900000000000    0.4400800000000000 H
   0.9548400000000000    0.2784000000000000    0.0166850000000000 H
   0.9298350000000000    0.1488300000000000    0.9044950000000000 H
   0.9591250000000000    0.0946400000000000    0.8819250000000001 H
   0.0599050000000000    0.0654800000000000    0.9467700000000000 H
   0.8039799999999999    0.2381700000000000    0.8492999999999999 H
   0.8697750000000000    0.0893900000000000    0.8962450000000000 H
   0.8377950000000001    0.0113700000000000    0.8561150000000000 H
   0.7749349999999999    0.1546100000000000    0.8097799999999999 H
   0.0798150000000000    0.2232500000000000    0.9832000000000001 H
   0.0548850000000000    0.3522500000000000    0.0954900000000000 H
   0.0840450000000000    0.4066100000000000    0.1181000000000000 H
   0.1847250000000000    0.4362000000000000    0.0533450000000000 H
   0.9289400000000000    0.2618600000000000    0.1507450000000000 H
   0.9945550000000001    0.4107500000000000    0.1039900000000000 H
   0.9625850000000000    0.4886800000000000    0.1440000000000000 H
   0.8998999999999999    0.3453500000000000    0.1903200000000000 H
   0.2048400000000000    0.2784000000000000    0.0166850000000000 H
   0.1798350000000000    0.1488300000000000    0.9044950000000000 H
   0.2091250000000000    0.0946400000000000    0.8819250000000001 H
   0.3099000000000000    0.0654800000000000    0.9467700000000000 H
   0.0539800000000000    0.2381700000000000    0.8493200000000001 H
   0.1197800000000000    0.0893900000000000    0.8962450000000000 H
   0.0878050000000000    0.0113700000000000    0.8561050000000000 H
   0.0249400000000000    0.1546100000000000    0.8097750000000000 H
   0.3298150000000000    0.2232500000000000    0.9832000000000001 H
   0.3048850000000000    0.3522500000000000    0.0954900000000000 H
   0.3340450000000000    0.4066100000000000    0.1181000000000000 H
   0.4347200000000000    0.4362000000000000    0.0533450000000000 H
   0.1789400000000000    0.2618700000000000    0.1507400000000000 H
   0.2445600000000000    0.4107500000000000    0.1039900000000000 H
   0.2125900000000000    0.4886800000000000    0.1441500000000000 H
   0.1499000000000000    0.3453500000000000    0.1903200000000000 H
   0.4548400000000000    0.2784000000000000    0.0166850000000000 H
   0.4298350000000000    0.1488300000000000    0.9044950000000000 H
   0.4591250000000000    0.0946400000000000    0.8819250000000001 H
   0.5599050000000000    0.0654800000000000    0.9467700000000000 H
   0.3039800000000000    0.2381700000000000    0.8492999999999999 H
   0.3697750000000000    0.0893900000000000    0.8962450000000000 H
   0.3377950000000000    0.0113700000000000    0.8561150000000000 H
   0.2749350000000000    0.1546100000000000    0.8097799999999999 H
   0.5798150000000000    0.2232500000000000    0.9832000000000001 H
   0.5548850000000000    0.3522500000000000    0.0954900000000000 H
   0.5840450000000000    0.4066100000000000    0.1181000000000000 H
   0.6847250000000000    0.4362000000000000    0.0533450000000000 H
   0.4289400000000000    0.2618600000000000    0.1507450000000000 H
   0.4945550000000000    0.4107500000000000    0.1039900000000000 H
   0.4625850000000000    0.4886800000000000    0.1440000000000000 H
   0.3999000000000000    0.3453500000000000    0.1903200000000000 H
   0.7048400000000000    0.2784000000000000    0.0166850000000000 H
   0.6798350000000000    0.1488300000000000    0.9044950000000000 H
   0.7091250000000000    0.0946400000000000    0.8819250000000001 H
   0.8099000000000001    0.0654800000000000    0.9467700000000000 H
   0.5539800000000000    0.2381700000000000    0.8493200000000001 H
   0.6197800000000000    0.0893900000000000    0.8962450000000000 H
   0.5878050000000000    0.0113700000000000    0.8561050000000000 H
   0.5249400000000000    0.1546100000000000    0.8097750000000000 H
   0.8298150000000000    0.2232500000000000    0.9832000000000001 H
   0.8048850000000001    0.3522500000000000    0.0954900000000000 H
   0.8340449999999999    0.4066100000000000    0.1181000000000000 H
   0.9347200000000000    0.4362000000000000    0.0533450000000000 H
   0.6789400000000000    0.2618700000000000    0.1507400000000000 H
   0.7445600000000000    0.4107500000000000    0.1039900000000000 H
   0.7125900000000001    0.4886800000000000    0.1441500000000000 H
   0.6499000000000000    0.3453500000000000    0.1903200000000000 H
   0.9550000000000001    0.4721400000000000    0.7667500000000000 H
   0.9296650000000000    0.6012500000000000    0.6541450000000000 H
   0.9587850000000000    0.6556999999999999    0.6314900000000000 H
   0.0592650000000000    0.6860800000000000    0.6964250000000000 H
   0.8038250000000000    0.5128500000000000    0.5992350000000000 H
   0.8698250000000001    0.6608300000000000    0.6462050000000000 H
   0.8380050000000000    0.7393400000000000    0.6060449999999999 H
   0.7749250000000000    0.5968900000000000    0.5597150000000000 H
   0.0799700000000000    0.5282400000000000    0.7333250000000000 H
   0.0548250000000000    0.3989100000000000    0.8457950000000001 H
   0.0839750000000000    0.3444300000000000    0.8684650000000000 H
   0.1843900000000000    0.3139700000000000    0.8036099999999999 H
   0.9290100000000000    0.4882600000000000    0.9005400000000000 H
   0.9945850000000001    0.3394900000000000    0.8537850000000000 H
   0.9625300000000000    0.2613600000000000    0.8939049999999999 H
   0.8998950000000000    0.4045900000000000    0.9400800000000000 H
   0.7050050000000000    0.4721400000000000    0.7667500000000000 H
   0.6796700000000000    0.6012500000000000    0.6541450000000000 H
   0.7087850000000000    0.6556999999999999    0.6314900000000000 H
   0.8092650000000000    0.6860800000000000    0.6964250000000000 H
   0.5538250000000000    0.5128500000000000    0.5992350000000000 H
   0.6198250000000000    0.6608300000000000    0.6462050000000000 H
   0.5880050000000000    0.7393400000000000    0.6060449999999999 H
   0.5249300000000000    0.5968900000000000    0.5597150000000000 H
   0.8299700000000000    0.5282400000000000    0.7333250000000000 H
   0.8048200000000000    0.3989100000000000    0.8457950000000001 H
   0.8339750000000000    0.3444300000000000    0.8684650000000000 H
   0.9343850000000000    0.3139700000000000    0.8036099999999999 H
   0.7445850000000001    0.3394900000000000    0.8537850000000000 H
   0.6790100000000000    0.4882600000000000    0.9005400000000000 H
   0.7125300000000000    0.2613600000000000    0.8939049999999999 H
   0.6499000000000000    0.4045900000000000    0.9400800000000000 H
   0.4550000000000000    0.4721400000000000    0.7667500000000000 H
   0.4296650000000000    0.6012500000000000    0.6541450000000000 H
   0.4587850000000000    0.6556999999999999    0.6314900000000000 H
   0.5592650000000000    0.6860800000000000    0.6964250000000000 H
   0.3038250000000000    0.5128500000000000    0.5992350000000000 H
   0.3698250000000000    0.6608300000000000    0.6462050000000000 H
   0.3380050000000000    0.7393400000000000    0.6060449999999999 H
   0.2749250000000000    0.5968900000000000    0.5597150000000000 H
   0.5799700000000000    0.5282400000000000    0.7333250000000000 H
   0.5548250000000000    0.3989100000000000    0.8457950000000001 H
   0.5839750000000000    0.3444300000000000    0.8684650000000000 H
   0.6843900000000001    0.3139700000000000    0.8036099999999999 H
   0.4290100000000000    0.4882600000000000    0.9005400000000000 H
   0.4945850000000000    0.3394900000000000    0.8537850000000000 H
   0.4625300000000000    0.2613600000000000    0.8939049999999999 H
   0.3998950000000000    0.4045900000000000    0.9400800000000000 H
   0.2050050000000000    0.4721400000000000    0.7667500000000000 H
   0.1796700000000000    0.6012500000000000    0.6541450000000000 H
   0.2087850000000000    0.6556999999999999    0.6314900000000000 H
   0.3092650000000000    0.6860800000000000    0.6964250000000000 H
   0.0538250000000000    0.5128500000000000    0.5992350000000000 H
   0.1198250000000000    0.6608300000000000    0.6462050000000000 H
   0.0880050000000000    0.7393400000000000    0.6060449999999999 H
   0.0249300000000000    0.5968900000000000    0.5597150000000000 H
   0.3299700000000000    0.5282400000000000    0.7333250000000000 H
   0.3048200000000000    0.3989100000000000    0.8457950000000001 H
   0.3339750000000000    0.3444300000000000    0.8684650000000000 H
   0.4343850000000000    0.3139700000000000    0.8036099999999999 H
   0.2445850000000000    0.3394900000000000    0.8537850000000000 H
   0.1790100000000000    0.4882600000000000    0.9005400000000000 H
   0.2125300000000000    0.2613600000000000    0.8939049999999999 H
   0.1499000000000000    0.4045900000000000    0.9400800000000000 H
   0.9548400000000000    0.2784000000000000    0.5166849999999999 H
   0.9298350000000000    0.1488300000000000    0.4044950000000000 H
   0.9591250000000000    0.0946400000000000    0.3819250000000000 H
   0.0599050000000000    0.0654800000000000    0.4467700000000000 H
   0.8039799999999999    0.2381700000000000    0.3493000000000000 H
   0.8697750000000000    0.0893900000000000    0.3962450000000000 H
   0.8377950000000001    0.0113700000000000    0.3561150000000000 H
   0.7749349999999999    0.1546100000000000    0.3097800000000000 H
   0.0798150000000000    0.2232500000000000    0.4832000000000000 H
   0.0548850000000000    0.3522500000000000    0.5954900000000000 H
   0.0840450000000000    0.4066100000000000    0.6181000000000000 H
   0.1847250000000000    0.4362000000000000    0.5533450000000000 H
   0.9289400000000000    0.2618600000000000    0.6507450000000000 H
   0.9945550000000001    0.4107500000000000    0.6039900000000000 H
   0.9625850000000000    0.4886800000000000    0.6440000000000000 H
   0.8998999999999999    0.3453500000000000    0.6903200000000000 H
   0.2048400000000000    0.2784000000000000    0.5166849999999999 H
   0.1798350000000000    0.1488300000000000    0.4044950000000000 H
   0.2091250000000000    0.0946400000000000    0.3819250000000000 H
   0.3099000000000000    0.0654800000000000    0.4467700000000000 H
   0.0539800000000000    0.2381700000000000    0.3493200000000000 H
   0.1197800000000000    0.0893900000000000    0.3962450000000000 H
   0.0878050000000000    0.0113700000000000    0.3561050000000000 H
   0.0249400000000000    0.1546100000000000    0.3097750000000000 H
   0.3298150000000000    0.2232500000000000    0.4832000000000000 H
   0.3048850000000000    0.3522500000000000    0.5954900000000000 H
   0.3340450000000000    0.4066100000000000    0.6181000000000000 H
   0.4347200000000000    0.4362000000000000    0.5533450000000000 H
   0.1789400000000000    0.2618700000000000    0.6507400000000000 H
   0.2445600000000000    0.4107500000000000    0.6039900000000000 H
   0.2125900000000000    0.4886800000000000    0.6441500000000000 H
   0.1499000000000000    0.3453500000000000    0.6903200000000000 H
   0.4548400000000000    0.2784000000000000    0.5166849999999999 H
   0.4298350000000000    0.1488300000000000    0.4044950000000000 H
   0.4591250000000000    0.0946400000000000    0.3819250000000000 H
   0.5599050000000000    0.0654800000000000    0.4467700000000000 H
   0.3039800000000000    0.2381700000000000    0.3493000000000000 H
   0.3697750000000000    0.0893900000000000    0.3962450000000000 H
   0.3377950000000000    0.0113700000000000    0.3561150000000000 H
   0.2749350000000000    0.1546100000000000    0.3097800000000000 H
   0.5798150000000000    0.2232500000000000    0.4832000000000000 H
   0.5548850000000000    0.3522500000000000    0.5954900000000000 H
   0.5840450000000000    0.4066100000000000    0.6181000000000000 H
   0.6847250000000000    0.4362000000000000    0.5533450000000000 H
   0.4289400000000000    0.2618600000000000    0.6507450000000000 H
   0.4945550000000000    0.4107500000000000    0.6039900000000000 H
   0.4625850000000000    0.4886800000000000    0.6440000000000000 H
   0.3999000000000000    0.3453500000000000    0.6903200000000000 H
   0.7048400000000000    0.2784000000000000    0.5166849999999999 H
   0.6798350000000000    0.1488300000000000    0.4044950000000000 H
   0.7091250000000000    0.0946400000000000    0.3819250000000000 H
   0.8099000000000001    0.0654800000000000    0.4467700000000000 H
   0.5539800000000000    0.2381700000000000    0.3493200000000000 H
   0.6197800000000000    0.0893900000000000    0.3962450000000000 H
   0.5878050000000000    0.0113700000000000    0.3561050000000000 H
   0.5249400000000000    0.1546100000000000    0.3097750000000000 H
   0.8298150000000000    0.2232500000000000    0.4832000000000000 H
   0.8048850000000001    0.3522500000000000    0.5954900000000000 H
   0.8340449999999999    0.4066100000000000    0.6181000000000000 H
   0.9347200000000000    0.4362000000000000    0.5533450000000000 H
   0.6789400000000000    0.2618700000000000    0.6507400000000000 H
   0.7445600000000000    0.4107500000000000    0.6039900000000000 H
   0.7125900000000001    0.4886800000000000    0.6441500000000000 H
   0.6499000000000000    0.3453500000000000    0.6903200000000000 H
   0.7050050000000000    0.9721400000000000    0.2667500000000000 H
   0.6796700000000000    0.1012500000000000    0.1541450000000000 H
   0.7087900000000000    0.1557000000000000    0.1314900000000000 H
   0.8092650000000000    0.1860800000000000    0.1964250000000000 H
   0.5538300000000000    0.0128500000000000    0.0992350000000000 H
   0.6198300000000000    0.1608400000000000    0.1462050000000000 H
   0.5880050000000000    0.2393500000000000    0.1060450000000000 H
   0.5249300000000000    0.0968900000000000    0.0597150000000000 H
   0.8299700000000000    0.0282400000000000    0.2333000000000000 H
   0.8048200000000000    0.8989100000000000    0.3457950000000000 H
   0.8339700000000000    0.8444300000000000    0.3684650000000000 H
   0.9343850000000000    0.8139700000000000    0.3036100000000000 H
   0.6790100000000000    0.9882600000000000    0.4005400000000000 H
   0.7445850000000001    0.8394900000000000    0.3537850000000000 H
   0.7125300000000000    0.7613600000000000    0.3939050000000000 H
   0.6498950000000000    0.9045900000000000    0.4400800000000000 H
   0.4550000000000000    0.9721400000000000    0.2667500000000000 H
   0.4296700000000000    0.1012500000000000    0.1541450000000000 H
   0.4587850000000000    0.1557000000000000    0.1314900000000000 H
   0.5592650000000000    0.1860800000000000    0.1964250000000000 H
   0.3038250000000000    0.0128500000000000    0.0992350000000000 H
   0.3698250000000000    0.1608400000000000    0.1462050000000000 H
   0.2749250000000000    0.0968900000000000    0.0597150000000000 H
   0.3380000000000000    0.2393500000000000    0.1060450000000000 H
   0.5799750000000000    0.0282400000000000    0.2333250000000000 H
   0.5548250000000000    0.8989100000000000    0.3457950000000000 H
   0.5839750000000000    0.8444300000000000    0.3684650000000000 H
   0.6843900000000001    0.8139700000000000    0.3036100000000000 H
   0.4290100000000000    0.9882600000000000    0.4005400000000000 H
   0.4945800000000000    0.8394900000000000    0.3537850000000000 H
   0.4625300000000000    0.7613600000000000    0.3939050000000000 H
   0.3998950000000000    0.9045900000000000    0.4400800000000000 H
   0.9550000000000001    0.9721400000000000    0.2667500000000000 H
   0.9296700000000000    0.1012500000000000    0.1541450000000000 H
   0.9587850000000000    0.1557000000000000    0.1314900000000000 H
   0.0592650000000000    0.1860800000000000    0.1964250000000000 H
   0.8038250000000000    0.0128500000000000    0.0992350000000000 H
   0.8698250000000001    0.1608400000000000    0.1462050000000000 H
   0.7749250000000000    0.0968900000000000    0.0597150000000000 H
   0.8380000000000001    0.2393500000000000    0.1060450000000000 H
   0.0799750000000000    0.0282400000000000    0.2333250000000000 H
   0.0548250000000000    0.8989100000000000    0.3457950000000000 H
   0.0839750000000000    0.8444300000000000    0.3684650000000000 H
   0.1843900000000000    0.8139700000000000    0.3036100000000000 H
   0.9290100000000000    0.9882600000000000    0.4005400000000000 H
   0.9945800000000000    0.8394900000000000    0.3537850000000000 H
   0.9625300000000000    0.7613600000000000    0.3939050000000000 H
   0.8998950000000000    0.9045900000000000    0.4400800000000000 H
   0.2050050000000000    0.9721400000000000    0.2667500000000000 H
   0.1796700000000000    0.1012500000000000    0.1541450000000000 H
   0.2087900000000000    0.1557000000000000    0.1314900000000000 H
   0.3092650000000000    0.1860800000000000    0.1964250000000000 H
   0.0538300000000000    0.0128500000000000    0.0992350000000000 H
   0.1198300000000000    0.1608400000000000    0.1462050000000000 H
   0.0880050000000000    0.2393500000000000    0.1060450000000000 H
   0.0249300000000000    0.0968900000000000    0.0597150000000000 H
   0.3299700000000000    0.0282400000000000    0.2333000000000000 H
   0.3048200000000000    0.8989100000000000    0.3457950000000000 H
   0.3339700000000000    0.8444300000000000    0.3684650000000000 H
   0.4343850000000000    0.8139700000000000    0.3036100000000000 H
   0.1790100000000000    0.9882600000000000    0.4005400000000000 H
   0.2445850000000000    0.8394900000000000    0.3537850000000000 H
   0.2125300000000000    0.7613600000000000    0.3939050000000000 H
   0.1498950000000000    0.9045900000000000    0.4400800000000000 H
   0.2048400000000000    0.7784000000000000    0.0166850000000000 H
   0.1798350000000000    0.6488200000000000    0.9044950000000000 H
   0.2091250000000000    0.5946399999999999    0.8819250000000001 H
   0.3099000000000000    0.5654800000000000    0.9467700000000000 H
   0.0539750000000000    0.7381600000000000    0.8493200000000001 H
   0.1197800000000000    0.5893900000000000    0.8962450000000000 H
   0.0878050000000000    0.5113700000000000    0.8561050000000000 H
   0.0249350000000000    0.6546000000000000    0.8097799999999999 H
   0.3298100000000000    0.7232499999999999    0.9832050000000000 H
   0.3048850000000000    0.8522500000000000    0.0954900000000000 H
   0.3340450000000000    0.9066100000000000    0.1181000000000000 H
   0.4347200000000000    0.9361900000000000    0.0530000000000000 H
   0.1789450000000000    0.7618600000000000    0.1507000000000000 H
   0.2445600000000000    0.9107400000000000    0.1039900000000000 H
   0.2125850000000000    0.9886800000000000    0.1441450000000000 H
   0.1499000000000000    0.8453500000000000    0.1903200000000000 H
   0.4548400000000000    0.7784000000000000    0.0166850000000000 H
   0.4298350000000000    0.6488200000000000    0.9044950000000000 H
   0.4591200000000000    0.5946399999999999    0.8819250000000001 H
   0.5599000000000000    0.5654700000000000    0.9467700000000000 H
   0.3039750000000000    0.7381700000000000    0.8492999999999999 H
   0.3697750000000000    0.5893900000000000    0.8962450000000000 H
   0.3378000000000000    0.5113700000000000    0.8561000000000001 H
   0.2749400000000000    0.6546100000000000    0.8097750000000000 H
   0.5798150000000000    0.7232499999999999    0.9832050000000000 H
   0.5548850000000000    0.8522500000000000    0.0954900000000000 H
   0.5840450000000000    0.9066100000000000    0.1181000000000000 H
   0.6847200000000000    0.9361900000000000    0.0533450000000000 H
   0.4289400000000000    0.7618600000000000    0.1507400000000000 H
   0.4945550000000000    0.9107400000000000    0.1039900000000000 H
   0.4625850000000000    0.9886700000000000    0.1441500000000000 H
   0.3999000000000000    0.8453500000000000    0.1903200000000000 H
   0.7048400000000000    0.7784000000000000    0.0166850000000000 H
   0.6798350000000000    0.6488200000000000    0.9044950000000000 H
   0.7091250000000000    0.5946399999999999    0.8819250000000001 H
   0.8099000000000001    0.5654800000000000    0.9467700000000000 H
   0.5539750000000000    0.7381600000000000    0.8493200000000001 H
   0.6197800000000000    0.5893900000000000    0.8962450000000000 H
   0.5878050000000000    0.5113700000000000    0.8561050000000000 H
   0.5249350000000000    0.6546000000000000    0.8097799999999999 H
   0.7390763198670268    0.7872940679860838    0.0958309848439427 H
   0.8298099999999999    0.7232499999999999    0.9832050000000000 H
   0.8048850000000001    0.8522500000000000    0.0954900000000000 H
   0.8340449999999999    0.9066100000000000    0.1181000000000000 H
   0.9347200000000000    0.9361900000000000    0.0530000000000000 H
   0.9548400000000000    0.7784000000000000    0.0166850000000000 H
   0.9298350000000000    0.6488200000000000    0.9044950000000000 H
   0.9591200000000000    0.5946399999999999    0.8819250000000001 H
   0.0599000000000000    0.5654700000000000    0.9467700000000000 H
   0.8039750000000000    0.7381700000000000    0.8492999999999999 H