H6 O4
1.0
  14.7119789166401880    0.0000000000000000   -0.0249069535388512
  -0.0297035759860441   36.2599798588644120    0.0240485409343465
   0.0000000000000000    0.0000000000000000   25.1200000000000010
H O
6 4
direct
   1.1383262568051102    0.3825523354287347    0.6929821780156945 H
   0.2082457675372456    0.4785819066623347    0.6396689577741317 H
   1.1894202480882805    0.4347560789928424    0.6657333368311946 H
   0.8522145944570320    0.3701751601019664    0.6005962012134766 H
   0.7902935440156209    0.2781593173593828    0.6669098826826017 H
   0.8041592481156870    0.3200074020048239    0.6350024822373854 H
   1.1146300000000000    0.4044250000000000    0.6755900000000000 O
   0.1621800000000000    0.4599000000000000    0.6457400000000000 O
   0.8795500000000001    0.3499500000000000    0.6201800000000000 O
   0.8361200000000000    0.2963600000000000    0.6579000000000000 O
