P2 H4 C2 O6
1.0
  19.7959974642982459    0.0000000000000000    0.0100196555552049
  -0.4600206363705521   16.5516054419755925    0.0101147059850220
   0.0000000000000000    0.0000000000000000   24.3739999999999988
P H C O
2 4 2 6
direct
   0.7475600000000000    0.3837700000000000    0.2408650000000000 P
   0.7524250000000000    0.1162100000000000    0.2591150000000000 P
   0.6757000000000000    0.2715700000000000    0.2620900000000000 H
   0.7430350000000000    0.2822200000000000    0.3092900000000000 H
   0.8242800000000000    0.2284200000000000    0.2378900000000000 H
   0.7569450000000000    0.2177600000000000    0.1906950000000000 H
   0.7305699999999999    0.2823800000000000    0.2653200000000000 C
   0.7694099999999999    0.2176000000000000    0.2346600000000000 C
   0.6996800000000000    0.4405800000000000    0.2702850000000000 O
   0.8223000000000000    0.4036800000000000    0.2519150000000000 O
   0.7345300000000000    0.3801900000000000    0.1772250000000000 O
   0.8003000000000000    0.0594100000000000    0.2296950000000000 O
   0.6776800000000001    0.0963000000000000    0.2480700000000000 O
   0.7654500000000000    0.1198000000000000    0.3227500000000000 O
