Al64 P62 H130 C62 O190 F64
1.0
  19.7959974642982459    0.0000000000000000    0.0100196555552049
  -0.4600206363705521   16.5516054419755925    0.0101147059850220
   0.0000000000000000    0.0000000000000000   24.3739999999999988
Al P H C O F
64 62 130 62 190 64
direct
   0.4411400000000000    0.4308400000000000    0.6249900000000000 Al
   0.5588400000000000    0.0691500000000000    0.3749950000000000 Al
   0.4411400000000000    0.4308400000000000    0.1249900000000000 Al
   0.5588400000000000    0.0691500000000000    0.8749950000000000 Al
   0.6249950000000000    0.0000000000000000    0.0000000000000000 Al
   0.6249950000000000    0.0000000000000000    0.5000000000000000 Al
   0.3749850000000000    0.4999800000000000    0.2499900000000000 Al
   0.3749850000000000    0.4999800000000000    0.7499899999999999 Al
   0.3088300000000000    0.5691300000000000    0.3749950000000000 Al
   0.1911450000000000    0.9308200000000000    0.6249900000000000 Al
   0.3088300000000000    0.5691300000000000    0.8749950000000000 Al
   0.1911450000000000    0.9308200000000000    0.1249900000000000 Al
   0.3749850000000000    0.4999800000000000    0.4999850000000000 Al
   0.3749850000000000    0.4999800000000000    0.9999850000000000 Al
   0.6249950000000000    0.0000000000000000    0.2499900000000000 Al
   0.6249950000000000    0.0000000000000000    0.7499899999999999 Al
   0.9411400000000000    0.4308400000000000    0.6249900000000000 Al
   0.0588400000000000    0.0691500000000000    0.3749950000000000 Al
   0.9411400000000000    0.4308400000000000    0.1249900000000000 Al
   0.0588400000000000    0.0691500000000000    0.8749950000000000 Al
   0.1249950000000000    0.0000000000000000    0.0000000000000000 Al
   0.1249950000000000    0.0000000000000000    0.5000000000000000 Al
   0.8749850000000000    0.4999800000000000    0.2499900000000000 Al
   0.8749850000000000    0.4999800000000000    0.7499899999999999 Al
   0.8088299999999999    0.5691300000000000    0.3749950000000000 Al
   0.6911450000000000    0.9308200000000000    0.6249900000000000 Al
   0.8088299999999999    0.5691300000000000    0.8749950000000000 Al
   0.6911450000000000    0.9308200000000000    0.1249900000000000 Al
   0.8749850000000000    0.4999800000000000    0.4999850000000000 Al
   0.8749850000000000    0.4999800000000000    0.9999850000000000 Al
   0.1249950000000000    0.0000000000000000    0.2499900000000000 Al
   0.1249950000000000    0.0000000000000000    0.7499899999999999 Al
   0.4411350000000000    0.9308200000000000    0.1249900000000000 Al
   0.5588400000000000    0.5691300000000000    0.8749899999999999 Al
   0.4411350000000000    0.9308200000000000    0.6249900000000000 Al
   0.5588400000000000    0.5691300000000000    0.3749900000000000 Al
   0.6249950000000000    0.4999900000000000    0.0000000000000000 Al
   0.6249950000000000    0.4999900000000000    0.5000000000000000 Al
   0.6911450000000000    0.4308400000000000    0.6249900000000000 Al
   0.8088350000000000    0.0691500000000000    0.3749900000000000 Al
   0.6911450000000000    0.4308400000000000    0.1249900000000000 Al
   0.8088350000000000    0.0691500000000000    0.8749899999999999 Al
   0.8749850000000000    0.0000000000000000    0.4999950000000000 Al
   0.8749850000000000    0.0000000000000000    0.9999950000000000 Al
   0.6249950000000000    0.4999800000000000    0.2499900000000000 Al
   0.6249950000000000    0.4999800000000000    0.7499899999999999 Al
   0.8749850000000000    0.0000000000000000    0.7499899999999999 Al
   0.8749850000000000    0.0000000000000000    0.2499900000000000 Al
   0.9411350000000001    0.9308200000000000    0.1249900000000000 Al
   0.0588400000000000    0.5691300000000000    0.8749899999999999 Al
   0.9411350000000001    0.9308200000000000    0.6249900000000000 Al
   0.0588400000000000    0.5691300000000000    0.3749900000000000 Al
   0.1249950000000000    0.4999900000000000    0.0000000000000000 Al
   0.1249950000000000    0.4999900000000000    0.5000000000000000 Al
   0.1911450000000000    0.4308400000000000    0.6249900000000000 Al
   0.3088350000000000    0.0691500000000000    0.3749900000000000 Al
   0.1911450000000000    0.4308400000000000    0.1249900000000000 Al
   0.3088350000000000    0.0691500000000000    0.8749899999999999 Al
   0.3749850000000000    0.0000000000000000    0.4999950000000000 Al
   0.3749850000000000    0.0000000000000000    0.9999950000000000 Al
   0.1249950000000000    0.4999800000000000    0.2499900000000000 Al
   0.1249950000000000    0.4999800000000000    0.7499899999999999 Al
   0.3749850000000000    0.0000000000000000    0.7499899999999999 Al
   0.3749850000000000    0.0000000000000000    0.2499900000000000 Al
   0.4974900000000000    0.3837000000000000    0.5091350000000000 P
   0.4975500000000000    0.3837700000000000    0.7408650000000000 P
   0.5024950000000000    0.1162800000000000    0.4908500000000000 P
   0.5024300000000000    0.1162100000000000    0.2591150000000000 P
   0.4974900000000000    0.3837000000000000    0.0091350000000000 P
   0.4975500000000000    0.3837700000000000    0.2408650000000000 P
   0.5024950000000000    0.1162800000000000    0.9908500000000000 P
   0.5024300000000000    0.1162100000000000    0.7591150000000000 P
   0.2524800000000000    0.6162700000000000    0.4908500000000000 P
   0.2524200000000000    0.6162000000000000    0.2591150000000000 P
   0.2474950000000000    0.8836900000000000    0.5091350000000000 P
   0.2475550000000000    0.8837500000000000    0.7408650000000000 P
   0.2524800000000000    0.6162700000000000    0.9908500000000000 P
   0.2524200000000000    0.6162000000000000    0.7591150000000000 P
   0.2474950000000000    0.8836900000000000    0.0091350000000000 P
   0.2475550000000000    0.8837500000000000    0.2408650000000000 P
   0.9974900000000000    0.3837000000000000    0.5091350000000000 P
   0.9975499999999999    0.3837700000000000    0.7408650000000000 P
   0.0024950000000000    0.1162800000000000    0.4908500000000000 P
   0.0024300000000000    0.1162100000000000    0.2591150000000000 P
   0.9974900000000000    0.3837000000000000    0.0091350000000000 P
   0.9975499999999999    0.3837700000000000    0.2408650000000000 P
   0.0024950000000000    0.1162800000000000    0.9908500000000000 P
   0.0024300000000000    0.1162100000000000    0.7591150000000000 P
   0.7524800000000000    0.6162700000000000    0.4908500000000000 P
   0.7524200000000000    0.6162000000000000    0.2591150000000000 P
   0.7474950000000000    0.8836900000000000    0.5091350000000000 P
   0.7475550000000000    0.8837500000000000    0.7408650000000000 P
   0.7524800000000000    0.6162700000000000    0.9908500000000000 P
   0.7524200000000000    0.6162000000000000    0.7591150000000000 P
   0.7474950000000000    0.8836900000000000    0.0091350000000000 P
   0.7475550000000000    0.8837500000000000    0.2408650000000000 P
   0.4974850000000000    0.8836900000000000    0.0091350000000000 P
   0.4975450000000000    0.8837600000000000    0.2408650000000000 P
   0.5024900000000000    0.6162700000000000    0.9908500000000000 P
   0.5024300000000000    0.6162000000000000    0.7591150000000000 P
   0.4974850000000000    0.8836900000000000    0.5091350000000000 P
   0.4975450000000000    0.8837600000000000    0.7408650000000000 P
   0.5024900000000000    0.6162700000000000    0.4908500000000000 P
   0.5024300000000000    0.6162000000000000    0.2591150000000000 P
   0.7474950000000000    0.3837000000000000    0.5091350000000000 P
   0.7475600000000000    0.3837700000000000    0.7408650000000000 P
   0.7524850000000001    0.1162800000000000    0.4908500000000000 P
   0.7474950000000000    0.3837000000000000    0.0091350000000000 P
   0.7524850000000001    0.1162800000000000    0.9908500000000000 P
   0.7524250000000000    0.1162100000000000    0.7591150000000000 P
   0.9974850000000000    0.8836900000000000    0.0091350000000000 P
   0.9975450000000000    0.8837600000000000    0.2408650000000000 P
   0.0024900000000000    0.6162700000000000    0.9908500000000000 P
   0.0024300000000000    0.6162000000000000    0.7591150000000000 P
   0.9974850000000000    0.8836900000000000    0.5091350000000000 P
   0.9975450000000000    0.8837600000000000    0.7408650000000000 P
   0.0024900000000000    0.6162700000000000    0.4908500000000000 P
   0.0024300000000000    0.6162000000000000    0.2591150000000000 P
   0.2474950000000000    0.3837000000000000    0.5091350000000000 P
   0.2475600000000000    0.3837700000000000    0.7408650000000000 P
   0.2524850000000000    0.1162800000000000    0.4908500000000000 P
   0.2524250000000000    0.1162100000000000    0.2591150000000000 P
   0.2474950000000000    0.3837000000000000    0.0091350000000000 P
   0.2475600000000000    0.3837700000000000    0.2408650000000000 P
   0.2524850000000000    0.1162800000000000    0.9908500000000000 P
   0.2524250000000000    0.1162100000000000    0.7591150000000000 P
   0.5742900000000000    0.2284200000000000    0.2378950000000000 H
   0.5069550000000000    0.2177600000000000    0.1906950000000000 H
   0.4256900000000000    0.2715700000000000    0.2620900000000000 H
   0.4930250000000000    0.2822200000000000    0.3092900000000000 H
   0.5742600000000000    0.2284500000000000    0.5121850000000000 H
   0.5067900000000000    0.2177200000000000    0.5593150000000000 H
   0.4257200000000000    0.2715300000000000    0.4878000000000000 H
   0.4931900000000000    0.2822700000000000    0.4406500000000000 H
   0.5742900000000000    0.2284200000000000    0.7378950000000000 H
   0.5069550000000000    0.2177600000000000    0.6906950000000001 H
   0.4256900000000000    0.2715700000000000    0.7620899999999999 H
   0.4930250000000000    0.2822200000000000    0.8092900000000001 H
   0.5742600000000000    0.2284500000000000    0.0121850000000000 H
   0.5067900000000000    0.2177200000000000    0.0593150000000000 H
   0.4257200000000000    0.2715300000000000    0.9878000000000000 H
   0.4931900000000000    0.2822700000000000    0.9406500000000000 H
   0.3242500000000000    0.7284400000000000    0.5121850000000000 H
   0.2567800000000000    0.7177000000000000    0.5593150000000000 H
   0.1757250000000000    0.7715200000000000    0.4878000000000000 H
   0.2431950000000000    0.7822500000000000    0.4406500000000000 H
   0.3242750000000000    0.7284000000000000    0.7378950000000000 H
   0.2569450000000000    0.7177500000000000    0.6906950000000001 H
   0.1757000000000000    0.7715500000000000    0.7620899999999999 H
   0.2430300000000000    0.7822100000000000    0.8092900000000001 H
   0.3242500000000000    0.7284400000000000    0.0121850000000000 H
   0.2567800000000000    0.7177000000000000    0.0593150000000000 H
   0.1757250000000000    0.7715200000000000    0.9878000000000000 H
   0.2431950000000000    0.7822500000000000    0.9406500000000000 H
   0.3242750000000000    0.7284000000000000    0.2378950000000000 H
   0.2569450000000000    0.7177500000000000    0.1906950000000000 H
   0.1757000000000000    0.7715500000000000    0.2620900000000000 H
   0.2430300000000000    0.7822100000000000    0.3092900000000000 H
   0.0742900000000000    0.2284200000000000    0.2378950000000000 H
   0.0069550000000000    0.2177600000000000    0.1906950000000000 H
   0.9256900000000000    0.2715700000000000    0.2620900000000000 H
   0.9930250000000000    0.2822200000000000    0.3092900000000000 H
   0.0742600000000000    0.2284500000000000    0.5121850000000000 H
   0.0067900000000000    0.2177200000000000    0.5593150000000000 H
   0.9257200000000000    0.2715300000000000    0.4878000000000000 H
   0.9931900000000000    0.2822700000000000    0.4406500000000000 H
   0.0742900000000000    0.2284200000000000    0.7378950000000000 H
   0.0069550000000000    0.2177600000000000    0.6906950000000001 H
   0.9256900000000000    0.2715700000000000    0.7620899999999999 H
   0.9930250000000000    0.2822200000000000    0.8092900000000001 H
   0.0742600000000000    0.2284500000000000    0.0121850000000000 H
   0.0067900000000000    0.2177200000000000    0.0593150000000000 H
   0.9257200000000000    0.2715300000000000    0.9878000000000000 H
   0.9931900000000000    0.2822700000000000    0.9406500000000000 H
   0.8242499999999999    0.7284400000000000    0.5121850000000000 H
   0.7567800000000000    0.7177000000000000    0.5593150000000000 H
   0.6757250000000000    0.7715200000000000    0.4878000000000000 H
   0.7431950000000001    0.7822500000000000    0.4406500000000000 H
   0.8242750000000000    0.7284000000000000    0.7378950000000000 H
   0.7569450000000000    0.7177500000000000    0.6906950000000001 H
   0.6757000000000000    0.7715500000000000    0.7620899999999999 H
   0.7430300000000000    0.7822100000000000    0.8092900000000001 H
   0.8242499999999999    0.7284400000000000    0.0121850000000000 H
   0.7567800000000000    0.7177000000000000    0.0593150000000000 H
   0.6757250000000000    0.7715200000000000    0.9878000000000000 H
   0.7431950000000001    0.7822500000000000    0.9406500000000000 H
   0.8242750000000000    0.7284000000000000    0.2378950000000000 H
   0.7569450000000000    0.7177500000000000    0.1906950000000000 H
   0.6757000000000000    0.7715500000000000    0.2620900000000000 H
   0.7430300000000000    0.7822100000000000    0.3092900000000000 H
   0.4256900000000000    0.7715500000000000    0.2620900000000000 H
   0.4930250000000000    0.7822000000000000    0.3092900000000000 H
   0.5742850000000000    0.7284000000000000    0.2378900000000000 H
   0.5069500000000000    0.7177500000000000    0.1906500000000000 H
   0.5742600000000000    0.7284400000000000    0.0121800000000000 H
   0.5067900000000000    0.7177000000000000    0.0593150000000000 H
   0.4257200000000000    0.7715200000000000    0.9878000000000000 H
   0.4931900000000000    0.7822500000000000    0.9406650000000000 H
   0.4256900000000000    0.7715500000000000    0.7620899999999999 H
   0.4930250000000000    0.7822000000000000    0.8092900000000001 H
   0.5742850000000000    0.7284000000000000    0.7378899999999999 H
   0.5069500000000000    0.7177500000000000    0.6906500000000000 H
   0.5742600000000000    0.7284400000000000    0.5121800000000000 H
   0.5067900000000000    0.7177000000000000    0.5593150000000000 H
   0.4257200000000000    0.7715200000000000    0.4878000000000000 H
   0.4931900000000000    0.7822500000000000    0.4406650000000000 H
   0.8242499999999999    0.2284500000000000    0.5121800000000000 H
   0.7567850000000000    0.2177200000000000    0.5593150000000000 H
   0.6757299999999999    0.2715300000000000    0.4878000000000000 H
   0.7432000000000000    0.2822700000000000    0.4406650000000000 H
   0.7351921869161007    0.1568434422556200    0.3404168220705676 H
   0.7925148912783291    0.0582564544278650    0.1904119875740866 H
   0.7525353326658951    0.1178863905885625    0.2575836605820336 H
   0.8242800000000000    0.2284200000000000    0.7378899999999999 H
   0.7569450000000000    0.2177600000000000    0.6906950000000001 H
   0.6757000000000000    0.2715700000000000    0.7620899999999999 H
   0.7430350000000000    0.2822200000000000    0.8092900000000001 H
   0.7647887862611783    0.3431477128307530    0.1595581597722084 H
   0.7074669727281968    0.4417328419154303    0.3095677765039667 H
   0.7474485508930842    0.3821025592802243    0.2423949402581130 H
   0.8242499999999999    0.2284500000000000    0.0121800000000000 H
   0.7567850000000000    0.2177200000000000    0.0593150000000000 H
   0.6757299999999999    0.2715300000000000    0.9878000000000000 H
   0.7432000000000000    0.2822700000000000    0.9406650000000000 H
   0.9256900000000000    0.7715500000000000    0.2620900000000000 H
   0.9930250000000000    0.7822000000000000    0.3092900000000000 H
   0.0742850000000000    0.7284000000000000    0.2378900000000000 H
   0.0069500000000000    0.7177500000000000    0.1906500000000000 H
   0.0742600000000000    0.7284400000000000    0.0121800000000000 H
   0.0067900000000000    0.7177000000000000    0.0593150000000000 H
   0.9257200000000000    0.7715200000000000    0.9878000000000000 H
   0.9931900000000000    0.7822500000000000    0.9406650000000000 H
   0.9256900000000000    0.7715500000000000    0.7620899999999999 H
   0.9930250000000000    0.7822000000000000    0.8092900000000001 H
   0.0742850000000000    0.7284000000000000    0.7378899999999999 H
   0.0069500000000000    0.7177500000000000    0.6906500000000000 H
   0.0742600000000000    0.7284400000000000    0.5121800000000000 H
   0.0067900000000000    0.7177000000000000    0.5593150000000000 H
   0.9257200000000000    0.7715200000000000    0.4878000000000000 H
   0.9931900000000000    0.7822500000000000    0.4406650000000000 H
   0.3242800000000000    0.2284200000000000    0.2378900000000000 H
   0.2569450000000000    0.2177600000000000    0.1906950000000000 H
   0.1757000000000000    0.2715700000000000    0.2620900000000000 H
   0.2430350000000000    0.2822200000000000    0.3092900000000000 H
   0.3242500000000000    0.2284500000000000    0.5121800000000000 H
   0.2567850000000000    0.2177200000000000    0.5593150000000000 H
   0.1757300000000000    0.2715300000000000    0.4878000000000000 H
   0.2432000000000000    0.2822700000000000    0.4406650000000000 H
   0.3242800000000000    0.2284200000000000    0.7378899999999999 H
   0.2569450000000000    0.2177600000000000    0.6906950000000001 H
   0.1757000000000000    0.2715700000000000    0.7620899999999999 H
   0.2430350000000000    0.2822200000000000    0.8092900000000001 H
   0.3242500000000000    0.2284500000000000    0.0121800000000000 H
   0.2567850000000000    0.2177200000000000    0.0593150000000000 H
   0.1757300000000000    0.2715300000000000    0.9878000000000000 H
   0.2432000000000000    0.2822700000000000    0.9406650000000000 H
   0.5194200000000000    0.2176000000000000    0.2346600000000000 C
   0.4805600000000000    0.2823800000000000    0.2653250000000000 C
   0.5193850000000000    0.2176000000000000    0.5153650000000000 C
   0.4805950000000000    0.2823800000000000    0.4846200000000000 C
   0.5194200000000000    0.2176000000000000    0.7346600000000000 C
   0.4805600000000000    0.2823800000000000    0.7653250000000000 C
   0.5193850000000000    0.2176000000000000    0.0153650000000000 C
   0.4805950000000000    0.2823800000000000    0.9846200000000001 C
   0.2693750000000000    0.7175900000000000    0.5153650000000000 C
   0.2306000000000000    0.7823700000000000    0.4846200000000000 C
   0.2694050000000000    0.7175900000000000    0.7346600000000000 C
   0.2305700000000000    0.7823700000000000    0.7653250000000000 C
   0.2693750000000000    0.7175900000000000    0.0153650000000000 C
   0.2306000000000000    0.7823700000000000    0.9846200000000001 C
   0.2694050000000000    0.7175900000000000    0.2346600000000000 C
   0.2305700000000000    0.7823700000000000    0.2653250000000000 C
   0.0194200000000000    0.2176000000000000    0.2346600000000000 C
   0.9805600000000000    0.2823800000000000    0.2653250000000000 C
   0.0193850000000000    0.2176000000000000    0.5153650000000000 C
   0.9805950000000000    0.2823800000000000    0.4846200000000000 C
   0.0194200000000000    0.2176000000000000    0.7346600000000000 C
   0.9805600000000000    0.2823800000000000    0.7653250000000000 C
   0.0193850000000000    0.2176000000000000    0.0153650000000000 C
   0.9805950000000000    0.2823800000000000    0.9846200000000001 C
   0.7693749999999999    0.7175900000000000    0.5153650000000000 C
   0.7306000000000000    0.7823700000000000    0.4846200000000000 C
   0.7694050000000000    0.7175900000000000    0.7346600000000000 C
   0.7305699999999999    0.7823700000000000    0.7653250000000000 C
   0.7693749999999999    0.7175900000000000    0.0153650000000000 C
   0.7306000000000000    0.7823700000000000    0.9846200000000001 C
   0.7694050000000000    0.7175900000000000    0.2346600000000000 C
   0.7305699999999999    0.7823700000000000    0.2653250000000000 C
   0.4805600000000000    0.7823700000000000    0.2653200000000000 C
   0.5194150000000000    0.7175900000000000    0.2346600000000000 C
   0.5193800000000000    0.7175900000000000    0.0153650000000000 C
   0.4805950000000000    0.7823700000000000    0.9846150000000000 C
   0.4805600000000000    0.7823700000000000    0.7653200000000000 C
   0.5194150000000000    0.7175900000000000    0.7346600000000000 C
   0.5193800000000000    0.7175900000000000    0.5153650000000000 C
   0.4805950000000000    0.7823700000000000    0.4846150000000000 C
   0.7693749999999999    0.2176000000000000    0.5153650000000000 C
   0.7306049999999999    0.2823800000000000    0.4846150000000000 C
   0.7694099999999999    0.2176000000000000    0.7346600000000000 C
   0.7305699999999999    0.2823800000000000    0.7653200000000000 C
   0.7693749999999999    0.2176000000000000    0.0153650000000000 C
   0.7306049999999999    0.2823800000000000    0.9846150000000000 C
   0.9805600000000000    0.7823700000000000    0.2653200000000000 C
   0.0194150000000000    0.7175900000000000    0.2346600000000000 C
   0.0193800000000000    0.7175900000000000    0.0153650000000000 C
   0.9805950000000000    0.7823700000000000    0.9846150000000000 C
   0.9805600000000000    0.7823700000000000    0.7653200000000000 C
   0.0194150000000000    0.7175900000000000    0.7346600000000000 C
   0.0193800000000000    0.7175900000000000    0.5153650000000000 C
   0.9805950000000000    0.7823700000000000    0.4846150000000000 C
   0.2694100000000000    0.2176000000000000    0.2346600000000000 C
   0.2305700000000000    0.2823800000000000    0.2653200000000000 C
   0.2693750000000000    0.2176000000000000    0.5153650000000000 C
   0.2306050000000000    0.2823800000000000    0.4846150000000000 C
   0.2694100000000000    0.2176000000000000    0.7346600000000000 C
   0.2305700000000000    0.2823800000000000    0.7653200000000000 C
   0.2693750000000000    0.2176000000000000    0.0153650000000000 C
   0.2306050000000000    0.2823800000000000    0.9846150000000000 C
   0.5722750000000000    0.4037000000000000    0.4981650000000000 O
   0.4496800000000000    0.4405900000000000    0.4796900000000000 O
   0.4842200000000000    0.3798200000000000    0.5727500000000000 O
   0.5723100000000000    0.4036800000000000    0.7519150000000000 O
   0.4496750000000000    0.4405800000000000    0.7702500000000000 O
   0.4845200000000000    0.3801800000000000    0.6772250000000000 O
   0.4277100000000000    0.0962900000000000    0.5018150000000000 O
   0.5503000000000000    0.0593900000000000    0.5202500000000000 O
   0.5157650000000000    0.1201700000000000    0.4272300000000000 O
   0.4276700000000000    0.0963000000000000    0.2480700000000000 O
   0.5503100000000000    0.0594100000000000    0.2296950000000000 O
   0.5154600000000000    0.1197900000000000    0.3227600000000000 O
   0.5722750000000000    0.4037000000000000    0.9981650000000000 O
   0.4496800000000000    0.4405900000000000    0.9796899999999999 O
   0.4842200000000000    0.3798200000000000    0.0727500000000000 O
   0.5723100000000000    0.4036800000000000    0.2519150000000000 O
   0.4496750000000000    0.4405800000000000    0.2702500000000000 O
   0.4845200000000000    0.3801800000000000    0.1772250000000000 O
   0.4277100000000000    0.0962900000000000    0.0018150000000000 O
   0.5503000000000000    0.0593900000000000    0.0202500000000000 O
   0.5157650000000000    0.1201700000000000    0.9272300000000000 O
   0.4276700000000000    0.0963000000000000    0.7480700000000000 O
   0.5503100000000000    0.0594100000000000    0.7296950000000000 O
   0.5154600000000000    0.1197900000000000    0.8227599999999999 O
   0.1777150000000000    0.5962700000000000    0.5018000000000000 O
   0.3002850000000000    0.5593800000000000    0.5202500000000000 O
   0.2657500000000000    0.6201600000000000    0.4272300000000000 O
   0.1776750000000000    0.5962900000000000    0.2480700000000000 O
   0.3002950000000000    0.5593900000000001    0.2296950000000000 O
   0.2654450000000000    0.6197800000000000    0.3227600000000000 O
   0.3222600000000000    0.9036800000000000    0.4981650000000000 O
   0.1996850000000000    0.9405800000000000    0.4796900000000000 O
   0.2342300000000000    0.8798000000000000    0.5727500000000000 O
   0.3223000000000000    0.9036700000000000    0.7519150000000000 O
   0.1996800000000000    0.9405600000000000    0.7702500000000000 O
   0.2345250000000000    0.8801700000000000    0.6772250000000000 O
   0.1777150000000000    0.5962700000000000    0.0018000000000000 O
   0.3002850000000000    0.5593800000000000    0.0202500000000000 O
   0.2657500000000000    0.6201600000000000    0.9272300000000000 O
   0.1776750000000000    0.5962900000000000    0.7480700000000000 O
   0.3002950000000000    0.5593900000000001    0.7296950000000000 O
   0.2654450000000000    0.6197800000000000    0.8227599999999999 O
   0.3222600000000000    0.9036800000000000    0.9981650000000000 O
   0.1996850000000000    0.9405800000000000    0.9796899999999999 O
   0.2342300000000000    0.8798000000000000    0.0727500000000000 O
   0.3223000000000000    0.9036700000000000    0.2519150000000000 O
   0.1996800000000000    0.9405600000000000    0.2702500000000000 O
   0.2345250000000000    0.8801700000000000    0.1772250000000000 O
   0.0722750000000000    0.4037000000000000    0.4981650000000000 O
   0.9496800000000001    0.4405900000000000    0.4796900000000000 O
   0.9842200000000000    0.3798200000000000    0.5727500000000000 O
   0.0723100000000000    0.4036800000000000    0.7519150000000000 O
   0.9496750000000000    0.4405800000000000    0.7702500000000000 O
   0.9845200000000001    0.3801800000000000    0.6772250000000000 O
   0.9277100000000000    0.0962900000000000    0.5018150000000000 O
   0.0503000000000000    0.0593900000000000    0.5202500000000000 O
   0.0157650000000000    0.1201700000000000    0.4272300000000000 O
   0.9276700000000000    0.0963000000000000    0.2480700000000000 O
   0.0503100000000000    0.0594100000000000    0.2296950000000000 O
   0.0154600000000000    0.1197900000000000    0.3227600000000000 O
   0.0722750000000000    0.4037000000000000    0.9981650000000000 O
   0.9496800000000001    0.4405900000000000    0.9796899999999999 O
   0.9842200000000000    0.3798200000000000    0.0727500000000000 O
   0.0723100000000000    0.4036800000000000    0.2519150000000000 O
   0.9496750000000000    0.4405800000000000    0.2702500000000000 O
   0.9845200000000001    0.3801800000000000    0.1772250000000000 O
   0.9277100000000000    0.0962900000000000    0.0018150000000000 O
   0.0503000000000000    0.0593900000000000    0.0202500000000000 O
   0.0157650000000000    0.1201700000000000    0.9272300000000000 O
   0.9276700000000000    0.0963000000000000    0.7480700000000000 O
   0.0503100000000000    0.0594100000000000    0.7296950000000000 O
   0.0154600000000000    0.1197900000000000    0.8227599999999999 O
   0.6777150000000001    0.5962700000000000    0.5018000000000000 O
   0.8002850000000000    0.5593800000000000    0.5202500000000000 O
   0.7657499999999999    0.6201600000000000    0.4272300000000000 O
   0.6776750000000000    0.5962900000000000    0.2480700000000000 O
   0.8002950000000000    0.5593900000000001    0.2296950000000000 O
   0.7654449999999999    0.6197800000000000    0.3227600000000000 O
   0.8222600000000000    0.9036800000000000    0.4981650000000000 O
   0.6996850000000000    0.9405800000000000    0.4796900000000000 O
   0.7342299999999999    0.8798000000000000    0.5727500000000000 O
   0.8223000000000000    0.9036700000000000    0.7519150000000000 O
   0.6996800000000000    0.9405600000000000    0.7702500000000000 O
   0.7345250000000000    0.8801700000000000    0.6772250000000000 O
   0.6777150000000001    0.5962700000000000    0.0018000000000000 O
   0.8002850000000000    0.5593800000000000    0.0202500000000000 O
   0.7657499999999999    0.6201600000000000    0.9272300000000000 O
   0.6776750000000000    0.5962900000000000    0.7480700000000000 O
   0.8002950000000000    0.5593900000000001    0.7296950000000000 O
   0.7654449999999999    0.6197800000000000    0.8227599999999999 O
   0.8222600000000000    0.9036800000000000    0.9981650000000000 O
   0.6996850000000000    0.9405800000000000    0.9796899999999999 O
   0.7342299999999999    0.8798000000000000    0.0727500000000000 O
   0.8223000000000000    0.9036700000000000    0.2519150000000000 O
   0.6996800000000000    0.9405600000000000    0.2702500000000000 O
   0.7345250000000000    0.8801700000000000    0.1772250000000000 O
   0.5722700000000001    0.9036800000000000    0.9981650000000000 O
   0.4496800000000000    0.9405800000000000    0.9796899999999999 O
   0.4842150000000000    0.8798000000000000    0.0727500000000000 O
   0.5723100000000000    0.9036700000000000    0.2519150000000000 O
   0.4496700000000000    0.9405600000000000    0.2702850000000000 O
   0.4845200000000000    0.8801700000000000    0.1772250000000000 O
   0.4277050000000000    0.5962700000000000    0.0018200000000000 O
   0.5502950000000000    0.5593800000000000    0.0202900000000000 O
   0.5157550000000000    0.6201600000000000    0.9272300000000000 O
   0.4276650000000000    0.5962900000000000    0.7480700000000000 O
   0.5503050000000000    0.5593900000000001    0.7296950000000000 O
   0.5154600000000000    0.6197900000000000    0.8227500000000000 O
   0.5722700000000001    0.9036800000000000    0.4981650000000000 O
   0.4496800000000000    0.9405800000000000    0.4796900000000000 O
   0.4842150000000000    0.8798000000000000    0.5727500000000000 O
   0.5723100000000000    0.9036700000000000    0.7519150000000000 O
   0.4496700000000000    0.9405600000000000    0.7702850000000000 O
   0.4845200000000000    0.8801700000000000    0.6772250000000000 O
   0.4277050000000000    0.5962700000000000    0.5018200000000000 O
   0.5502950000000000    0.5593800000000000    0.5202900000000000 O
   0.5157550000000000    0.6201600000000000    0.4272300000000000 O
   0.4276650000000000    0.5962900000000000    0.2480700000000000 O