Zn48 H955 C1330 N95 O193
1.0
  34.3419182239313514    0.0000000000000000    4.1017128983891036
   7.7204139395277878   34.4106173453023416   17.0422077946938089
   0.0000000000000000    0.0000000000000000   30.0820000000000007
Zn H C N O
48 955 1330 95 193
direct
   0.1985150000000000    0.3659066666666667    0.9099550000000001 Zn
   0.8266000000000000    0.6369333333333334    0.5907950000000000 Zn
   0.4485200000000000    0.6992400000000000    0.9099550000000001 Zn
   0.0765950000000000    0.9702666666666666    0.5907950000000000 Zn
   0.9485200000000000    0.0325733333333333    0.9099550000000001 Zn
   0.5765950000000000    0.3036000000000000    0.5907950000000000 Zn
   0.6985150000000000    0.6992400000000000    0.9099550000000001 Zn
   0.3266000000000000    0.9702666666666666    0.5907950000000000 Zn
   0.9485200000000000    0.3659066666666667    0.9099550000000001 Zn
   0.5765950000000000    0.6369333333333334    0.5907950000000000 Zn
   0.6985150000000000    0.0325733333333333    0.9099550000000001 Zn
   0.3266000000000000    0.3036000000000000    0.5907950000000000 Zn
   0.4485200000000000    0.0325733333333333    0.9099550000000001 Zn
   0.0765950000000000    0.3036000000000000    0.5907950000000000 Zn
   0.1985150000000000    0.6992400000000000    0.9099550000000001 Zn
   0.8266000000000000    0.9702666666666666    0.5907950000000000 Zn
   0.6985150000000000    0.3659066666666667    0.9099550000000001 Zn
   0.3266000000000000    0.6369333333333334    0.5907950000000000 Zn
   0.9485200000000000    0.6992400000000000    0.9099550000000001 Zn
   0.5765950000000000    0.9702666666666666    0.5907950000000000 Zn
   0.1985150000000000    0.0325733333333333    0.9099550000000001 Zn
   0.8266000000000000    0.3036000000000000    0.5907950000000000 Zn
   0.4485200000000000    0.3659066666666667    0.9099550000000001 Zn
   0.0765950000000000    0.6369333333333334    0.5907950000000000 Zn
   0.9485200000000000    0.0325733333333333    0.4099550000000000 Zn
   0.5765950000000000    0.3036000000000000    0.0907950000000000 Zn
   0.6985150000000000    0.6992400000000000    0.4099550000000000 Zn
   0.3266000000000000    0.9702666666666666    0.0907950000000000 Zn
   0.1985150000000000    0.3659066666666667    0.4099550000000000 Zn
   0.8266000000000000    0.6369333333333334    0.0907950000000000 Zn
   0.4485200000000000    0.6992400000000000    0.4099550000000000 Zn
   0.0765950000000000    0.9702666666666666    0.0907950000000000 Zn
   0.4485200000000000    0.3659066666666667    0.4099550000000000 Zn
   0.0765950000000000    0.6369333333333334    0.0907950000000000 Zn
   0.1985150000000000    0.0325733333333333    0.4099550000000000 Zn
   0.8266000000000000    0.3036000000000000    0.0907950000000000 Zn
   0.6985150000000000    0.3659066666666667    0.4099550000000000 Zn
   0.3266000000000000    0.6369333333333334    0.0907950000000000 Zn
   0.9485200000000000    0.6992400000000000    0.4099550000000000 Zn
   0.5765950000000000    0.9702666666666666    0.0907950000000000 Zn
   0.9485200000000000    0.3659066666666667    0.4099550000000000 Zn
   0.5765950000000000    0.6369333333333334    0.0907950000000000 Zn
   0.6985150000000000    0.0325733333333333    0.4099550000000000 Zn
   0.3266000000000000    0.3036000000000000    0.0907950000000000 Zn
   0.4485200000000000    0.0325733333333333    0.4099550000000000 Zn
   0.0765950000000000    0.3036000000000000    0.0907950000000000 Zn
   0.1985150000000000    0.6992400000000000    0.4099550000000000 Zn
   0.8266000000000000    0.9702666666666666    0.0907950000000000 Zn
   0.8341124948313970    0.0436323967357244    0.6199883268312870 H
   0.9283345152687091    0.2991743942953930    0.4843577874144294 H
   0.9340015708417373    0.2973246358478639    0.4292530775383468 H
   0.2990750000000000    0.5191933333333333    0.0823800000000000 H
   0.3204550000000000    0.5589800000000000    0.1163850000000000 H
   0.3023900000000000    0.6565299999999999    0.9827550000000000 H
   0.2803250000000000    0.6214666666666666    0.9426250000000000 H
   0.2672950000000000    0.5621499999999999    0.9467150000000000 H
   0.2756700000000000    0.4927133333333333    0.0491150000000000 H
   0.2286250000000000    0.4892900000000000    0.8811650000000000 H
   0.2530400000000000    0.5291166666666667    0.9123200000000000 H
   0.2303200000000000    0.3984833333333333    0.0278050000000000 H
   0.2547200000000000    0.4378700000000000    0.0600250000000000 H
   0.2614000000000000    0.3542766666666666    0.7444100000000000 H
   0.3256500000000000    0.3476600000000000    0.6992500000000000 H
   0.3876500000000000    0.3333333333333333    0.8232950000000000 H
   0.3226850000000000    0.3422500000000000    0.8679399999999999 H
   0.3829100000000000    0.3333333333333333    0.6703900000000000 H
   0.4257700000000000    0.3321900000000000    0.7563500000000001 H
   0.4236350000000000    0.3333333333333333    0.5986500000000000 H
   0.4830750000000000    0.3040466666666666    0.7354000000000001 H
   0.5472450000000000    0.2925566666666666    0.6924700000000000 H
   0.4904400000000000    0.3269800000000000    0.5608750000000000 H
   0.8562149999999999    0.7410200000000000    0.6197250000000000 H
   0.8794299999999999    0.8024899999999999    0.5881400000000000 H
   0.8551299999999999    0.7504733333333333    0.4722550000000000 H
   0.8782000000000000    0.8122833333333332    0.4395850000000000 H
   0.8955850000000001    0.8575166666666666    0.5544200000000000 H
   0.8979650000000000    0.8605366666666666    0.4500500000000000 H
   0.9072850000000000    0.9142500000000000    0.5591400000000000 H
   0.9221699999999999    0.9094233333333333    0.4164950000000000 H
   0.9416000000000000    0.9730966666666666    0.3825900000000000 H
   0.9267150000000000    0.9776199999999999    0.5189000000000000 H
   0.8866350000000001    0.5172300000000000    0.7558500000000000 H
   0.9498949999999999    0.4812600000000000    0.8013749999999999 H
   0.9506500000000000    0.5854933333333333    0.6309500000000000 H
   0.0146350000000000    0.5501366666666667    0.6759200000000000 H
   0.0064600000000000    0.4484566666666666    0.8302400000000000 H
   0.0512350000000000    0.5028266666666666    0.7435849999999999 H
   0.0456850000000000    0.4059500000000000    0.9019800000000000 H
   0.1080200000000000    0.4616200000000000    0.7653750000000000 H
   0.1713050000000000    0.4220466666666666    0.8085550000000000 H
   0.1117400000000000    0.3689800000000000    0.9400750000000000 H
   0.5490750000000000    0.8525266666666667    0.0823500000000000 H
   0.5704450000000000    0.8923133333333333    0.1163850000000000 H
   0.5523800000000000    0.9898633333333333    0.9827600000000001 H
   0.5303200000000000    0.9547999999999999    0.9426250000000000 H
   0.5172949999999999    0.8954833333333333    0.9467150000000000 H
   0.5256650000000000    0.8260500000000000    0.0491150000000000 H
   0.4786300000000000    0.8226233333333333    0.8811650000000000 H
   0.5030350000000000    0.8624499999999999    0.9123000000000000 H
   0.4803250000000000    0.7318166666666667    0.0278050000000000 H
   0.5047150000000000    0.7712033333333332    0.0600250000000000 H
   0.5114000000000000    0.6876066666666666    0.7444150000000000 H
   0.5756500000000000    0.6809900000000000    0.6992750000000000 H
   0.6376450000000000    0.6666666666666666    0.8232950000000000 H
   0.5726850000000000    0.6755866666666667    0.8679399999999999 H
   0.6329050000000001    0.6666666666666666    0.6703900000000000 H
   0.6757700000000000    0.6655233333333332    0.7563500000000001 H
   0.6736300000000000    0.6666666666666666    0.5986500000000000 H
   0.7330700000000000    0.6373799999999999    0.7354000000000001 H
   0.7972550000000000    0.6258899999999999    0.6924700000000000 H
   0.7404300000000000    0.6603100000000000    0.5608750000000000 H
   0.1062100000000000    0.0743533333333333    0.6197250000000000 H
   0.1294250000000000    0.1358233333333333    0.5881400000000000 H
   0.1051250000000000    0.0838066666666667    0.4722550000000000 H
   0.1281950000000000    0.1456166666666667    0.4395850000000000 H
   0.1455800000000000    0.1908500000000000    0.5544000000000000 H
   0.1479600000000000    0.1938700000000000    0.4500500000000000 H
   0.1572750000000000    0.2475866666666666    0.5591400000000000 H
   0.1721600000000000    0.2427566666666666    0.4164950000000000 H
   0.1915900000000000    0.3064300000000000    0.3825900000000000 H
   0.1767050000000000    0.3109533333333333    0.5189250000000000 H
   0.2006450000000000    0.9188266666666667    0.6309500000000000 H
   0.1366300000000000    0.8505666666666666    0.7558650000000000 H
   0.1998900000000000    0.8145933333333333    0.8013749999999999 H
   0.2646400000000000    0.8834700000000000    0.6758999999999999 H
   0.2564650000000000    0.7817833333333333    0.8302350000000001 H
   0.3012400000000000    0.8361600000000000    0.7435849999999999 H
   0.2956900000000000    0.7392833333333333    0.9019800000000000 H
   0.3580300000000000    0.7949499999999999    0.7653500000000000 H
   0.4213100000000000    0.7553833333333333    0.8085550000000000 H
   0.3617450000000000    0.7023166666666666    0.9400750000000000 H
   0.0490750000000000    0.1858600000000000    0.0823500000000000 H
   0.0704450000000000    0.2256466666666667    0.1163850000000000 H
   0.0523800000000000    0.3231966666666666    0.9827600000000001 H
   0.0303200000000000    0.2881333333333333    0.9426250000000000 H
   0.0172950000000000    0.2288166666666667    0.9467150000000000 H
   0.0256650000000000    0.1593833333333333    0.0491150000000000 H
   0.9786300000000000    0.1559566666666667    0.8811650000000000 H
   0.0030350000000000    0.1957833333333333    0.9123000000000000 H
   0.9803250000000000    0.0651500000000000    0.0278050000000000 H
   0.0047150000000000    0.1045366666666667    0.0600250000000000 H
   0.0114000000000000    0.0209400000000000    0.7444150000000000 H
   0.0756500000000000    0.0143233333333333    0.6992750000000000 H
   0.1376450000000000    0.0000000000000000    0.8232950000000000 H
   0.0726850000000000    0.0089200000000000    0.8679399999999999 H
   0.1329050000000000    0.0000000000000000    0.6703900000000000 H
   0.1757700000000000    0.9988566666666666    0.7563500000000001 H
   0.1736300000000000    0.0000000000000000    0.5986500000000000 H
   0.2330700000000000    0.9707133333333333    0.7354000000000001 H
   0.2972550000000000    0.9592233333333333    0.6924700000000000 H
   0.2404300000000000    0.9936433333333332    0.5608750000000000 H
   0.6062100000000000    0.4076866666666666    0.6197250000000000 H
   0.6294250000000000    0.4691566666666667    0.5881400000000000 H
   0.6051250000000000    0.4171400000000000    0.4722550000000000 H
   0.6281950000000001    0.4789500000000000    0.4395850000000000 H
   0.6455800000000000    0.5241833333333333    0.5544000000000000 H
   0.6479600000000000    0.5272033333333332    0.4500500000000000 H
   0.6572750000000001    0.5809200000000000    0.5591400000000000 H
   0.6721600000000000    0.5760900000000000    0.4164950000000000 H
   0.6915900000000000    0.6397633333333332    0.3825900000000000 H
   0.6767050000000000    0.6442866666666667    0.5189250000000000 H
   0.7006450000000000    0.2521600000000000    0.6309500000000000 H
   0.6366300000000000    0.1839000000000000    0.7558650000000000 H
   0.6998900000000000    0.1479266666666667    0.8013749999999999 H
   0.7646400000000000    0.2168033333333333    0.6758999999999999 H
   0.7564649999999999    0.1151166666666667    0.8302350000000001 H
   0.8012400000000000    0.1694933333333333    0.7435849999999999 H
   0.7956900000000000    0.0726166666666667    0.9019800000000000 H
   0.8580300000000001    0.1282833333333333    0.7653500000000000 H
   0.9213100000000001    0.0887166666666667    0.8085550000000000 H
   0.8617450000000000    0.0356500000000000    0.9400750000000000 H
   0.7990750000000000    0.8525266666666667    0.0823800000000000 H
   0.8204549999999999    0.8923133333333333    0.1163850000000000 H
   0.8023899999999999    0.9898633333333333    0.9827550000000000 H
   0.7803249999999999    0.9547999999999999    0.9426250000000000 H
   0.7672950000000001    0.8954833333333333    0.9467150000000000 H
   0.7756700000000001    0.8260466666666666    0.0491150000000000 H
   0.7286250000000000    0.8226233333333333    0.8811650000000000 H
   0.7530399999999999    0.8624499999999999    0.9123200000000000 H
   0.7303200000000000    0.7318166666666667    0.0278050000000000 H
   0.7547200000000001    0.7712033333333332    0.0600250000000000 H
   0.7614000000000001    0.6876099999999999    0.7444100000000000 H
   0.8256500000000000    0.6809933333333333    0.6992500000000000 H
   0.8876500000000001    0.6666666666666666    0.8232950000000000 H
   0.8226850000000000    0.6755833333333333    0.8679399999999999 H
   0.8829100000000000    0.6666666666666666    0.6703900000000000 H
   0.9257700000000000    0.6655233333333332    0.7563500000000001 H
   0.9236350000000000    0.6666666666666666    0.5986500000000000 H
   0.9830749999999999    0.6373799999999999    0.7354000000000001 H
   0.0472450000000000    0.6258899999999999    0.6924700000000000 H
   0.9904400000000000    0.6603133333333333    0.5608750000000000 H
   0.3562150000000000    0.0743533333333333    0.6197250000000000 H
   0.3794300000000000    0.1358233333333333    0.5881400000000000 H
   0.3551300000000000    0.0838066666666667    0.4722550000000000 H
   0.3782000000000000    0.1456166666666667    0.4395850000000000 H
   0.3955850000000000    0.1908500000000000    0.5544200000000000 H
   0.3979650000000000    0.1938700000000000    0.4500500000000000 H
   0.4072850000000000    0.2475833333333333    0.5591400000000000 H
   0.4221700000000000    0.2427566666666666    0.4164950000000000 H
   0.4416000000000000    0.3064300000000000    0.3825900000000000 H
   0.4267150000000000    0.3109533333333333    0.5189000000000000 H
   0.3866350000000000    0.8505633333333333    0.7558500000000000 H
   0.4498950000000000    0.8145933333333333    0.8013749999999999 H
   0.4506500000000000    0.9188266666666667    0.6309500000000000 H
   0.5146350000000000    0.8834700000000000    0.6759200000000000 H
   0.5064600000000000    0.7817900000000000    0.8302400000000000 H
   0.5512350000000000    0.8361600000000000    0.7435849999999999 H
   0.5456850000000000    0.7392833333333333    0.9019800000000000 H
   0.6080200000000000    0.7949533333333333    0.7653750000000000 H
   0.6713050000000000    0.7553799999999999    0.8085550000000000 H
   0.6117400000000000    0.7023133333333333    0.9400750000000000 H
   0.0490750000000000    0.5191933333333333    0.0823500000000000 H
   0.0704450000000000    0.5589800000000000    0.1163850000000000 H
   0.0523800000000000    0.6565299999999999    0.9827600000000001 H
   0.0303200000000000    0.6214666666666666    0.9426250000000000 H
   0.0172950000000000    0.5621499999999999    0.9467150000000000 H
   0.0256650000000000    0.4927166666666666    0.0491150000000000 H
   0.9786300000000000    0.4892900000000000    0.8811650000000000 H
   0.0030350000000000    0.5291166666666667    0.9123000000000000 H
   0.9803250000000000    0.3984833333333333    0.0278050000000000 H
   0.0047150000000000    0.4378700000000000    0.0600250000000000 H
   0.0114000000000000    0.3542733333333333    0.7444150000000000 H
   0.0756500000000000    0.3476566666666667    0.6992750000000000 H
   0.1376450000000000    0.3333333333333333    0.8232950000000000 H
   0.0726850000000000    0.3422533333333333    0.8679399999999999 H
   0.1329050000000000    0.3333333333333333    0.6703900000000000 H
   0.1757700000000000    0.3321900000000000    0.7563500000000001 H
   0.1736300000000000    0.3333333333333333    0.5986500000000000 H
   0.2330700000000000    0.3040466666666666    0.7354000000000001 H
   0.2972550000000000    0.2925566666666666    0.6924700000000000 H
   0.2404300000000000    0.3269766666666666    0.5608750000000000 H
   0.6062100000000000    0.7410200000000000    0.6197250000000000 H
   0.6294250000000000    0.8024899999999999    0.5881400000000000 H
   0.6051250000000000    0.7504733333333333    0.4722550000000000 H
   0.6281950000000001    0.8122833333333332    0.4395850000000000 H
   0.6455800000000000    0.8575166666666666    0.5544000000000000 H
   0.6479600000000000    0.8605366666666666    0.4500500000000000 H
   0.6572750000000001    0.9142533333333333    0.5591400000000000 H
   0.6721600000000000    0.9094233333333333    0.4164950000000000 H
   0.6915900000000000    0.9730966666666666    0.3825900000000000 H
   0.6767050000000000    0.9776199999999999    0.5189250000000000 H
   0.7006450000000000    0.5854933333333333    0.6309500000000000 H
   0.6366300000000000    0.5172333333333333    0.7558650000000000 H
   0.6998900000000000    0.4812600000000000    0.8013749999999999 H
   0.7646400000000000    0.5501366666666667    0.6758999999999999 H
   0.7564649999999999    0.4484500000000000    0.8302350000000001 H
   0.8012400000000000    0.5028266666666666    0.7435849999999999 H
   0.7956900000000000    0.4059500000000000    0.9019800000000000 H
   0.8580300000000001    0.4616166666666667    0.7653500000000000 H
   0.9213100000000001    0.4220500000000000    0.8085550000000000 H
   0.8617450000000000    0.3689833333333333    0.9400750000000000 H
   0.7990750000000000    0.1858600000000000    0.0823800000000000 H
   0.8204549999999999    0.2256466666666667    0.1163850000000000 H
   0.8023899999999999    0.3231966666666666    0.9827550000000000 H
   0.7803249999999999    0.2881333333333333    0.9426250000000000 H
   0.7672950000000001    0.2288166666666667    0.9467150000000000 H
   0.7756700000000001    0.1593800000000000    0.0491150000000000 H
   0.7286250000000000    0.1559566666666667    0.8811650000000000 H
   0.7530399999999999    0.1957833333333333    0.9123200000000000 H
   0.7303200000000000    0.0651500000000000    0.0278050000000000 H
   0.7547200000000001    0.1045366666666667    0.0600250000000000 H
   0.7614000000000001    0.0209433333333333    0.7444100000000000 H
   0.8256500000000000    0.0143266666666667    0.6992500000000000 H
   0.8876500000000001    0.0000000000000000    0.8232950000000000 H
   0.8226850000000000    0.0089166666666667    0.8679399999999999 H
   0.8829100000000000    0.0000000000000000    0.6703900000000000 H
   0.9257700000000000    0.9988566666666666    0.7563500000000001 H
   0.9236350000000000    0.0000000000000000    0.5986500000000000 H
   0.9830749999999999    0.9707133333333333    0.7354000000000001 H
   0.0472450000000000    0.9592233333333333    0.6924700000000000 H
   0.9904400000000000    0.9936466666666666    0.5608750000000000 H
   0.3562150000000000    0.4076866666666666    0.6197250000000000 H
   0.3794300000000000    0.4691566666666667    0.5881400000000000 H
   0.3551300000000000    0.4171400000000000    0.4722550000000000 H
   0.3782000000000000    0.4789500000000000    0.4395850000000000 H
   0.3955850000000000    0.5241833333333333    0.5544200000000000 H
   0.3979650000000000    0.5272033333333332    0.4500500000000000 H
   0.4072850000000000    0.5809166666666666    0.5591400000000000 H
   0.4221700000000000    0.5760900000000000    0.4164950000000000 H
   0.4416000000000000    0.6397633333333332    0.3825900000000000 H
   0.4267150000000000    0.6442866666666667    0.5189000000000000 H
   0.3866350000000000    0.1838966666666667    0.7558500000000000 H
   0.4498950000000000    0.1479266666666667    0.8013749999999999 H
   0.4506500000000000    0.2521600000000000    0.6309500000000000 H
   0.5146350000000000    0.2168033333333333    0.6759200000000000 H
   0.5064600000000000    0.1151233333333333    0.8302400000000000 H
   0.5512350000000000    0.1694933333333333    0.7435849999999999 H
   0.5456850000000000    0.0726166666666667    0.9019800000000000 H
   0.6080200000000000    0.1282866666666667    0.7653750000000000 H
   0.6713050000000000    0.0887133333333333    0.8085550000000000 H
   0.6117400000000000    0.0356466666666667    0.9400750000000000 H
   0.5490750000000000    0.1858600000000000    0.0823500000000000 H
   0.5704450000000000    0.2256466666666667    0.1163850000000000 H
   0.5523800000000000    0.3231966666666666    0.9827600000000001 H
   0.5303200000000000    0.2881333333333333    0.9426250000000000 H
   0.5172949999999999    0.2288166666666667    0.9467150000000000 H
   0.5256650000000000    0.1593833333333333    0.0491150000000000 H
   0.4786300000000000    0.1559566666666667    0.8811650000000000 H
   0.5030350000000000    0.1957833333333333    0.9123000000000000 H
   0.4803250000000000    0.0651500000000000    0.0278050000000000 H
   0.5047150000000000    0.1045366666666667    0.0600250000000000 H
   0.5114000000000000    0.0209400000000000    0.7444150000000000 H
   0.5756500000000000    0.0143233333333333    0.6992750000000000 H
   0.6376450000000000    0.0000000000000000    0.8232950000000000 H
   0.5726850000000000    0.0089200000000000    0.8679399999999999 H
   0.6329050000000001    0.0000000000000000    0.6703900000000000 H
   0.6757700000000000    0.9988566666666666    0.7563500000000001 H
   0.6736300000000000    0.0000000000000000    0.5986500000000000 H
   0.7330700000000000    0.9707133333333333    0.7354000000000001 H
   0.7972550000000000    0.9592233333333333    0.6924700000000000 H
   0.7404300000000000    0.9936433333333332    0.5608750000000000 H
   0.1062100000000000    0.4076866666666666    0.6197250000000000 H
   0.1294250000000000    0.4691566666666667    0.5881400000000000 H
   0.1051250000000000    0.4171400000000000    0.4722550000000000 H
   0.1281950000000000    0.4789500000000000    0.4395850000000000 H
   0.1455800000000000    0.5241833333333333    0.5544000000000000 H
   0.1479600000000000    0.5272033333333332    0.4500500000000000 H
   0.1572750000000000    0.5809200000000000    0.5591400000000000 H
   0.1721600000000000    0.5760900000000000    0.4164950000000000 H
   0.1915900000000000    0.6397633333333332    0.3825900000000000 H
   0.1767050000000000    0.6442866666666667    0.5189250000000000 H
   0.2006450000000000    0.2521600000000000    0.6309500000000000 H
   0.1366300000000000    0.1839000000000000    0.7558650000000000 H
   0.1998900000000000    0.1479266666666667    0.8013749999999999 H
   0.2646400000000000    0.2168033333333333    0.6758999999999999 H
   0.2564650000000000    0.1151166666666667    0.8302350000000001 H
   0.3012400000000000    0.1694933333333333    0.7435849999999999 H
   0.2956900000000000    0.0726166666666667    0.9019800000000000 H
   0.3580300000000000    0.1282833333333333    0.7653500000000000 H
   0.4213100000000000    0.0887166666666667    0.8085550000000000 H
   0.3617450000000000    0.0356500000000000    0.9400750000000000 H
   0.2990750000000000    0.8525266666666667    0.0823800000000000 H
   0.3204550000000000    0.8923133333333333    0.1163850000000000 H
   0.3023900000000000    0.9898633333333333    0.9827550000000000 H
   0.2803250000000000    0.9547999999999999    0.9426250000000000 H
   0.2672950000000000    0.8954833333333333    0.9467150000000000 H
   0.2756700000000000    0.8260466666666666    0.0491150000000000 H
   0.2286250000000000    0.8226233333333333    0.8811650000000000 H
   0.2530400000000000    0.8624499999999999    0.9123200000000000 H
   0.2303200000000000    0.7318166666666667    0.0278050000000000 H
   0.2547200000000000    0.7712033333333332    0.0600250000000000 H
   0.2614000000000000    0.6876099999999999    0.7444100000000000 H
   0.3256500000000000    0.6809933333333333    0.6992500000000000 H
   0.3876500000000000    0.6666666666666666    0.8232950000000000 H
   0.3226850000000000    0.6755833333333333    0.8679399999999999 H
   0.3829100000000000    0.6666666666666666    0.6703900000000000 H
   0.4257700000000000    0.6655233333333332    0.7563500000000001 H
   0.4236350000000000    0.6666666666666666    0.5986500000000000 H
   0.4830750000000000    0.6373799999999999    0.7354000000000001 H
   0.5472450000000000    0.6258899999999999    0.6924700000000000 H
   0.4904400000000000    0.6603133333333333    0.5608750000000000 H
   0.8378530056054403    0.0478050349860542    0.5360570405007576 H
   0.8866350000000001    0.8505633333333333    0.7558500000000000 H
   0.9498949999999999    0.8145933333333333    0.8013749999999999 H
   0.9506500000000000    0.9188266666666667    0.6309500000000000 H
   0.0146350000000000    0.8834700000000000    0.6759200000000000 H
   0.0064600000000000    0.7817900000000000    0.8302400000000000 H
   0.0512350000000000    0.8361600000000000    0.7435849999999999 H
   0.0456850000000000    0.7392833333333333    0.9019800000000000 H
   0.1080200000000000    0.7949533333333333    0.7653750000000000 H
   0.1713050000000000    0.7553799999999999    0.8085550000000000 H
   0.1117400000000000    0.7023133333333333    0.9400750000000000 H
   0.7990750000000000    0.5191933333333333    0.0823800000000000 H
   0.8204549999999999    0.5589800000000000    0.1163850000000000 H
   0.8023899999999999    0.6565299999999999    0.9827550000000000 H
   0.7803249999999999    0.6214666666666666    0.9426250000000000 H
   0.7672950000000001    0.5621499999999999    0.9467150000000000 H
   0.7756700000000001    0.4927133333333333    0.0491150000000000 H
   0.7286250000000000    0.4892900000000000    0.8811650000000000 H
   0.7530399999999999    0.5291166666666667    0.9123200000000000 H
   0.7303200000000000    0.3984833333333333    0.0278050000000000 H
   0.7547200000000001    0.4378700000000000    0.0600250000000000 H
   0.7614000000000001    0.3542766666666666    0.7444100000000000 H
   0.8256500000000000    0.3476600000000000    0.6992500000000000 H
   0.8876500000000001    0.3333333333333333    0.8232950000000000 H
   0.8226850000000000    0.3422500000000000    0.8679399999999999 H
   0.8829100000000000    0.3333333333333333    0.6703900000000000 H
   0.9257700000000000    0.3321900000000000    0.7563500000000001 H
   0.9236350000000000    0.3333333333333333    0.5986500000000000 H
   0.9830749999999999    0.3040466666666666    0.7354000000000001 H
   0.0472450000000000    0.2925566666666666    0.6924700000000000 H
   0.9904400000000000    0.3269800000000000    0.5608750000000000 H
   0.3562150000000000    0.7410200000000000    0.6197250000000000 H
   0.3794300000000000    0.8024899999999999    0.5881400000000000 H
   0.3551300000000000    0.7504733333333333    0.4722550000000000 H
   0.3782000000000000    0.8122833333333332    0.4395850000000000 H
   0.3955850000000000    0.8575166666666666    0.5544200000000000 H
   0.3979650000000000    0.8605366666666666    0.4500500000000000 H
   0.4072850000000000    0.9142500000000000    0.5591400000000000 H
   0.4221700000000000    0.9094233333333333    0.4164950000000000 H
   0.4416000000000000    0.9730966666666666    0.3825900000000000 H
   0.4267150000000000    0.9776199999999999    0.5189000000000000 H
   0.3866350000000000    0.5172300000000000    0.7558500000000000 H
   0.4498950000000000    0.4812600000000000    0.8013749999999999 H
   0.4506500000000000    0.5854933333333333    0.6309500000000000 H
   0.5146350000000000    0.5501366666666667    0.6759200000000000 H
   0.5064600000000000    0.4484566666666666    0.8302400000000000 H
   0.5512350000000000    0.5028266666666666    0.7435849999999999 H
   0.5456850000000000    0.4059500000000000    0.9019800000000000 H
   0.6080200000000000    0.4616200000000000    0.7653750000000000 H
   0.6713050000000000    0.4220466666666666    0.8085550000000000 H
   0.6117400000000000    0.3689800000000000    0.9400750000000000 H
   0.0490750000000000    0.8525266666666667    0.0823500000000000 H
   0.0704450000000000    0.8923133333333333    0.1163850000000000 H
   0.0523800000000000    0.9898633333333333    0.9827600000000001 H
   0.0303200000000000    0.9547999999999999    0.9426250000000000 H
   0.0172950000000000    0.8954833333333333    0.9467150000000000 H
   0.0256650000000000    0.8260500000000000    0.0491150000000000 H
   0.9786300000000000    0.8226233333333333    0.8811650000000000 H
   0.0030350000000000    0.8624499999999999    0.9123000000000000 H
   0.9803250000000000    0.7318166666666667    0.0278050000000000 H
   0.0047150000000000    0.7712033333333332    0.0600250000000000 H
   0.0114000000000000    0.6876066666666666    0.7444150000000000 H
   0.0756500000000000    0.6809900000000000    0.6992750000000000 H
   0.1376450000000000    0.6666666666666666    0.8232950000000000 H
   0.0726850000000000    0.6755866666666667    0.8679399999999999 H
   0.1329050000000000    0.6666666666666666    0.6703900000000000 H
   0.1757700000000000    0.6655233333333332    0.7563500000000001 H
   0.1736300000000000    0.6666666666666666    0.5986500000000000 H
   0.2330700000000000    0.6373799999999999    0.7354000000000001 H
   0.2972550000000000    0.6258899999999999    0.6924700000000000 H
   0.2404300000000000    0.6603100000000000    0.5608750000000000 H
   0.6062100000000000    0.0743533333333333    0.6197250000000000 H
   0.6294250000000000    0.1358233333333333    0.5881400000000000 H
   0.6051250000000000    0.0838066666666667    0.4722550000000000 H
   0.6281950000000001    0.1456166666666667    0.4395850000000000 H
   0.6455800000000000    0.1908500000000000    0.5544000000000000 H
   0.6479600000000000    0.1938700000000000    0.4500500000000000 H
   0.6572750000000001    0.2475866666666666    0.5591400000000000 H
   0.6721600000000000    0.2427566666666666    0.4164950000000000 H
   0.6915900000000000    0.3064300000000000    0.3825900000000000 H
   0.6767050000000000    0.3109533333333333    0.5189250000000000 H
   0.7006450000000000    0.9188266666666667    0.6309500000000000 H
   0.6366300000000000    0.8505666666666666    0.7558650000000000 H
   0.6998900000000000    0.8145933333333333    0.8013749999999999 H
   0.7646400000000000    0.8834700000000000    0.6758999999999999 H