H10 C14 N1 O2
1.0
  34.3419182239313514    0.0000000000000000    4.1017128983891036
   7.7204139395277878   34.4106173453023416   17.0422077946938089
   0.0000000000000000    0.0000000000000000   30.0820000000000007
H C N O
10 14 1 2
direct
   0.8551299999999999    0.0838066666666667    0.4722550000000000 H
   0.8782000000000000    0.1456166666666667    0.4395850000000000 H
   0.8979650000000000    0.1938700000000000    0.4500500000000000 H
   0.9221699999999999    0.2427566666666666    0.4164950000000000 H
   0.9416000000000000    0.3064300000000000    0.3825900000000000 H
   0.8794299999999999    0.1358233333333333    0.5881400000000000 H
   0.8562149999999999    0.0743533333333333    0.6197250000000000 H
   0.8955850000000001    0.1908500000000000    0.5544200000000000 H
   0.9267150000000000    0.3109533333333333    0.5189000000000000 H
   0.9072850000000000    0.2475833333333333    0.5591400000000000 H
   0.8604350000000001    0.0954833333333333    0.4972600000000000 C
   0.8731800000000001    0.1301666666666667    0.4791800000000000 C
   0.8935500000000001    0.1820000000000000    0.4900950000000000 C
   0.9127200000000000    0.2387966666666667    0.4915250000000000 C
   0.9226850000000000    0.2565400000000000    0.4409300000000000 C
   0.9335850000000000    0.2919533333333333    0.4215500000000000 C
   0.9257750000000000    0.2946000000000000    0.4977000000000000 C
   0.8416000000000000    0.0371933333333333    0.5690150000000000 C
   0.8541799999999999    0.0751833333333333    0.5480400000000000 C
   0.8802449999999999    0.1456400000000000    0.5111850000000000 C
   0.8738650000000000    0.1249400000000000    0.5622850000000000 C
   0.8609899999999999    0.0904200000000000    0.5802800000000000 C
   0.9002950000000001    0.2019800000000000    0.5144900000000000 C
   0.9149050000000001    0.2589600000000000    0.5198950000000000 C
   0.9350800000000000    0.3112300000000000    0.4491950000000000 N
   0.8385850000000000    0.0219000000000000    0.5393250000000001 O
   0.8351350000000000    0.0206400000000000    0.6148300000000000 O
