H12 O6
1.0
  29.3822543331815851    0.0000000000000000    0.5810974963221918
   1.5364824020495509   10.4803390005931583    4.7459630488277105
   0.0000000000000000    0.0000000000000000   27.5799999999999983
H O
12 6
direct
   0.3077291809116192    0.8590657700765650    0.7520365904053181 H
   0.3194275011247552    0.9030908457523357    0.7519023702695606 H
   0.2731540385551825    0.9160576241168383    0.7523744845027682 H
   0.2584887792015850    0.8594901506838771    0.7532553941792830 H
   0.2189213010972541    0.9207464682699226    0.7521267206813274 H
   0.3008139658808043    0.7654776223269764    0.7515050787425388 H
   0.3934771754252539    0.0839761472303104    0.7476105236299269 H
   0.4081412219486436    0.1405450946795881    0.7467340399964576 H
   0.3589014697097475    0.1409696444161052    0.7479447843992347 H
   0.3471954842231137    0.0969451648560864    0.7480815713257829 H
   0.3658153958902324    0.2345669024586364    0.7484713015586895 H
   0.4605841373381377    0.1297967458802307    0.7482246154141431 H
   0.3169500000000000    0.8333600000000000    0.7518800000000000 O
   0.2836800000000000    0.9261100000000000    0.7524450000000000 O
   0.2433766666666666    0.8876200000000000    0.7521750000000000 O
   0.3829500000000000    0.0739200000000000    0.7475400000000000 O
   0.4232533333333333    0.1124200000000000    0.7478100000000000 O
   0.3496800000000000    0.1666800000000000    0.7481000000000000 O
