C1 N1
1.0
   8.7924087739126335    0.0000000000000000   -0.8715550484187008
  -1.4810551350201493   26.3359790035462353   -2.6109821642060873
   0.0000000000000000    0.0000000000000000   13.7029999999999994
C N
1 1
direct
   0.3538300000000000    0.9443566666666666    0.9774500000000000 C
   0.2707700000000000    0.9073499999999999    0.9626200000000000 N
