H3 O2
1.0
  30.3104952726496961    0.0000000000000000   -0.0169285758535346
  -0.0227479678405078   34.6727137552710474   -0.6330605223809660
   0.0000000000000000    0.0000000000000000   29.7839999999999989
H O
3 2
direct
   0.6580445037034806    0.2025959867467679    0.1338790769455540 H
   0.6580987433127382    0.1267627071469616    0.0681104746023916 H
   0.6476654797782012    0.1432221697795217    0.1046715245596093 H
   0.6736666666666666    0.2101600000000000    0.1070200000000000 O
   0.6683899999999999    0.1532566666666667    0.0690400000000000 O
