H1 C1 O2
1.0
  30.3104952726496961    0.0000000000000000   -0.0169285758535346
  -0.0227479678405078   34.6727137552710474   -0.6330605223809660
   0.0000000000000000    0.0000000000000000   29.7839999999999989
H C O
1 1 2
direct
   0.6848500000000000    0.1581433333333333    0.1347900000000000 H
   0.6757633333333333    0.1731500000000000    0.1036800000000000 C
   0.6736666666666666    0.2101600000000000    0.1070200000000000 O
   0.6683899999999999    0.1532566666666667    0.0690400000000000 O
