H23 C40 Cl2 O10
1.0
  20.0981828226735928    0.0000000000000000   -4.1442114118838367
  -0.0100473584747951   16.6159938620993550    0.0101501361666340
   0.0000000000000000    0.0000000000000000   19.7979999999999983
H C Cl O
23 40 2 10
direct
   0.2824500000000000    0.0587000000000000    0.7145899999999999 H
   0.3589400000000000    0.2918300000000000    0.6716100000000000 H
   0.4528400000000000    0.1994100000000000    0.7083900000000000 H
   0.6018300000000000    0.2693300000000000    0.8837600000000000 H
   0.5206800000000000    0.2549400000000000    0.9598200000000000 H
   0.1897800000000000    0.1844500000000000    0.8729300000000000 H
   0.2266400000000000    0.0876100000000000    0.8911800000000000 H
   0.1807200000000000    0.1979200000000000    0.9979400000000000 H
   0.1362800000000000    0.1128300000000000    0.9581300000000000 H
   0.2152300000000000    0.0999700000000000    0.0000000000000000 H
   0.2544200000000000    0.1642400000000000    0.8000200000000000 H
   0.3889600000000000    0.0706800000000000    0.9710500000000000 H
   0.3977700000000000    0.9607300000000000    0.0568900000000000 H
   0.4596300000000000    0.1297900000000000    0.2219400000000000 H
   0.4591400000000000    0.3850700000000000    0.1097700000000000 H
   0.4880600000000000    0.4512700000000000    0.0150200000000000 H
   0.4062600000000000    0.4685400000000000    0.0303000000000000 H
   0.3647800000000000    0.4989400000000000    0.9054000000000000 H
   0.4343500000000000    0.5618000000000000    0.9390900000000000 H
   0.4447200000000000    0.4769700000000000    0.8877800000000000 H
   0.5818300000000000    0.2816600000000000    0.2112500000000000 H
   0.5370600000000000    0.3579100000000000    0.4040200000000000 H
   0.3778800000000000    0.2896300000000000    0.2365000000000000 H
   0.3113100000000000    0.2900300000000000    0.5326000000000000 C
   0.3021800000000000    0.2285300000000000    0.5844200000000001 C
   0.2649500000000000    0.1600600000000000    0.5652400000000000 C
   0.2565000000000000    0.0984100000000000    0.6091600000000000 C
   0.2873500000000000    0.1074300000000000    0.6790500000000000 C
   0.3235900000000000    0.1769800000000000    0.7026800000000000 C
   0.3312000000000000    0.2369900000000000    0.6548300000000000 C
   0.2183300000000000    0.0243200000000000    0.5857000000000000 C
   0.3500700000000000    0.1875500000000000    0.7776300000000000 C
   0.4179100000000000    0.2082100000000000    0.8050000000000000 C
   0.4664500000000000    0.2132000000000000    0.7631300000000000 C
   0.5309900000000000    0.2345100000000000    0.7916700000000000 C
   0.5508100000000000    0.2511400000000000    0.8628000000000000 C
   0.5052200000000000    0.2438300000000000    0.9046999999999999 C
   0.4378500000000000    0.2221700000000000    0.8780400000000000 C
   0.3914300000000000    0.2135900000000000    0.9222700000000000 C
   0.3262400000000000    0.1907300000000000    0.8937000000000000 C
   0.2195700000000000    0.1469200000000000    0.9137000000000000 C
   0.1861400000000000    0.1388400000000000    0.9748700000000000 C
   0.3061900000000000    0.1781600000000000    0.8219600000000000 C
   0.4117400000000000    0.2291500000000000    0.9974800000000000 C
   0.4177900000000000    0.1653900000000000    0.0464500000000000 C
   0.4039300000000000    0.0841000000000000    0.0258300000000000 C
   0.4087400000000000    0.0227100000000000    0.0732900000000000 C
   0.4286900000000000    0.0400500000000000    0.1443900000000000 C
   0.4437600000000000    0.1174700000000000    0.1670800000000000 C
   0.4385700000000000    0.1818000000000000    0.1189800000000000 C
   0.4539600000000000    0.2626600000000000    0.1405000000000000 C
   0.4475600000000000    0.3237600000000000    0.0920300000000000 C
   0.4256300000000000    0.3078200000000000    0.0208800000000000 C
   0.4345500000000000    0.4484300000000000    0.9915900000000000 C
   0.4184400000000000    0.4994200000000000    0.9270300000000000 C
   0.4769300000000000    0.2840500000000000    0.2146100000000000 C
   0.5448499999999999    0.2937500000000000    0.2424600000000000 C
   0.5664400000000001    0.3196100000000000    0.3106800000000000 C
   0.5199700000000000    0.3364400000000000    0.3515200000000000 C
   0.4521800000000000    0.3248300000000000    0.3247600000000000 C
   0.4309100000000000    0.2980400000000000    0.2566500000000000 C
   0.6387500000000000    0.3297800000000000    0.3400900000000000 C
   0.4016600000000000    0.3423700000000000    0.3672400000000000 C
   0.5904000000000000    0.2406500000000000    0.7398600000000000 Cl
   0.4348400000000000    0.9609100000000000    0.2032500000000000 Cl
   0.2834900000000000    0.2778800000000000    0.4703700000000000 O
   0.3480800000000000    0.3513200000000000    0.5547900000000000 O
   0.1788900000000000    1.0248800000000000    0.5260800000000000 O
   0.2249500000000000    0.9637500000000000    0.6256699999999999 O
   0.6815200000000000    0.3055500000000000    0.3046900000000000 O
   0.6580500000000000    0.3614700000000000    0.3990100000000000 O
   0.4224700000000000    0.3818500000000000    0.4238400000000000 O
   0.3427000000000000    0.3181800000000000    0.3450700000000000 O
   0.2836300000000000    0.1838000000000000    0.9382500000000000 O
   0.4166000000000000    0.3666000000000000    0.9717100000000000 O
