Zn8 H81 C120 Cl6 O38
1.0
  20.0981828226735928    0.0000000000000000   -4.1442114118838367
  -0.0100473584747951   16.6159938620993550    0.0101501361666340
   0.0000000000000000    0.0000000000000000   19.7979999999999983
Zn H C Cl O
8 81 120 6 38
direct
   0.1363500000000000    0.9197000000000000    0.5191200000000000 Zn
   0.3637000000000000    0.4198100000000000    0.4807000000000000 Zn
   0.2586200000000000    0.3401000000000000    0.3798600000000000 Zn
   0.2413500000000000    0.8400100000000000    0.6200200000000000 Zn
   0.6363500000000000    0.9197100000000000    0.5191500000000000 Zn
   0.8637000000000000    0.4198100000000000    0.4807000000000000 Zn
   0.7586200000000000    0.3401100000000000    0.3798800000000000 Zn
   0.7413500000000000    0.8400200000000000    0.6200500000000000 Zn
   0.6598192355793503    0.2829020362745442    0.2607333623208358 H
   0.6225731341482702    0.3780561679107585    0.4217257285222689 H
   0.6283066066300903    0.3304283610486700    0.3387623727566998 H
   0.1770351741482645    1.0730345751583654    0.4980358193461728 H
   0.2540720306264396    0.9592841315829328    0.6706566455507040 H
   0.2228550760669749    1.0181379480057546    0.5939956381299550 H
   0.2846800000000000    0.5999500000000000    0.9853600000000000 H
   0.3636300000000000    0.6128100000000000    0.0419400000000000 H
   0.3192900000000000    0.6979100000000000    0.0000000000000000 H
   0.0552000000000000    0.9768700000000000    0.1120500000000000 H
   0.1351400000000000    0.9990300000000000    0.0944400000000000 H
   0.0655700000000000    0.0617900000000000    0.0607100000000000 H
   0.0936900000000000    0.9686900000000001    0.9695400000000000 H
   0.0119000000000000    0.9511900000000000    0.9848000000000000 H
   0.0408300000000000    0.8851300000000000    0.8900900000000000 H
   0.1110100000000000    0.5707500000000000    0.0290000000000000 H
   0.1022200000000000    0.4608700000000000    0.9432300000000000 H
   0.0404200000000000    0.6299200000000000    0.7780700000000000 H
   0.3101900000000000    0.6844600000000000    0.1270500000000000 H
   0.2732300000000000    0.5876200000000000    0.1088900000000000 H
   0.2455400000000000    0.6642400000000001    0.1999500000000000 H
   0.8982400000000000    0.7693500000000000    0.1162000000000000 H
   0.9793500000000001    0.7549800000000000    0.0401300000000000 H
   0.0471800000000000    0.6993700000000000    0.2915900000000000 H
   0.1410900000000000    0.7917900000000000    0.3282800000000000 H
   0.2175400000000000    0.5587700000000000    0.2854600000000000 H
   0.9629100000000000    0.8577800000000000    0.5950000000000000 H
   0.9181700000000000    0.7818000000000001    0.7887400000000000 H
   0.1220700000000000    0.7894600000000001    0.7632500000000000 H
   0.2582857151955101    0.2284774313727430    0.4598298130697456 H
   0.3705596142478010    0.3601781919766396    0.6022069868476311 H
   0.3174369266227204    0.2912569374209956    0.5419753645513284 H
   0.3321556685836524    0.2862960416967153    0.3032534975709710 H
   0.4687309737799407    0.3966631869226192    0.4399324379890486 H
   0.4083676796162908    0.3392073916316172    0.3679132948069089 H
   0.7846800000000000    0.5999500000000000    0.9853900000000000 H
   0.8636400000000000    0.6128100000000000    0.0419700000000000 H
   0.8193000000000000    0.6979100000000000    0.0000000000000000 H
   0.5552100000000000    0.9768400000000000    0.1120800000000000 H
   0.6351500000000000    0.9990000000000000    0.0944700000000000 H
   0.5655900000000000    0.0617600000000000    0.0607000000000000 H
   0.5937000000000000    0.9686600000000000    0.9695700000000000 H
   0.5119000000000000    0.9511700000000000    0.9848600000000000 H
   0.5404000000000000    0.6299000000000000    0.7781000000000000 H
   0.5408200000000000    0.8851000000000000    0.8901200000000000 H
   0.6110200000000000    0.5707300000000000    0.0290000000000000 H
   0.6022400000000000    0.4608500000000000    0.9432500000000000 H
   0.8101900000000000    0.6844600000000000    0.1270800000000000 H
   0.7732400000000000    0.5876200000000000    0.1089000000000000 H
   0.7455400000000000    0.6642500000000000    0.1999900000000000 H
   0.4793500000000000    0.7549500000000000    0.0401500000000000 H
   0.3982300000000000    0.7693100000000000    0.1162100000000000 H
   0.5471600000000000    0.6993600000000000    0.2916100000000000 H
   0.6410700000000000    0.7917900000000000    0.3283200000000000 H
   0.7175400000000000    0.5587800000000001    0.2855000000000000 H
   0.4629200000000000    0.8578100000000000    0.5958300000000000 H
   0.4181400000000000    0.7817700000000000    0.7887500000000000 H
   0.6220599999999999    0.7894700000000000    0.7633100000000000 H
   0.7152300000000000    0.0999800000000000    0.0000000000000000 H
   0.6807000000000000    0.1979200000000000    0.9979300000000000 H
   0.6362800000000000    0.1128100000000000    0.9581300000000000 H
   0.9447200000000000    0.4769700000000000    0.8877800000000000 H
   0.8647800000000000    0.4989300000000000    0.9054000000000000 H
   0.9343399999999999    0.5618000000000000    0.9390900000000000 H
   0.9062400000000000    0.4685400000000000    0.0302900000000000 H
   0.9880500000000000    0.4512700000000000    0.0150200000000000 H
   0.9591300000000000    0.3850700000000000    0.1097700000000000 H
   0.8889400000000000    0.0706800000000000    0.9710500000000000 H
   0.8977500000000000    0.9607300000000000    0.0569000000000000 H
   0.9596200000000000    0.1298000000000000    0.2219000000000000 H
   0.6897799999999999    0.1844200000000000    0.8729000000000000 H
   0.7266400000000000    0.0875900000000000    0.8911900000000000 H
   0.7544200000000000    0.1642300000000000    0.8000200000000000 H
   0.1018300000000000    0.2693300000000000    0.8837900000000000 H
   0.0206700000000000    0.2549400000000000    0.9598400000000000 H
   0.9528700000000000    0.1993700000000000    0.7084100000000000 H
   0.8589800000000000    0.2918100000000000    0.6716200000000000 H
   0.7824400000000000    0.0587000000000000    0.7145899999999999 H
   0.0370700000000000    0.3579300000000000    0.4040100000000000 H
   0.0818200000000000    0.2816600000000000    0.2112400000000000 H
   0.8778800000000000    0.2896600000000000    0.2365000000000000 H
   0.3138000000000000    0.6388300000000000    0.0251600000000000 C
   0.0814900000000000    0.9994200000000000    0.0728000000000000 C
   0.1887700000000000    0.7900300000000000    0.4672800000000000 C
   0.0654100000000000    0.9484500000000000    0.0082600000000000 C
   0.0524200000000000    0.8238200000000000    0.9078600000000000 C
   0.0460400000000000    0.7627500000000000    0.8594300000000000 C
   0.0743700000000000    0.8078900000000000    0.9790200000000000 C
   0.0882700000000000    0.7292100000000000    0.0024700000000000 C
   0.0960600000000000    0.5841900000000000    0.9742100000000000 C
   0.0912700000000000    0.5228200000000000    0.9267900000000000 C
   0.0562700000000000    0.6176000000000000    0.8329400000000000 C
   0.0713400000000000    0.5401899999999999    0.8556700000000000 C
   0.0614400000000000    0.6819000000000000    0.8810000000000000 C
   0.0822200000000000    0.6654800000000000    0.9535400000000001 C
   0.2803700000000000    0.6469300000000000    0.0863200000000000 C
   0.1937800000000000    0.6781600000000000    0.1780100000000000 C
   0.1499200000000000    0.6875500000000000    0.2223400000000000 C
   0.1737400000000000    0.6907400000000000    0.1062400000000000 C
   0.1085800000000000    0.7136300000000000    0.0776900000000000 C
   0.9492500000000000    0.7511600000000000    0.1371700000000000 C
   0.9948200000000000    0.7438600000000000    0.0952600000000000 C
   0.0335800000000000    0.7131900000000000    0.2368000000000000 C
   0.9690500000000000    0.7345000000000000    0.2083100000000000 C
   0.0821000000000000    0.7082200000000000    0.1949400000000000 C
   0.0621700000000000    0.7221900000000000    0.1219200000000000 C
   0.2817400000000000    0.5244600000000000    0.4142800000000000 C
   0.2351200000000000    0.6601300000000000    0.4347200000000000 C
   0.2435600000000000    0.5985100000000000    0.3908500000000000 C
   0.1978700000000000    0.7285500000000000    0.4154900000000000 C
   0.1688300000000000    0.7369700000000000    0.3450900000000000 C
   0.2126600000000000    0.6074900000000000    0.3209000000000000 C
   0.1764100000000000    0.6769900000000000    0.2972900000000000 C
   0.8612300000000001    0.8298100000000000    0.6598300000000000 C
   0.0982600000000000    0.8419100000000000    0.6324200000000000 C
   0.9799900000000000    0.8363500000000000    0.6483200000000000 C
   0.9335400000000000    0.8196300000000000    0.6892200000000001 C
   0.0477700000000000    0.8246200000000000    0.6750300000000000 C
   0.9551300000000000    0.7938400000000000    0.7574900000000000 C
   0.0690600000000000    0.7979300000000000    0.7431800000000000 C
   0.0230500000000000    0.7841000000000000    0.7853000000000000 C
   0.8138100000000000    0.6388300000000000    0.0251900000000000 C
   0.5815000000000000    0.9993900000000000    0.0728400000000000 C
   0.6887500000000000    0.7900199999999999    0.4673100000000000 C
   0.5654100000000000    0.9484200000000000    0.0082900000000000 C
   0.5562500000000000    0.6175700000000000    0.8329600000000000 C
   0.5713400000000000    0.5401700000000000    0.8550000000000000 C
   0.5614300000000000    0.6818800000000000    0.8810300000000000 C
   0.5524100000000000    0.8238000000000000    0.9078900000000000 C
   0.5460100000000000    0.7627200000000000    0.8594600000000000 C
   0.5743600000000000    0.8078700000000000    0.9790500000000000 C
   0.5882700000000000    0.7291900000000000    0.0025000000000000 C
   0.5960700000000000    0.5841700000000000    0.9742400000000000 C
   0.5912800000000000    0.5228000000000000    0.9268100000000000 C
   0.5822100000000000    0.6654600000000001    0.9535700000000000 C
   0.7803700000000000    0.6469300000000000    0.0863500000000000 C
   0.6937800000000000    0.6781700000000001    0.1780000000000000 C
   0.6499100000000000    0.6875500000000000    0.2223700000000000 C
   0.6737400000000000    0.6907400000000000    0.1062700000000000 C
   0.6085700000000001    0.7136100000000000    0.0777000000000000 C
   0.4948200000000000    0.7438300000000000    0.0952000000000000 C
   0.4492400000000000    0.7511200000000000    0.1371800000000000 C
   0.5335700000000000    0.7131700000000000    0.2368600000000000 C
   0.4690400000000000    0.7344700000000000    0.2083200000000000 C
   0.5820900000000000    0.7082000000000001    0.1949700000000000 C
   0.5621600000000000    0.7221700000000000    0.1219400000000000 C
   0.7817300000000000    0.5244700000000000    0.4143000000000000 C
   0.7351000000000000    0.6601300000000000    0.4347600000000000 C
   0.7435500000000000    0.5985200000000001    0.3908900000000000 C
   0.6978500000000000    0.7285500000000000    0.4155300000000000 C
   0.6688100000000000    0.7369800000000000    0.3451300000000000 C
   0.7126500000000000    0.6075000000000000    0.3210000000000000 C
   0.6764000000000000    0.6770000000000000    0.2973200000000000 C
   0.3612200000000000    0.8298100000000000    0.6598000000000001 C
   0.5982700000000000    0.8419600000000000    0.6324900000000000 C
   0.4800000000000000    0.8363600000000000    0.6483500000000000 C
   0.4335300000000000    0.8196200000000000    0.6892400000000000 C
   0.5477700000000000    0.8246400000000000    0.6750800000000000 C
   0.4551100000000000    0.7938200000000000    0.7575100000000000 C
   0.5690400000000000    0.7979400000000000    0.7432299999999999 C
   0.5230300000000000    0.7840800000000000    0.7853000000000000 C
   0.6861300000000000    0.1388400000000000    0.9748700000000000 C
   0.9184300000000000    0.4994100000000000    0.9270200000000000 C
   0.8113500000000000    0.2900200000000000    0.5326000000000000 C
   0.9345400000000000    0.4484200000000000    0.9915900000000000 C
   0.9475500000000000    0.3237600000000000    0.0920300000000000 C
   0.9539500000000000    0.2626600000000000    0.1405000000000000 C
   0.9256200000000000    0.3078200000000000    0.0208800000000000 C
   0.9117200000000000    0.2291500000000000    0.9974800000000000 C
   0.9039199999999999    0.0840900000000000    0.0258300000000000 C
   0.9087200000000000    0.0227100000000000    0.0733000000000000 C
   0.9437500000000000    0.1174800000000000    0.1670900000000000 C
   0.9286799999999999    0.0400600000000000    0.1444000000000000 C
   0.9385599999999999    0.1818000000000000    0.1189800000000000 C
   0.9177800000000000    0.1653900000000000    0.0464500000000000 C
   0.7195700000000000    0.1469100000000000    0.9137000000000000 C
   0.8061900000000000    0.1781500000000000    0.8219600000000000 C
   0.8500799999999999    0.1875300000000000    0.7776400000000000 C
   0.8262300000000000    0.1907200000000000    0.8937200000000000 C
   0.8914299999999999    0.2135900000000000    0.9222700000000000 C
   0.0508100000000000    0.2511400000000000    0.8628200000000000 C
   0.0052200000000000    0.2438200000000000    0.9047200000000000 C
   0.9664600000000000    0.2131800000000000    0.7631500000000000 C
   0.0310000000000000    0.2344900000000000    0.7916900000000000 C
   0.9179200000000000    0.2082000000000000    0.8050400000000000 C
   0.9378500000000000    0.2221600000000000    0.8780500000000000 C
   0.7183400000000000    0.0243300000000000    0.5857200000000000 C
   0.7649800000000000    0.1600500000000000    0.5652400000000000 C
   0.7565100000000000    0.0984000000000000    0.6091600000000000 C
   0.8022200000000000    0.2285200000000000    0.5844300000000000 C
   0.8312300000000000    0.2369700000000000    0.6548300000000000 C
   0.7873599999999999    0.1074300000000000    0.6790500000000000 C
   0.8236100000000000    0.1769700000000000    0.7026900000000000 C
   0.1387500000000000    0.3297900000000000    0.3400700000000000 C
   0.9016600000000000    0.3424200000000000    0.3672300000000000 C
   0.0199700000000000    0.3364700000000000    0.3515100000000000 C
   0.0664400000000000    0.3196200000000000    0.3106700000000000 C
   0.9521800000000000    0.3248700000000000    0.3247500000000000 C
   0.0448400000000000    0.2937500000000000    0.2424500000000000 C
   0.9308999999999999    0.2980600000000000    0.2566500000000000 C
   0.9769200000000000    0.2840600000000000    0.2146000000000000 C
   0.0652100000000000    0.4610900000000000    0.7968700000000000 Cl
   0.9096600000000000    0.7406100000000000    0.2601300000000000 Cl
   0.5652100000000000    0.4610700000000000    0.7968000000000000 Cl
   0.4096400000000000    0.7405800000000000    0.2601300000000000 Cl
   0.9348300000000000    0.9609100000000000    0.2032600000000000 Cl
   0.0904200000000000    0.2406300000000000    0.7398900000000000 Cl
   0.6815200000000000    0.3055500000000000    0.3046900000000000 O
   0.6580500000000000    0.3614700000000000    0.3990100000000000 O
   0.1788900000000000    1.0248800000000000    0.5260800000000000 O
   0.2249500000000000    0.9637500000000000    0.6256699999999999 O
   0.2166200000000000    0.7778900000000000    0.5294900000000000 O
   0.1520100000000000    0.8512900000000000    0.4450600000000000 O
   0.0834000000000000    0.8666400000000000    0.0281700000000000 O
   0.2163500000000000    0.6838000000000000    0.0617200000000000 O
   0.2750300000000000    0.4639500000000000    0.3743600000000000 O
   0.3213000000000000    0.5249900000000000    0.4738600000000000 O
   0.8419600000000000    0.8615000000000000    0.6008900000000000 O
   0.8184399999999999    0.8055600000000001    0.6952500000000000 O
   0.1570700000000000    0.8171000000000000    0.6543000000000000 O
   0.0775500000000000    0.8818200000000000    0.5760100000000000 O
   0.2834900000000000    0.2778800000000000    0.4703700000000000 O
   0.3480800000000000    0.3513200000000000    0.5547900000000000 O
   0.3427000000000000    0.3181800000000000    0.3450700000000000 O
   0.4224700000000000    0.3818500000000000    0.4238400000000000 O
   0.7165899999999999    0.7778800000000000    0.5295299999999999 O
   0.6519900000000000    0.8512900000000000    0.4451000000000000 O
   0.5834000000000000    0.8666100000000000    0.0280000000000000 O
   0.7163500000000000    0.6838000000000000    0.0617500000000000 O
   0.7750200000000000    0.4639600000000000    0.3743900000000000 O
   0.8212900000000000    0.5249900000000000    0.4739000000000000 O
   0.3419600000000000    0.8615000000000000    0.6008900000000000 O
   0.3184300000000000    0.8055500000000000    0.6952000000000000 O
   0.6570900000000000    0.8171900000000000    0.6544000000000000 O
   0.5775600000000000    0.8818200000000000    0.5760600000000000 O
   0.7835100000000000    0.2778900000000000    0.4703800000000000 O
   0.8481300000000001    0.3513000000000000    0.5548000000000000 O
   0.9166000000000000    0.3665900000000000    0.9717000000000000 O
   0.7836200000000000    0.1837900000000000    0.9382500000000000 O
   0.7249500000000000    0.9637600000000000    0.6256699999999999 O
   0.6788900000000000    0.0248900000000000    0.5260800000000000 O
   0.1580500000000000    0.3614700000000000    0.3989900000000000 O
   0.1815100000000000    0.3055500000000000    0.3046000000000000 O
   0.8426800000000000    0.3183000000000000    0.3450300000000000 O
   0.9224800000000000    0.3818600000000000    0.4238500000000000 O
