H12 O8
1.0
  20.0981828226735928    0.0000000000000000   -4.1442114118838367
  -0.0100473584747951   16.6159938620993550    0.0101501361666340
   0.0000000000000000    0.0000000000000000   19.7979999999999983
H O
12 8
direct
   0.6598192355793503    0.2829020362745442    0.2607333623208358 H
   0.6225731341482702    0.3780561679107585    0.4217257285222689 H
   0.6283066066300903    0.3304283610486700    0.3387623727566998 H
   0.1770351741482645    1.0730345751583654    0.4980358193461728 H
   0.2540720306264396    0.9592841315829328    0.6706566455507040 H
   0.2228550760669749    1.0181379480057546    0.5939956381299550 H
   0.3321556685836524    0.2862960416967153    0.3032534975709710 H
   0.4687309737799407    0.3966631869226192    0.4399324379890486 H
   0.4083676796162908    0.3392073916316172    0.3679132948069089 H
   0.2582857151955101    0.2284774313727430    0.4598298130697456 H
   0.3705596142478010    0.3601781919766396    0.6022069868476311 H
   0.3174369266227204    0.2912569374209956    0.5419753645513284 H
   0.6815200000000000    0.3055500000000000    0.3046900000000000 O
   0.6580500000000000    0.3614700000000000    0.3990100000000000 O
   0.1788900000000000    1.0248800000000000    0.5260800000000000 O
   0.2249500000000000    0.9637500000000000    0.6256699999999999 O
   0.3427000000000000    0.3181800000000000    0.3450700000000000 O
   0.4224700000000000    0.3818500000000000    0.4238400000000000 O
   0.2834900000000000    0.2778800000000000    0.4703700000000000 O
   0.3480800000000000    0.3513200000000000    0.5547900000000000 O
