C1 N1
1.0
  13.4439848556700099    0.0000000000000000    0.0201792099817484
   0.2252889533374035   13.7891593120141795   -0.0033697769664630
   0.0000000000000000    0.0000000000000000   27.6509999999999998
C N
1 1
direct
   0.7271700000000000    0.2364000000000000    0.4175100000000000 C
   0.6471600000000000    0.2135900000000000    0.4060300000000000 N
