H8 O5
1.0
  20.6795367215230712    0.0000000000000000    3.2605192812156085
  13.2780076267928244   15.8610154847660567    3.2950898705259997
   0.0000000000000000    0.0000000000000000   32.6360000000000028
H O
8 5
direct
   0.4074295829479711    0.2458309752775343    0.3026992359238763 H
   0.4117119057672932    0.2152404725046650    0.3494204433736851 H
   0.4654511522634679    1.0773960039170698    0.2033657516647098 H
   0.4047956358983840    1.0856028323880369    0.1939954892743475 H
   0.5827048683792995    0.0625447945099219    0.1919431435010057 H
   0.3106056409012443    0.3963151031181475    0.1991088265261200 H
   0.5019900141151107    0.1930458154495842    0.1394408026173132 H
   0.4103648630183538    0.2883127389945596    0.1713199536308493 H
   0.3945100000000000    0.2645700000000000    0.3306600000000000 O
   0.4500400000000000    1.0803099999999999    0.1768300000000000 O
   0.5669700000000000    0.0655200000000000    0.1648500000000000 O
   0.3464700000000000    0.3662800000000000    0.1748950000000000 O
   0.4535700000000000    0.2521300000000000    0.1421500000000000 O
