H7 O5
1.0
  36.5006996014487726    0.0000000000000000   -4.5726058877622364
  -9.4634087575748769   32.8042468547329520  -16.9096210182487070
   0.0000000000000000    0.0000000000000000   13.4962999999999997
H O
7 5
direct
   0.1676031581763884    0.2499187442474665    0.8057999758981452 H
   0.1992282592357039    0.2503155690652960    0.9201847767015315 H
   0.2320922634160279    0.0525114160015345    0.8934851132828574 H
   0.1627939979531205    0.0395984302025757    0.8073476929252872 H
   0.1484337850838592    0.0402584447344301    0.0661945128636831 H
   0.2291564053200956    0.0647729583322829    1.1455537744379545 H
   0.1810864308077821    0.1133052982386857    1.0792692730789941 H
   0.1471000000000000    0.2555666666666667    0.7667000000000000 O
   0.2281750000000000    0.0246533333333333    0.8796300000000000 O
   0.1660400000000000    0.0142933333333333    0.8028000000000000 O
   0.1589900000000000    0.0215400000000000    0.0831800000000000 O
   0.2229625000000000    0.0390500000000000    1.1466499999999999 O
