H12 C12 N3 O8
1.0
  36.5006996014487726    0.0000000000000000   -4.5726058877622364
  -9.4634087575748769   32.8042468547329520  -16.9096210182487070
   0.0000000000000000    0.0000000000000000   13.4962999999999997
H C N O
12 12 3 8
direct
   0.1653225000000000    0.1834533333333333    0.6073499999999999 H
   0.1420975000000000    0.1650800000000000    0.6901400000000000 H
   0.2003600000000000    0.2039466666666667    0.8530700000000000 H
   0.2235025000000000    0.2230166666666667    0.7726900000000000 H
   0.1560525000000000    0.0535033333333333    0.7042200000000000 H
   0.1740475000000000    0.0185833333333333    0.5960700000000000 H
   0.2238375000000000    0.0863133333333333    0.8291100000000000 H
   0.2384700000000000    0.0465033333333333    0.7270600000000000 H
   0.2380675000000000    0.1086933333333333    0.3806500000000000 H
   0.2382250000000000    0.0605433333333333    0.3723800000000000 H
   0.1662025000000000    0.0367966666666667    0.2949600000000000 H
   0.1685200000000000    0.0824566666666667    0.2881000000000000 H
   0.1999750000000000    0.1313033333333333    0.5342400000000000 C
   0.1810725000000000    0.1151933333333333    0.6825300000000000 C
   0.2039675000000000    0.0661733333333333    0.5283400000000000 C
   0.1698100000000000    0.1753500000000000    0.6752500000000000 C
   0.1953350000000000    0.2119100000000000    0.7845900000000000 C
   0.1778600000000000    0.2470933333333333    0.8253600000000000 C
   0.1811825000000000    0.0490133333333333    0.6698600000000000 C
   0.2138775000000000    0.0542900000000000    0.7614700000000000 C
   0.2021475000000000    0.0289000000000000    0.8192100000000000 C
   0.2209300000000000    0.0815066666666667    0.3790200000000000 C
   0.1846625000000000    0.0604366666666667    0.2832100000000000 C
   0.1903300000000000    0.0392233333333333    0.1636300000000000 C
   0.2101975000000000    0.0947600000000000    0.4891400000000000 N
   0.1858075000000000    0.1402100000000000    0.6316900000000000 N
   0.1904075000000000    0.0784633333333333    0.6273400000000000 N
   0.2029200000000000    0.1536233333333333    0.4908500000000000 O
   0.1688150000000000    0.1246300000000000    0.7684700000000000 O
   0.2098800000000000    0.0327933333333333    0.4789800000000000 O
   0.1471000000000000    0.2555666666666667    0.7667000000000000 O
   0.1660400000000000    0.0142933333333333    0.8028000000000000 O
   0.2281750000000000    0.0246533333333333    0.8796300000000000 O
   0.1589900000000000    0.0215400000000000    0.0831800000000000 O
   0.2229625000000000    0.0390500000000000    1.1466499999999999 O
