H12 C12 N3 O9
1.0
  36.5006996014487726    0.0000000000000000   -4.5726058877622364
  -9.4634087575748769   32.8042468547329520  -16.9096210182487070
   0.0000000000000000    0.0000000000000000   13.4962999999999997
H C N O
12 12 3 9
direct
   0.0829675000000000    0.1491533333333333    0.3899300000000000 H
   0.1063250000000000    0.1675333333333333    0.3073700000000000 H
   0.0481100000000000    0.1287700000000000    0.1441900000000000 H
   0.0248700000000000    0.1096633333333333    0.2243500000000000 H
   0.0924325000000000    0.2789800000000000    0.2924600000000000 H
   0.0748425000000000    0.3141433333333333    0.4012800000000000 H
   0.0244175000000000    0.2466033333333333    0.1689000000000000 H
   0.0102425000000000    0.2866766666666666    0.2715400000000000 H
   0.0103900000000000    0.2241233333333333    0.6166600000000000 H
   0.0103400000000000    0.2723000000000000    0.6249800000000000 H
   0.0823525000000000    0.2959133333333333    0.7024400000000000 H
   0.0799275000000000    0.2502333333333333    0.7092900000000000 H
   0.0484725000000000    0.2014266666666667    0.4631100000000000 C
   0.0674275000000000    0.2174933333333333    0.3148100000000000 C
   0.0447225000000000    0.2666466666666666    0.4692200000000000 C
   0.0785700000000000    0.1572933333333333    0.3220800000000000 C
   0.0530675000000000    0.1207766666666667    0.2126300000000000 C
   0.0705425000000000    0.0855966666666667    0.1719400000000000 C
   0.0674525000000000    0.2836966666666667    0.3274400000000000 C
   0.0346550000000000    0.2786300000000000    0.2364600000000000 C
   0.0463750000000000    0.3039100000000000    0.1783900000000000 C
   0.0275850000000000    0.2512933333333333    0.6183400000000000 C
   0.0638400000000000    0.2723000000000000    0.7141700000000000 C
   0.0581675000000000    0.2935333333333333    0.8337300000000000 C
   0.0383325000000000    0.2380166666666667    0.5082500000000000 N
   0.0626325000000000    0.1924766666666667    0.3656400000000000 N
   0.0581925000000000    0.2542766666666667    0.3700700000000000 N
   0.0454750000000000    0.1791033333333333    0.5065100000000000 O
   0.0796600000000000    0.2080133333333333    0.2288200000000000 O
   0.0389875000000000    0.3001066666666666    0.5188000000000000 O
   0.1012525000000000    0.0876466666666667    0.2308100000000000 O
   0.0824800000000000    0.3183966666666667    0.1944600000000000 O
   0.0203375000000000    0.3082066666666666    1.1181200000000000 O
   0.0895075000000000    0.3112366666666667   -0.0858200000000000 O
   0.0255275000000000    0.2936900000000000    0.8506899999999999 O
   0.0539550000000000    0.0534033333333333    0.0751000000000000 O
