Zn100 Ni100 H1 C399 N399 O1
1.0
  37.2874941844880610    0.0000000000000000    0.0208252675521291
   1.1094036207798033   37.4298010274489172    0.9184361174217028
   0.0000000000000000    0.0000000000000000   26.1000000000000014
Zn Ni H C N O
100 100 1 399 399 1
direct
   0.7999060000000001    0.4029380000000000    0.3754000000000000 Zn
   0.8001040000000000    0.5970620000000000    0.6246150000000000 Zn
   0.9999060000000001    0.6029380000000001    0.3754000000000000 Zn
   0.0001040000000000    0.7970620000000002    0.6246150000000000 Zn
   0.1999060000000000    0.8029380000000000    0.8754000000000000 Zn
   0.2001040000000000    0.9970620000000001    0.1246150000000000 Zn
   0.3999060000000000    0.0029380000000000    0.3754000000000000 Zn
   0.4001040000000000    0.1970620000000000    0.6246150000000000 Zn
   0.5999060000000001    0.2029380000000000    0.8754000000000000 Zn
   0.6001040000000001    0.3970620000000000    0.1246150000000000 Zn
   0.7999060000000001    0.4029380000000000    0.8754000000000000 Zn
   0.8001040000000000    0.5970620000000000    0.1246150000000000 Zn
   0.5999060000000001    0.2029380000000000    0.3754000000000000 Zn
   0.6001040000000001    0.3970620000000000    0.6246150000000000 Zn
   0.3999060000000000    0.0029380000000000    0.8754000000000000 Zn
   0.4001040000000000    0.1970620000000000    0.1246150000000000 Zn
   0.9999060000000001    0.6029380000000001    0.8754000000000000 Zn
   0.0001040000000000    0.7970620000000002    0.1246150000000000 Zn
   0.1999060000000000    0.8029380000000000    0.3754000000000000 Zn
   0.2001040000000000    0.9970620000000001    0.6246150000000000 Zn
   0.7999060000000001    0.2029380000000000    0.8754000000000000 Zn
   0.8001040000000000    0.3970620000000000    0.1246150000000000 Zn
   0.5999060000000001    0.0029380000000000    0.8754000000000000 Zn
   0.6001040000000001    0.1970620000000000    0.1246150000000000 Zn
   0.3999060000000000    0.8029380000000000    0.3754000000000000 Zn
   0.4001040000000000    0.9970620000000001    0.6246150000000000 Zn
   0.1999060000000000    0.6029380000000001    0.8754000000000000 Zn
   0.2001040000000000    0.7970620000000002    0.1246150000000000 Zn
   0.9999060000000001    0.4029380000000000    0.3754000000000000 Zn
   0.0001040000000000    0.5970620000000000    0.6246150000000000 Zn
   0.7999060000000001    0.2029380000000000    0.3754000000000000 Zn
   0.8001040000000000    0.3970620000000000    0.6246150000000000 Zn
   0.5999060000000001    0.0029380000000000    0.3754000000000000 Zn
   0.6001040000000001    0.1970620000000000    0.6246150000000000 Zn
   0.9999060000000001    0.4029380000000000    0.8754000000000000 Zn
   0.0001040000000000    0.5970620000000000    0.1246150000000000 Zn
   0.1999060000000000    0.6029380000000001    0.3754000000000000 Zn
   0.2001040000000000    0.7970620000000002    0.6246150000000000 Zn
   0.3999060000000000    0.8029380000000000    0.8754000000000000 Zn
   0.4001040000000000    0.9970620000000001    0.1246150000000000 Zn
   0.9999060000000001    0.2029380000000000    0.3754000000000000 Zn
   0.0001040000000000    0.3970620000000000    0.6246150000000000 Zn
   0.1999060000000000    0.4029380000000000    0.8754000000000000 Zn
   0.2001040000000000    0.5970620000000000    0.1246150000000000 Zn
   0.5999060000000001    0.8029380000000000    0.8754000000000000 Zn
   0.6001040000000001    0.9970620000000001    0.1246150000000000 Zn
   0.3999060000000000    0.6029380000000001    0.3754000000000000 Zn
   0.4001040000000000    0.7970620000000002    0.6246150000000000 Zn
   0.7999060000000001    0.0029380000000000    0.3754000000000000 Zn
   0.8001040000000000    0.1970620000000000    0.6246150000000000 Zn
   0.7999060000000001    0.0029380000000000    0.8754000000000000 Zn
   0.8001040000000000    0.1970620000000000    0.1246150000000000 Zn
   0.5999060000000001    0.8029380000000000    0.3754000000000000 Zn
   0.6001040000000001    0.9970620000000001    0.6246150000000000 Zn
   0.3999060000000000    0.6029380000000001    0.8754000000000000 Zn
   0.4001040000000000    0.7970620000000002    0.1246150000000000 Zn
   0.1999060000000000    0.4029380000000000    0.3754000000000000 Zn
   0.2001040000000000    0.5970620000000000    0.6246150000000000 Zn
   0.9999060000000001    0.2029380000000000    0.8754000000000000 Zn
   0.0001040000000000    0.3970620000000000    0.1246150000000000 Zn
   0.7999060000000001    0.8029380000000000    0.3754000000000000 Zn
   0.8001040000000000    0.9970620000000001    0.6246150000000000 Zn
   0.1999060000000000    0.2029380000000000    0.3754000000000000 Zn
   0.2001040000000000    0.3970620000000000    0.6246150000000000 Zn
   0.9999060000000001    0.0029380000000000    0.8754000000000000 Zn
   0.0001040000000000    0.1970620000000000    0.1246150000000000 Zn
   0.3999060000000000    0.4029380000000000    0.8754000000000000 Zn
   0.4001040000000000    0.5970620000000000    0.1246150000000000 Zn
   0.5999060000000001    0.6029380000000001    0.3754000000000000 Zn
   0.6001040000000001    0.7970620000000002    0.6246150000000000 Zn
   0.7999060000000001    0.8029380000000000    0.8754000000000000 Zn
   0.8001040000000000    0.9970620000000001    0.1246150000000000 Zn
   0.1999060000000000    0.2029380000000000    0.8754000000000000 Zn
   0.2001040000000000    0.3970620000000000    0.1246150000000000 Zn
   0.9999060000000001    0.0029380000000000    0.3754000000000000 Zn
   0.0001040000000000    0.1970620000000000    0.6246150000000000 Zn
   0.3999060000000000    0.4029380000000000    0.3754000000000000 Zn
   0.4001040000000000    0.5970620000000000    0.6246150000000000 Zn
   0.5999060000000001    0.6029380000000001    0.8754000000000000 Zn
   0.6001040000000001    0.7970620000000002    0.1246150000000000 Zn
   0.7999060000000001    0.6029380000000001    0.3754000000000000 Zn
   0.8001040000000000    0.7970620000000002    0.6246150000000000 Zn
   0.5999060000000001    0.4029380000000000    0.3754000000000000 Zn
   0.6001040000000001    0.5970620000000000    0.6246150000000000 Zn
   0.3999060000000000    0.2029380000000000    0.8754000000000000 Zn
   0.4001040000000000    0.3970620000000000    0.1246150000000000 Zn
   0.1999060000000000    0.0029380000000000    0.3754000000000000 Zn
   0.2001040000000000    0.1970620000000000    0.6246150000000000 Zn
   0.9999060000000001    0.8029380000000000    0.8754000000000000 Zn
   0.0001040000000000    0.9970620000000001    0.1246150000000000 Zn
   0.7999060000000001    0.6029380000000001    0.8754000000000000 Zn
   0.8001040000000000    0.7970620000000002    0.1246150000000000 Zn
   0.1999060000000000    0.0029380000000000    0.8754000000000000 Zn
   0.2001040000000000    0.1970620000000000    0.1246150000000000 Zn
   0.9999060000000001    0.8029380000000000    0.3754000000000000 Zn
   0.0001040000000000    0.9970620000000001    0.6246150000000000 Zn
   0.5999060000000001    0.4029380000000000    0.8754000000000000 Zn
   0.6001040000000001    0.5970620000000000    0.1246150000000000 Zn
   0.3999060000000000    0.2029380000000000    0.3754000000000000 Zn
   0.4001040000000000    0.3970620000000000    0.6246150000000000 Zn
   0.6998920000000001    0.4007700000000000    0.2499800000000000 Ni
   0.7992420000000001    0.4999980000000001    0.5010550000000000 Ni
   0.8998920000000000    0.6007700000000001    0.2499800000000000 Ni
   0.9992420000000001    0.6999980000000001    0.5010550000000000 Ni
   0.0998920000000000    0.8007700000000001    0.7499800000000000 Ni
   0.1992420000000000    0.8999980000000001    0.0010550000000000 Ni
   0.2998920000000000    0.0007700000000000    0.2499800000000000 Ni
   0.3992420000000000    0.0999980000000000    0.5010550000000000 Ni
   0.4998920000000000    0.2007700000000000    0.7499800000000000 Ni
   0.5992420000000001    0.2999980000000000    0.0010550000000000 Ni
   0.6998920000000001    0.4007700000000000    0.7499800000000000 Ni
   0.7992420000000001    0.4999980000000001    0.0010550000000000 Ni
   0.4998920000000000    0.2007700000000000    0.2499800000000000 Ni
   0.5992420000000001    0.2999980000000000    0.5010550000000000 Ni
   0.2998920000000000    0.0007700000000000    0.7499800000000000 Ni
   0.3992420000000000    0.0999980000000000    0.0010550000000000 Ni
   0.8998920000000000    0.6007700000000001    0.7499800000000000 Ni
   0.9992420000000001    0.6999980000000001    0.0010550000000000 Ni
   0.0998920000000000    0.8007700000000001    0.2499800000000000 Ni
   0.1992420000000000    0.8999980000000001    0.5010550000000000 Ni
   0.6998920000000001    0.2007700000000000    0.7499800000000000 Ni
   0.7992420000000001    0.2999980000000000    0.0010550000000000 Ni
   0.4998920000000000    0.0007700000000000    0.7499800000000000 Ni
   0.5992420000000001    0.0999980000000000    0.0010550000000000 Ni
   0.2998920000000000    0.8007700000000001    0.2499800000000000 Ni
   0.3992420000000000    0.8999980000000001    0.5010550000000000 Ni
   0.0998920000000000    0.6007700000000001    0.7499800000000000 Ni
   0.1992420000000000    0.6999980000000001    0.0010550000000000 Ni
   0.8998920000000000    0.4007700000000000    0.2499800000000000 Ni
   0.9992420000000001    0.4999980000000001    0.5010550000000000 Ni
   0.6998920000000001    0.2007700000000000    0.2499800000000000 Ni
   0.7992420000000001    0.2999980000000000    0.5010550000000000 Ni
   0.4998920000000000    0.0007700000000000    0.2499800000000000 Ni
   0.5992420000000001    0.0999980000000000    0.5010550000000000 Ni
   0.8998920000000000    0.4007700000000000    0.7499800000000000 Ni
   0.9992420000000001    0.4999980000000001    0.0010550000000000 Ni
   0.0998920000000000    0.6007700000000001    0.2499800000000000 Ni
   0.1992420000000000    0.6999980000000001    0.5010550000000000 Ni
   0.2998920000000000    0.8007700000000001    0.7499800000000000 Ni
   0.3992420000000000    0.8999980000000001    0.0010550000000000 Ni
   0.8998920000000000    0.2007700000000000    0.2499800000000000 Ni
   0.9992420000000001    0.2999980000000000    0.5010550000000000 Ni
   0.0998920000000000    0.4007700000000000    0.7499800000000000 Ni
   0.1992420000000000    0.4999980000000001    0.0010550000000000 Ni
   0.4998920000000000    0.8007700000000001    0.7499800000000000 Ni
   0.5992420000000001    0.8999980000000001    0.0010550000000000 Ni
   0.2998920000000000    0.6007700000000001    0.2499800000000000 Ni
   0.3992420000000000    0.6999980000000001    0.5010550000000000 Ni
   0.6998920000000001    0.0007700000000000    0.2499800000000000 Ni
   0.7992420000000001    0.0999980000000000    0.5010550000000000 Ni
   0.6998920000000001    0.0007700000000000    0.7499800000000000 Ni
   0.7992420000000001    0.0999980000000000    0.0010550000000000 Ni
   0.4998920000000000    0.8007700000000001    0.2499800000000000 Ni
   0.5992420000000001    0.8999980000000001    0.5010550000000000 Ni
   0.2998920000000000    0.6007700000000001    0.7499800000000000 Ni
   0.3992420000000000    0.6999980000000001    0.0010550000000000 Ni
   0.0998920000000000    0.4007700000000000    0.2499800000000000 Ni
   0.1992420000000000    0.4999980000000001    0.5010550000000000 Ni
   0.8998920000000000    0.2007700000000000    0.7499800000000000 Ni
   0.9992420000000001    0.2999980000000000    0.0010550000000000 Ni
   0.6998920000000001    0.8007700000000001    0.2499800000000000 Ni
   0.7992420000000001    0.8999980000000001    0.5010550000000000 Ni
   0.0998920000000000    0.2007700000000000    0.2499800000000000 Ni
   0.1992420000000000    0.2999980000000000    0.5010550000000000 Ni
   0.8998920000000000    0.0007700000000000    0.7499800000000000 Ni
   0.9992420000000001    0.0999980000000000    0.0010550000000000 Ni
   0.2998920000000000    0.4007700000000000    0.7499800000000000 Ni
   0.3992420000000000    0.4999980000000001    0.0010550000000000 Ni
   0.4998920000000000    0.6007700000000001    0.2499800000000000 Ni
   0.5992420000000001    0.6999980000000001    0.5010550000000000 Ni
   0.6998920000000001    0.8007700000000001    0.7499800000000000 Ni
   0.7992420000000001    0.8999980000000001    0.0010550000000000 Ni
   0.0998920000000000    0.2007700000000000    0.7499800000000000 Ni
   0.1992420000000000    0.2999980000000000    0.0010550000000000 Ni
   0.8998920000000000    0.0007700000000000    0.2499800000000000 Ni
   0.9992420000000001    0.0999980000000000    0.5010550000000000 Ni
   0.2998920000000000    0.4007700000000000    0.2499800000000000 Ni
   0.3992420000000000    0.4999980000000001    0.5010550000000000 Ni
   0.4998920000000000    0.6007700000000001    0.7499800000000000 Ni
   0.5992420000000001    0.6999980000000001    0.0010550000000000 Ni
   0.6998920000000001    0.6007700000000001    0.2499800000000000 Ni
   0.7992420000000001    0.6999980000000001    0.5010550000000000 Ni
   0.4998920000000000    0.4007700000000000    0.2499800000000000 Ni
   0.5992420000000001    0.4999980000000001    0.5010550000000000 Ni
   0.2998920000000000    0.2007700000000000    0.7499800000000000 Ni
   0.3992420000000000    0.2999980000000000    0.0010550000000000 Ni
   0.0998920000000000    0.0007700000000000    0.2499800000000000 Ni
   0.1992420000000000    0.0999980000000000    0.5010550000000000 Ni
   0.8998920000000000    0.8007700000000001    0.7499800000000000 Ni
   0.9992420000000001    0.8999980000000001    0.0010550000000000 Ni
   0.6998920000000001    0.6007700000000001    0.7499800000000000 Ni
   0.7992420000000001    0.6999980000000001    0.0010550000000000 Ni
   0.0998920000000000    0.0007700000000000    0.7499800000000000 Ni
   0.1992420000000000    0.0999980000000000    0.0010550000000000 Ni
   0.8998920000000000    0.8007700000000001    0.2499800000000000 Ni
   0.9992420000000001    0.8999980000000001    0.5010550000000000 Ni
   0.4998920000000000    0.4007700000000000    0.7499800000000000 Ni
   0.5992420000000001    0.4999980000000001    0.0010550000000000 Ni
   0.2998920000000000    0.2007700000000000    0.2499800000000000 Ni
   0.3992420000000000    0.2999980000000000    0.5010550000000000 Ni
   0.9386266010666006    0.9996770090152546    0.1953774497154884 H
   0.7350680000000001    0.4013360000000000    0.2993700000000000 C
   0.7349340000000001    0.3997580000000000    0.2004500000000000 C
   0.6649420000000001    0.3987040000000000    0.2006550000000000 C
   0.6650800000000001    0.4002620000000000    0.2995450000000000 C
   0.7993860000000002    0.5359100000000000    0.4518600000000000 C
   0.7987880000000001    0.4662580000000000    0.4512200000000000 C
   0.8006220000000001    0.4640700000000000    0.5481600000000000 C
   0.8012320000000001    0.5337180000000000    0.5488350000000000 C
   0.9350680000000000    0.6013360000000001    0.2993700000000000 C
   0.9349340000000000    0.5997580000000000    0.2004500000000000 C
   0.8649420000000001    0.5987040000000000    0.2006550000000000 C
   0.8650800000000001    0.6002620000000001    0.2995450000000000 C
   0.9993860000000001    0.7359100000000001    0.4518600000000000 C
   0.9987880000000000    0.6662580000000001    0.4512200000000000 C
   0.0006220000000000    0.6640700000000000    0.5481600000000000 C
   0.0012320000000000    0.7337180000000001    0.5488350000000000 C
   0.1350680000000000    0.8013360000000000    0.7993700000000000 C
   0.1349340000000000    0.7997580000000001    0.7004500000000000 C
   0.0649420000000000    0.7987040000000001    0.7006550000000000 C
   0.0650800000000000    0.8002620000000000    0.7995450000000000 C
   0.1993860000000000    0.9359100000000000    0.9518599999999999 C
   0.1987880000000000    0.8662580000000001    0.9512200000000000 C
   0.2006220000000000    0.8640700000000000    0.0481600000000000 C
   0.2012320000000000    0.9337180000000000    0.0488350000000000 C
   0.3350680000000000    0.0013360000000000    0.2993700000000000 C
   0.3349340000000000    0.9997580000000000    0.2004500000000000 C
   0.2649420000000000    0.9987040000000000    0.2006550000000000 C
   0.2650800000000000    0.0002620000000000    0.2995450000000000 C
   0.3993860000000000    0.1359100000000000    0.4518600000000000 C
   0.3987880000000000    0.0662580000000000    0.4512200000000000 C
   0.4006220000000000    0.0640700000000000    0.5481600000000000 C
   0.4012320000000000    0.1337180000000000    0.5488350000000000 C
   0.5350680000000001    0.2013360000000000    0.7993700000000000 C
   0.5349340000000000    0.1997580000000000    0.7004500000000000 C
   0.4649420000000000    0.1987040000000000    0.7006550000000000 C
   0.4650800000000000    0.2002620000000000    0.7995450000000000 C
   0.5993860000000000    0.3359100000000000    0.9518599999999999 C
   0.5987880000000001    0.2662580000000000    0.9512200000000000 C
   0.6006220000000001    0.2640700000000000    0.0481600000000000 C
   0.6012320000000001    0.3337180000000000    0.0488350000000000 C
   0.7350680000000001    0.4013360000000000    0.7993700000000000 C
   0.7349340000000001    0.3997580000000000    0.7004500000000000 C
   0.6649420000000001    0.3987040000000000    0.7006550000000000 C
   0.6650800000000001    0.4002620000000000    0.7995450000000000 C
   0.7993860000000002    0.5359100000000000    0.9518599999999999 C
   0.7987880000000001    0.4662580000000000    0.9512200000000000 C
   0.8006220000000001    0.4640700000000000    0.0481600000000000 C
   0.8012320000000001    0.5337180000000000    0.0488350000000000 C
   0.5350680000000001    0.2013360000000000    0.2993700000000000 C
   0.5349340000000000    0.1997580000000000    0.2004500000000000 C
   0.4649420000000000    0.1987040000000000    0.2006550000000000 C
   0.4650800000000000    0.2002620000000000    0.2995450000000000 C
   0.5993860000000000    0.3359100000000000    0.4518600000000000 C
   0.5987880000000001    0.2662580000000000    0.4512200000000000 C
   0.6006220000000001    0.2640700000000000    0.5481600000000000 C
   0.6012320000000001    0.3337180000000000    0.5488350000000000 C
   0.3350680000000000    0.0013360000000000    0.7993700000000000 C
   0.3349340000000000    0.9997580000000000    0.7004500000000000 C
   0.2649420000000000    0.9987040000000000    0.7006550000000000 C
   0.2650800000000000    0.0002620000000000    0.7995450000000000 C
   0.3993860000000000    0.1359100000000000    0.9518599999999999 C
   0.3987880000000000    0.0662580000000000    0.9512200000000000 C
   0.4006220000000000    0.0640700000000000    0.0481600000000000 C
   0.4012320000000000    0.1337180000000000    0.0488350000000000 C
   0.9350680000000000    0.6013360000000001    0.7993700000000000 C
   0.9349340000000000    0.5997580000000000    0.7004500000000000 C
   0.8649420000000001    0.5987040000000000    0.7006550000000000 C
   0.8650800000000001    0.6002620000000001    0.7995450000000000 C
   0.9993860000000001    0.7359100000000001    0.9518599999999999 C
   0.9987880000000000    0.6662580000000001    0.9512200000000000 C
   0.0006220000000000    0.6640700000000000    0.0481600000000000 C
   0.0012320000000000    0.7337180000000001    0.0488350000000000 C
   0.1350680000000000    0.8013360000000000    0.2993700000000000 C
   0.1349340000000000    0.7997580000000001    0.2004500000000000 C
   0.0649420000000000    0.7987040000000001    0.2006550000000000 C
   0.0650800000000000    0.8002620000000000    0.2995450000000000 C
   0.1993860000000000    0.9359100000000000    0.4518600000000000 C
   0.1987880000000000    0.8662580000000001    0.4512200000000000 C
   0.2006220000000000    0.8640700000000000    0.5481600000000000 C
   0.2012320000000000    0.9337180000000000    0.5488350000000000 C
   0.7350680000000001    0.2013360000000000    0.7993700000000000 C
   0.7349340000000001    0.1997580000000000    0.7004500000000000 C
   0.6649420000000001    0.1987040000000000    0.7006550000000000 C
   0.6650800000000001    0.2002620000000000    0.7995450000000000 C
   0.7993860000000002    0.3359100000000000    0.9518599999999999 C
   0.7987880000000001    0.2662580000000000    0.9512200000000000 C
   0.8006220000000001    0.2640700000000000    0.0481600000000000 C
   0.8012320000000001    0.3337180000000000    0.0488350000000000 C
   0.5350680000000001    0.0013360000000000    0.7993700000000000 C
   0.5349340000000000    0.9997580000000000    0.7004500000000000 C
   0.4649420000000000    0.9987040000000000    0.7006550000000000 C
   0.4650800000000000    0.0002620000000000    0.7995450000000000 C
   0.5993860000000000    0.1359100000000000    0.9518599999999999 C
   0.5987880000000001    0.0662580000000000    0.9512200000000000 C
   0.6006220000000001    0.0640700000000000    0.0481600000000000 C
   0.6012320000000001    0.1337180000000000    0.0488350000000000 C
   0.3350680000000000    0.8013360000000000    0.2993700000000000 C
   0.3349340000000000    0.7997580000000001    0.2004500000000000 C
   0.2649420000000000    0.7987040000000001    0.2006550000000000 C
   0.2650800000000000    0.8002620000000000    0.2995450000000000 C
   0.3993860000000000    0.9359100000000000    0.4518600000000000 C
   0.3987880000000000    0.8662580000000001    0.4512200000000000 C
   0.4006220000000000    0.8640700000000000    0.5481600000000000 C
   0.4012320000000000    0.9337180000000000    0.5488350000000000 C
   0.1350680000000000    0.6013360000000001    0.7993700000000000 C
   0.1349340000000000    0.5997580000000000    0.7004500000000000 C
   0.0649420000000000    0.5987040000000000    0.7006550000000000 C
   0.0650800000000000    0.6002620000000001    0.7995450000000000 C
   0.1993860000000000    0.7359100000000001    0.9518599999999999 C
   0.1987880000000000    0.6662580000000001    0.9512200000000000 C
   0.2006220000000000    0.6640700000000000    0.0481600000000000 C
   0.2012320000000000    0.7337180000000001    0.0488350000000000 C
   0.9350680000000000    0.4013360000000000    0.2993700000000000 C
   0.9349340000000000    0.3997580000000000    0.2004500000000000 C
   0.8649420000000001    0.3987040000000000    0.2006550000000000 C
   0.8650800000000001    0.4002620000000000    0.2995450000000000 C
   0.9993860000000001    0.5359100000000000    0.4518600000000000 C
   0.9987880000000000    0.4662580000000000    0.4512200000000000 C
   0.0006220000000000    0.4640700000000000    0.5481600000000000 C
   0.0012320000000000    0.5337180000000000    0.5488350000000000 C
   0.7350680000000001    0.2013360000000000    0.2993700000000000 C
   0.7349340000000001    0.1997580000000000    0.2004500000000000 C
   0.6649420000000001    0.1987040000000000    0.2006550000000000 C
   0.6650800000000001    0.2002620000000000    0.2995450000000000 C
   0.7993860000000002    0.3359100000000000    0.4518600000000000 C
   0.7987880000000001    0.2662580000000000    0.4512200000000000 C
   0.8006220000000001    0.2640700000000000    0.5481600000000000 C
   0.8012320000000001    0.3337180000000000    0.5488350000000000 C
   0.5350680000000001    0.0013360000000000    0.2993700000000000 C
   0.5349340000000000    0.9997580000000000    0.2004500000000000 C
   0.4649420000000000    0.9987040000000000    0.2006550000000000 C
   0.4650800000000000    0.0002620000000000    0.2995450000000000 C
   0.5993860000000000    0.1359100000000000    0.4518600000000000 C
   0.5987880000000001    0.0662580000000000    0.4512200000000000 C
   0.6006220000000001    0.0640700000000000    0.5481600000000000 C
   0.6012320000000001    0.1337180000000000    0.5488350000000000 C
   0.9350680000000000    0.4013360000000000    0.7993700000000000 C
   0.9349340000000000    0.3997580000000000    0.7004500000000000 C
   0.8649420000000001    0.3987040000000000    0.7006550000000000 C
   0.8650800000000001    0.4002620000000000    0.7995450000000000 C
   0.9993860000000001    0.5359100000000000    0.9518599999999999 C
   0.9987880000000000    0.4662580000000000    0.9512200000000000 C
   0.0006220000000000    0.4640700000000000    0.0481600000000000 C
   0.0012320000000000    0.5337180000000000    0.0488350000000000 C
   0.1350680000000000    0.6013360000000001    0.2993700000000000 C
   0.1349340000000000    0.5997580000000000    0.2004500000000000 C
   0.0649420000000000    0.5987040000000000    0.2006550000000000 C
   0.0650800000000000    0.6002620000000001    0.2995450000000000 C
   0.1993860000000000    0.7359100000000001    0.4518600000000000 C
   0.1987880000000000    0.6662580000000001    0.4512200000000000 C
   0.2006220000000000    0.6640700000000000    0.5481600000000000 C
   0.2012320000000000    0.7337180000000001    0.5488350000000000 C
   0.3350680000000000    0.8013360000000000    0.7993700000000000 C
   0.3349340000000000    0.7997580000000001    0.7004500000000000 C
   0.2649420000000000    0.7987040000000001    0.7006550000000000 C
   0.2650800000000000    0.8002620000000000    0.7995450000000000 C
   0.3993860000000000    0.9359100000000000    0.9518599999999999 C
   0.3987880000000000    0.8662580000000001    0.9512200000000000 C
   0.4006220000000000    0.8640700000000000    0.0481600000000000 C
   0.4012320000000000    0.9337180000000000    0.0488350000000000 C
   0.9350680000000000    0.2013360000000000    0.2993700000000000 C
   0.9349340000000000    0.1997580000000000    0.2004500000000000 C
   0.8649420000000001    0.1987040000000000    0.2006550000000000 C
   0.8650800000000001    0.2002620000000000    0.2995450000000000 C
   0.9993860000000001    0.3359100000000000    0.4518600000000000 C
   0.9987880000000000    0.2662580000000000    0.4512200000000000 C
   0.0006220000000000    0.2640700000000000    0.5481600000000000 C
   0.0012320000000000    0.3337180000000000    0.5488350000000000 C
   0.1350680000000000    0.4013360000000000    0.7993700000000000 C
   0.1349340000000000    0.3997580000000000    0.7004500000000000 C
   0.0649420000000000    0.3987040000000000    0.7006550000000000 C
   0.0650800000000000    0.4002620000000000    0.7995450000000000 C
   0.1993860000000000    0.5359100000000000    0.9518599999999999 C
   0.1987880000000000    0.4662580000000000    0.9512200000000000 C
   0.2006220000000000    0.4640700000000000    0.0481600000000000 C
   0.2012320000000000    0.5337180000000000    0.0488350000000000 C
   0.5350680000000001    0.8013360000000000    0.7993700000000000 C
   0.5349340000000000    0.7997580000000001    0.7004500000000000 C
   0.4649420000000000    0.7987040000000001    0.7006550000000000 C
   0.4650800000000000    0.8002620000000000    0.7995450000000000 C
   0.5993860000000000    0.9359100000000000    0.9518599999999999 C
   0.5987880000000001    0.8662580000000001    0.9512200000000000 C
   0.6006220000000001    0.8640700000000000    0.0481600000000000 C
   0.6012320000000001    0.9337180000000000    0.0488350000000000 C
   0.3350680000000000    0.6013360000000001    0.2993700000000000 C
   0.3349340000000000    0.5997580000000000    0.2004500000000000 C
   0.2649420000000000    0.5987040000000000    0.2006550000000000 C
   0.2650800000000000    0.6002620000000001    0.2995450000000000 C
   0.3993860000000000    0.7359100000000001    0.4518600000000000 C
   0.3987880000000000    0.6662580000000001    0.4512200000000000 C
   0.4006220000000000    0.6640700000000000    0.5481600000000000 C
   0.4012320000000000    0.7337180000000001    0.5488350000000000 C
   0.7350680000000001    0.0013360000000000    0.2993700000000000 C
   0.7349340000000001    0.9997580000000000    0.2004500000000000 C
   0.6649420000000001    0.9987040000000000    0.2006550000000000 C
   0.6650800000000001    0.0002620000000000    0.2995450000000000 C
   0.7993860000000002    0.1359100000000000    0.4518600000000000 C
   0.7987880000000001    0.0662580000000000    0.4512200000000000 C
   0.8006220000000001    0.0640700000000000    0.5481600000000000 C
   0.8012320000000001    0.1337180000000000    0.5488350000000000 C
   0.7350680000000001    0.0013360000000000    0.7993700000000000 C
   0.7349340000000001    0.9997580000000000    0.7004500000000000 C
   0.6649420000000001    0.9987040000000000    0.7006550000000000 C
   0.6650800000000001    0.0002620000000000    0.7995450000000000 C
   0.7993860000000002    0.1359100000000000    0.9518599999999999 C
   0.7987880000000001    0.0662580000000000    0.9512200000000000 C
   0.8006220000000001    0.0640700000000000    0.0481600000000000 C
   0.8012320000000001    0.1337180000000000    0.0488350000000000 C
   0.5350680000000001    0.8013360000000000    0.2993700000000000 C
   0.5349340000000000    0.7997580000000001    0.2004500000000000 C
   0.4649420000000000    0.7987040000000001    0.2006550000000000 C
   0.4650800000000000    0.8002620000000000    0.2995450000000000 C
   0.5993860000000000    0.9359100000000000    0.4518600000000000 C
   0.5987880000000001    0.8662580000000001    0.4512200000000000 C
   0.6006220000000001    0.8640700000000000    0.5481600000000000 C
   0.6012320000000001    0.9337180000000000    0.5488350000000000 C
   0.3350680000000000    0.6013360000000001    0.7993700000000000 C
   0.3349340000000000    0.5997580000000000    0.7004500000000000 C
   0.2649420000000000    0.5987040000000000    0.7006550000000000 C
   0.2650800000000000    0.6002620000000001    0.7995450000000000 C
   0.3993860000000000    0.7359100000000001    0.9518599999999999 C
   0.3987880000000000    0.6662580000000001    0.9512200000000000 C
   0.4006220000000000    0.6640700000000000    0.0481600000000000 C
   0.4012320000000000    0.7337180000000001    0.0488350000000000 C
   0.1350680000000000    0.4013360000000000    0.2993700000000000 C
   0.1349340000000000    0.3997580000000000    0.2004500000000000 C
   0.0649420000000000    0.3987040000000000    0.2006550000000000 C
   0.0650800000000000    0.4002620000000000    0.2995450000000000 C
   0.1993860000000000    0.5359100000000000    0.4518600000000000 C
   0.1987880000000000    0.4662580000000000    0.4512200000000000 C
   0.2006220000000000    0.4640700000000000    0.5481600000000000 C
   0.2012320000000000    0.5337180000000000    0.5488350000000000 C
   0.9350680000000000    0.2013360000000000    0.7993700000000000 C