H1 O1
1.0
  37.2874941844880610    0.0000000000000000    0.0208252675521291
   1.1094036207798033   37.4298010274489172    0.9184361174217028
   0.0000000000000000    0.0000000000000000   26.1000000000000014
H O
1 1
direct
   0.9386266010666006    0.9996770090152546    0.1953774497154884 H
   0.9575480000000001    0.9992620000000001    0.1693850000000000 O
