H7 O4
1.0
  17.1464998720334947    0.0000000000000000   -0.0020948401561422
  -0.5371199749708176   10.6029040525770064   -0.0001852928800298
   0.0000000000000000    0.0000000000000000   32.3900000000000006
H O
7 4
direct
   0.4237497946764345    0.8616697784007991    0.8961916748004317 H
   0.5996073284498300    0.5621847190292512    0.7804529704092565 H
   0.6284026715501700    0.5664752809707488    0.7915120295907435 H
   0.5383686268932669    0.5947195957282488    0.7884221971483892 H
   0.5525469711443983    0.6317368095456983    0.7721895524465904 H
   0.5432651833421788    0.6368089198119199    0.8205787247487382 H
   0.6326354149306597    0.6082342285799631    0.8244712711095000 H
   0.4451600000000000    0.8665800000000000    0.9241850000000000 O
   0.5821933333333333    0.5595900000000000    0.7737650000000000 O
   0.6458166666666667    0.5690700000000000    0.7982000000000000 O
   0.5215266666666667    0.6082200000000000    0.7940550000000000 O
