Cu24 H99 C138 N115 O4
1.0
  17.1464998720334947    0.0000000000000000   -0.0020948401561422
  -0.5371199749708176   10.6029040525770064   -0.0001852928800298
   0.0000000000000000    0.0000000000000000   32.3900000000000006
Cu H C N O
24 99 138 115 4
direct
   0.9171699999999999    0.9953500000000000    0.5347550000000000 Cu
   0.0826866666666667    0.0037200000000000    0.4652450000000000 Cu
   0.2505200000000000    0.4951800000000000    0.2152550000000000 Cu
   0.4159700000000000    0.5039700000000000    0.2847350000000000 Cu
   0.5838366666666666    0.9953500000000000    0.5347550000000000 Cu
   0.7493533333333333    0.0037200000000000    0.4652450000000000 Cu
   0.9171866666666666    0.4951800000000000    0.2152550000000000 Cu
   0.0826366666666667    0.5039700000000000    0.2847350000000000 Cu
   0.2505033333333333    0.9953500000000000    0.5347550000000000 Cu
   0.4160199999999999    0.0037200000000000    0.4652450000000000 Cu
   0.5838533333333333    0.4951800000000000    0.2152550000000000 Cu
   0.7493033333333333    0.5039700000000000    0.2847350000000000 Cu
   0.5838366666666666    0.9953500000000000    0.0347550000000000 Cu
   0.7493533333333333    0.0037200000000000    0.9652450000000000 Cu
   0.9171866666666666    0.4951800000000000    0.7152550000000000 Cu
   0.0826366666666667    0.5039700000000000    0.7847350000000000 Cu
   0.2505033333333333    0.9953500000000000    0.0347550000000000 Cu
   0.4160199999999999    0.0037200000000000    0.9652450000000000 Cu
   0.5838533333333333    0.4951800000000000    0.7152550000000000 Cu
   0.7493033333333333    0.5039700000000000    0.7847350000000000 Cu
   0.9171699999999999    0.9953500000000000    0.0347550000000000 Cu
   0.0826866666666667    0.0037200000000000    0.9652450000000000 Cu
   0.2505200000000000    0.4951800000000000    0.7152550000000000 Cu
   0.4159700000000000    0.5039700000000000    0.7847350000000000 Cu
   0.2461000000000000    0.7137300000000000    0.5738000000000000 H
   0.0735633333333333    0.8290900000000000    0.6612100000000000 H
   0.1368166666666666    0.6964800000000000    0.7140050000000000 H
   0.3009700000000000    0.5828400000000000    0.6296550000000000 H
   0.7539266666666666    0.2858900000000000    0.4261800000000000 H
   0.9265166666666667    0.1707100000000000    0.3387800000000000 H
   0.8632133333333333    0.3032700000000000    0.2859750000000000 H
   0.6989900000000000    0.4167300000000000    0.3703250000000000 H
   0.5795933333333333    0.2143200000000000    0.1761400000000000 H
   0.4069733333333333    0.3295000000000000    0.0887300000000000 H
   0.4702400000000000    0.1968600000000000    0.0359350000000000 H
   0.6345133333333333    0.0834800000000000    0.1202850000000000 H
   0.0870533333333333    0.7858300000000000    0.3238000000000000 H
   0.2596466666666666    0.6705900000000000    0.4112050000000000 H
   0.1964933333333333    0.8034000000000000    0.4639800000000000 H
   0.0322433333333333    0.9168400000000000    0.3796250000000000 H
   0.9127666666666666    0.7137300000000000    0.5738000000000000 H
   0.7402299999999999    0.8290900000000000    0.6612100000000000 H
   0.8034833333333333    0.6964800000000000    0.7140050000000000 H
   0.9676366666666666    0.5828400000000000    0.6296550000000000 H
   0.4205933333333333    0.2858900000000000    0.4261800000000000 H
   0.5931833333333333    0.1707100000000000    0.3387800000000000 H
   0.5298800000000000    0.3032700000000000    0.2859750000000000 H
   0.3656566666666666    0.4167300000000000    0.3703250000000000 H
   0.2462600000000000    0.2143200000000000    0.1761400000000000 H
   0.0736400000000000    0.3295000000000000    0.0887300000000000 H
   0.1369066666666666    0.1968600000000000    0.0359350000000000 H
   0.3011800000000000    0.0834800000000000    0.1202850000000000 H
   0.7537199999999999    0.7858300000000000    0.3238000000000000 H
   0.9263133333333333    0.6705900000000000    0.4112050000000000 H
   0.8631599999999999    0.8034000000000000    0.4639800000000000 H
   0.6989099999999999    0.9168400000000000    0.3796250000000000 H
   0.5794333333333332    0.7137300000000000    0.5738000000000000 H
   0.4068966666666666    0.8290900000000000    0.6612100000000000 H
   0.4701500000000000    0.6964800000000000    0.7140050000000000 H
   0.6343033333333332    0.5828400000000000    0.6296550000000000 H
   0.0872600000000000    0.2858900000000000    0.4261800000000000 H
   0.2598500000000000    0.1707100000000000    0.3387800000000000 H
   0.1965466666666667    0.3032700000000000    0.2859750000000000 H
   0.0323233333333333    0.4167300000000000    0.3703250000000000 H
   0.9129266666666667    0.2143200000000000    0.1761400000000000 H
   0.7403066666666667    0.3295000000000000    0.0887300000000000 H
   0.8035733333333333    0.1968600000000000    0.0359350000000000 H
   0.9678466666666666    0.0834800000000000    0.1202850000000000 H
   0.4203866666666666    0.7858300000000000    0.3238000000000000 H
   0.5929800000000000    0.6705900000000000    0.4112050000000000 H
   0.5298266666666667    0.8034000000000000    0.4639800000000000 H
   0.3655766666666667    0.9168400000000000    0.3796250000000000 H
   0.9127666666666666    0.7137300000000000    0.0738000000000000 H
   0.7402299999999999    0.8290900000000000    0.1612100000000000 H
   0.8034833333333333    0.6964800000000000    0.2140050000000000 H
   0.9676366666666666    0.5828400000000000    0.1296550000000000 H
   0.4205933333333333    0.2858900000000000    0.9261800000000000 H
   0.5931833333333333    0.1707100000000000    0.8387800000000001 H
   0.5298800000000000    0.3032700000000000    0.7859750000000000 H
   0.3656566666666666    0.4167300000000000    0.8703250000000000 H
   0.2462600000000000    0.2143200000000000    0.6761400000000000 H
   0.0736400000000000    0.3295000000000000    0.5887300000000000 H
   0.1369066666666666    0.1968600000000000    0.5359350000000001 H
   0.3011800000000000    0.0834800000000000    0.6202850000000000 H
   0.7537199999999999    0.7858300000000000    0.8238000000000000 H
   0.9263133333333333    0.6705900000000000    0.9112050000000000 H
   0.8631599999999999    0.8034000000000000    0.9639800000000001 H
   0.6989099999999999    0.9168400000000000    0.8796250000000000 H
   0.4237497946764345    0.8616697784007991    0.8961916748004317 H
   0.5794333333333332    0.7137300000000000    0.0738000000000000 H
   0.4068966666666666    0.8290900000000000    0.1612100000000000 H
   0.4701500000000000    0.6964800000000000    0.2140050000000000 H
   0.6343033333333332    0.5828400000000000    0.1296550000000000 H
   0.0872600000000000    0.2858900000000000    0.9261800000000000 H
   0.2598500000000000    0.1707100000000000    0.8387800000000001 H
   0.1965466666666667    0.3032700000000000    0.7859750000000000 H
   0.0323233333333333    0.4167300000000000    0.8703250000000000 H
   0.9129266666666667    0.2143200000000000    0.6761400000000000 H
   0.7403066666666667    0.3295000000000000    0.5887300000000000 H
   0.8035733333333333    0.1968600000000000    0.5359350000000001 H
   0.9678466666666666    0.0834800000000000    0.6202850000000000 H
   0.5996073284498300    0.5621847190292512    0.7804529704092565 H
   0.6284026715501700    0.5664752809707488    0.7915120295907435 H
   0.5383686268932669    0.5947195957282488    0.7884221971483892 H
   0.5525469711443983    0.6317368095456983    0.7721895524465904 H
   0.5432651833421788    0.6368089198119199    0.8205787247487382 H
   0.6326354149306597    0.6082342285799631    0.8244712711095000 H
   0.2461000000000000    0.7137300000000000    0.0738000000000000 H
   0.0735633333333333    0.8290900000000000    0.1612100000000000 H
   0.1368166666666666    0.6964800000000000    0.2140050000000000 H
   0.3009700000000000    0.5828400000000000    0.1296550000000000 H
   0.7539266666666666    0.2858900000000000    0.9261800000000000 H
   0.9265166666666667    0.1707100000000000    0.8387800000000001 H
   0.8632133333333333    0.3032700000000000    0.7859750000000000 H
   0.6989900000000000    0.4167300000000000    0.8703250000000000 H
   0.5795933333333333    0.2143200000000000    0.6761400000000000 H
   0.4069733333333333    0.3295000000000000    0.5887300000000000 H
   0.4702400000000000    0.1968600000000000    0.5359350000000001 H
   0.6345133333333333    0.0834800000000000    0.6202850000000000 H
   0.0870533333333333    0.7858300000000000    0.8238000000000000 H
   0.2596466666666666    0.6705900000000000    0.9112050000000000 H
   0.1964933333333333    0.8034000000000000    0.9639800000000001 H
   0.0322433333333333    0.9168400000000000    0.8796250000000000 H
   0.1147866666666667    0.8516600000000000    0.5809050000000000 C
   0.2200566666666667    0.7124900000000000    0.6044150000000000 C
   0.1244933333333333    0.7769300000000000    0.6532200000000000 C
   0.1593200000000000    0.7030800000000000    0.6825400000000000 C
   0.2510033333333333    0.6399100000000000    0.6354950000000000 C
   0.1545633333333333    0.7822700000000000    0.6128100000000000 C
   0.8852333333333333    0.1480900000000000    0.4190600000000000 C
   0.7799466666666666    0.2871400000000000    0.3955600000000000 C
   0.8755466666666666    0.2228000000000000    0.3467550000000000 C
   0.8406899999999999    0.2966000000000000    0.3174350000000000 C
   0.7489699999999999    0.3596800000000000    0.3644850000000000 C
   0.8454733333333333    0.2174600000000000    0.3871600000000000 C
   0.4481866666666666    0.3519500000000000    0.1690200000000000 C
   0.5535533333333333    0.2130500000000000    0.1455200000000000 C
   0.4579366666666667    0.2774000000000000    0.0967100000000000 C
   0.4927733333333333    0.2035800000000000    0.0673900000000000 C
   0.5845266666666666    0.1405200000000000    0.1144500000000000 C
   0.4880099999999999    0.2827000000000000    0.1371200000000000 C
   0.2184033333333333    0.6479500000000000    0.3309150000000000 C
   0.1131200000000000    0.7871200000000000    0.3544100000000000 C
   0.2087166666666667    0.7227600000000000    0.4032150000000000 C
   0.1739366666666667    0.7967100000000000    0.4325200000000000 C
   0.0822200000000000    0.8597900000000001    0.3854750000000000 C
   0.1786400000000000    0.7174000000000000    0.3628050000000000 C
   0.7814533333333333    0.8516600000000000    0.5809050000000000 C
   0.8867233333333333    0.7124900000000000    0.6044150000000000 C
   0.7911600000000000    0.7769300000000000    0.6532200000000000 C
   0.8259866666666666    0.7030800000000000    0.6825400000000000 C
   0.9176700000000000    0.6399100000000000    0.6354950000000000 C
   0.8212299999999999    0.7822700000000000    0.6128100000000000 C
   0.5518999999999999    0.1480900000000000    0.4190600000000000 C
   0.4466133333333333    0.2871400000000000    0.3955600000000000 C
   0.5422133333333333    0.2228000000000000    0.3467550000000000 C
   0.5073566666666667    0.2966000000000000    0.3174350000000000 C
   0.4156366666666667    0.3596800000000000    0.3644850000000000 C
   0.5121400000000000    0.2174600000000000    0.3871600000000000 C
   0.1148533333333333    0.3519500000000000    0.1690200000000000 C
   0.2202200000000000    0.2130500000000000    0.1455200000000000 C
   0.1246033333333333    0.2774000000000000    0.0967100000000000 C
   0.1594400000000000    0.2035800000000000    0.0673900000000000 C
   0.2511933333333333    0.1405200000000000    0.1144500000000000 C
   0.1546766666666667    0.2827000000000000    0.1371200000000000 C
   0.8850699999999999    0.6479500000000000    0.3309150000000000 C
   0.7797866666666666    0.7871200000000000    0.3544100000000000 C
   0.8753833333333333    0.7227600000000000    0.4032150000000000 C
   0.8406033333333333    0.7967100000000000    0.4325200000000000 C
   0.7488866666666666    0.8597900000000001    0.3854750000000000 C
   0.8453066666666667    0.7174000000000000    0.3628050000000000 C
   0.4481200000000000    0.8516600000000000    0.5809050000000000 C
   0.5533900000000000    0.7124900000000000    0.6044150000000000 C
   0.4578266666666666    0.7769300000000000    0.6532200000000000 C
   0.4926533333333333    0.7030800000000000    0.6825400000000000 C
   0.5843366666666666    0.6399100000000000    0.6354950000000000 C
   0.4878966666666666    0.7822700000000000    0.6128100000000000 C
   0.2185666666666666    0.1480900000000000    0.4190600000000000 C
   0.1132800000000000    0.2871400000000000    0.3955600000000000 C
   0.2088800000000000    0.2228000000000000    0.3467550000000000 C
   0.1740233333333333    0.2966000000000000    0.3174350000000000 C
   0.0823033333333333    0.3596800000000000    0.3644850000000000 C
   0.1788066666666667    0.2174600000000000    0.3871600000000000 C
   0.7815200000000000    0.3519500000000000    0.1690200000000000 C
   0.8868866666666666    0.2130500000000000    0.1455200000000000 C
   0.7912699999999999    0.2774000000000000    0.0967100000000000 C
   0.8261066666666667    0.2035800000000000    0.0673900000000000 C
   0.9178599999999999    0.1405200000000000    0.1144500000000000 C
   0.8213433333333333    0.2827000000000000    0.1371200000000000 C
   0.5517366666666667    0.6479500000000000    0.3309150000000000 C
   0.4464533333333333    0.7871200000000000    0.3544100000000000 C
   0.5420499999999999    0.7227600000000000    0.4032150000000000 C
   0.5072700000000000    0.7967100000000000    0.4325200000000000 C
   0.4155533333333333    0.8597900000000001    0.3854750000000000 C
   0.5119733333333333    0.7174000000000000    0.3628050000000000 C
   0.7814533333333333    0.8516600000000000    0.0809050000000000 C
   0.8867233333333333    0.7124900000000000    0.1044150000000000 C
   0.7911600000000000    0.7769300000000000    0.1532200000000000 C
   0.8259866666666666    0.7030800000000000    0.1825400000000000 C
   0.9176700000000000    0.6399100000000000    0.1354950000000000 C
   0.8212299999999999    0.7822700000000000    0.1128100000000000 C
   0.5518999999999999    0.1480900000000000    0.9190600000000000 C
   0.4466133333333333    0.2871400000000000    0.8955600000000000 C
   0.5422133333333333    0.2228000000000000    0.8467549999999999 C
   0.5073566666666667    0.2966000000000000    0.8174350000000000 C
   0.4156366666666667    0.3596800000000000    0.8644849999999999 C
   0.5121400000000000    0.2174600000000000    0.8871599999999999 C
   0.1148533333333333    0.3519500000000000    0.6690199999999999 C
   0.2202200000000000    0.2130500000000000    0.6455200000000000 C
   0.1246033333333333    0.2774000000000000    0.5967100000000000 C
   0.1594400000000000    0.2035800000000000    0.5673900000000001 C
   0.2511933333333333    0.1405200000000000    0.6144499999999999 C
   0.1546766666666667    0.2827000000000000    0.6371200000000000 C
   0.8850699999999999    0.6479500000000000    0.8309150000000001 C
   0.7797866666666666    0.7871200000000000    0.8544100000000000 C
   0.8753833333333333    0.7227600000000000    0.9032150000000000 C
   0.8406033333333333    0.7967100000000000    0.9325200000000000 C
   0.7488866666666666    0.8597900000000001    0.8854750000000000 C
   0.8453066666666667    0.7174000000000000    0.8628050000000000 C
   0.4481200000000000    0.8516600000000000    0.0809050000000000 C
   0.5533900000000000    0.7124900000000000    0.1044150000000000 C
   0.4578266666666666    0.7769300000000000    0.1532200000000000 C
   0.4926533333333333    0.7030800000000000    0.1825400000000000 C
   0.5843366666666666    0.6399100000000000    0.1354950000000000 C
   0.4878966666666666    0.7822700000000000    0.1128100000000000 C
   0.2185666666666666    0.1480900000000000    0.9190600000000000 C
   0.1132800000000000    0.2871400000000000    0.8955600000000000 C
   0.2088800000000000    0.2228000000000000    0.8467549999999999 C
   0.1740233333333333    0.2966000000000000    0.8174350000000000 C
   0.0823033333333333    0.3596800000000000    0.8644849999999999 C
   0.1788066666666667    0.2174600000000000    0.8871599999999999 C
   0.7815200000000000    0.3519500000000000    0.6690199999999999 C
   0.8868866666666666    0.2130500000000000    0.6455200000000000 C
   0.7912699999999999    0.2774000000000000    0.5967100000000000 C
   0.8261066666666667    0.2035800000000000    0.5673900000000001 C
   0.9178599999999999    0.1405200000000000    0.6144499999999999 C
   0.8213433333333333    0.2827000000000000    0.6371200000000000 C
   0.1147866666666667    0.8516600000000000    0.0809050000000000 C
   0.2200566666666667    0.7124900000000000    0.1044150000000000 C
   0.1244933333333333    0.7769300000000000    0.1532200000000000 C
   0.1593200000000000    0.7030800000000000    0.1825400000000000 C
   0.2510033333333333    0.6399100000000000    0.1354950000000000 C
   0.1545633333333333    0.7822700000000000    0.1128100000000000 C
   0.8852333333333333    0.1480900000000000    0.9190600000000000 C
   0.7799466666666666    0.2871400000000000    0.8955600000000000 C
   0.8755466666666666    0.2228000000000000    0.8467549999999999 C
   0.8406899999999999    0.2966000000000000    0.8174350000000000 C
   0.7489699999999999    0.3596800000000000    0.8644849999999999 C
   0.8454733333333333    0.2174600000000000    0.8871599999999999 C
   0.4481866666666666    0.3519500000000000    0.6690199999999999 C
   0.5535533333333333    0.2130500000000000    0.6455200000000000 C
   0.4579366666666667    0.2774000000000000    0.5967100000000000 C
   0.4927733333333333    0.2035800000000000    0.5673900000000001 C
   0.5845266666666666    0.1405200000000000    0.6144499999999999 C
   0.4880099999999999    0.2827000000000000    0.6371200000000000 C
   0.2184033333333333    0.6479500000000000    0.8309150000000001 C
   0.1131200000000000    0.7871200000000000    0.8544100000000000 C
   0.2087166666666667    0.7227600000000000    0.9032150000000000 C
   0.1739366666666667    0.7967100000000000    0.9325200000000000 C
   0.0822200000000000    0.8597900000000001    0.8854750000000000 C
   0.1786400000000000    0.7174000000000000    0.8628050000000000 C
   0.0207066666666667    0.9304900000000000    0.5481650000000000 N
   0.0387466666666667    0.8767700000000000    0.5841499999999999 N
   0.0843566666666667    0.9401100000000000    0.5237600000000000 N
   0.1450266666666667    0.8915100000000000    0.5440700000000001 N
   0.2214466666666667    0.6332500000000000    0.6742049999999999 N
   0.9793099999999999    0.0693600000000000    0.4518250000000000 N
   0.9612733333333333    0.1229600000000000    0.4158200000000000 N
   0.9155966666666666    0.0595800000000000    0.4761850000000000 N
   0.8549566666666666    0.1082700000000000    0.4558900000000000 N
   0.7785266666666666    0.3663400000000000    0.3257750000000000 N
   0.3540566666666666    0.4305500000000000    0.2017650000000000 N
   0.3721733333333333    0.3771600000000000    0.1657350000000000 N
   0.4176600000000000    0.4399800000000000    0.2262150000000000 N
   0.4783433333333333    0.3914300000000000    0.2059150000000000 N
   0.5549299999999999    0.1338200000000000    0.0757400000000000 N
   0.3124833333333333    0.5690700000000000    0.2982000000000000 N
   0.2944233333333333    0.6227300000000000    0.3341950000000000 N
   0.2488600000000000    0.5595900000000000    0.2737650000000000 N
   0.1881933333333333    0.6082200000000000    0.2940550000000000 N
   0.1118266666666667    0.8665800000000000    0.4241850000000000 N
   0.6873733333333333    0.9304900000000000    0.5481650000000000 N
   0.7054133333333333    0.8767700000000000    0.5841499999999999 N
   0.7510233333333333    0.9401100000000000    0.5237600000000000 N
   0.8116933333333333    0.8915100000000000    0.5440700000000001 N
   0.8881133333333333    0.6332500000000000    0.6742049999999999 N
   0.6459766666666666    0.0693600000000000    0.4518250000000000 N
   0.6279399999999999    0.1229600000000000    0.4158200000000000 N
   0.5822633333333334    0.0595800000000000    0.4761850000000000 N
   0.5216233333333333    0.1082700000000000    0.4558900000000000 N
   0.4451933333333333    0.3663400000000000    0.3257750000000000 N
   0.0207233333333333    0.4305500000000000    0.2017650000000000 N
   0.0388400000000000    0.3771600000000000    0.1657350000000000 N
   0.0843266666666667    0.4399800000000000    0.2262150000000000 N
   0.1450100000000000    0.3914300000000000    0.2059150000000000 N
   0.2215966666666667    0.1338200000000000    0.0757400000000000 N
   0.9791500000000000    0.5690700000000000    0.2982000000000000 N
   0.9610900000000000    0.6227300000000000    0.3341950000000000 N
   0.9155266666666666    0.5595900000000000    0.2737650000000000 N
   0.8548600000000000    0.6082200000000000    0.2940550000000000 N
   0.7784933333333333    0.8665800000000000    0.4241850000000000 N
   0.3540400000000000    0.9304900000000000    0.5481650000000000 N
   0.3720800000000000    0.8767700000000000    0.5841499999999999 N
   0.4176900000000000    0.9401100000000000    0.5237600000000000 N
   0.4783600000000000    0.8915100000000000    0.5440700000000001 N
   0.5547800000000001    0.6332500000000000    0.6742049999999999 N
   0.3126433333333333    0.0693600000000000    0.4518250000000000 N
   0.2946066666666667    0.1229600000000000    0.4158200000000000 N
   0.2489300000000000    0.0595800000000000    0.4761850000000000 N
   0.1882900000000000    0.1082700000000000    0.4558900000000000 N
   0.1118600000000000    0.3663400000000000    0.3257750000000000 N
   0.6873899999999999    0.4305500000000000    0.2017650000000000 N
   0.7055066666666666    0.3771600000000000    0.1657350000000000 N
   0.7509933333333333    0.4399800000000000    0.2262150000000000 N
   0.8116766666666666    0.3914300000000000    0.2059150000000000 N
   0.8882633333333333    0.1338200000000000    0.0757400000000000 N
   0.6458166666666667    0.5690700000000000    0.2982000000000000 N
   0.6277566666666666    0.6227300000000000    0.3341950000000000 N
   0.5821933333333333    0.5595900000000000    0.2737650000000000 N
   0.5215266666666667    0.6082200000000000    0.2940550000000000 N
   0.4451600000000000    0.8665800000000000    0.4241850000000000 N
   0.6873733333333333    0.9304900000000000    0.0481650000000000 N
   0.7054133333333333    0.8767700000000000    0.0841500000000000 N
   0.7510233333333333    0.9401100000000000    0.0237600000000000 N
   0.8116933333333333    0.8915100000000000    0.0440700000000000 N
   0.8881133333333333    0.6332500000000000    0.1742050000000000 N
   0.6459766666666666    0.0693600000000000    0.9518249999999999 N
   0.6279399999999999    0.1229600000000000    0.9158200000000001 N
   0.5822633333333334    0.0595800000000000    0.9761850000000001 N
   0.5216233333333333    0.1082700000000000    0.9558900000000000 N
   0.4451933333333333    0.3663400000000000    0.8257749999999999 N
   0.0207233333333333    0.4305500000000000    0.7017650000000000 N
   0.0388400000000000    0.3771600000000000    0.6657350000000000 N
   0.0843266666666667    0.4399800000000000    0.7262150000000001 N
   0.1450100000000000    0.3914300000000000    0.7059150000000000 N
   0.2215966666666667    0.1338200000000000    0.5757400000000000 N
   0.9791500000000000    0.5690700000000000    0.7982000000000000 N
   0.9610900000000000    0.6227300000000000    0.8341950000000000 N
   0.9155266666666666    0.5595900000000000    0.7737650000000000 N
   0.8548600000000000    0.6082200000000000    0.7940550000000000 N
   0.7784933333333333    0.8665800000000000    0.9241850000000000 N
   0.3540400000000000    0.9304900000000000    0.0481650000000000 N
   0.3720800000000000    0.8767700000000000    0.0841500000000000 N
   0.4176900000000000    0.9401100000000000    0.0237600000000000 N
   0.4783600000000000    0.8915100000000000    0.0440700000000000 N
   0.5547800000000001    0.6332500000000000    0.1742050000000000 N
   0.3126433333333333    0.0693600000000000    0.9518249999999999 N
   0.2946066666666667    0.1229600000000000    0.9158200000000001 N
   0.2489300000000000    0.0595800000000000    0.9761850000000001 N
   0.1882900000000000    0.1082700000000000    0.9558900000000000 N
   0.1118600000000000    0.3663400000000000    0.8257749999999999 N
   0.6873899999999999    0.4305500000000000    0.7017650000000000 N
   0.7055066666666666    0.3771600000000000    0.6657350000000000 N
   0.7509933333333333    0.4399800000000000    0.7262150000000001 N
   0.8116766666666666    0.3914300000000000    0.7059150000000000 N
   0.8882633333333333    0.1338200000000000    0.5757400000000000 N
   0.0207066666666667    0.9304900000000000    0.0481650000000000 N
   0.0387466666666667    0.8767700000000000    0.0841500000000000 N
   0.0843566666666667    0.9401100000000000    0.0237600000000000 N
   0.1450266666666667    0.8915100000000000    0.0440700000000000 N
   0.2214466666666667    0.6332500000000000    0.1742050000000000 N
   0.9793099999999999    0.0693600000000000    0.9518249999999999 N
   0.9612733333333333    0.1229600000000000    0.9158200000000001 N
   0.9155966666666666    0.0595800000000000    0.9761850000000001 N
   0.8549566666666666    0.1082700000000000    0.9558900000000000 N
   0.7785266666666666    0.3663400000000000    0.8257749999999999 N
   0.3540566666666666    0.4305500000000000    0.7017650000000000 N
   0.3721733333333333    0.3771600000000000    0.6657350000000000 N
   0.4176600000000000    0.4399800000000000    0.7262150000000001 N
   0.4783433333333333    0.3914300000000000    0.7059150000000000 N
   0.5549299999999999    0.1338200000000000    0.5757400000000000 N
   0.3124833333333333    0.5690700000000000    0.7982000000000000 N
   0.2944233333333333    0.6227300000000000    0.8341950000000000 N
   0.2488600000000000    0.5595900000000000    0.7737650000000000 N
   0.1881933333333333    0.6082200000000000    0.7940550000000000 N
   0.1118266666666667    0.8665800000000000    0.9241850000000000 N
   0.4451600000000000    0.8665800000000000    0.9241850000000000 O
   0.5821933333333333    0.5595900000000000    0.7737650000000000 O
   0.6458166666666667    0.5690700000000000    0.7982000000000000 O
   0.5215266666666667    0.6082200000000000    0.7940550000000000 O
