H14 C10 N4
1.0
  29.0511718561710168    0.0000000000000000   -2.8228988262453010
  -0.0083437479900245   16.8769979272028365   -0.0005891184355960
   0.0000000000000000    0.0000000000000000   34.9179999999999993
H C N
14 10 4
direct
   0.3173050000000000    0.1727100000000000    0.0384500000000000 H
   0.3106550000000000    0.1621300000000000    0.0876850000000000 H
   0.2736450000000000    0.0254000000000000    0.0725950000000000 H
   0.2870150000000000    0.0366900000000000    0.0245400000000000 H
   0.1515200000000000    0.2311800000000000    0.0081700000000000 H
   0.2409000000000000    0.2177100000000000    0.1103200000000000 H
   0.3722700000000000    0.0529700000000000    0.0505900000000000 H
   0.3481350000000000    0.9579299999999999    0.0562100000000000 H
   0.3348150000000000    0.9909700000000000    0.1246400000000000 H
   0.3600900000000000    0.0857300000000000    0.1193150000000000 H
   0.3903000000000000    0.8662500000000000    0.1177500000000000 H
   0.4451700000000000    0.0974300000000000    0.1344950000000000 H
   0.5133700000000000    0.9855100000000000    0.1560050000000000 H
   0.2323850000000000    0.1557300000000000    0.9921900000000000 H
   0.2965300000000000    0.1431200000000000    0.0588800000000000 C
   0.4780550000000000    0.9779700000000000    0.1438550000000000 C
   0.2982050000000000    0.0529600000000000    0.0545300000000000 C
   0.1817500000000000    0.2153000000000000    0.0270700000000000 C
   0.2213700000000000    0.1778700000000000    0.0189050000000000 C
   0.2270500000000000    0.2107800000000000    0.0805500000000000 C
   0.3467300000000000    0.0200500000000000    0.0656450000000000 C
   0.3596150000000000    0.0242500000000000    0.1091700000000000 C
   0.4151400000000000    0.9129699999999999    0.1245000000000000 C
   0.4447750000000000    0.0333100000000000    0.1334200000000000 C
   0.2497850000000000    0.1754500000000000    0.0530750000000000 N
   0.1856050000000000    0.2353600000000000    0.0657450000000000 N
   0.4591250000000000    0.9029700000000001    0.1381300000000000 N
   0.4051650000000000    0.9912200000000000    0.1212200000000000 N
