Zn32 H598 C590 N128 O150
1.0
  29.0511718561710168    0.0000000000000000   -2.8228988262453010
  -0.0083437479900245   16.8769979272028365   -0.0005891184355960
   0.0000000000000000    0.0000000000000000   34.9179999999999993
Zn H C N O
32 598 590 128 150
direct
   0.4863800000000000    0.7983500000000000    0.1563150000000000 Zn
   0.1385950000000000    0.2984000000000000    0.0936350000000000 Zn
   0.3885850000000000    0.2984000000000000    0.0936350000000000 Zn
   0.0136100000000000    0.2016200000000000    0.3436500000000000 Zn
   0.2636050000000000    0.2016200000000000    0.3436500000000000 Zn
   0.1114050000000000    0.7015700000000000    0.4063700000000000 Zn
   0.3613950000000000    0.7015600000000000    0.4063700000000000 Zn
   0.2363850000000000    0.7983500000000000    0.1563150000000000 Zn
   0.9863800000000000    0.7983500000000000    0.1563150000000000 Zn
   0.6385950000000000    0.2984000000000000    0.0936350000000000 Zn
   0.8885850000000000    0.2984000000000000    0.0936350000000000 Zn
   0.5136100000000000    0.2016200000000000    0.3436500000000000 Zn
   0.7636050000000000    0.2016200000000000    0.3436500000000000 Zn
   0.6114050000000000    0.7015700000000000    0.4063700000000000 Zn
   0.8613950000000000    0.7015600000000000    0.4063700000000000 Zn
   0.7363850000000001    0.7983500000000000    0.1563150000000000 Zn
   0.4863800000000000    0.7983500000000000    0.6563150000000000 Zn
   0.1385950000000000    0.2984000000000000    0.5936350000000000 Zn
   0.3885850000000000    0.2984000000000000    0.5936350000000000 Zn
   0.0136100000000000    0.2016200000000000    0.8436500000000000 Zn
   0.2636050000000000    0.2016200000000000    0.8436500000000000 Zn
   0.1114050000000000    0.7015700000000000    0.9063700000000000 Zn
   0.3613950000000000    0.7015600000000000    0.9063700000000000 Zn
   0.2363850000000000    0.7983500000000000    0.6563150000000000 Zn
   0.9863800000000000    0.7983500000000000    0.6563150000000000 Zn
   0.6385950000000000    0.2984000000000000    0.5936350000000000 Zn
   0.8885850000000000    0.2984000000000000    0.5936350000000000 Zn
   0.5136100000000000    0.2016200000000000    0.8436500000000000 Zn
   0.7636050000000000    0.2016200000000000    0.8436500000000000 Zn
   0.6114050000000000    0.7015700000000000    0.9063700000000000 Zn
   0.8613950000000000    0.7015600000000000    0.9063700000000000 Zn
   0.7363850000000001    0.7983500000000000    0.6563150000000000 Zn
   0.1491550000000000    0.9313600000000000    0.2114800000000000 H
   0.3991500000000000    0.9313600000000000    0.2114800000000000 H
   0.2332300000000000    0.9338400000000000    0.2216200000000000 H
   0.4832200000000000    0.9338500000000000    0.2216200000000000 H
   0.2025550000000000    0.0233400000000000    0.2302300000000000 H
   0.4525450000000000    0.0233500000000000    0.2302300000000000 H
   0.0576900000000000    0.6727300000000001    0.2120250000000000 H
   0.3076850000000000    0.6727300000000001    0.2120250000000000 H
   0.0640000000000000    0.6625200000000000    0.1627450000000000 H
   0.3139950000000000    0.6625200000000000    0.1627450000000000 H
   0.0537950000000000    0.7920600000000000    0.2693850000000000 H
   0.3037900000000000    0.7920600000000000    0.2693850000000000 H
   0.1828550000000000    0.8619300000000000    0.3299750000000000 H
   0.4328500000000000    0.8619400000000000    0.3299750000000000 H
   0.1115850000000000    0.4854500000000000    0.0940850000000000 H
   0.3615750000000000    0.4854500000000000    0.0940850000000000 H
   0.1012650000000000    0.5257800000000000    0.1776050000000000 H
   0.3512600000000000    0.5257800000000000    0.1776050000000000 H
   0.0877600000000000    0.5366800000000000    0.2256400000000000 H
   0.3377500000000000    0.5366800000000000    0.2256400000000000 H
   0.2234950000000000    0.7316200000000000    0.2417200000000000 H
   0.4734900000000000    0.7316200000000000    0.2417200000000000 H
   0.1426250000000000    0.6564800000000000    0.2580000000000000 H
   0.3926200000000000    0.6564800000000000    0.2580000000000000 H
   0.1337950000000000    0.7175400000000000    0.1397700000000000 H
   0.3837850000000000    0.7175400000000000    0.1397700000000000 H
   0.0025500000000000    0.5527600000000000    0.1994500000000000 H
   0.2525400000000000    0.5527600000000000    0.1994500000000000 H
   0.0267800000000000    0.4579100000000000    0.1937000000000000 H
   0.2767750000000000    0.4579100000000000    0.1937000000000000 H
   0.0401950000000000    0.4915400000000000    0.1253750000000000 H
   0.2901900000000000    0.4915400000000000    0.1253750000000000 H
   0.0148350000000000    0.5861400000000000    0.1308350000000000 H
   0.2648300000000000    0.5861400000000000    0.1308350000000000 H
   0.2348150000000000    0.3665400000000000    0.1319800000000000 H
   0.4848100000000000    0.3665400000000000    0.1319800000000000 H
   0.1797200000000000    0.5975400000000000    0.1156500000000000 H
   0.4297100000000000    0.5975400000000000    0.1156500000000000 H
   0.2258000000000000    0.4313300000000000    0.0385550000000000 H
   0.4757900000000000    0.4313200000000000    0.0385550000000000 H
   0.1416550000000000    0.4338100000000000    0.0283800000000000 H
   0.3916500000000000    0.4338200000000000    0.0283800000000000 H
   0.1724400000000000    0.5232700000000000    0.0198000000000000 H
   0.4224300000000000    0.5232700000000000    0.0198250000000000 H
   0.0673050000000000    0.1727000000000000    0.0384850000000000 H
   0.3173050000000000    0.1727100000000000    0.0384500000000000 H
   0.0606600000000000    0.1621300000000000    0.0876850000000000 H
   0.3106550000000000    0.1621300000000000    0.0876850000000000 H
   0.0710400000000000    0.2919100000000000    0.4806450000000000 H
   0.3210350000000000    0.2919100000000000    0.4806450000000000 H
   0.1920350000000000    0.3619200000000000    0.4200500000000000 H
   0.4420250000000000    0.3619200000000000    0.4200650000000000 H
   0.0133700000000000    0.9855100000000000    0.1560050000000000 H
   0.2633650000000000    0.9855100000000000    0.1560050000000000 H
   0.0236500000000000    0.0254000000000000    0.0725950000000000 H
   0.2736450000000000    0.0254000000000000    0.0725950000000000 H
   0.0370250000000000    0.0366900000000000    0.0245400000000000 H
   0.2870150000000000    0.0366900000000000    0.0245400000000000 H
   0.1515200000000000    0.2311800000000000    0.0081700000000000 H
   0.4015150000000000    0.2311700000000000    0.0081700000000000 H
   0.2323850000000000    0.1557300000000000    0.4921900000000000 H
   0.4823750000000000    0.1557300000000000    0.4921900000000000 H
   0.2409000000000000    0.2177100000000000    0.1103200000000000 H
   0.4908900000000000    0.2177100000000000    0.1103200000000000 H
   0.1222750000000000    0.0529700000000000    0.0505900000000000 H
   0.3722700000000000    0.0529700000000000    0.0505900000000000 H
   0.0981400000000000    0.9579200000000000    0.0562100000000000 H
   0.3481350000000000    0.9579299999999999    0.0562100000000000 H
   0.0848200000000000    0.9909700000000000    0.1246000000000000 H
   0.3348150000000000    0.9909700000000000    0.1246400000000000 H
   0.1100950000000000    0.0857300000000000    0.1193150000000000 H
   0.3600900000000000    0.0857300000000000    0.1193150000000000 H
   0.1403050000000000    0.8662500000000000    0.1177550000000000 H
   0.3903000000000000    0.8662500000000000    0.1177500000000000 H
   0.1951750000000000    0.0974300000000000    0.1344950000000000 H
   0.4451700000000000    0.0974300000000000    0.1344950000000000 H
   0.1008450000000000    0.0686000000000000    0.2885250000000000 H
   0.3508350000000000    0.0686000000000000    0.2885250000000000 H
   0.0167700000000000    0.0661100000000000    0.2783900000000000 H
   0.2667650000000000    0.0661100000000000    0.2783850000000000 H
   0.0474450000000000    0.9766100000000000    0.2697750000000000 H
   0.2974400000000000    0.9766100000000000    0.2697750000000000 H
   0.1923100000000000    0.3272200000000000    0.2879850000000000 H
   0.4423000000000000    0.3272200000000000    0.2879850000000000 H
   0.1860000000000000    0.3374400000000000    0.3372650000000000 H
   0.4359900000000000    0.3374400000000000    0.3372650000000000 H
   0.1962050000000000    0.2079000000000000    0.2306200000000000 H
   0.4461950000000000    0.2079000000000000    0.2306200000000000 H
   0.0671400000000000    0.1380400000000000    0.1700350000000000 H
   0.3171400000000000    0.1380100000000000    0.1700300000000000 H
   0.1384150000000000    0.5145100000000000    0.4059000000000000 H
   0.3884100000000000    0.5145100000000000    0.4059200000000000 H
   0.1487300000000000    0.4741800000000000    0.3224050000000000 H
   0.3987250000000000    0.4741800000000000    0.3224050000000000 H
   0.1622400000000000    0.4632800000000000    0.2743700000000000 H
   0.4122350000000000    0.4632800000000000    0.2743700000000000 H
   0.0265000000000000    0.2683400000000000    0.2582900000000000 H
   0.2764950000000000    0.2683400000000000    0.2582900000000000 H
   0.1073750000000000    0.3434700000000000    0.2419850000000000 H
   0.3573650000000000    0.3434700000000000    0.2419850000000000 H
   0.1162050000000000    0.2824200000000000    0.3602350000000000 H
   0.3662000000000000    0.2824200000000000    0.3602350000000000 H
   0.2474500000000000    0.4471900000000000    0.3005250000000000 H
   0.4974450000000000    0.4471900000000000    0.3005250000000000 H
   0.2232150000000000    0.5420500000000000    0.3062950000000000 H
   0.4732100000000000    0.5420500000000000    0.3062950000000000 H
   0.2098050000000000    0.5084200000000000    0.3746350000000000 H
   0.4598000000000000    0.5084200000000000    0.3746350000000000 H
   0.2351600000000000    0.4138100000000000    0.3691750000000000 H
   0.4851550000000000    0.4138100000000000    0.3691750000000000 H
   0.0151800000000000    0.6334200000000000    0.3680300000000000 H
   0.2651750000000000    0.6334200000000000    0.3680300000000000 H
   0.0702800000000000    0.4024200000000000    0.3843500000000000 H
   0.3202750000000000    0.4024200000000000    0.3843500000000000 H
   0.0241950000000000    0.5686200000000000    0.4614550000000000 H
   0.2741900000000000    0.5686200000000000    0.4614550000000000 H
   0.1083400000000000    0.5661400000000000    0.4716300000000000 H
   0.3583350000000000    0.5661400000000000    0.4716300000000000 H
   0.0775550000000000    0.4766800000000000    0.4801800000000000 H
   0.3275500000000000    0.4766800000000000    0.4801800000000000 H
   0.1826900000000000    0.8272500000000000    0.4615250000000000 H
   0.4326800000000000    0.8272500000000000    0.4615250000000000 H
   0.1893350000000000    0.8378300000000000    0.4123200000000000 H
   0.4393300000000000    0.8378300000000000    0.4123000000000000 H
   0.1789550000000000    0.7080500000000000    0.0193600000000000 H
   0.4289500000000000    0.7080500000000000    0.0193600000000000 H
   0.0579600000000000    0.6380300000000000    0.0799400000000000 H
   0.3079550000000000    0.6380400000000001    0.0799400000000000 H
   0.2366250000000000    0.0144500000000000    0.3440050000000000 H
   0.4866200000000000    0.0144500000000000    0.3440050000000000 H
   0.2263450000000000    0.9745500000000000    0.4274150000000000 H
   0.4763400000000000    0.9745500000000000    0.4274150000000000 H
   0.2129750000000000    0.9632600000000000    0.4754700000000000 H
   0.4629650000000000    0.9632600000000000    0.4754700000000000 H
   0.0984750000000000    0.7687800000000000    0.4918000000000000 H
   0.3484700000000000    0.7687800000000000    0.4918000000000000 H
   0.0176150000000000    0.8442200000000000    0.0078200000000000 H
   0.2676050000000000    0.8442200000000000    0.0078200000000000 H
   0.0091000000000000    0.7822400000000000    0.3896900000000000 H
   0.2590900000000000    0.7822400000000000    0.3896900000000000 H
   0.1277200000000000    0.9469800000000000    0.4494200000000000 H
   0.3777150000000000    0.9469800000000000    0.4494200000000000 H
   0.1518550000000000    0.0420300000000000    0.4438000000000000 H
   0.4018500000000000    0.0420300000000000    0.4438000000000000 H
   0.1651750000000000    0.0000000000000000    0.3753650000000000 H
   0.4151700000000000    0.0000000000000000    0.3753650000000000 H
   0.1399000000000000    0.9142300000000000    0.3806950000000000 H
   0.3898950000000000    0.9142300000000000    0.3806950000000000 H
   0.1096900000000000    0.1337100000000000    0.3822550000000000 H
   0.3596850000000000    0.1337100000000000    0.3822550000000000 H
   0.0548200000000000    0.9025300000000001    0.3655150000000000 H
   0.3048150000000000    0.9025300000000001    0.3655150000000000 H
   0.6491550000000000    0.9313600000000000    0.2114800000000000 H
   0.8991500000000000    0.9313600000000000    0.2114800000000000 H
   0.7332300000000000    0.9338400000000000    0.2216200000000000 H
   0.9832200000000000    0.9338500000000000    0.2216200000000000 H
   0.7025550000000000    0.0233400000000000    0.2302300000000000 H
   0.9525450000000000    0.0233500000000000    0.2302300000000000 H
   0.5576900000000000    0.6727300000000001    0.2120250000000000 H
   0.8076850000000000    0.6727300000000001    0.2120250000000000 H
   0.5640000000000001    0.6625200000000000    0.1627450000000000 H
   0.8139950000000000    0.6625200000000000    0.1627450000000000 H
   0.5537950000000000    0.7920600000000000    0.2693850000000000 H
   0.8037900000000000    0.7920600000000000    0.2693850000000000 H
   0.6828550000000000    0.8619300000000000    0.3299750000000000 H
   0.9328500000000000    0.8619400000000000    0.3299750000000000 H
   0.6115850000000000    0.4854500000000000    0.0940850000000000 H
   0.8615750000000000    0.4854500000000000    0.0940850000000000 H
   0.6012649999999999    0.5257800000000000    0.1776050000000000 H
   0.8512600000000000    0.5257800000000000    0.1776050000000000 H
   0.5877600000000001    0.5366800000000000    0.2256400000000000 H
   0.8377500000000000    0.5366800000000000    0.2256400000000000 H
   0.7234950000000000    0.7316200000000000    0.2417200000000000 H
   0.9734900000000000    0.7316200000000000    0.2417200000000000 H
   0.6426250000000000    0.6564800000000000    0.2580000000000000 H
   0.8926200000000000    0.6564800000000000    0.2580000000000000 H
   0.6337950000000000    0.7175400000000000    0.1397700000000000 H
   0.8837850000000000    0.7175400000000000    0.1397700000000000 H
   0.5025500000000001    0.5527600000000000    0.1994500000000000 H
   0.7525400000000000    0.5527600000000000    0.1994500000000000 H
   0.5267800000000000    0.4579100000000000    0.1937000000000000 H
   0.7767750000000000    0.4579100000000000    0.1937000000000000 H
   0.5401950000000000    0.4915400000000000    0.1253750000000000 H
   0.7901899999999999    0.4915400000000000    0.1253750000000000 H
   0.5148350000000000    0.5861400000000000    0.1308350000000000 H
   0.7648300000000000    0.5861400000000000    0.1308350000000000 H
   0.7348150000000000    0.3665400000000000    0.1319800000000000 H
   0.9848100000000000    0.3665400000000000    0.1319800000000000 H
   0.6797200000000000    0.5975400000000000    0.1156500000000000 H
   0.9297100000000000    0.5975400000000000    0.1156500000000000 H
   0.7258000000000000    0.4313300000000000    0.0385550000000000 H
   0.9757899999999999    0.4313200000000000    0.0385550000000000 H
   0.6416550000000000    0.4338100000000000    0.0283800000000000 H
   0.8916500000000001    0.4338200000000000    0.0283800000000000 H
   0.6724400000000000    0.5232700000000000    0.0198000000000000 H
   0.9224300000000001    0.5232700000000000    0.0198250000000000 H
   0.5673049999999999    0.1727000000000000    0.0384850000000000 H
   0.8173049999999999    0.1727100000000000    0.0384500000000000 H
   0.5606600000000000    0.1621300000000000    0.0876850000000000 H
   0.8106550000000000    0.1621300000000000    0.0876850000000000 H
   0.5710400000000000    0.2919100000000000    0.4806450000000000 H
   0.9420250000000000    0.3619200000000000    0.4200650000000000 H
   0.5133700000000000    0.9855100000000000    0.1560050000000000 H
   0.7633650000000001    0.9855100000000000    0.1560050000000000 H
   0.5236499999999999    0.0254000000000000    0.0725950000000000 H
   0.7736450000000000    0.0254000000000000    0.0725950000000000 H
   0.5370250000000000    0.0366900000000000    0.0245400000000000 H
   0.7870150000000000    0.0366900000000000    0.0245400000000000 H
   0.6515200000000000    0.2311800000000000    0.0081700000000000 H
   0.9015150000000001    0.2311700000000000    0.0081700000000000 H
   0.7323850000000001    0.1557300000000000    0.4921900000000000 H
   0.9823750000000000    0.1557300000000000    0.4921900000000000 H
   0.7409000000000000    0.2177100000000000    0.1103200000000000 H
   0.9908900000000000    0.2177100000000000    0.1103200000000000 H
   0.6222750000000000    0.0529700000000000    0.0505900000000000 H
   0.8722700000000000    0.0529700000000000    0.0505900000000000 H
   0.5981400000000000    0.9579200000000000    0.0562100000000000 H
   0.8481350000000000    0.9579299999999999    0.0562100000000000 H
   0.5848200000000000    0.9909700000000000    0.1246000000000000 H
   0.8348150000000000    0.9909700000000000    0.1246400000000000 H
   0.6100950000000001    0.0857300000000000    0.1193150000000000 H
   0.8600900000000000    0.0857300000000000    0.1193150000000000 H
   0.6403050000000000    0.8662500000000000    0.1177550000000000 H
   0.8903000000000000    0.8662500000000000    0.1177500000000000 H
   0.6951750000000000    0.0974300000000000    0.1344950000000000 H
   0.9451700000000001    0.0974300000000000    0.1344950000000000 H
   0.6008450000000000    0.0686000000000000    0.2885250000000000 H
   0.8508350000000000    0.0686000000000000    0.2885250000000000 H
   0.5167700000000000    0.0661100000000000    0.2783900000000000 H
   0.7667649999999999    0.0661100000000000    0.2783850000000000 H
   0.5474450000000000    0.9766100000000000    0.2697750000000000 H
   0.7974399999999999    0.9766100000000000    0.2697750000000000 H
   0.6923100000000000    0.3272200000000000    0.2879850000000000 H
   0.9423000000000000    0.3272200000000000    0.2879850000000000 H
   0.6859999999999999    0.3374400000000000    0.3372650000000000 H
   0.9359900000000000    0.3374400000000000    0.3372650000000000 H
   0.6962050000000000    0.2079000000000000    0.2306200000000000 H
   0.9461950000000000    0.2079000000000000    0.2306200000000000 H
   0.5671400000000000    0.1380400000000000    0.1700350000000000 H
   0.8171400000000000    0.1380100000000000    0.1700300000000000 H
   0.6384150000000000    0.5145100000000000    0.4059000000000000 H
   0.8884099999999999    0.5145100000000000    0.4059200000000000 H
   0.6487300000000000    0.4741800000000000    0.3224050000000000 H
   0.8987250000000000    0.4741800000000000    0.3224050000000000 H
   0.6622399999999999    0.4632800000000000    0.2743700000000000 H
   0.9122350000000000    0.4632800000000000    0.2743700000000000 H
   0.5265000000000000    0.2683400000000000    0.2582900000000000 H
   0.7764949999999999    0.2683400000000000    0.2582900000000000 H
   0.6073750000000000    0.3434700000000000    0.2419850000000000 H
   0.8573649999999999    0.3434700000000000    0.2419850000000000 H
   0.6162050000000000    0.2824200000000000    0.3602350000000000 H
   0.8662000000000001    0.2824200000000000    0.3602350000000000 H
   0.7474499999999999    0.4471900000000000    0.3005250000000000 H
   0.9974450000000000    0.4471900000000000    0.3005250000000000 H
   0.7232149999999999    0.5420500000000000    0.3062950000000000 H
   0.9732100000000000    0.5420500000000000    0.3062950000000000 H
   0.7098050000000000    0.5084200000000000    0.3746350000000000 H
   0.9598000000000000    0.5084200000000000    0.3746350000000000 H
   0.7351600000000000    0.4138100000000000    0.3691750000000000 H
   0.9851550000000000    0.4138100000000000    0.3691750000000000 H
   0.5151800000000000    0.6334200000000000    0.3680300000000000 H
   0.7651749999999999    0.6334200000000000    0.3680300000000000 H
   0.5702800000000000    0.4024200000000000    0.3843500000000000 H
   0.8202750000000000    0.4024200000000000    0.3843500000000000 H
   0.7741899999999999    0.5686200000000000    0.4614550000000000 H
   0.8583350000000001    0.5661400000000000    0.4716300000000000 H
   0.8275500000000000    0.4766800000000000    0.4801800000000000 H
   0.6826900000000000    0.8272500000000000    0.4615250000000000 H
   0.9326800000000000    0.8272500000000000    0.4615250000000000 H
   0.6893350000000000    0.8378300000000000    0.4123200000000000 H
   0.9393300000000000    0.8378300000000000    0.4123000000000000 H
   0.6789550000000000    0.7080500000000000    0.0193600000000000 H
   0.9289499999999999    0.7080500000000000    0.0193600000000000 H
   0.5579600000000000    0.6380300000000000    0.0799400000000000 H
   0.8079550000000000    0.6380400000000001    0.0799400000000000 H
   0.7366250000000000    0.0144500000000000    0.3440050000000000 H
   0.9866200000000001    0.0144500000000000    0.3440050000000000 H
   0.7263450000000000    0.9745500000000000    0.4274150000000000 H
   0.9763400000000000    0.9745500000000000    0.4274150000000000 H
   0.7129750000000000    0.9632600000000000    0.4754700000000000 H
   0.9629650000000001    0.9632600000000000    0.4754700000000000 H
   0.5984750000000000    0.7687800000000000    0.4918000000000000 H
   0.8484700000000001    0.7687800000000000    0.4918000000000000 H
   0.5176150000000000    0.8442200000000000    0.0078200000000000 H
   0.7676050000000000    0.8442200000000000    0.0078200000000000 H
   0.5091000000000000    0.7822400000000000    0.3896900000000000 H
   0.7590900000000000    0.7822400000000000    0.3896900000000000 H
   0.6277200000000001    0.9469800000000000    0.4494200000000000 H
   0.8777150000000000    0.9469800000000000    0.4494200000000000 H
   0.6518550000000000    0.0420300000000000    0.4438000000000000 H
   0.9018500000000000    0.0420300000000000    0.4438000000000000 H
   0.6651750000000000    0.0000000000000000    0.3753650000000000 H
   0.9151700000000000    0.0000000000000000    0.3753650000000000 H
   0.6399000000000000    0.9142300000000000    0.3806950000000000 H
   0.8898950000000000    0.9142300000000000    0.3806950000000000 H
   0.6096900000000000    0.1337100000000000    0.3822550000000000 H
   0.8596850000000000    0.1337100000000000    0.3822550000000000 H
   0.5548200000000000    0.9025300000000001    0.3655150000000000 H
   0.8048150000000001    0.9025300000000001    0.3655150000000000 H
   0.1491550000000000    0.9313600000000000    0.7114800000000000 H
   0.3991500000000000    0.9313600000000000    0.7114800000000000 H
   0.2332300000000000    0.9338400000000000    0.7216200000000000 H
   0.4832200000000000    0.9338500000000000    0.7216200000000000 H
   0.2025550000000000    0.0233400000000000    0.7302299999999999 H
   0.4525450000000000    0.0233500000000000    0.7302299999999999 H
   0.0576900000000000    0.6727300000000001    0.7120250000000000 H
   0.3076850000000000    0.6727300000000001    0.7120250000000000 H
   0.0640000000000000    0.6625200000000000    0.6627450000000000 H
   0.3139950000000000    0.6625200000000000    0.6627450000000000 H
   0.0537950000000000    0.7920600000000000    0.7693850000000000 H
   0.3037900000000000    0.7920600000000000    0.7693850000000000 H
   0.1828550000000000    0.8619300000000000    0.8299750000000000 H
   0.4328500000000000    0.8619400000000000    0.8299750000000000 H
   0.1115850000000000    0.4854500000000000    0.5940850000000000 H
   0.3615750000000000    0.4854500000000000    0.5940850000000000 H
   0.1012650000000000    0.5257800000000000    0.6776050000000000 H
   0.3512600000000000    0.5257800000000000    0.6776050000000000 H
   0.0877600000000000    0.5366800000000000    0.7256400000000001 H
   0.3377500000000000    0.5366800000000000    0.7256400000000001 H
   0.2234950000000000    0.7316200000000000    0.7417199999999999 H
   0.4734900000000000    0.7316200000000000    0.7417199999999999 H
   0.1426250000000000    0.6564800000000000    0.7580000000000000 H
   0.3926200000000000    0.6564800000000000    0.7580000000000000 H
   0.1337950000000000    0.7175400000000000    0.6397699999999999 H
   0.3837850000000000    0.7175400000000000    0.6397699999999999 H
   0.0025500000000000    0.5527600000000000    0.6994500000000000 H
   0.2525400000000000    0.5527600000000000    0.6994500000000000 H
   0.0267800000000000    0.4579100000000000    0.6937000000000000 H
   0.2767750000000000    0.4579100000000000    0.6937000000000000 H
   0.0401950000000000    0.4915400000000000    0.6253750000000000 H
   0.2901900000000000    0.4915400000000000    0.6253750000000000 H
   0.0148350000000000    0.5861400000000000    0.6308350000000000 H
   0.2648300000000000    0.5861400000000000    0.6308350000000000 H
   0.2348150000000000    0.3665400000000000    0.6319800000000000 H
   0.4848100000000000    0.3665400000000000    0.6319800000000000 H
   0.1797200000000000    0.5975400000000000    0.6156500000000000 H
   0.4297100000000000    0.5975400000000000    0.6156500000000000 H
   0.2258000000000000    0.4313300000000000    0.5385550000000000 H
   0.4757900000000000    0.4313200000000000    0.5385550000000000 H
   0.1416550000000000    0.4338100000000000    0.5283800000000000 H
   0.3916500000000000    0.4338200000000000    0.5283800000000000 H
   0.1724400000000000    0.5232700000000000    0.5198000000000000 H
   0.4224300000000000    0.5232700000000000    0.5198250000000000 H
   0.0673050000000000    0.1727000000000000    0.5384850000000000 H
   0.3173050000000000    0.1727100000000000    0.5384500000000000 H
   0.0606600000000000    0.1621300000000000    0.5876850000000000 H
   0.3106550000000000    0.1621300000000000    0.5876850000000000 H
   0.0710400000000000    0.2919100000000000    0.9806450000000000 H
   0.3210350000000000    0.2919100000000000    0.9806450000000000 H
   0.1920350000000000    0.3619200000000000    0.9200500000000000 H
   0.4420250000000000    0.3619200000000000    0.9200650000000000 H
   0.0133700000000000    0.9855100000000000    0.6560049999999999 H
   0.2633650000000000    0.9855100000000000    0.6560049999999999 H
   0.0236500000000000    0.0254000000000000    0.5725950000000000 H
   0.2736450000000000    0.0254000000000000    0.5725950000000000 H
   0.0370250000000000    0.0366900000000000    0.5245400000000000 H
   0.2870150000000000    0.0366900000000000    0.5245400000000000 H
   0.1515200000000000    0.2311800000000000    0.5081700000000000 H
   0.4015150000000000    0.2311700000000000    0.5081700000000000 H
   0.2323850000000000    0.1557300000000000    0.9921900000000000 H
   0.4823750000000000    0.1557300000000000    0.9921900000000000 H
   0.2409000000000000    0.2177100000000000    0.6103200000000000 H
   0.4908900000000000    0.2177100000000000    0.6103200000000000 H
   0.1222750000000000    0.0529700000000000    0.5505900000000000 H
   0.3722700000000000    0.0529700000000000    0.5505900000000000 H
   0.0981400000000000    0.9579200000000000    0.5562100000000000 H
   0.3481350000000000    0.9579299999999999    0.5562100000000000 H
   0.0848200000000000    0.9909700000000000    0.6246000000000000 H
   0.3348150000000000    0.9909700000000000    0.6246400000000000 H
   0.1100950000000000    0.0857300000000000    0.6193150000000001 H
   0.3600900000000000    0.0857300000000000    0.6193150000000001 H
   0.1403050000000000    0.8662500000000000    0.6177550000000001 H
   0.3903000000000000    0.8662500000000000    0.6177500000000000 H
   0.1951750000000000    0.0974300000000000    0.6344950000000000 H
   0.4451700000000000    0.0974300000000000    0.6344950000000000 H
   0.1008450000000000    0.0686000000000000    0.7885249999999999 H
   0.3508350000000000    0.0686000000000000    0.7885249999999999 H
   0.0167700000000000    0.0661100000000000    0.7783900000000000 H
   0.2667650000000000    0.0661100000000000    0.7783850000000000 H
   0.0474450000000000    0.9766100000000000    0.7697750000000000 H
   0.2974400000000000    0.9766100000000000    0.7697750000000000 H
   0.1923100000000000    0.3272200000000000    0.7879849999999999 H
   0.4423000000000000    0.3272200000000000    0.7879849999999999 H
   0.1860000000000000    0.3374400000000000    0.8372649999999999 H
   0.4359900000000000    0.3374400000000000    0.8372649999999999 H
   0.1962050000000000    0.2079000000000000    0.7306200000000000 H
   0.4461950000000000    0.2079000000000000    0.7306200000000000 H
   0.0671400000000000    0.1380400000000000    0.6700349999999999 H
   0.3171400000000000    0.1380100000000000    0.6700300000000000 H
   0.1384150000000000    0.5145100000000000    0.9058999999999999 H
   0.3884100000000000    0.5145100000000000    0.9059200000000001 H
   0.1487300000000000    0.4741800000000000    0.8224050000000001 H
   0.3987250000000000    0.4741800000000000    0.8224050000000001 H
   0.1622400000000000    0.4632800000000000    0.7743700000000000 H
   0.4122350000000000    0.4632800000000000    0.7743700000000000 H
   0.0265000000000000    0.2683400000000000    0.7582900000000000 H
   0.2764950000000000    0.2683400000000000    0.7582900000000000 H
   0.1073750000000000    0.3434700000000000    0.7419850000000000 H
   0.3573650000000000    0.3434700000000000    0.7419850000000000 H
   0.1162050000000000    0.2824200000000000    0.8602350000000001 H
   0.3662000000000000    0.2824200000000000    0.8602350000000001 H
   0.2474500000000000    0.4471900000000000    0.8005249999999999 H
   0.4974450000000000    0.4471900000000000    0.8005249999999999 H
   0.2232150000000000    0.5420500000000000    0.8062950000000000 H