H14 C24 O10
1.0
   7.6141150615294855    0.0000000000000000    0.6160948220768011
   0.8393796667693515   12.6254618327635608    2.0852173230732545
   0.0000000000000000    0.0000000000000000   38.7869999999999990
H C O
14 24 10
direct
   0.3045300000000000    0.5358400000000000    0.0161833333333333 H
   0.7856700000000000    0.5517200000000000    0.0679333333333333 H
   0.5095900000000000    0.6305100000000000    0.0470033333333333 H
   0.5897400000000000    0.6957900000000000    0.0793900000000000 H
   0.5030600000000000    0.8803800000000001    0.0011933333333333 H
   0.1951300000000000    0.9493000000000000    0.1552533333333333 H
   0.7151700000000000    0.7953400000000000    0.1497366666666667 H
   0.5632900000000000    0.0486900000000000    0.0678866666666667 H
   0.9902300000000001    0.8593400000000000    0.1229600000000000 H
   0.9103200000000000    0.7601100000000000    0.1018866666666667 H
   0.9939700000000000    0.9970300000000000    0.0405466666666667 H
   0.2497600000000000    0.7139100000000000    0.0949633333333333 H
   0.9336500000000000    0.7975500000000000    0.9830933333333333 H
   0.2479500000000000    0.0134700000000000    0.9961599999999999 H
   0.1761200000000000    0.5775600000000000    0.0191266666666667 C
   0.0505500000000000    0.5359699999999999    0.0447666666666667 C
   0.8821500000000000    0.5876900000000000    0.0483200000000000 C
   0.8431700000000000    0.6835000000000000    0.0265133333333333 C
   0.9684199999999999    0.7244800000000000    0.0003666666666667 C
   0.5473200000000000    0.7074300000000000    0.0523800000000000 C
   0.3938600000000000    0.7892100000000000    0.0485733333333333 C
   0.3919500000000000    0.8733700000000000    0.0206133333333333 C
   0.0972300000000000    0.4328100000000000    0.0674200000000000 C
   0.3648000000000000    0.0087100000000000    0.1100466666666667 C
   0.3232700000000000    0.9406800000000000    0.1412833333333333 C
   0.4498300000000000    0.8642200000000000    0.1550866666666667 C
   0.6179300000000000    0.8538000000000000    0.1377933333333333 C
   0.6556700000000000    0.9190700000000001    0.1058833333333333 C
   0.5294400000000000    0.9970599999999999    0.0922600000000000 C
   0.2365200000000000    0.0958800000000000    0.0963666666666667 C
   0.9519700000000000    0.8420700000000000    0.0977100000000000 C
   0.1045700000000000    0.8539099999999999    0.0704000000000000 C
   0.1053700000000000    0.9386600000000000    0.0426266666666667 C
   0.4042800000000000    0.7966299999999999    0.1894666666666667 C
   0.2483800000000000    0.9476800000000000    0.0178666666666667 C
   0.2493800000000000    0.7798600000000000    0.0732066666666667 C
   0.1333700000000000    0.6712399999999999    0.9963966666666666 C
   0.2608100000000000    0.7125100000000000    0.9672433333333332 C
   0.2599900000000000    0.4092600000000000    0.0709366666666667 O
   0.9698300000000000    0.3777900000000000    0.0814900000000000 O
   0.6887400000000000    0.7440700000000000    0.0280300000000000 O
   1.0810200000000001    0.0985600000000000    0.1113900000000000 O
   0.2820800000000000    0.1663000000000000    0.0704600000000000 O
   0.2417200000000000    0.7856300000000001    0.1975166666666667 O
   0.5325299999999999    0.7554200000000000    0.2075533333333333 O
   0.8096600000000000    0.9147900000000000    0.0856666666666667 O
   0.4158900000000000    0.6667500000000000    0.9660500000000000 O
   0.2146600000000000    0.7910400000000000    0.9441533333333333 O
