H9 O6
1.0
  14.0133967129489463    0.0000000000000000    0.3963250755524618
   0.1753570080026163   13.1297800960089486   -6.4168800479821666
   0.0000000000000000    0.0000000000000000   33.3419999999999987
H O
9 6
direct
   0.4911993685766906    0.7055024824861503    0.5884739066312458 H
   0.4987105927654162    1.0062662434165546    0.6194372163429805 H
   0.4950891459955493    0.8546214241104234    0.6014596433087244 H
   0.5990470164188118    0.7096872209896111    0.1866634304078571 H
   0.5273312384785678    0.9714596435272074    0.2994206628935512 H
   0.5639133326910488    0.8411705475165366    0.2445673822543007 H
  -0.1603233053229697    0.5795459045013787    0.3253853638581366 H
   0.8207809210757637    0.5702350974092606    0.2013180885223988 H
   0.8254253141141443    0.5768790080811128    0.2628067455277229 H
   0.4923000000000000    0.7786999999999999    0.6063950000000000 O
   0.4964400000000000    0.9444600000000000    0.6234550000000000 O
   0.5758300000000000    0.7762200000000000    0.2081950000000000 O
   0.5371800000000000    0.9177800000000000    0.2693600000000000 O
  -0.1437400000000000    0.5681600000000000    0.2950950000000000 O
   0.8451300000000000    0.5633500000000000    0.2268150000000000 O
