H8 C16 N1 O6
1.0
  14.0133967129489463    0.0000000000000000    0.3963250755524618
   0.1753570080026163   13.1297800960089486   -6.4168800479821666
   0.0000000000000000    0.0000000000000000   33.3419999999999987
H C N O
8 16 1 6
direct
   0.5657100000000000    0.6230900000000000    0.4457550000000000 H
   0.5788500000000000    0.9432900000000000    0.4801150000000000 H
   0.6065000000000000    0.6709000000000001    0.3893650000000000 H
   0.5445300000000000    0.8858200000000001    0.3393550000000000 H
   0.7477200000000001    0.6793200000000000    0.3513750000000000 H
   0.7119700000000000    0.6801500000000000    0.2238550000000000 H
   0.5240600000000000    0.6644300000000000    0.5254550000000000 H
   0.5346800000000000    0.9839700000000000    0.5598200000000000 H
   0.5590400000000000    0.7021900000000000    0.4708450000000000 C
   0.5742500000000000    0.7808800000000000    0.4579600000000000 C
   0.5660300000000000    0.8829800000000000    0.4903500000000000 C
   0.5983700000000000    0.7534300000000000    0.4111650000000000 C
   0.5766600000000000    0.8280500000000000    0.2503050000000000 C
   0.6226400000000000    0.7862200000000000    0.2785050000000000 C
   0.5971100000000000    0.8245100000000000    0.3239600000000000 C
   0.6381599999999999    0.7824800000000000    0.3501800000000000 C
   0.7102200000000000    0.7079800000000001    0.3309900000000000 C
   0.7377600000000000    0.6717400000000000    0.2858000000000000 C
   0.6921500000000000    0.7089100000000000    0.2591150000000000 C
   0.8179300000000000    0.5958300000000000    0.2678200000000000 C
   0.5033700000000000    0.8509000000000000    0.5944750000000000 C
   0.5270200000000000    0.8263400000000000    0.5470200000000000 C
   0.5357400000000000    0.7245900000000000    0.5150150000000000 C
   0.5421899999999999    0.9054300000000000    0.5344050000000000 C
   0.6085600000000000    0.8190200000000000    0.3952000000000000 N
   0.5758300000000000    0.7762200000000000    0.2081950000000000 O
   0.5371800000000000    0.9177800000000000    0.2693600000000000 O
  -0.1437400000000000    0.5681600000000000    0.2950950000000000 O
   0.8451300000000000    0.5633500000000000    0.2268150000000000 O
   0.4923000000000000    0.7786999999999999    0.6063950000000000 O
   0.4964400000000000    0.9444600000000000    0.6234550000000000 O
