H8 O5
1.0
  10.3934558511704029    0.0000000000000000   -0.0302938900060648
  -0.0932456906795972   35.7677919667902273   -0.0786578768238429
   0.0000000000000000    0.0000000000000000   21.0090000000000003
H O
8 5
direct
   0.3964461531233135    0.7155844903167108    0.8917085850378357 H
   0.1524185014700654    0.7681359197241379    0.9905368255058178 H
   0.2869344333865029    0.7478117080845370    0.9404119291959374 H
   0.4645216923678924    0.7886936244767822    0.8810257173545589 H
   0.4771485337587256    0.8341376771162067    0.9063624730281489 H
   0.4868108911724757    0.9014889616833126   -0.0332215266657968 H
   0.2672881685375156    0.8512556976119870    0.0424769038179818 H
   0.3741206792479025    0.8684680773490222    0.0012641763421563 H
   0.3156900000000000    0.7128099999999999    0.9142600000000000 O
   0.1723500000000000    0.7438750000000001    0.9724100000000000 O
   0.5126300000000000    0.8116749999999999    0.8724000000000000 O
   0.4264200000000000    0.9081750000000000    0.0000000000000000 O
   0.3006700000000000    0.8766000000000000    0.0416700000000000 O
