H3 C7 N1 O4
1.0
  10.3934558511704029    0.0000000000000000   -0.0302938900060648
  -0.0932456906795972   35.7677919667902273   -0.0786578768238429
   0.0000000000000000    0.0000000000000000   21.0090000000000003
H C N O
3 7 1 4
direct
   0.5397100000000000    0.8682500000000000    0.3957000000000000 H
   0.2449300000000000    0.8110550000000001    0.5023100000000000 H
   0.4701800000000000    0.7555000000000001    0.3583100000000000 H
   0.4844000000000000    0.8432100000000000    0.4069900000000000 C
   0.3899300000000000    0.8438850000000000    0.4540200000000000 C
   0.3199800000000000    0.8112750000000000    0.4662100000000000 C
   0.4451800000000000    0.7802400000000000    0.3859600000000000 C
   0.2734600000000000    0.7435849999999999    0.4409700000000000 C
   0.3475500000000000    0.7789750000000000    0.4313600000000000 C
   0.3664800000000000    0.8790850000000000    0.4905400000000000 C
   0.5118400000000000    0.8118700000000000    0.3738700000000000 N
   0.3122700000000000    0.7136350000000000    0.4139300000000000 O
   0.1719700000000000    0.7439350000000000    0.4748900000000000 O
   0.4205400000000000    0.9093500000000000    0.4725200000000000 O
   0.2945100000000000    0.8781550000000000    0.5396200000000000 O
