H8 O5
1.0
  10.3934558511704029    0.0000000000000000   -0.0302938900060648
  -0.0932456906795972   35.7677919667902273   -0.0786578768238429
   0.0000000000000000    0.0000000000000000   21.0090000000000003
H O
8 5
direct
   0.3917685545451751    0.7167645143237537    0.3904415125842517 H
   0.1524903495720229    0.7679311120205128    0.4941299544634495 H
   0.2840900037822915    0.7483486797181212    0.4417632430047204 H
   0.4919441913685992    0.8345935656890707    0.3978841830128279 H
   0.4635232294838603    0.7889438156101786    0.3826331226453665 H
   0.4707208316650858    0.9067682678095796    0.4339102955628713 H
   0.2564628316869740    0.8538871735144090    0.5481046254378997 H
   0.3658759263068553    0.8744833249174651    0.4847102420274807 H
   0.3122700000000000    0.7136350000000000    0.4139300000000000 O
   0.1719700000000000    0.7439350000000000    0.4748900000000000 O
   0.5118400000000000    0.8118700000000000    0.3738700000000000 O
   0.4205400000000000    0.9093500000000000    0.4725200000000000 O
   0.2945100000000000    0.8781550000000000    0.5396200000000000 O
