H14 C10 N4
1.0
  14.5370725293160419    0.0000000000000000    0.7987510734921371
  -0.0269485630008146   15.9049764698023939    0.0047191084287635
   0.0000000000000000    0.0000000000000000   18.5060000000000002
H C N
14 10 4
direct
   0.4259800000000000    0.8485800000000000    0.9071600000000000 H
   0.5143100000000000    0.7647200000000000    0.1091000000000000 H
   0.3053600000000000    0.7262500000000000    0.9633900000000000 H
   0.5930700000000000    0.8897600000000000    0.9455400000000000 H
   0.6204400000000000    0.8686600000000000    0.0346100000000000 H
   0.5024800000000000    0.9765500000000000    0.0803600000000000 H
   0.5971200000000000    0.0160200000000000    0.0261100000000000 H
   0.5739900000000000    0.1514200000000000    0.0928300000000000 H
   0.4856600000000000    0.2352900000000000    0.8908900000000000 H
   0.6946099999999999    0.2737600000000000    0.0366000000000000 H
   0.4069100000000000    0.1102400000000000    0.0544500000000000 H
   0.3795400000000000    0.1313400000000000    0.9653800000000000 H
   0.4975000000000000    0.0234500000000000    0.9196299999999999 H
   0.4028600000000000    0.9839800000000000    0.9738800000000000 H
   0.4727300000000000    0.7709400000000000    0.0625500000000000 C
   0.3671100000000000    0.7521200000000000    0.9847300000000000 C
   0.5645000000000000    0.8898600000000000    0.0017000000000000 C
   0.4247000000000000    0.8139600000000000    0.9574500000000000 C
   0.5335100000000000    0.9786800000000000    0.0247100000000000 C
   0.5752699999999999    0.1860400000000000    0.0425400000000000 C
   0.5272400000000000    0.2290600000000000    0.9374400000000001 C
   0.6328600000000000    0.2478900000000000    0.0152600000000000 C
   0.4354800000000000    0.1101400000000000    0.0000000000000000 C
   0.4664600000000000    0.0213200000000000    0.9752800000000000 C
   0.4910700000000000    0.8260900000000000    0.0072800000000000 N
   0.3974900000000000    0.7255300000000000    0.0505300000000000 N
   0.5089000000000000    0.1739200000000000    0.0000000000000000 N
   0.6024800000000000    0.2744700000000000    0.9494600000000000 N
