H6 C16 N2 O8
1.0
  14.5370725293160419    0.0000000000000000    0.7987510734921371
  -0.0269485630008146   15.9049764698023939    0.0047191084287635
   0.0000000000000000    0.0000000000000000   18.5060000000000002
H C N O
6 16 2 8
direct
   0.5259300000000000    0.7179800000000000    0.7609100000000000 H
   0.3979000000000000    0.5213400000000000    0.8909800000000000 H
   0.6363300000000000    0.6510800000000000    0.9634300000000000 H
   0.4740400000000000    0.2820300000000000    0.2390800000000000 H
   0.6020600000000000    0.4786600000000000    0.1090100000000000 H
   0.3636300000000000    0.3489200000000000    0.0365600000000000 H
   0.3376200000000000    0.2429900000000000    0.1529500000000000 C
   0.6191000000000000    0.3886500000000000    0.2347600000000000 C
   0.5225200000000000    0.6802000000000000    0.8099200000000000 C
   0.4526900000000000    0.6199700000000000    0.8207600000000000 C
   0.6623500000000000    0.7570100000000000    0.8470400000000000 C
   0.3808700000000000    0.6113499999999999    0.7652200000000000 C
   0.5881900000000000    0.6925700000000000    0.8610300000000000 C
   0.4508300000000000    0.5693000000000000    0.8825400000000000 C
   0.5853200000000000    0.6427200000000000    0.9232100000000000 C
   0.5183600000000000    0.5799700000000000    0.9335000000000000 C
   0.4774500000000000    0.3198000000000000    0.1900700000000000 C
   0.5472700000000000    0.3800400000000000    0.1792300000000000 C
   0.4117700000000000    0.3074300000000000    0.1389600000000000 C
   0.5491300000000000    0.4307100000000000    0.1174500000000000 C
   0.4146400000000000    0.3572900000000000    0.0767800000000000 C
   0.4816000000000000    0.4200400000000000    0.0664900000000000 C
   0.5264700000000000    0.5319500000000000    0.9973500000000000 N
   0.4735000000000000    0.4680600000000000    0.0026400000000000 N
   0.4019200000000000    0.6518500000000000    0.7051200000000000 O
   0.7170500000000000    0.7679200000000000    0.8994500000000000 O
   0.6680600000000000    0.7952700000000000    0.7877100000000000 O
   0.3094000000000000    0.5696099999999999    0.7785600000000000 O
   0.5980500000000000    0.3481400000000000    0.2948600000000000 O
   0.2829200000000000    0.2320800000000000    0.1005400000000000 O
   0.3319200000000000    0.2047200000000000    0.2122700000000000 O
   0.6905700000000000    0.4303800000000000    0.2214200000000000 O
