H2 O2
1.0
  11.1707573711239725    0.0000000000000000   -3.2287093017921968
  -4.1392704667194566   12.2525976893914930   -1.3387657992578004
   0.0000000000000000    0.0000000000000000   13.0030000000000001
H O
2 2
direct
   0.6012798617712259    0.8982867794830468    0.4017761028375431 H
   0.3986715810440709    0.1015370704507652    0.5982392512967929 H
   0.5572400000000000    0.8826800000000000    0.3231500000000000 O
   0.4427100000000000    0.1172300000000000    0.6768700000000000 O
