H6 O4
1.0
  11.1707573711239725    0.0000000000000000   -3.2287093017921968
  -4.1392704667194566   12.2525976893914930   -1.3387657992578004
   0.0000000000000000    0.0000000000000000   13.0030000000000001
H O
6 4
direct
   0.4504439702623579    0.8460514519194563    0.1009421956152740 H
   0.0851323288306443    0.7119495209020094   -0.0297347037502282 H
   0.2684817341475207    0.7785061893043608    0.0204126035271346 H
   0.0491391298548766    0.7202907231937138    0.3360604147786864 H
   0.4147856016657538    0.8495358861930473    0.4653865474659195 H
   0.2309880092722149    0.7853710529694237    0.4160764971371432 H
   0.3694400000000000    0.8182800000000000    0.1124600000000000 O
   0.1574500000000000    0.7404400000000000    0.0362000000000000 O
   0.1299900000000000    0.7467900000000000    0.3239700000000000 O
   0.3424400000000000    0.8219000000000000    0.3994100000000000 O
