H6 O4
1.0
  12.7162460331284262    0.0000000000000000   -3.4768629286967205
  -1.7713841604652190   12.5656600921010249   -3.5347296368792565
   0.0000000000000000    0.0000000000000000   13.9800000000000004
H O
6 4
direct
   0.7866745086686419    0.3170199919672944    0.1204122912439799 H
   0.9266731273119665    0.3857218056961350    0.4228164282387897 H
   0.8581522544936055    0.3640129126250627    0.2742444440981396 H
   0.8335605755706382   -0.0083835188147123    0.3656998572198076 H
   0.8340533479873092   -0.0696454294964357    0.0699987892912488 H
   0.8333254971029871   -0.0505416160974116    0.2130304953588153 H
   0.8143800000000000    0.2948200000000000    0.1819500000000000 O
   0.8945100000000000    0.3348800000000000    0.3550000000000000 O
   0.8352700000000000    0.0136900000000000    0.3052300000000000 O
   0.8354700000000000   -0.0228500000000001    0.1371700000000000 O
