H2 C4 O4
1.0
  35.5931715891814164    0.0000000000000000    0.7928052869958124
   0.5976162034968390    9.8567065055917062    1.2767304868076752
   0.0000000000000000    0.0000000000000000   30.5189999999999984
H C O
2 4 4
direct
   0.4691125000000000    0.9147900000000000    0.3180100000000000 H
   0.5308900000000000    0.0852200000000000    0.3486500000000000 H
   0.4933350000000000    0.9769700000000000    0.3154433333333333 C
   0.5100750000000001    0.0067800000000000    0.2702933333333333 C
   0.4899275000000000    0.9932299999999999    0.3963666666666666 C
   0.5066675000000000    0.0230400000000000    0.3512166666666666 C
   0.4953350000000000    0.9562300000000000    0.2389533333333334 O
   0.5386075000000000    0.0806200000000000    0.2662600000000000 O
   0.4613950000000000    0.9194000000000000    0.4004000000000000 O
   0.5046675000000000    0.0437700000000000    0.4277066666666666 O
