Zn60 H118 C188 O212
1.0
  35.5931715891814164    0.0000000000000000    0.7928052869958124
   0.5976162034968390    9.8567065055917062    1.2767304868076752
   0.0000000000000000    0.0000000000000000   30.5189999999999984
Zn H C O
60 118 188 212
direct
   0.1763000000000000    0.8882300000000000    0.1169733333333333 Zn
   0.0610625000000000    0.1618800000000000    0.1095666666666667 Zn
   0.0737025000000000    0.1117800000000000    0.2163533333333333 Zn
   0.0000000000000000    0.0000000000000000    0.1666633333333333 Zn
   0.1889400000000000    0.8381300000000000    0.2237600000000000 Zn
   0.4263000000000000    0.8882300000000000    0.1169733333333333 Zn
   0.3110625000000000    0.1618800000000000    0.1095666666666667 Zn
   0.3237025000000000    0.1117800000000000    0.2163533333333333 Zn
   0.2500000000000000    0.0000000000000000    0.1666633333333333 Zn
   0.4389400000000000    0.8381300000000000    0.2237600000000000 Zn
   0.6763000000000000    0.8882300000000000    0.1169733333333333 Zn
   0.5610625000000000    0.1618800000000000    0.1095666666666667 Zn
   0.5737025000000000    0.1117800000000000    0.2163533333333333 Zn
   0.5000000000000000    0.0000000000000000    0.1666633333333333 Zn
   0.6889400000000000    0.8381300000000000    0.2237600000000000 Zn
   0.9263000000000000    0.8882300000000000    0.1169733333333333 Zn
   0.8110625000000000    0.1618800000000000    0.1095666666666667 Zn
   0.8237025000000000    0.1117800000000000    0.2163533333333333 Zn
   0.7500000000000000    0.0000000000000000    0.1666633333333333 Zn
   0.9389400000000000    0.8381300000000000    0.2237600000000000 Zn
   0.1763000000000000    0.8882300000000000    0.4503066666666666 Zn
   0.0610625000000000    0.1618800000000000    0.4429000000000000 Zn
   0.0737025000000000    0.1117800000000000    0.5496866666666667 Zn
   0.0000000000000000    0.0000000000000000    0.4999966666666666 Zn
   0.1889400000000000    0.8381300000000000    0.5570933333333333 Zn
   0.4263000000000000    0.8882300000000000    0.4503066666666666 Zn
   0.3110625000000000    0.1618800000000000    0.4429000000000000 Zn
   0.3237025000000000    0.1117800000000000    0.5496866666666667 Zn
   0.2500000000000000    0.0000000000000000    0.4999966666666666 Zn
   0.4389400000000000    0.8381300000000000    0.5570933333333333 Zn
   0.6763000000000000    0.8882300000000000    0.4503066666666666 Zn
   0.5610625000000000    0.1618800000000000    0.4429000000000000 Zn
   0.5737025000000000    0.1117800000000000    0.5496866666666667 Zn
   0.5000000000000000    0.0000000000000000    0.4999966666666666 Zn
   0.6889400000000000    0.8381300000000000    0.5570933333333333 Zn
   0.9263000000000000    0.8882300000000000    0.4503066666666666 Zn
   0.8110625000000000    0.1618800000000000    0.4429000000000000 Zn
   0.8237025000000000    0.1117800000000000    0.5496866666666667 Zn
   0.7500000000000000    0.0000000000000000    0.4999966666666666 Zn
   0.9389400000000000    0.8381300000000000    0.5570933333333333 Zn
   0.1763000000000000    0.8882300000000000    0.7836400000000000 Zn
   0.0610625000000000    0.1618800000000000    0.7762333333333333 Zn
   0.0737025000000000    0.1117800000000000    0.8830199999999999 Zn
   0.0000000000000000    0.0000000000000000    0.8333299999999999 Zn
   0.1889400000000000    0.8381300000000000    0.8904266666666666 Zn
   0.4263000000000000    0.8882300000000000    0.7836400000000000 Zn
   0.3110625000000000    0.1618800000000000    0.7762333333333333 Zn
   0.3237025000000000    0.1117800000000000    0.8830199999999999 Zn
   0.2500000000000000    0.0000000000000000    0.8333299999999999 Zn
   0.4389400000000000    0.8381300000000000    0.8904266666666666 Zn
   0.6763000000000000    0.8882300000000000    0.7836400000000000 Zn
   0.5610625000000000    0.1618800000000000    0.7762333333333333 Zn
   0.5737025000000000    0.1117800000000000    0.8830199999999999 Zn
   0.5000000000000000    0.0000000000000000    0.8333299999999999 Zn
   0.6889400000000000    0.8381300000000000    0.8904266666666666 Zn
   0.9263000000000000    0.8882300000000000    0.7836400000000000 Zn
   0.8110625000000000    0.1618800000000000    0.7762333333333333 Zn
   0.8237025000000000    0.1117800000000000    0.8830199999999999 Zn
   0.7500000000000000    0.0000000000000000    0.8333299999999999 Zn
   0.9389400000000000    0.8381300000000000    0.8904266666666666 Zn
   0.2175800000000000    0.4360800000000000    0.1947933333333333 H
   0.2191125000000000    0.9147900000000000    0.3180100000000000 H
   0.1084725000000000    0.5285600000000000    0.2119866666666667 H
   0.0928100000000000    0.0866300000000000    0.3085400000000000 H
   0.0324225000000000    0.5639300000000000    0.1385333333333333 H
   0.0308900000000000    0.0852200000000000    0.0153166666666667 H
   0.1415350000000000    0.4714400000000000    0.1213400000000000 H
   0.1571900000000000    0.9133500000000000    0.0247866666666667 H
   0.1766900000000000    0.0589200000000000    0.1723366666666666 H
   0.0733150000000000    0.9410800000000000    0.1609933333333333 H
   0.4675800000000000    0.4360800000000000    0.1947933333333333 H
   0.3584725000000000    0.5285600000000000    0.2119866666666667 H
   0.3428100000000000    0.0866300000000000    0.3085400000000000 H
   0.2824225000000000    0.5639300000000000    0.1385333333333333 H
   0.2808900000000000    0.0852200000000000    0.0153166666666667 H
   0.3915350000000000    0.4714400000000000    0.1213400000000000 H
   0.4071900000000000    0.9133500000000000    0.0247866666666667 H
   0.4266900000000000    0.0589200000000000    0.1723366666666666 H
   0.3233150000000000    0.9410800000000000    0.1609933333333333 H
   0.7175800000000000    0.4360800000000000    0.1947933333333333 H
   0.7191125000000000    0.9147900000000000    0.3180100000000000 H
   0.6084725000000000    0.5285600000000000    0.2119866666666667 H
   0.5928100000000001    0.0866300000000000    0.3085400000000000 H
   0.5324225000000000    0.5639300000000000    0.1385333333333333 H
   0.5308900000000000    0.0852200000000000    0.0153166666666667 H
   0.6415350000000000    0.4714400000000000    0.1213400000000000 H
   0.6571899999999999    0.9133500000000000    0.0247866666666667 H
   0.6766900000000000    0.0589200000000000    0.1723366666666666 H
   0.5733150000000000    0.9410800000000000    0.1609933333333333 H
   0.9675800000000000    0.4360800000000000    0.1947933333333333 H
   0.9691125000000000    0.9147900000000000    0.3180100000000000 H
   0.8584725000000000    0.5285600000000000    0.2119866666666667 H
   0.8428100000000001    0.0866300000000000    0.3085400000000000 H
   0.7824225000000000    0.5639300000000000    0.1385333333333333 H
   0.7808900000000000    0.0852200000000000    0.0153166666666667 H
   0.8915350000000000    0.4714400000000000    0.1213400000000000 H
   0.9071899999999999    0.9133500000000000    0.0247866666666667 H
   0.9266900000000000    0.0589200000000000    0.1723366666666666 H
   0.8233150000000000    0.9410800000000000    0.1609933333333333 H
   0.2175800000000000    0.4360800000000000    0.5281266666666666 H
   0.2191125000000000    0.9147900000000000    0.6513433333333334 H
   0.1084725000000000    0.5285600000000000    0.5453200000000000 H
   0.0928100000000000    0.0866300000000000    0.6418733333333333 H
   0.0324225000000000    0.5639300000000000    0.4718666666666667 H
   0.0308900000000000    0.0852200000000000    0.3486500000000000 H
   0.1415350000000000    0.4714400000000000    0.4546733333333333 H
   0.1571900000000000    0.9133500000000000    0.3581200000000000 H
   0.1766900000000000    0.0589200000000000    0.5056700000000000 H
   0.0733150000000000    0.9410800000000000    0.4943266666666666 H
   0.4675800000000000    0.4360800000000000    0.5281266666666666 H
   0.4691125000000000    0.9147900000000000    0.6513433333333334 H
   0.3584725000000000    0.5285600000000000    0.5453200000000000 H
   0.3428100000000000    0.0866300000000000    0.6418733333333333 H
   0.2824225000000000    0.5639300000000000    0.4718666666666667 H
   0.2808900000000000    0.0852200000000000    0.3486500000000000 H
   0.3915350000000000    0.4714400000000000    0.4546733333333333 H
   0.4071900000000000    0.9133500000000000    0.3581200000000000 H
   0.4266900000000000    0.0589200000000000    0.5056700000000000 H
   0.3233150000000000    0.9410800000000000    0.4943266666666666 H
   0.7175800000000000    0.4360800000000000    0.5281266666666666 H
   0.7191125000000000    0.9147900000000000    0.6513433333333334 H
   0.6084725000000000    0.5285600000000000    0.5453200000000000 H
   0.5928100000000001    0.0866300000000000    0.6418733333333333 H
   0.5324225000000000    0.5639300000000000    0.4718666666666667 H
   0.6415350000000000    0.4714400000000000    0.4546733333333333 H
   0.6571899999999999    0.9133500000000000    0.3581200000000000 H
   0.6766900000000000    0.0589200000000000    0.5056700000000000 H
   0.5733150000000000    0.9410800000000000    0.4943266666666666 H
   0.9675800000000000    0.4360800000000000    0.5281266666666666 H
   0.9691125000000000    0.9147900000000000    0.6513433333333334 H
   0.8584725000000000    0.5285600000000000    0.5453200000000000 H
   0.8428100000000001    0.0866300000000000    0.6418733333333333 H
   0.7824225000000000    0.5639300000000000    0.4718666666666667 H
   0.7808900000000000    0.0852200000000000    0.3486500000000000 H
   0.8915350000000000    0.4714400000000000    0.4546733333333333 H
   0.9071899999999999    0.9133500000000000    0.3581200000000000 H
   0.9266900000000000    0.0589200000000000    0.5056700000000000 H
   0.8233150000000000    0.9410800000000000    0.4943266666666666 H
   0.2175800000000000    0.4360800000000000    0.8614599999999999 H
   0.2191125000000000    0.9147900000000000    0.9846766666666666 H
   0.1084725000000000    0.5285600000000000    0.8786533333333333 H
   0.0928100000000000    0.0866300000000000    0.9752066666666666 H
   0.0324225000000000    0.5639300000000000    0.8051999999999999 H
   0.0308900000000000    0.0852200000000000    0.6819833333333333 H
   0.1415350000000000    0.4714400000000000    0.7880066666666666 H
   0.1571900000000000    0.9133500000000000    0.6914533333333333 H
   0.1766900000000000    0.0589200000000000    0.8390033333333333 H
   0.0733150000000000    0.9410800000000000    0.8276600000000000 H
   0.4675800000000000    0.4360800000000000    0.8614599999999999 H
   0.4691125000000000    0.9147900000000000    0.9846766666666666 H
   0.3584725000000000    0.5285600000000000    0.8786533333333333 H
   0.3428100000000000    0.0866300000000000    0.9752066666666666 H
   0.2824225000000000    0.5639300000000000    0.8051999999999999 H
   0.2808900000000000    0.0852200000000000    0.6819833333333333 H
   0.3915350000000000    0.4714400000000000    0.7880066666666666 H
   0.4071900000000000    0.9133500000000000    0.6914533333333333 H
   0.4266900000000000    0.0589200000000000    0.8390033333333333 H
   0.3233150000000000    0.9410800000000000    0.8276600000000000 H
   0.7175800000000000    0.4360800000000000    0.8614599999999999 H
   0.7191125000000000    0.9147900000000000    0.9846766666666666 H
   0.6084725000000000    0.5285600000000000    0.8786533333333333 H
   0.5928100000000001    0.0866300000000000    0.9752066666666666 H
   0.5324225000000000    0.5639300000000000    0.8051999999999999 H
   0.5308900000000000    0.0852200000000000    0.6819833333333333 H
   0.6415350000000000    0.4714400000000000    0.7880066666666666 H
   0.6571899999999999    0.9133500000000000    0.6914533333333333 H
   0.6766900000000000    0.0589200000000000    0.8390033333333333 H
   0.5733150000000000    0.9410800000000000    0.8276600000000000 H
   0.9675800000000000    0.4360800000000000    0.8614599999999999 H
   0.9691125000000000    0.9147900000000000    0.9846766666666666 H
   0.8584725000000000    0.5285600000000000    0.8786533333333333 H
   0.8428100000000001    0.0866300000000000    0.9752066666666666 H
   0.7824225000000000    0.5639300000000000    0.8051999999999999 H
   0.7808900000000000    0.0852200000000000    0.6819833333333333 H
   0.8915350000000000    0.4714400000000000    0.7880066666666666 H
   0.9071899999999999    0.9133500000000000    0.6914533333333333 H
   0.9266900000000000    0.0589200000000000    0.8390033333333333 H
   0.8233150000000000    0.9410800000000000    0.8276600000000000 H
   0.0038400000000000    0.3131400000000000    0.1540333333333333 C
   0.2412650000000000    0.4420100000000000    0.1715033333333333 C
   0.0100750000000000    0.0067800000000000    0.2702933333333333 C
   0.2433350000000000    0.9769700000000000    0.3154433333333333 C
   0.1440425000000000    0.6735700000000000    0.1733800000000000 C
   0.1241825000000000    0.5459800000000000    0.1809233333333333 C
   0.1368075000000000    0.9758200000000000    0.2729800000000000 C
   0.1181950000000000    0.0197500000000000    0.3130666666666667 C
   0.2461650000000000    0.6868700000000000    0.1792933333333333 C
   0.0087400000000000    0.5579900000000000    0.1618233333333333 C
   0.2399275000000000    0.9932299999999999    0.0630333333333333 C
   0.0066675000000000    0.0230400000000000    0.0178833333333333 C
   0.1059625000000000    0.3264300000000000    0.1599466666666667 C
   0.1258225000000000    0.4540200000000000    0.1524066666666667 C
   0.1131975000000000    0.0241800000000000    0.0603500000000000 C
   0.1318075000000000    0.9802400000000000    0.0202633333333333 C
   0.2538400000000000    0.3131400000000000    0.1540333333333333 C
   0.4912650000000000    0.4420100000000000    0.1715033333333333 C
   0.2600750000000000    0.0067800000000000    0.2702933333333333 C
   0.3940425000000000    0.6735700000000000    0.1733800000000000 C
   0.3741825000000000    0.5459800000000000    0.1809233333333333 C
   0.3868075000000000    0.9758200000000000    0.2729800000000000 C
   0.3681950000000000    0.0197500000000000    0.3130666666666667 C
   0.4961650000000000    0.6868700000000000    0.1792933333333333 C
   0.2587400000000000    0.5579900000000000    0.1618233333333333 C
   0.4899275000000000    0.9932299999999999    0.0630333333333333 C
   0.2566675000000000    0.0230400000000000    0.0178833333333333 C
   0.3559625000000000    0.3264300000000000    0.1599466666666667 C
   0.3758225000000000    0.4540200000000000    0.1524066666666667 C
   0.3631975000000000    0.0241800000000000    0.0603500000000000 C
   0.3818075000000000    0.9802400000000000    0.0202633333333333 C
   0.5038400000000000    0.3131400000000000    0.1540333333333333 C
   0.7412650000000001    0.4420100000000000    0.1715033333333333 C
   0.7433350000000000    0.9769700000000000    0.3154433333333333 C
   0.6440425000000000    0.6735700000000000    0.1733800000000000 C
   0.6241825000000000    0.5459800000000000    0.1809233333333333 C
   0.6368075000000000    0.9758200000000000    0.2729800000000000 C
   0.6181950000000001    0.0197500000000000    0.3130666666666667 C
   0.7461650000000000    0.6868700000000000    0.1792933333333333 C
   0.5087400000000000    0.5579900000000000    0.1618233333333333 C
   0.7399275000000000    0.9932299999999999    0.0630333333333333 C
   0.5066675000000000    0.0230400000000000    0.0178833333333333 C
   0.6059625000000000    0.3264300000000000    0.1599466666666667 C
   0.6258224999999999    0.4540200000000000    0.1524066666666667 C
   0.6131975000000001    0.0241800000000000    0.0603500000000000 C
   0.6318075000000000    0.9802400000000000    0.0202633333333333 C
   0.7538400000000000    0.3131400000000000    0.1540333333333333 C
   0.9912650000000001    0.4420100000000000    0.1715033333333333 C
   0.7600750000000001    0.0067800000000000    0.2702933333333333 C
   0.9933350000000000    0.9769700000000000    0.3154433333333333 C
   0.8940425000000000    0.6735700000000000    0.1733800000000000 C
   0.8741825000000000    0.5459800000000000    0.1809233333333333 C
   0.8868075000000000    0.9758200000000000    0.2729800000000000 C
   0.8681950000000001    0.0197500000000000    0.3130666666666667 C
   0.9961650000000000    0.6868700000000000    0.1792933333333333 C
   0.7587400000000000    0.5579900000000000    0.1618233333333333 C
   0.9899275000000000    0.9932299999999999    0.0630333333333333 C
   0.7566675000000000    0.0230400000000000    0.0178833333333333 C
   0.8559625000000000    0.3264300000000000    0.1599466666666667 C
   0.8758224999999999    0.4540200000000000    0.1524066666666667 C
   0.8631975000000001    0.0241800000000000    0.0603500000000000 C
   0.8818075000000000    0.9802400000000000    0.0202633333333333 C
   0.0038400000000000    0.3131400000000000    0.4873666666666666 C
   0.2412650000000000    0.4420100000000000    0.5048366666666666 C
   0.0100750000000000    0.0067800000000000    0.6036266666666666 C
   0.2433350000000000    0.9769700000000000    0.6487766666666666 C
   0.1440425000000000    0.6735700000000000    0.5067133333333333 C
   0.1241825000000000    0.5459800000000000    0.5142566666666666 C
   0.1368075000000000    0.9758200000000000    0.6063133333333333 C
   0.1181950000000000    0.0197500000000000    0.6464000000000000 C
   0.2461650000000000    0.6868700000000000    0.5126266666666667 C
   0.0087400000000000    0.5579900000000000    0.4951566666666666 C
   0.2399275000000000    0.9932299999999999    0.3963666666666666 C
   0.0066675000000000    0.0230400000000000    0.3512166666666666 C
   0.1059625000000000    0.3264300000000000    0.4932799999999999 C
   0.1258225000000000    0.4540200000000000    0.4857399999999999 C
   0.1131975000000000    0.0241800000000000    0.3936833333333333 C
   0.1318075000000000    0.9802400000000000    0.3535966666666667 C
   0.2538400000000000    0.3131400000000000    0.4873666666666666 C
   0.4912650000000000    0.4420100000000000    0.5048366666666666 C
   0.2600750000000000    0.0067800000000000    0.6036266666666666 C
   0.4933350000000000    0.9769700000000000    0.6487766666666666 C
   0.3940425000000000    0.6735700000000000    0.5067133333333333 C
   0.3741825000000000    0.5459800000000000    0.5142566666666666 C
   0.3868075000000000    0.9758200000000000    0.6063133333333333 C
   0.3681950000000000    0.0197500000000000    0.6464000000000000 C
   0.4961650000000000    0.6868700000000000    0.5126266666666667 C
   0.2587400000000000    0.5579900000000000    0.4951566666666666 C
   0.2566675000000000    0.0230400000000000    0.3512166666666666 C
   0.3559625000000000    0.3264300000000000    0.4932799999999999 C
   0.3758225000000000    0.4540200000000000    0.4857399999999999 C
   0.3631975000000000    0.0241800000000000    0.3936833333333333 C
   0.3818075000000000    0.9802400000000000    0.3535966666666667 C
   0.5038400000000000    0.3131400000000000    0.4873666666666666 C
   0.7412650000000001    0.4420100000000000    0.5048366666666666 C
   0.5100750000000001    0.0067800000000000    0.6036266666666666 C
   0.7433350000000000    0.9769700000000000    0.6487766666666666 C
   0.6440425000000000    0.6735700000000000    0.5067133333333333 C
   0.6241825000000000    0.5459800000000000    0.5142566666666666 C
   0.6368075000000000    0.9758200000000000    0.6063133333333333 C
   0.6181950000000001    0.0197500000000000    0.6464000000000000 C
   0.7461650000000000    0.6868700000000000    0.5126266666666667 C
   0.5087400000000000    0.5579900000000000    0.4951566666666666 C
   0.7399275000000000    0.9932299999999999    0.3963666666666666 C
   0.6059625000000000    0.3264300000000000    0.4932799999999999 C
   0.6258224999999999    0.4540200000000000    0.4857399999999999 C
   0.6131975000000001    0.0241800000000000    0.3936833333333333 C
   0.6318075000000000    0.9802400000000000    0.3535966666666667 C
   0.7538400000000000    0.3131400000000000    0.4873666666666666 C
   0.9912650000000001    0.4420100000000000    0.5048366666666666 C
   0.7600750000000001    0.0067800000000000    0.6036266666666666 C
   0.9933350000000000    0.9769700000000000    0.6487766666666666 C
   0.8940425000000000    0.6735700000000000    0.5067133333333333 C
   0.8741825000000000    0.5459800000000000    0.5142566666666666 C
   0.8868075000000000    0.9758200000000000    0.6063133333333333 C
   0.8681950000000001    0.0197500000000000    0.6464000000000000 C
   0.9961650000000000    0.6868700000000000    0.5126266666666667 C
   0.7587400000000000    0.5579900000000000    0.4951566666666666 C
   0.9899275000000000    0.9932299999999999    0.3963666666666666 C
   0.7566675000000000    0.0230400000000000    0.3512166666666666 C
   0.8559625000000000    0.3264300000000000    0.4932799999999999 C
   0.8758224999999999    0.4540200000000000    0.4857399999999999 C
   0.8631975000000001    0.0241800000000000    0.3936833333333333 C
   0.8818075000000000    0.9802400000000000    0.3535966666666667 C
   0.0038400000000000    0.3131400000000000    0.8207000000000000 C
   0.2412650000000000    0.4420100000000000    0.8381700000000000 C
   0.0100750000000000    0.0067800000000000    0.9369600000000000 C
   0.2433350000000000    0.9769700000000000    0.9821099999999999 C
   0.1440425000000000    0.6735700000000000    0.8400466666666666 C
   0.1241825000000000    0.5459800000000000    0.8475900000000000 C
   0.1368075000000000    0.9758200000000000    0.9396466666666666 C
   0.1181950000000000    0.0197500000000000    0.9797333333333333 C
   0.2461650000000000    0.6868700000000000    0.8459599999999999 C
   0.0087400000000000    0.5579900000000000    0.8284899999999999 C
   0.2399275000000000    0.9932299999999999    0.7297000000000000 C
   0.0066675000000000    0.0230400000000000    0.6845500000000000 C
   0.1059625000000000    0.3264300000000000    0.8266133333333333 C
   0.1258225000000000    0.4540200000000000    0.8190733333333333 C
   0.1131975000000000    0.0241800000000000    0.7270166666666666 C
   0.1318075000000000    0.9802400000000000    0.6869299999999999 C
   0.2538400000000000    0.3131400000000000    0.8207000000000000 C
   0.4912650000000000    0.4420100000000000    0.8381700000000000 C
   0.2600750000000000    0.0067800000000000    0.9369600000000000 C
   0.4933350000000000    0.9769700000000000    0.9821099999999999 C
   0.3940425000000000    0.6735700000000000    0.8400466666666666 C
   0.3741825000000000    0.5459800000000000    0.8475900000000000 C
   0.3868075000000000    0.9758200000000000    0.9396466666666666 C
   0.3681950000000000    0.0197500000000000    0.9797333333333333 C
   0.4961650000000000    0.6868700000000000    0.8459599999999999 C
   0.2587400000000000    0.5579900000000000    0.8284899999999999 C
   0.4899275000000000    0.9932299999999999    0.7297000000000000 C
   0.2566675000000000    0.0230400000000000    0.6845500000000000 C
   0.3559625000000000    0.3264300000000000    0.8266133333333333 C
   0.3758225000000000    0.4540200000000000    0.8190733333333333 C
   0.3631975000000000    0.0241800000000000    0.7270166666666666 C
   0.3818075000000000    0.9802400000000000    0.6869299999999999 C
   0.5038400000000000    0.3131400000000000    0.8207000000000000 C
   0.7412650000000001    0.4420100000000000    0.8381700000000000 C
   0.5100750000000001    0.0067800000000000    0.9369600000000000 C
   0.7433350000000000    0.9769700000000000    0.9821099999999999 C
   0.6440425000000000    0.6735700000000000    0.8400466666666666 C
   0.6241825000000000    0.5459800000000000    0.8475900000000000 C
   0.6368075000000000    0.9758200000000000    0.9396466666666666 C
   0.6181950000000001    0.0197500000000000    0.9797333333333333 C
   0.7461650000000000    0.6868700000000000    0.8459599999999999 C
   0.5087400000000000    0.5579900000000000    0.8284899999999999 C
   0.7399275000000000    0.9932299999999999    0.7297000000000000 C
   0.5066675000000000    0.0230400000000000    0.6845500000000000 C
   0.6059625000000000    0.3264300000000000    0.8266133333333333 C
   0.6258224999999999    0.4540200000000000    0.8190733333333333 C
   0.6131975000000001    0.0241800000000000    0.7270166666666666 C
   0.6318075000000000    0.9802400000000000    0.6869299999999999 C
   0.7538400000000000    0.3131400000000000    0.8207000000000000 C
   0.9912650000000001    0.4420100000000000    0.8381700000000000 C
   0.7600750000000001    0.0067800000000000    0.9369600000000000 C
   0.9933350000000000    0.9769700000000000    0.9821099999999999 C
   0.8940425000000000    0.6735700000000000    0.8400466666666666 C
   0.8741825000000000    0.5459800000000000    0.8475900000000000 C
   0.8868075000000000    0.9758200000000000    0.9396466666666666 C
   0.8681950000000001    0.0197500000000000    0.9797333333333333 C
   0.9961650000000000    0.6868700000000000    0.8459599999999999 C
   0.7587400000000000    0.5579900000000000    0.8284899999999999 C
   0.9899275000000000    0.9932299999999999    0.7297000000000000 C
   0.7566675000000000    0.0230400000000000    0.6845500000000000 C
   0.8559625000000000    0.3264300000000000    0.8266133333333333 C
   0.8758224999999999    0.4540200000000000    0.8190733333333333 C
   0.8631975000000001    0.0241800000000000    0.7270166666666666 C
   0.8818075000000000    0.9802400000000000    0.6869299999999999 C
   0.2407050000000000    0.2057300000000000    0.1742366666666667 O
   0.0272725000000000    0.3186200000000000    0.1213966666666667 O
   0.2453350000000000    0.9562300000000000    0.2389533333333334 O
   0.0386075000000000    0.0806200000000000    0.2662600000000000 O
   0.1424250000000000    0.7452100000000000    0.2050200000000000 O
   0.1613900000000000    0.7024000000000000    0.1362066666666666 O
   0.1661825000000000    0.8948500000000000    0.2780333333333333 O
   0.1238925000000000    0.0213200000000000    0.2348700000000000 O
   0.0092975000000000    0.7942800000000000    0.1590900000000000 O
   0.2227325000000000    0.6813900000000001    0.2119300000000000 O
   0.0046675000000000    0.0437700000000000    0.0943733333333333 O
   0.2113950000000000    0.9194000000000000    0.0670666666666667 O
   0.1075800000000000    0.2548000000000000    0.1283033333333333 O
   0.0886175000000000    0.2976000000000000    0.1971200000000000 O
   0.0838200000000000    0.1051500000000000    0.0552933333333333 O
   0.1261100000000000    0.9786800000000000    0.0984600000000000 O
   0.1921050000000000    0.9765700000000000    0.1683866666666667 O
   0.0578975000000000    0.0234400000000000    0.1649400000000000 O
   0.4907050000000000    0.2057300000000000    0.1742366666666667 O
   0.2772725000000000    0.3186200000000000    0.1213966666666667 O
   0.2886075000000000    0.0806200000000000    0.2662600000000000 O
   0.3924250000000000    0.7452100000000000    0.2050200000000000 O
   0.4113900000000000    0.7024000000000000    0.1362066666666666 O
   0.4161825000000000    0.8948500000000000    0.2780333333333333 O
   0.3738925000000000    0.0213200000000000    0.2348700000000000 O
   0.2592975000000000    0.7942800000000000    0.1590900000000000 O
   0.4727325000000000    0.6813900000000001    0.2119300000000000 O
   0.2546675000000000    0.0437700000000000    0.0943733333333333 O
   0.4613950000000000    0.9194000000000000    0.0670666666666667 O
   0.3575800000000000    0.2548000000000000    0.1283033333333333 O
   0.3386175000000000    0.2976000000000000    0.1971200000000000 O
   0.3338200000000000    0.1051500000000000    0.0552933333333333 O
   0.3761100000000000    0.9786800000000000    0.0984600000000000 O
   0.4421050000000000    0.9765700000000000    0.1683866666666667 O
   0.3078975000000000    0.0234400000000000    0.1649400000000000 O
   0.7407049999999999    0.2057300000000000    0.1742366666666667 O
   0.5272725000000000    0.3186200000000000    0.1213966666666667 O
   0.7453350000000000    0.9562300000000000    0.2389533333333334 O
   0.6424250000000000    0.7452100000000000    0.2050200000000000 O
   0.6613900000000000    0.7024000000000000    0.1362066666666666 O
   0.6661825000000000    0.8948500000000000    0.2780333333333333 O
   0.6238925000000000    0.0213200000000000    0.2348700000000000 O
   0.5092975000000000    0.7942800000000000    0.1590900000000000 O
   0.7227325000000000    0.6813900000000001    0.2119300000000000 O
   0.5046675000000000    0.0437700000000000    0.0943733333333333 O
   0.7113950000000000    0.9194000000000000    0.0670666666666667 O
   0.6075800000000000    0.2548000000000000    0.1283033333333333 O
   0.5886175000000000    0.2976000000000000    0.1971200000000000 O
   0.5838200000000000    0.1051500000000000    0.0552933333333333 O
   0.6261099999999999    0.9786800000000000    0.0984600000000000 O
   0.6921050000000000    0.9765700000000000    0.1683866666666667 O
   0.5578975000000000    0.0234400000000000    0.1649400000000000 O
   0.9907049999999999    0.2057300000000000    0.1742366666666667 O
   0.7772725000000000    0.3186200000000000    0.1213966666666667 O
   0.9953350000000000    0.9562300000000000    0.2389533333333334 O
   0.7886075000000000    0.0806200000000000    0.2662600000000000 O
   0.8924250000000000    0.7452100000000000    0.2050200000000000 O
   0.9113900000000000    0.7024000000000000    0.1362066666666666 O
   0.9161825000000000    0.8948500000000000    0.2780333333333333 O
   0.8738925000000000    0.0213200000000000    0.2348700000000000 O
   0.7592975000000000    0.7942800000000000    0.1590900000000000 O
   0.9727325000000000    0.6813900000000001    0.2119300000000000 O
   0.7546675000000000    0.0437700000000000    0.0943733333333333 O
   0.9613950000000000    0.9194000000000000    0.0670666666666667 O
   0.8575800000000000    0.2548000000000000    0.1283033333333333 O
   0.8386175000000000    0.2976000000000000    0.1971200000000000 O
   0.8338200000000000    0.1051500000000000    0.0552933333333333 O
   0.8761099999999999    0.9786800000000000    0.0984600000000000 O
   0.9421050000000000    0.9765700000000000    0.1683866666666667 O
   0.8078975000000000    0.0234400000000000    0.1649400000000000 O