H8 C14 O4
1.0
  27.6700469274283698    0.0000000000000000    7.2100859241698290
 -13.8364788878035760   31.6816147090198150   15.2960634614460727
   0.0000000000000000    0.0000000000000000   37.8019999999999996
H C O
8 14 4
direct
   0.8739800000000000    0.7281350000000000    0.6932250000000000 H
   0.7300250000000000    0.6161050000000000    0.7596350000000001 H
   0.7506699999999999    0.5921950000000000    0.8230999999999999 H
   0.8340700000000000    0.6359800000000000    0.8211950000000000 H
   0.8151850000000000    0.7535600000000000    0.6662100000000000 H
   0.8008950000000000    0.7764700000000000    0.5995850000000000 H
   0.7455000000000001    0.6482650000000000    0.6254450000000000 H
   0.7614250000000000    0.6252250000000000    0.6913500000000000 H
   0.9097450000000000    0.7098450000000001    0.7549750000000000 C
   0.8584550000000000    0.6848850000000000    0.7571749999999999 C
   0.8460900000000000    0.6986950000000001    0.7215000000000000 C
   0.8001150000000000    0.6741100000000000    0.7219650000000000 C
   0.7659899999999999    0.6355550000000000    0.7589500000000000 C
   0.7776500000000000    0.6221000000000000    0.7946299999999999 C
   0.8238700000000000    0.6464200000000000    0.7939200000000000 C
   0.7894800000000000    0.6877700000000000    0.6833549999999999 C
   0.8006650000000000    0.7304950000000000    0.6570100000000000 C
   0.7923899999999999    0.7434300000000000    0.6199300000000000 C
   0.7724350000000000    0.7137750000000000    0.6084000000000001 C
   0.7607200000000001    0.6710650000000000    0.6346650000000000 C
   0.7693300000000001    0.6582850000000000    0.6716150000000000 C
   0.7639549999999999    0.7274400000000000    0.5686000000000000 C
   0.9414650000000000    0.7429200000000000    0.7194500000000000 O
   0.9186350000000000    0.6958150000000000    0.7884700000000000 O
   0.7835300000000001    0.7671600000000001    0.5423600000000000 O
   0.7374950000000000    0.6983100000000000    0.5635600000000001 O
