H5 O3
1.0
  27.9606223733424031    0.0000000000000000   12.0053170510130389
   4.6452164197209331   11.7786647855139304    1.9836522589529451
   0.0000000000000000    0.0000000000000000   25.6520000000000010
H O
5 3
direct
   0.0369057345783029    0.2243895851104420    0.6937700498135680 H
   0.0924680831410059    0.2244805237508024    0.6931547528681663 H
   0.1757118799168034    0.8915438731449531    0.7232584402567096 H
   0.0456381578156904    0.8903747823066366    0.7214628921020344 H
   0.1089914881023083    0.9012864651116259    0.7222094979169247 H
   0.0590866666666667    0.2659300000000000    0.6894800000000000 O
   0.1531300000000000    0.8551000000000000    0.7233950000000000 O
   0.0799700000000000    0.8544500000000000    0.7223850000000001 O
