H4 C6 N1 O2
1.0
  27.9606223733424031    0.0000000000000000   12.0053170510130389
   4.6452164197209331   11.7786647855139304    1.9836522589529451
   0.0000000000000000    0.0000000000000000   25.6520000000000010
H C N O
4 6 1 2
direct
   0.1282333333333333    0.2583000000000000    0.6909200000000000 H
   0.1596300000000000    0.0497000000000000    0.7088700000000000 H
   0.0174800000000000    0.0493500000000000    0.7100649999999999 H
   0.9910500000000000    0.2580600000000000    0.6925000000000000 H
   0.1052333333333333    0.2086300000000000    0.6945600000000001 C
   0.1224033333333333    0.0925600000000000    0.7047900000000000 C
   0.0284266666666667    0.2085100000000000    0.6954100000000000 C
   0.0432366666666667    0.0923900000000000    0.7055250000000000 C
   0.0912133333333333    0.0325000000000000    0.7099850000000000 C
   0.1091166666666667    0.9061000000000000    0.7194950000000000 C
   0.0590866666666667    0.2659300000000000    0.6894800000000000 N
   0.1531300000000000    0.8551000000000000    0.7233950000000000 O
   0.0799700000000000    0.8544500000000000    0.7223850000000001 O
