H3 O2
1.0
  27.9606223733424031    0.0000000000000000   12.0053170510130389
   4.6452164197209331   11.7786647855139304    1.9836522589529451
   0.0000000000000000    0.0000000000000000   25.6520000000000010
H O
3 2
direct
   0.1500165001317217    0.4600507484949899    0.7289308448465299 H
   0.0400286745811847    0.6278498931506836    0.6987014026494655 H
   0.0785100612765175    0.6101596894960888    0.7095415264704760 H
   0.1353466666666667    0.4087300000000000    0.7244250000000000 O
   0.0616566666666667    0.5512000000000000    0.7043650000000000 O
