S1 O4
1.0
  27.9606223733424031    0.0000000000000000   12.0053170510130389
   4.6452164197209331   11.7786647855139304    1.9836522589529451
   0.0000000000000000    0.0000000000000000   25.6520000000000010
S O
1 4
direct
   0.0833100000000000    0.5000400000000000    0.7499899999999999 S
   0.1353466666666667    0.4087300000000000    0.7244250000000000 O
   0.0879966666666667    0.5913400000000000    0.7756050000000000 O
   0.0482466666666667    0.4489000000000000    0.7955650000000001 O
   0.0616566666666667    0.5512000000000000    0.7043650000000000 O
