H3 O3
1.0
  18.2147141557200172    0.0000000000000000    3.4469743581020293
  -4.5318462972539306   13.8318257604027242    7.3304279733127080
   0.0000000000000000    0.0000000000000000   16.3380000000000010
H O
3 3
direct
   0.6268242497170858    0.3446481611970307    0.1076999322421663 H
   0.3891353140685915    0.0726139319367136    0.4815320989767762 H
   0.3383542017981817    0.9952452342256171    0.6046364487316691 H
   0.6692900000000001    0.3838700000000000    0.1151300000000000 O
   0.3589300000000000    0.0740800000000000    0.4380100000000000 O
   0.2837400000000000    0.9644500000000000    0.6170300000000000 O
