H8 C12 N5
1.0
  18.2147141557200172    0.0000000000000000    3.4469743581020293
  -4.5318462972539306   13.8318257604027242    7.3304279733127080
   0.0000000000000000    0.0000000000000000   16.3380000000000010
H C N
8 12 5
direct
   0.4558200000000000    0.0227700000000000    0.6536000000000000 H
   0.3745900000000000    0.9004799999999999    0.8262500000000000 H
   0.2339600000000000    0.8209100000000000    0.8584100000000000 H
   0.1802000000000000    0.8662100000000000    0.7203000000000001 H
   0.6071900000000000    0.2741900000000000    0.3588400000000000 H
   0.7136400000000001    0.4046900000000000    0.2150400000000000 H
   0.6139300000000000    0.3466300000000000    0.0314300000000000 H
   0.5005600000000000    0.2188800000000000    0.1682700000000000 H
   0.4009600000000000    0.0720400000000000    0.4985700000000000 C
   0.4763500000000000    0.1654700000000000    0.3581600000000000 C
   0.3604600000000000    0.0077100000000000    0.5996200000000000 C
   0.3943700000000000    0.9868600000000000    0.6731400000000000 C
   0.3492800000000000    0.9193900000000000    0.7676800000000000 C
   0.2713200000000000    0.8750000000000000    0.7857900000000000 C
   0.2407500000000000    0.8991800000000000    0.7093000000000000 C
   0.5434800000000000    0.2358600000000000    0.2761400000000000 C
   0.6064500000000000    0.2885400000000000    0.2872500000000000 C
   0.6663500000000000    0.3611900000000000    0.2069000000000000 C
   0.6102500000000000    0.3293400000000000    0.1048000000000000 C
   0.5474599999999999    0.2575700000000000    0.1815300000000000 C
   0.3589300000000000    0.0740800000000000    0.4380100000000000 N
   0.4074500000000000    0.1335000000000000    0.3468100000000000 N
   0.4747100000000000    0.1290300000000000    0.4518000000000000 N
   0.2837400000000000    0.9644500000000000    0.6170300000000000 N
   0.6692900000000001    0.3838700000000000    0.1151300000000000 N
