H4 C6 N1 O2
1.0
  13.0699999681492027    0.0000000000000000    0.0009124581322028
   0.0095803030817494   15.2479963958169655    0.0042580448141671
   0.0000000000000000    0.0000000000000000   19.1419999999999995
H C N O
4 6 1 2
direct
   0.0000000000000000    0.7218900000000000    0.2311900000000000 H
   0.8828000000000000    0.5938000000000000    0.1923400000000000 H
   0.0834300000000000    0.4247200000000000    0.3101900000000000 H
   0.1852500000000000    0.5581800000000000    0.3426600000000000 H
   0.0079300000000000    0.6550600000000000    0.2475200000000000 C
   0.9484100000000000    0.5843699999999999    0.2265800000000000 C
   0.9741400000000000    0.4999800000000000    0.2492700000000000 C
   0.0602300000000000    0.4895100000000000    0.2919700000000000 C
   0.1169400000000000    0.5633700000000000    0.3102700000000000 C
   0.9124100000000001    0.4224400000000000    0.2246800000000000 C
   0.0912000000000000    0.6449900000000000    0.2888100000000000 N
   0.9291400000000000    0.3480400000000000    0.2531500000000000 O
   0.8494200000000000    0.4337400000000000    0.1750300000000000 O
