H5 O3
1.0
  13.0699999681492027    0.0000000000000000    0.0009124581322028
   0.0095803030817494   15.2479963958169655    0.0042580448141671
   0.0000000000000000    0.0000000000000000   19.1419999999999995
H O
5 3
direct
   0.0310073705710872    0.6522692095394398    0.2589630723055145 H
   0.1098195148608838    0.5859486323642059    0.3043334960728270 H
   0.9723296281230990    0.3347716476808547    0.2929867653311373 H
   0.8288019612795823    0.4878829004855020    0.1524284061044285 H
   0.9027429458965859    0.4173585754868255    0.2242134214546324 H
   0.0912000000000000    0.6449900000000000    0.2888100000000000 O
   0.9291400000000000    0.3480400000000000    0.2531500000000000 O
   0.8494200000000000    0.4337400000000000    0.1750300000000000 O
