H11 O7
1.0
  26.9161193845364259    0.0000000000000000   -3.3678469795081964
  -1.0339183464058077   27.7497974827495497   -1.0260099996355745
   0.0000000000000000    0.0000000000000000   32.1799999999999997
H O
11 7
direct
   0.2962939307000334    0.5485329310333117    0.8264470608242014 H
   0.3933579222194749    0.5196130078638519    0.9251361694818175 H
   0.3436330155476393    0.5297457007784745    0.8759751028396321 H
   0.2675785693450553    0.3206011186025344    0.7140772477422485 H
   0.1242870422643428    0.3353481047056663    0.6670801551394707 H
   0.1937920296711111    0.3298951922779630    0.6923156913413326 H
   0.1726275684475543    0.4295132338393913    0.9102363367927878 H
   0.1733786696297860    0.4354725246033273    0.8575651008335282 H
   0.2212228386562543    0.3328792054503096    0.8244992800296290 H
   0.3038060006841349    0.3157675973419802    0.8386939825864641 H
   0.3535159759805793    0.2986673511201562    0.8531042473703027 H
   0.3230000000000000    0.5569250000000000    0.8487250000000000 O
   0.3775700000000000    0.5404100000000001    0.9042850000000000 O
   0.2377850000000000    0.3165150000000000    0.6940450000000000 O
   0.1582450000000000    0.3250200000000000    0.6684150000000000 O
   0.1729300000000000    0.4155700000000000    0.8819850000000000 O
   0.2375350000000000    0.3105200000000000    0.8436750000000000 O
   0.3183150000000000    0.2958800000000000    0.8557500000000000 O
