Cd48 H372 C558 N31 O217
1.0
  26.9161193845364259    0.0000000000000000   -3.3678469795081964
  -1.0339183464058077   27.7497974827495497   -1.0260099996355745
   0.0000000000000000    0.0000000000000000   32.1799999999999997
Cd H C N O
48 372 558 31 217
direct
   0.1244250000000000    0.3793550000000000    0.1197250000000000 Cd
   0.1725800000000000    0.3345650000000000    0.3728150000000000 Cd
   0.2181000000000000    0.2773550000000000    0.1285050000000000 Cd
   0.3755800000000000    0.1206200000000000    0.3785200000000000 Cd
   0.3273300000000000    0.1652350000000000    0.1254050000000000 Cd
   0.2819400000000000    0.2226300000000000    0.3697500000000000 Cd
   0.6244250000000000    0.3793550000000000    0.1197250000000000 Cd
   0.6725800000000000    0.3345650000000000    0.3728150000000000 Cd
   0.7181000000000000    0.2773550000000000    0.1285050000000000 Cd
   0.8755800000000000    0.1206200000000000    0.3785200000000000 Cd
   0.8273300000000000    0.1652350000000000    0.1254050000000000 Cd
   0.7819400000000001    0.2226300000000000    0.3697500000000000 Cd
   0.1244250000000000    0.8793550000000000    0.1197250000000000 Cd
   0.1725800000000000    0.8345650000000000    0.3728150000000000 Cd
   0.2181000000000000    0.7773550000000000    0.1285050000000000 Cd
   0.3755800000000000    0.6206199999999999    0.3785200000000000 Cd
   0.3273300000000000    0.6652350000000000    0.1254050000000000 Cd
   0.2819400000000000    0.7226300000000000    0.3697500000000000 Cd
   0.6244250000000000    0.8793550000000000    0.1197250000000000 Cd
   0.6725800000000000    0.8345650000000000    0.3728150000000000 Cd
   0.7181000000000000    0.7773550000000000    0.1285050000000000 Cd
   0.8755800000000000    0.6206199999999999    0.3785200000000000 Cd
   0.8273300000000000    0.6652350000000000    0.1254050000000000 Cd
   0.7819400000000001    0.7226300000000000    0.3697500000000000 Cd
   0.1244250000000000    0.3793550000000000    0.6197250000000000 Cd
   0.1725800000000000    0.3345650000000000    0.8728150000000000 Cd
   0.2181000000000000    0.2773550000000000    0.6285050000000000 Cd
   0.3755800000000000    0.1206200000000000    0.8785200000000000 Cd
   0.3273300000000000    0.1652350000000000    0.6254050000000000 Cd
   0.2819400000000000    0.2226300000000000    0.8697500000000000 Cd
   0.6244250000000000    0.3793550000000000    0.6197250000000000 Cd
   0.6725800000000000    0.3345650000000000    0.8728150000000000 Cd
   0.7181000000000000    0.2773550000000000    0.6285050000000000 Cd
   0.8755800000000000    0.1206200000000000    0.8785200000000000 Cd
   0.8273300000000000    0.1652350000000000    0.6254050000000000 Cd
   0.7819400000000001    0.2226300000000000    0.8697500000000000 Cd
   0.1244250000000000    0.8793550000000000    0.6197250000000000 Cd
   0.1725800000000000    0.8345650000000000    0.8728150000000000 Cd
   0.2181000000000000    0.7773550000000000    0.6285050000000000 Cd
   0.3755800000000000    0.6206199999999999    0.8785200000000000 Cd
   0.3273300000000000    0.6652350000000000    0.6254050000000000 Cd
   0.2819400000000000    0.7226300000000000    0.8697500000000000 Cd
   0.6244250000000000    0.8793550000000000    0.6197250000000000 Cd
   0.6725800000000000    0.8345650000000000    0.8728150000000000 Cd
   0.7181000000000000    0.7773550000000000    0.6285050000000000 Cd
   0.8755800000000000    0.6206199999999999    0.8785200000000000 Cd
   0.8273300000000000    0.6652350000000000    0.6254050000000000 Cd
   0.7819400000000001    0.7226300000000000    0.8697500000000000 Cd
   0.1351900000000000    0.1515300000000000    0.3486100000000000 H
   0.0459750000000000    0.1196150000000000    0.3392400000000000 H
   0.0114550000000000    0.2268650000000000    0.4287850000000000 H
   0.1374700000000000    0.2364800000000000    0.4937600000000000 H
   0.1313200000000000    0.3890850000000000    0.0169050000000000 H
   0.0851100000000000    0.3968850000000000    0.4454550000000000 H
   0.2341300000000000    0.1401300000000000    0.2389700000000000 H
   0.3987050000000000    0.0797700000000000    0.2138350000000000 H
   0.3898650000000000    0.1275550000000000    0.2795200000000000 H
   0.3237850000000000    0.4986050000000000    0.2081100000000000 H
   0.2946350000000000    0.4532750000000000    0.1713000000000000 H
   0.3607600000000000    0.4566650000000000    0.1836150000000000 H
   0.3674850000000000    0.4638800000000000    0.1065550000000000 H
   0.3014400000000000    0.4632800000000000    0.0944350000000000 H
   0.3382050000000000    0.0136300000000000    0.0806600000000000 H
   0.1413600000000000    0.1360250000000000    0.0962800000000000 H
   0.1154100000000000    0.0481300000000000    0.0830250000000000 H
   0.2315550000000000    0.0108700000000000    0.1772700000000000 H
   0.0161600000000000    0.3302650000000000    0.3124800000000000 H
   0.4637400000000000    0.2952350000000000    0.3252600000000000 H
   0.4643500000000000    0.3593400000000000    0.3309700000000000 H
   0.4535200000000000    0.3511550000000000    0.4077150000000000 H
   0.4536550000000000    0.2871400000000000    0.4010550000000000 H
   0.4981750000000000    0.3180500000000000    0.4394900000000000 H
   0.3648650000000000    0.3482950000000000    0.1497800000000000 H
   0.4540650000000000    0.3802300000000000    0.1591400000000000 H
   0.4885800000000000    0.2730700000000000    0.0695200000000000 H
   0.3626100000000000    0.2635050000000000    0.0045400000000000 H
   0.3686550000000000    0.1108950000000000    0.4813250000000000 H
   0.4148100000000000    0.1030250000000000    0.0527850000000000 H
   0.2659150000000000    0.3599350000000000    0.2592350000000000 H
   0.1012650000000000    0.4200200000000000    0.2845000000000000 H
   0.1101350000000000    0.3723200000000000    0.2187700000000000 H
   0.1762000000000000    0.0012950000000000    0.2902700000000000 H
   0.2054000000000000    0.0465650000000000    0.3271150000000000 H
   0.1392700000000000    0.0432100000000000    0.3148400000000000 H
   0.1326000000000000    0.0358900000000000    0.3919000000000000 H
   0.1986550000000000    0.0364650000000000    0.4039700000000000 H
   0.1618900000000000    0.0000000000000000    0.4177250000000000 H
   0.3585950000000000    0.3639500000000000    0.4020250000000000 H
   0.3845550000000000    0.4518450000000000    0.4152750000000000 H
   0.2684750000000000    0.4891100000000000    0.3209800000000000 H
   0.0000000000000000    0.1693850000000000    0.1858150000000000 H
   0.0361700000000000    0.2044000000000000    0.1731250000000000 H
   0.0354850000000000    0.1403000000000000    0.1673100000000000 H
   0.0463800000000000    0.1485600000000000    0.0906050000000000 H
   0.0463650000000000    0.2125750000000000    0.0973400000000000 H
   0.0018150000000000    0.1817900000000000    0.0588500000000000 H
   0.6351900000000000    0.1515300000000000    0.3486100000000000 H
   0.5459750000000000    0.1196150000000000    0.3392400000000000 H
   0.5114550000000000    0.2268650000000000    0.4287850000000000 H
   0.6374700000000000    0.2364800000000000    0.4937600000000000 H
   0.6313200000000000    0.3890850000000000    0.0169050000000000 H
   0.5851100000000000    0.3968850000000000    0.4454550000000000 H
   0.7341299999999999    0.1401300000000000    0.2389700000000000 H
   0.8987050000000000    0.0797700000000000    0.2138350000000000 H
   0.8898650000000000    0.1275550000000000    0.2795200000000000 H
   0.8237850000000000    0.4986050000000000    0.2081100000000000 H
   0.7946350000000000    0.4532750000000000    0.1713000000000000 H
   0.8607600000000000    0.4566650000000000    0.1836150000000000 H
   0.8674850000000001    0.4638800000000000    0.1065550000000000 H
   0.8014399999999999    0.4632800000000000    0.0944350000000000 H
   0.8382050000000000    0.0136300000000000    0.0806600000000000 H
   0.6413600000000000    0.1360250000000000    0.0962800000000000 H
   0.6154100000000000    0.0481300000000000    0.0830250000000000 H
   0.7315550000000000    0.0108700000000000    0.1772700000000000 H
   0.5161600000000000    0.3302650000000000    0.3124800000000000 H
   0.9637400000000000    0.2952350000000000    0.3252600000000000 H
   0.9643500000000000    0.3593400000000000    0.3309700000000000 H
   0.9535199999999999    0.3511550000000000    0.4077150000000000 H
   0.9536549999999999    0.2871400000000000    0.4010550000000000 H
   0.9981750000000000    0.3180500000000000    0.4394900000000000 H
   0.8648650000000000    0.3482950000000000    0.1497800000000000 H
   0.9540649999999999    0.3802300000000000    0.1591400000000000 H
   0.9885800000000000    0.2730700000000000    0.0695200000000000 H
   0.8626100000000000    0.2635050000000000    0.0045400000000000 H
   0.8686550000000000    0.1108950000000000    0.4813250000000000 H
   0.9148100000000000    0.1030250000000000    0.0527850000000000 H
   0.7659150000000000    0.3599350000000000    0.2592350000000000 H
   0.6012649999999999    0.4200200000000000    0.2845000000000000 H
   0.6101350000000000    0.3723200000000000    0.2187700000000000 H
   0.6762000000000000    0.0012950000000000    0.2902700000000000 H
   0.7054000000000000    0.0465650000000000    0.3271150000000000 H
   0.6392700000000000    0.0432100000000000    0.3148400000000000 H
   0.6326000000000001    0.0358900000000000    0.3919000000000000 H
   0.6986550000000000    0.0364650000000000    0.4039700000000000 H
   0.6618900000000000    0.0000000000000000    0.4177250000000000 H
   0.8585950000000000    0.3639500000000000    0.4020250000000000 H
   0.8845550000000000    0.4518450000000000    0.4152750000000000 H
   0.7684750000000000    0.4891100000000000    0.3209800000000000 H
   0.5000000000000000    0.1693850000000000    0.1858150000000000 H
   0.5361700000000000    0.2044000000000000    0.1731250000000000 H
   0.5354850000000000    0.1403000000000000    0.1673100000000000 H
   0.5463800000000000    0.1485600000000000    0.0906050000000000 H
   0.5463650000000000    0.2125750000000000    0.0973400000000000 H
   0.5018150000000000    0.1817900000000000    0.0588500000000000 H
   0.1351900000000000    0.6515299999999999    0.3486100000000000 H
   0.0459750000000000    0.6196150000000000    0.3392400000000000 H
   0.0114550000000000    0.7268650000000000    0.4287850000000000 H
   0.1374700000000000    0.7364800000000000    0.4937600000000000 H
   0.1313200000000000    0.8890850000000000    0.0169050000000000 H
   0.0851100000000000    0.8968849999999999    0.4454550000000000 H
   0.2341300000000000    0.6401300000000000    0.2389700000000000 H
   0.3987050000000000    0.5797700000000000    0.2138350000000000 H
   0.3898650000000000    0.6275550000000000    0.2795200000000000 H
   0.3237850000000000    0.9986050000000000    0.2081100000000000 H
   0.2946350000000000    0.9532750000000000    0.1713000000000000 H
   0.3607600000000000    0.9566650000000000    0.1836150000000000 H
   0.3674850000000000    0.9638800000000001    0.1065550000000000 H
   0.3014400000000000    0.9632800000000000    0.0944350000000000 H
   0.3382050000000000    0.5136300000000000    0.0806600000000000 H
   0.1413600000000000    0.6360250000000001    0.0962800000000000 H
   0.1154100000000000    0.5481300000000000    0.0830250000000000 H
   0.2315550000000000    0.5108700000000000    0.1772700000000000 H
   0.0161600000000000    0.8302650000000000    0.3124800000000000 H
   0.4637400000000000    0.7952350000000000    0.3252600000000000 H
   0.4643500000000000    0.8593400000000000    0.3309700000000000 H
   0.4535200000000000    0.8511550000000000    0.4077150000000000 H
   0.4536550000000000    0.7871400000000000    0.4010550000000000 H
   0.4981750000000000    0.8180499999999999    0.4394900000000000 H
   0.3648650000000000    0.8482950000000000    0.1497800000000000 H
   0.4540650000000000    0.8802300000000001    0.1591400000000000 H
   0.4885800000000000    0.7730699999999999    0.0695200000000000 H
   0.3626100000000000    0.7635050000000000    0.0045400000000000 H
   0.3686550000000000    0.6108950000000000    0.4813250000000000 H
   0.4148100000000000    0.6030250000000000    0.0527850000000000 H
   0.2659150000000000    0.8599350000000000    0.2592350000000000 H
   0.1012650000000000    0.9200200000000001    0.2845000000000000 H
   0.1101350000000000    0.8723200000000000    0.2187700000000000 H
   0.1762000000000000    0.5012950000000000    0.2902700000000000 H
   0.2054000000000000    0.5465650000000000    0.3271150000000000 H
   0.1392700000000000    0.5432100000000000    0.3148400000000000 H
   0.1326000000000000    0.5358900000000000    0.3919000000000000 H
   0.1986550000000000    0.5364650000000000    0.4039700000000000 H
   0.1618900000000000    0.5000000000000000    0.4177250000000000 H
   0.3585950000000000    0.8639500000000000    0.4020250000000000 H
   0.3845550000000000    0.9518450000000001    0.4152750000000000 H
   0.2684750000000000    0.9891099999999999    0.3209800000000000 H
   0.0000000000000000    0.6693850000000000    0.1858150000000000 H
   0.0361700000000000    0.7044000000000000    0.1731250000000000 H
   0.0354850000000000    0.6403000000000000    0.1673100000000000 H
   0.0463800000000000    0.6485600000000000    0.0906050000000000 H
   0.0463650000000000    0.7125750000000000    0.0973400000000000 H
   0.0018150000000000    0.6817900000000000    0.0588500000000000 H
   0.6351900000000000    0.6515299999999999    0.3486100000000000 H
   0.5459750000000000    0.6196150000000000    0.3392400000000000 H
   0.5114550000000000    0.7268650000000000    0.4287850000000000 H
   0.6374700000000000    0.7364800000000000    0.4937600000000000 H
   0.6313200000000000    0.8890850000000000    0.0169050000000000 H
   0.5851100000000000    0.8968849999999999    0.4454550000000000 H
   0.7341299999999999    0.6401300000000000    0.2389700000000000 H
   0.8987050000000000    0.5797700000000000    0.2138350000000000 H
   0.8898650000000000    0.6275550000000000    0.2795200000000000 H
   0.8237850000000000    0.9986050000000000    0.2081100000000000 H
   0.7946350000000000    0.9532750000000000    0.1713000000000000 H
   0.8607600000000000    0.9566650000000000    0.1836150000000000 H
   0.8674850000000001    0.9638800000000001    0.1065550000000000 H
   0.8014399999999999    0.9632800000000000    0.0944350000000000 H
   0.8382050000000000    0.5136300000000000    0.0806600000000000 H
   0.6413600000000000    0.6360250000000001    0.0962800000000000 H
   0.6154100000000000    0.5481300000000000    0.0830250000000000 H
   0.7315550000000000    0.5108700000000000    0.1772700000000000 H
   0.5161600000000000    0.8302650000000000    0.3124800000000000 H
   0.9637400000000000    0.7952350000000000    0.3252600000000000 H
   0.9643500000000000    0.8593400000000000    0.3309700000000000 H
   0.9535199999999999    0.8511550000000000    0.4077150000000000 H
   0.9536549999999999    0.7871400000000000    0.4010550000000000 H
   0.9981750000000000    0.8180499999999999    0.4394900000000000 H
   0.8648650000000000    0.8482950000000000    0.1497800000000000 H
   0.9540649999999999    0.8802300000000001    0.1591400000000000 H
   0.9885800000000000    0.7730699999999999    0.0695200000000000 H
   0.8626100000000000    0.7635050000000000    0.0045400000000000 H
   0.8686550000000000    0.6108950000000000    0.4813250000000000 H
   0.9148100000000000    0.6030250000000000    0.0527850000000000 H
   0.7659150000000000    0.8599350000000000    0.2592350000000000 H
   0.6012649999999999    0.9200200000000001    0.2845000000000000 H
   0.6101350000000000    0.8723200000000000    0.2187700000000000 H
   0.6762000000000000    0.5012950000000000    0.2902700000000000 H
   0.7054000000000000    0.5465650000000000    0.3271150000000000 H
   0.6392700000000000    0.5432100000000000    0.3148400000000000 H
   0.6326000000000001    0.5358900000000000    0.3919000000000000 H
   0.6986550000000000    0.5364650000000000    0.4039700000000000 H
   0.6618900000000000    0.5000000000000000    0.4177250000000000 H
   0.8585950000000000    0.8639500000000000    0.4020250000000000 H
   0.8845550000000000    0.9518450000000001    0.4152750000000000 H
   0.7684750000000000    0.9891099999999999    0.3209800000000000 H
   0.5000000000000000    0.6693850000000000    0.1858150000000000 H
   0.5361700000000000    0.7044000000000000    0.1731250000000000 H
   0.5354850000000000    0.6403000000000000    0.1673100000000000 H
   0.5463800000000000    0.6485600000000000    0.0906050000000000 H
   0.5463650000000000    0.7125750000000000    0.0973400000000000 H
   0.5018150000000000    0.6817900000000000    0.0588500000000000 H
   0.1351900000000000    0.1515300000000000    0.8486100000000000 H
   0.0459750000000000    0.1196150000000000    0.8392400000000000 H
   0.0114550000000000    0.2268650000000000    0.9287850000000000 H
   0.1374700000000000    0.2364800000000000    0.9937600000000000 H
   0.1313200000000000    0.3890850000000000    0.5169049999999999 H
   0.0851100000000000    0.3968850000000000    0.9454549999999999 H
   0.2341300000000000    0.1401300000000000    0.7389700000000000 H
   0.3987050000000000    0.0797700000000000    0.7138350000000000 H
   0.3898650000000000    0.1275550000000000    0.7795200000000000 H
   0.3237850000000000    0.4986050000000000    0.7081100000000000 H
   0.2946350000000000    0.4532750000000000    0.6713000000000000 H
   0.3607600000000000    0.4566650000000000    0.6836150000000000 H
   0.3674850000000000    0.4638800000000000    0.6065550000000000 H
   0.3014400000000000    0.4632800000000000    0.5944350000000000 H
   0.3382050000000000    0.0136300000000000    0.5806600000000000 H
   0.1413600000000000    0.1360250000000000    0.5962800000000000 H
   0.1154100000000000    0.0481300000000000    0.5830250000000000 H
   0.2315550000000000    0.0108700000000000    0.6772700000000000 H
   0.0161600000000000    0.3302650000000000    0.8124800000000000 H
   0.4637400000000000    0.2952350000000000    0.8252600000000000 H
   0.4643500000000000    0.3593400000000000    0.8309700000000000 H
   0.4535200000000000    0.3511550000000000    0.9077150000000000 H
   0.4536550000000000    0.2871400000000000    0.9010549999999999 H
   0.4981750000000000    0.3180500000000000    0.9394899999999999 H
   0.3648650000000000    0.3482950000000000    0.6497800000000000 H
   0.4540650000000000    0.3802300000000000    0.6591400000000001 H
   0.4885800000000000    0.2730700000000000    0.5695200000000000 H
   0.3626100000000000    0.2635050000000000    0.5045400000000000 H
   0.3686550000000000    0.1108950000000000    0.9813250000000000 H
   0.4148100000000000    0.1030250000000000    0.5527850000000000 H
   0.1762000000000000    0.0012950000000000    0.7902700000000000 H
   0.2054000000000000    0.0465650000000000    0.8271150000000000 H
   0.1392700000000000    0.0432100000000000    0.8148400000000000 H
   0.1326000000000000    0.0358900000000000    0.8919000000000000 H
   0.1986550000000000    0.0364650000000000    0.9039699999999999 H
   0.1618900000000000    0.0000000000000000    0.9177250000000000 H
   0.0000000000000000    0.1693850000000000    0.6858150000000001 H
   0.0361700000000000    0.2044000000000000    0.6731250000000000 H
   0.0354850000000000    0.1403000000000000    0.6673100000000000 H
   0.0463800000000000    0.1485600000000000    0.5906050000000000 H
   0.0463650000000000    0.2125750000000000    0.5973400000000000 H
   0.0018150000000000    0.1817900000000000    0.5588500000000000 H
   0.6351900000000000    0.1515300000000000    0.8486100000000000 H
   0.5459750000000000    0.1196150000000000    0.8392400000000000 H
   0.5114550000000000    0.2268650000000000    0.9287850000000000 H
   0.6374700000000000    0.2364800000000000    0.9937600000000000 H
   0.6313200000000000    0.3890850000000000    0.5169049999999999 H
   0.5851100000000000    0.3968850000000000    0.9454549999999999 H
   0.7341299999999999    0.1401300000000000    0.7389700000000000 H
   0.8987050000000000    0.0797700000000000    0.7138350000000000 H
   0.8898650000000000    0.1275550000000000    0.7795200000000000 H
   0.8237850000000000    0.4986050000000000    0.7081100000000000 H
   0.7946350000000000    0.4532750000000000    0.6713000000000000 H
   0.8607600000000000    0.4566650000000000    0.6836150000000000 H
   0.8674850000000001    0.4638800000000000    0.6065550000000000 H
   0.8014399999999999    0.4632800000000000    0.5944350000000000 H
   0.8382050000000000    0.0136300000000000    0.5806600000000000 H
   0.6413600000000000    0.1360250000000000    0.5962800000000000 H
   0.6154100000000000    0.0481300000000000    0.5830250000000000 H
   0.7315550000000000    0.0108700000000000    0.6772700000000000 H
   0.5161600000000000    0.3302650000000000    0.8124800000000000 H
   0.9637400000000000    0.2952350000000000    0.8252600000000000 H
   0.9643500000000000    0.3593400000000000    0.8309700000000000 H
   0.9535199999999999    0.3511550000000000    0.9077150000000000 H
   0.9536549999999999    0.2871400000000000    0.9010549999999999 H
   0.9981750000000000    0.3180500000000000    0.9394899999999999 H
   0.8648650000000000    0.3482950000000000    0.6497800000000000 H
   0.9540649999999999    0.3802300000000000    0.6591400000000001 H
   0.9885800000000000    0.2730700000000000    0.5695200000000000 H
   0.8626100000000000    0.2635050000000000    0.5045400000000000 H
   0.8686550000000000    0.1108950000000000    0.9813250000000000 H
   0.9148100000000000    0.1030250000000000    0.5527850000000000 H
   0.7659150000000000    0.3599350000000000    0.7592350000000000 H
   0.6012649999999999    0.4200200000000000    0.7845000000000000 H
   0.6101350000000000    0.3723200000000000    0.7187700000000000 H
   0.6762000000000000    0.0012950000000000    0.7902700000000000 H
   0.7054000000000000    0.0465650000000000    0.8271150000000000 H
   0.6392700000000000    0.0432100000000000    0.8148400000000000 H
   0.6326000000000001    0.0358900000000000    0.8919000000000000 H
   0.6986550000000000    0.0364650000000000    0.9039699999999999 H
   0.6618900000000000    0.0000000000000000    0.9177250000000000 H
   0.8585950000000000    0.3639500000000000    0.9020250000000001 H
   0.8845550000000000    0.4518450000000000    0.9152750000000001 H
   0.7684750000000000    0.4891100000000000    0.8209800000000000 H
   0.5000000000000000    0.1693850000000000    0.6858150000000001 H
   0.5361700000000000    0.2044000000000000    0.6731250000000000 H
   0.5354850000000000    0.1403000000000000    0.6673100000000000 H
   0.5463800000000000    0.1485600000000000    0.5906050000000000 H
   0.5463650000000000    0.2125750000000000    0.5973400000000000 H
   0.5018150000000000    0.1817900000000000    0.5588500000000000 H
   0.1351900000000000    0.6515299999999999    0.8486100000000000 H
   0.0459750000000000    0.6196150000000000    0.8392400000000000 H
   0.0114550000000000    0.7268650000000000    0.9287850000000000 H
   0.1374700000000000    0.7364800000000000    0.9937600000000000 H
   0.1313200000000000    0.8890850000000000    0.5169049999999999 H
   0.0851100000000000    0.8968849999999999    0.9454549999999999 H
   0.2341300000000000    0.6401300000000000    0.7389700000000000 H
   0.3987050000000000    0.5797700000000000    0.7138350000000000 H
   0.3898650000000000    0.6275550000000000    0.7795200000000000 H
   0.3237850000000000    0.9986050000000000    0.7081100000000000 H
   0.2946350000000000    0.9532750000000000    0.6713000000000000 H
   0.3607600000000000    0.9566650000000000    0.6836150000000000 H
   0.3674850000000000    0.9638800000000001    0.6065550000000000 H
   0.3014400000000000    0.9632800000000000    0.5944350000000000 H
   0.3382050000000000    0.5136300000000000    0.5806600000000000 H
   0.1413600000000000    0.6360250000000001    0.5962800000000000 H
   0.1154100000000000    0.5481300000000000    0.5830250000000000 H
   0.2315550000000000    0.5108700000000000    0.6772700000000000 H
   0.0161600000000000    0.8302650000000000    0.8124800000000000 H
   0.4637400000000000    0.7952350000000000    0.8252600000000000 H
   0.4643500000000000    0.8593400000000000    0.8309700000000000 H
   0.4535200000000000    0.8511550000000000    0.9077150000000000 H
   0.4536550000000000    0.7871400000000000    0.9010549999999999 H
   0.4981750000000000    0.8180499999999999    0.9394899999999999 H
   0.3648650000000000    0.8482950000000000    0.6497800000000000 H
   0.4540650000000000    0.8802300000000001    0.6591400000000001 H
   0.4885800000000000    0.7730699999999999    0.5695200000000000 H
   0.3626100000000000    0.7635050000000000    0.5045400000000000 H
   0.3686550000000000    0.6108950000000000    0.9813250000000000 H
   0.4148100000000000    0.6030250000000000    0.5527850000000000 H
   0.2659150000000000    0.8599350000000000    0.7592350000000000 H
   0.1012650000000000    0.9200200000000001    0.7845000000000000 H
   0.1101350000000000    0.8723200000000000    0.7187700000000000 H
   0.3585950000000000    0.8639500000000000    0.9020250000000001 H
   0.3845550000000000    0.9518450000000001    0.9152750000000001 H
   0.2684750000000000    0.9891099999999999    0.8209800000000000 H
   0.0000000000000000    0.6693850000000000    0.6858150000000001 H
   0.0361700000000000    0.7044000000000000    0.6731250000000000 H
   0.0354850000000000    0.6403000000000000    0.6673100000000000 H
   0.0463800000000000    0.6485600000000000    0.5906050000000000 H
   0.0463650000000000    0.7125750000000000    0.5973400000000000 H
   0.0018150000000000    0.6817900000000000    0.5588500000000000 H
   0.6351900000000000    0.6515299999999999    0.8486100000000000 H
   0.5459750000000000    0.6196150000000000    0.8392400000000000 H
   0.5114550000000000    0.7268650000000000    0.9287850000000000 H
   0.6374700000000000    0.7364800000000000    0.9937600000000000 H
   0.6313200000000000    0.8890850000000000    0.5169049999999999 H
   0.5851100000000000    0.8968849999999999    0.9454549999999999 H
   0.7341299999999999    0.6401300000000000    0.7389700000000000 H
   0.8987050000000000    0.5797700000000000    0.7138350000000000 H
   0.8898650000000000    0.6275550000000000    0.7795200000000000 H
   0.8237850000000000    0.9986050000000000    0.7081100000000000 H
   0.7946350000000000    0.9532750000000000    0.6713000000000000 H
   0.8607600000000000    0.9566650000000000    0.6836150000000000 H
   0.8674850000000001    0.9638800000000001    0.6065550000000000 H
   0.8014399999999999    0.9632800000000000    0.5944350000000000 H
   0.8382050000000000    0.5136300000000000    0.5806600000000000 H
   0.6413600000000000    0.6360250000000001    0.5962800000000000 H
   0.6154100000000000    0.5481300000000000    0.5830250000000000 H
   0.7315550000000000    0.5108700000000000    0.6772700000000000 H
   0.5161600000000000    0.8302650000000000    0.8124800000000000 H
   0.9637400000000000    0.7952350000000000    0.8252600000000000 H
   0.9643500000000000    0.8593400000000000    0.8309700000000000 H
   0.9535199999999999    0.8511550000000000    0.9077150000000000 H
   0.9536549999999999    0.7871400000000000    0.9010549999999999 H
   0.9981750000000000    0.8180499999999999    0.9394899999999999 H
   0.8648650000000000    0.8482950000000000    0.6497800000000000 H
   0.9540649999999999    0.8802300000000001    0.6591400000000001 H
   0.9885800000000000    0.7730699999999999    0.5695200000000000 H
   0.8626100000000000    0.7635050000000000    0.5045400000000000 H
   0.8686550000000000    0.6108950000000000    0.9813250000000000 H
   0.9148100000000000    0.6030250000000000    0.5527850000000000 H
   0.7659150000000000    0.8599350000000000    0.7592350000000000 H
   0.6012649999999999    0.9200200000000001    0.7845000000000000 H
   0.6101350000000000    0.8723200000000000    0.7187700000000000 H
   0.6762000000000000    0.5012950000000000    0.7902700000000000 H
   0.7054000000000000    0.5465650000000000    0.8271150000000000 H
   0.6392700000000000    0.5432100000000000    0.8148400000000000 H
   0.6326000000000001    0.5358900000000000    0.8919000000000000 H
   0.6986550000000000    0.5364650000000000    0.9039699999999999 H
   0.6618900000000000    0.5000000000000000    0.9177250000000000 H
   0.8585950000000000    0.8639500000000000    0.9020250000000001 H
   0.8845550000000000    0.9518450000000001    0.9152750000000001 H
   0.7684750000000000    0.9891099999999999    0.8209800000000000 H
   0.5000000000000000    0.6693850000000000    0.6858150000000001 H
   0.5361700000000000    0.7044000000000000    0.6731250000000000 H
   0.5354850000000000    0.6403000000000000    0.6673100000000000 H
   0.5463800000000000    0.6485600000000000    0.5906050000000000 H
   0.5463650000000000    0.7125750000000000    0.5973400000000000 H
   0.5018150000000000    0.6817900000000000    0.5588500000000000 H
   0.1757100000000000    0.2259850000000000    0.3948300000000000 C
   0.1223700000000000    0.2084500000000000    0.3921250000000000 C
   0.1072550000000000    0.1680100000000000    0.3655250000000000 C
   0.0583350000000000    0.1502550000000000    0.3605150000000000 C
   0.0237250000000000    0.1717150000000000    0.3835100000000000 C
   0.0387150000000000    0.2115350000000000    0.4104850000000000 C
   0.0873350000000000    0.2310800000000000    0.4145500000000000 C
   0.4710050000000000    0.1523650000000000    0.3796200000000000 C
   0.0996800000000000    0.2747750000000000    0.4427200000000000 C
   0.1252400000000000    0.2712950000000000    0.4828550000000000 C
   0.1366500000000000    0.3120550000000000    0.0095300000000000 C
   0.1221900000000000    0.3574400000000000    0.4960350000000000 C
   0.0963400000000000    0.3616350000000000    0.4561850000000000 C
   0.0847250000000000    0.3205500000000000    0.4295950000000000 C
   0.1648050000000000    0.3064650000000000    0.0522000000000000 C
   0.0612350000000000    0.3256650000000000    0.3854300000000000 C