H5 O3
1.0
  13.8823700195623498    0.0000000000000000    5.1561888677545955
   6.9063604720687382   19.8523512157681417    2.5626082875920764
   0.0000000000000000    0.0000000000000000   21.1720000000000006
H O
5 3
direct
   0.4453302805003155    0.0479770071493790    0.7027948393575429 H
   0.4499068329688576   -0.0326418432169545    0.7114889246072176 H
   0.4536845220202110    0.1020800813593001    0.8814061722045121 H
   0.4845217000360298    0.9061682680331146   -0.1017450917007576 H
   0.4675825634036129    1.0042875597991325   -0.1156096789448027 H
   0.4457800000000000    0.0080100000000000    0.6836600000000000 O
   0.4656400000000000    0.0586200000000000    0.9037100000000000 O
   0.4830200000000000    0.9481700000000000   -0.0868100000000001 O
