H9 O6
1.0
  32.8161075594802227    0.0000000000000000   18.9288282956083869
  10.9347664156601923   30.9597502883100653   18.9697428954752709
   0.0000000000000000    0.0000000000000000   37.9299999999999997
H O
9 6
direct
   0.9143627122172366    0.7372665464952572    0.8288939099447639 H
   0.0194046536218117    0.7374332585808234    0.8288467476365461 H
   0.9648207288922047    0.7365618214826778    0.8337905405802946 H
   0.8288882695175269    0.7370367862095455    0.9145915048484864 H
   0.8291464462058861    0.7371481208800374    0.0193972375561377 H
   0.8339414517031709    0.7362895289545600    0.9649710146555672 H
   0.9146227060367667    0.7373751401157339    0.0190574098777708 H
   0.0195996761044608    0.7375528250007548    0.9140625454953586 H
  -0.0348875982496781    0.7366763378705484    0.9644106823891001 H
   0.9430250000000000    0.7396550000000000    0.8141950000000000 O
   0.0030800000000000    0.7397500000000000    0.8141700000000001 O
   0.8142300000000000    0.7394600000000000    0.9432000000000000 O
   0.8144000000000000    0.7395200000000000    0.0031100000000000 O
   0.9432849999999999    0.7397650000000000    0.0027750000000000 O
   0.0032950000000000    0.7398600000000000    0.9427200000000000 O
