H7 O5
1.0
  20.2346719327541287    0.0000000000000000    3.0584002393101239
   2.1490496353520196    8.3114708881023294    3.6102029197706895
   0.0000000000000000    0.0000000000000000   20.3640000000000008
H O
7 5
direct
   0.6380180896641664    0.5865695066289484    0.0643791817120765 H
   0.5441338442738374    0.4488099361082681    0.0621526523042971 H
   0.4947370678854285    0.3766183639868562    0.0609809840505833 H
   0.5807054311132839    0.8871353296457956    0.3189964375956419 H
   0.5902560973485222    0.2021360829522486    0.4357410750771162 H
   0.5936370228677891    0.6126266191306146    0.2708668162971019 H
   0.5922192004333409    0.4027541325792665    0.3495812607188131 H
   0.6256599999999999    0.4937000000000000    0.0641350000000000 O
   0.5376733333333333    0.4002600000000000    0.0620250000000000 O
   0.5803833333333333    0.8231400000000000    0.3701000000000000 O
   0.5899566666666667    0.3150300000000000    0.4124750000000000 O
   0.5918466666666666    0.5432100000000000    0.3206350000000000 O
