Ca12 H44 C99 O66
1.0
  20.2346719327541287    0.0000000000000000    3.0584002393101239
   2.1490496353520196    8.3114708881023294    3.6102029197706895
   0.0000000000000000    0.0000000000000000   20.3640000000000008
Ca H C O
12 44 99 66
direct
   0.2517866666666667    0.5448200000000000    0.4410400000000000 Ca
   0.0815833333333333    0.4551100000000000    0.0589600000000000 Ca
   0.5851200000000000    0.5448200000000000    0.4410400000000000 Ca
   0.4149166666666667    0.4551100000000000    0.0589600000000000 Ca
   0.9184533333333333    0.5448200000000000    0.4410400000000000 Ca
   0.7482500000000000    0.4551100000000000    0.0589600000000000 Ca
   0.2517866666666667    0.5448200000000000    0.9410400000000000 Ca
   0.0815833333333333    0.4551100000000000    0.5589600000000000 Ca
   0.5851200000000000    0.5448200000000000    0.9410400000000000 Ca
   0.4149166666666667    0.4551100000000000    0.5589600000000000 Ca
   0.9184533333333333    0.5448200000000000    0.9410400000000000 Ca
   0.7482500000000000    0.4551100000000000    0.5589600000000000 Ca
   0.0833800000000000    0.2729300000000000    0.2231100000000000 H
   0.0813500000000000    0.9126100000000000    0.1199650000000000 H
   0.0917500000000000    0.8927400000000000    0.3335150000000000 H
   0.0740733333333333    0.4772900000000000    0.2991950000000000 H
   0.2499933333333333    0.7270000000000000    0.2768900000000000 H
   0.2520266666666666    0.0873000000000000    0.3800350000000000 H
   0.2416300000000000    0.1071900000000000    0.1664800000000000 H
   0.2592966666666666    0.5226300000000000    0.2008100000000000 H
   0.4167133333333333    0.2729300000000000    0.2231100000000000 H
   0.4146833333333333    0.9126100000000000    0.1199650000000000 H
   0.4250833333333333    0.8927400000000000    0.3335150000000000 H
   0.4074066666666666    0.4772900000000000    0.2991950000000000 H
   0.7500466666666666    0.2729300000000000    0.2231100000000000 H
   0.7480166666666667    0.9126100000000000    0.1199650000000000 H
   0.7584166666666666    0.8927400000000000    0.3335150000000000 H
   0.7407400000000000    0.4772900000000000    0.2991950000000000 H
   0.9166599999999999    0.7270000000000000    0.2768900000000000 H
   0.9186933333333333    0.0873000000000000    0.3800350000000000 H
   0.9082966666666666    0.1071900000000000    0.1664800000000000 H
   0.9259633333333332    0.5226300000000000    0.2008100000000000 H
   0.0833800000000000    0.2729300000000000    0.7231100000000000 H
   0.0813500000000000    0.9126100000000000    0.6199650000000000 H
   0.0917500000000000    0.8927400000000000    0.8335150000000000 H
   0.0740733333333333    0.4772900000000000    0.7991950000000000 H
   0.2499933333333333    0.7270000000000000    0.7768900000000001 H
   0.2520266666666666    0.0873000000000000    0.8800350000000000 H
   0.2416300000000000    0.1071900000000000    0.6664800000000000 H
   0.2592966666666666    0.5226300000000000    0.7008099999999999 H
   0.4167133333333333    0.2729300000000000    0.7231100000000000 H
   0.4146833333333333    0.9126100000000000    0.6199650000000000 H
   0.4250833333333333    0.8927400000000000    0.8335150000000000 H
   0.4074066666666666    0.4772900000000000    0.7991950000000000 H
   0.5833266666666667    0.7270000000000000    0.7768900000000001 H
   0.5853599999999999    0.0873000000000000    0.8800350000000000 H
   0.5749633333333333    0.1071900000000000    0.6664800000000000 H
   0.5926300000000000    0.5226300000000000    0.7008099999999999 H
   0.7500466666666666    0.2729300000000000    0.7231100000000000 H
   0.7480166666666667    0.9126100000000000    0.6199650000000000 H
   0.7584166666666666    0.8927400000000000    0.8335150000000000 H
   0.7407400000000000    0.4772900000000000    0.7991950000000000 H
   0.9166599999999999    0.7270000000000000    0.7768900000000001 H
   0.9186933333333333    0.0873000000000000    0.8800350000000000 H
   0.9082966666666666    0.1071900000000000    0.6664800000000000 H
   0.9259633333333332    0.5226300000000000    0.7008099999999999 H
   0.0790666666666667    0.6857700000000000    0.2045250000000000 C
   0.0834833333333333    0.6754599999999999    0.3246650000000000 C
   0.0820200000000000    0.8468900000000000    0.1773450000000000 C
   0.0859266666666667    0.0953100000000000    0.1949450000000000 C
   0.0876966666666667    0.8353800000000000    0.2973300000000000 C
   0.0765833333333333    0.6057500000000000    0.1540000000000000 C
   0.0846900000000000    0.5879200000000000    0.4035700000000000 C
   0.0781200000000000    0.6012700000000000    0.2783350000000000 C
   0.0853600000000000    0.9227000000000000    0.2237150000000000 C
   0.2543133333333333    0.3141400000000000    0.2954800000000000 C
   0.2499033333333333    0.3244500000000000    0.1753350000000000 C
   0.2513600000000000    0.1530300000000000    0.3226550000000000 C
   0.2474600000000000    0.9046000000000000    0.3050500000000000 C
   0.2456866666666667    0.1645400000000000    0.2026700000000000 C
   0.2567800000000000    0.3941800000000000    0.3460050000000000 C
   0.2486900000000000    0.4120000000000000    0.0964350000000000 C
   0.2552566666666666    0.3986500000000000    0.2216700000000000 C
   0.2480233333333333    0.0772200000000000    0.2762800000000000 C
   0.4124000000000000    0.6857700000000000    0.2045250000000000 C
   0.4168166666666666    0.6754599999999999    0.3246650000000000 C
   0.4153533333333333    0.8468900000000000    0.1773450000000000 C
   0.4192600000000000    0.0953100000000000    0.1949450000000000 C
   0.4210300000000000    0.8353800000000000    0.2973300000000000 C
   0.4099166666666667    0.6057500000000000    0.1540000000000000 C
   0.4180233333333333    0.5879200000000000    0.4035700000000000 C
   0.4114533333333333    0.6012700000000000    0.2783350000000000 C
   0.4186933333333333    0.9227000000000000    0.2237150000000000 C
   0.7457333333333332    0.6857700000000000    0.2045250000000000 C
   0.7501500000000000    0.6754599999999999    0.3246650000000000 C
   0.7486866666666666    0.8468900000000000    0.1773450000000000 C
   0.7525933333333333    0.0953100000000000    0.1949450000000000 C
   0.7543633333333333    0.8353800000000000    0.2973300000000000 C
   0.7432500000000000    0.6057500000000000    0.1540000000000000 C
   0.7513566666666667    0.5879200000000000    0.4035700000000000 C
   0.7447866666666666    0.6012700000000000    0.2783350000000000 C
   0.7520266666666666    0.9227000000000000    0.2237150000000000 C
   0.9209799999999999    0.3141400000000000    0.2954800000000000 C
   0.9165699999999999    0.3244500000000000    0.1753350000000000 C
   0.9180266666666665    0.1530300000000000    0.3226550000000000 C
   0.9141266666666666    0.9046000000000000    0.3050500000000000 C
   0.9123533333333333    0.1645400000000000    0.2026700000000000 C
   0.9234466666666666    0.3941800000000000    0.3460050000000000 C
   0.9153566666666666    0.4120000000000000    0.0964350000000000 C
   0.9219233333333332    0.3986500000000000    0.2216700000000000 C
   0.9146900000000000    0.0772200000000000    0.2762800000000000 C
   0.0790666666666667    0.6857700000000000    0.7045250000000001 C
   0.0834833333333333    0.6754599999999999    0.8246650000000000 C
   0.0820200000000000    0.8468900000000000    0.6773450000000000 C
   0.0859266666666667    0.0953100000000000    0.6949450000000000 C
   0.0876966666666667    0.8353800000000000    0.7973300000000000 C
   0.0765833333333333    0.6057500000000000    0.6540000000000000 C
   0.0846900000000000    0.5879200000000000    0.9035700000000000 C
   0.0781200000000000    0.6012700000000000    0.7783350000000000 C
   0.0853600000000000    0.9227000000000000    0.7237150000000000 C
   0.2543133333333333    0.3141400000000000    0.7954800000000000 C
   0.2499033333333333    0.3244500000000000    0.6753350000000000 C
   0.2513600000000000    0.1530300000000000    0.8226550000000000 C
   0.2474600000000000    0.9046000000000000    0.8050500000000000 C
   0.2456866666666667    0.1645400000000000    0.7026700000000000 C
   0.2567800000000000    0.3941800000000000    0.8460050000000000 C
   0.2486900000000000    0.4120000000000000    0.5964350000000000 C
   0.2552566666666666    0.3986500000000000    0.7216700000000000 C
   0.2480233333333333    0.0772200000000000    0.7762800000000001 C
   0.4124000000000000    0.6857700000000000    0.7045250000000001 C
   0.4168166666666666    0.6754599999999999    0.8246650000000000 C
   0.4153533333333333    0.8468900000000000    0.6773450000000000 C
   0.4192600000000000    0.0953100000000000    0.6949450000000000 C
   0.4210300000000000    0.8353800000000000    0.7973300000000000 C
   0.4099166666666667    0.6057500000000000    0.6540000000000000 C
   0.4180233333333333    0.5879200000000000    0.9035700000000000 C
   0.4114533333333333    0.6012700000000000    0.7783350000000000 C
   0.4186933333333333    0.9227000000000000    0.7237150000000000 C
   0.5876466666666667    0.3141400000000000    0.7954800000000000 C
   0.5832366666666666    0.3244500000000000    0.6753350000000000 C
   0.5846933333333333    0.1530300000000000    0.8226550000000000 C
   0.5807933333333333    0.9046000000000000    0.8050500000000000 C
   0.5790200000000000    0.1645400000000000    0.7026700000000000 C
   0.5901133333333333    0.3941800000000000    0.8460050000000000 C
   0.5820233333333333    0.4120000000000000    0.5964350000000000 C
   0.5885899999999999    0.3986500000000000    0.7216700000000000 C
   0.5813566666666666    0.0772200000000000    0.7762800000000001 C
   0.7457333333333332    0.6857700000000000    0.7045250000000001 C
   0.7501500000000000    0.6754599999999999    0.8246650000000000 C
   0.7486866666666666    0.8468900000000000    0.6773450000000000 C
   0.7525933333333333    0.0953100000000000    0.6949450000000000 C
   0.7543633333333333    0.8353800000000000    0.7973300000000000 C
   0.7432500000000000    0.6057500000000000    0.6540000000000000 C
   0.7513566666666667    0.5879200000000000    0.9035700000000000 C
   0.7447866666666666    0.6012700000000000    0.7783350000000000 C
   0.7520266666666666    0.9227000000000000    0.7237150000000000 C
   0.9209799999999999    0.3141400000000000    0.7954800000000000 C
   0.9165699999999999    0.3244500000000000    0.6753350000000000 C
   0.9180266666666665    0.1530300000000000    0.8226550000000000 C
   0.9141266666666666    0.9046000000000000    0.8050500000000000 C
   0.9123533333333333    0.1645400000000000    0.7026700000000000 C
   0.9234466666666666    0.3941800000000000    0.8460050000000000 C
   0.9153566666666666    0.4120000000000000    0.5964350000000000 C
   0.9219233333333332    0.3986500000000000    0.7216700000000000 C
   0.9146900000000000    0.0772200000000000    0.7762800000000001 C
   0.0748466666666667    0.4567200000000000    0.1793700000000000 O
   0.1290333333333333    0.5996800000000000    0.4379800000000000 O
   0.0854666666666667    0.1534300000000000    0.2451050000000000 O
   0.0410400000000000    0.5062500000000000    0.4358700000000000 O
   0.0863200000000000    0.1767800000000000    0.1298950000000000 O
   0.0767333333333333    0.6849000000000000    0.0875300000000000 O
   0.2585133333333333    0.5432100000000000    0.3206350000000000 O
   0.2043400000000000    0.4002600000000000    0.0620250000000000 O
   0.2479100000000000    0.8464900000000000    0.2548950000000000 O
   0.2923266666666666    0.4937000000000000    0.0641350000000000 O
   0.2470500000000000    0.8231400000000000    0.3701000000000000 O
   0.2566233333333333    0.3150300000000000    0.4124750000000000 O
   0.4081800000000000    0.4567200000000000    0.1793700000000000 O
   0.4623666666666666    0.5996800000000000    0.4379800000000000 O
   0.4188000000000000    0.1534300000000000    0.2451050000000000 O
   0.3743733333333333    0.5062500000000000    0.4358700000000000 O
   0.4196533333333333    0.1767800000000000    0.1298950000000000 O
   0.4100666666666666    0.6849000000000000    0.0875300000000000 O
   0.7415133333333332    0.4567200000000000    0.1793700000000000 O
   0.7957000000000000    0.5996800000000000    0.4379800000000000 O
   0.7521333333333333    0.1534300000000000    0.2451050000000000 O
   0.7077066666666666    0.5062500000000000    0.4358700000000000 O
   0.7529866666666667    0.1767800000000000    0.1298950000000000 O
   0.7433999999999999    0.6849000000000000    0.0875300000000000 O
   0.9251799999999999    0.5432100000000000    0.3206350000000000 O
   0.8710066666666666    0.4002600000000000    0.0620250000000000 O
   0.9145766666666666    0.8464900000000000    0.2548950000000000 O
   0.9589933333333333    0.4937000000000000    0.0641350000000000 O
   0.9137166666666666    0.8231400000000000    0.3701000000000000 O
   0.9232899999999999    0.3150300000000000    0.4124750000000000 O
   0.0748466666666667    0.4567200000000000    0.6793700000000000 O
   0.1290333333333333    0.5996800000000000    0.9379800000000000 O
   0.0854666666666667    0.1534300000000000    0.7451050000000000 O
   0.0410400000000000    0.5062500000000000    0.9358700000000000 O
   0.0863200000000000    0.1767800000000000    0.6298950000000000 O
   0.0767333333333333    0.6849000000000000    0.5875300000000000 O
   0.2585133333333333    0.5432100000000000    0.8206350000000000 O
   0.2043400000000000    0.4002600000000000    0.5620250000000000 O
   0.2479100000000000    0.8464900000000000    0.7548950000000000 O
   0.2923266666666666    0.4937000000000000    0.5641350000000001 O
   0.2470500000000000    0.8231400000000000    0.8701000000000000 O
   0.2566233333333333    0.3150300000000000    0.9124749999999999 O
   0.4081800000000000    0.4567200000000000    0.6793700000000000 O
   0.4623666666666666    0.5996800000000000    0.9379800000000000 O
   0.4188000000000000    0.1534300000000000    0.7451050000000000 O
   0.3743733333333333    0.5062500000000000    0.9358700000000000 O
   0.4196533333333333    0.1767800000000000    0.6298950000000000 O
   0.4100666666666666    0.6849000000000000    0.5875300000000000 O
   0.5918466666666666    0.5432100000000000    0.8206350000000000 O
   0.5376733333333333    0.4002600000000000    0.5620250000000000 O
   0.5812433333333333    0.8464900000000000    0.7548950000000000 O
   0.6256599999999999    0.4937000000000000    0.5641350000000001 O
   0.5803833333333333    0.8231400000000000    0.8701000000000000 O
   0.5899566666666667    0.3150300000000000    0.9124749999999999 O
   0.7415133333333332    0.4567200000000000    0.6793700000000000 O
   0.7957000000000000    0.5996800000000000    0.9379800000000000 O
   0.7521333333333333    0.1534300000000000    0.7451050000000000 O
   0.7077066666666666    0.5062500000000000    0.9358700000000000 O
   0.7529866666666667    0.1767800000000000    0.6298950000000000 O
   0.7433999999999999    0.6849000000000000    0.5875300000000000 O
   0.9251799999999999    0.5432100000000000    0.8206350000000000 O
   0.8710066666666666    0.4002600000000000    0.5620250000000000 O
   0.9145766666666666    0.8464900000000000    0.7548950000000000 O
   0.9589933333333333    0.4937000000000000    0.5641350000000001 O
   0.9137166666666666    0.8231400000000000    0.8701000000000000 O
   0.9232899999999999    0.3150300000000000    0.9124749999999999 O
