Cu8 H62 C98 O32
1.0
  11.5295847552611566    0.0000000000000000    5.7615099037708442
   5.7822193793430472   12.9859503001024432    2.9055317675804209
   0.0000000000000000    0.0000000000000000   29.0519999999999996
Cu H C O
8 62 98 32
direct
   0.1138300000000000    0.9803500000000001    0.5459400000000000 Cu
   0.4577900000000000    0.4077100000000000    0.7393200000000000 Cu
   0.3454800000000000    0.5913100000000000    0.7593550000000000 Cu
   0.1867300000000000    0.0210100000000000    0.9541999999999999 Cu
   0.4577900000000000    0.4077100000000000    0.2393200000000000 Cu
   0.3454800000000000    0.5913100000000000    0.2593550000000000 Cu
   0.1867300000000000    0.0210100000000000    0.4542000000000000 Cu
   0.1138300000000000    0.9803500000000001    0.0459400000000000 Cu
   0.2264700000000000    0.5688299999999999    0.5128450000000000 H
   0.2399100000000000    0.7120500000000000    0.5411350000000000 H
   0.2769900000000000    0.6940600000000000    0.6198900000000001 H
   0.2989200000000000    0.3853600000000000    0.6403950000000000 H
   0.1340100000000000    0.1948900000000000    0.6135950000000000 H
   0.1550800000000000    0.3375900000000000    0.6382700000000000 H
   0.3013700000000000    0.2692000000000000    0.4538250000000000 H
   0.3294600000000000    0.4083900000000000    0.4778000000000000 H
   0.5028700000000000    0.4772600000000000    0.0330900000000000 H
   0.5730800000000000    0.4213300000000000    0.1046750000000000 H
   0.7670200000000000    0.2628000000000000    0.0964750000000000 H
   0.8300300000000000    0.2197900000000000    0.9426250000000000 H
   0.6131100000000000    0.2731900000000000    0.8470150000000001 H
   0.6828900000000000    0.2245500000000000    0.9185350000000000 H
   0.4596300000000000    0.5932900000000000    0.8830500000000000 H
   0.5352500000000000    0.5459900000000000    0.9527700000000000 H
   0.0499700000000000    0.5249100000000000    0.4646750000000000 H
   0.2076300000000000    0.5820700000000000    0.3934300000000000 H
   0.2249200000000000    0.7405900000000000    0.4024950000000000 H
   0.9344800000000000    0.7813400000000000    0.5562000000000000 H
   0.5802900000000000    0.7257500000000000    0.6513100000000001 H
   0.7442700000000000    0.7757700000000000    0.5799250000000000 H
   0.8228000000000000    0.4062500000000000    0.6143100000000000 H
   0.9903600000000000    0.4549400000000000    0.5447000000000000 H
   0.8227800000000000    0.4317400000000000    0.9886200000000001 H
   0.0374400000000000    0.2890400000000000    0.9603800000000000 H
   0.2140300000000000    0.3061800000000000    0.8808100000000000 H
   0.9657800000000000    0.6135500000000000    0.8595250000000000 H
   0.5560100000000000    0.8043000000000000    0.8872949999999999 H
   0.7698199999999999    0.6613200000000000    0.8625000000000000 H
   0.4772900000000000    0.7311800000000001    0.0470850000000000 H
   0.6934300000000000    0.5919400000000000    0.0229800000000000 H
   0.5028700000000000    0.4772600000000000    0.5330900000000000 H
   0.5730800000000000    0.4213300000000000    0.6046750000000000 H
   0.7670200000000000    0.2628000000000000    0.5964750000000000 H
   0.8300300000000000    0.2197900000000000    0.4426250000000000 H
   0.6131100000000000    0.2731900000000000    0.3470150000000000 H
   0.6828900000000000    0.2245500000000000    0.4185350000000000 H
   0.4596300000000000    0.5932900000000000    0.3830500000000000 H
   0.5352500000000000    0.5459900000000000    0.4527700000000000 H
   0.4995897302178071    0.6769036434438555    0.2090061242520748 H
   0.6672068073438759    0.3913962773158881    0.1581577350633525 H
   0.5965108759018386    0.5366426052274994    0.1788384436092761 H
   0.8227800000000000    0.4317400000000000    0.4886200000000000 H
   0.0374400000000000    0.2890400000000000    0.4603800000000000 H
   0.2140300000000000    0.3061800000000000    0.3808100000000000 H
   0.9657800000000000    0.6135500000000000    0.3595250000000000 H
   0.5560100000000000    0.8043000000000000    0.3872950000000000 H
   0.7698199999999999    0.6613200000000000    0.3625000000000000 H
   0.4772900000000000    0.7311800000000001    0.5470850000000000 H
   0.6934300000000000    0.5919400000000000    0.5229800000000000 H
   0.1813135497244078   -0.1187893303189360    0.9125027828933605 H
   0.0096686135311618    0.8547689807186677    0.0630327132768289 H
   0.0913279547075382   -0.1417024717037439    0.9870224660794450 H
   0.2264700000000000    0.5688299999999999    0.0128450000000000 H
   0.2399100000000000    0.7120500000000000    0.0411350000000000 H
   0.2769900000000000    0.6940600000000000    0.1198900000000000 H
   0.2989200000000000    0.3853600000000000    0.1403950000000000 H
   0.1340100000000000    0.1948900000000000    0.1135950000000000 H
   0.1550800000000000    0.3375900000000000    0.1382700000000000 H
   0.3013700000000000    0.2692000000000000    0.9538249999999999 H
   0.3294600000000000    0.4083900000000000    0.9778000000000000 H
   0.3226800000000000    0.5243700000000000    0.6795550000000000 C
   0.1989700000000000    0.1380900000000000    0.5190000000000000 C
   0.2445700000000000    0.5596600000000000    0.5470350000000000 C
   0.2515900000000000    0.6405200000000000    0.5628649999999999 C
   0.2720600000000000    0.6310900000000000    0.6071100000000000 C
   0.2819200000000000    0.4574600000000000    0.6190000000000000 C
   0.2891100000000000    0.5385300000000000    0.6349450000000000 C
   0.2573800000000000    0.4674500000000000    0.5753800000000000 C
   0.1765800000000000    0.2422200000000000    0.5841750000000000 C
   0.1899000000000000    0.3215200000000000    0.5977150000000000 C
   0.2699200000000000    0.2843800000000000    0.4941700000000000 C
   0.2845400000000000    0.3630700000000000    0.5078850000000000 C
   0.2162600000000000    0.2227900000000000    0.5322050000000000 C
   0.2446600000000000    0.3832000000000000    0.5599400000000000 C
   0.9317800000000001    0.1415900000000000    0.0122150000000000 C
   0.4883400000000000    0.4623200000000000    0.8179900000000000 C
   0.5892400000000000    0.4084800000000000    0.0287700000000000 C
   0.6279700000000000    0.3771300000000000    0.0692100000000000 C
   0.7366400000000000    0.2880600000000000    0.0649400000000000 C
   0.7702100000000000    0.2632500000000000    0.9784150000000000 C
   0.8091699999999999    0.2315300000000000    0.0190000000000000 C
   0.6586000000000000    0.3510000000000000    0.9830099999999999 C
   0.5963700000000000    0.3323300000000000    0.8704750000000000 C
   0.6364400000000000    0.3056300000000000    0.9102000000000000 C
   0.5090000000000000    0.5126300000000000    0.8909199999999999 C
   0.5507600000000000    0.4855900000000000    0.9303500000000000 C
   0.5319000000000000    0.4362300000000000    0.8603900000000000 C
   0.6151799999999999    0.3815200000000000    0.9408050000000000 C
   0.0977600000000000    0.8604500000000000    0.4871650000000000 C
   0.5886200000000000    0.5364300000000000    0.6799700000000000 C
   0.0580600000000000    0.5937400000000000    0.4692500000000000 C
   0.1464900000000000    0.6257500000000000    0.4290550000000000 C
   0.1565800000000000    0.7147700000000000    0.4338000000000000 C
   0.9907200000000000    0.7383900000000000    0.5202500000000000 C
   0.0794900000000000    0.7706600000000000    0.4799350000000000 C
   0.9771900000000000    0.6505700000000000    0.5152200000000000 C
   0.6704100000000000    0.6670800000000000    0.6276550000000000 C
   0.7631700000000000    0.6945400000000000    0.5879950000000000 C
   0.8063600000000000    0.4870900000000000    0.6066500000000000 C
   0.8998600000000000    0.5149100000000000    0.5673300000000000 C
   0.6908200000000000    0.5629700000000000    0.6374450000000000 C
   0.8799700000000000    0.6192000000000000    0.5572300000000000 C
   0.2079300000000000    0.4748900000000000    0.8201100000000000 C
   0.3742600000000000    0.8622400000000000    0.9818249999999999 C
   0.9000800000000000    0.4406500000000000    0.9540850000000001 C
   0.0204100000000000    0.3600400000000000    0.9382650000000000 C
   0.1200000000000000    0.3689900000000000    0.8935800000000000 C
   0.9785400000000000    0.5418600000000000    0.8812500000000000 C
   0.0994100000000000    0.4609500000000000    0.8652500000000001 C
   0.8766699999999999    0.5322800000000000    0.9253500000000000 C
   0.5870400000000000    0.7571700000000000    0.9167000000000001 C
   0.7071700000000000    0.6777200000000000    0.9031050000000000 C
   0.5420400000000000    0.7157200000000000    0.0067100000000000 C
   0.6632800000000000    0.6369500000000000    0.9929350000000000 C
   0.5028899999999999    0.7770700000000000    0.9686950000000000 C
   0.7481400000000000    0.6164200000000000    0.9408550000000000 C
   0.9317800000000001    0.1415900000000000    0.5122150000000000 C
   0.4883400000000000    0.4623200000000000    0.3179900000000000 C
   0.5892400000000000    0.4084800000000000    0.5287700000000000 C
   0.6279700000000000    0.3771300000000000    0.5692100000000000 C
   0.7366400000000000    0.2880600000000000    0.5649400000000000 C
   0.7702100000000000    0.2632500000000000    0.4784150000000000 C
   0.8091699999999999    0.2315300000000000    0.5190000000000000 C
   0.6586000000000000    0.3510000000000000    0.4830100000000000 C
   0.5963700000000000    0.3323300000000000    0.3704750000000000 C
   0.6364400000000000    0.3056300000000000    0.4102000000000000 C
   0.5090000000000000    0.5126300000000000    0.3909200000000000 C
   0.5507600000000000    0.4855900000000000    0.4303500000000000 C
   0.5319000000000000    0.4362300000000000    0.3603900000000000 C
   0.6151799999999999    0.3815200000000000    0.4408050000000000 C
   0.2079300000000000    0.4748900000000000    0.3201100000000000 C
   0.3742600000000000    0.8622400000000000    0.4818250000000000 C
   0.9000800000000000    0.4406500000000000    0.4540850000000000 C
   0.0204100000000000    0.3600400000000000    0.4382650000000000 C
   0.1200000000000000    0.3689900000000000    0.3935800000000000 C
   0.9785400000000000    0.5418600000000000    0.3812500000000000 C
   0.0994100000000000    0.4609500000000000    0.3652500000000000 C
   0.8766699999999999    0.5322800000000000    0.4253500000000000 C
   0.5870400000000000    0.7571700000000000    0.4167000000000000 C
   0.7071700000000000    0.6777200000000000    0.4031050000000000 C
   0.5420400000000000    0.7157200000000000    0.5067100000000000 C
   0.6632800000000000    0.6369500000000000    0.4929350000000000 C
   0.5028899999999999    0.7770700000000000    0.4686950000000000 C
   0.7481400000000000    0.6164200000000000    0.4408550000000000 C
   0.3226800000000000    0.5243700000000000    0.1795550000000000 C
   0.1989700000000000    0.1380900000000000    0.0190000000000000 C
   0.2445700000000000    0.5596600000000000    0.0470350000000000 C
   0.2515900000000000    0.6405200000000000    0.0628650000000000 C
   0.2720600000000000    0.6310900000000000    0.1071100000000000 C
   0.2819200000000000    0.4574600000000000    0.1190000000000000 C
   0.2891100000000000    0.5385300000000000    0.1349450000000000 C
   0.2573800000000000    0.4674500000000000    0.0753800000000000 C
   0.1765800000000000    0.2422200000000000    0.0841750000000000 C
   0.1899000000000000    0.3215200000000000    0.0977150000000000 C
   0.2699200000000000    0.2843800000000000    0.9941700000000000 C
   0.2845400000000000    0.3630700000000000    0.0078850000000000 C
   0.2162600000000000    0.2227900000000000    0.0322050000000000 C
   0.2446600000000000    0.3832000000000000    0.0599400000000000 C
   0.2997800000000000    0.6051500000000000    0.7001800000000000 O
   0.3760600000000000    0.4312500000000000    0.6927950000000000 O
   0.2103200000000000    0.1343000000000000    0.4732100000000000 O
   0.1715000000000000    0.0753200000000000    0.5555250000000000 O
   0.9497500000000000    0.0998300000000000    0.0526550000000000 O
   0.0119700000000000    0.1150100000000000    0.9657249999999999 O
   0.4073400000000000    0.5537900000000000    0.8159799999999999 O
   0.5347800000000000    0.3891200000000000    0.7867000000000000 O
   0.1558800000000000    0.9022500000000000    0.4469300000000000 O
   0.0568000000000000    0.8868600000000000    0.5337600000000000 O
   0.5954900000000000    0.4449300000000000    0.6820300000000000 O
   0.4988400000000000    0.6095500000000000    0.7113500000000000 O
   0.3073900000000000    0.3941200000000000    0.7992300000000000 O
   0.1941200000000000    0.5680200000000000    0.8066500000000000 O
   0.2890000000000000    0.8662700000000000    0.0274500000000000 O
   0.3583300000000000    0.9253000000000000    0.9452600000000000 O
   0.9497500000000000    0.0998300000000000    0.5526550000000000 O
   0.0119700000000000    0.1150100000000000    0.4657250000000000 O
   0.4073400000000000    0.5537900000000000    0.3159800000000000 O
   0.5347800000000000    0.3891200000000000    0.2867000000000000 O
   0.4988400000000000    0.6095500000000000    0.2113500000000000 O
   0.5954900000000000    0.4449300000000000    0.1820300000000000 O
   0.3073900000000000    0.3941200000000000    0.2992300000000000 O
   0.1941200000000000    0.5680200000000000    0.3066500000000000 O
   0.2890000000000000    0.8662700000000000    0.5274500000000000 O
   0.3583300000000000    0.9253000000000000    0.4452600000000000 O
   0.1558800000000000   -0.0977500000000000    0.9469300000000000 O
   0.0568000000000000    0.8868600000000000    0.0337600000000000 O
   0.2997800000000000    0.6051500000000000    0.2001800000000000 O
   0.3760600000000000    0.4312500000000000    0.1927950000000000 O
   0.2103200000000000    0.1343000000000000    0.9732100000000000 O
   0.1715000000000000    0.0753200000000000    0.0555250000000000 O
