H8 C14 O4
1.0
  11.5295847552611566    0.0000000000000000    5.7615099037708442
   5.7822193793430472   12.9859503001024432    2.9055317675804209
   0.0000000000000000    0.0000000000000000   29.0519999999999996
H C O
8 14 4
direct
   0.5802900000000000    0.7257500000000000    0.1513100000000000 H
   0.7442700000000000    0.7757700000000000    0.0799250000000000 H
   0.9903600000000000    0.4549400000000000    0.0447000000000000 H
   0.8228000000000000    0.4062500000000000    0.1143100000000000 H
   0.9344800000000000    0.7813400000000000    0.0562000000000000 H
   0.0499700000000000    0.5249100000000000    0.9646749999999999 H
   0.2076300000000000    0.5820700000000000    0.8934299999999999 H
   0.2249200000000000    0.7405900000000000    0.9024950000000000 H
   0.5886200000000000    0.5364300000000000    0.1799700000000000 C
   0.6908200000000000    0.5629700000000000    0.1374450000000000 C
   0.6704100000000000    0.6670800000000000    0.1276550000000000 C
   0.7631700000000000    0.6945400000000000    0.0879950000000000 C
   0.8799700000000000    0.6192000000000000    0.0572300000000000 C
   0.8998600000000000    0.5149100000000000    0.0673300000000000 C
   0.8063600000000000    0.4870900000000000    0.1066500000000000 C
   0.9771900000000000    0.6505700000000000    0.0152200000000000 C
   0.9907200000000000    0.7383900000000000    0.0202500000000000 C
   0.0580600000000000    0.5937400000000000    0.9692499999999999 C
   0.1464900000000000    0.6257500000000000    0.9290550000000000 C
   0.1565800000000000    0.7147700000000000    0.9338000000000000 C
   0.0794900000000000    0.7706600000000000    0.9799350000000000 C
   0.0977600000000000    0.8604500000000000    0.9871650000000001 C
   0.5954900000000000    0.4449300000000000    0.1820300000000000 O
   0.4988400000000000    0.6095500000000000    0.2113500000000000 O
   0.0568000000000000    0.8868600000000000    0.0337600000000000 O
   0.1558800000000000   -0.0977500000000000    0.9469300000000000 O
