H10 O7
1.0
  34.0396206367242939    0.0000000000000000   13.3667171327851904
  -0.0023572543632022   36.9839241274528590    0.0748770870319780
   0.0000000000000000    0.0000000000000000   14.1170000000000009
H O
10 7
direct
   0.0635188710287410    0.9713398347732535    0.3496373658803031 H
   0.1068496455729901    0.9310968056411904    0.6049044322481130 H
   0.0660154294922855    0.9383623254897844    0.5675160324017106 H
   0.0501036002624554    0.9515885623024485    0.4746326748868351 H
   0.8515183898038101    0.9402732259715531    0.6758569135070023 H
   0.8133886010413918    0.8897305978076729    0.7830010797463181 H
   0.8322257188213293    0.8478804978074119    0.7409417275252220 H
   0.8934522600725745    0.8563480070194810    0.9254278116102469 H
   0.8823678801429569    0.9157323913059384    0.7592325850477415 H
   0.9014634668708914    0.8891109698979351    0.8255204807531323 H
   0.0911933333333333    0.9784599999999999    0.3213300000000000 O
   0.1329566666666667    0.9319200000000000    0.5512400000000000 O
   0.0717633333333333    0.9474433333333333    0.4984100000000000 O
   0.8455133333333333    0.9658133333333333    0.6872800000000000 O
   0.8163033333333333    0.9156000000000000    0.7712300000000000 O
   0.8688000000000000    0.8429099999999999    0.9431500000000000 O
   0.8784900000000000    0.8969933333333333    0.8110400000000000 O
