La36 H175 C490 N70 O280
1.0
  34.0396206367242939    0.0000000000000000   13.3667171327851904
  -0.0023572543632022   36.9839241274528590    0.0748770870319780
   0.0000000000000000    0.0000000000000000   14.1170000000000009
La H C N O
36 175 490 70 280
direct
   0.1915766666666666    0.0267000000000000    0.6064100000000000 La
   0.1917733333333334    0.1400533333333333    0.1065700000000000 La
   0.1417600000000000    0.3066133333333333    0.3935800000000000 La
   0.1415633333333333    0.1932600000000000    0.8934100000000000 La
   0.5249100000000000    0.0267000000000000    0.6064100000000000 La
   0.5251066666666666    0.1400533333333333    0.1065700000000000 La
   0.4750933333333333    0.3066133333333333    0.3935800000000000 La
   0.4748966666666666    0.1932600000000000    0.8934100000000000 La
   0.8582433333333332    0.0267000000000000    0.6064100000000000 La
   0.8584400000000000    0.1400533333333333    0.1065700000000000 La
   0.8084266666666666    0.3066133333333333    0.3935800000000000 La
   0.8082300000000000    0.1932600000000000    0.8934100000000000 La
   0.1915766666666666    0.3600333333333333    0.6064100000000000 La
   0.1917733333333334    0.4733866666666666    0.1065700000000000 La
   0.1417600000000000    0.6399466666666667    0.3935800000000000 La
   0.1415633333333333    0.5265933333333332    0.8934100000000000 La
   0.5249100000000000    0.3600333333333333    0.6064100000000000 La
   0.5251066666666666    0.4733866666666666    0.1065700000000000 La
   0.4750933333333333    0.6399466666666667    0.3935800000000000 La
   0.4748966666666666    0.5265933333333332    0.8934100000000000 La
   0.8582433333333332    0.3600333333333333    0.6064100000000000 La
   0.8584400000000000    0.4733866666666666    0.1065700000000000 La
   0.8084266666666666    0.6399466666666667    0.3935800000000000 La
   0.8082300000000000    0.5265933333333332    0.8934100000000000 La
   0.1915766666666666    0.6933666666666667    0.6064100000000000 La
   0.1917733333333334    0.8067199999999999    0.1065700000000000 La
   0.1417600000000000    0.9732799999999999    0.3935800000000000 La
   0.1415633333333333    0.8599266666666666    0.8934100000000000 La
   0.5249100000000000    0.6933666666666667    0.6064100000000000 La
   0.5251066666666666    0.8067199999999999    0.1065700000000000 La
   0.4750933333333333    0.9732799999999999    0.3935800000000000 La
   0.4748966666666666    0.8599266666666666    0.8934100000000000 La
   0.8582433333333332    0.6933666666666667    0.6064100000000000 La
   0.8584400000000000    0.8067199999999999    0.1065700000000000 La
   0.8084266666666666    0.9732799999999999    0.3935800000000000 La
   0.8082300000000000    0.8599266666666666    0.8934100000000000 La
   0.1174233333333333    0.2569566666666667    0.7342700000000000 H
   0.2562833333333333    0.2896200000000000    0.6222100000000000 H
   0.3055366666666667    0.2194633333333333    0.7932800000000000 H
   0.3137066666666666    0.2836166666666666    0.4956100000000000 H
   0.0220600000000000    0.2500366666666667    0.7348700000000000 H
   0.2157266666666666    0.0892633333333333    0.7681300000000000 H
   0.0770000000000000    0.1223000000000000    0.8797500000000000 H
   0.0278400000000000    0.0532366666666667    0.7067800000000000 H
   0.0196333333333333    0.1170800000000000    0.0050400000000000 H
   0.3109666666666666    0.0823166666666667    0.7676300000000000 H
   0.2159100000000000    0.0763666666666667    0.2657400000000000 H
   0.0770533333333333    0.0437000000000000    0.3777800000000000 H
   0.0278033333333333    0.1138433333333333    0.2066700000000000 H
   0.0196333333333333    0.0496800000000000    0.5043500000000000 H
   0.3112766666666666    0.0832933333333333    0.2651300000000000 H
   0.1176100000000000    0.2440500000000000    0.2318700000000000 H
   0.2563400000000000    0.2110200000000000    0.1202200000000000 H
   0.3054966666666666    0.2800866666666667    0.2931800000000000 H
   0.3137066666666666    0.2162366666666667    0.9949400000000000 H
   0.0223700000000000    0.2510100000000000    0.2323400000000000 H
   0.4507566666666666    0.2569566666666667    0.7342700000000000 H
   0.5896166666666667    0.2896200000000000    0.6222100000000000 H
   0.6388700000000000    0.2194633333333333    0.7932800000000000 H
   0.6470399999999999    0.2836166666666666    0.4956100000000000 H
   0.3553933333333333    0.2500366666666667    0.7348700000000000 H
   0.5490600000000000    0.0892633333333333    0.7681300000000000 H
   0.4103333333333333    0.1223000000000000    0.8797500000000000 H
   0.3611733333333333    0.0532366666666667    0.7067800000000000 H
   0.3529666666666667    0.1170800000000000    0.0050400000000000 H
   0.6442999999999999    0.0823166666666667    0.7676300000000000 H
   0.5492433333333333    0.0763666666666667    0.2657400000000000 H
   0.4103866666666667    0.0437000000000000    0.3777800000000000 H
   0.3611366666666667    0.1138433333333333    0.2066700000000000 H
   0.3529666666666667    0.0496800000000000    0.5043500000000000 H
   0.6446099999999999    0.0832933333333333    0.2651300000000000 H
   0.4509433333333333    0.2440500000000000    0.2318700000000000 H
   0.5896733333333333    0.2110200000000000    0.1202200000000000 H
   0.6388300000000000    0.2800866666666667    0.2931800000000000 H
   0.6470399999999999    0.2162366666666667    0.9949400000000000 H
   0.3557033333333333    0.2510100000000000    0.2323400000000000 H
   0.7840900000000000    0.2569566666666667    0.7342700000000000 H
   0.9229499999999999    0.2896200000000000    0.6222100000000000 H
   0.9722033333333333    0.2194633333333333    0.7932800000000000 H
   0.9803733333333333    0.2836166666666666    0.4956100000000000 H
   0.6887266666666666    0.2500366666666667    0.7348700000000000 H
   0.8823933333333333    0.0892633333333333    0.7681300000000000 H
   0.7436666666666666    0.1223000000000000    0.8797500000000000 H
   0.6945066666666666    0.0532366666666667    0.7067800000000000 H
   0.6862999999999999    0.1170800000000000    0.0050400000000000 H
   0.9776333333333332    0.0823166666666667    0.7676300000000000 H
   0.8825766666666666    0.0763666666666667    0.2657400000000000 H
   0.7437199999999999    0.0437000000000000    0.3777800000000000 H
   0.6944699999999999    0.1138433333333333    0.2066700000000000 H
   0.6862999999999999    0.0496800000000000    0.5043500000000000 H
   0.9779433333333333    0.0832933333333333    0.2651300000000000 H
   0.7842766666666666    0.2440500000000000    0.2318700000000000 H
   0.9230066666666666    0.2110200000000000    0.1202200000000000 H
   0.9721633333333333    0.2800866666666667    0.2931800000000000 H
   0.9803733333333333    0.2162366666666667    0.9949400000000000 H
   0.6890366666666666    0.2510100000000000    0.2323400000000000 H
   0.1174233333333333    0.5902900000000000    0.7342700000000000 H
   0.2562833333333333    0.6229533333333332    0.6222100000000000 H
   0.3055366666666667    0.5527966666666666    0.7932800000000000 H
   0.3137066666666666    0.6169499999999999    0.4956100000000000 H
   0.0220600000000000    0.5833699999999999    0.7348700000000000 H
   0.2157266666666666    0.4225966666666666    0.7681300000000000 H
   0.0770000000000000    0.4556333333333333    0.8797500000000000 H
   0.0278400000000000    0.3865700000000000    0.7067800000000000 H
   0.0196333333333333    0.4504133333333333    0.0050400000000000 H
   0.3109666666666666    0.4156500000000000    0.7676300000000000 H
   0.2159100000000000    0.4097000000000000    0.2657400000000000 H
   0.0770533333333333    0.3770333333333333    0.3777800000000000 H
   0.0278033333333333    0.4471766666666667    0.2066700000000000 H
   0.0196333333333333    0.3830133333333333    0.5043500000000000 H
   0.3112766666666666    0.4166266666666666    0.2651300000000000 H
   0.1176100000000000    0.5773833333333334    0.2318700000000000 H
   0.2563400000000000    0.5443533333333332    0.1202200000000000 H
   0.3054966666666666    0.6134200000000000    0.2931800000000000 H
   0.3137066666666666    0.5495700000000000    0.9949400000000000 H
   0.0223700000000000    0.5843433333333332    0.2323400000000000 H
   0.4507566666666666    0.5902900000000000    0.7342700000000000 H
   0.5896166666666667    0.6229533333333332    0.6222100000000000 H
   0.6388700000000000    0.5527966666666666    0.7932800000000000 H
   0.6470399999999999    0.6169499999999999    0.4956100000000000 H
   0.3553933333333333    0.5833699999999999    0.7348700000000000 H
   0.5490600000000000    0.4225966666666666    0.7681300000000000 H
   0.4103333333333333    0.4556333333333333    0.8797500000000000 H
   0.3611733333333333    0.3865700000000000    0.7067800000000000 H
   0.3529666666666667    0.4504133333333333    0.0050400000000000 H
   0.6442999999999999    0.4156500000000000    0.7676300000000000 H
   0.5492433333333333    0.4097000000000000    0.2657400000000000 H
   0.4103866666666667    0.3770333333333333    0.3777800000000000 H
   0.3611366666666667    0.4471766666666667    0.2066700000000000 H
   0.3529666666666667    0.3830133333333333    0.5043500000000000 H
   0.6446099999999999    0.4166266666666666    0.2651300000000000 H
   0.4509433333333333    0.5773833333333334    0.2318700000000000 H
   0.5896733333333333    0.5443533333333332    0.1202200000000000 H
   0.6388300000000000    0.6134200000000000    0.2931800000000000 H
   0.6470399999999999    0.5495700000000000    0.9949400000000000 H
   0.3557033333333333    0.5843433333333332    0.2323400000000000 H
   0.7840900000000000    0.5902900000000000    0.7342700000000000 H
   0.9229499999999999    0.6229533333333332    0.6222100000000000 H
   0.9722033333333333    0.5527966666666666    0.7932800000000000 H
   0.9803733333333333    0.6169499999999999    0.4956100000000000 H
   0.6887266666666666    0.5833699999999999    0.7348700000000000 H
   0.8823933333333333    0.4225966666666666    0.7681300000000000 H
   0.7436666666666666    0.4556333333333333    0.8797500000000000 H
   0.6945066666666666    0.3865700000000000    0.7067800000000000 H
   0.6862999999999999    0.4504133333333333    0.0050400000000000 H
   0.9776333333333332    0.4156500000000000    0.7676300000000000 H
   0.8825766666666666    0.4097000000000000    0.2657400000000000 H
   0.7437199999999999    0.3770333333333333    0.3777800000000000 H
   0.6944699999999999    0.4471766666666667    0.2066700000000000 H
   0.6862999999999999    0.3830133333333333    0.5043500000000000 H
   0.9779433333333333    0.4166266666666666    0.2651300000000000 H
   0.7842766666666666    0.5773833333333334    0.2318700000000000 H
   0.9230066666666666    0.5443533333333332    0.1202200000000000 H
   0.9721633333333333    0.6134200000000000    0.2931800000000000 H
   0.9803733333333333    0.5495700000000000    0.9949400000000000 H
   0.6890366666666666    0.5843433333333332    0.2323400000000000 H
   0.2562833333333333    0.9562866666666666    0.6222100000000000 H
   0.3055366666666667    0.8861300000000000    0.7932800000000000 H
   0.3137066666666666    0.9502833333333333    0.4956100000000000 H
   0.2157266666666666    0.7559300000000000    0.7681300000000000 H
   0.0770000000000000    0.7889666666666666    0.8797500000000000 H
   0.0278400000000000    0.7199033333333333    0.7067800000000000 H
   0.0196333333333333    0.7837466666666666    0.0050400000000000 H
   0.3109666666666666    0.7489833333333333    0.7676300000000000 H
   0.2159100000000000    0.7430333333333333    0.2657400000000000 H
   0.0770533333333333    0.7103666666666666    0.3777800000000000 H
   0.0278033333333333    0.7805099999999999    0.2066700000000000 H
   0.0196333333333333    0.7163466666666667    0.5043500000000000 H
   0.3112766666666666    0.7499600000000000    0.2651300000000000 H
   0.1176100000000000    0.9107166666666666    0.2318700000000000 H
   0.2563400000000000    0.8776866666666666    0.1202200000000000 H
   0.3054966666666666    0.9467533333333333    0.2931800000000000 H
   0.3137066666666666    0.8829033333333333    0.9949400000000000 H
   0.0223700000000000    0.9176766666666666    0.2323400000000000 H
   0.4507566666666666    0.9236233333333332    0.7342700000000000 H
   0.5896166666666667    0.9562866666666666    0.6222100000000000 H
   0.6388700000000000    0.8861300000000000    0.7932800000000000 H
   0.6470399999999999    0.9502833333333333    0.4956100000000000 H
   0.3553933333333333    0.9167033333333333    0.7348700000000000 H
   0.5490600000000000    0.7559300000000000    0.7681300000000000 H
   0.4103333333333333    0.7889666666666666    0.8797500000000000 H
   0.3611733333333333    0.7199033333333333    0.7067800000000000 H
   0.3529666666666667    0.7837466666666666    0.0050400000000000 H
   0.6442999999999999    0.7489833333333333    0.7676300000000000 H
   0.5492433333333333    0.7430333333333333    0.2657400000000000 H
   0.4103866666666667    0.7103666666666666    0.3777800000000000 H
   0.3611366666666667    0.7805099999999999    0.2066700000000000 H
   0.3529666666666667    0.7163466666666667    0.5043500000000000 H
   0.6446099999999999    0.7499600000000000    0.2651300000000000 H
   0.4509433333333333    0.9107166666666666    0.2318700000000000 H
   0.5896733333333333    0.8776866666666666    0.1202200000000000 H
   0.6388300000000000    0.9467533333333333    0.2931800000000000 H
   0.6470399999999999    0.8829033333333333    0.9949400000000000 H
   0.3557033333333333    0.9176766666666666    0.2323400000000000 H
   0.7840900000000000    0.9236233333333332    0.7342700000000000 H
   0.6887266666666666    0.9167033333333333    0.7348700000000000 H
   0.8823933333333333    0.7559300000000000    0.7681300000000000 H
   0.7436666666666666    0.7889666666666666    0.8797500000000000 H
   0.6945066666666666    0.7199033333333333    0.7067800000000000 H
   0.6862999999999999    0.7837466666666666    0.0050400000000000 H
   0.9776333333333332    0.7489833333333333    0.7676300000000000 H
   0.8825766666666666    0.7430333333333333    0.2657400000000000 H
   0.7437199999999999    0.7103666666666666    0.3777800000000000 H
   0.6944699999999999    0.7805099999999999    0.2066700000000000 H
   0.6862999999999999    0.7163466666666667    0.5043500000000000 H
   0.9779433333333333    0.7499600000000000    0.2651300000000000 H
   0.7842766666666666    0.9107166666666666    0.2318700000000000 H
   0.9230066666666666    0.8776866666666666    0.1202200000000000 H
   0.9721633333333333    0.9467533333333333    0.2931800000000000 H
   0.9803733333333333    0.8829033333333333    0.9949400000000000 H
   0.6890366666666666    0.9176766666666666    0.2323400000000000 H
   0.1797300000000000    0.2696000000000000    0.7305199999999999 C
   0.2348366666666666    0.1940700000000000    0.9196400000000000 C
   0.0544633333333333    0.3023433333333333    0.3589000000000000 C
   0.0996566666666667    0.2642033333333333    0.6196900000000000 C
   0.2171700000000000    0.2561633333333333    0.7396100000000000 C
   0.2541466666666666    0.2692033333333334    0.6794800000000000 C
   0.2875866666666667    0.2552333333333333    0.6935500000000000 C
   0.2815033333333333    0.2309033333333333    0.7744700000000000 C
   0.2434266666666667    0.2194833333333333    0.8309600000000000 C
   0.0420666666666667    0.2864600000000000    0.4658100000000000 C
   0.0031166666666667    0.2788700000000000    0.5271400000000001 C
   0.0000000000000000    0.2653066666666666    0.6260500000000000 C
   0.0260866666666667    0.2603900000000000    0.6595400000000000 C
   0.0638766666666667    0.2683166666666666    0.5932300000000000 C
   0.1535800000000000    0.1026500000000000    0.7705500000000000 C
   0.0984600000000000    0.0284600000000000    0.5792700000000000 C
   0.2789566666666666    0.1356500000000000    0.1416300000000000 C
   0.2334033333333333    0.0962966666666667    0.8829900000000001 C
   0.1161333333333333    0.0894033333333333    0.7612100000000001 C
   0.0791333333333333    0.1021966666666667    0.8219000000000000 C
   0.0456900000000000    0.0883900000000000    0.8075900000000000 C
   0.0518333333333333    0.0645000000000000    0.7259500000000000 C
   0.0899233333333333    0.0533433333333333    0.6688300000000000 C
   0.2912266666666666    0.1193866666666667    0.0354300000000000 C
   0.3301766666666667    0.1119100000000000    0.9739900000000000 C
   0.0052800000000000    0.0981700000000000    0.8754500000000000 C
   0.3070500000000000    0.0928266666666667    0.8426300000000000 C
   0.2692500000000000    0.1005966666666667    0.9091000000000000 C
   0.1536033333333333    0.0637100000000000    0.2694600000000000 C
   0.0984933333333333    0.1392566666666666    0.0803700000000000 C
   0.2788700000000000    0.0309733333333333    0.6411000000000000 C
   0.2336866666666667    0.0691066666666667    0.3802900000000000 C
   0.1161666666666667    0.0771433333333333    0.2603500000000000 C
   0.0791866666666667    0.0641066666666667    0.3204800000000000 C
   0.0457500000000000    0.0780800000000000    0.3064200000000000 C
   0.0518333333333333    0.1024300000000000    0.2255400000000000 C
   0.0899100000000000    0.1138333333333333    0.1690300000000000 C
   0.2912733333333333    0.0468333333333333    0.5341600000000000 C
   0.3302200000000000    0.0544433333333333    0.4728400000000000 C
   0.0053766666666667    0.0680100000000000    0.3739400000000000 C
   0.3072533333333333    0.0729333333333333    0.3404600000000000 C
   0.2694633333333333    0.0650000000000000    0.4067500000000000 C
   0.1797600000000000    0.2306700000000000    0.2294300000000000 C
   0.2348800000000000    0.3048533333333333    0.4207200000000000 C
   0.0543800000000000    0.1976700000000000    0.8583499999999999 C
   0.0999366666666667    0.2370166666666667    0.1170000000000000 C
   0.2172066666666667    0.2439166666666667    0.2387600000000000 C
   0.2542033333333333    0.2311300000000000    0.1780500000000000 C
   0.2876466666666667    0.2449266666666667    0.1923900000000000 C
   0.2815033333333333    0.2688033333333333    0.2740500000000000 C
   0.2434133333333333    0.2799666666666666    0.3311700000000000 C
   0.0421100000000000    0.2139366666666667    0.9645500000000000 C
   0.0031633333333333    0.2214066666666667    0.0000000000000000 C
   0.0000000000000000    0.2351500000000000    0.1245300000000000 C
   0.0262900000000000    0.2404833333333333    0.1573600000000000 C
   0.0640900000000000    0.2327133333333333    0.0908800000000000 C
   0.5130633333333333    0.2696000000000000    0.7305199999999999 C
   0.5681700000000000    0.1940700000000000    0.9196400000000000 C
   0.3877966666666667    0.3023433333333333    0.3589000000000000 C
   0.4329900000000000    0.2642033333333333    0.6196900000000000 C
   0.5505033333333333    0.2561633333333333    0.7396100000000000 C
   0.5874800000000000    0.2692033333333334    0.6794800000000000 C
   0.6209199999999999    0.2552333333333333    0.6935500000000000 C
   0.6148366666666667    0.2309033333333333    0.7744700000000000 C
   0.5767599999999999    0.2194833333333333    0.8309600000000000 C
   0.3754000000000000    0.2864600000000000    0.4658100000000000 C
   0.3364500000000000    0.2788700000000000    0.5271400000000001 C
   0.3333333333333333    0.2653066666666666    0.6260500000000000 C
   0.3594200000000000    0.2603900000000000    0.6595400000000000 C
   0.3972100000000000    0.2683166666666666    0.5932300000000000 C
   0.4869133333333333    0.1026500000000000    0.7705500000000000 C
   0.4317933333333333    0.0284600000000000    0.5792700000000000 C
   0.6122900000000000    0.1356500000000000    0.1416300000000000 C
   0.5667366666666667    0.0962966666666667    0.8829900000000001 C
   0.4494666666666666    0.0894033333333333    0.7612100000000001 C
   0.4124666666666666    0.1021966666666667    0.8219000000000000 C
   0.3790233333333333    0.0883900000000000    0.8075900000000000 C
   0.3851666666666667    0.0645000000000000    0.7259500000000000 C
   0.4232566666666666    0.0533433333333333    0.6688300000000000 C
   0.6245600000000000    0.1193866666666667    0.0354300000000000 C
   0.6635100000000000    0.1119100000000000    0.9739900000000000 C
   0.3386133333333333    0.0981700000000000    0.8754500000000000 C
   0.6403833333333333    0.0928266666666667    0.8426300000000000 C
   0.6025833333333332    0.1005966666666667    0.9091000000000000 C
   0.4869366666666666    0.0637100000000000    0.2694600000000000 C
   0.4318266666666666    0.1392566666666666    0.0803700000000000 C
   0.6122033333333332    0.0309733333333333    0.6411000000000000 C
   0.5670200000000000    0.0691066666666667    0.3802900000000000 C
   0.4495000000000000    0.0771433333333333    0.2603500000000000 C
   0.4125200000000000    0.0641066666666667    0.3204800000000000 C
   0.3790833333333333    0.0780800000000000    0.3064200000000000 C
   0.3851666666666667    0.1024300000000000    0.2255400000000000 C
   0.4232433333333333    0.1138333333333333    0.1690300000000000 C
   0.6246066666666666    0.0468333333333333    0.5341600000000000 C
   0.6635533333333332    0.0544433333333333    0.4728400000000000 C
   0.3387100000000000    0.0680100000000000    0.3739400000000000 C
   0.6405866666666666    0.0729333333333333    0.3404600000000000 C
   0.6027966666666666    0.0650000000000000    0.4067500000000000 C
   0.5130933333333333    0.2306700000000000    0.2294300000000000 C
   0.5682133333333333    0.3048533333333333    0.4207200000000000 C
   0.3877133333333333    0.1976700000000000    0.8583499999999999 C
   0.4332700000000000    0.2370166666666667    0.1170000000000000 C
   0.5505400000000000    0.2439166666666667    0.2387600000000000 C
   0.5875366666666666    0.2311300000000000    0.1780500000000000 C
   0.6209800000000000    0.2449266666666667    0.1923900000000000 C
   0.6148366666666667    0.2688033333333333    0.2740500000000000 C
   0.5767466666666666    0.2799666666666666    0.3311700000000000 C
   0.3754433333333333    0.2139366666666667    0.9645500000000000 C
   0.3364966666666667    0.2214066666666667    0.0000000000000000 C
   0.3333333333333333    0.2351500000000000    0.1245300000000000 C
   0.3596233333333333    0.2404833333333333    0.1573600000000000 C
   0.3974233333333333    0.2327133333333333    0.0908800000000000 C
   0.8463966666666666    0.2696000000000000    0.7305199999999999 C
   0.9015033333333333    0.1940700000000000    0.9196400000000000 C
   0.7211299999999999    0.3023433333333333    0.3589000000000000 C
   0.7663233333333332    0.2642033333333333    0.6196900000000000 C
   0.8838366666666666    0.2561633333333333    0.7396100000000000 C
   0.9208133333333333    0.2692033333333334    0.6794800000000000 C
   0.9542533333333333    0.2552333333333333    0.6935500000000000 C
   0.9481700000000000    0.2309033333333333    0.7744700000000000 C
   0.9100933333333333    0.2194833333333333    0.8309600000000000 C
   0.7087333333333333    0.2864600000000000    0.4658100000000000 C
   0.6697833333333333    0.2788700000000000    0.5271400000000001 C
   0.6666666666666666    0.2653066666666666    0.6260500000000000 C
   0.6927533333333333    0.2603900000000000    0.6595400000000000 C
   0.7305433333333333    0.2683166666666666    0.5932300000000000 C
   0.8202466666666666    0.1026500000000000    0.7705500000000000 C
   0.7651266666666666    0.0284600000000000    0.5792700000000000 C
   0.9456233333333333    0.1356500000000000    0.1416300000000000 C
   0.9000699999999999    0.0962966666666667    0.8829900000000001 C
   0.7827999999999999    0.0894033333333333    0.7612100000000001 C
   0.7458000000000000    0.1021966666666667    0.8219000000000000 C
   0.7123566666666666    0.0883900000000000    0.8075900000000000 C
   0.7184999999999999    0.0645000000000000    0.7259500000000000 C
   0.7565900000000000    0.0533433333333333    0.6688300000000000 C
   0.9578933333333333    0.1193866666666667    0.0354300000000000 C
   0.9968433333333333    0.1119100000000000    0.9739900000000000 C
   0.6719466666666666    0.0981700000000000    0.8754500000000000 C
   0.9737166666666666    0.0928266666666667    0.8426300000000000 C
   0.9359166666666666    0.1005966666666667    0.9091000000000000 C
   0.8202699999999999    0.0637100000000000    0.2694600000000000 C
   0.7651600000000000    0.1392566666666666    0.0803700000000000 C
   0.9455366666666666    0.0309733333333333    0.6411000000000000 C
   0.9003533333333333    0.0691066666666667    0.3802900000000000 C
   0.7828333333333333    0.0771433333333333    0.2603500000000000 C
   0.7458533333333333    0.0641066666666667    0.3204800000000000 C
   0.7124166666666666    0.0780800000000000    0.3064200000000000 C
   0.7184999999999999    0.1024300000000000    0.2255400000000000 C
   0.7565766666666667    0.1138333333333333    0.1690300000000000 C
   0.9579400000000000    0.0468333333333333    0.5341600000000000 C
   0.9968866666666666    0.0544433333333333    0.4728400000000000 C
   0.6720433333333333    0.0680100000000000    0.3739400000000000 C
   0.9739199999999999    0.0729333333333333    0.3404600000000000 C
   0.9361299999999999    0.0650000000000000    0.4067500000000000 C
   0.8464266666666667    0.2306700000000000    0.2294300000000000 C
   0.9015466666666666    0.3048533333333333    0.4207200000000000 C
   0.7210466666666666    0.1976700000000000    0.8583499999999999 C
   0.7666033333333333    0.2370166666666667    0.1170000000000000 C
   0.8838733333333333    0.2439166666666667    0.2387600000000000 C
   0.9208700000000000    0.2311300000000000    0.1780500000000000 C
   0.9543133333333333    0.2449266666666667    0.1923900000000000 C
   0.9481700000000000    0.2688033333333333    0.2740500000000000 C
   0.9100800000000000    0.2799666666666666    0.3311700000000000 C
   0.7087766666666666    0.2139366666666667    0.9645500000000000 C
   0.6698299999999999    0.2214066666666667    0.0000000000000000 C
   0.6666666666666666    0.2351500000000000    0.1245300000000000 C
   0.6929566666666667    0.2404833333333333    0.1573600000000000 C
   0.7307566666666666    0.2327133333333333    0.0908800000000000 C
   0.1797300000000000    0.6029333333333333    0.7305199999999999 C
   0.2348366666666666    0.5274033333333333    0.9196400000000000 C
   0.0544633333333333    0.6356766666666667    0.3589000000000000 C
   0.0996566666666667    0.5975366666666666    0.6196900000000000 C
   0.2171700000000000    0.5894966666666666    0.7396100000000000 C
   0.2541466666666666    0.6025366666666667    0.6794800000000000 C
   0.2875866666666667    0.5885666666666667    0.6935500000000000 C
   0.2815033333333333    0.5642366666666667    0.7744700000000000 C
   0.2434266666666667    0.5528166666666666    0.8309600000000000 C
   0.0420666666666667    0.6197933333333333    0.4658100000000000 C
   0.0031166666666667    0.6122033333333332    0.5271400000000001 C
   0.0000000000000000    0.5986399999999999    0.6260500000000000 C
   0.0260866666666667    0.5937233333333334    0.6595400000000000 C
   0.0638766666666667    0.6016500000000000    0.5932300000000000 C
   0.1535800000000000    0.4359833333333333    0.7705500000000000 C
   0.0984600000000000    0.3617933333333333    0.5792700000000000 C
   0.2789566666666666    0.4689833333333333    0.1416300000000000 C
   0.2334033333333333    0.4296300000000000    0.8829900000000001 C
   0.1161333333333333    0.4227366666666666    0.7612100000000001 C
   0.0791333333333333    0.4355300000000000    0.8219000000000000 C
   0.0456900000000000    0.4217233333333333    0.8075900000000000 C
   0.0518333333333333    0.3978333333333333    0.7259500000000000 C
   0.0899233333333333    0.3866766666666667    0.6688300000000000 C
   0.2912266666666666    0.4527200000000000    0.0354300000000000 C
   0.3301766666666667    0.4452433333333333    0.9739900000000000 C
   0.0052800000000000    0.4315033333333333    0.8754500000000000 C
   0.3070500000000000    0.4261600000000000    0.8426300000000000 C
   0.2692500000000000    0.4339300000000000    0.9091000000000000 C
   0.1536033333333333    0.3970433333333333    0.2694600000000000 C
   0.0984933333333333    0.4725900000000000    0.0803700000000000 C
   0.2788700000000000    0.3643066666666667    0.6411000000000000 C
   0.2336866666666667    0.4024400000000000    0.3802900000000000 C
   0.1161666666666667    0.4104766666666667    0.2603500000000000 C
   0.0791866666666667    0.3974400000000000    0.3204800000000000 C
   0.0457500000000000    0.4114133333333333    0.3064200000000000 C
   0.0518333333333333    0.4357633333333333    0.2255400000000000 C
   0.0899100000000000    0.4471666666666667    0.1690300000000000 C
   0.2912733333333333    0.3801666666666667    0.5341600000000000 C
   0.3302200000000000    0.3877766666666667    0.4728400000000000 C
   0.0053766666666667    0.4013433333333333    0.3739400000000000 C
   0.3072533333333333    0.4062666666666667    0.3404600000000000 C
   0.2694633333333333    0.3983333333333333    0.4067500000000000 C
   0.1797600000000000    0.5640033333333333    0.2294300000000000 C
   0.2348800000000000    0.6381866666666667    0.4207200000000000 C
   0.0543800000000000    0.5310033333333333    0.8583499999999999 C
   0.0999366666666667    0.5703499999999999    0.1170000000000000 C
   0.2172066666666667    0.5772500000000000    0.2387600000000000 C
   0.2542033333333333    0.5644633333333333    0.1780500000000000 C
   0.2876466666666667    0.5782600000000000    0.1923900000000000 C
   0.2815033333333333    0.6021366666666665    0.2740500000000000 C
   0.2434133333333333    0.6133000000000000    0.3311700000000000 C
   0.0421100000000000    0.5472699999999999    0.9645500000000000 C
   0.0031633333333333    0.5547400000000000    0.0000000000000000 C
   0.0000000000000000    0.5684833333333333    0.1245300000000000 C
   0.0262900000000000    0.5738166666666666    0.1573600000000000 C
   0.0640900000000000    0.5660466666666666    0.0908800000000000 C
   0.5130633333333333    0.6029333333333333    0.7305199999999999 C