H3 O2
1.0
  10.1034984242165660    0.0000000000000000   -0.0056428586178449
  -0.0075826559468359   11.5575712517570146   -0.2110201741269886
   0.0000000000000000    0.0000000000000000   14.8919999999999995
H O
3 2
direct
  -0.0111706416977386    0.6239778786256645   -0.1369236286309121 H
  -0.0387557646626246    0.3262332574136565    0.7308723726039954 H
  -0.0290984487786051    0.4818008664005842   -0.2124731053655618 H
  -0.0051300000000000    0.5402200000000000   -0.1380700000000000 O
  -0.0210000000000000    0.3695100000000000    0.7859900000000000 O
