H1 C1 O2
1.0
  10.1034984242165660    0.0000000000000000   -0.0056428586178449
  -0.0075826559468359   11.5575712517570146   -0.2110201741269886
   0.0000000000000000    0.0000000000000000   14.8919999999999995
H C O
1 1 2
direct
   0.9454200000000000    0.5255500000000000    0.7304300000000000 H
   0.9726900000000001    0.4805400000000000    0.7926500000000000 C
  -0.0210000000000000    0.3695100000000000    0.7859900000000000 O
  -0.0051300000000000    0.5402200000000000   -0.1380700000000000 O
