H3 C9 O6
1.0
  25.9679744733348841    0.0000000000000000    1.9083358593884594
   8.8091692833323521   24.2827789525540680    1.9127955664395999
   0.0000000000000000    0.0000000000000000   21.1170000000000009
H C O
3 9 6
direct
   0.1088200000000000    0.6148950000000000    0.8143800000000000 H
   0.0201700000000000    0.5343000000000000    0.9435800000000000 H
   0.1134050000000000    0.6232800000000001    0.0166000000000000 H
   0.0963300000000000    0.6047950000000000    0.8626000000000000 C
   0.0430800000000000    0.5536449999999999    0.8163600000000000 C
   0.0621100000000000    0.5729299999999999    0.8728000000000000 C
   0.1497600000000000    0.6588750000000000    0.9049199999999999 C
   0.0658450000000000    0.5767949999999999    0.9869200000000000 C
   0.0464900000000000    0.5592350000000000    0.9351100000000000 C
   0.0990250000000000    0.6093500000000001    0.9762200000000000 C
   0.1141850000000000    0.6238150000000000    0.9142800000000000 C
   0.0526500000000000    0.5603250000000000    0.0541000000000000 C
   0.0714450000000000    0.5529800000000000    0.7639700000000000 O
   0.0001700000000000    0.5404400000000000    0.8222200000000000 O
   0.0241800000000000    0.5288950000000000    0.0643800000000000 O
   0.1645300000000000    0.6730950000000000    0.8497600000000000 O
   0.1643200000000000    0.6733800000000000    0.9560100000000000 O
   0.0714300000000000    0.5777000000000000    0.0994200000000000 O
