Cd32 H147 C294 N105 O102
1.0
  25.9679744733348841    0.0000000000000000    1.9083358593884594
   8.8091692833323521   24.2827789525540680    1.9127955664395999
   0.0000000000000000    0.0000000000000000   21.1170000000000009
Cd H C N O
32 147 294 105 102
direct
   0.2792200000000000    0.2844800000000000    0.5880000000000000 Cd
   0.4641800000000000    0.4682350000000000    0.8187700000000000 Cd
   0.7208000000000000    0.7155050000000001    0.4119600000000000 Cd
   0.5358350000000000    0.5317550000000000    0.1812100000000000 Cd
   0.7792200000000000    0.2844800000000000    0.5880000000000000 Cd
   0.9641800000000000    0.4682350000000000    0.8187700000000000 Cd
   0.2208000000000000    0.7155050000000001    0.4119600000000000 Cd
   0.0358350000000000    0.5317550000000000    0.1812100000000000 Cd
   0.7841700000000000    0.2795300000000000    0.0879800000000000 Cd
   0.9686100000000000    0.4637800000000000    0.3180000000000000 Cd
   0.2158500000000000    0.7204650000000000    0.9119900000000000 Cd
   0.0314100000000000    0.5362050000000000    0.6810800000000000 Cd
   0.7841700000000000    0.7795300000000001    0.0879800000000000 Cd
   0.9686100000000000    0.9637800000000001    0.3180000000000000 Cd
   0.2158500000000000    0.2204650000000000    0.9119900000000000 Cd
   0.0314100000000000    0.0362050000000000    0.6810800000000000 Cd
   0.2792200000000000    0.7844800000000001    0.5880000000000000 Cd
   0.4641800000000000    0.9682350000000000    0.8187700000000000 Cd
   0.7208000000000000    0.2155050000000000    0.4119600000000000 Cd
   0.5358350000000000    0.0317550000000000    0.1812100000000000 Cd
   0.7792200000000000    0.7844800000000001    0.5880000000000000 Cd
   0.9641800000000000    0.9682350000000000    0.8187700000000000 Cd
   0.2208000000000000    0.2155050000000000    0.4119600000000000 Cd
   0.0358350000000000    0.0317550000000000    0.1812100000000000 Cd
   0.2841700000000000    0.2795300000000000    0.0879800000000000 Cd
   0.4686100000000000    0.4637800000000000    0.3180000000000000 Cd
   0.7158500000000000    0.7204650000000000    0.9119900000000000 Cd
   0.5314100000000000    0.5362050000000000    0.6810800000000000 Cd
   0.2841700000000000    0.7795300000000001    0.0879800000000000 Cd
   0.4686100000000000    0.9637800000000001    0.3180000000000000 Cd
   0.7158500000000000    0.2204650000000000    0.9119900000000000 Cd
   0.5314100000000000    0.0362050000000000    0.6810800000000000 Cd
   0.4334902786981938    0.1381022973442392    0.2044169149439880 H
   0.5568000000000000    0.3417500000000000    0.2406000000000000 H
   0.5521400000000000    0.4104200000000000    0.4140300000000000 H
   0.6418600000000000    0.2621700000000000    0.2715500000000000 H
   0.6488849999999999    0.4528450000000000    0.7550600000000000 H
   0.5716750000000000    0.4338050000000000    0.5973300000000000 H
   0.7323450000000000    0.3699500000000000    0.7252200000000000 H
   0.4662150000000000    0.4794000000000000    0.5564100000000000 H
   0.3767200000000000    0.3866300000000000    0.4834500000000000 H
   0.3857000000000000    0.3906050000000000    0.6856400000000000 H
   0.4432250000000000    0.6582399999999999    0.7593000000000000 H
   0.4478800000000000    0.5895650000000000    0.5859500000000000 H
   0.3581650000000000    0.7378200000000000    0.7284000000000000 H
   0.3511300000000000    0.5471350000000000    0.2449200000000000 H
   0.4283450000000000    0.5661800000000000    0.4026400000000000 H
   0.2676750000000000    0.6300250000000001    0.2747600000000000 H
   0.5338050000000000    0.5205900000000000    0.4435700000000000 H
   0.6233000000000000    0.6133600000000000    0.5165300000000000 H
   0.6143149999999999    0.6093850000000000    0.3143400000000000 H
   0.0568000000000000    0.3417500000000000    0.2406000000000000 H
   0.0521400000000000    0.4104200000000000    0.4140300000000000 H
   0.1418600000000000    0.2621700000000000    0.2715500000000000 H
   0.1488850000000000    0.4528450000000000    0.7550600000000000 H
   0.0716750000000000    0.4338050000000000    0.5973300000000000 H
   0.2323450000000000    0.3699500000000000    0.7252200000000000 H
   0.9662150000000000    0.4794000000000000    0.5564100000000000 H
   0.8767199999999999    0.3866300000000000    0.4834500000000000 H
   0.8856999999999999    0.3906050000000000    0.6856400000000000 H
   0.9432250000000000    0.6582399999999999    0.7593000000000000 H
   0.9478800000000001    0.5895650000000000    0.5859500000000000 H
   0.8581650000000001    0.7378200000000000    0.7284000000000000 H
   0.8511299999999999    0.5471350000000000    0.2449200000000000 H
   0.9283450000000000    0.5661800000000000    0.4026400000000000 H
   0.7676750000000000    0.6300250000000001    0.2747600000000000 H
   0.0338050000000000    0.5205900000000000    0.4435700000000000 H
   0.1233000000000000    0.6133600000000000    0.5165300000000000 H
   0.1143150000000000    0.6093850000000000    0.3143400000000000 H
   0.8423550000000000    0.5567350000000000    0.7403300000000000 H
   0.9106099999999999    0.5521050000000000    0.9138400000000000 H
   0.7625400000000000    0.6415000000000000    0.7717200000000000 H
   0.9526600000000001    0.6494250000000000    0.2547300000000000 H
   0.9339200000000000    0.5714450000000000    0.0972800000000000 H
   0.8695100000000000    0.7328200000000000    0.2252500000000000 H
   0.9798450000000001    0.4656900000000000    0.0564000000000000 H
   0.8866100000000000    0.3767150000000000    0.9833800000000000 H
   0.8912000000000000    0.3850850000000000    0.1855900000000000 H
   0.1576650000000000    0.4432600000000000    0.2596000000000000 H
   0.0894050000000000    0.4478850000000000    0.0861400000000000 H
   0.2374750000000000    0.3584900000000000    0.2282000000000000 H
   0.0473450000000000    0.3505600000000000    0.7452500000000000 H
   0.0660900000000000    0.4285450000000000    0.9026999999999999 H
   0.1305000000000000    0.2671650000000000    0.7747300000000000 H
   0.0201700000000000    0.5343000000000000    0.9435800000000000 H
   0.1088200000000000    0.6148950000000000    0.8143800000000000 H
   0.1134050000000000    0.6232800000000001    0.0166000000000000 H
   0.8423550000000000    0.0567350000000000    0.7403300000000000 H
   0.9106099999999999    0.0521050000000000    0.9138400000000000 H
   0.7625400000000000    0.1415000000000000    0.7717200000000000 H
   0.9526600000000001    0.1494250000000000    0.2547300000000000 H
   0.9339200000000000    0.0714450000000000    0.0972800000000000 H
   0.8695100000000000    0.2328200000000000    0.2252500000000000 H
   0.9798450000000001    0.9656899999999999    0.0564000000000000 H
   0.8866100000000000    0.8767150000000000    0.9833800000000000 H
   0.8912000000000000    0.8850850000000000    0.1855900000000000 H
   0.1576650000000000    0.9432600000000000    0.2596000000000000 H
   0.0894050000000000    0.9478850000000000    0.0861400000000000 H
   0.2374750000000000    0.8584900000000000    0.2282000000000000 H
   0.0473450000000000    0.8505600000000000    0.7452500000000000 H
   0.0660900000000000    0.9285450000000000    0.9026999999999999 H
   0.1305000000000000    0.7671650000000000    0.7747300000000000 H
   0.0201700000000000    0.0343000000000000    0.9435800000000000 H
   0.1088200000000000    0.1148950000000000    0.8143800000000000 H
   0.1134050000000000    0.1232800000000000    0.0166000000000000 H
   0.5568000000000000    0.8417500000000000    0.2406000000000000 H
   0.5521400000000000    0.9104200000000000    0.4140300000000000 H
   0.6418600000000000    0.7621700000000000    0.2715500000000000 H
   0.6488849999999999    0.9528449999999999    0.7550600000000000 H
   0.5716750000000000    0.9338050000000000    0.5973300000000000 H
   0.7323450000000000    0.8699500000000000    0.7252200000000000 H
   0.4662150000000000    0.9794000000000000    0.5564100000000000 H
   0.3767200000000000    0.8866300000000000    0.4834500000000000 H
   0.3857000000000000    0.8906050000000000    0.6856400000000000 H
   0.4432250000000000    0.1582400000000000    0.7593000000000000 H
   0.4478800000000000    0.0895650000000000    0.5859500000000000 H
   0.3581650000000000    0.2378200000000000    0.7284000000000000 H
   0.3511300000000000    0.0471350000000000    0.2449200000000000 H
   0.4283450000000000    0.0661800000000000    0.4026400000000000 H
   0.2676750000000000    0.1300250000000000    0.2747600000000000 H
   0.5338050000000000    0.0205900000000000    0.4435700000000000 H
   0.6233000000000000    0.1133600000000000    0.5165300000000000 H
   0.6143149999999999    0.1093850000000000    0.3143400000000000 H
   0.0568000000000000    0.8417500000000000    0.2406000000000000 H
   0.0521400000000000    0.9104200000000000    0.4140300000000000 H
   0.1418600000000000    0.7621700000000000    0.2715500000000000 H
   0.1488850000000000    0.9528449999999999    0.7550600000000000 H
   0.0716750000000000    0.9338050000000000    0.5973300000000000 H
   0.2323450000000000    0.8699500000000000    0.7252200000000000 H
   0.9662150000000000    0.9794000000000000    0.5564100000000000 H
   0.8767199999999999    0.8866300000000000    0.4834500000000000 H
   0.8856999999999999    0.8906050000000000    0.6856400000000000 H
   0.9432250000000000    0.1582400000000000    0.7593000000000000 H
   0.9478800000000001    0.0895650000000000    0.5859500000000000 H
   0.8581650000000001    0.2378200000000000    0.7284000000000000 H
   0.8511299999999999    0.0471350000000000    0.2449200000000000 H
   0.9283450000000000    0.0661800000000000    0.4026400000000000 H
   0.7676750000000000    0.1300250000000000    0.2747600000000000 H
   0.0338050000000000    0.0205900000000000    0.4435700000000000 H
   0.1233000000000000    0.1133600000000000    0.5165300000000000 H
   0.1143150000000000    0.1093850000000000    0.3143400000000000 H
   0.3509974088447973    0.0681224419750752    0.7967282932950134 H
   0.3785461498094086    0.0661519304829581    0.8664673543914637 H
   0.3228960960369214    0.1263243823283340    0.8874914971230795 H
   0.2869884243761850    0.1412015736796023    0.8141220632649090 H
   0.3688151004155317    0.1651212966996320    0.1200391881473375 H
   0.3000326128868488    0.2104907980482101    1.0161492151367273 H
   0.3356454132511401    0.1675845985654330    0.0465261793487769 H
   0.3208814742656410    0.1550761470675896    0.9642205125448791 H
   0.3423550000000000    0.5567350000000000    0.7403300000000000 H
   0.4106100000000000    0.5521050000000000    0.9138400000000000 H
   0.2625400000000000    0.6415000000000000    0.7717200000000000 H
   0.4526600000000000    0.6494250000000000    0.2547300000000000 H
   0.4339200000000000    0.5714450000000000    0.0972800000000000 H
   0.3695100000000000    0.7328200000000000    0.2252500000000000 H
   0.4798450000000000    0.4656900000000000    0.0564000000000000 H
   0.3866100000000000    0.3767150000000000    0.9833800000000000 H
   0.3912000000000000    0.3850850000000000    0.1855900000000000 H
   0.6576649999999999    0.4432600000000000    0.2596000000000000 H
   0.5894050000000000    0.4478850000000000    0.0861400000000000 H
   0.7374750000000000    0.3584900000000000    0.2282000000000000 H
   0.5473450000000000    0.3505600000000000    0.7452500000000000 H
   0.5660900000000000    0.4285450000000000    0.9026999999999999 H
   0.6305000000000001    0.2671650000000000    0.7747300000000000 H
   0.5201700000000000    0.5343000000000000    0.9435800000000000 H
   0.6088200000000000    0.6148950000000000    0.8143800000000000 H
   0.6134050000000000    0.6232800000000001    0.0166000000000000 H
   0.4798450000000000    0.9656899999999999    0.0564000000000000 H
   0.3866100000000000    0.8767150000000000    0.9833800000000000 H
   0.3912000000000000    0.8850850000000000    0.1855900000000000 H
   0.6576649999999999    0.9432600000000000    0.2596000000000000 H
   0.5894050000000000    0.9478850000000000    0.0861400000000000 H
   0.7374750000000000    0.8584900000000000    0.2282000000000000 H
   0.5473450000000000    0.8505600000000000    0.7452500000000000 H
   0.5660900000000000    0.9285450000000000    0.9026999999999999 H
   0.6305000000000001    0.7671650000000000    0.7747300000000000 H
   0.5201700000000000    0.0343000000000000    0.9435800000000000 H
   0.6088200000000000    0.1148950000000000    0.8143800000000000 H
   0.6134050000000000    0.1232800000000000    0.0166000000000000 H
   0.5750500000000001    0.3393600000000000    0.2860400000000000 C
   0.5721550000000000    0.3775700000000000    0.3816400000000000 C
   0.6223050000000000    0.2960400000000000    0.3026400000000000 C
   0.6195750000000000    0.3340550000000000    0.3983200000000000 C
   0.6559800000000000    0.3482400000000000    0.5506700000000000 C
   0.6422350000000000    0.3317650000000000    0.4595900000000000 C
   0.6500600000000000    0.4289550000000000    0.7142500000000001 C
   0.6067550000000000    0.4188050000000000    0.6272799999999999 C
   0.6956599999999999    0.3835700000000000    0.6978000000000000 C
   0.6531050000000000    0.3740750000000000    0.6100400000000000 C
   0.4472500000000000    0.4561400000000000    0.6835800000000000 C
   0.4398400000000000    0.4471700000000000    0.4458500000000000 C
   0.3411450000000000    0.3502650000000000    0.5950800000000001 C
   0.4412450000000000    0.4531050000000000    0.5648900000000000 C
   0.3908150000000000    0.4008600000000000    0.5238100000000000 C
   0.4234800000000000    0.4339400000000000    0.5130900000000000 C
   0.3957200000000000    0.4032050000000000    0.6373000000000000 C
   0.3764250000000000    0.3856350000000000    0.5857500000000000 C
   0.4277200000000000    0.4373100000000000    0.6271500000000000 C
   0.4249700000000000    0.6606300000000001    0.7139300000000000 C
   0.4278700000000000    0.6224149999999999    0.6183300000000000 C
   0.3777150000000000    0.7039500000000000    0.6973000000000000 C
   0.3804500000000000    0.6659300000000000    0.6016500000000000 C
   0.3440400000000000    0.6517450000000000    0.4493000000000000 C
   0.3577850000000000    0.6682200000000000    0.5403800000000000 C
   0.3499600000000000    0.5710250000000000    0.2857300000000000 C
   0.3932650000000000    0.5811750000000000    0.3727000000000000 C
   0.3043550000000000    0.6164100000000000    0.3021000000000000 C
   0.3469150000000000    0.6259049999999999    0.3899400000000000 C
   0.5527700000000000    0.5438499999999999    0.3164000000000000 C
   0.5601800000000000    0.5528150000000001    0.5541300000000000 C
   0.6588700000000001    0.6497250000000000    0.4048900000000000 C
   0.5587750000000000    0.5468800000000000    0.4350900000000000 C
   0.6092050000000000    0.5991250000000000    0.4761700000000000 C
   0.5765400000000001    0.5660499999999999    0.4868900000000000 C
   0.6042950000000000    0.5967850000000000    0.3626400000000000 C
   0.6235950000000000    0.6143600000000000    0.4142300000000000 C
   0.5722950000000000    0.5626850000000000    0.3728200000000000 C
   0.0750500000000000    0.3393600000000000    0.2860400000000000 C
   0.0721550000000000    0.3775700000000000    0.3816400000000000 C
   0.1223050000000000    0.2960400000000000    0.3026400000000000 C
   0.1195750000000000    0.3340550000000000    0.3983200000000000 C
   0.1559800000000000    0.3482400000000000    0.5506700000000000 C
   0.1422350000000000    0.3317650000000000    0.4595900000000000 C
   0.1500600000000000    0.4289550000000000    0.7142500000000001 C
   0.1067550000000000    0.4188050000000000    0.6272799999999999 C
   0.1956600000000000    0.3835700000000000    0.6978000000000000 C
   0.1531050000000000    0.3740750000000000    0.6100400000000000 C
   0.9472499999999999    0.4561400000000000    0.6835800000000000 C
   0.9398400000000000    0.4471700000000000    0.4458500000000000 C
   0.8411450000000000    0.3502650000000000    0.5950800000000001 C
   0.9412450000000000    0.4531050000000000    0.5648900000000000 C
   0.8908150000000000    0.4008600000000000    0.5238100000000000 C
   0.9234800000000001    0.4339400000000000    0.5130900000000000 C
   0.8957200000000001    0.4032050000000000    0.6373000000000000 C
   0.8764250000000000    0.3856350000000000    0.5857500000000000 C
   0.9277200000000000    0.4373100000000000    0.6271500000000000 C
   0.9249700000000001    0.6606300000000001    0.7139300000000000 C
   0.9278700000000000    0.6224149999999999    0.6183300000000000 C
   0.8777150000000000    0.7039500000000000    0.6973000000000000 C
   0.8804500000000000    0.6659300000000000    0.6016500000000000 C
   0.8440400000000000    0.6517450000000000    0.4493000000000000 C
   0.8577850000000000    0.6682200000000000    0.5403800000000000 C
   0.8499600000000000    0.5710250000000000    0.2857300000000000 C
   0.8932650000000000    0.5811750000000000    0.3727000000000000 C
   0.8043549999999999    0.6164100000000000    0.3021000000000000 C
   0.8469150000000000    0.6259049999999999    0.3899400000000000 C
   0.0527700000000000    0.5438499999999999    0.3164000000000000 C
   0.0601800000000000    0.5528150000000001    0.5541300000000000 C
   0.1588700000000000    0.6497250000000000    0.4048900000000000 C
   0.0587750000000000    0.5468800000000000    0.4350900000000000 C
   0.1092050000000000    0.5991250000000000    0.4761700000000000 C
   0.0765400000000000    0.5660499999999999    0.4868900000000000 C
   0.1042950000000000    0.5967850000000000    0.3626400000000000 C
   0.1235950000000000    0.6143600000000000    0.4142300000000000 C
   0.0722950000000000    0.5626850000000000    0.3728200000000000 C
   0.8398099999999999    0.5749100000000000    0.7859000000000000 C
   0.8777850000000000    0.5720250000000000    0.8815400000000000 C
   0.7963350000000000    0.6220100000000000    0.8027500000000000 C
   0.8340900000000000    0.6192600000000000    0.8985100000000000 C
   0.8479950000000001    0.6556550000000000    0.0510300000000000 C
   0.8316049999999999    0.6418450000000000    0.9599299999999999 C
   0.9287650000000001    0.6504099999999999    0.2140900000000000 C
   0.9187850000000000    0.6066650000000000    0.1272400000000000 C
   0.8832450000000001    0.6959500000000001    0.1979100000000000 C
   0.8738750000000000    0.6529600000000000    0.1102400000000000 C
   0.9569400000000000    0.4463350000000000    0.1836100000000000 C
   0.9473700000000000    0.4396600000000000    0.9458100000000000 C
   0.8502600000000000    0.3411100000000000    0.0950500000000000 C
   0.9535250000000000    0.4407550000000000    0.0648000000000000 C
   0.9009900000000000    0.3906450000000000    0.0237600000000000 C
   0.9341650000000000    0.4232050000000000    0.0130500000000000 C
   0.9036850000000001    0.3951950000000000    0.1372900000000000 C
   0.8858300000000000    0.3761800000000000    0.0857000000000000 C
   0.9379100000000000    0.4270600000000000    0.1271300000000000 C
   0.1602050000000000    0.4250800000000000    0.2140700000000000 C
   0.1222300000000000    0.4279650000000000    0.1184400000000000 C
   0.2036800000000000    0.3779800000000000    0.1972200000000000 C
   0.1659250000000000    0.3807300000000000    0.1014600000000000 C
   0.1520200000000000    0.3443350000000000    0.9489500000000000 C
   0.1684100000000000    0.3581450000000000    0.0400500000000000 C
   0.0712450000000000    0.3495750000000000    0.7858900000000000 C
   0.0812250000000000    0.3933200000000000    0.8727000000000000 C
   0.1167650000000000    0.3040350000000000    0.8020699999999999 C
   0.1261350000000000    0.3470300000000000    0.8897400000000000 C
   0.0430800000000000    0.5536449999999999    0.8163600000000000 C
   0.0526500000000000    0.5603250000000000    0.0541000000000000 C
   0.1497600000000000    0.6588750000000000    0.9049199999999999 C
   0.0464900000000000    0.5592350000000000    0.9351100000000000 C
   0.0963300000000000    0.6047950000000000    0.8626000000000000 C
   0.0990250000000000    0.6093500000000001    0.9762200000000000 C
   0.0658450000000000    0.5767949999999999    0.9869200000000000 C
   0.1141850000000000    0.6238150000000000    0.9142800000000000 C
   0.0621100000000000    0.5729299999999999    0.8728000000000000 C
   0.8398099999999999    0.0749100000000000    0.7859000000000000 C
   0.8777850000000000    0.0720250000000000    0.8815400000000000 C
   0.7963350000000000    0.1220100000000000    0.8027500000000000 C
   0.8340900000000000    0.1192600000000000    0.8985100000000000 C
   0.8479950000000001    0.1556550000000000    0.0510300000000000 C
   0.8316049999999999    0.1418450000000000    0.9599299999999999 C
   0.9287650000000001    0.1504100000000000    0.2140900000000000 C
   0.9187850000000000    0.1066650000000000    0.1272400000000000 C
   0.8832450000000001    0.1959500000000000    0.1979100000000000 C
   0.8738750000000000    0.1529600000000000    0.1102400000000000 C
   0.9569400000000000    0.9463349999999999    0.1836100000000000 C
   0.9473700000000000    0.9396599999999999    0.9458100000000000 C
   0.8502600000000000    0.8411100000000000    0.0950500000000000 C
   0.9535250000000000    0.9407550000000000    0.0648000000000000 C
   0.9009900000000000    0.8906450000000000    0.0237600000000000 C
   0.9341650000000000    0.9232050000000001    0.0130500000000000 C
   0.9036850000000001    0.8951950000000000    0.1372900000000000 C
   0.8858300000000000    0.8761800000000000    0.0857000000000000 C
   0.9379100000000000    0.9270600000000000    0.1271300000000000 C
   0.1602050000000000    0.9250800000000000    0.2140700000000000 C
   0.1222300000000000    0.9279649999999999    0.1184400000000000 C
   0.2036800000000000    0.8779800000000000    0.1972200000000000 C
   0.1659250000000000    0.8807300000000000    0.1014600000000000 C
   0.1520200000000000    0.8443350000000001    0.9489500000000000 C
   0.1684100000000000    0.8581449999999999    0.0400500000000000 C
   0.0712450000000000    0.8495750000000000    0.7858900000000000 C
   0.0812250000000000    0.8933200000000000    0.8727000000000000 C
   0.1167650000000000    0.8040350000000001    0.8020699999999999 C
   0.1261350000000000    0.8470299999999999    0.8897400000000000 C
   0.0430800000000000    0.0536450000000000    0.8163600000000000 C
   0.0526500000000000    0.0603250000000000    0.0541000000000000 C
   0.1497600000000000    0.1588750000000000    0.9049199999999999 C
   0.0464900000000000    0.0592350000000000    0.9351100000000000 C
   0.0963300000000000    0.1047950000000000    0.8626000000000000 C
   0.0990250000000000    0.1093500000000000    0.9762200000000000 C
   0.0658450000000000    0.0767950000000000    0.9869200000000000 C
   0.1141850000000000    0.1238150000000000    0.9142800000000000 C
   0.0621100000000000    0.0729300000000000    0.8728000000000000 C
   0.5750500000000001    0.8393600000000000    0.2860400000000000 C
   0.5721550000000000    0.8775700000000000    0.3816400000000000 C
   0.6223050000000000    0.7960400000000001    0.3026400000000000 C
   0.6195750000000000    0.8340550000000000    0.3983200000000000 C
   0.6559800000000000    0.8482400000000000    0.5506700000000000 C
   0.6422350000000000    0.8317650000000000    0.4595900000000000 C
   0.6500600000000000    0.9289550000000000    0.7142500000000001 C
   0.6067550000000000    0.9188050000000000    0.6272799999999999 C
   0.6956599999999999    0.8835700000000000    0.6978000000000000 C
   0.6531050000000000    0.8740749999999999    0.6100400000000000 C
   0.4472500000000000    0.9561400000000000    0.6835800000000000 C
   0.4398400000000000    0.9471700000000001    0.4458500000000000 C
   0.3411450000000000    0.8502650000000000    0.5950800000000001 C
   0.4412450000000000    0.9531050000000000    0.5648900000000000 C
   0.3908150000000000    0.9008600000000000    0.5238100000000000 C
   0.4234800000000000    0.9339400000000000    0.5130900000000000 C
   0.3957200000000000    0.9032050000000000    0.6373000000000000 C
   0.3764250000000000    0.8856350000000000    0.5857500000000000 C
   0.4277200000000000    0.9373100000000000    0.6271500000000000 C
   0.4249700000000000    0.1606300000000000    0.7139300000000000 C
   0.4278700000000000    0.1224150000000000    0.6183300000000000 C
   0.3777150000000000    0.2039500000000000    0.6973000000000000 C
   0.3804500000000000    0.1659300000000000    0.6016500000000000 C
   0.3440400000000000    0.1517450000000000    0.4493000000000000 C
   0.3577850000000000    0.1682200000000000    0.5403800000000000 C
   0.3499600000000000    0.0710250000000000    0.2857300000000000 C
   0.3932650000000000    0.0811750000000000    0.3727000000000000 C
   0.3043550000000000    0.1164100000000000    0.3021000000000000 C
   0.3469150000000000    0.1259050000000000    0.3899400000000000 C
   0.5527700000000000    0.0438500000000000    0.3164000000000000 C
   0.5601800000000000    0.0528150000000000    0.5541300000000000 C
   0.6588700000000001    0.1497250000000000    0.4048900000000000 C
   0.5587750000000000    0.0468800000000000    0.4350900000000000 C
   0.6092050000000000    0.0991250000000000    0.4761700000000000 C
   0.5765400000000001    0.0660500000000000    0.4868900000000000 C
   0.6042950000000000    0.0967850000000000    0.3626400000000000 C
   0.6235950000000000    0.1143600000000000    0.4142300000000000 C
   0.5722950000000000    0.0626850000000000    0.3728200000000000 C
   0.0750500000000000    0.8393600000000000    0.2860400000000000 C
   0.0721550000000000    0.8775700000000000    0.3816400000000000 C
   0.1223050000000000    0.7960400000000001    0.3026400000000000 C
   0.1195750000000000    0.8340550000000000    0.3983200000000000 C
   0.1559800000000000    0.8482400000000000    0.5506700000000000 C
   0.1422350000000000    0.8317650000000000    0.4595900000000000 C
   0.1500600000000000    0.9289550000000000    0.7142500000000001 C
   0.1067550000000000    0.9188050000000000    0.6272799999999999 C
   0.1956600000000000    0.8835700000000000    0.6978000000000000 C
   0.1531050000000000    0.8740749999999999    0.6100400000000000 C
   0.9472499999999999    0.9561400000000000    0.6835800000000000 C
   0.9398400000000000    0.9471700000000001    0.4458500000000000 C
   0.8411450000000000    0.8502650000000000    0.5950800000000001 C
   0.9412450000000000    0.9531050000000000    0.5648900000000000 C
   0.8908150000000000    0.9008600000000000    0.5238100000000000 C
   0.9234800000000001    0.9339400000000000    0.5130900000000000 C
   0.8957200000000001    0.9032050000000000    0.6373000000000000 C
   0.8764250000000000    0.8856350000000000    0.5857500000000000 C
   0.9277200000000000    0.9373100000000000    0.6271500000000000 C
   0.9249700000000001    0.1606300000000000    0.7139300000000000 C
   0.9278700000000000    0.1224150000000000    0.6183300000000000 C
   0.8777150000000000    0.2039500000000000    0.6973000000000000 C
   0.8804500000000000    0.1659300000000000    0.6016500000000000 C
   0.8440400000000000    0.1517450000000000    0.4493000000000000 C
   0.8577850000000000    0.1682200000000000    0.5403800000000000 C
   0.8499600000000000    0.0710250000000000    0.2857300000000000 C
   0.8932650000000000    0.0811750000000000    0.3727000000000000 C
   0.8043549999999999    0.1164100000000000    0.3021000000000000 C
   0.8469150000000000    0.1259050000000000    0.3899400000000000 C
   0.0527700000000000    0.0438500000000000    0.3164000000000000 C
   0.0601800000000000    0.0528150000000000    0.5541300000000000 C
   0.1588700000000000    0.1497250000000000    0.4048900000000000 C
   0.0587750000000000    0.0468800000000000    0.4350900000000000 C
   0.1092050000000000    0.0991250000000000    0.4761700000000000 C
   0.0765400000000000    0.0660500000000000    0.4868900000000000 C
   0.1042950000000000    0.0967850000000000    0.3626400000000000 C
   0.1235950000000000    0.1143600000000000    0.4142300000000000 C
   0.0722950000000000    0.0626850000000000    0.3728200000000000 C
   0.3398100000000000    0.5749100000000000    0.7859000000000000 C
   0.3777850000000000    0.5720250000000000    0.8815400000000000 C
   0.2963350000000000    0.6220100000000000    0.8027500000000000 C
   0.3340900000000000    0.6192600000000000    0.8985100000000000 C
   0.3479950000000000    0.6556550000000000    0.0510300000000000 C
   0.3316050000000000    0.6418450000000000    0.9599299999999999 C
   0.4287650000000000    0.6504099999999999    0.2140900000000000 C
   0.4187850000000000    0.6066650000000000    0.1272400000000000 C
   0.3832450000000000    0.6959500000000001    0.1979100000000000 C
   0.3738750000000000    0.6529600000000000    0.1102400000000000 C
   0.4569400000000000    0.4463350000000000    0.1836100000000000 C
   0.4473700000000000    0.4396600000000000    0.9458100000000000 C
   0.3502600000000000    0.3411100000000000    0.0950500000000000 C
   0.4535250000000000    0.4407550000000000    0.0648000000000000 C
   0.4009900000000000    0.3906450000000000    0.0237600000000000 C
   0.4341650000000000    0.4232050000000000    0.0130500000000000 C
   0.4036850000000000    0.3951950000000000    0.1372900000000000 C
   0.3858300000000000    0.3761800000000000    0.0857000000000000 C
   0.4379100000000000    0.4270600000000000    0.1271300000000000 C
   0.6602049999999999    0.4250800000000000    0.2140700000000000 C
   0.6222300000000001    0.4279650000000000    0.1184400000000000 C
   0.7036800000000000    0.3779800000000000    0.1972200000000000 C
   0.6659250000000000    0.3807300000000000    0.1014600000000000 C
   0.6520200000000000    0.3443350000000000    0.9489500000000000 C
   0.6684099999999999    0.3581450000000000    0.0400500000000000 C
   0.5712450000000000    0.3495750000000000    0.7858900000000000 C
   0.5812250000000000    0.3933200000000000    0.8727000000000000 C
   0.6167650000000000    0.3040350000000000    0.8020699999999999 C
   0.6261350000000000    0.3470300000000000    0.8897400000000000 C