H9 O6
1.0
  25.9679744733348841    0.0000000000000000    1.9083358593884594
   8.8091692833323521   24.2827789525540680    1.9127955664395999
   0.0000000000000000    0.0000000000000000   21.1170000000000009
H O
9 6
direct
   0.4334902786981938    0.1381022973442392    0.2044169149439880 H
   0.3509974088447973    0.0681224419750752    0.7967282932950134 H
   0.3785461498094086    0.0661519304829581    0.8664673543914637 H
   0.3228960960369214    0.1263243823283340    0.8874914971230795 H
   0.2869884243761850    0.1412015736796023    0.8141220632649090 H
   0.3688151004155317    0.1651212966996320    0.1200391881473375 H
   0.3000326128868488    0.2104907980482101    1.0161492151367273 H
   0.3356454132511401    0.1675845985654330    0.0465261793487769 H
   0.3208814742656410    0.1550761470675896    0.9642205125448791 H
   0.4459650000000000    0.1056100000000000    0.1788800000000000 O
   0.3806200000000000    0.0501500000000000    0.8254000000000000 O
   0.2935650000000000    0.1448350000000000    0.8586200000000000 O
   0.3554100000000000    0.1973400000000000    0.1460000000000000 O
   0.3033000000000000    0.1988300000000000    0.0347300000000000 O
   0.2926900000000000    0.1898600000000000    0.9755000000000000 O
