H8 O4
1.0
  15.7499999976011384    0.0000000000000000    0.0002748893571754
  -7.8659055682606516   13.6428381767013960    0.0002748544505904
   0.0000000000000000    0.0000000000000000   16.4140000000000015
H O
8 4
direct
   0.0570266531873064    0.6700531772355588    0.5611457942916143 H
   0.0667909843510147    0.7202463275702126    0.5449756404295573 H
   0.1338527003501599    0.2876564648603757    0.8371437606821299 H
   0.1199184944545751    0.3500685917781621    0.8721921543767096 H
   0.7090124494056429    0.4206857962949842    0.2413283316506734 H
   0.8379401968470422    0.4529958052251931    0.2574241926626394 H
   0.8515017746358842    0.3831312886351452    0.1165188891356553 H
   0.8011011286679545    0.3678749462648228    0.0275358032732561 H
   0.0908800000000000    0.7077800000000000    0.6097600000000000 O
   0.1563800000000000    0.3401200000000000    0.8285400000000001 O
   0.7718600000000000    0.4429100000000000    0.2501400000000000 O
   0.7859400000000000    0.3648200000000000    0.0967200000000000 O
