Zn2 Ag6 H45 C85 N10 O10
1.0
  15.7499999976011384    0.0000000000000000    0.0002748893571754
  -7.8659055682606516   13.6428381767013960    0.0002748544505904
   0.0000000000000000    0.0000000000000000   16.4140000000000015
Zn Ag H C N O
2 6 45 85 10 10
direct
   0.6666666666666666    0.3332500000000000    0.1696900000000000 Zn
   0.3333333333333333    0.6666666666666666    0.8303100000000000 Zn
   0.8465600000000000    0.2649800000000000    0.2676000000000000 Ag
   0.4183900000000000    0.1533800000000000    0.2676200000000000 Ag
   0.7349300000000000    0.5815800000000000    0.2675900000000000 Ag
   0.1533400000000000    0.7350100000000001    0.7320000000000000 Ag
   0.5815700000000000    0.8465900000000000    0.7323600000000000 Ag
   0.2650200000000000    0.4184200000000000    0.7323000000000000 Ag
   0.0170300000000000    0.5515800000000000    0.7851800000000000 H
   0.1565900000000000    0.6308100000000000    0.0352000000000000 H
   0.9529400000000000    0.6143100000000000    0.8524100000000000 H
   0.0525100000000000    0.6452900000000000    0.1434800000000000 H
   0.8495700000000000    0.6279400000000001    0.9581900000000000 H
   0.2221100000000000    0.5167100000000000    0.6085600000000000 H
   0.9406800000000000    0.4544500000000000    0.7015600000000000 H
   0.1426300000000000    0.4250500000000000    0.4821900000000000 H
   0.8618300000000000    0.3671700000000000    0.5755600000000000 H
   0.5344700000000000    0.9829200000000000    0.7851500000000000 H
   0.4743000000000000    0.8434400000000000    0.0352000000000000 H
   0.6612600000000000    0.0469800000000000    0.8524000000000000 H
   0.5927800000000000    0.9474800000000000    0.1434800000000000 H
   0.7781900000000000    0.1503200000000000    0.9581600000000000 H
   0.2946000000000000    0.7778500000000000    0.6086300000000000 H
   0.5136500000000001    0.0592400000000000    0.7015400000000001 H
   0.2824200000000000    0.8573499999999999    0.4822200000000000 H
   0.5052200000000000    0.1381000000000000    0.5755000000000000 H
   0.4484200000000000    0.4654100000000000    0.7851500000000000 H
   0.3691500000000000    0.5257600000000000    0.0352400000000000 H
   0.3857000000000000    0.3386300000000000    0.8524100000000000 H
   0.3546600000000000    0.4072000000000000    0.1434800000000000 H
   0.3720600000000000    0.2216200000000000    0.9581900000000000 H
   0.4832200000000000    0.7054200000000000    0.6086100000000000 H
   0.5455400000000000    0.4861800000000000    0.7015300000000000 H
   0.5749300000000001    0.7176000000000000    0.4822400000000000 H
   0.6328600000000000    0.4946200000000000    0.5755300000000000 H
   0.4654800000000000    0.0170400000000000    0.2148500000000000 H
   0.5256700000000000    0.1565100000000000    0.9647400000000000 H
   0.3386900000000000    0.9529700000000000    0.1470000000000000 H
   0.4071800000000000    0.0524800000000000    0.8565199999999999 H
   0.2217500000000000    0.8496500000000000    0.0418000000000000 H
   0.7053500000000000    0.2221200000000000    0.3913900000000000 H
   0.4862600000000000    0.9407500000000000    0.2984800000000000 H
   0.7175400000000000    0.1426100000000000    0.5177800000000000 H
   0.4947000000000000    0.8618700000000000    0.4245000000000000 H
   0.5515600000000001    0.5345500000000000    0.2148600000000000 H
   0.6308000000000000    0.4742100000000000    0.9647700000000000 H
   0.6143100000000000    0.6613599999999999    0.1476200000000000 H
   0.6452500000000000    0.5927600000000000    0.8565000000000000 H
   0.6279300000000000    0.7783700000000000    0.0418000000000000 H
   0.5167300000000000    0.2945200000000000    0.3913800000000000 H
   0.4544200000000000    0.5137699999999999    0.2984800000000000 H
   0.4250300000000000    0.2823400000000000    0.5177000000000000 H
   0.3671100000000000    0.5053500000000000    0.4244900000000000 H
   0.1408400000000000    0.5437600000000000    0.7402400000000000 C
   0.0937200000000000    0.5756700000000000    0.7969800000000000 C
   0.1285400000000000    0.6113200000000000    0.8774600000000000 C
   0.0617900000000000    0.6194600000000000    0.9369800000000000 C
   0.0889600000000000    0.6300700000000000    0.0198700000000000 C
   0.9746800000000000    0.6192500000000000    0.9160199999999999 C
   0.0315300000000000    0.6383600000000000    0.0795400000000000 C
   0.9165300000000000    0.6280300000000000    0.9749100000000001 C
   0.9442500000000000    0.6377500000000000    0.0578500000000000 C
   0.8873600000000000    0.6479400000000000    0.1190700000000000 C
   0.0882900000000000    0.4921000000000000    0.6651800000000000 C
   0.1431000000000000    0.4825100000000000    0.6010600000000000 C
   0.9860700000000000    0.4494900000000000    0.6538000000000000 C
   0.0989300000000000    0.4319800000000000    0.5304100000000000 C
   0.9406900000000000    0.3992900000000000    0.5832100000000000 C
   0.9963000000000000    0.3889800000000000    0.5201300000000000 C
   0.9496900000000000    0.3375100000000000    0.4486200000000000 C
   0.4029000000000000    0.8591500000000000    0.7402800000000000 C
   0.4819000000000000    0.9062400000000000    0.7969900000000000 C
   0.4827600000000000    0.8714499999999999    0.8774900000000000 C
   0.5576500000000000    0.9381900000000000    0.9369800000000000 C
   0.5411300000000000    0.9110400000000000    0.0198700000000000 C
   0.6444600000000000    0.0252400000000000    0.9160100000000000 C
   0.6068200000000000    0.9684600000000000    0.0795300000000000 C
   0.7113699999999999    0.0833800000000000    0.9748900000000000 C
   0.6934000000000000    0.0556800000000000    0.0578300000000000 C
   0.7604400000000000    0.1125800000000000    0.1190500000000000 C
   0.4037800000000000    0.9116900000000000    0.6651899999999999 C
   0.3394000000000000    0.8568600000000000    0.6011000000000000 C
   0.4633200000000000    0.0138600000000000    0.6538300000000000 C
   0.3330400000000000    0.9010300000000000    0.5304300000000000 C
   0.4585000000000000    0.0592500000000000    0.5831800000000000 C
   0.3926100000000000    0.0036300000000000    0.5201200000000000 C
   0.3877400000000000    0.0502400000000000    0.4486000000000000 C
   0.4561700000000000    0.5970299999999999    0.7402500000000000 C
   0.4243300000000000    0.5180399999999999    0.7969900000000000 C
   0.3886800000000000    0.5172099999999999    0.8774700000000000 C
   0.3805500000000000    0.4423200000000000    0.9369000000000000 C
   0.3699100000000000    0.4588800000000000    0.0198700000000000 C
   0.3807500000000000    0.3554300000000000    0.9160199999999999 C
   0.3616200000000000    0.3931600000000000    0.0795400000000000 C
   0.3719800000000000    0.2885000000000000    0.9749100000000001 C
   0.3622200000000000    0.3064900000000000    0.0578500000000000 C
   0.3520400000000000    0.2394200000000000    0.1190700000000000 C
   0.5078500000000000    0.5961500000000000    0.6651800000000000 C
   0.5174100000000000    0.6605700000000000    0.6010900000000000 C
   0.5504900000000000    0.5365400000000000    0.6538300000000000 C
   0.5679800000000000    0.6669400000000000    0.5304400000000000 C
   0.6007200000000000    0.5413700000000000    0.5831900000000000 C
   0.6110000000000000    0.6073000000000000    0.5201400000000000 C
   0.6624900000000000    0.6121799999999999    0.4486200000000000 C
   0.5970299999999999    0.1408300000000000    0.2597400000000000 C
   0.5180600000000000    0.0937200000000000    0.2030000000000000 C
   0.5171900000000000    0.1285000000000000    0.1225100000000000 C
   0.4423000000000000    0.0617700000000000    0.0630200000000000 C
   0.4588400000000000    0.0889100000000000    0.9801200000000000 C
   0.3554900000000000    0.9747100000000000    0.0839800000000000 C
   0.3931400000000000    0.0315100000000000    0.9204599999999999 C
   0.2885800000000000    0.9165900000000000    0.0251000000000000 C
   0.3065500000000000    0.9442800000000000    0.9421600000000000 C
   0.2394800000000000    0.8874100000000000    0.8809500000000000 C
   0.5961500000000000    0.0883000000000000    0.3348200000000000 C
   0.6605400000000000    0.1431100000000000    0.3989100000000000 C
   0.5365900000000000    0.9861200000000000    0.3461800000000000 C
   0.6669100000000000    0.0989300000000000    0.4695000000000000 C
   0.5414099999999999    0.9407300000000000    0.4168300000000000 C
   0.6073300000000000    0.9963300000000000    0.4798800000000000 C
   0.6122000000000000    0.9497100000000001    0.5513900000000000 C
   0.5437600000000000    0.4029100000000000    0.2597500000000000 C
   0.5756599999999999    0.4819300000000000    0.2030400000000000 C
   0.6113200000000000    0.4827600000000000    0.1225500000000000 C
   0.6194700000000000    0.5576700000000000    0.0630000000000000 C
   0.6300300000000000    0.5410800000000000    0.9801500000000000 C
   0.6192200000000000    0.6445400000000000    0.0840000000000000 C
   0.6383300000000000    0.6068100000000000    0.9204800000000000 C
   0.6280100000000000    0.7114900000000000    0.0251200000000000 C
   0.6377100000000000    0.6934600000000000    0.9421800000000000 C
   0.6479100000000000    0.7605499999999999    0.8809500000000000 C
   0.4920800000000000    0.4037900000000000    0.3348100000000000 C
   0.4825200000000000    0.3393700000000000    0.3989000000000000 C
   0.4494700000000000    0.4634100000000000    0.3461800000000000 C
   0.4319800000000000    0.3330000000000000    0.4695600000000000 C
   0.3992600000000000    0.4586000000000000    0.4168000000000000 C
   0.3889500000000000    0.3926400000000000    0.4798700000000000 C
   0.3374700000000000    0.3877600000000000    0.5513800000000000 C
   0.9090300000000000    0.2922400000000000    0.3902500000000000 N
   0.8436300000000000    0.6599600000000000    0.1714500000000000 N
   0.3830800000000000    0.0909000000000000    0.3902200000000000 N
   0.8161200000000000    0.1563300000000000    0.1714400000000000 N
   0.7078100000000001    0.6168500000000000    0.3902500000000000 N
   0.3400300000000000    0.1837000000000000    0.1714700000000000 N
   0.6168200000000000    0.9090000000000000    0.6097500000000000 N
   0.1837600000000000    0.8437000000000000    0.8285700000000000 N
   0.2922100000000000    0.3831300000000000    0.6097800000000000 N
   0.6598800000000000    0.8162400000000000    0.8285000000000000 N
   0.2281200000000000    0.5570800000000000    0.7498600000000000 O
   0.2140300000000000    0.6351800000000000    0.9033000000000000 O
   0.3289500000000000    0.7719100000000000    0.7499100000000000 O
   0.4211600000000000    0.7859699999999999    0.9033000000000000 O
   0.4428500000000000    0.6710100000000000    0.7498899999999999 O
   0.3647900000000000    0.5788600000000000    0.9033000000000000 O
   0.6709700000000000    0.2281000000000000    0.2501000000000000 O
   0.5787900000000000    0.2139800000000000    0.0966500000000000 O
   0.5570700000000000    0.3289200000000000    0.2501000000000000 O
   0.6351400000000000    0.4210900000000000    0.0966800000000000 O
