H3 O2
1.0
  14.6469999196888363    0.0000000000000000   -0.0015338302504326
  -0.0014531866263628   20.8169999207427097    0.0010899755706634
   0.0000000000000000    0.0000000000000000   16.5960000000000001
H O
3 2
direct
   0.9357859623310303    0.9394072275693228    0.8435042369844951 H
   0.9044752937734960    0.8899209535980299    0.7760287981520491 H
   0.7074732949393886    0.9616009375517383    0.8350302183687384 H
   0.9164099999999999    0.9352900000000000    0.7873100000000000 O
   0.6487500000000000    0.9836100000000000    0.8297000000000000 O
