H4 O2
1.0
  21.1888668055021547    0.0000000000000000    6.6836702116942366
   9.2569353511859784   25.9887102401443215    7.6980680665853454
   0.0000000000000000    0.0000000000000000   36.7460000000000022
H O
4 2
direct
   0.7327451351728792    0.0318134249047430    0.5458158659762468 H
   0.7505194956919424    0.0733250422250978    0.5110026781318820 H
   0.2672548648271208    0.9682015750952571    0.4541641340237532 H
   0.2494831688047836    0.9266903952501344    0.4889793378397984 H
   0.7149500000000000    0.0674850000000000    0.5331500000000000 O
   0.2850500000000000    0.9325300000000001    0.4668300000000000 O
