Cu64 H438 W32 C434 N124 O2
1.0
  21.1888668055021547    0.0000000000000000    6.6836702116942366
   9.2569353511859784   25.9887102401443215    7.6980680665853454
   0.0000000000000000    0.0000000000000000   36.7460000000000022
Cu H W C N O
64 438 32 434 124 2
direct
   0.7046400000000000    0.8704600000000000    0.3011250000000000 Cu
   0.8766500000000000    0.8798300000000000    0.9486300000000000 Cu
   0.2953600000000000    0.6295500000000001    0.1988600000000000 Cu
   0.1233500000000000    0.6201800000000000    0.5513550000000000 Cu
   0.7046400000000000    0.3704600000000000    0.8011250000000000 Cu
   0.8766500000000000    0.3798300000000000    0.4486300000000000 Cu
   0.2953600000000000    0.1295500000000000    0.6988600000000000 Cu
   0.1233500000000000    0.1201800000000000    0.0513550000000000 Cu
   0.2046300000000000    0.8704650000000000    0.3011250000000000 Cu
   0.3766400000000000    0.8798400000000000    0.9486250000000001 Cu
   0.7953700000000000    0.6295450000000000    0.1988600000000000 Cu
   0.6233600000000000    0.6201750000000000    0.5513550000000000 Cu
   0.2046300000000000    0.3704650000000000    0.8011250000000000 Cu
   0.3766400000000000    0.3798400000000000    0.4486250000000000 Cu
   0.7953700000000000    0.1295450000000000    0.6988600000000000 Cu
   0.6233600000000000    0.1201750000000000    0.0513550000000000 Cu
   0.9537400000000000    0.6242700000000000    0.1207500000000000 Cu
   0.9537400000000000    0.1242700000000000    0.6207500000000000 Cu
   0.0462600000000000    0.8757400000000000    0.3792300000000000 Cu
   0.0462600000000000    0.3757400000000000    0.8792300000000000 Cu
   0.5462600000000000    0.3757400000000000    0.8792350000000000 Cu
   0.5462600000000000    0.8757400000000000    0.3792350000000000 Cu
   0.4537400000000000    0.6242700000000000    0.1207500000000000 Cu
   0.4537400000000000    0.1242700000000000    0.6207500000000000 Cu
   0.1987500000000000    0.6255050000000000    0.6294850000000000 Cu
   0.1987500000000000    0.1255050000000000    0.1294850000000000 Cu
   0.3012300000000000    0.3745200000000000    0.3704900000000000 Cu
   0.3012300000000000    0.8745200000000000    0.8704900000000000 Cu
   0.8012400000000000    0.3745150000000000    0.3704950000000000 Cu
   0.8012400000000000    0.8745149999999999    0.8704950000000000 Cu
   0.6987700000000000    0.6254999999999999    0.6294900000000000 Cu
   0.6987700000000000    0.1255000000000000    0.1294900000000000 Cu
   0.7046400000000000    0.8704600000000000    0.8011250000000000 Cu
   0.8766500000000000    0.8798300000000000    0.4486300000000000 Cu
   0.2953600000000000    0.6295500000000001    0.6988600000000000 Cu
   0.1233500000000000    0.6201800000000000    0.0513550000000000 Cu
   0.2953600000000000    0.1295500000000000    0.1988600000000000 Cu
   0.1233500000000000    0.1201800000000000    0.5513550000000000 Cu
   0.7046400000000000    0.3704600000000000    0.3011250000000000 Cu
   0.8766500000000000    0.3798300000000000    0.9486300000000000 Cu
   0.2046300000000000    0.8704650000000000    0.8011250000000000 Cu
   0.3766400000000000    0.8798400000000000    0.4486250000000000 Cu
   0.7953700000000000    0.6295450000000000    0.6988600000000000 Cu
   0.6233600000000000    0.6201750000000000    0.0513550000000000 Cu
   0.2046300000000000    0.3704650000000000    0.3011250000000000 Cu
   0.3766400000000000    0.3798400000000000    0.9486250000000001 Cu
   0.7953700000000000    0.1295450000000000    0.1988600000000000 Cu
   0.6233600000000000    0.1201750000000000    0.5513550000000000 Cu
   0.9537400000000000    0.6242700000000000    0.6207500000000000 Cu
   0.9537400000000000    0.1242700000000000    0.1207500000000000 Cu
   0.0462600000000000    0.3757400000000000    0.3792300000000000 Cu
   0.0462600000000000    0.8757400000000000    0.8792300000000000 Cu
   0.5462600000000000    0.3757400000000000    0.3792350000000000 Cu
   0.5462600000000000    0.8757400000000000    0.8792350000000000 Cu
   0.4537400000000000    0.6242700000000000    0.6207500000000000 Cu
   0.4537400000000000    0.1242700000000000    0.1207500000000000 Cu
   0.1987500000000000    0.6255050000000000    0.1294850000000000 Cu
   0.1987500000000000    0.1255050000000000    0.6294850000000000 Cu
   0.3012300000000000    0.3745200000000000    0.8704900000000000 Cu
   0.3012300000000000    0.8745200000000000    0.3704900000000000 Cu
   0.8012400000000000    0.8745149999999999    0.3704950000000000 Cu
   0.8012400000000000    0.3745150000000000    0.8704950000000000 Cu
   0.6987700000000000    0.6254999999999999    0.1294900000000000 Cu
   0.6987700000000000    0.1255000000000000    0.6294900000000000 Cu
   0.9329600000000000    0.9161400000000000    0.2107300000000000 H
   0.8992300000000000    0.9730350000000000    0.1788250000000000 H
   0.8553300000000000    0.8696050000000000    0.2574200000000000 H
   0.6701200000000000    0.9701750000000000    0.2313600000000000 H
   0.7726600000000000    0.9987500000000000    0.1765500000000000 H
   0.9180600000000000    0.9707399999999999    0.1117000000000000 H
   0.9708100000000000    0.9222500000000000    0.0574000000000000 H
   0.0000200000000000    0.7794000000000000    0.1386700000000000 H
   0.9496599999999999    0.8278950000000000    0.1929700000000000 H
   0.0512600000000000    0.7771100000000000    0.0715850000000000 H
   0.0599400000000000    0.8339850000000000    0.0397850000000000 H
   0.9825800000000000    0.8806250000000000    0.9927900000000001 H
   0.8725800000000000    0.7799950000000000    0.0182000000000000 H
   0.9485700000000000    0.7514200000000000    0.0733550000000000 H
   0.3377500000000000    0.7541900000000000    0.2952100000000000 H
   0.3860400000000000    0.6879999999999999    0.3001200000000000 H
   0.3544400000000000    0.6389350000000000    0.2678800000000000 H
   0.3319100000000000    0.7936050000000000    0.2143600000000000 H
   0.2890700000000000    0.7484950000000000    0.1729400000000000 H
   0.4845800000000000    0.6879500000000001    0.2204500000000000 H
   0.5888500000000000    0.7086200000000000    0.1971900000000000 H
   0.5154200000000000    0.8120700000000001    0.2795350000000000 H
   0.4111500000000000    0.7913950000000001    0.3027950000000000 H
   0.6622400000000001    0.7458300000000000    0.2047700000000000 H
   0.6139600000000000    0.8120149999999999    0.1998650000000000 H
   0.6455600000000000    0.8610750000000000    0.2321000000000000 H
   0.6680900000000000    0.7064049999999999    0.2856250000000000 H
   0.7109300000000000    0.7515149999999999    0.3270450000000000 H
   0.0670400000000000    0.5838750000000000    0.2892550000000000 H
   0.1007700000000000    0.5269800000000000    0.3211600000000000 H
   0.1446700000000000    0.6304100000000000    0.2425650000000000 H
   0.3298800000000000    0.5298350000000001    0.2686250000000000 H
   0.2273400000000000    0.5012600000000000    0.3234100000000000 H
   0.9999700000000000    0.7206150000000000    0.3613000000000000 H
   0.0503300000000000    0.6721250000000000    0.3070150000000000 H
   0.0819500000000000    0.5292750000000001    0.3882850000000000 H
   0.0292000000000000    0.5777650000000000    0.4425850000000000 H
   0.9487300000000000    0.7229050000000000    0.4284050000000000 H
   0.9400500000000001    0.6660300000000000    0.4602050000000000 H
   0.0174200000000000    0.6193900000000000    0.5071950000000000 H
   0.1274100000000000    0.7200200000000000    0.4817850000000000 H
   0.0514300000000000    0.7485999999999999    0.4266350000000000 H
   0.6133300000000000    0.0000000000000000    0.0450800000000000 H
   0.6266600000000000    0.9378700000000000    0.0498250000000000 H
   0.7394900000000000    0.8890150000000000    0.0174850000000000 H
   0.6598700000000000    0.0437900000000000    0.9641999999999999 H
   0.7892100000000000    0.9989100000000000    0.9227750000000000 H
   0.6070200000000000    0.9381550000000001    0.9701850000000001 H
   0.5049700000000000    0.9588600000000000    0.9471200000000000 H
   0.3929800000000000    0.0618600000000000    0.0298000000000000 H
   0.4950400000000000    0.0411550000000000    0.0528650000000000 H
   0.3866700000000000    0.9959700000000000    0.9549000000000001 H
   0.3733500000000000    0.0621450000000000    0.9501600000000000 H
   0.2605100000000000    0.1110000000000000    0.9824999999999999 H
   0.3401300000000000    0.9562250000000000    0.0357400000000000 H
   0.2107900000000000    0.0000000000000000    0.0772050000000000 H
   0.6133300000000000    0.5000000000000000    0.5450800000000000 H
   0.6266600000000000    0.4378700000000000    0.5498250000000000 H
   0.7394900000000000    0.3890150000000000    0.5174850000000000 H
   0.6598700000000000    0.5437900000000000    0.4642000000000000 H
   0.7892100000000000    0.4989100000000000    0.4227750000000000 H
   0.6070200000000000    0.4381550000000000    0.4701850000000000 H
   0.5049700000000000    0.4588600000000000    0.4471200000000000 H
   0.3929800000000000    0.5618600000000000    0.5298000000000000 H
   0.4950400000000000    0.5411550000000001    0.5528650000000001 H
   0.3866700000000000    0.4959700000000000    0.4549000000000000 H
   0.3733500000000000    0.5621450000000000    0.4501600000000000 H
   0.2605100000000000    0.6110000000000000    0.4825000000000000 H
   0.3401300000000000    0.4562250000000000    0.5357400000000000 H
   0.2107900000000000    0.5000000000000000    0.5772050000000000 H
   0.9329600000000000    0.4161400000000000    0.7107300000000000 H
   0.8992300000000000    0.4730350000000000    0.6788250000000000 H
   0.8553300000000000    0.3696050000000000    0.7574200000000000 H
   0.6701200000000000    0.4701750000000000    0.7313600000000000 H
   0.7726600000000000    0.4987500000000000    0.6765500000000000 H
   0.9180600000000000    0.4707400000000000    0.6117000000000000 H
   0.9708100000000000    0.4222500000000000    0.5574000000000000 H
   0.0000200000000000    0.2794000000000000    0.6386700000000000 H
   0.9496599999999999    0.3278950000000000    0.6929700000000000 H
   0.0512600000000000    0.2771100000000000    0.5715850000000000 H
   0.0599400000000000    0.3339850000000000    0.5397850000000000 H
   0.9825800000000000    0.3806250000000000    0.4927900000000000 H
   0.8725800000000000    0.2799950000000000    0.5182000000000000 H
   0.9485700000000000    0.2514200000000000    0.5733550000000001 H
   0.3377500000000000    0.2541900000000000    0.7952100000000000 H
   0.3860400000000000    0.1880000000000000    0.8001199999999999 H
   0.3544400000000000    0.1389350000000000    0.7678800000000000 H
   0.3319100000000000    0.2936050000000000    0.7143600000000000 H
   0.2890700000000000    0.2484950000000000    0.6729400000000000 H
   0.5154200000000000    0.3120700000000000    0.7795350000000000 H
   0.4111500000000000    0.2913950000000000    0.8027949999999999 H
   0.4845800000000000    0.1879500000000000    0.7204500000000000 H
   0.5888500000000000    0.2086200000000000    0.6971900000000000 H
   0.6622400000000001    0.2458300000000000    0.7047700000000000 H
   0.6139600000000000    0.3120150000000000    0.6998650000000000 H
   0.6455600000000000    0.3610750000000000    0.7321000000000000 H
   0.6680900000000000    0.2064050000000000    0.7856250000000000 H
   0.7109300000000000    0.2515150000000000    0.8270450000000000 H
   0.0670400000000000    0.0838750000000000    0.7892550000000000 H
   0.1007700000000000    0.0269800000000000    0.8211600000000000 H
   0.1446700000000000    0.1304100000000000    0.7425650000000000 H
   0.3298800000000000    0.0298350000000000    0.7686250000000000 H
   0.2273400000000000    0.0012600000000000    0.8234100000000000 H
   0.9999700000000000    0.2206150000000000    0.8613000000000000 H
   0.0503300000000000    0.1721250000000000    0.8070150000000000 H
   0.0819500000000000    0.0292750000000000    0.8882850000000000 H
   0.0292000000000000    0.0777650000000000    0.9425850000000000 H
   0.9487300000000000    0.2229050000000000    0.9284049999999999 H
   0.9400500000000001    0.1660300000000000    0.9602050000000000 H
   0.0174200000000000    0.1193900000000000    0.0071950000000000 H
   0.1274100000000000    0.2200200000000000    0.9817850000000000 H
   0.0514300000000000    0.2486000000000000    0.9266350000000000 H
   0.8866800000000000    0.4959150000000000    0.4549250000000000 H
   0.8733500000000000    0.5620950000000000    0.4501500000000000 H
   0.7605200000000000    0.6109700000000000    0.4825000000000000 H
   0.8401300000000000    0.4562000000000000    0.5357499999999999 H
   0.7107900000000000    0.5000000000000000    0.5772250000000000 H
   0.1070300000000000    0.4381750000000000    0.4701800000000000 H
   0.0049700000000000    0.4588450000000000    0.4471250000000000 H
   0.8929700000000000    0.5618400000000000    0.5298050000000000 H
   0.9950300000000000    0.5411750000000000    0.5528600000000000 H
   0.1133200000000000    0.5000000000000000    0.5450550000000000 H
   0.1266500000000000    0.4379250000000000    0.5498250000000000 H
   0.2394800000000000    0.3890500000000000    0.5174850000000000 H
   0.1598700000000000    0.5438150000000000    0.4642200000000000 H
   0.2892100000000000    0.4989150000000000    0.4227600000000000 H
   0.5512600000000000    0.7771049999999999    0.0715850000000000 H
   0.5599499999999999    0.8339750000000000    0.0397850000000000 H
   0.4825600000000000    0.8806250000000000    0.9927900000000001 H
   0.3725600000000000    0.7800050000000001    0.0181950000000000 H
   0.4485500000000000    0.7514200000000000    0.0733500000000000 H
   0.5000300000000000    0.7794000000000000    0.1386700000000000 H
   0.4496600000000000    0.8278900000000000    0.1929750000000000 H
   0.4707900000000000    0.9222450000000000    0.0574000000000000 H
   0.4180400000000000    0.9707350000000000    0.1117000000000000 H
   0.3992300000000000    0.9730300000000001    0.1788250000000000 H
   0.4329600000000000    0.9161400000000000    0.2107300000000000 H
   0.3553200000000000    0.8695999999999999    0.2574200000000000 H
   0.1701100000000000    0.9701850000000001    0.2313600000000000 H
   0.2726600000000000    0.9987600000000000    0.1765800000000000 H
   0.8377599999999999    0.7541800000000001    0.2952150000000000 H
   0.8860500000000000    0.6879950000000000    0.3001200000000000 H
   0.8544500000000000    0.6389300000000000    0.2678800000000000 H
   0.8319200000000000    0.7936050000000000    0.2143600000000000 H
   0.7890700000000000    0.7484950000000000    0.1729400000000000 H
   0.0154100000000000    0.8120700000000001    0.2795350000000000 H
   0.9111600000000000    0.7913950000000001    0.3027950000000000 H
   0.0888400000000000    0.7086200000000000    0.1971900000000000 H
   0.9845900000000000    0.6879450000000000    0.2204500000000000 H
   0.1622300000000000    0.7458350000000000    0.2047700000000000 H
   0.1139400000000000    0.8120200000000000    0.1998650000000000 H
   0.1455500000000000    0.8610800000000001    0.2321050000000000 H
   0.1680800000000000    0.7064100000000000    0.2856200000000000 H
   0.2109300000000000    0.7515149999999999    0.3270000000000000 H
   0.5670500000000001    0.5838750000000000    0.2892550000000000 H
   0.6007700000000000    0.5269850000000000    0.3211600000000000 H
   0.6446800000000000    0.6304100000000000    0.2425650000000000 H
   0.8298900000000000    0.5298250000000000    0.2686250000000000 H
   0.7273400000000000    0.5012550000000000    0.3234050000000000 H
   0.5819600000000000    0.5292750000000001    0.3882850000000000 H
   0.5292100000000000    0.5777700000000000    0.4425850000000000 H
   0.4999600000000000    0.7206150000000000    0.3613150000000000 H
   0.5503400000000001    0.6721250000000000    0.3070150000000000 H
   0.4487400000000000    0.7229099999999999    0.4284000000000000 H
   0.4400500000000000    0.6660349999999999    0.4602000000000000 H
   0.5174400000000000    0.6193850000000000    0.5071950000000000 H
   0.6274400000000000    0.7200100000000000    0.4817850000000000 H
   0.5514500000000000    0.7485950000000000    0.4266350000000000 H
   0.8866800000000000    0.9959150000000000    0.9549250000000000 H
   0.8733500000000000    0.0620950000000000    0.9501500000000001 H
   0.7605200000000000    0.1109700000000000    0.9824999999999999 H
   0.8401300000000000    0.9561999999999999    0.0357500000000000 H
   0.7107900000000000    0.0000000000000000    0.0772250000000000 H
   0.1070300000000000    0.9381750000000000    0.9701800000000000 H
   0.0049700000000000    0.9588449999999999    0.9471250000000000 H
   0.8929700000000000    0.0618400000000000    0.0298050000000000 H
   0.9950300000000000    0.0411750000000000    0.0528600000000000 H
   0.1133200000000000    0.0000000000000000    0.0450550000000000 H
   0.1266500000000000    0.9379250000000000    0.0498250000000000 H
   0.2394800000000000    0.8890500000000000    0.0174850000000000 H
   0.1598700000000000    0.0438150000000000    0.9642200000000001 H
   0.2892100000000000    0.9989150000000000    0.9227600000000000 H
   0.5512600000000000    0.2771050000000000    0.5715850000000000 H
   0.5599499999999999    0.3339750000000000    0.5397850000000000 H
   0.4825600000000000    0.3806250000000000    0.4927900000000000 H
   0.3725600000000000    0.2800050000000000    0.5181950000000000 H
   0.4485500000000000    0.2514200000000000    0.5733500000000000 H
   0.5000300000000000    0.2794000000000000    0.6386700000000000 H
   0.4496600000000000    0.3278900000000000    0.6929750000000000 H
   0.4707900000000000    0.4222450000000000    0.5574000000000000 H
   0.4180400000000000    0.4707350000000000    0.6117000000000000 H
   0.3992300000000000    0.4730300000000000    0.6788250000000000 H
   0.4329600000000000    0.4161400000000000    0.7107300000000000 H
   0.3553200000000000    0.3696000000000000    0.7574200000000000 H
   0.1701100000000000    0.4701850000000000    0.7313600000000000 H
   0.2726600000000000    0.4987600000000000    0.6765800000000000 H
   0.8377599999999999    0.2541800000000000    0.7952150000000000 H
   0.8860500000000000    0.1879950000000000    0.8001199999999999 H
   0.8544500000000000    0.1389300000000000    0.7678800000000000 H
   0.8319200000000000    0.2936050000000000    0.7143600000000000 H
   0.7890700000000000    0.2484950000000000    0.6729400000000000 H
   0.0154100000000000    0.3120700000000000    0.7795350000000000 H
   0.9111600000000000    0.2913950000000000    0.8027949999999999 H
   0.0888400000000000    0.2086200000000000    0.6971900000000000 H
   0.9845900000000000    0.1879450000000000    0.7204500000000000 H
   0.1622300000000000    0.2458350000000000    0.7047700000000000 H
   0.1139400000000000    0.3120200000000000    0.6998650000000000 H
   0.1455500000000000    0.3610800000000000    0.7321050000000000 H
   0.1680800000000000    0.2064100000000000    0.7856200000000000 H
   0.2109300000000000    0.2515150000000000    0.8270000000000000 H
   0.5670500000000001    0.0838750000000000    0.7892550000000000 H
   0.6007700000000000    0.0269850000000000    0.8211600000000000 H
   0.6446800000000000    0.1304100000000000    0.7425650000000000 H
   0.8298900000000000    0.0298250000000000    0.7686250000000000 H
   0.7273400000000000    0.0012550000000000    0.8234049999999999 H
   0.5819600000000000    0.0292750000000000    0.8882850000000000 H
   0.5292100000000000    0.0777700000000000    0.9425850000000000 H
   0.4999600000000000    0.2206150000000000    0.8613150000000001 H
   0.5503400000000001    0.1721250000000000    0.8070150000000000 H
   0.4487400000000000    0.2229100000000000    0.9284000000000000 H
   0.4400500000000000    0.1660350000000000    0.9601999999999999 H
   0.5174400000000000    0.1193850000000000    0.0071950000000000 H
   0.6274400000000000    0.2200100000000000    0.9817850000000000 H
   0.5514500000000000    0.2485950000000000    0.9266350000000000 H
   0.6133300000000000    0.0000000000000000    0.5450800000000000 H
   0.6266600000000000    0.9378700000000000    0.5498250000000000 H
   0.7394900000000000    0.8890150000000000    0.5174850000000000 H
   0.6598700000000000    0.0437900000000000    0.4642000000000000 H
   0.7892100000000000    0.9989100000000000    0.4227750000000000 H
   0.6070200000000000    0.9381550000000001    0.4701850000000000 H
   0.5049700000000000    0.9588600000000000    0.4471200000000000 H
   0.3929800000000000    0.0618600000000000    0.5298000000000000 H
   0.4950400000000000    0.0411550000000000    0.5528650000000001 H
   0.3866700000000000    0.9959700000000000    0.4549000000000000 H
   0.3733500000000000    0.0621450000000000    0.4501600000000000 H
   0.2605100000000000    0.1110000000000000    0.4825000000000000 H
   0.3401300000000000    0.9562250000000000    0.5357400000000000 H
   0.2107900000000000    0.0000000000000000    0.5772050000000000 H
   0.9329600000000000    0.9161400000000000    0.7107300000000000 H
   0.8992300000000000    0.9730350000000000    0.6788250000000000 H
   0.8553300000000000    0.8696050000000000    0.7574200000000000 H
   0.6701200000000000    0.9701750000000000    0.7313600000000000 H
   0.7726600000000000    0.9987500000000000    0.6765500000000000 H
   0.9180600000000000    0.9707399999999999    0.6117000000000000 H
   0.9708100000000000    0.9222500000000000    0.5574000000000000 H
   0.0000200000000000    0.7794000000000000    0.6386700000000000 H
   0.9496599999999999    0.8278950000000000    0.6929700000000000 H
   0.0512600000000000    0.7771100000000000    0.5715850000000000 H
   0.0599400000000000    0.8339850000000000    0.5397850000000000 H
   0.9825800000000000    0.8806250000000000    0.4927900000000000 H
   0.8725800000000000    0.7799950000000000    0.5182000000000000 H
   0.9485700000000000    0.7514200000000000    0.5733550000000001 H
   0.3377500000000000    0.7541900000000000    0.7952100000000000 H
   0.3860400000000000    0.6879999999999999    0.8001199999999999 H
   0.3544400000000000    0.6389350000000000    0.7678800000000000 H
   0.3319100000000000    0.7936050000000000    0.7143600000000000 H
   0.2890700000000000    0.7484950000000000    0.6729400000000000 H
   0.5154200000000000    0.8120700000000001    0.7795350000000000 H
   0.4111500000000000    0.7913950000000001    0.8027949999999999 H
   0.4845800000000000    0.6879500000000001    0.7204500000000000 H
   0.5888500000000000    0.7086200000000000    0.6971900000000000 H
   0.6622400000000001    0.7458300000000000    0.7047700000000000 H
   0.6139600000000000    0.8120149999999999    0.6998650000000000 H
   0.6455600000000000    0.8610750000000000    0.7321000000000000 H
   0.6680900000000000    0.7064049999999999    0.7856250000000000 H
   0.7109300000000000    0.7515149999999999    0.8270450000000000 H
   0.0670400000000000    0.5838750000000000    0.7892550000000000 H
   0.1007700000000000    0.5269800000000000    0.8211600000000000 H
   0.1446700000000000    0.6304100000000000    0.7425650000000000 H
   0.3298800000000000    0.5298350000000001    0.7686250000000000 H
   0.2273400000000000    0.5012600000000000    0.8234100000000000 H
   0.9999700000000000    0.7206150000000000    0.8613000000000000 H
   0.0503300000000000    0.6721250000000000    0.8070150000000000 H
   0.0819500000000000    0.5292750000000001    0.8882850000000000 H
   0.0292000000000000    0.5777650000000000    0.9425850000000000 H
   0.9487300000000000    0.7229050000000000    0.9284049999999999 H
   0.9400500000000001    0.6660300000000000    0.9602050000000000 H
   0.0174200000000000    0.6193900000000000    0.0071950000000000 H
   0.1274100000000000    0.7200200000000000    0.9817850000000000 H
   0.0514300000000000    0.7485999999999999    0.9266350000000000 H
   0.6133300000000000    0.5000000000000000    0.0450800000000000 H
   0.6266600000000000    0.4378700000000000    0.0498250000000000 H
   0.7394900000000000    0.3890150000000000    0.0174850000000000 H
   0.6598700000000000    0.5437900000000000    0.9641999999999999 H
   0.7892100000000000    0.4989100000000000    0.9227750000000000 H
   0.6070200000000000    0.4381550000000000    0.9701850000000001 H
   0.5049700000000000    0.4588600000000000    0.9471200000000000 H
   0.3929800000000000    0.5618600000000000    0.0298000000000000 H
   0.4950400000000000    0.5411550000000001    0.0528650000000000 H
   0.3866700000000000    0.4959700000000000    0.9549000000000001 H
   0.3733500000000000    0.5621450000000000    0.9501600000000000 H
   0.2605100000000000    0.6110000000000000    0.9824999999999999 H
   0.3401300000000000    0.4562250000000000    0.0357400000000000 H
   0.2107900000000000    0.5000000000000000    0.0772050000000000 H
   0.0670400000000000    0.0838750000000000    0.2892550000000000 H
   0.1007700000000000    0.0269800000000000    0.3211600000000000 H
   0.1446700000000000    0.1304100000000000    0.2425650000000000 H
   0.3298800000000000    0.0298350000000000    0.2686250000000000 H
   0.2273400000000000    0.0012600000000000    0.3234100000000000 H
   0.9999700000000000    0.2206150000000000    0.3613000000000000 H
   0.0503300000000000    0.1721250000000000    0.3070150000000000 H
   0.0819500000000000    0.0292750000000000    0.3882850000000000 H
   0.0292000000000000    0.0777650000000000    0.4425850000000000 H
   0.9487300000000000    0.2229050000000000    0.4284050000000000 H
   0.9400500000000001    0.1660300000000000    0.4602050000000000 H
   0.0174200000000000    0.1193900000000000    0.5071950000000000 H
   0.1274100000000000    0.2200200000000000    0.4817850000000000 H
   0.0514300000000000    0.2486000000000000    0.4266350000000000 H
   0.3377500000000000    0.2541900000000000    0.2952100000000000 H
   0.3860400000000000    0.1880000000000000    0.3001200000000000 H
   0.3544400000000000    0.1389350000000000    0.2678800000000000 H
   0.3319100000000000    0.2936050000000000    0.2143600000000000 H
   0.2890700000000000    0.2484950000000000    0.1729400000000000 H
   0.4845800000000000    0.1879500000000000    0.2204500000000000 H
   0.5888500000000000    0.2086200000000000    0.1971900000000000 H
   0.5154200000000000    0.3120700000000000    0.2795350000000000 H
   0.4111500000000000    0.2913950000000000    0.3027950000000000 H
   0.6622400000000001    0.2458300000000000    0.2047700000000000 H
   0.6139600000000000    0.3120150000000000    0.1998650000000000 H
   0.6455600000000000    0.3610750000000000    0.2321000000000000 H
   0.6680900000000000    0.2064050000000000    0.2856250000000000 H
   0.7109300000000000    0.2515150000000000    0.3270450000000000 H
   0.9329600000000000    0.4161400000000000    0.2107300000000000 H
   0.8992300000000000    0.4730350000000000    0.1788250000000000 H
   0.8553300000000000    0.3696050000000000    0.2574200000000000 H
   0.6701200000000000    0.4701750000000000    0.2313600000000000 H
   0.7726600000000000    0.4987500000000000    0.1765500000000000 H
   0.9180600000000000    0.4707400000000000    0.1117000000000000 H
   0.9708100000000000    0.4222500000000000    0.0574000000000000 H
   0.0000200000000000    0.2794000000000000    0.1386700000000000 H
   0.9496599999999999    0.3278950000000000    0.1929700000000000 H
   0.0512600000000000    0.2771100000000000    0.0715850000000000 H
   0.0599400000000000    0.3339850000000000    0.0397850000000000 H
   0.9825800000000000    0.3806250000000000    0.9927900000000001 H
   0.8725800000000000    0.2799950000000000    0.0182000000000000 H
   0.9485700000000000    0.2514200000000000    0.0733550000000000 H
   0.2672548648271208    0.9682015750952571    0.4541641340237532 H
   0.2494831688047836    0.9266903952501344    0.4889793378397984 H
   0.5512600000000000    0.7771049999999999    0.5715850000000000 H
   0.5599499999999999    0.8339750000000000    0.5397850000000000 H
   0.4825600000000000    0.8806250000000000    0.4927900000000000 H
   0.3725600000000000    0.7800050000000001    0.5181950000000000 H
   0.4485500000000000    0.7514200000000000    0.5733500000000000 H
   0.5000300000000000    0.7794000000000000    0.6386700000000000 H
   0.4496600000000000    0.8278900000000000    0.6929750000000000 H
   0.4707900000000000    0.9222450000000000    0.5574000000000000 H
   0.4180400000000000    0.9707350000000000    0.6117000000000000 H
   0.3992300000000000    0.9730300000000001    0.6788250000000000 H
   0.4329600000000000    0.9161400000000000    0.7107300000000000 H
   0.3553200000000000    0.8695999999999999    0.7574200000000000 H
   0.1701100000000000    0.9701850000000001    0.7313600000000000 H
   0.2726600000000000    0.9987600000000000    0.6765800000000000 H
   0.8377599999999999    0.7541800000000001    0.7952150000000000 H
   0.8860500000000000    0.6879950000000000    0.8001199999999999 H
   0.8544500000000000    0.6389300000000000    0.7678800000000000 H
   0.8319200000000000    0.7936050000000000    0.7143600000000000 H
   0.7890700000000000    0.7484950000000000    0.6729400000000000 H
   0.0154100000000000    0.8120700000000001    0.7795350000000000 H
   0.9111600000000000    0.7913950000000001    0.8027949999999999 H
   0.0888400000000000    0.7086200000000000    0.6971900000000000 H
   0.9845900000000000    0.6879450000000000    0.7204500000000000 H
   0.1622300000000000    0.7458350000000000    0.7047700000000000 H
   0.1139400000000000    0.8120200000000000    0.6998650000000000 H
   0.1455500000000000    0.8610800000000001    0.7321050000000000 H
   0.1680800000000000    0.7064100000000000    0.7856200000000000 H
   0.2109300000000000    0.7515149999999999    0.8270000000000000 H
   0.5670500000000001    0.5838750000000000    0.7892550000000000 H
   0.6007700000000000    0.5269850000000000    0.8211600000000000 H
   0.6446800000000000    0.6304100000000000    0.7425650000000000 H
   0.8298900000000000    0.5298250000000000    0.7686250000000000 H
   0.7273400000000000    0.5012550000000000    0.8234049999999999 H
   0.5819600000000000    0.5292750000000001    0.8882850000000000 H