H4 C8 O4
1.0
  15.9863162753915162    0.0000000000000000    9.1506334175920490
   5.3064906713476434   15.0830013285320952    9.1656493320658665
   0.0000000000000000    0.0000000000000000   18.4259999999999984
H C O
4 8 4
direct
   0.5474400000000000    0.5474500000000000    0.3357400000000000 H
   0.5486500000000000    0.5488100000000000    0.5675400000000000 H
   0.4525400000000000    0.4525400000000000    0.6642500000000000 H
   0.4513300000000000    0.4511800000000000    0.4324500000000000 H
   0.6109000000000000    0.6109900000000000    0.3885800000000000 C
   0.5535900000000000    0.5536600000000000    0.4460800000000000 C
   0.5262700000000000    0.5262800000000000    0.4077000000000000 C
   0.5269400000000000    0.5270400000000000    0.5387200000000000 C
   0.3890800000000000    0.3890000000000000    0.6114100000000000 C
   0.4464000000000000    0.4463400000000000    0.5539100000000000 C
   0.4737100000000000    0.4737100000000000    0.5923000000000000 C
   0.4730400000000000    0.4729500000000000    0.4612700000000000 C
   0.6330000000000000    0.6335300000000000    0.4280600000000000 O
   0.6329800000000000    0.6326500000000000    0.3048200000000000 O
   0.3669800000000000    0.3664500000000000    0.5719300000000000 O
   0.3670100000000000    0.3673400000000000    0.6951700000000000 O
