H6 C12 O4
1.0
  12.1189977388592318    0.0000000000000000   -0.0074030753613031
  -0.1502506863484353   14.5412237612101372   -0.0005076115595447
   0.0000000000000000    0.0000000000000000   30.4579999999999984
H C O
6 12 4
direct
   0.7875100000000000    0.7472600000000000    0.6328650000000000 H
   0.7296200000000000    0.7943500000000000    0.7073800000000000 H
   0.7086400000000000    0.6772600000000000    0.7664949999999999 H
   0.7443600000000000    0.5133400000000000    0.7511350000000000 H
   0.8753200000000000    0.3465900000000000    0.6250900000000000 H
   0.8751500000000000    0.4608500000000000    0.5641350000000001 H
   0.8302400000000000    0.6384200000000000    0.5667600000000000 C
   0.8281500000000001    0.5732800000000000    0.6052750000000000 C
   0.7988499999999999    0.6025400000000000    0.6485400000000000 C
   0.7769600000000000    0.6960800000000000    0.6585850000000000 C
   0.7455100000000000    0.7222200000000000    0.7001900000000000 C
   0.7340800000000000    0.6558100000000000    0.7337549999999999 C
   0.7546200000000000    0.5643600000000000    0.7253250000000000 C
   0.7880100000000000    0.5346800000000000    0.6829200000000000 C
   0.8158100000000000    0.4411400000000000    0.6732150000000000 C
   0.8046300000000000    0.3648900000000000    0.7055000000000000 C
   0.8518600000000000    0.4174400000000000    0.6314600000000000 C
   0.8536800000000000    0.4821800000000000    0.5973100000000000 C
   0.8886600000000000    0.7114900000000000    0.5704550000000000 O
   0.7738500000000000    0.6128800000000000    0.5335450000000000 O
   0.7265400000000000    0.3632500000000000    0.7336350000000000 O
   0.8739300000000000    0.2981300000000000    0.7035899999999999 O
