H6 O4
1.0
  12.1189977388592318    0.0000000000000000   -0.0074030753613031
  -0.1502506863484353   14.5412237612101372   -0.0005076115595447
   0.0000000000000000    0.0000000000000000   30.4579999999999984
H O
6 4
direct
   0.9364248095049721    0.2883408154615260    0.6843263718105459 H
   0.6675425817270226    0.4060964772243102    0.7395186948665345 H
   0.8001368242988361    0.3517217962945445    0.7109492462478495 H
   0.7542744690681668    0.6131388517278030    0.5644196412752993 H
   0.9013424533969843    0.7340871416054272    0.6000135005047627 H
   0.8296320943671899    0.7122705395120495    0.6635541561859288 H
   0.8739300000000000    0.2981300000000000    0.7035899999999999 O
   0.7265400000000000    0.3632500000000000    0.7336350000000000 O
   0.7738500000000000    0.6128800000000000    0.5335450000000000 O
   0.8886600000000000    0.7114900000000000    0.5704550000000000 O
