Zn32 H114 C184 O112
1.0
  14.5649711699903417    0.0000000000000000   -0.0289796023122512
  -0.0013260220939771   15.8546174234590040   -0.1101344515380852
   0.0000000000000000    0.0000000000000000   37.7120000000000033
Zn H C O
32 114 184 112
direct
   0.9690100000000000    0.9264900000000000    0.4796100000000000 Zn
   0.8442300000000000    0.6342000000000000    0.2313950000000000 Zn
   0.1566300000000000    0.3635100000000000    0.2672100000000000 Zn
   0.0308600000000000    0.0706000000000000    0.0190350000000000 Zn
   0.0313900000000000    0.5699100000000000    0.2284800000000000 Zn
   0.1560600000000000    0.8624500000000000    0.9817300000000000 Zn
   0.8439000000000000    0.1359500000000000    0.0169050000000000 Zn
   0.9721400000000000    0.4298600000000000    0.7701050000000000 Zn
   0.9690100000000000    0.9264900000000000    0.9796100000000000 Zn
   0.8442300000000000    0.6342000000000000    0.7313950000000000 Zn
   0.1566300000000000    0.3635100000000000    0.7672099999999999 Zn
   0.0308600000000000    0.0706000000000000    0.5190350000000000 Zn
   0.0313900000000000    0.5699100000000000    0.7284800000000000 Zn
   0.1560600000000000    0.8624500000000000    0.4817300000000000 Zn
   0.8439000000000000    0.1359500000000000    0.5169049999999999 Zn
   0.9721400000000000    0.4298600000000000    0.2701050000000000 Zn
   0.5307600000000000    0.9286700000000000    0.2292950000000000 Zn
   0.4685800000000000    0.5699700000000000    0.9783750000000000 Zn
   0.3439100000000000    0.8631100000000000    0.7315050000000000 Zn
   0.6561200000000000    0.1367600000000000    0.7669699999999999 Zn
   0.5278800000000000    0.4299200000000000    0.5200900000000001 Zn
   0.6556900000000000    0.6342200000000000    0.9814250000000000 Zn
   0.3434700000000000    0.3634100000000000    0.0171200000000000 Zn
   0.4692700000000000    0.0710200000000000    0.7691300000000000 Zn
   0.4685800000000000    0.5699700000000000    0.4783750000000000 Zn
   0.3439100000000000    0.8631100000000000    0.2315050000000000 Zn
   0.6561200000000000    0.1367600000000000    0.2669700000000000 Zn
   0.5278800000000000    0.4299200000000000    0.0200900000000000 Zn
   0.5307600000000000    0.9286700000000000    0.7292950000000000 Zn
   0.6556900000000000    0.6342200000000000    0.4814250000000000 Zn
   0.3434700000000000    0.3634100000000000    0.5171200000000000 Zn
   0.4692700000000000    0.0710200000000000    0.2691300000000000 Zn
   0.8879600000000000    0.8692299999999999    0.3752000000000000 H
   0.8629500000000000    0.8076400000000000    0.3147900000000000 H
   0.1598500000000000    0.7635100000000000    0.3775350000000000 H
   0.1350800000000000    0.7022000000000000    0.3167350000000000 H
   0.8510700000000000    0.4902800000000000    0.2317800000000000 H
   0.1523200000000000    0.5083700000000000    0.2667300000000000 H
   0.6115400000000000    0.3815500000000000    0.2429750000000000 H
   0.4472000000000000    0.3525000000000000    0.2584600000000000 H
   0.3890500000000000    0.6179500000000000    0.2554100000000000 H
   0.5533800000000000    0.6469800000000000    0.2399500000000000 H
   0.1122400000000000    0.1291400000000000    0.1231400000000000 H
   0.1382900000000000    0.1911300000000000    0.1834050000000000 H
   0.8408700000000000    0.2360000000000000    0.1211250000000000 H
   0.8668000000000000    0.2980200000000000    0.1817350000000000 H
   0.1394600000000000    0.6922500000000000    0.0658700000000000 H
   0.1129200000000000    0.6286300000000000    0.1254150000000000 H
   0.8398600000000001    0.7318300000000000    0.1270600000000000 H
   0.8662300000000001    0.7953200000000000    0.0671350000000000 H
   0.8494200000000000    0.9916000000000000    0.0169950000000000 H
   0.1508700000000000    0.0063200000000000    0.9816100000000000 H
   0.3881700000000000    0.1161600000000000    0.9930399999999999 H
   0.5524900000000000    0.1464200000000000    0.0085300000000000 H
   0.4478300000000000    0.8509000000000000    0.0000000000000000 H
   0.6121200000000000    0.8811400000000000    0.0051700000000000 H
   0.1604900000000000    0.2646700000000000    0.8713200000000000 H
   0.1337500000000000    0.2010400000000000    0.9311750000000000 H
   0.8880800000000000    0.3693600000000000    0.8730750000000000 H
   0.8610400000000000    0.3052500000000000    0.9324850000000000 H
   0.8879600000000000    0.8692299999999999    0.8752000000000000 H
   0.8629500000000000    0.8076400000000000    0.8147900000000000 H
   0.1598500000000000    0.7635100000000000    0.8775350000000000 H
   0.1350800000000000    0.7022000000000000    0.8167350000000000 H
   0.8510700000000000    0.4902800000000000    0.7317800000000000 H
   0.1523200000000000    0.5083700000000000    0.7667300000000000 H
   0.6115400000000000    0.3815500000000000    0.7429749999999999 H
   0.4472000000000000    0.3525000000000000    0.7584600000000000 H
   0.3890500000000000    0.6179500000000000    0.7554100000000000 H
   0.5533800000000000    0.6469800000000000    0.7399500000000000 H
   0.1122400000000000    0.1291400000000000    0.6231400000000000 H
   0.1382900000000000    0.1911300000000000    0.6834050000000000 H
   0.8408700000000000    0.2360000000000000    0.6211250000000000 H
   0.8668000000000000    0.2980200000000000    0.6817350000000000 H
   0.1394600000000000    0.6922500000000000    0.5658700000000000 H
   0.1129200000000000    0.6286300000000000    0.6254150000000001 H
   0.8398600000000001    0.7318300000000000    0.6270600000000000 H
   0.8662300000000001    0.7953200000000000    0.5671349999999999 H
   0.8494200000000000    0.9916000000000000    0.5169950000000000 H
   0.1508700000000000    0.0063200000000000    0.4816100000000000 H
   0.3881700000000000    0.1161600000000000    0.4930400000000000 H
   0.5524900000000000    0.1464200000000000    0.5085300000000000 H
   0.4478300000000000    0.8509000000000000    0.5000000000000000 H
   0.6121200000000000    0.8811400000000000    0.5051700000000000 H
   0.1604900000000000    0.2646700000000000    0.3713200000000000 H
   0.1337500000000000    0.2010400000000000    0.4311750000000000 H
   0.8880800000000000    0.3693600000000000    0.3730750000000000 H
   0.8610400000000000    0.3052500000000000    0.4324850000000000 H
   0.4544458659613786    0.6567097590468653    0.0395480661681527 H
   0.3385538993522783    0.8072139860552161    0.1696998725657818 H
   0.5868254313617672    0.9036980942968179    0.1673863564276848 H
   0.4668306311524898    0.8531117937282399    0.1636600009527882 H
   0.3869800000000000    0.6287000000000000    0.8749300000000000 H
   0.3604400000000000    0.6926300000000000    0.8154399999999999 H
   0.6595000000000000    0.7330900000000000    0.8773350000000000 H
   0.6331000000000000    0.7969800000000000    0.8174699999999999 H
   0.6513000000000000    0.9922000000000000    0.7669100000000000 H
   0.3486100000000000    0.0076000000000000    0.7315400000000000 H
   0.1115400000000000    0.1176600000000000    0.7433950000000000 H
   0.9472400000000000    0.1473200000000000    0.7588650000000000 H
   0.8883400000000000    0.8819100000000000    0.7549399999999999 H
   0.0526100000000000    0.8522800000000000    0.7394450000000000 H
   0.6121600000000000    0.3702800000000000    0.6232150000000000 H
   0.6393500000000000    0.3067900000000000    0.6827799999999999 H
   0.3398500000000000    0.2653600000000000    0.6212900000000000 H
   0.3668100000000000    0.2021700000000000    0.6812600000000000 H
   0.6096391973935051    0.7110591708999121    0.0410480473353005 H
   0.6486800000000000    0.4902600000000000    0.9817800000000000 H
   0.3478500000000000    0.5082700000000000    0.0166050000000000 H
   0.0526800000000000    0.3519200000000000    0.0083150000000000 H
   0.8881599999999999    0.3810800000000000    0.9928150000000000 H
   0.9463400000000000    0.6465300000000000    0.0000000000000000 H
   0.1108400000000000    0.6173800000000000    0.0056050000000000 H
   0.6595100000000000    0.2356900000000000    0.8715700000000000 H
   0.6333700000000000    0.2977100000000000    0.9321250000000000 H
   0.3616500000000000    0.1913100000000000    0.9331400000000001 H
   0.3879100000000000    0.1293100000000000    0.8729300000000000 H
   0.5573657569915782    0.6150604197004514    0.4102152698172629 H
   0.3869800000000000    0.6287000000000000    0.3749300000000000 H
   0.3604400000000000    0.6926300000000000    0.3154400000000000 H
   0.6595000000000000    0.7330900000000000    0.3773350000000000 H
   0.6331000000000000    0.7969800000000000    0.3174700000000000 H
   0.6513000000000000    0.9922000000000000    0.2669100000000000 H
   0.3486100000000000    0.0076000000000000    0.2315400000000000 H
   0.1115400000000000    0.1176600000000000    0.2433950000000000 H
   0.9472400000000000    0.1473200000000000    0.2588650000000000 H
   0.8883400000000000    0.8819100000000000    0.2549400000000000 H
   0.0526100000000000    0.8522800000000000    0.2394450000000000 H
   0.6121600000000000    0.3702800000000000    0.1232150000000000 H
   0.6393500000000000    0.3067900000000000    0.1827800000000000 H
   0.3398500000000000    0.2653600000000000    0.1212900000000000 H
   0.3668100000000000    0.2021700000000000    0.1812600000000000 H
   0.3395600000000000    0.7650400000000001    0.6269150000000000 H
   0.3648000000000000    0.7029000000000000    0.5663400000000000 H
   0.6121100000000000    0.8693400000000000    0.6253450000000000 H
   0.6375000000000000    0.8071100000000000    0.5651250000000000 H
   0.6486800000000000    0.4902600000000000    0.4817800000000000 H
   0.3478500000000000    0.5082700000000000    0.5166050000000000 H
   0.0526800000000000    0.3519200000000000    0.5083150000000000 H
   0.8881599999999999    0.3810800000000000    0.4928150000000000 H
   0.9463400000000000    0.6465300000000000    0.5000000000000000 H
   0.1108400000000000    0.6173800000000000    0.5056050000000000 H
   0.6595100000000000    0.2356900000000000    0.3715700000000000 H
   0.6333700000000000    0.2977100000000000    0.4321250000000000 H
   0.3616500000000000    0.1913100000000000    0.4331400000000000 H
   0.3879100000000000    0.1293100000000000    0.3729300000000000 H
   0.9782400000000000    0.7065800000000000    0.2780500000000000 C
   0.0367100000000000    0.8504600000000000    0.4171850000000000 C
   0.9416000000000000    0.8326100000000000    0.3622300000000000 C
   0.9277500000000000    0.7983800000000000    0.3286450000000000 C
   0.0953100000000000    0.7729800000000000    0.3634900000000000 C
   0.0816400000000000    0.7390200000000000    0.3297750000000000 C
   0.9971400000000000    0.7502799999999999    0.3124650000000000 C
   0.0248400000000000    0.8188500000000000    0.3801200000000000 C
   0.6904600000000000    0.5327000000000000    0.2319700000000000 C
   0.3102300000000000    0.4667300000000000    0.2665250000000000 C
   0.5622900000000000    0.4328200000000000    0.2456700000000000 C
   0.4712700000000000    0.4167000000000000    0.2543800000000000 C
   0.5919200000000000    0.5159600000000000    0.2404200000000000 C
   0.4382800000000000    0.5666600000000001    0.2527250000000000 C
   0.5293099999999999    0.5827700000000000    0.2440200000000000 C
   0.4086800000000000    0.4835100000000000    0.2579950000000000 C
   0.0239900000000000    0.2928700000000000    0.2202150000000000 C
   0.9630100000000000    0.1478400000000000    0.0814450000000000 C
   0.0589600000000000    0.1661300000000000    0.1361450000000000 C
   0.0734100000000000    0.2006300000000000    0.1696400000000000 C
   0.9055299999999999    0.2264100000000000    0.1350650000000000 C
   0.9198499999999999    0.2607600000000000    0.1686750000000000 C
   0.0044800000000000    0.2492200000000000    0.1858550000000000 C
   0.9755300000000000    0.1800000000000000    0.1184000000000000 C
   0.0240200000000000    0.7924600000000001    0.0293050000000000 C
   0.9626000000000000    0.6444800000000001    0.1664600000000000 C
   0.0741200000000000    0.7005400000000001    0.0793950000000000 C
   0.0593800000000000    0.6651500000000000    0.1124700000000000 C
   0.0047500000000000    0.7484300000000000    0.0632900000000000 C
   0.9049600000000000    0.7233700000000000    0.1133450000000000 C
   0.9195500000000000    0.7585499999999999    0.0801400000000000 C
   0.9752700000000000    0.6774800000000000    0.1298850000000000 C
   0.6903000000000000    0.0330000000000000    0.0164650000000000 C
   0.3099500000000000    0.9643600000000000    0.9819050000000000 C
   0.4377500000000000    0.0651900000000000    0.9956600000000000 C
   0.5287800000000000    0.0819800000000000    0.0043700000000000 C
   0.4085200000000000    0.9817300000000000    0.9903299999999999 C
   0.4715500000000000    0.9153400000000000    0.0000000000000000 C
   0.5625900000000000    0.9321300000000000    0.0025450000000000 C
   0.5918000000000000    0.0155900000000000    0.0079100000000000 C
   0.9762900000000000    0.2046700000000000    0.9691250000000000 C
   0.0386500000000000    0.3533800000000000    0.8320650000000001 C
   0.0954200000000000    0.2734000000000000    0.8850300000000000 C
   0.0806200000000000    0.2381100000000000    0.9182000000000000 C
   0.9413899999999999    0.3324400000000000    0.8859650000000000 C
   0.9263900000000000    0.2967800000000000    0.9189800000000000 C
   0.9955000000000001    0.2485400000000000    0.9350750000000000 C
   0.0254700000000000    0.3198900000000000    0.8685450000000000 C
   0.9782400000000000    0.7065800000000000    0.7780500000000000 C
   0.0367100000000000    0.8504600000000000    0.9171849999999999 C
   0.9416000000000000    0.8326100000000000    0.8622300000000001 C
   0.9277500000000000    0.7983800000000000    0.8286450000000001 C
   0.0953100000000000    0.7729800000000000    0.8634900000000000 C
   0.0816400000000000    0.7390200000000000    0.8297749999999999 C
   0.9971400000000000    0.7502799999999999    0.8124650000000000 C
   0.0248400000000000    0.8188500000000000    0.8801200000000000 C
   0.6904600000000000    0.5327000000000000    0.7319700000000000 C
   0.3102300000000000    0.4667300000000000    0.7665250000000000 C
   0.5622900000000000    0.4328200000000000    0.7456700000000001 C
   0.4712700000000000    0.4167000000000000    0.7543800000000001 C
   0.5919200000000000    0.5159600000000000    0.7404200000000000 C
   0.4382800000000000    0.5666600000000001    0.7527250000000000 C
   0.5293099999999999    0.5827700000000000    0.7440200000000000 C
   0.4086800000000000    0.4835100000000000    0.7579950000000000 C
   0.0239900000000000    0.2928700000000000    0.7202150000000000 C
   0.9630100000000000    0.1478400000000000    0.5814450000000000 C
   0.0589600000000000    0.1661300000000000    0.6361450000000000 C
   0.0734100000000000    0.2006300000000000    0.6696400000000000 C
   0.9055299999999999    0.2264100000000000    0.6350650000000000 C
   0.9198499999999999    0.2607600000000000    0.6686750000000000 C
   0.0044800000000000    0.2492200000000000    0.6858550000000000 C
   0.9755300000000000    0.1800000000000000    0.6184000000000001 C
   0.0240200000000000    0.7924600000000001    0.5293050000000000 C
   0.9626000000000000    0.6444800000000001    0.6664600000000001 C
   0.0741200000000000    0.7005400000000001    0.5793950000000000 C
   0.0593800000000000    0.6651500000000000    0.6124700000000000 C
   0.0047500000000000    0.7484300000000000    0.5632900000000000 C
   0.9049600000000000    0.7233700000000000    0.6133450000000000 C
   0.9195500000000000    0.7585499999999999    0.5801400000000000 C
   0.9752700000000000    0.6774800000000000    0.6298850000000000 C
   0.6903000000000000    0.0330000000000000    0.5164650000000000 C
   0.3099500000000000    0.9643600000000000    0.4819050000000000 C
   0.4377500000000000    0.0651900000000000    0.4956600000000000 C
   0.5287800000000000    0.0819800000000000    0.5043700000000000 C
   0.4085200000000000    0.9817300000000000    0.4903300000000000 C
   0.4715500000000000    0.9153400000000000    0.5000000000000000 C
   0.5625900000000000    0.9321300000000000    0.5025450000000000 C
   0.5918000000000000    0.0155900000000000    0.5079100000000000 C
   0.9762900000000000    0.2046700000000000    0.4691250000000000 C
   0.0386500000000000    0.3533800000000000    0.3320650000000000 C
   0.0954200000000000    0.2734000000000000    0.3850300000000000 C
   0.0806200000000000    0.2381100000000000    0.4182000000000000 C
   0.9413899999999999    0.3324400000000000    0.3859650000000000 C
   0.9263900000000000    0.2967800000000000    0.4189800000000000 C
   0.9955000000000001    0.2485400000000000    0.4350750000000000 C
   0.0254700000000000    0.3198900000000000    0.3685450000000000 C
   0.4755400000000000    0.7935500000000000    0.7791600000000001 C
   0.5371500000000000    0.6447200000000000    0.9163650000000000 C
   0.4404300000000000    0.6655500000000000    0.8621700000000000 C
   0.4256900000000000    0.7011700000000000    0.8291100000000000 C
   0.5944800000000000    0.7244300000000000    0.8634750000000000 C
   0.5798800000000000    0.7598700000000000    0.8302900000000000 C
   0.4948700000000000    0.7495000000000001    0.8131999999999999 C
   0.5243700000000000    0.6780600000000000    0.8798049999999999 C
   0.1901100000000000    0.9661600000000000    0.7319300000000000 C
   0.8098100000000000    0.0335200000000000    0.7664800000000001 C
   0.0621500000000000    0.0665300000000000    0.7458850000000000 C
   0.9711100000000000    0.0829900000000000    0.7545900000000000 C
   0.0915700000000000    0.9832100000000000    0.7403850000000000 C
   0.9377100000000000    0.9330700000000000    0.7524450000000000 C
   0.0287500000000000    0.9166100000000000    0.7437350000000000 C
   0.9082900000000000    0.0163900000000000    0.7579600000000000 C
   0.5244700000000000    0.2061800000000000    0.7193350000000001 C
   0.4615900000000000    0.3536700000000000    0.5820550000000000 C
   0.5589200000000000    0.3334400000000000    0.6361050000000000 C
   0.5740000000000000    0.2981100000000000    0.6692000000000000 C
   0.4049400000000000    0.2742400000000000    0.6350650000000000 C
   0.4198400000000000    0.2392200000000000    0.6683000000000000 C
   0.5049700000000000    0.2499000000000000    0.6852549999999999 C
   0.4748500000000000    0.3206100000000000    0.6186050000000000 C
   0.8092200000000001    0.5323800000000000    0.9819899999999999 C
   0.1897500000000000    0.4662100000000000    0.0165150000000000 C
   0.0285700000000000    0.4161500000000000    0.0043100000000000 C
   0.9374600000000000    0.4323300000000000    0.9955900000000000 C
   0.9078100000000000    0.5155100000000000    0.9904400000000000 C
   0.9704500000000000    0.5823000000000000    0.0000000000000000 C
   0.0615600000000000    0.5661300000000000    0.0028450000000000 C
   0.0911900000000000    0.4829400000000000    0.0080200000000000 C
   0.4760200000000000    0.2928400000000000    0.9702250000000000 C
   0.5372700000000000    0.1478600000000000    0.8315750000000000 C
   0.5947500000000000    0.2262100000000000    0.8853550000000000 C
   0.5803100000000000    0.2605400000000000    0.9189350000000001 C
   0.4955700000000000    0.2491300000000000    0.9359150000000001 C
   0.4266300000000000    0.2006600000000000    0.9195300000000000 C
   0.4412100000000000    0.1661800000000000    0.8860650000000000 C
   0.5247500000000000    0.1799400000000000    0.8685200000000000 C
   0.4755400000000000    0.7935500000000000    0.2791600000000000 C
   0.5371500000000000    0.6447200000000000    0.4163650000000000 C
   0.4404300000000000    0.6655500000000000    0.3621700000000000 C
   0.4256900000000000    0.7011700000000000    0.3291100000000000 C
   0.5944800000000000    0.7244300000000000    0.3634750000000000 C
   0.5798800000000000    0.7598700000000000    0.3302900000000000 C
   0.4948700000000000    0.7495000000000001    0.3132000000000000 C
   0.5243700000000000    0.6780600000000000    0.3798050000000000 C
   0.1901100000000000    0.9661600000000000    0.2319300000000000 C
   0.8098100000000000    0.0335200000000000    0.2664800000000000 C
   0.0621500000000000    0.0665300000000000    0.2458850000000000 C
   0.9711100000000000    0.0829900000000000    0.2545900000000000 C
   0.0915700000000000    0.9832100000000000    0.2403850000000000 C
   0.9377100000000000    0.9330700000000000    0.2524450000000000 C
   0.0287500000000000    0.9166100000000000    0.2437350000000000 C
   0.9082900000000000    0.0163900000000000    0.2579600000000000 C
   0.5244700000000000    0.2061800000000000    0.2193350000000000 C
   0.4615900000000000    0.3536700000000000    0.0820550000000000 C
   0.5589200000000000    0.3334400000000000    0.1361050000000000 C
   0.5740000000000000    0.2981100000000000    0.1692000000000000 C
   0.4049400000000000    0.2742400000000000    0.1350650000000000 C
   0.4198400000000000    0.2392200000000000    0.1683000000000000 C
   0.5049700000000000    0.2499000000000000    0.1852550000000000 C
   0.4748500000000000    0.3206100000000000    0.1186050000000000 C
   0.5219200000000001    0.7065000000000000    0.5280600000000000 C
   0.4626200000000000    0.8519700000000000    0.6668350000000001 C
   0.4043400000000000    0.7740400000000000    0.6130850000000000 C
   0.4183000000000000    0.7396100000000000    0.5794850000000000 C
   0.5030400000000000    0.7503400000000000    0.5624300000000000 C
   0.5584000000000000    0.8328700000000000    0.6122600000000000 C
   0.5724900000000001    0.7982500000000000    0.5787800000000000 C
   0.4748300000000000    0.8197900000000000    0.6298800000000000 C
   0.8092200000000001    0.5323800000000000    0.4819900000000000 C
   0.1897500000000000    0.4662100000000000    0.5165149999999999 C
   0.0285700000000000    0.4161500000000000    0.5043100000000000 C
   0.9374600000000000    0.4323300000000000    0.4955900000000000 C
   0.9078100000000000    0.5155100000000000    0.4904400000000000 C
   0.9704500000000000    0.5823000000000000    0.5000000000000000 C
   0.0615600000000000    0.5661300000000000    0.5028450000000000 C
   0.0911900000000000    0.4829400000000000    0.5080200000000000 C
   0.4760200000000000    0.2928400000000000    0.4702250000000000 C
   0.5372700000000000    0.1478600000000000    0.3315750000000000 C
   0.5947500000000000    0.2262100000000000    0.3853550000000000 C
   0.5803100000000000    0.2605400000000000    0.4189350000000000 C
   0.4955700000000000    0.2491300000000000    0.4359150000000000 C
   0.4266300000000000    0.2006600000000000    0.4195300000000000 C
   0.4412100000000000    0.1661800000000000    0.3860650000000000 C
   0.5247500000000000    0.1799400000000000    0.3685200000000000 C
   0.0426900000000000    0.6631800000000000    0.2640650000000000 O
   0.8969400000000000    0.7142800000000000    0.2654000000000000 O
   0.1114800000000000    0.8334300000000000    0.4331650000000000 O
   0.9690000000000000    0.8920500000000000    0.4305150000000000 O
   0.9058800000000000    0.5183800000000000    0.2440600000000000 O
   0.0968300000000000    0.4808400000000000    0.2544150000000000 O
   0.7430800000000000    0.4727200000000000    0.2237250000000000 O
   0.7152600000000000    0.6115100000000000    0.2345300000000000 O
   0.2577300000000000    0.5268500000000000    0.2748150000000000 O
   0.2852900000000000    0.3880100000000000    0.2640250000000000 O
   0.9601700000000000    0.3366800000000000    0.2343650000000000 O
   0.1054200000000000    0.2846900000000000    0.2327200000000000 O
   0.8872400000000000    0.1632100000000000    0.0658600000000000 O
   0.0311900000000000    0.1074300000000000    0.0678600000000000 O
   0.9592600000000000    0.8353400000000000    0.0153750000000000 O
   0.1055000000000000    0.7853300000000000    0.0169000000000000 O
   0.8870100000000000    0.6593900000000000    0.1821700000000000 O
   0.0309800000000000    0.6037700000000000    0.1796700000000000 O
   0.9046999999999999    0.0183100000000000    0.0045500000000000 O
   0.0956300000000000    0.9794100000000000    0.9940100000000001 O
   0.7430200000000000    0.9733600000000000    0.0248150000000000 O
   0.7149900000000000    0.1117100000000000    0.0139200000000000 O
   0.2572300000000000    0.0000000000000000    0.9736400000000001 O
   0.2851800000000000    0.8856500000000000    0.9844950000000000 O
   0.0411100000000000    0.1622500000000000    0.9832050000000000 O
   0.8946600000000000    0.2116700000000000    0.9814550000000000 O
   0.1137000000000000    0.3369700000000000    0.8162050000000001 O
   0.9715100000000000    0.3960300000000000    0.8190299999999999 O
   0.0426900000000000    0.6631800000000000    0.7640650000000000 O
   0.8969400000000000    0.7142800000000000    0.7654000000000001 O
   0.1114800000000000    0.8334300000000000    0.9331650000000000 O
   0.9690000000000000    0.8920500000000000    0.9305150000000000 O
   0.9058800000000000    0.5183800000000000    0.7440599999999999 O
   0.0968300000000000    0.4808400000000000    0.7544150000000001 O
   0.7430800000000000    0.4727200000000000    0.7237250000000000 O
   0.7152600000000000    0.6115100000000000    0.7345300000000000 O
   0.2577300000000000    0.5268500000000000    0.7748150000000000 O
   0.2852900000000000    0.3880100000000000    0.7640250000000000 O
   0.9601700000000000    0.3366800000000000    0.7343649999999999 O
   0.1054200000000000    0.2846900000000000    0.7327200000000000 O
   0.8872400000000000    0.1632100000000000    0.5658600000000000 O
   0.0311900000000000    0.1074300000000000    0.5678600000000000 O
   0.9592600000000000    0.8353400000000000    0.5153750000000000 O
   0.1055000000000000    0.7853300000000000    0.5169000000000000 O
   0.8870100000000000    0.6593900000000000    0.6821699999999999 O
   0.0309800000000000    0.6037700000000000    0.6796700000000000 O
   0.9046999999999999    0.0183100000000000    0.5045500000000001 O
   0.0956300000000000    0.9794100000000000    0.4940100000000000 O
   0.7430200000000000    0.9733600000000000    0.5248150000000000 O
   0.7149900000000000    0.1117100000000000    0.5139200000000000 O
   0.2572300000000000    0.0000000000000000    0.4736400000000000 O
   0.2851800000000000    0.8856500000000000    0.4844950000000000 O
   0.0411100000000000    0.1622500000000000    0.4832050000000000 O
   0.8946600000000000    0.2116700000000000    0.4814550000000000 O
   0.1137000000000000    0.3369700000000000    0.3162050000000000 O
   0.9715100000000000    0.3960300000000000    0.3190300000000000 O
   0.4574100000000000    0.6631200000000000    0.0140150000000000 O
   0.3869600000000000    0.8367500000000000    0.1823900000000000 O
   0.5309900000000000    0.8922600000000001    0.1804800000000000 O
   0.5397100000000000    0.8371400000000000    0.7653900000000000 O
   0.3941700000000000    0.7855600000000000    0.7665299999999999 O
   0.6128100000000000    0.6595299999999999    0.9321699999999999 O
   0.4688900000000000    0.6038400000000000    0.9294700000000000 O
   0.5958100000000000    0.0192100000000000    0.7545649999999999 O
   0.4041400000000000    0.9805900000000000    0.7438600000000000 O
   0.2426100000000000    0.0000000000000000    0.7237150000000000 O
   0.2150400000000000    0.8875200000000000    0.7344400000000000 O
   0.7572800000000000    0.9736900000000001    0.7747450000000000 O
   0.7849500000000000    0.1121900000000000    0.7639850000000000 O
   0.4603000000000000    0.1627000000000000    0.7331500000000000 O
   0.6058500000000000    0.2142900000000000    0.7319400000000000 O
   0.3864800000000000    0.3370500000000000    0.5661550000000000 O
   0.5286999999999999    0.3961400000000000    0.5690100000000000 O
   0.6031900000000000    0.7141600000000000    0.0154850000000000 O
   0.5940200000000000    0.5184200000000000    0.9940599999999999 O
   0.4031900000000000    0.4808300000000000    0.0042750000000000 O
   0.7564000000000000    0.4724600000000000    0.9737500000000000 O
   0.7846300000000000    0.6112500000000000    0.9845400000000000 O
   0.2423100000000000    0.5263600000000001    0.0247850000000000 O
   0.2147000000000000    0.3875000000000000    0.0140000000000000 O
   0.5398400000000000    0.3367000000000000    0.9844300000000000 O
   0.3946200000000000    0.2846600000000000    0.9826300000000000 O
   0.6129800000000000    0.1631800000000000    0.8160700000000001 O
   0.4689800000000000    0.1075400000000000    0.8179050000000000 O
   0.5397100000000000    0.8371400000000000    0.2653900000000000 O
   0.3941700000000000    0.7855600000000000    0.2665300000000000 O
   0.6128100000000000    0.6595299999999999    0.4321700000000000 O
   0.4688900000000000    0.6038400000000000    0.4294700000000000 O
   0.5958100000000000    0.0192100000000000    0.2545650000000000 O
   0.4041400000000000    0.9805900000000000    0.2438600000000000 O
   0.2426100000000000    0.0000000000000000    0.2237150000000000 O
   0.2150400000000000    0.8875200000000000    0.2344400000000000 O
   0.7572800000000000    0.9736900000000001    0.2747450000000000 O
   0.7849500000000000    0.1121900000000000    0.2639850000000000 O
   0.4603000000000000    0.1627000000000000    0.2331500000000000 O
   0.6058500000000000    0.2142900000000000    0.2319400000000000 O
   0.3864800000000000    0.3370500000000000    0.0661550000000000 O
   0.5286999999999999    0.3961400000000000    0.0690100000000000 O
   0.4574100000000000    0.6631200000000000    0.5140150000000000 O
   0.6031900000000000    0.7141600000000000    0.5154850000000000 O
   0.3869600000000000    0.8367500000000000    0.6823900000000001 O
   0.5309900000000000    0.8922600000000001    0.6804800000000000 O
   0.5940200000000000    0.5184200000000000    0.4940600000000000 O
   0.4031900000000000    0.4808300000000000    0.5042750000000000 O
   0.7564000000000000    0.4724600000000000    0.4737500000000000 O
   0.7846300000000000    0.6112500000000000    0.4845400000000000 O