Zn32 H108 C184 O108
1.0
  29.1299423399806834    0.0000000000000000   -0.0579592046245024
  -0.0013260220939771   15.8546174234590040   -0.1101344515380852
   0.0000000000000000    0.0000000000000000   18.8560000000000016
Zn H C O
32 108 184 108
direct
   0.1717350000000000    0.3634100000000000    0.0342400000000000 Zn
   0.2346350000000000    0.0710200000000000    0.5382600000000000 Zn
   0.3280600000000000    0.1367600000000000    0.5339400000000000 Zn
   0.2342950000000000    0.5699700000000000    0.9567500000000000 Zn
   0.3278450000000000    0.6342200000000000    0.9628500000000000 Zn
   0.2653800000000000    0.9286700000000000    0.4585900000000000 Zn
   0.1719550000000000    0.8631100000000000    0.4630100000000000 Zn
   0.4845050000000000    0.9264900000000000    0.9592200000000000 Zn
   0.0780300000000000    0.8624500000000000    0.9634600000000000 Zn
   0.0156950000000000    0.5699100000000000    0.4569600000000000 Zn
   0.4221150000000000    0.6342000000000000    0.4628000000000000 Zn
   0.0154300000000000    0.0706000000000000    0.0380700000000000 Zn
   0.4219500000000000    0.1359500000000000    0.0338100000000000 Zn
   0.4860700000000000    0.4298600000000000    0.5402100000000000 Zn
   0.0783150000000000    0.3635100000000000    0.5344200000000000 Zn
   0.2639400000000000    0.4299200000000000    0.0401800000000000 Zn
   0.6717350000000000    0.3634100000000000    0.0342400000000000 Zn
   0.7346350000000000    0.0710200000000000    0.5382600000000000 Zn
   0.8280600000000000    0.1367600000000000    0.5339400000000000 Zn
   0.7342950000000000    0.5699700000000000    0.9567500000000000 Zn
   0.8278449999999999    0.6342200000000000    0.9628500000000000 Zn
   0.7653799999999999    0.9286700000000000    0.4585900000000000 Zn
   0.6719550000000000    0.8631100000000000    0.4630100000000000 Zn
   0.9845050000000000    0.9264900000000000    0.9592200000000000 Zn
   0.5780300000000000    0.8624500000000000    0.9634600000000000 Zn
   0.5156950000000000    0.5699100000000000    0.4569600000000000 Zn
   0.9221150000000000    0.6342000000000000    0.4628000000000000 Zn
   0.5154300000000001    0.0706000000000000    0.0380700000000000 Zn
   0.9219500000000000    0.1359500000000000    0.0338100000000000 Zn
   0.9860700000000000    0.4298600000000000    0.5402100000000000 Zn
   0.5783150000000000    0.3635100000000000    0.5344200000000000 Zn
   0.7639400000000001    0.4299200000000000    0.0401800000000000 Zn
   0.3166850000000000    0.2977100000000000    0.8642500000000000 H
   0.3297550000000000    0.2356900000000000    0.7431400000000000 H
   0.1939550000000000    0.1293100000000000    0.7458600000000000 H
   0.1808250000000000    0.1913100000000000    0.8662800000000000 H
   0.0554200000000000    0.6173800000000000    0.0112100000000000 H
   0.0263400000000000    0.3519200000000000    0.0166300000000000 H
   0.1834050000000000    0.2021700000000000    0.3625200000000000 H
   0.1699250000000000    0.2653600000000000    0.2425800000000000 H
   0.3060800000000000    0.3702800000000000    0.2464300000000000 H
   0.3196750000000000    0.3067900000000000    0.3655600000000000 H
   0.4441700000000000    0.8819100000000000    0.5098800000000000 H
   0.1824000000000000    0.7029000000000000    0.1326800000000000 H
   0.1697800000000000    0.7650400000000001    0.2538300000000000 H
   0.3060550000000000    0.8693400000000000    0.2507000000000000 H
   0.3187500000000000    0.8071100000000000    0.1302500000000000 H
   0.4440800000000000    0.3810800000000000    0.9856300000000000 H
   0.4731700000000000    0.6465300000000000    0.0000000000000000 H
   0.3165500000000000    0.7969800000000000    0.6349399999999999 H
   0.3297500000000000    0.7330800000000000    0.7546700000000000 H
   0.1934950000000000    0.6287000000000000    0.7498600000000000 H
   0.1802200000000000    0.6926300000000000    0.6308800000000000 H
   0.0263050000000000    0.8522800000000000    0.4788900000000000 H
   0.4331150000000000    0.7953200000000000    0.1342700000000000 H
   0.4199300000000000    0.7318300000000000    0.2541200000000000 H
   0.0564600000000000    0.6286300000000000    0.2508300000000000 H
   0.0697300000000000    0.6922500000000000    0.1317400000000000 H
   0.1940850000000000    0.1161600000000000    0.9860800000000000 H
   0.2239200000000000    0.8509000000000000    0.0000000000000000 H
   0.0675400000000000    0.7022000000000000    0.6334700000000000 H
   0.0799250000000000    0.7635100000000000    0.7550700000000000 H
   0.4439800000000000    0.8692299999999999    0.7504000000000000 H
   0.4314750000000000    0.8076400000000000    0.6295800000000000 H
   0.3057700000000000    0.3815500000000000    0.4859500000000000 H
   0.2766900000000000    0.6469800000000000    0.4799000000000000 H
   0.0668750000000000    0.2010400000000000    0.8623499999999999 H
   0.0802450000000000    0.2646700000000000    0.7426400000000000 H
   0.4440400000000000    0.3693600000000000    0.7461500000000000 H
   0.4305200000000000    0.3052500000000000    0.8649700000000000 H
   0.3060600000000000    0.8811400000000000    0.0103400000000000 H
   0.2762450000000000    0.1464200000000000    0.0170600000000000 H
   0.4334000000000000    0.2980200000000000    0.3634700000000000 H
   0.4204350000000000    0.2360000000000000    0.2422500000000000 H
   0.0561200000000000    0.1291400000000000    0.2462800000000000 H
   0.0691450000000000    0.1911300000000000    0.3668100000000000 H
   0.1945250000000000    0.6179500000000000    0.5108200000000001 H
   0.2236000000000000    0.3525000000000000    0.5169200000000000 H
   0.1739250000000000    0.5082700000000000    0.0332100000000000 H
   0.3256500000000000    0.9922000000000000    0.5338200000000000 H
   0.3243400000000000    0.4902600000000000    0.9635600000000000 H
   0.1743050000000000    0.0076000000000000    0.4630900000000000 H
   0.0754350000000000    0.0063200000000000    0.9632200000000000 H
   0.4255350000000000    0.4902800000000000    0.4635600000000000 H
   0.4247100000000000    0.9916000000000000    0.0339900000000000 H
   0.0761600000000000    0.5083700000000000    0.5334600000000000 H
   0.8166850000000000    0.2977100000000000    0.8642500000000000 H
   0.8297550000000000    0.2356900000000000    0.7431400000000000 H
   0.6939550000000000    0.1293100000000000    0.7458600000000000 H
   0.6808250000000000    0.1913100000000000    0.8662800000000000 H
   0.5554200000000000    0.6173800000000000    0.0112100000000000 H
   0.5263400000000000    0.3519200000000000    0.0166300000000000 H
   0.6834050000000000    0.2021700000000000    0.3625200000000000 H
   0.6699250000000000    0.2653600000000000    0.2425800000000000 H
   0.8060800000000000    0.3702800000000000    0.2464300000000000 H
   0.8196749999999999    0.3067900000000000    0.3655600000000000 H
   0.9736199999999999    0.1473200000000000    0.5177300000000000 H
   0.6824000000000000    0.7029000000000000    0.1326800000000000 H
   0.6697800000000000    0.7650400000000001    0.2538300000000000 H
   0.8060550000000000    0.8693400000000000    0.2507000000000000 H
   0.8187500000000000    0.8071100000000000    0.1302500000000000 H
   0.9440800000000000    0.3810800000000000    0.9856300000000000 H
   0.9731700000000000    0.6465300000000000    0.0000000000000000 H
   0.8165500000000000    0.7969800000000000    0.6349399999999999 H
   0.8297500000000000    0.7330800000000000    0.7546700000000000 H
   0.6934950000000000    0.6287000000000000    0.7498600000000000 H
   0.6802200000000000    0.6926300000000000    0.6308800000000000 H
   0.5557700000000000    0.1176600000000000    0.4867900000000000 H
   0.9331150000000000    0.7953200000000000    0.1342700000000000 H
   0.9199300000000000    0.7318300000000000    0.2541200000000000 H
   0.5564600000000000    0.6286300000000000    0.2508300000000000 H
   0.5697300000000000    0.6922500000000000    0.1317400000000000 H
   0.6940850000000001    0.1161600000000000    0.9860800000000000 H
   0.7239200000000000    0.8509000000000000    0.0000000000000000 H
   0.5675400000000000    0.7022000000000000    0.6334700000000000 H
   0.5799250000000000    0.7635100000000000    0.7550700000000000 H
   0.9439800000000000    0.8692299999999999    0.7504000000000000 H
   0.9314750000000001    0.8076400000000000    0.6295800000000000 H
   0.8057700000000000    0.3815500000000000    0.4859500000000000 H
   0.7766900000000000    0.6469800000000000    0.4799000000000000 H
   0.5668750000000000    0.2010400000000000    0.8623499999999999 H
   0.5802450000000000    0.2646700000000000    0.7426400000000000 H
   0.9440400000000000    0.3693600000000000    0.7461500000000000 H
   0.9305200000000000    0.3052500000000000    0.8649700000000000 H
   0.8060600000000000    0.8811400000000000    0.0103400000000000 H
   0.7762450000000001    0.1464200000000000    0.0170600000000000 H
   0.9334000000000000    0.2980200000000000    0.3634700000000000 H
   0.9204350000000000    0.2360000000000000    0.2422500000000000 H
   0.5561199999999999    0.1291400000000000    0.2462800000000000 H
   0.5691450000000000    0.1911300000000000    0.3668100000000000 H
   0.6945250000000001    0.6179500000000000    0.5108200000000001 H
   0.7236000000000000    0.3525000000000000    0.5169200000000000 H
   0.6739250000000000    0.5082700000000000    0.0332100000000000 H
   0.8256500000000000    0.9922000000000000    0.5338200000000000 H
   0.8243400000000001    0.4902600000000000    0.9635600000000000 H
   0.6743049999999999    0.0076000000000000    0.4630900000000000 H
   0.5754350000000000    0.0063200000000000    0.9632200000000000 H
   0.9255350000000000    0.4902800000000000    0.4635600000000000 H
   0.9247099999999999    0.9916000000000000    0.0339900000000000 H
   0.5761600000000000    0.5083700000000000    0.5334600000000000 H
   0.2380100000000000    0.2928400000000000    0.9404500000000000 C
   0.2477900000000000    0.2491300000000000    0.8718300000000000 C
   0.2901550000000000    0.2605400000000000    0.8378800000000000 C
   0.2973800000000000    0.2262100000000000    0.7707100000000000 C
   0.2623750000000000    0.1799400000000000    0.7370400000000000 C
   0.2206050000000000    0.1661800000000000    0.7721300000000000 C
   0.2133200000000000    0.2006600000000000    0.8390600000000000 C
   0.2686350000000000    0.1478600000000000    0.6631500000000000 C
   0.0948750000000000    0.4662100000000000    0.0330300000000000 C
   0.0455950000000000    0.4829400000000000    0.0160400000000000 C
   0.0307800000000000    0.5661300000000000    0.0056900000000000 C
   0.0142850000000000    0.4161500000000000    0.0086200000000000 C
   0.2622400000000000    0.2061800000000000    0.4386700000000000 C
   0.2524850000000000    0.2499000000000000    0.3705100000000000 C
   0.2099200000000000    0.2392200000000000    0.3366000000000000 C
   0.2024700000000000    0.2742400000000000    0.2701300000000000 C
   0.2374250000000000    0.3206100000000000    0.2372100000000000 C
   0.2794600000000000    0.3334400000000000    0.2722100000000000 C
   0.2870000000000000    0.2981200000000000    0.3384000000000000 C
   0.2307950000000000    0.3536700000000000    0.1641100000000000 C
   0.4688550000000000    0.9330700000000000    0.5048899999999999 C
   0.2609600000000000    0.7065000000000000    0.0561200000000000 C
   0.2515200000000000    0.7503400000000000    0.1248600000000000 C
   0.2091500000000000    0.7396100000000000    0.1589700000000000 C
   0.2021700000000000    0.7740400000000000    0.2261700000000000 C
   0.2374150000000000    0.8197900000000000    0.2597600000000000 C
   0.2792000000000000    0.8328700000000000    0.2245200000000000 C
   0.2862450000000000    0.7982500000000000    0.1575600000000000 C
   0.2313100000000000    0.8519700000000000    0.3336700000000000 C
   0.4046100000000000    0.5323800000000000    0.9639799999999999 C
   0.4539050000000000    0.5155100000000000    0.9808800000000000 C
   0.4687300000000000    0.4323300000000000    0.9911799999999999 C
   0.4852250000000000    0.5823000000000000    0.0000000000000000 C
   0.2377700000000000    0.7935500000000000    0.5583200000000000 C
   0.2474350000000000    0.7495000000000001    0.6264000000000000 C
   0.2899400000000000    0.7598700000000000    0.6605799999999999 C
   0.2972450000000000    0.7244300000000000    0.7269500000000000 C
   0.2621850000000000    0.6780600000000000    0.7596100000000000 C
   0.2202150000000000    0.6655500000000000    0.7243400000000000 C
   0.2128450000000000    0.7011700000000000    0.6582200000000000 C
   0.2685750000000000    0.6447200000000000    0.8327400000000000 C
   0.0950550000000000    0.9661600000000000    0.4638700000000000 C
   0.0457900000000000    0.9832100000000000    0.4807700000000000 C
   0.0143750000000000    0.9166100000000000    0.4874700000000000 C
   0.0120100000000000    0.7924600000000001    0.0586100000000000 C
   0.0023750000000000    0.7484300000000000    0.1265800000000000 C
   0.4597750000000000    0.7585499999999999    0.1602800000000000 C
   0.4524850000000000    0.7233700000000000    0.2266900000000000 C
   0.4876400000000000    0.6774800000000000    0.2597700000000000 C
   0.0296950000000000    0.6651500000000000    0.2249400000000000 C
   0.0370600000000000    0.7005400000000001    0.1587900000000000 C
   0.4813000000000000    0.6444800000000001    0.3329300000000000 C
   0.1549750000000000    0.9643600000000000    0.9638099999999999 C
   0.2042600000000000    0.9817300000000000    0.9806600000000000 C
   0.2188750000000000    0.0651900000000000    0.9913200000000000 C
   0.2357750000000000    0.9153400000000000    0.0000000000000000 C
   0.4891200000000000    0.7065800000000000    0.5561000000000000 C
   0.4985700000000000    0.7502799999999999    0.6249300000000000 C
   0.0408200000000000    0.7390200000000000    0.6595500000000000 C
   0.0476600000000000    0.7729800000000000    0.7269800000000000 C
   0.0124200000000000    0.8188500000000000    0.7602400000000000 C
   0.4708000000000000    0.8326100000000000    0.7244600000000000 C
   0.4638750000000000    0.7983800000000000    0.6572900000000000 C
   0.0183550000000000    0.8504600000000000    0.8343699999999999 C
   0.3452300000000000    0.5327000000000000    0.4639400000000000 C
   0.2959600000000000    0.5159600000000000    0.4808400000000000 C
   0.2811450000000000    0.4328200000000000    0.4913400000000000 C
   0.2646550000000000    0.5827700000000000    0.4880400000000000 C
   0.4881450000000000    0.2046700000000000    0.9382500000000000 C
   0.4977500000000000    0.2485400000000000    0.8701500000000000 C
   0.0403100000000000    0.2381100000000000    0.8364000000000000 C
   0.0477100000000000    0.2734100000000000    0.7700600000000000 C
   0.0127350000000000    0.3198900000000000    0.7370900000000000 C
   0.4706950000000000    0.3324400000000000    0.7719300000000000 C
   0.4631950000000000    0.2967800000000000    0.8379600000000000 C
   0.0193250000000000    0.3533800000000000    0.6641300000000000 C
   0.3451500000000000    0.0330000000000000    0.0329300000000000 C
   0.2959000000000000    0.0155900000000000    0.0158200000000000 C
   0.2812950000000000    0.9321300000000000    0.0050900000000000 C
   0.2643900000000000    0.0819800000000000    0.0087400000000000 C
   0.0119950000000000    0.2928700000000000    0.4404300000000000 C
   0.0022400000000000    0.2492200000000000    0.3717100000000000 C
   0.4599300000000000    0.2607600000000000    0.3373500000000000 C
   0.4527650000000000    0.2264100000000000    0.2701300000000000 C
   0.4877650000000000    0.1800000000000000    0.2368000000000000 C
   0.0294800000000000    0.1661300000000000    0.2722900000000000 C
   0.0367050000000000    0.2006300000000000    0.3392800000000000 C
   0.4815050000000000    0.1478400000000000    0.1628900000000000 C
   0.1551150000000000    0.4667300000000000    0.5330500000000000 C
   0.2043400000000000    0.4835100000000000    0.5159899999999999 C
   0.2191400000000000    0.5666600000000001    0.5054500000000000 C
   0.2356350000000000    0.4167000000000000    0.5087600000000000 C
   0.7380100000000001    0.2928400000000000    0.9404500000000000 C
   0.7477900000000000    0.2491300000000000    0.8718300000000000 C
   0.7901549999999999    0.2605400000000000    0.8378800000000000 C
   0.7973800000000000    0.2262100000000000    0.7707100000000000 C
   0.7623750000000000    0.1799400000000000    0.7370400000000000 C
   0.7206049999999999    0.1661800000000000    0.7721300000000000 C
   0.7133200000000000    0.2006600000000000    0.8390600000000000 C
   0.7686350000000000    0.1478600000000000    0.6631500000000000 C
   0.5948750000000000    0.4662100000000000    0.0330300000000000 C
   0.5455950000000001    0.4829400000000000    0.0160400000000000 C
   0.5307800000000000    0.5661300000000000    0.0056900000000000 C
   0.5142850000000000    0.4161500000000000    0.0086200000000000 C
   0.7622400000000000    0.2061800000000000    0.4386700000000000 C
   0.7524850000000001    0.2499000000000000    0.3705100000000000 C
   0.7099200000000000    0.2392200000000000    0.3366000000000000 C
   0.7024700000000000    0.2742400000000000    0.2701300000000000 C
   0.7374250000000000    0.3206100000000000    0.2372100000000000 C
   0.7794600000000000    0.3334400000000000    0.2722100000000000 C
   0.7869999999999999    0.2981200000000000    0.3384000000000000 C
   0.7307950000000000    0.3536700000000000    0.1641100000000000 C
   0.9049050000000001    0.0335200000000000    0.5329600000000000 C
   0.9541450000000000    0.0163900000000000    0.5159200000000000 C
   0.9855550000000000    0.0829900000000000    0.5091800000000000 C
   0.7609600000000001    0.7065000000000000    0.0561200000000000 C
   0.7515200000000000    0.7503400000000000    0.1248600000000000 C
   0.7091499999999999    0.7396100000000000    0.1589700000000000 C
   0.7021700000000000    0.7740400000000000    0.2261700000000000 C
   0.7374149999999999    0.8197900000000000    0.2597600000000000 C
   0.7792000000000000    0.8328700000000000    0.2245200000000000 C
   0.7862450000000001    0.7982500000000000    0.1575600000000000 C
   0.7313100000000000    0.8519700000000000    0.3336700000000000 C
   0.9046100000000000    0.5323800000000000    0.9639799999999999 C
   0.9539050000000000    0.5155100000000000    0.9808800000000000 C
   0.9687300000000000    0.4323300000000000    0.9911799999999999 C
   0.9852250000000000    0.5823000000000000    0.0000000000000000 C
   0.7377700000000000    0.7935500000000000    0.5583200000000000 C
   0.7474350000000000    0.7495000000000001    0.6264000000000000 C
   0.7899400000000000    0.7598700000000000    0.6605799999999999 C
   0.7972450000000000    0.7244300000000000    0.7269500000000000 C
   0.7621850000000000    0.6780600000000000    0.7596100000000000 C
   0.7202150000000000    0.6655500000000000    0.7243400000000000 C
   0.7128450000000000    0.7011700000000000    0.6582200000000000 C
   0.7685750000000000    0.6447200000000000    0.8327400000000000 C
   0.5310750000000000    0.0665300000000000    0.4917700000000000 C
   0.5120100000000000    0.7924600000000001    0.0586100000000000 C
   0.5023750000000000    0.7484300000000000    0.1265800000000000 C
   0.9597750000000000    0.7585499999999999    0.1602800000000000 C
   0.9524850000000000    0.7233700000000000    0.2266900000000000 C
   0.9876400000000001    0.6774800000000000    0.2597700000000000 C
   0.5296950000000000    0.6651500000000000    0.2249400000000000 C
   0.5370600000000000    0.7005400000000001    0.1587900000000000 C
   0.9813000000000001    0.6444800000000001    0.3329300000000000 C
   0.6549750000000000    0.9643600000000000    0.9638099999999999 C
   0.7042600000000000    0.9817300000000000    0.9806600000000000 C
   0.7188749999999999    0.0651900000000000    0.9913200000000000 C
   0.7357750000000001    0.9153400000000000    0.0000000000000000 C
   0.9891200000000000    0.7065800000000000    0.5561000000000000 C
   0.9985700000000000    0.7502799999999999    0.6249300000000000 C
   0.5408200000000000    0.7390200000000000    0.6595500000000000 C
   0.5476600000000000    0.7729800000000000    0.7269800000000000 C
   0.5124200000000000    0.8188500000000000    0.7602400000000000 C
   0.9708000000000000    0.8326100000000000    0.7244600000000000 C
   0.9638750000000000    0.7983800000000000    0.6572900000000000 C
   0.5183550000000000    0.8504600000000000    0.8343699999999999 C
   0.8452299999999999    0.5327000000000000    0.4639400000000000 C
   0.7959600000000000    0.5159600000000000    0.4808400000000000 C
   0.7811450000000000    0.4328200000000000    0.4913400000000000 C
   0.7646550000000000    0.5827700000000000    0.4880400000000000 C
   0.9881450000000001    0.2046700000000000    0.9382500000000000 C
   0.9977500000000000    0.2485400000000000    0.8701500000000000 C
   0.5403100000000000    0.2381100000000000    0.8364000000000000 C
   0.5477100000000000    0.2734100000000000    0.7700600000000000 C
   0.5127350000000001    0.3198900000000000    0.7370900000000000 C
   0.9706950000000000    0.3324400000000000    0.7719300000000000 C
   0.9631950000000000    0.2967800000000000    0.8379600000000000 C
   0.5193250000000000    0.3533800000000000    0.6641300000000000 C
   0.8451500000000001    0.0330000000000000    0.0329300000000000 C
   0.7959000000000001    0.0155900000000000    0.0158200000000000 C
   0.7812950000000001    0.9321300000000000    0.0050900000000000 C
   0.7643900000000000    0.0819800000000000    0.0087400000000000 C
   0.5119950000000000    0.2928700000000000    0.4404300000000000 C
   0.5022400000000000    0.2492200000000000    0.3717100000000000 C
   0.9599299999999999    0.2607600000000000    0.3373500000000000 C
   0.9527650000000000    0.2264100000000000    0.2701300000000000 C
   0.9877650000000000    0.1800000000000000    0.2368000000000000 C
   0.5294800000000000    0.1661300000000000    0.2722900000000000 C
   0.5367050000000000    0.2006300000000000    0.3392800000000000 C
   0.9815050000000001    0.1478400000000000    0.1628900000000000 C
   0.6551150000000000    0.4667300000000000    0.5330500000000000 C
   0.7043400000000000    0.4835100000000000    0.5159899999999999 C
   0.7191400000000000    0.5666600000000001    0.5054500000000000 C
   0.7356350000000000    0.4167000000000000    0.5087600000000000 C
   0.0154950000000000    0.6037700000000000    0.3593400000000000 O
   0.4435050000000000    0.6593900000000000    0.3643400000000000 O
   0.1425900000000000    0.8856500000000000    0.9689900000000000 O
   0.2699200000000000    0.3367000000000000    0.9688600000000001 O
   0.1973100000000000    0.2846600000000000    0.9652600000000000 O
   0.2344900000000000    0.1075400000000000    0.6358100000000000 O
   0.3064900000000000    0.1631800000000000    0.6321400000000000 O
   0.1073500000000000    0.3875000000000000    0.0280000000000000 O
   0.1211550000000000    0.5263600000000001    0.0495700000000000 O
   0.2301500000000000    0.1627000000000000    0.4663000000000000 O
   0.3029250000000000    0.2142900000000000    0.4638800000000000 O
   0.2643500000000000    0.3961400000000000    0.1380200000000000 O
   0.1932400000000000    0.3370500000000000    0.1323100000000000 O
   0.3786400000000000    0.9736900000000001    0.5494900000000000 O
   0.2287050000000000    0.6631200000000000    0.0280300000000000 O
   0.3015950000000000    0.7141600000000000    0.0309700000000000 O
   0.2654950000000000    0.8922600000000001    0.3609600000000000 O
   0.1934800000000000    0.8367500000000000    0.3647800000000000 O
   0.3923150000000000    0.6112500000000000    0.9690800000000001 O
   0.3782050000000000    0.4724600000000000    0.9475000000000000 O
   0.2698550000000000    0.8371400000000000    0.5307800000000000 O
   0.1970850000000000    0.7855600000000000    0.5330600000000000 O
   0.2344500000000000    0.6038400000000000    0.8589400000000000 O
   0.3064050000000000    0.6595299999999999    0.8643400000000000 O
   0.1075200000000000    0.8875200000000000    0.4688800000000000 O
   0.4796300000000000    0.8353400000000000    0.0307500000000000 O
   0.0527500000000000    0.7853300000000000    0.0338000000000000 O
   0.1286150000000000    0.0000000000000000    0.9472800000000000 O
   0.0213450000000000    0.6631800000000000    0.5281300000000000 O
   0.4484700000000000    0.7142800000000000    0.5308000000000000 O
   0.4845000000000000    0.8920500000000000    0.8610300000000000 O
   0.0557400000000000    0.8334300000000000    0.8663300000000000 O
   0.3576300000000000    0.6115100000000000    0.4690600000000000 O
   0.3715400000000000    0.4727200000000000    0.4474500000000000 O
   0.0205550000000000    0.1622500000000000    0.9664100000000000 O
   0.4473300000000000    0.2116700000000000    0.9629100000000000 O
   0.4857550000000000    0.3960300000000000    0.6380600000000000 O
   0.0568500000000000    0.3369700000000000    0.6324100000000000 O
   0.3574950000000000    0.1117100000000000    0.0278400000000000 O
   0.3715100000000000    0.9733600000000000    0.0496300000000000 O
   0.4800850000000000    0.3366800000000000    0.4687300000000000 O
   0.0527100000000000    0.2846900000000000    0.4654400000000000 O
   0.0155950000000000    0.1074300000000000    0.1357200000000000 O
   0.4436200000000000    0.1632100000000000    0.1317200000000000 O
   0.1426450000000000    0.3880100000000000    0.5280500000000000 O
   0.1288650000000000    0.5268500000000000    0.5496300000000000 O
   0.2015950000000000    0.4808300000000000    0.0085500000000000 O
   0.2979050000000000    0.0192100000000000    0.5091300000000000 O
   0.2970100000000000    0.5184200000000000    0.9881200000000000 O
   0.2020700000000000    0.9805900000000000    0.4877200000000000 O
   0.0478150000000000    0.9794200000000000    0.9880200000000000 O
   0.4529400000000000    0.5183800000000000    0.4881200000000000 O
   0.4523500000000000    0.0183100000000000    0.0091000000000000 O
   0.0484150000000000    0.4808400000000000    0.5088300000000000 O
   0.5154950000000000    0.6037700000000000    0.3593400000000000 O
   0.9435050000000000    0.6593900000000000    0.3643400000000000 O
   0.6425900000000000    0.8856500000000000    0.9689900000000000 O
   0.7699199999999999    0.3367000000000000    0.9688600000000001 O
   0.6973100000000000    0.2846600000000000    0.9652600000000000 O
   0.7344900000000000    0.1075400000000000    0.6358100000000000 O
   0.8064899999999999    0.1631800000000000    0.6321400000000000 O
   0.6073500000000001    0.3875000000000000    0.0280000000000000 O
   0.6211550000000000    0.5263600000000001    0.0495700000000000 O
   0.7301500000000000    0.1627000000000000    0.4663000000000000 O
   0.8029250000000000    0.2142900000000000    0.4638800000000000 O
   0.7643500000000000    0.3961400000000000    0.1380200000000000 O
   0.6932400000000000    0.3370500000000000    0.1323100000000000 O
   0.8924750000000000    0.1121900000000000    0.5279700000000001 O
   0.7287049999999999    0.6631200000000000    0.0280300000000000 O
   0.8015950000000001    0.7141600000000000    0.0309700000000000 O
   0.7654950000000000    0.8922600000000001    0.3609600000000000 O
   0.6934800000000000    0.8367500000000000    0.3647800000000000 O
   0.8923150000000000    0.6112500000000000    0.9690800000000001 O
   0.8782050000000000    0.4724600000000000    0.9475000000000000 O
   0.7698550000000000    0.8371400000000000    0.5307800000000000 O
   0.6970850000000000    0.7855600000000000    0.5330600000000000 O
   0.7344500000000000    0.6038400000000000    0.8589400000000000 O
   0.8064050000000000    0.6595299999999999    0.8643400000000000 O
   0.6213050000000000    0.0000000000000000    0.4474300000000000 O
   0.9796300000000000    0.8353400000000000    0.0307500000000000 O
   0.5527500000000000    0.7853300000000000    0.0338000000000000 O
   0.6286150000000000    0.0000000000000000    0.9472800000000000 O
   0.5213449999999999    0.6631800000000000    0.5281300000000000 O
   0.9484699999999999    0.7142800000000000    0.5308000000000000 O
   0.9844999999999999    0.8920500000000000    0.8610300000000000 O
   0.5557400000000000    0.8334300000000000    0.8663300000000000 O
   0.8576300000000000    0.6115100000000000    0.4690600000000000 O
   0.8715400000000000    0.4727200000000000    0.4474500000000000 O
   0.5205550000000000    0.1622500000000000    0.9664100000000000 O
   0.9473300000000000    0.2116700000000000    0.9629100000000000 O
   0.9857549999999999    0.3960300000000000    0.6380600000000000 O
   0.5568500000000000    0.3369700000000000    0.6324100000000000 O
   0.8574950000000000    0.1117100000000000    0.0278400000000000 O
   0.8715100000000000    0.9733600000000000    0.0496300000000000 O
   0.9800850000000000    0.3366800000000000    0.4687300000000000 O
   0.5527100000000000    0.2846900000000000    0.4654400000000000 O
   0.5155950000000000    0.1074300000000000    0.1357200000000000 O
   0.9436200000000000    0.1632100000000000    0.1317200000000000 O
   0.6426450000000000    0.3880100000000000    0.5280500000000000 O
   0.6288650000000000    0.5268500000000000    0.5496300000000000 O
   0.7015950000000000    0.4808300000000000    0.0085500000000000 O
   0.7979050000000000    0.0192100000000000    0.5091300000000000 O
   0.7970100000000000    0.5184200000000000    0.9881200000000000 O
   0.7020700000000000    0.9805900000000000    0.4877200000000000 O
   0.5478150000000001    0.9794200000000000    0.9880200000000000 O
   0.9529400000000000    0.5183800000000000    0.4881200000000000 O
   0.9523500000000000    0.0183100000000000    0.0091000000000000 O
   0.5484150000000000    0.4808400000000000    0.5088300000000000 O
