H6 O4
1.0
  13.1439910132668540    0.0000000000000000    0.0153702036481610
   0.0025020639425359   13.1259907871031718    0.0153491549821791
   0.0000000000000000    0.0000000000000000   27.3200000000000003
H O
6 4
direct
   0.5207218992676812    0.2445893721135873    0.0756428996557316 H
   0.7390451948570904    0.0164128754623874    0.0790826813937279 H
   0.6271655074834342    0.1276211848319094    0.0762369224171497 H
   0.4792227278695880    0.7553046982273913    0.9243297085299769 H
   0.2609934568230908    0.9835833128283146    0.9208984024213739 H
   0.3728243290773072    0.8723279557691253    0.9237400242067096 H
   0.5822900000000000    0.2056600000000000    0.0814250000000000 O
   0.7024800000000000    0.0800000000000000    0.0833100000000000 O
   0.4176700000000000    0.7942600000000000    0.9185500000000000 O
   0.2975300000000000    0.9199800000000000    0.9166700000000000 O
