Ag16 H90 C84 S28 O32
1.0
  13.1439910132668540    0.0000000000000000    0.0153702036481610
   0.0025020639425359   13.1259907871031718    0.0153491549821791
   0.0000000000000000    0.0000000000000000   27.3200000000000003
Ag H C S O
16 90 84 28 32
direct
   0.1741600000000000    0.6670400000000000    0.6247600000000000 Ag
   0.1741600000000000    0.6670400000000000    0.1247600000000000 Ag
   0.8258000000000000    0.3329200000000000    0.3752200000000000 Ag
   0.8258000000000000    0.3329200000000000    0.8752200000000000 Ag
   0.6755400000000000    0.1685200000000000    0.3756850000000000 Ag
   0.6755400000000000    0.1685200000000000    0.8756850000000000 Ag
   0.3244200000000000    0.8314500000000000    0.1242850000000000 Ag
   0.3244200000000000    0.8314500000000000    0.6242850000000000 Ag
   0.8311500000000001    0.1742200000000000    0.6255100000000000 Ag
   0.8311500000000001    0.1742200000000000    0.1255100000000000 Ag
   0.1688500000000000    0.8257800000000000    0.3744850000000000 Ag
   0.1688500000000000    0.8257800000000000    0.8744850000000000 Ag
   0.6674300000000000    0.3251000000000000    0.1253500000000000 Ag
   0.6674300000000000    0.3251000000000000    0.6253500000000000 Ag
   0.3324900000000000    0.6748300000000000    0.8746250000000000 Ag
   0.3324900000000000    0.6748300000000000    0.3746250000000000 Ag
   0.2106800000000000    0.5050400000000000    0.3029800000000000 H
   0.2060500000000000    0.5401899999999999    0.2386450000000000 H
   0.1439000000000000    0.6170099999999999    0.2843550000000000 H
   0.7892900000000000    0.4949300000000000    0.1969750000000000 H
   0.7939400000000000    0.4598000000000000    0.2613100000000000 H
   0.8560600000000000    0.3829600000000000    0.2156050000000000 H
   0.3114900000000000    0.4168100000000000    0.3528700000000000 H
   0.4218200000000000    0.3409900000000000    0.3672000000000000 H
   0.3568400000000000    0.4135700000000000    0.4142500000000000 H
   0.6884800000000000    0.5831200000000000    0.1471000000000000 H
   0.5781700000000000    0.6589600000000000    0.1327700000000000 H
   0.6431300000000000    0.5863600000000000    0.0857150000000000 H
   0.2106800000000000    0.5050400000000000    0.8029800000000000 H
   0.2060500000000000    0.5401899999999999    0.7386450000000000 H
   0.1439000000000000    0.6170099999999999    0.7843550000000000 H
   0.7892900000000000    0.4949300000000000    0.6969750000000000 H
   0.7939400000000000    0.4598000000000000    0.7613099999999999 H
   0.8560600000000000    0.3829600000000000    0.7156050000000000 H
   0.3114900000000000    0.4168100000000000    0.8528700000000000 H
   0.4218200000000000    0.3409900000000000    0.8672000000000000 H
   0.3568400000000000    0.4135700000000000    0.9142500000000000 H
   0.6884800000000000    0.5831200000000000    0.6471000000000000 H
   0.5781700000000000    0.6589600000000000    0.6327700000000001 H
   0.6431300000000000    0.5863600000000000    0.5857150000000000 H
   0.5055900000000000    0.2890000000000000    0.4472750000000000 H
   0.5402000000000000    0.2937100000000000    0.5116450000000000 H
   0.6170400000000000    0.3562000000000000    0.4659750000000000 H
   0.4944000000000000    0.7109000000000000    0.5527200000000000 H
   0.4598000000000000    0.7061600000000000    0.4883500000000000 H
   0.3829400000000000    0.6437000000000000    0.5340250000000000 H
   0.4172400000000000    0.1885400000000000    0.3964200000000000 H
   0.3423500000000000    0.0776100000000000    0.3819950000000000 H
   0.4156500000000000    0.1425400000000000    0.3351250000000000 H
   0.5827900000000000    0.8113800000000000    0.6035699999999999 H
   0.6576700000000000    0.9223200000000000    0.6180000000000000 H
   0.5843400000000000    0.8573900000000000    0.6648600000000000 H
   0.0058100000000000    0.7896500000000000    0.0529100000000000 H
   0.0409700000000000    0.7938600000000000    0.9884999999999999 H
   0.1178600000000000    0.8559700000000000    0.0341450000000000 H
   0.9941800000000000    0.2103700000000000    0.9470799999999999 H
   0.9590000000000000    0.2061500000000000    0.0114450000000000 H
   0.8821500000000000    0.1440200000000000    0.9658400000000000 H
   0.0828100000000000    0.3112900000000000    0.8971600000000000 H
   0.1590800000000000    0.4213700000000000    0.8827300000000000 H
   0.0861900000000000    0.3567700000000000    0.8357450000000000 H
   0.9171700000000000    0.6887300000000000    0.1028300000000000 H
   0.8408600000000001    0.5786800000000000    0.1172600000000000 H
   0.9137900000000000    0.6432600000000001    0.1642400000000000 H
   0.5207218992676812    0.2445893721135873    0.0756428996557316 H
   0.7390451948570904    0.0164128754623874    0.0790826813937279 H
   0.6271655074834342    0.1276211848319094    0.0762369224171497 H
   0.2895200000000000    0.9945800000000000    0.3017500000000000 H
   0.2929200000000000    0.9589200000000000    0.2375000000000000 H
   0.3558700000000000    0.8823900000000000    0.2830700000000000 H
   0.7104700000000000    0.0053900000000000    0.1982400000000000 H
   0.7070900000000000    0.0410400000000000    0.2624950000000000 H
   0.6441200000000000    0.1175800000000000    0.2169000000000000 H
   0.1896700000000000    0.0831800000000000    0.3526350000000000 H
   0.0795800000000000    0.1592800000000000    0.3671150000000000 H
   0.1443300000000000    0.0861800000000000    0.4140650000000000 H
   0.8103300000000000    0.9168200000000000    0.1473400000000000 H
   0.9204300000000000    0.8407200000000000    0.1328600000000000 H
   0.8556900000000000    0.9138300000000000    0.0859150000000000 H
   0.0058100000000000    0.7896500000000000    0.5529100000000000 H
   0.0409700000000000    0.7938600000000000    0.4885000000000000 H
   0.1178600000000000    0.8559700000000000    0.5341450000000000 H
   0.9941800000000000    0.2103700000000000    0.4470800000000000 H
   0.9590000000000000    0.2061500000000000    0.5114450000000000 H
   0.8821500000000000    0.1440200000000000    0.4658400000000000 H
   0.0828100000000000    0.3112900000000000    0.3971600000000000 H
   0.1590800000000000    0.4213700000000000    0.3827300000000000 H
   0.0861900000000000    0.3567700000000000    0.3357450000000000 H
   0.9171700000000000    0.6887300000000000    0.6028300000000000 H
   0.8408600000000001    0.5786800000000000    0.6172600000000000 H
   0.9137900000000000    0.6432600000000001    0.6642399999999999 H
   0.4792227278695880    0.7553046982273913    0.9243297085299769 H
   0.2609934568230908    0.9835833128283146    0.9208984024213739 H
   0.3728243290773072    0.8723279557691253    0.9237400242067096 H
   0.2895200000000000    0.9945800000000000    0.8017500000000000 H
   0.2929200000000000    0.9589200000000000    0.7375000000000000 H
   0.3558700000000000    0.8823900000000000    0.7830699999999999 H
   0.7104700000000000    0.0053900000000000    0.6982400000000000 H
   0.7070900000000000    0.0410400000000000    0.7624949999999999 H
   0.6441200000000000    0.1175800000000000    0.7169000000000000 H
   0.1896700000000000    0.0831800000000000    0.8526350000000000 H
   0.0795800000000000    0.1592800000000000    0.8671150000000001 H
   0.1443300000000000    0.0861800000000000    0.9140650000000000 H
   0.8103300000000000    0.9168200000000000    0.6473400000000000 H
   0.9204300000000000    0.8407200000000000    0.6328600000000000 H
   0.8556900000000000    0.9138300000000000    0.5859150000000000 H
   0.2091700000000000    0.5675400000000000    0.2764900000000000 C
   0.7907900000000000    0.4324400000000000    0.2234700000000000 C
   0.3796100000000000    0.4107100000000000    0.3756450000000000 C
   0.6203600000000000    0.5892300000000000    0.1243300000000000 C
   0.6210100000000000    0.3807300000000000    0.3197550000000000 C
   0.3789800000000000    0.6192800000000001    0.1802300000000000 C
   0.4416100000000000    0.5557500000000000    0.2159900000000000 C
   0.5196300000000000    0.4910200000000000    0.1992250000000000 C
   0.4213400000000000    0.5639500000000000    0.2665350000000000 C
   0.5583500000000000    0.4442200000000000    0.2839850000000000 C
   0.4803400000000000    0.5089700000000000    0.3007550000000000 C
   0.5786400000000000    0.4360400000000000    0.2334400000000000 C
   0.2091700000000000    0.5675400000000000    0.7764900000000000 C
   0.7907900000000000    0.4324400000000000    0.7234700000000001 C
   0.3796100000000000    0.4107100000000000    0.8756450000000000 C
   0.6203600000000000    0.5892300000000000    0.6243300000000001 C
   0.6210100000000000    0.3807300000000000    0.8197550000000000 C
   0.3789800000000000    0.6192800000000001    0.6802300000000000 C
   0.4416100000000000    0.5557500000000000    0.7159900000000000 C
   0.5196300000000000    0.4910200000000000    0.6992250000000000 C
   0.4213400000000000    0.5639500000000000    0.7665350000000000 C
   0.5583500000000000    0.4442200000000000    0.7839849999999999 C
   0.4803400000000000    0.5089700000000000    0.8007550000000000 C
   0.5786400000000000    0.4360400000000000    0.7334400000000000 C
   0.5678000000000000    0.2906800000000000    0.4738050000000000 C
   0.4321900000000000    0.7092000000000001    0.5261900000000000 C
   0.4119800000000000    0.1200900000000000    0.3737500000000000 C
   0.5880300000000001    0.8798400000000000    0.6262099999999999 C
   0.6194000000000000    0.1198500000000000    0.5698900000000000 C
   0.3806000000000000    0.8800900000000000    0.4300800000000000 C
   0.5558900000000000    0.0577000000000000    0.5340500000000000 C
   0.4907200000000000    0.9799400000000000    0.5507500000000000 C
   0.5644000000000000    0.0784200000000000    0.4835450000000000 C
   0.4441400000000000    0.9421900000000000    0.4659150000000000 C
   0.5093100000000000    0.0199500000000000    0.4492350000000000 C
   0.4356200000000000    0.9215100000000001    0.5164350000000000 C
   0.0682200000000000    0.7907700000000000    0.0264150000000000 C
   0.9317600000000000    0.2092400000000000    0.9735750000000001 C
   0.0892300000000000    0.3795100000000000    0.8743400000000000 C
   0.9107300000000000    0.6205200000000000    0.1255000000000000 C
   0.8793000000000000    0.3794800000000000    0.0696100000000000 C
   0.1206500000000000    0.6205000000000001    0.9303750000000000 C
   0.0564300000000000    0.5581199999999999    0.9660500000000001 C
   0.9913700000000000    0.4804800000000000    0.9492149999999999 C
   0.0640900000000000    0.5783300000000000    0.0166150000000000 C
   0.9434700000000000    0.4419100000000000    0.0339300000000000 C
   0.0085400000000000    0.5195200000000000    0.0507700000000000 C
   0.9358300000000001    0.4216500000000000    0.9833650000000000 C
   0.2904900000000000    0.9318700000000000    0.2754350000000000 C
   0.7095100000000000    0.0681000000000000    0.2245600000000000 C
   0.1215600000000000    0.0893700000000000    0.3754750000000000 C
   0.8784500000000000    0.9106300000000001    0.1245000000000000 C
   0.1192800000000000    0.8790900000000000    0.1801500000000000 C
   0.8807199999999999    0.1209100000000000    0.3197900000000000 C
   0.9426700000000000    0.0567300000000000    0.2840200000000000 C
   0.0202800000000000    0.9914700000000000    0.3007200000000000 C
   0.9216299999999999    0.0643400000000000    0.2335400000000000 C
   0.0573300000000000    0.9432600000000000    0.2159650000000000 C
   0.9797300000000000    0.0085200000000000    0.1992700000000000 C
   0.0783600000000000    0.9356500000000000    0.2664500000000000 C
   0.0682200000000000    0.7907700000000000    0.5264150000000000 C
   0.9317600000000000    0.2092400000000000    0.4735750000000000 C
   0.0892300000000000    0.3795100000000000    0.3743400000000000 C
   0.9107300000000000    0.6205200000000000    0.6254999999999999 C
   0.8793000000000000    0.3794800000000000    0.5696099999999999 C
   0.1206500000000000    0.6205000000000001    0.4303750000000000 C
   0.0564300000000000    0.5581199999999999    0.4660500000000000 C
   0.9913700000000000    0.4804800000000000    0.4492150000000000 C
   0.0640900000000000    0.5783300000000000    0.5166150000000000 C
   0.9434700000000000    0.4419100000000000    0.5339300000000000 C
   0.0085400000000000    0.5195200000000000    0.5507700000000000 C
   0.9358300000000001    0.4216500000000000    0.4833650000000000 C
   0.2904900000000000    0.9318700000000000    0.7754350000000000 C
   0.7095100000000000    0.0681000000000000    0.7245600000000000 C
   0.1215600000000000    0.0893700000000000    0.8754750000000000 C
   0.8784500000000000    0.9106300000000001    0.6245000000000001 C
   0.1192800000000000    0.8790900000000000    0.6801500000000000 C
   0.8807199999999999    0.1209100000000000    0.8197900000000000 C
   0.9426700000000000    0.0567300000000000    0.7840199999999999 C
   0.0202800000000000    0.9914700000000000    0.8007200000000000 C
   0.9216299999999999    0.0643400000000000    0.7335400000000000 C
   0.0573300000000000    0.9432600000000000    0.7159650000000000 C
   0.9797300000000000    0.0085200000000000    0.6992700000000001 C
   0.0783600000000000    0.9356500000000000    0.7664500000000001 C
   0.3205000000000000    0.6487000000000001    0.2831300000000000 S
   0.6794700000000000    0.3512600000000000    0.2168500000000000 S
   0.5369200000000000    0.4808700000000000    0.1344500000000000 S
   0.4630300000000000    0.5190900000000001    0.3655300000000000 S
   0.3205000000000000    0.6487000000000001    0.7831300000000000 S
   0.6794700000000000    0.3512600000000000    0.7168500000000000 S
   0.5369200000000000    0.4808700000000000    0.6344500000000000 S
   0.4630300000000000    0.5190900000000001    0.8655300000000000 S
   0.3507900000000000    0.8205000000000000    0.5328000000000001 S
   0.6492500000000000    0.1794200000000000    0.4671750000000000 S
   0.4796000000000000    0.9627700000000000    0.6155050000000000 S
   0.5204000000000000    0.0371500000000000    0.3844800000000000 S
   0.1489100000000000    0.6790100000000000    0.0332900000000000 S
   0.8510200000000000    0.3209600000000000    0.9666900000000000 S
   0.9814000000000001    0.4635300000000000    0.8844300000000000 S
   0.0185300000000000    0.5364600000000000    0.1155550000000000 S
   0.8207600000000000    0.1491700000000000    0.2170900000000000 S
   0.1792300000000000    0.8508100000000000    0.2829000000000000 S
   0.0378600000000000    0.9812900000000000    0.3654700000000000 S
   0.9621400000000000    0.0187100000000000    0.1345200000000000 S
   0.1489100000000000    0.6790100000000000    0.5332900000000000 S
   0.8510200000000000    0.3209600000000000    0.4666900000000000 S
   0.9814000000000001    0.4635300000000000    0.3844300000000000 S
   0.0185300000000000    0.5364600000000000    0.6155550000000000 S
   0.8207600000000000    0.1491700000000000    0.7170900000000000 S
   0.1792300000000000    0.8508100000000000    0.7828999999999999 S
   0.0378600000000000    0.9812900000000000    0.8654700000000000 S
   0.9621400000000000    0.0187100000000000    0.6345200000000000 S
   0.5816900000000000    0.2973300000000000    0.3332350000000000 O
   0.7066900000000000    0.4180300000000000    0.3311650000000000 O
   0.4183100000000000    0.7026800000000000    0.1667450000000000 O
   0.2933000000000000    0.5819800000000001    0.1688150000000000 O
   0.5816900000000000    0.2973300000000000    0.8332349999999999 O
   0.7066900000000000    0.4180300000000000    0.8311649999999999 O
   0.4183100000000000    0.7026800000000000    0.6667450000000000 O
   0.2933000000000000    0.5819800000000001    0.6688149999999999 O
   0.7024800000000000    0.0800000000000000    0.5833100000000000 O
   0.5822900000000000    0.2056600000000000    0.5814250000000000 O
   0.2975300000000000    0.9199800000000000    0.4166700000000000 O
   0.4176700000000000    0.7942600000000000    0.4185500000000000 O
   0.7960600000000000    0.4192800000000000    0.0828650000000000 O
   0.9159600000000000    0.2934300000000000    0.0811650000000000 O
   0.2038800000000000    0.5806500000000000    0.9171000000000000 O
   0.0840300000000000    0.7065600000000000    0.9188200000000000 O
   0.5822900000000000    0.2056600000000000    0.0814250000000000 O
   0.7024800000000000    0.0800000000000000    0.0833100000000000 O
   0.0795600000000000    0.7958100000000000    0.1669400000000000 O
   0.2050600000000000    0.9159800000000000    0.1685250000000000 O
   0.9204400000000000    0.2042000000000000    0.3330350000000000 O
   0.7949400000000000    0.0840300000000000    0.3314550000000000 O
   0.7960600000000000    0.4192800000000000    0.5828650000000000 O
   0.9159600000000000    0.2934300000000000    0.5811650000000000 O
   0.2038800000000000    0.5806500000000000    0.4171000000000000 O
   0.0840300000000000    0.7065600000000000    0.4188200000000000 O
   0.4176700000000000    0.7942600000000000    0.9185500000000000 O
   0.2975300000000000    0.9199800000000000    0.9166700000000000 O
   0.0795600000000000    0.7958100000000000    0.6669400000000000 O
   0.2050600000000000    0.9159800000000000    0.6685250000000000 O
   0.9204400000000000    0.2042000000000000    0.8330350000000000 O
   0.7949400000000000    0.0840300000000000    0.8314550000000001 O
