H14 C13 N2
1.0
  13.5289991757661934    0.0000000000000000   -0.0047225117941412
  -1.4265662371981052   13.4593868164228816   -0.0777193462941166
   0.0000000000000000    0.0000000000000000   27.8730000000000011
H C N
14 13 2
direct
   0.4148750000000000    0.4604100000000000    0.8838900000000000 H
   0.4228950000000000    0.2685900000000000    0.9814500000000000 H
   0.3419750000000000    0.3336900000000000    0.9464000000000000 H
   0.4962700000000000    0.4262550000000000    0.0190300000000000 H
   0.4585000000000000    0.4129050000000000    0.1162100000000000 H
   0.2684250000000000    0.4217050000000000    0.0173800000000000 H
   0.3336400000000000    0.3407800000000000    0.0523400000000000 H
   0.4262350000000000    0.4962350000000000    0.9810100000000000 H
   0.5441150000000000    0.4839350000000000    0.8203200000000000 H
   0.7117249999999999    0.2804700000000000    0.8819800000000000 H
   0.5908400000000000    0.2493950000000000    0.9500900000000000 H
   0.4819800000000000    0.5421549999999999    0.1801800000000000 H
   0.2804350000000000    0.7109099999999999    0.1176200000000000 H
   0.2494300000000000    0.5899550000000000    0.0491000000000000 H
   0.4809200000000000    0.4210450000000000    0.8864800000000000 C
   0.4930900000000000    0.3544000000000000    0.9237100000000000 C
   0.4164200000000000    0.3392600000000000    0.9628900000000000 C
   0.4195050000000000    0.4791500000000000    0.1135300000000000 C
   0.3535600000000000    0.4916850000000000    0.0758900000000000 C
   0.3390050000000000    0.4153650000000000    0.0362700000000000 C
   0.4249100000000000    0.4247350000000000    0.9998200000000000 C
   0.5518500000000000    0.4343350000000000    0.8504300000000000 C
   0.6458699999999999    0.3201800000000000    0.8850600000000000 C
   0.5781550000000000    0.3035450000000000    0.9224900000000000 C
   0.4328000000000000    0.5501050000000000    0.1498000000000000 C
   0.3197200000000000    0.6447650000000000    0.1146700000000000 C
   0.3031150000000000    0.5770100000000000    0.0770100000000000 C
   0.6334700000000000    0.3850200000000000    0.8495400000000000 N
   0.3840900000000000    0.6321099999999999    0.1505100000000000 N
