H6 O4
1.0
  13.5289991757661934    0.0000000000000000   -0.0047225117941412
  -1.4265662371981052   13.4593868164228816   -0.0777193462941166
   0.0000000000000000    0.0000000000000000   27.8730000000000011
H O
6 4
direct
   0.5933033940842849    0.2545756122126347    0.6458525662897022 H
   0.6724834340365461    0.2878688168322089    0.7211226220315271 H
   0.7079831510255277    0.3110461983599999    0.7696609277967869 H
   0.6101874472772424    0.6221989315840538    0.6759521094935174 H
   0.7091243605129270    0.5491552937001346    0.7744437269100910 H
   0.7152836131733185    0.6388659108165559    0.7333597997765351 H
   0.5707800000000000    0.2745000000000000    0.6771400000000000 O
   0.6542650000000000    0.3039850000000000    0.7464300000000000 O
   0.5784950000000000    0.5593000000000000    0.6876300000000000 O
   0.6538950000000000    0.5170300000000000    0.7559800000000000 O
