C8 O4 F4
1.0
  24.6611206442229616    0.0000000000000000   -6.7756736617903934
  -0.0275108979718007   12.7698145943510735    0.0630743719043191
   0.0000000000000000    0.0000000000000000   17.7149999999999999
C O F
8 4 4
direct
   0.3095000000000000    0.3104500000000000    0.0547000000000000 C
   0.3257400000000000    0.3326700000000000    0.9868700000000000 C
   0.2884400000000000    0.3684400000000000    0.9194000000000000 C
   0.2346300000000000    0.3867000000000000    0.9186500000000000 C
   0.2187700000000000    0.3682300000000000    0.9870900000000000 C
   0.2553500000000000    0.3290800000000000    0.0538900000000000 C
   0.3482300000000000    0.2602800000000000    0.1239400000000000 C
   0.1936400000000000    0.4197200000000000    0.8452600000000000 C
   0.3305300000000000    0.1781300000000000    0.1496700000000000 O
   0.3947800000000000    0.3020900000000000    0.1482200000000000 O
   0.1814600000000000    0.5119800000000000    0.8285100000000000 O
   0.1697200000000000    0.3436500000000000    0.7985600000000000 O
   0.3771200000000000    0.3155200000000000    0.9843000000000000 F
   0.3043600000000000    0.3824000000000000    0.8531700000000000 F
   0.1669200000000000    0.3866100000000000    0.9876500000000000 F
   0.2378700000000000    0.3110200000000000    0.1178900000000000 F
