Zn16 C120 O60 F60
1.0
  24.6611206442229616    0.0000000000000000   -6.7756736617903934
  -0.0275108979718007   12.7698145943510735    0.0630743719043191
   0.0000000000000000    0.0000000000000000   17.7149999999999999
Zn C O F
16 120 60 60
direct
   0.5425600000000000    0.7431500000000000    0.7664100000000000 Zn
   0.1244900000000000    0.9377700000000000    0.7907300000000000 Zn
   0.6244800000000000    0.9377700000000000    0.7907300000000000 Zn
   0.2066100000000000    0.2479600000000000    0.7347700000000000 Zn
   0.7066000000000000    0.2479600000000000    0.7347700000000000 Zn
   0.1246700000000000    0.4399900000000000    0.7092500000000000 Zn
   0.6246600000000000    0.4399900000000000    0.7092500000000000 Zn
   0.4573300000000000    0.2568000000000000    0.2336500000000000 Zn
   0.9573199999999999    0.2568000000000000    0.2336500000000000 Zn
   0.3753700000000000    0.0622100000000000    0.2093600000000000 Zn
   0.8753600000000000    0.0622100000000000    0.2093600000000000 Zn
   0.2933500000000000    0.7521300000000000    0.2651700000000000 Zn
   0.7933400000000000    0.7521300000000000    0.2651700000000000 Zn
   0.3752900000000000    0.5599800000000000    0.2907300000000000 Zn
   0.8752799999999999    0.5599800000000000    0.2907300000000000 Zn
   0.0425700000000000    0.7431500000000000    0.7664100000000000 Zn
   0.1904400000000000    0.6894700000000000    0.9452900000000000 C
   0.6904200000000000    0.6894700000000000    0.9452900000000000 C
   0.1742000000000000    0.6672600000000000    0.0131200000000000 C
   0.6741900000000000    0.6672600000000000    0.0131200000000000 C
   0.2115100000000000    0.6314900000000000    0.0805800000000000 C
   0.7115000000000000    0.6314900000000000    0.0805800000000000 C
   0.2653100000000000    0.6132000000000000    0.0813200000000000 C
   0.7653000000000000    0.6131900000000000    0.0813200000000000 C
   0.2811700000000000    0.6316400000000000    0.0128800000000000 C
   0.7811600000000000    0.6316400000000000    0.0128800000000000 C
   0.2445900000000000    0.6708200000000000    0.9460900000000000 C
   0.7445800000000000    0.6708200000000000    0.9460900000000000 C
   0.1516900000000000    0.7396900000000000    0.8760900000000000 C
   0.6516800000000000    0.7396900000000000    0.8760900000000000 C
   0.3063100000000000    0.5802600000000000    0.1547300000000000 C
   0.8063000000000000    0.5802600000000000    0.1547300000000000 C
   0.2186300000000000    0.0848000000000000    0.8404199999999999 C
   0.7186200000000000    0.0848000000000000    0.8404199999999999 C
   0.2354300000000000    0.0403400000000000    0.9224900000000000 C
   0.7354200000000000    0.0403400000000000    0.9224900000000000 C
   0.2762900000000000    0.9653700000000000    0.9457300000000000 C
   0.7762800000000000    0.9653700000000000    0.9457300000000000 C
   0.2900500000000000    0.9261700000000000    0.0221500000000000 C
   0.7900400000000000    0.9261700000000000    0.0221500000000000 C
   0.0338100000000000    0.9186600000000000    0.8664400000000000 C
   0.5338000000000001    0.9186600000000000    0.8664400000000000 C
   0.0147000000000000    0.9588000000000000    0.9343900000000001 C
   0.5147000000000000    0.9587900000000000    0.9343900000000001 C
   0.4629000000000000    0.9997000000000000    0.9266100000000000 C
   0.9629000000000000    0.9997000000000000    0.9266100000000000 C
   0.4484400000000000    0.0397400000000000    0.9913000000000000 C
   0.9484399999999999    0.0397400000000000    0.9913000000000000 C
   0.0610300000000000    0.1919600000000000    0.5534600000000000 C
   0.5610200000000000    0.1919600000000000    0.5534600000000000 C
   0.0776700000000000    0.1693200000000000    0.4862800000000000 C
   0.5776700000000000    0.1693200000000000    0.4862800000000000 C
   0.0408300000000000    0.1328100000000000    0.4188000000000000 C
   0.5408200000000000    0.1328100000000000    0.4188000000000000 C
   0.4870000000000000    0.1131500000000000    0.4177400000000000 C
   0.9870000000000000    0.1131500000000000    0.4177400000000000 C
   0.4709500000000000    0.1313800000000000    0.4859700000000000 C
   0.9709500000000000    0.1313900000000000    0.4859700000000000 C
   0.0069400000000000    0.1723900000000000    0.5522899999999999 C
   0.5069300000000000    0.1723900000000000    0.5522899999999999 C
   0.0990900000000000    0.2427600000000000    0.6226000000000000 C
   0.5990799999999999    0.2427600000000000    0.6226000000000000 C
   0.4459900000000000    0.0797200000000000    0.3445600000000000 C
   0.9459800000000000    0.0797300000000000    0.3445600000000000 C
   0.0299000000000000    0.5847700000000000    0.6591399999999999 C
   0.5298900000000000    0.5847800000000000    0.6591399999999999 C
   0.0134000000000000    0.5406600000000000    0.5772400000000000 C
   0.5133900000000000    0.5406700000000000    0.5772000000000000 C
   0.4718400000000000    0.4669700000000000    0.5531000000000000 C
   0.9718300000000000    0.4669700000000000    0.5531000000000000 C
   0.4586600000000000    0.4274200000000000    0.4770600000000000 C
   0.9586500000000000    0.4274200000000000    0.4770600000000000 C
   0.2162400000000000    0.4248900000000000    0.6359100000000000 C
   0.7162200000000000    0.4248900000000000    0.6359100000000000 C
   0.2352700000000000    0.4631300000000000    0.5671600000000000 C
   0.7352500000000000    0.4631300000000000    0.5671600000000000 C
   0.2871700000000000    0.5029400000000001    0.5734000000000000 C
   0.7871500000000000    0.5029400000000001    0.5734300000000000 C
   0.3013700000000000    0.5387000000000000    0.5071099999999999 C
   0.8013600000000000    0.5387000000000000    0.5071099999999999 C
   0.8094900000000000    0.3104500000000000    0.0547000000000000 C
   0.8257300000000000    0.3326700000000000    0.9868700000000000 C
   0.7884300000000000    0.3684400000000000    0.9194000000000000 C
   0.7346200000000001    0.3867000000000000    0.9186500000000000 C
   0.7187600000000000    0.3682300000000000    0.9870900000000000 C
   0.7553400000000000    0.3290800000000000    0.0538900000000000 C
   0.8482100000000000    0.2602800000000000    0.1239400000000000 C
   0.6936300000000000    0.4197200000000000    0.8452600000000000 C
   0.2808500000000000    0.9155500000000000    0.1595200000000000 C
   0.7808400000000000    0.9155500000000000    0.1595200000000000 C
   0.2637800000000000    0.9600700000000000    0.0774300000000000 C
   0.7637699999999999    0.9600600000000000    0.0774300000000000 C
   0.2229900000000000    0.0350500000000000    0.0542000000000000 C
   0.7229800000000000    0.0350400000000000    0.0542000000000000 C
   0.2089100000000000    0.0740000000000000    0.9776700000000000 C
   0.7089000000000000    0.0740000000000000    0.9776700000000000 C
   0.4659600000000000    0.0811500000000000    0.1335900000000000 C
   0.9659500000000000    0.0811500000000000    0.1335900000000000 C
   0.4851000000000000    0.0410200000000000    0.0656000000000000 C
   0.9850900000000000    0.0410200000000000    0.0656700000000000 C
   0.0369200000000000    0.0000000000000000    0.0734300000000000 C
   0.5369100000000000    0.0000000000000000    0.0734300000000000 C
   0.0513500000000000    0.9601200000000000    0.0087400000000000 C
   0.5513500000000000    0.9601200000000000    0.0087400000000000 C
   0.4389400000000000    0.8080100000000000    0.4465200000000000 C
   0.9389300000000000    0.8080100000000000    0.4465200000000000 C
   0.4223000000000000    0.8306300000000000    0.5137000000000000 C
   0.9222900000000001    0.8306300000000000    0.5137100000000000 C
   0.4591500000000000    0.8671100000000000    0.5811900000000000 C
   0.9591400000000000    0.8671100000000000    0.5811900000000000 C
   0.0129700000000000    0.8867400000000000    0.5822600000000000 C
   0.5129600000000000    0.8867400000000000    0.5822600000000000 C
   0.0290200000000000    0.8685500000000000    0.5140300000000000 C
   0.5290200000000000    0.8685500000000000    0.5140300000000000 C
   0.4930300000000000    0.8275700000000000    0.4477000000000000 C
   0.9930200000000000    0.8275700000000000    0.4477000000000000 C
   0.4008700000000000    0.7572600000000000    0.3773000000000000 C
   0.9008600000000000    0.7572600000000000    0.3773600000000000 C
   0.0539500000000000    0.9202200000000000    0.6554000000000000 C
   0.5539500000000001    0.9202200000000000    0.6554500000000000 C
   0.4700700000000000    0.4152000000000000    0.3408800000000000 C
   0.9700600000000000    0.4152000000000000    0.3408800000000000 C
   0.4865800000000000    0.4593200000000000    0.4227700000000000 C
   0.9865699999999999    0.4593200000000000    0.4227700000000000 C
   0.0281400000000000    0.5330200000000000    0.4469000000000000 C
   0.5281300000000000    0.5330200000000000    0.4469000000000000 C
   0.0413200000000000    0.5725700000000000    0.5229500000000000 C
   0.5413100000000000    0.5725700000000000    0.5229500000000000 C
   0.2837300000000000    0.5751100000000000    0.3640000000000000 C
   0.7837200000000000    0.5751100000000000    0.3640700000000000 C
   0.2646900000000000    0.5368500000000000    0.4328100000000000 C
   0.7646700000000000    0.5368500000000000    0.4328100000000000 C
   0.2127900000000000    0.4970400000000000    0.4265400000000000 C
   0.7127700000000000    0.4970400000000000    0.4265400000000000 C
   0.1985800000000000    0.4612800000000000    0.4928700000000000 C
   0.6985700000000000    0.4612800000000000    0.4928700000000000 C
   0.5777700000000000    0.8440200000000000    0.7024600000000000 O
   0.4280500000000000    0.4487900000000000    0.2914000000000000 O
   0.9280400000000000    0.4487900000000000    0.2914200000000000 O
   0.9981800000000000    0.3405700000000000    0.3247300000000000 O
   0.1693600000000000    0.8218900000000000    0.8503800000000000 O
   0.6693500000000000    0.8218900000000000    0.8503800000000000 O
   0.1051300000000000    0.6978900000000000    0.8518400000000000 O
   0.6051200000000000    0.6978900000000000    0.8518400000000000 O
   0.3185600000000000    0.4880200000000000    0.1710000000000000 O
   0.8185500000000000    0.4880200000000000    0.1710000000000000 O
   0.3301900000000000    0.6563800000000000    0.2014100000000000 O
   0.8301800000000000    0.6563800000000000    0.2014100000000000 O
   0.1771400000000000    0.0498000000000000    0.7907800000000000 O
   0.6771200000000001    0.0498000000000000    0.7907800000000000 O
   0.2464100000000000    0.1609300000000000    0.8247400000000000 O
   0.7464000000000000    0.1609300000000000    0.8247400000000000 O
   0.0743900000000000    0.9680400000000000    0.8557399999999999 O
   0.5743800000000000    0.9680500000000000    0.8557399999999999 O
   0.5092300000000000    0.8404500000000000    0.8285000000000000 O
   0.0000000000000000    0.8404500000000000    0.8285600000000000 O
   0.0810200000000000    0.3249700000000000    0.6469000000000000 O
   0.5810100000000000    0.3249700000000000    0.6469600000000000 O
   0.1454400000000000    0.2010300000000000    0.6483800000000000 O
   0.6454299999999999    0.2010300000000000    0.6483000000000000 O
   0.4333800000000000    0.9875000000000000    0.3285000000000000 O
   0.9333700000000000    0.9875000000000000    0.3285000000000000 O
   0.4221200000000000    0.1559700000000000    0.2976400000000000 O
   0.9221200000000001    0.1559700000000000    0.2976400000000000 O
   0.0719200000000000    0.5511800000000000    0.7086000000000000 O
   0.5719100000000000    0.5511800000000000    0.7086000000000000 O
   0.5017600000000000    0.6593800000000000    0.6752899999999999 O
   0.0000000000000000    0.6593700000000000    0.6750000000000000 O
   0.1759300000000000    0.4745600000000000    0.6465200000000000 O
   0.6759200000000000    0.4745600000000000    0.6465200000000000 O
   0.2406100000000000    0.3467700000000000    0.6744100000000000 O
   0.7406000000000000    0.3467700000000000    0.6744100000000000 O
   0.8305200000000000    0.1781300000000000    0.1496700000000000 O
   0.8947700000000000    0.3020900000000000    0.1482200000000000 O
   0.6814400000000000    0.5119800000000000    0.8285100000000000 O
   0.6697000000000000    0.3436500000000000    0.7985600000000000 O
   0.3223700000000000    0.9506700000000000    0.2090500000000000 O
   0.8223600000000000    0.9506700000000000    0.2090500000000000 O
   0.2533200000000000    0.8390800000000000    0.1752700000000000 O
   0.7533100000000000    0.8390700000000000    0.1752700000000000 O
   0.4253200000000000    0.0318500000000000    0.1441800000000000 O
   0.9253100000000000    0.0318500000000000    0.1441800000000000 O
   0.9905600000000000    0.1593000000000000    0.1715000000000000 O
   0.4905500000000000    0.1593000000000000    0.1715000000000000 O
   0.4189100000000000    0.6750000000000000    0.3530200000000000 O
   0.9189000000000001    0.6750000000000000    0.3530200000000000 O
   0.3545400000000000    0.7990900000000000    0.3515000000000000 O
   0.8545300000000000    0.7990900000000000    0.3515200000000000 O
   0.0665600000000000    0.0124500000000000    0.6714300000000000 O
   0.5665500000000000    0.0124500000000000    0.6714300000000000 O
   0.0777800000000000    0.8440200000000000    0.7024600000000000 O
   0.4981800000000000    0.3405600000000000    0.3247300000000000 O
   0.3240200000000000    0.5254100000000000    0.3534600000000000 O
   0.8240100000000000    0.5254100000000000    0.3534600000000000 O
   0.2593900000000000    0.6532700000000000    0.3256100000000000 O
   0.7593800000000001    0.6532700000000000    0.3256100000000000 O
   0.3708600000000000    0.8131500000000000    0.5157500000000000 F
   0.8708500000000000    0.8131500000000000    0.5157000000000000 F
   0.4424900000000000    0.8802700000000000    0.6467800000000000 F
   0.9424900000000000    0.8802700000000000    0.6467800000000000 F
   0.0805200000000000    0.8888900000000000    0.5126600000000000 F
   0.1228300000000000    0.6844400000000000    0.0157000000000000 F
   0.6228200000000000    0.6844400000000000    0.0157000000000000 F
   0.1956200000000000    0.6175700000000000    0.1468400000000000 F
   0.6956100000000000    0.6175700000000000    0.1468400000000000 F
   0.3330400000000000    0.6133700000000000    0.0123400000000000 F
   0.8330300000000000    0.6133700000000000    0.0123400000000000 F
   0.2621000000000000    0.6889700000000000    0.8821300000000000 F
   0.7620900000000000    0.6889700000000000    0.8821300000000000 F
   0.3020900000000000    0.9291500000000000    0.8941700000000000 F
   0.8020900000000000    0.9291500000000000    0.8941800000000000 F
   0.3293900000000000    0.8533800000000000    0.0433300000000000 F
   0.8293800000000000    0.8533800000000000    0.0433300000000000 F
   0.4267000000000000    0.0041500000000000    0.8560200000000000 F
   0.9266900000000000    0.0041500000000000    0.8560200000000000 F
   0.3982200000000000    0.0798200000000000    0.9810100000000000 F
   0.8982100000000000    0.0798200000000000    0.9810100000000000 F
   0.1291100000000000    0.1868200000000000    0.4842300000000000 F
   0.6291099999999999    0.1868200000000000    0.4842300000000000 F
   0.0574900000000000    0.1196900000000000    0.3532100000000000 F
   0.5574800000000000    0.1196900000000000    0.3532100000000000 F
   0.4194500000000000    0.1110800000000000    0.4873300000000000 F
   0.9194400000000000    0.1110800000000000    0.4873300000000000 F
   0.4888900000000000    0.1911700000000000    0.6155100000000000 F
   0.9888900000000000    0.1911700000000000    0.6155100000000000 F
   0.4445500000000000    0.4314700000000000    0.6032999999999999 F
   0.9445400000000000    0.4314700000000000    0.6032999999999999 F
   0.4183100000000000    0.3561400000000000    0.4561000000000000 F
   0.9183000000000000    0.3561400000000000    0.4561600000000000 F
   0.3237100000000000    0.5106100000000000    0.6435999999999999 F
   0.8237000000000000    0.5106100000000000    0.6435999999999999 F
   0.3516100000000000    0.5779700000000000    0.5157400000000000 F
   0.8516000000000000    0.5779700000000000    0.5157400000000000 F
   0.8771099999999999    0.3155300000000000    0.9843000000000000 F
   0.8043500000000000    0.3824000000000000    0.8531700000000000 F
   0.6669100000000000    0.3866100000000000    0.9876500000000000 F
   0.7378600000000000    0.3110200000000000    0.1178900000000000 F
   0.1976000000000000    0.0711300000000000    0.1061700000000000 F
   0.6976000000000000    0.0711400000000000    0.1061700000000000 F
   0.1690900000000000    0.1461200000000000    0.9565100000000000 F
   0.6690900000000000    0.1461200000000000    0.9565100000000000 F
   0.0732200000000000    0.9958500000000000    0.1439600000000000 F
   0.5732200000000000    0.9958500000000000    0.1439600000000000 F
   0.1015900000000000    0.9201500000000000    0.0190100000000000 F
   0.6015900000000000    0.9201400000000000    0.0190100000000000 F
   0.5805100000000000    0.8888900000000000    0.5126600000000000 F
   0.0110900000000000    0.8088100000000000    0.3844800000000000 F
   0.5110900000000000    0.8088000000000000    0.3844800000000000 F
   0.0554400000000000    0.5685000000000000    0.3967000000000000 F
   0.5554300000000000    0.5685000000000000    0.3967000000000000 F
   0.0816700000000000    0.6438400000000000    0.5438400000000000 F
   0.5816600000000000    0.6438400000000000    0.5438400000000000 F
   0.1762200000000000    0.4893700000000000    0.3560000000000000 F
   0.6762000000000000    0.4893700000000000    0.3560000000000000 F
   0.1483500000000000    0.4220000000000000    0.4842500000000000 F
   0.6483400000000000    0.4220000000000000    0.4842500000000000 F
