H4 O2
1.0
  20.2694998487261486    0.0000000000000000   -0.0024763865829717
  -0.0001248826360984    7.1534999945517654   -0.0002497042560310
   0.0000000000000000    0.0000000000000000   14.3729999999999993
H O
4 2
direct
   0.4560741835053110    0.3839433841823074    0.7500302212848249 H
   0.4560757286327502    0.6162364194303911    0.7500374518067358 H
   0.5439080040693303    0.6162346008095363    0.7499511640929162 H
   0.5439087489462360    0.3839415585577854    0.7499439304294021 H
   0.4305700000000000    0.5000900000000000    0.7500700000000000 O
   0.5694133333333333    0.5000900000000000    0.7499150000000000 O
