H4 C4 N2
1.0
  20.2694998487261486    0.0000000000000000   -0.0024763865829717
  -0.0001248826360984    7.1534999945517654   -0.0002497042560310
   0.0000000000000000    0.0000000000000000   14.3729999999999993
H C N
4 4 2
direct
   0.5619866666666666    0.7904400000000000    0.7498800000000000 H
   0.4379999999999999    0.7904400000000000    0.7501150000000000 H
   0.4379966666666666    0.2097400000000000    0.7500899999999999 H
   0.5619833333333333    0.2097400000000000    0.7498600000000000 H
   0.5341500000000000    0.6606700000000000    0.7499650000000000 C
   0.4658333333333333    0.6606700000000000    0.7500249999999999 C
   0.4658333333333333    0.3395000000000000    0.7500150000000000 C
   0.5341500000000000    0.3395000000000000    0.7499550000000000 C
   0.5694133333333333    0.5000900000000000    0.7499150000000000 N
   0.4305700000000000    0.5000900000000000    0.7500700000000000 N
