H4 O4
1.0
  22.4290231979429286    0.0000000000000000   -2.0443586735546218
   0.0062873478096679   16.3079984874494173    0.0031309112193341
   0.0000000000000000    0.0000000000000000   14.5109999999999992
H O
4 4
direct
   0.3827801805982449    0.4192591091166897    0.9249079659518437 H
   0.5106236385493380    0.3244033588578129    0.9269436335488310 H
   0.4893473940202901    0.6756126071396764    0.0729851348449705 H
   0.6171916712933486    0.5807558069922742    0.0750334480717980 H
   0.3703700000000000    0.3681000000000000    0.9527200000000000 O
   0.5372300000000000    0.2838000000000000    0.9585500000000000 O
   0.4627400000000000    0.7162100000000000    0.0413700000000000 O
   0.6296100000000000    0.6319100000000000    0.0472200000000000 O
