H2 C10 O8
1.0
  22.4290231979429286    0.0000000000000000   -2.0443586735546218
   0.0062873478096679   16.3079984874494173    0.0031309112193341
   0.0000000000000000    0.0000000000000000   14.5109999999999992
H C O
2 10 8
direct
   0.5905600000000000    0.4137000000000000    0.0172900000000000 H
   0.4094100000000000    0.5863200000000000    0.9826400000000000 H
   0.5019500000000000    0.3376400000000000    0.9166400000000000 C
   0.4985300000000000    0.4192200000000000    0.9645400000000000 C
   0.4466100000000000    0.4680900000000000    0.9554900000000000 C
   0.5507100000000000    0.4517200000000000    0.0102400000000000 C
   0.3868800000000000    0.4361600000000000    0.9157200000000000 C
   0.4980200000000000    0.6623800000000000    0.0832900000000000 C
   0.5014400000000000    0.5808000000000000    0.0354000000000000 C
   0.5533700000000000    0.5319300000000000    0.0444500000000000 C
   0.4492600000000000    0.5482900000000001    0.9897000000000000 C
   0.6130900000000000    0.5638600000000000    0.0842200000000000 C
   0.4627400000000000    0.7162100000000000    0.0413700000000000 O
   0.5262100000000000    0.6728000000000000    0.1609500000000000 O
   0.5372300000000000    0.2838000000000000    0.9585500000000000 O
   0.4737600000000000    0.3272300000000000    0.8389700000000000 O
   0.3703700000000000    0.3681000000000000    0.9527200000000000 O
   0.3563200000000000    0.4760700000000000    0.8549500000000000 O
   0.6296100000000000    0.6319100000000000    0.0472200000000000 O
   0.6436500000000001    0.5239400000000000    0.1449900000000000 O
