H4 O2
1.0
  34.0762254946218803    0.0000000000000000   11.1305866889253178
   1.0680194982748841   17.1903378673226861    5.1571367403430637
   0.0000000000000000    0.0000000000000000   27.5500000000000007
H O
4 2
direct
   0.6605920986029946    0.5435406032484079   -0.0194803735175859 H
   0.6860863857620775    0.6098481103018767   -0.0127189050829265 H
   0.7846929029161819    0.5828025954723739    0.7651223955074339 H
   0.8147170539076302    0.5221816622259235    0.7979510033055596 H
   0.6627400000000000    0.5797200000000000    0.0000000000000000 O
   0.8095350000000000    0.5517100000000000    0.7646100000000000 O
