H2 C4 O4
1.0
  34.0762254946218803    0.0000000000000000   11.1305866889253178
   1.0680194982748841   17.1903378673226861    5.1571367403430637
   0.0000000000000000    0.0000000000000000   27.5500000000000007
H C O
2 4 4
direct
   0.6218700000000000    0.8376700000000000    0.5706500000000000 H
   0.5993200000000000    0.7954200000000000    0.6922850000000000 H
   0.6113100000000000    0.7166300000000000    0.6172250000000000 C
   0.6135349999999999    0.8010400000000000    0.6109800000000000 C
   0.6072500000000000    0.8320100000000000    0.6519200000000001 C
   0.6103550000000000    0.9162700000000000    0.6453300000000000 C
   0.5952700000000000    0.6744599999999999    0.6628350000000001 O
   0.6265100000000000    0.6934600000000000    0.5750050000000000 O
   0.6033150000000000   -0.0625900000000001    0.6879900000000000 O
   0.6192650000000000   -0.0396700000000000    0.5985350000000000 O
