H6 O4
1.0
  34.0762254946218803    0.0000000000000000   11.1305866889253178
   1.0680194982748841   17.1903378673226861    5.1571367403430637
   0.0000000000000000    0.0000000000000000   27.5500000000000007
H O
6 4
direct
   0.6254148454354105   -0.0575561177371300    0.5667288640845327 H
   0.5974511290415684   -0.0966781390711840    0.7234556968004273 H
   0.6113182386391032   -0.0858664985853326    0.6465983750245926 H
   0.5830424006518327    0.6934411694802142    0.6940943536043339 H
   0.6379713315650861    0.7254717888108049    0.5398263875975524 H
   0.6108025989750393    0.7178429416109513    0.6151603231230067 H
   0.6192650000000000   -0.0396700000000000    0.5985350000000000 O
   0.6033150000000000   -0.0625900000000001    0.6879900000000000 O
   0.5952700000000000    0.6744599999999999    0.6628350000000001 O
   0.6265100000000000    0.6934600000000000    0.5750050000000000 O
