H8 O5
1.0
  25.3139701426833383    0.0000000000000000   -0.0388794976369346
  -1.3653142299862207   13.5328009312392687   -0.0042730371774916
   0.0000000000000000    0.0000000000000000   29.3320000000000007
H O
8 5
direct
   0.1631989631309317    0.8735631274761426    0.7755246044080364 H
   0.0903916723721466   -0.1094210692982923    0.8200496849470722 H
   0.0325354966572371   -0.0903937517038469    0.8531030797969130 H
   0.0251461483125094    0.6104860966982231    0.9043415202388903 H
   0.1161848401842704    0.5412800904699622    0.9443346429910489 H
   0.1250147267495392    0.6896383766679790    0.9175308151775453 H
   0.1866916753173823    0.7428940233355961    0.9084669342773888 H
   0.0978281440017452    0.5371902142290993    0.8348033992726697 H
   0.1316050000000000    0.9010600000000000    0.7863400000000000 O
   0.0603900000000000   -0.0833100000000000    0.8303199999999999 O
   0.0250225000000000    0.6164500000000001    0.9372950000000000 O
   0.0973175000000000    0.5618200000000000    0.9708950000000001 O
   0.1628650000000000    0.6943100000000000    0.9250300000000000 O
