H4 C8 O4
1.0
  24.6534980097002538    0.0000000000000000   13.1046341378042914
   9.5139106386487633   23.9378002490415085   11.8593164894438221
   0.0000000000000000    0.0000000000000000   29.7600000000000016
H C O
4 8 4
direct
   0.9887300000000000    0.0268300000000000    0.4514450000000000 H
   0.1405900000000000    0.9009350000000000    0.3781000000000000 H
   0.0894300000000000    0.8342650000000000    0.4249850000000000 H
   0.9370200000000000    0.9595250000000000    0.5011650000000000 H
   0.1012300000000000    0.0059400000000000    0.3853950000000000 C
   0.0678900000000000    0.9675600000000000    0.4123500000000000 C
   0.0958100000000000    0.9133700000000000    0.4047250000000000 C
   0.0669500000000000    0.8762000000000000    0.4312050000000000 C
   0.0097500000000000    0.8924600000000000    0.4665500000000000 C
   0.9805400000000000    0.8514850000000000    0.4968550000000000 C
   0.9813600000000000    0.9469750000000000    0.4737500000000000 C
   0.0000000000000000    0.9844450000000000    0.4463050000000000 C
   0.0764900000000000    0.0538750000000000    0.3945950000000000 O
   0.1536600000000000    0.9867850000000000    0.3550500000000000 O
   0.0014100000000000    0.8062100000000000    0.4824950000000000 O
   0.9350900000000000    0.8600449999999999    0.5377149999999999 O
