Ca48 H188 C376 O188
1.0
  24.6534980097002538    0.0000000000000000   13.1046341378042914
   9.5139106386487633   23.9378002490415085   11.8593164894438221
   0.0000000000000000    0.0000000000000000   29.7600000000000016
Ca H C O
48 188 376 188
direct
   0.7692200000000000    0.4880850000000000    0.1846200000000000 Ca
   0.4419900000000000    0.2619050000000000    0.0653400000000000 Ca
   0.9419999999999999    0.2619050000000000    0.0653400000000000 Ca
   0.2308600000000000    0.0118950000000000    0.3153450000000000 Ca
   0.7308700000000000    0.0118950000000000    0.3153450000000000 Ca
   0.0580900000000000    0.2380800000000000    0.4346200000000000 Ca
   0.5580900000000000    0.2380800000000000    0.4346200000000000 Ca
   0.3930000000000000    0.3749950000000000    0.1249450000000000 Ca
   0.8930100000000000    0.3750000000000000    0.1249450000000000 Ca
   0.1070800000000000    0.1249850000000000    0.3750200000000000 Ca
   0.6070800000000000    0.1249850000000000    0.3750200000000000 Ca
   0.2692200000000000    0.4880850000000000    0.1846200000000000 Ca
   0.7692200000000000    0.9880850000000000    0.1846200000000000 Ca
   0.4419900000000000    0.7619050000000001    0.0653400000000000 Ca
   0.9419999999999999    0.7619050000000001    0.0653400000000000 Ca
   0.2308600000000000    0.5118950000000000    0.3153450000000000 Ca
   0.7308700000000000    0.5118950000000000    0.3153450000000000 Ca
   0.0580900000000000    0.7380800000000001    0.4346200000000000 Ca
   0.5580900000000000    0.7380800000000001    0.4346200000000000 Ca
   0.3930000000000000    0.8749950000000000    0.1249450000000000 Ca
   0.8930100000000000    0.8750000000000000    0.1249450000000000 Ca
   0.1070800000000000    0.6249850000000000    0.3750200000000000 Ca
   0.6070800000000000    0.6249850000000000    0.3750200000000000 Ca
   0.2692200000000000    0.9880850000000000    0.1846200000000000 Ca
   0.7692200000000000    0.4880850000000000    0.6846200000000000 Ca
   0.4419900000000000    0.2619050000000000    0.5653400000000000 Ca
   0.9419999999999999    0.2619050000000000    0.5653400000000000 Ca
   0.2308600000000000    0.0118950000000000    0.8153450000000000 Ca
   0.7308700000000000    0.0118950000000000    0.8153450000000000 Ca
   0.0580900000000000    0.2380800000000000    0.9346200000000000 Ca
   0.5580900000000000    0.2380800000000000    0.9346200000000000 Ca
   0.3930000000000000    0.3749950000000000    0.6249450000000000 Ca
   0.8930100000000000    0.3750000000000000    0.6249450000000000 Ca
   0.1070800000000000    0.1249850000000000    0.8750200000000000 Ca
   0.6070800000000000    0.1249850000000000    0.8750200000000000 Ca
   0.2692200000000000    0.4880850000000000    0.6846200000000000 Ca
   0.7692200000000000    0.9880850000000000    0.6846200000000000 Ca
   0.4419900000000000    0.7619050000000001    0.5653400000000000 Ca
   0.9419999999999999    0.7619050000000001    0.5653400000000000 Ca
   0.2308600000000000    0.5118950000000000    0.8153450000000000 Ca
   0.7308700000000000    0.5118950000000000    0.8153450000000000 Ca
   0.0580900000000000    0.7380800000000001    0.9346200000000000 Ca
   0.5580900000000000    0.7380800000000001    0.9346200000000000 Ca
   0.3930000000000000    0.8749950000000000    0.6249450000000000 Ca
   0.8930100000000000    0.8750000000000000    0.6249450000000000 Ca
   0.1070800000000000    0.6249850000000000    0.8750200000000000 Ca
   0.6070800000000000    0.6249850000000000    0.8750200000000000 Ca
   0.2692200000000000    0.9880850000000000    0.6846200000000000 Ca
   0.3594900000000000    0.0990450000000000    0.1218400000000000 H
   0.8594900000000000    0.0990400000000000    0.1218400000000000 H
   0.4106500000000000    0.1657200000000000    0.0749750000000000 H
   0.9106600000000000    0.1657200000000000    0.0749800000000000 H
   0.0630700000000000    0.0404550000000000    0.4988100000000000 H
   0.5630700000000000    0.0404550000000000    0.4988100000000000 H
   0.0113700000000000    0.4731450000000000    0.0485300000000000 H
   0.5113700000000000    0.4731450000000000    0.0485300000000000 H
   0.3410100000000000    0.4307600000000000    0.0202100000000000 H
   0.8410100000000000    0.4307650000000000    0.0202100000000000 H
   0.1674000000000000    0.0518850000000000    0.0661250000000000 H
   0.6674000000000000    0.0518850000000000    0.0661250000000000 H
   0.0804600000000000    0.1509350000000000    0.1281350000000000 H
   0.5804600000000000    0.1509350000000000    0.1281350000000000 H
   0.1513900000000000    0.0842550000000000    0.1750350000000000 H
   0.6513900000000000    0.0842550000000000    0.1750350000000000 H
   0.1022400000000000    0.2095150000000000    0.2512200000000000 H
   0.6022400000000000    0.2095150000000000    0.2512200000000000 H
   0.0330400000000000    0.2768350000000000    0.2014300000000000 H
   0.5330400000000000    0.2768350000000000    0.2014300000000000 H
   0.2920400000000000    0.3191600000000000    0.2297900000000000 H
   0.7920500000000000    0.3191600000000000    0.2297950000000000 H
   0.2854100000000000    0.1982000000000000    0.1837850000000000 H
   0.7854200000000000    0.1982000000000000    0.1837900000000000 H
   0.1405900000000000    0.4009350000000000    0.3781000000000000 H
   0.6405999999999999    0.4009350000000000    0.3781000000000000 H
   0.0894300000000000    0.3342650000000000    0.4249850000000000 H
   0.5894300000000000    0.3342600000000000    0.4249900000000000 H
   0.4370200000000000    0.4595300000000000    0.0011600000000000 H
   0.9370200000000000    0.4595250000000000    0.0011650000000000 H
   0.4887300000000000    0.0268300000000000    0.4514400000000000 H
   0.1590700000000000    0.0692150000000000    0.4797550000000000 H
   0.6590700000000000    0.0692150000000000    0.4797550000000000 H
   0.3326800000000000    0.4480900000000000    0.4338400000000000 H
   0.8326900000000000    0.4480950000000000    0.4338400000000000 H
   0.4196000000000000    0.3490350000000000    0.3718500000000000 H
   0.9196000000000000    0.3490350000000000    0.3718500000000000 H
   0.3486800000000000    0.4157200000000000    0.3245000000000000 H
   0.8486800000000000    0.4157200000000000    0.3249500000000000 H
   0.3978300000000000    0.2904600000000000    0.2487500000000000 H
   0.8978400000000000    0.2904600000000000    0.2487500000000000 H
   0.4670400000000000    0.2231400000000000    0.2985500000000000 H
   0.9670400000000000    0.2231400000000000    0.2985500000000000 H
   0.2080300000000000    0.1808300000000000    0.2701500000000000 H
   0.7080400000000000    0.1808300000000000    0.2701700000000000 H
   0.2146600000000000    0.3017900000000000    0.3161500000000000 H
   0.7146700000000000    0.3017900000000000    0.3161750000000000 H
   0.3594900000000000    0.5990450000000000    0.1218400000000000 H
   0.8594900000000000    0.5990400000000000    0.1218400000000000 H
   0.4106500000000000    0.6657200000000000    0.0749750000000000 H
   0.9106600000000000    0.6657200000000000    0.0749800000000000 H
   0.0630700000000000    0.5404550000000000    0.4988100000000000 H
   0.5630700000000000    0.5404550000000000    0.4988100000000000 H
   0.0113700000000000    0.9731449999999999    0.0485300000000000 H
   0.5113700000000000    0.9731449999999999    0.0485300000000000 H
   0.3410100000000000    0.9307600000000000    0.0202100000000000 H
   0.8410100000000000    0.9307650000000001    0.0202100000000000 H
   0.1674000000000000    0.5518850000000000    0.0661250000000000 H
   0.6674000000000000    0.5518850000000000    0.0661250000000000 H
   0.0804600000000000    0.6509350000000000    0.1281350000000000 H
   0.5804600000000000    0.6509350000000000    0.1281350000000000 H
   0.1513900000000000    0.5842550000000000    0.1750350000000000 H
   0.6513900000000000    0.5842550000000000    0.1750350000000000 H
   0.1022400000000000    0.7095150000000000    0.2512200000000000 H
   0.6022400000000000    0.7095150000000000    0.2512200000000000 H
   0.0330400000000000    0.7768349999999999    0.2014300000000000 H
   0.5330400000000000    0.7768349999999999    0.2014300000000000 H
   0.2920400000000000    0.8191600000000000    0.2297900000000000 H
   0.7920500000000000    0.8191600000000000    0.2297950000000000 H
   0.2854100000000000    0.6981999999999999    0.1837850000000000 H
   0.7854200000000000    0.6981999999999999    0.1837900000000000 H
   0.6405999999999999    0.9009350000000000    0.3781000000000000 H
   0.5894300000000000    0.8342600000000000    0.4249900000000000 H
   0.4370200000000000    0.9595300000000000    0.0011600000000000 H
   0.9370200000000000    0.9595250000000000    0.0011650000000000 H
   0.4887300000000000    0.5268300000000000    0.4514400000000000 H
   0.9887300000000000    0.5268300000000000    0.4514450000000000 H
   0.1590700000000000    0.5692150000000000    0.4797550000000000 H
   0.6590700000000000    0.5692150000000000    0.4797550000000000 H
   0.3326800000000000    0.9480900000000000    0.4338400000000000 H
   0.8326900000000000    0.9480950000000000    0.4338400000000000 H
   0.4196000000000000    0.8490350000000000    0.3718500000000000 H
   0.9196000000000000    0.8490350000000000    0.3718500000000000 H
   0.3486800000000000    0.9157200000000000    0.3245000000000000 H
   0.8486800000000000    0.9157200000000000    0.3249500000000000 H
   0.3978300000000000    0.7904599999999999    0.2487500000000000 H
   0.8978400000000000    0.7904599999999999    0.2487500000000000 H
   0.4670400000000000    0.7231400000000000    0.2985500000000000 H
   0.9670400000000000    0.7231400000000000    0.2985500000000000 H
   0.2080300000000000    0.6808300000000000    0.2701500000000000 H
   0.7080400000000000    0.6808300000000000    0.2701700000000000 H
   0.2146600000000000    0.8017900000000000    0.3161500000000000 H
   0.7146700000000000    0.8017900000000000    0.3161750000000000 H
   0.3594900000000000    0.0990450000000000    0.6218399999999999 H
   0.8594900000000000    0.0990400000000000    0.6218399999999999 H
   0.4106500000000000    0.1657200000000000    0.5749750000000000 H
   0.9106600000000000    0.1657200000000000    0.5749800000000000 H
   0.0630700000000000    0.0404550000000000    0.9988100000000000 H
   0.5630700000000000    0.0404550000000000    0.9988100000000000 H
   0.0113700000000000    0.4731450000000000    0.5485300000000000 H
   0.5113700000000000    0.4731450000000000    0.5485300000000000 H
   0.3410100000000000    0.4307600000000000    0.5202100000000000 H
   0.8410100000000000    0.4307650000000000    0.5202100000000000 H
   0.1674000000000000    0.0518850000000000    0.5661250000000000 H
   0.6674000000000000    0.0518850000000000    0.5661250000000000 H
   0.0804600000000000    0.1509350000000000    0.6281350000000000 H
   0.5804600000000000    0.1509350000000000    0.6281350000000000 H
   0.1513900000000000    0.0842550000000000    0.6750350000000001 H
   0.6513900000000000    0.0842550000000000    0.6750350000000001 H
   0.1022400000000000    0.2095150000000000    0.7512200000000000 H
   0.6022400000000000    0.2095150000000000    0.7512200000000000 H
   0.0330400000000000    0.2768350000000000    0.7014300000000000 H
   0.5330400000000000    0.2768350000000000    0.7014300000000000 H
   0.2920400000000000    0.3191600000000000    0.7297899999999999 H
   0.7920500000000000    0.3191600000000000    0.7297950000000000 H
   0.2854100000000000    0.1982000000000000    0.6837850000000000 H
   0.7854200000000000    0.1982000000000000    0.6837900000000000 H
   0.1405900000000000    0.4009350000000000    0.8781000000000000 H
   0.6405999999999999    0.4009350000000000    0.8781000000000000 H
   0.0894300000000000    0.3342650000000000    0.9249849999999999 H
   0.5894300000000000    0.3342600000000000    0.9249900000000000 H
   0.4370200000000000    0.4595300000000000    0.5011600000000000 H
   0.9370200000000000    0.4595250000000000    0.5011650000000000 H
   0.4887300000000000    0.0268300000000000    0.9514400000000001 H
   0.9887300000000000    0.0268300000000000    0.9514450000000000 H
   0.1590700000000000    0.0692150000000000    0.9797549999999999 H
   0.6590700000000000    0.0692150000000000    0.9797549999999999 H
   0.3326800000000000    0.4480900000000000    0.9338400000000000 H
   0.8326900000000000    0.4480950000000000    0.9338400000000000 H
   0.4196000000000000    0.3490350000000000    0.8718500000000000 H
   0.9196000000000000    0.3490350000000000    0.8718500000000000 H
   0.3486800000000000    0.4157200000000000    0.8245000000000000 H
   0.8486800000000000    0.4157200000000000    0.8249500000000001 H
   0.3978300000000000    0.2904600000000000    0.7487500000000000 H
   0.8978400000000000    0.2904600000000000    0.7487500000000000 H
   0.4670400000000000    0.2231400000000000    0.7985500000000000 H
   0.9670400000000000    0.2231400000000000    0.7985500000000000 H
   0.2080300000000000    0.1808300000000000    0.7701500000000000 H
   0.7080400000000000    0.1808300000000000    0.7701700000000000 H
   0.2146600000000000    0.3017900000000000    0.8161499999999999 H
   0.7146700000000000    0.3017900000000000    0.8161750000000000 H
   0.3594900000000000    0.5990450000000000    0.6218399999999999 H
   0.8594900000000000    0.5990400000000000    0.6218399999999999 H
   0.4106500000000000    0.6657200000000000    0.5749750000000000 H
   0.9106600000000000    0.6657200000000000    0.5749800000000000 H
   0.0630700000000000    0.5404550000000000    0.9988100000000000 H
   0.5630700000000000    0.5404550000000000    0.9988100000000000 H
   0.0113700000000000    0.9731449999999999    0.5485300000000000 H
   0.5113700000000000    0.9731449999999999    0.5485300000000000 H
   0.3410100000000000    0.9307600000000000    0.5202100000000000 H
   0.8410100000000000    0.9307650000000001    0.5202100000000000 H
   0.1674000000000000    0.5518850000000000    0.5661250000000000 H
   0.6674000000000000    0.5518850000000000    0.5661250000000000 H
   0.0804600000000000    0.6509350000000000    0.6281350000000000 H
   0.5804600000000000    0.6509350000000000    0.6281350000000000 H
   0.1513900000000000    0.5842550000000000    0.6750350000000001 H
   0.6513900000000000    0.5842550000000000    0.6750350000000001 H
   0.1022400000000000    0.7095150000000000    0.7512200000000000 H
   0.6022400000000000    0.7095150000000000    0.7512200000000000 H
   0.0330400000000000    0.7768349999999999    0.7014300000000000 H
   0.5330400000000000    0.7768349999999999    0.7014300000000000 H
   0.2920400000000000    0.8191600000000000    0.7297899999999999 H
   0.7920500000000000    0.8191600000000000    0.7297950000000000 H
   0.2854100000000000    0.6981999999999999    0.6837850000000000 H
   0.7854200000000000    0.6981999999999999    0.6837900000000000 H
   0.1405900000000000    0.9009350000000000    0.8781000000000000 H
   0.6405999999999999    0.9009350000000000    0.8781000000000000 H
   0.0894300000000000    0.8342650000000000    0.9249849999999999 H
   0.5894300000000000    0.8342600000000000    0.9249900000000000 H
   0.4370200000000000    0.9595300000000000    0.5011600000000000 H
   0.4887300000000000    0.5268300000000000    0.9514400000000001 H
   0.9887300000000000    0.5268300000000000    0.9514450000000000 H
   0.1590700000000000    0.5692150000000000    0.9797549999999999 H
   0.6590700000000000    0.5692150000000000    0.9797549999999999 H
   0.3326800000000000    0.9480900000000000    0.9338400000000000 H
   0.8326900000000000    0.9480950000000000    0.9338400000000000 H
   0.4196000000000000    0.8490350000000000    0.8718500000000000 H
   0.9196000000000000    0.8490350000000000    0.8718500000000000 H
   0.3486800000000000    0.9157200000000000    0.8245000000000000 H
   0.8486800000000000    0.9157200000000000    0.8249500000000001 H
   0.3978300000000000    0.7904599999999999    0.7487500000000000 H
   0.8978400000000000    0.7904599999999999    0.7487500000000000 H
   0.4670400000000000    0.7231400000000000    0.7985500000000000 H
   0.9670400000000000    0.7231400000000000    0.7985500000000000 H
   0.2080300000000000    0.6808300000000000    0.7701500000000000 H
   0.7080400000000000    0.6808300000000000    0.7701700000000000 H
   0.2146600000000000    0.8017900000000000    0.8161499999999999 H
   0.7146700000000000    0.8017900000000000    0.8161750000000000 H
   0.3988700000000000    0.4940300000000000    0.1145750000000000 C
   0.8988699999999999    0.4940300000000000    0.1145750000000000 C
   0.4322000000000000    0.0324150000000000    0.0876150000000000 C
   0.9322000000000000    0.0324150000000000    0.0876200000000000 C
   0.4042800000000000    0.0866100000000000    0.0952400000000000 C
   0.9042800000000000    0.0866100000000000    0.0952450000000000 C
   0.4331300000000000    0.1237850000000000    0.0687600000000000 C
   0.9331300000000000    0.1237800000000000    0.0687600000000000 C
   0.4903400000000000    0.1075250000000000    0.0333950000000000 C
   0.9903400000000000    0.1075200000000000    0.0333950000000000 C
   0.0195500000000000    0.1484950000000000    0.0000000000000000 C
   0.5195500000000000    0.1484950000000000    0.0000000000000000 C
   0.0187300000000000    0.0530050000000000    0.0262200000000000 C
   0.5187300000000000    0.0530050000000000    0.0262200000000000 C
   0.9900000000000000    0.0155350000000000    0.0536700000000000 C
   0.4900000000000000    0.0155350000000000    0.0536500000000000 C
   0.2587800000000000    0.4816650000000000    0.0996100000000000 C
   0.7587800000000000    0.4816650000000000    0.0996100000000000 C
   0.2544800000000000    0.4903600000000000    0.0483200000000000 C
   0.7544800000000000    0.4903600000000000    0.0483200000000000 C
   0.3013100000000000    0.4609250000000000    0.0111500000000000 C
   0.8013100000000000    0.4609300000000000    0.0110000000000000 C
   0.2032600000000000    0.0294450000000000    0.0367900000000000 C
   0.7032600000000000    0.0294450000000000    0.0367850000000000 C
   0.0075400000000000    0.2559650000000000    0.1353700000000000 C
   0.5075400000000000    0.2559650000000000    0.1353700000000000 C
   0.0522700000000000    0.2175750000000000    0.1623450000000000 C
   0.5522700000000000    0.2175750000000000    0.1623450000000000 C
   0.0861800000000000    0.1633750000000000    0.1547400000000000 C
   0.5861800000000000    0.1633750000000000    0.1547000000000000 C
   0.1256900000000000    0.1261950000000000    0.1812500000000000 C
   0.6256900000000000    0.1261950000000000    0.1812500000000000 C
   0.1312300000000000    0.1424450000000000    0.2166000000000000 C
   0.6312300000000000    0.1424450000000000    0.2166000000000000 C
   0.1711500000000000    0.1014750000000000    0.2469150000000000 C
   0.6711600000000000    0.1014750000000000    0.2469150000000000 C
   0.0979100000000000    0.1969700000000000    0.2237950000000000 C
   0.5979100000000001    0.1969700000000000    0.2237950000000000 C
   0.0591900000000000    0.2344500000000000    0.1963100000000000 C
   0.5591900000000000    0.2344550000000000    0.1963100000000000 C
   0.3401000000000000    0.2683500000000000    0.1503350000000000 C
   0.8401000000000000    0.2683500000000000    0.1503000000000000 C
   0.2932000000000000    0.2596400000000000    0.2016000000000000 C
   0.7932000000000000    0.2596400000000000    0.2016400000000000 C
   0.2734300000000000    0.2890200000000000    0.2388350000000000 C
   0.7734300000000000    0.2890200000000000    0.2388400000000000 C
   0.2694900000000000    0.2206000000000000    0.2131500000000000 C
   0.7695000000000000    0.2206000000000000    0.2131500000000000 C
   0.6012300000000000    0.0059350000000000    0.3853950000000000 C
   0.0678900000000000    0.4675600000000000    0.4123500000000000 C
   0.5678900000000000    0.4675600000000000    0.4123500000000000 C
   0.0958100000000000    0.4133700000000000    0.4047250000000000 C
   0.5958100000000000    0.4133650000000000    0.4047250000000000 C
   0.0669500000000000    0.3762000000000000    0.4312050000000000 C
   0.5669600000000000    0.3761950000000000    0.4312100000000000 C
   0.0097500000000000    0.3924600000000000    0.4665500000000000 C
   0.5097500000000000    0.3924600000000000    0.4665750000000000 C
   0.4805400000000000    0.3514850000000000    0.4968550000000000 C
   0.9805400000000000    0.3514850000000000    0.4968550000000000 C
   0.4813600000000000    0.4469750000000000    0.4737500000000000 C
   0.9813600000000000    0.4469750000000000    0.4737500000000000 C
   0.5101000000000000    0.4844450000000000    0.4463050000000000 C
   0.0000000000000000    0.4844450000000000    0.4463050000000000 C
   0.2413100000000000    0.0183150000000000    0.4003550000000000 C
   0.7413100000000000    0.0183200000000000    0.4003500000000000 C
   0.2456000000000000    0.0096150000000000    0.4516450000000000 C
   0.7456000000000000    0.0096200000000000    0.4516450000000000 C
   0.1987700000000000    0.0390500000000000    0.4888000000000000 C
   0.6987800000000000    0.0390500000000000    0.4888150000000000 C
   0.2968200000000000    0.4705300000000000    0.4631800000000000 C
   0.7968300000000000    0.4705350000000000    0.4631750000000000 C
   0.4925400000000000    0.2440150000000000    0.3646050000000000 C
   0.9925400000000000    0.2440150000000000    0.3646050000000000 C
   0.4478000000000000    0.2824000000000000    0.3376350000000000 C
   0.9478000000000000    0.2824000000000000    0.3376350000000000 C
   0.4138900000000000    0.3366000000000000    0.3452400000000000 C
   0.9138900000000000    0.3366000000000000    0.3452400000000000 C
   0.3743700000000000    0.3737800000000000    0.3187300000000000 C
   0.8743800000000000    0.3737800000000000    0.3187300000000000 C
   0.3688400000000000    0.3575300000000000    0.2833450000000000 C
   0.8688399999999999    0.3575300000000000    0.2833450000000000 C
   0.3289200000000000    0.3985000000000000    0.2530500000000000 C
   0.8289299999999999    0.3985000000000000    0.2530500000000000 C
   0.4021600000000000    0.3030050000000000    0.2761800000000000 C
   0.9021700000000000    0.3030050000000000    0.2761800000000000 C
   0.4408800000000000    0.2655200000000000    0.3036700000000000 C
   0.9408900000000000    0.2655200000000000    0.3036700000000000 C
   0.1599800000000000    0.2316350000000000    0.3496250000000000 C
   0.6599900000000000    0.2316350000000000    0.3496250000000000 C
   0.2068800000000000    0.2403500000000000    0.2983200000000000 C
   0.7068800000000000    0.2403500000000000    0.2983250000000000 C
   0.2266400000000000    0.2109700000000000    0.2611200000000000 C
   0.7266500000000000    0.2109700000000000    0.2611250000000000 C
   0.2305800000000000    0.2793900000000000    0.2868100000000000 C
   0.7305900000000000    0.2793900000000000    0.2868000000000000 C
   0.3988700000000000    0.9940300000000000    0.1145750000000000 C
   0.8988699999999999    0.9940300000000000    0.1145750000000000 C
   0.4322000000000000    0.5324150000000000    0.0876150000000000 C
   0.9322000000000000    0.5324150000000000    0.0876200000000000 C
   0.4042800000000000    0.5866100000000000    0.0952400000000000 C
   0.9042800000000000    0.5866100000000000    0.0952450000000000 C
   0.4331300000000000    0.6237850000000000    0.0687600000000000 C
   0.9331300000000000    0.6237800000000000    0.0687600000000000 C
   0.4903400000000000    0.6075250000000000    0.0333950000000000 C
   0.9903400000000000    0.6075200000000001    0.0333950000000000 C
   0.0195500000000000    0.6484950000000000    0.0000000000000000 C
   0.5195500000000000    0.6484950000000000    0.0000000000000000 C
   0.0187300000000000    0.5530050000000000    0.0262200000000000 C
   0.5187300000000000    0.5530050000000000    0.0262200000000000 C
   0.9900000000000000    0.5155350000000000    0.0536700000000000 C
   0.4900000000000000    0.5155350000000000    0.0536500000000000 C
   0.2587800000000000    0.9816650000000000    0.0996100000000000 C
   0.7587800000000000    0.9816650000000000    0.0996100000000000 C
   0.2544800000000000    0.9903600000000000    0.0483200000000000 C
   0.7544800000000000    0.9903600000000000    0.0483200000000000 C
   0.3013100000000000    0.9609250000000000    0.0111500000000000 C
   0.8013100000000000    0.9609300000000001    0.0110000000000000 C
   0.2032600000000000    0.5294449999999999    0.0367900000000000 C
   0.7032600000000000    0.5294449999999999    0.0367850000000000 C
   0.0075400000000000    0.7559650000000000    0.1353700000000000 C
   0.5075400000000000    0.7559650000000000    0.1353700000000000 C
   0.0522700000000000    0.7175750000000000    0.1623450000000000 C
   0.5522700000000000    0.7175750000000000    0.1623450000000000 C
   0.0861800000000000    0.6633750000000000    0.1547400000000000 C
   0.5861800000000000    0.6633750000000000    0.1547000000000000 C
   0.1256900000000000    0.6261950000000001    0.1812500000000000 C
   0.6256900000000000    0.6261950000000001    0.1812500000000000 C
   0.1312300000000000    0.6424449999999999    0.2166000000000000 C
   0.6312300000000000    0.6424449999999999    0.2166000000000000 C
   0.1711500000000000    0.6014750000000000    0.2469150000000000 C
   0.6711600000000000    0.6014750000000000    0.2469150000000000 C
   0.0979100000000000    0.6969700000000000    0.2237950000000000 C
   0.5979100000000001    0.6969700000000000    0.2237950000000000 C
   0.0591900000000000    0.7344500000000000    0.1963100000000000 C
   0.5591900000000000    0.7344550000000000    0.1963100000000000 C
   0.3401000000000000    0.7683500000000000    0.1503350000000000 C
   0.8401000000000000    0.7683500000000000    0.1503000000000000 C
   0.2932000000000000    0.7596400000000000    0.2016000000000000 C
   0.7932000000000000    0.7596400000000000    0.2016400000000000 C
   0.2734300000000000    0.7890200000000001    0.2388350000000000 C
   0.7734300000000000    0.7890200000000001    0.2388400000000000 C
   0.2694900000000000    0.7206000000000000    0.2131500000000000 C
   0.7695000000000000    0.7206000000000000    0.2131500000000000 C
   0.1012300000000000    0.5059399999999999    0.3853950000000000 C
   0.6012300000000000    0.5059350000000000    0.3853950000000000 C
   0.5678900000000000    0.9675600000000000    0.4123500000000000 C
   0.5958100000000000    0.9133650000000000    0.4047250000000000 C
   0.5669600000000000    0.8761950000000001    0.4312100000000000 C
   0.5097500000000000    0.8924600000000000    0.4665750000000000 C
   0.4805400000000000    0.8514850000000000    0.4968550000000000 C
   0.4813600000000000    0.9469750000000000    0.4737500000000000 C
   0.5101000000000000    0.9844450000000000    0.4463050000000000 C
   0.2413100000000000    0.5183150000000000    0.4003550000000000 C
   0.7413100000000000    0.5183200000000000    0.4003500000000000 C
   0.2456000000000000    0.5096150000000000    0.4516450000000000 C
   0.7456000000000000    0.5096200000000000    0.4516450000000000 C
   0.1987700000000000    0.5390500000000000    0.4888000000000000 C
   0.6987800000000000    0.5390500000000000    0.4888150000000000 C
   0.2968200000000000    0.9705300000000000    0.4631800000000000 C
   0.7968300000000000    0.9705349999999999    0.4631750000000000 C
   0.4925400000000000    0.7440150000000000    0.3646050000000000 C
   0.9925400000000000    0.7440150000000000    0.3646050000000000 C
   0.4478000000000000    0.7824000000000000    0.3376350000000000 C
   0.9478000000000000    0.7824000000000000    0.3376350000000000 C
   0.4138900000000000    0.8366000000000000    0.3452400000000000 C
   0.9138900000000000    0.8366000000000000    0.3452400000000000 C
   0.3743700000000000    0.8737800000000000    0.3187300000000000 C
   0.8743800000000000    0.8737800000000000    0.3187300000000000 C
   0.3688400000000000    0.8575300000000000    0.2833450000000000 C
   0.8688399999999999    0.8575300000000000    0.2833450000000000 C
   0.3289200000000000    0.8985000000000001    0.2530500000000000 C
   0.8289299999999999    0.8985000000000001    0.2530500000000000 C
   0.4021600000000000    0.8030050000000000    0.2761800000000000 C
   0.9021700000000000    0.8030050000000000    0.2761800000000000 C
   0.4408800000000000    0.7655200000000000    0.3036700000000000 C
   0.9408900000000000    0.7655200000000000    0.3036700000000000 C
   0.1599800000000000    0.7316350000000000    0.3496250000000000 C
   0.6599900000000000    0.7316350000000000    0.3496250000000000 C
   0.2068800000000000    0.7403500000000001    0.2983200000000000 C
   0.7068800000000000    0.7403500000000001    0.2983250000000000 C
   0.2266400000000000    0.7109700000000000    0.2611200000000000 C
   0.7266500000000000    0.7109700000000000    0.2611250000000000 C
   0.2305800000000000    0.7793900000000000    0.2868100000000000 C
   0.7305900000000000    0.7793900000000000    0.2868000000000000 C
   0.3988700000000000    0.4940300000000000    0.6145750000000000 C
   0.8988699999999999    0.4940300000000000    0.6145750000000000 C
   0.4322000000000000    0.0324150000000000    0.5876150000000000 C
   0.9322000000000000    0.0324150000000000    0.5876200000000000 C
   0.4042800000000000    0.0866100000000000    0.5952400000000000 C
   0.9042800000000000    0.0866100000000000    0.5952450000000000 C
   0.4331300000000000    0.1237850000000000    0.5687600000000000 C
   0.9331300000000000    0.1237800000000000    0.5687600000000000 C
   0.4903400000000000    0.1075250000000000    0.5333950000000000 C
   0.9903400000000000    0.1075200000000000    0.5333950000000000 C
   0.0195500000000000    0.1484950000000000    0.5000000000000000 C
   0.5195500000000000    0.1484950000000000    0.5000000000000000 C
   0.0187300000000000    0.0530050000000000    0.5262200000000000 C
   0.5187300000000000    0.0530050000000000    0.5262200000000000 C
   0.9900000000000000    0.0155350000000000    0.5536700000000000 C
   0.4900000000000000    0.0155350000000000    0.5536500000000000 C