H1 C1 O2
1.0
  10.1179998458940492    0.0000000000000000   -0.0017659241282039
  -0.0090933020174877   11.5241706880746761   -0.2315372842089778
   0.0000000000000000    0.0000000000000000   14.9269999999999996
H C O
1 1 2
direct
   0.1627500000000000    0.3108600000000000    0.0775500000000000 H
   0.1017300000000000    0.2569700000000000    0.0317800000000000 C
   0.0277300000000000    0.3144300000000000   -0.0223500000000000 O
   0.1111700000000000    0.1492800000000000    0.0359800000000000 O
