Ba2 Zn4 H34 C40 O28
1.0
  11.8744633416415777    0.0000000000000000   -2.6196794361162494
  -3.4675564673962360   11.3575430345761070   -2.6261211630787904
   0.0000000000000000    0.0000000000000000   12.7110000000000003
Ba Zn H C O
2 4 34 40 28
direct
   0.7956000000000000    0.2045800000000000    0.7502300000000000 Ba
   0.2044300000000000    0.7954599999999999    0.2497100000000000 Ba
   0.5734200000000000    0.1777500000000000    0.4526200000000000 Zn
   0.4266200000000000    0.8223000000000000    0.5473300000000000 Zn
   0.8228300000000000    0.4267600000000000    0.0486800000000000 Zn
   0.1772100000000000    0.5732800000000000    0.9512699999999999 Zn
   0.2369700000000000    0.5249200000000001    0.1450500000000000 H
   0.0977900000000000    0.4953900000000000    0.1101600000000000 H
   0.0473300000000000    0.0951100000000000    0.9900099999999999 H
   0.1981400000000000    0.0243600000000000    0.1002900000000000 H
   0.1340400000000000    0.4061900000000000    0.2660200000000000 H
   0.2899400000000000    0.3396900000000000    0.3725300000000000 H
   0.0000000000000000    0.5188700000000001    0.3112000000000000 H
   0.8258799999999999    0.3955200000000000    0.3346000000000000 H
   0.9905100000000000    0.4811700000000000    0.6887400000000000 H
   0.1741600000000000    0.6045199999999999    0.6653400000000000 H
   0.7630700000000000    0.4751300000000000    0.8549000000000000 H
   0.9022400000000000    0.5046600000000000    0.8897800000000000 H
   0.8659900000000000    0.5938500000000000    0.7339200000000000 H
   0.7101000000000000    0.6603599999999999    0.6274100000000000 H
   0.9527099999999999    0.9049300000000000    0.0000000000000000 H
   0.8018999999999999    0.9756800000000000    0.8996499999999999 H
   0.1373229036162979    0.9081487643567497    0.4409768224489141 H
   0.5248200000000000    0.2367900000000000    0.6463200000000000 H
   0.4957000000000000    0.0976500000000000    0.6109700000000000 H
   0.4601596225352084    1.0271523383202090    0.6612577977378424 H
   0.3067042784552719    0.9775809649457172    0.5635073043235714 H
   0.4752200000000000    0.7632600000000000    0.3536300000000000 H
   0.5043400000000000    0.9024000000000000    0.3889700000000000 H
   0.9046800000000000    0.9533100000000000    0.5102800000000000 H
   0.9756500000000000    0.8024600000000000    0.4001800000000000 H
   0.5939500000000000    0.8664300000000000    0.2339400000000000 H
   0.6605200000000000    0.7103600000000000    0.1277000000000000 H
   0.5194900000000000    0.0000000000000000    0.8114000000000000 H
   0.3956800000000000    0.8262100000000000    0.8341900000000000 H
   0.4805400000000000    0.9900800000000000    0.1885000000000000 H
   0.6043500000000001    0.1738300000000000    0.1657500000000000 H
   0.9996348749391150    0.2596269269787483    0.7294560724640823 H
   0.1944922861044058    0.3767682468061551    0.8289148318616901 H
   0.3004379655912995    0.4569652440363510    0.8983901216907200 H
   0.3432900000000000    0.1338800000000000    0.3103000000000000 C
   0.9832700000000000    0.2894200000000000    0.0546400000000000 C
   0.0999400000000000    0.1473500000000000    0.0743600000000000 C
   0.1842400000000000    0.1081900000000000    0.1360600000000000 C
   0.1492400000000000    0.3236900000000000    0.2284200000000000 C
   0.2358400000000000    0.2859200000000000    0.2890500000000000 C
   0.2527300000000000    0.1771300000000000    0.2442000000000000 C
   0.0802700000000000    0.2544400000000000    0.1203600000000000 C
   0.7871700000000000    0.3581400000000000    0.5291200000000000 C
   0.2128700000000000    0.6419000000000000    0.4708200000000000 C
   0.0000000000000000    0.5094700000000000    0.3934900000000000 C
   0.9023500000000000    0.4416000000000000    0.4066100000000000 C
   0.8965600000000000    0.4317300000000000    0.5134500000000000 C
   0.9950800000000000    0.4905700000000000    0.6064500000000000 C
   0.0976800000000000    0.5584400000000000    0.5933300000000000 C
   0.1034800000000000    0.5683200000000000    0.4864900000000000 C
   0.6567499999999999    0.8661700000000000    0.6896400000000000 C
   0.0167600000000000    0.7106200000000000    0.9453000000000000 C
   0.8507900000000000    0.6763500000000000    0.7715200000000000 C
   0.7642000000000000    0.7141300000000000    0.7108900000000000 C
   0.7473000000000000    0.8229100000000000    0.7557400000000000 C
   0.9001000000000000    0.8526899999999999    0.9255800000000000 C
   0.8158000000000000    0.8918600000000000    0.8638800000000000 C
   0.9197700000000000    0.7456000000000000    0.8795800000000000 C
   0.8661799999999999    0.6568900000000000    0.1903600000000000 C
   0.7103300000000000    0.0172100000000000    0.4454100000000000 C
   0.8525500000000000    0.9006400000000000    0.4259100000000000 C
   0.8918199999999999    0.8163000000000000    0.3643400000000000 C
   0.6763800000000000    0.8512200000000000    0.2716800000000000 C
   0.7142100000000000    0.7645300000000000    0.2112100000000000 C
   0.8229600000000000    0.7476800000000000    0.2562200000000000 C
   0.7454700000000000    0.9202300000000000    0.3797800000000000 C
   0.6423700000000000    0.2129600000000000    0.9715400000000000 C
   0.3576600000000000    0.7870800000000000    0.0284000000000000 C
   0.5098200000000001    0.0000000000000000    0.8936200000000000 C
   0.4416700000000000    0.9025500000000000    0.9063600000000001 C
   0.4902100000000000    0.9948300000000000    0.1063200000000000 C
   0.5583500000000000    0.0974900000000000    0.0935800000000000 C
   0.4315000000000000    0.8964900000000000    0.0130900000000000 C
   0.5685200000000000    0.1035500000000000    0.9868500000000000 C
   0.1737500000000000    0.5541900000000000    0.1114100000000000 O
   0.3294400000000000    0.0252400000000000    0.2934800000000000 O
   0.4328200000000000    0.2151700000000000    0.3815700000000000 O
   0.9101100000000000    0.2182900000000000    0.9683700000000000 O
   0.9797400000000001    0.3979200000000000    0.0940400000000000 O
   0.7784300000000000    0.3611500000000000    0.6269300000000000 O
   0.7065600000000000    0.2937800000000000    0.4384400000000000 O
   0.2216100000000000    0.6388900000000000    0.3730100000000000 O
   0.2934700000000000    0.7062800000000000    0.5615000000000000 O
   0.8262900000000000    0.4458500000000000    0.8885400000000000 O
   0.6706000000000000    0.9748000000000000    0.7064700000000000 O
   0.5672100000000000    0.7848800000000000    0.6183800000000000 O
   0.0899300000000000    0.7817499999999999    0.0315700000000000 O
   0.0203000000000000    0.6021200000000000    0.9059000000000000 O
   0.2187200000000000    0.9096700000000000    0.4681900000000000 O
   0.5544100000000000    0.1738500000000000    0.6125900000000000 O
   0.3981500000000000    0.9792900000000000    0.5940800000000001 O
   0.4456300000000000    0.8262000000000000    0.3873600000000000 O
   0.9748000000000000    0.6708300000000000    0.2068500000000000 O
   0.7848500000000000    0.5670200000000000    0.1196100000000000 O
   0.7813200000000000    0.0903700000000000    0.5317499999999999 O
   0.6018900000000000    0.0207600000000000    0.4058600000000000 O
   0.6393100000000000    0.2219600000000000    0.8738100000000000 O
   0.7068300000000000    0.2932900000000000    0.0624000000000000 O
   0.3607200000000000    0.7780800000000000    0.1261300000000000 O
   0.2931900000000000    0.7067500000000000    0.9375400000000000 O
   1.0252300000000001    0.3292100000000000    0.7930800000000000 O
   0.2151800000000000    0.4330100000000000    0.8803400000000000 O
