H2 C10 O8
1.0
  28.7139999300257216    0.0000000000000000   -0.0020046153640416
  -1.9761579199546899   15.1143590085190915    0.0007981216132787
   0.0000000000000000    0.0000000000000000   32.8100000000000023
H C O
2 10 8
direct
   0.1475000000000000    0.3345000000000000    0.8963000000000000 H
   0.9747500000000000    0.2637500000000000    0.8874000000000000 H
   0.0365050000000000    0.3348500000000000    0.8599100000000000 C
   0.0858250000000000    0.3559800000000000    0.8630700000000000 C
   0.1096350000000000    0.3169900000000000    0.8938999999999999 C
   0.0861450000000000    0.2560300000000000    0.9210550000000000 C
   0.0370000000000000    0.2380100000000000    0.9192500000000000 C
   0.0128700000000000    0.2778400000000000    0.8887600000000000 C
   0.0064300000000000    0.3743500000000000    0.8288550000000000 C
   0.1155900000000000    0.4133400000000000    0.8332100000000000 C
   0.1153200000000000    0.2151900000000000    0.9516200000000000 C
   0.0102250000000000    0.1807100000000000    0.9508500000000000 C
   0.0104350000000000    0.4585000000000000    0.8262450000000000 O
   0.1546650000000000    0.4528900000000000    0.8469000000000000 O
   0.1010300000000000    0.4145100000000000    0.7968150000000001 O
   0.1222000000000000    0.1329700000000000    0.9478400000000000 O
   0.1360000000000000    0.2617300000000000    0.9793250000000000 O
   0.0221200000000000    0.1040900000000000    0.9572950000000000 O
   0.9773450000000000    0.3196800000000000    0.8091349999999999 O
   0.9778850000000000    0.2144400000000000    0.9690500000000000 O
