H8 C10 N2
1.0
  38.7299997876390165    0.0000000000000000    0.0040557961083720
  -0.0199019524778229   18.0999890555903917   -0.0003159045945970
   0.0000000000000000    0.0000000000000000   26.5229999999999997
H C N
8 10 2
direct
   0.4619500000000000    0.4200800000000000    0.6308700000000000 H
   0.4594566666666666    0.4173800000000000    0.5379500000000000 H
   0.5383933333333333    0.5798400000000000    0.6306300000000000 H
   0.5406066666666667    0.5826000000000000    0.5377100000000000 H
   0.5380333333333334    0.5798800000000000    0.3691400000000000 H
   0.5405200000000000    0.5825700000000000    0.4620600000000000 H
   0.4615833333333333    0.4201300000000000    0.3693700000000000 H
   0.4593633333333333    0.4173600000000000    0.4622900000000000 H
   0.4785766666666667    0.4557500000000000    0.6084300000000000 C
   0.4777033333333333    0.4545900000000000    0.5560900000000000 C
   0.4782733333333333    0.4558000000000000    0.3917000000000000 C
   0.5217000000000001    0.5441700000000000    0.6083000000000000 C
   0.5224166666666666    0.5453800000000000    0.5559600000000000 C
   0.5214000000000000    0.5442100000000000    0.3915800000000000 C
   0.5222733333333334    0.5453700000000000    0.4439200000000000 C
   0.4775566666666666    0.4545800000000000    0.4440000000000000 C
   0.5000300000000000    0.4999700000000000    0.5280100000000000 C
   0.4999433333333333    0.4999900000000000    0.4700000000000000 C
   0.5001766666666667    0.4999600000000000    0.6345000000000000 N
   0.4998000000000000    0.5000100000000000    0.3654300000000000 N
