H4 O3
1.0
  38.7299997876390165    0.0000000000000000    0.0040557961083720
  -0.0199019524778229   18.0999890555903917   -0.0003159045945970
   0.0000000000000000    0.0000000000000000   26.5229999999999997
H O
4 3
direct
   0.7917837462229204    0.1089641153527518    0.7499973198098230 H
   0.8155527839394771    0.3701755309900300    0.6877136494024609 H
   0.7679290370349526    0.3701431788340204    0.8122654893076527 H
   0.7917346722908393    0.3541591800078029    0.7499899999999999 H
   0.7917666666666666    0.0548999999999999    0.7499900000000000 O
   0.8059733333333333    0.4033300000000000    0.7128000000000000 O
   0.7775333333333333    0.4033100000000000    0.7871800000000000 O
