H2 O1
1.0
  38.7299997876390165    0.0000000000000000    0.0040557961083720
  -0.0199019524778229   18.0999890555903917   -0.0003159045945970
   0.0000000000000000    0.0000000000000000   26.5229999999999997
H O
2 1
direct
   0.2084202182906554    0.8909261675380876    0.2500053624387540 H
   0.2133938184992380    0.8912988330616262    0.2459564905372594 H
   0.2085300000000000    0.9449900000000000    0.2500200000000000 O
