C7 O3 F4
1.0
  38.7299997876390165    0.0000000000000000    0.0040557961083720
  -0.0199019524778229   18.0999890555903917   -0.0003159045945970
   0.0000000000000000    0.0000000000000000   26.5229999999999997
C O F
7 3 4
direct
   0.7923933333333333    0.2469800000000000    0.7948200000000000 C
   0.7932800000000000    0.1703400000000000    0.7948600000000000 C
   0.7911999999999999    0.2469900000000000    0.7051900000000000 C
   0.7903233333333333    0.1703400000000000    0.7051500000000001 C
   0.7917600000000000    0.3709500000000000    0.7500000000000000 C
   0.7917633333333333    0.2883800000000000    0.7500100000000000 C
   0.7917900000000000    0.1287600000000000    0.7500000000000000 C
   0.8059733333333333    0.4033300000000000    0.7128000000000000 O
   0.7775333333333333    0.4033100000000000    0.7871800000000000 O
   0.7917666666666666    0.0549000000000000    0.7499900000000000 O
   0.7940766666666667    0.2812100000000000    0.8400800000000000 F
   0.7955399999999999    0.1342600000000000    0.8395000000000000 F
   0.7896066666666666    0.2812100000000000    0.6599300000000000 F
   0.7881533333333333    0.1342600000000000    0.6604700000000000 F
