C7 O2 F4
1.0
  38.7299997876390165    0.0000000000000000    0.0040557961083720
  -0.0199019524778229   18.0999890555903917   -0.0003159045945970
   0.0000000000000000    0.0000000000000000   26.5229999999999997
C O F
7 2 4
direct
   0.5421933333333333    0.7529700000000000    0.7052000000000000 C
   0.5431066666666666    0.8296000000000000    0.7051600000000000 C
   0.5409966666666667    0.7529900000000000    0.7948600000000000 C
   0.5401466666666667    0.8296300000000000    0.7948900000000000 C
   0.5416733333333333    0.6290800000000000    0.7500300000000000 C
   0.5416500000000000    0.7116200000000000    0.7500400000000000 C
   0.5417333333333333    0.8711400000000000    0.7500200000000000 C
   0.5557866666666667    0.5966399999999999    0.7872500000000000 O
   0.5275566666666667    0.5967700000000000    0.7127000000000000 O
   0.5437200000000000    0.7187700000000000    0.6599300000000000 F
   0.5451866666666667    0.8657100000000000    0.6604900000000000 F
   0.5392466666666667    0.7187600000000000    0.8401000000000000 F
   0.5377966666666667    0.8657200000000000    0.8395300000000000 F
