C6 O1 F4
1.0
  38.7299997876390165    0.0000000000000000    0.0040557961083720
  -0.0199019524778229   18.0999890555903917   -0.0003159045945970
   0.0000000000000000    0.0000000000000000   26.5229999999999997
C O F
6 1 4
direct
   0.2083800000000000    0.8711200000000000    0.2500000000000000 C
   0.2076300000000000    0.7529600000000000    0.2051800000000000 C
   0.2067933333333333    0.8296000000000000    0.2051300000000000 C
   0.2088266666666667    0.7529500000000000    0.2948200000000000 C
   0.2097533333333333    0.8295900000000000    0.2948600000000000 C
   0.2082533333333333    0.7115800000000000    0.2000000000000000 C
   0.2085300000000000    0.9449900000000000    0.2500200000000000 O
   0.2059133333333333    0.7187500000000000    0.1599200000000000 F
   0.2044633333333333    0.8657100000000000    0.1604900000000000 F
   0.2103833333333333    0.7187600000000000    0.3400900000000000 F
   0.2118533333333333    0.8657100000000000    0.3395200000000000 F
