Zn48 H192 C570 N48 O143 F188
1.0
  38.7299997876390165    0.0000000000000000    0.0040557961083720
  -0.0199019524778229   18.0999890555903917   -0.0003159045945970
   0.0000000000000000    0.0000000000000000   26.5229999999999997
Zn H C N O F
48 192 570 48 143 188
direct
   0.0000100000000000    0.4999800000000000    0.7141999999999999 Zn
   0.1670233333333333    0.9999300000000000    0.7143100000000000 Zn
   0.1670300000000000    0.4999300000000000    0.7143100000000000 Zn
   0.0832166666666667    0.9999100000000000    0.7856800000000000 Zn
   0.0832166666666667    0.4999000000000000    0.7856700000000000 Zn
   0.2502233333333333    0.0001100000000000    0.7857700000000000 Zn
   0.2502233333333333    0.5001100000000001    0.7857800000000000 Zn
   0.0000033333333333    0.9999900000000000    0.2857800000000000 Zn
   0.3333233333333333    0.5000000000000000    0.2857800000000000 Zn
   0.1670100000000000    0.9999500000000000    0.2856900000000000 Zn
   0.1662733333333333    0.5000400000000000    0.2856900000000000 Zn
   0.0832033333333333    0.9999200000000000    0.2143100000000000 Zn
   0.0831100000000000    0.4998700000000000    0.2142300000000000 Zn
   0.2502166666666666    0.0001200000000000    0.2142600000000000 Zn
   0.2501133333333333    0.5000700000000000    0.2143300000000000 Zn
   0.0000100000000000    0.9999900000000000    0.7141999999999999 Zn
   0.3333433333333333    0.4999800000000000    0.7141999999999999 Zn
   0.5003566666666667    0.9999300000000000    0.7143100000000000 Zn
   0.5003633333333333    0.4999300000000000    0.7143100000000000 Zn
   0.4165500000000000    0.9999100000000000    0.7856800000000000 Zn
   0.4165500000000000    0.4999000000000000    0.7856700000000000 Zn
   0.5835566666666666    0.0001100000000000    0.7857700000000000 Zn
   0.5835566666666666    0.5001100000000001    0.7857800000000000 Zn
   0.3333366666666667    0.9999900000000000    0.2857800000000000 Zn
   0.6666566666666667    0.5000000000000000    0.2857800000000000 Zn
   0.5003433333333334    0.9999500000000000    0.2856900000000000 Zn
   0.4996066666666666    0.5000400000000000    0.2856900000000000 Zn
   0.4165366666666667    0.9999200000000000    0.2143100000000000 Zn
   0.4164433333333333    0.4998700000000000    0.2142300000000000 Zn
   0.5835500000000000    0.0001200000000000    0.2142600000000000 Zn
   0.5834466666666667    0.5000700000000000    0.2143300000000000 Zn
   0.3333433333333333    0.9999900000000000    0.7141999999999999 Zn
   0.6666766666666666    0.4999800000000000    0.7141999999999999 Zn
   0.8336899999999999    0.9999300000000000    0.7143100000000000 Zn
   0.8336966666666666    0.4999300000000000    0.7143100000000000 Zn
   0.7498833333333332    0.9999100000000000    0.7856800000000000 Zn
   0.7498833333333332    0.4999000000000000    0.7856700000000000 Zn
   0.9168900000000000    0.0001100000000000    0.7857700000000000 Zn
   0.9168900000000000    0.5001100000000001    0.7857800000000000 Zn
   0.6666700000000000    0.9999900000000000    0.2857800000000000 Zn
   0.9999899999999999    0.5000000000000000    0.2857800000000000 Zn
   0.8336766666666666    0.9999500000000000    0.2856900000000000 Zn
   0.8329400000000000    0.5000400000000000    0.2856900000000000 Zn
   0.7498699999999999    0.9999200000000000    0.2143100000000000 Zn
   0.7497766666666666    0.4998700000000000    0.2142300000000000 Zn
   0.9168833333333333    0.0001200000000000    0.2142600000000000 Zn
   0.9167799999999999    0.5000700000000000    0.2143300000000000 Zn
   0.6666766666666666    0.9999900000000000    0.7141999999999999 Zn
   0.1286166666666667    0.4200800000000000    0.6308700000000000 H
   0.1286033333333333    0.9201000000000000    0.6308100000000000 H
   0.2946800000000000    0.4210600000000000    0.6307000000000000 H
   0.2946800000000000    0.9210600000000000    0.6307000000000000 H
   0.1261233333333333    0.4173800000000000    0.5379500000000000 H
   0.1261433333333333    0.9174700000000000    0.5378900000000000 H
   0.2923133333333333    0.4184000000000000    0.5378500000000001 H
   0.2923100000000000    0.9184000000000000    0.5378500000000001 H
   0.0448133333333333    0.0790000000000000    0.8692000000000000 H
   0.0448100000000000    0.5789900000000000    0.8692299999999999 H
   0.2114633333333333    0.0789700000000000    0.8692600000000000 H
   0.2114666666666666    0.5789700000000000    0.8692700000000000 H
   0.0424666666666667    0.0817100000000000    0.9621600000000000 H
   0.0424600000000000    0.5817000000000000    0.9621400000000000 H
   0.2090366666666666    0.0815300000000000    0.9621800000000000 H
   0.2090366666666666    0.5815300000000000    0.9621900000000000 H
   0.1218833333333333    0.4209600000000000    0.8692100000000000 H
   0.1218733333333333    0.9209500000000000    0.8692299999999999 H
   0.2885866666666667    0.4210300000000000    0.8693200000000000 H
   0.2885833333333333    0.9210300000000000    0.8693000000000000 H
   0.1242766666666667    0.4183700000000000    0.9621300000000000 H
   0.1242666666666667    0.9183500000000000    0.9621499999999999 H
   0.2908933333333333    0.4183000000000000    0.9622300000000000 H
   0.2908966666666666    0.9183000000000000    0.9622000000000001 H
   0.0386600000000000    0.0789400000000000    0.6307600000000000 H
   0.0386566666666667    0.5789400000000000    0.6307500000000000 H
   0.2050500000000000    0.0798700000000000    0.6306800000000000 H
   0.2050600000000000    0.5798400000000000    0.6306300000000000 H
   0.0410233333333333    0.0816000000000000    0.5378400000000000 H
   0.0410200000000000    0.5815900000000001    0.5378400000000000 H
   0.2072966666666667    0.0826900000000000    0.5377000000000000 H
   0.2072733333333333    0.5826000000000000    0.5377100000000000 H
   0.0386566666666667    0.0789400000000000    0.3692400000000000 H
   0.0386500000000000    0.5789299999999999    0.3692400000000000 H
   0.2049766666666666    0.0799300000000000    0.3692000000000000 H
   0.2047000000000000    0.5798800000000000    0.3691400000000000 H
   0.0410200000000000    0.0816000000000000    0.4621000000000000 H
   0.0410200000000000    0.5815900000000001    0.4621500000000000 H
   0.2072633333333333    0.0827400000000000    0.4621900000000000 H
   0.2071866666666667    0.5825700000000000    0.4620600000000000 H
   0.1218500000000000    0.4209900000000000    0.1307300000000000 H
   0.1218733333333333    0.9209900000000000    0.1307000000000000 H
   0.2885266666666667    0.4210000000000000    0.1307700000000000 H
   0.2885566666666667    0.9210100000000000    0.1307300000000000 H
   0.1242833333333333    0.4184200000000000    0.0378100000000000 H
   0.1242800000000000    0.9184000000000000    0.0378200000000000 H
   0.2908700000000000    0.4182700000000000    0.0378600000000000 H
   0.2908766666666667    0.9182700000000000    0.0378200000000000 H
   0.0447800000000000    0.0789700000000000    0.1307200000000000 H
   0.0447500000000000    0.5789600000000000    0.1306800000000000 H
   0.2114733333333333    0.0790100000000000    0.1307800000000000 H
   0.2114400000000000    0.5790000000000000    0.1307900000000000 H
   0.0424466666666667    0.0816800000000000    0.0378000000000000 H
   0.0424400000000000    0.5816800000000000    0.0377700000000000 H
   0.2090533333333333    0.0815800000000000    0.0378600000000000 H
   0.2090433333333333    0.5815800000000000    0.0378700000000000 H
   0.1282500000000000    0.4201300000000000    0.3693700000000000 H
   0.1285300000000000    0.9201600000000000    0.3692000000000000 H
   0.2946733333333333    0.4210500000000000    0.3692500000000000 H
   0.2946766666666666    0.9210500000000000    0.3692500000000000 H
   0.1260300000000000    0.4173600000000000    0.4622900000000000 H
   0.1261100000000000    0.9175100000000000    0.4621500000000000 H
   0.2923100000000000    0.4183900000000000    0.4621700000000000 H
   0.2923100000000000    0.9184000000000000    0.4621700000000000 H
   0.4619500000000000    0.4200800000000000    0.6308700000000000 H
   0.4619366666666667    0.9201000000000000    0.6308100000000000 H
   0.6280133333333333    0.4210600000000000    0.6307000000000000 H
   0.6280133333333333    0.9210600000000000    0.6307000000000000 H
   0.4594566666666666    0.4173800000000000    0.5379500000000000 H
   0.4594766666666666    0.9174700000000000    0.5378900000000000 H
   0.6256466666666667    0.4184000000000000    0.5378500000000001 H
   0.6256433333333333    0.9184000000000000    0.5378500000000001 H
   0.3781466666666666    0.0790000000000000    0.8692000000000000 H
   0.3781433333333333    0.5789900000000000    0.8692299999999999 H
   0.5447966666666666    0.0789700000000000    0.8692600000000000 H
   0.5448000000000000    0.5789700000000000    0.8692700000000000 H
   0.3758000000000000    0.0817100000000000    0.9621600000000000 H
   0.3757933333333333    0.5817000000000000    0.9621400000000000 H
   0.5423700000000000    0.0815300000000000    0.9621800000000000 H
   0.5423700000000000    0.5815300000000000    0.9621900000000000 H
   0.4552166666666666    0.4209600000000000    0.8692100000000000 H
   0.4552066666666666    0.9209500000000000    0.8692299999999999 H
   0.6219200000000000    0.4210300000000000    0.8693200000000000 H
   0.6219166666666667    0.9210300000000000    0.8693000000000000 H
   0.4576100000000000    0.4183700000000000    0.9621300000000000 H
   0.4576000000000000    0.9183500000000000    0.9621499999999999 H
   0.6242266666666667    0.4183000000000000    0.9622300000000000 H
   0.6242300000000000    0.9183000000000000    0.9622000000000001 H
   0.3719933333333333    0.0789400000000000    0.6307600000000000 H
   0.3719900000000000    0.5789400000000000    0.6307500000000000 H
   0.5383833333333333    0.0798700000000000    0.6306800000000000 H
   0.5383933333333333    0.5798400000000000    0.6306300000000000 H
   0.3743566666666667    0.0816000000000000    0.5378400000000000 H
   0.3743533333333333    0.5815900000000001    0.5378400000000000 H
   0.5406299999999999    0.0826900000000000    0.5377000000000000 H
   0.5406066666666667    0.5826000000000000    0.5377100000000000 H
   0.3719900000000000    0.0789400000000000    0.3692400000000000 H
   0.3719833333333333    0.5789299999999999    0.3692400000000000 H
   0.5383100000000000    0.0799300000000000    0.3692000000000000 H
   0.5380333333333334    0.5798800000000000    0.3691400000000000 H
   0.3743533333333333    0.0816000000000000    0.4621000000000000 H
   0.3743533333333333    0.5815900000000001    0.4621500000000000 H
   0.5405966666666666    0.0827400000000000    0.4621900000000000 H
   0.5405200000000000    0.5825700000000000    0.4620600000000000 H
   0.4551833333333333    0.4209900000000000    0.1307300000000000 H
   0.4552066666666666    0.9209900000000000    0.1307000000000000 H
   0.6218600000000000    0.4210000000000000    0.1307700000000000 H
   0.6218900000000001    0.9210100000000000    0.1307300000000000 H
   0.4576166666666667    0.4184200000000000    0.0378100000000000 H
   0.4576133333333333    0.9184000000000000    0.0378200000000000 H
   0.6242033333333332    0.4182700000000000    0.0378600000000000 H
   0.6242099999999999    0.9182700000000000    0.0378200000000000 H
   0.3781133333333333    0.0789700000000000    0.1307200000000000 H
   0.3780833333333333    0.5789600000000000    0.1306800000000000 H
   0.5448066666666667    0.0790100000000000    0.1307800000000000 H
   0.5447733333333333    0.5790000000000000    0.1307900000000000 H
   0.3757800000000000    0.0816800000000000    0.0378000000000000 H
   0.3757733333333333    0.5816800000000000    0.0377700000000000 H
   0.5423866666666667    0.0815800000000000    0.0378600000000000 H
   0.5423766666666666    0.5815800000000000    0.0378700000000000 H
   0.4615833333333333    0.4201300000000000    0.3693700000000000 H
   0.4618633333333333    0.9201600000000000    0.3692000000000000 H
   0.6280066666666666    0.4210500000000000    0.3692500000000000 H
   0.6280100000000000    0.9210500000000000    0.3692500000000000 H
   0.4593633333333333    0.4173600000000000    0.4622900000000000 H
   0.4594433333333333    0.9175100000000000    0.4621500000000000 H
   0.6256433333333333    0.4183900000000000    0.4621700000000000 H
   0.6256433333333333    0.9184000000000000    0.4621700000000000 H
   0.7952833333333333    0.4200800000000000    0.6308700000000000 H
   0.7952699999999999    0.9201000000000000    0.6308100000000000 H
   0.9613466666666666    0.4210600000000000    0.6307000000000000 H
   0.9613466666666666    0.9210600000000000    0.6307000000000000 H
   0.7927899999999999    0.4173800000000000    0.5379500000000000 H
   0.7928100000000000    0.9174700000000000    0.5378900000000000 H
   0.9589799999999999    0.4184000000000000    0.5378500000000001 H
   0.9589766666666666    0.9184000000000000    0.5378500000000001 H
   0.7114800000000000    0.0790000000000000    0.8692000000000000 H
   0.7114766666666666    0.5789900000000000    0.8692299999999999 H
   0.8781300000000000    0.0789700000000000    0.8692600000000000 H
   0.8781333333333332    0.5789700000000000    0.8692700000000000 H
   0.7091333333333333    0.0817100000000000    0.9621600000000000 H
   0.7091266666666667    0.5817000000000000    0.9621400000000000 H
   0.8757033333333333    0.0815300000000000    0.9621800000000000 H
   0.8757033333333333    0.5815300000000000    0.9621900000000000 H
   0.7885500000000000    0.4209600000000000    0.8692100000000000 H
   0.7885400000000000    0.9209500000000000    0.8692299999999999 H
   0.9552533333333333    0.4210300000000000    0.8693200000000000 H
   0.9552499999999999    0.9210300000000000    0.8693000000000000 H
   0.7909433333333333    0.4183700000000000    0.9621300000000000 H
   0.7909333333333333    0.9183500000000000    0.9621499999999999 H
   0.9575600000000000    0.4183000000000000    0.9622300000000000 H
   0.9575633333333333    0.9183000000000000    0.9622000000000001 H
   0.7053266666666667    0.0789400000000000    0.6307600000000000 H
   0.7053233333333333    0.5789400000000000    0.6307500000000000 H
   0.8717166666666666    0.0798700000000000    0.6306800000000000 H
   0.8717266666666665    0.5798400000000000    0.6306300000000000 H
   0.7076899999999999    0.0816000000000000    0.5378400000000000 H
   0.7076866666666666    0.5815900000000001    0.5378400000000000 H
   0.8739633333333333    0.0826900000000000    0.5377000000000000 H
   0.8739399999999999    0.5826000000000000    0.5377100000000000 H
   0.7053233333333333    0.0789400000000000    0.3692400000000000 H
   0.7053166666666666    0.5789299999999999    0.3692400000000000 H
   0.8716433333333333    0.0799300000000000    0.3692000000000000 H
   0.8713666666666666    0.5798800000000000    0.3691400000000000 H
   0.7076866666666666    0.0816000000000000    0.4621000000000000 H
   0.7076866666666666    0.5815900000000001    0.4621500000000000 H
   0.8739299999999999    0.0827400000000000    0.4621900000000000 H
   0.8738533333333333    0.5825700000000000    0.4620600000000000 H
   0.7885166666666666    0.4209900000000000    0.1307300000000000 H
   0.7885400000000000    0.9209900000000000    0.1307000000000000 H
   0.9551933333333333    0.4210000000000000    0.1307700000000000 H
   0.9552233333333333    0.9210100000000000    0.1307300000000000 H
   0.7909499999999999    0.4184200000000000    0.0378100000000000 H
   0.7909466666666667    0.9184000000000000    0.0378200000000000 H
   0.9575366666666666    0.4182700000000000    0.0378600000000000 H
   0.9575433333333333    0.9182700000000000    0.0378200000000000 H
   0.7114466666666667    0.0789700000000000    0.1307200000000000 H
   0.7114166666666666    0.5789600000000000    0.1306800000000000 H
   0.8781399999999999    0.0790100000000000    0.1307800000000000 H
   0.8781066666666666    0.5790000000000000    0.1307900000000000 H
   0.7091133333333333    0.0816800000000000    0.0378000000000000 H
   0.7091066666666667    0.5816800000000000    0.0377700000000000 H
   0.8757199999999999    0.0815800000000000    0.0378600000000000 H
   0.8757100000000000    0.5815800000000000    0.0378700000000000 H
   0.7949166666666666    0.4201300000000000    0.3693700000000000 H
   0.7951966666666666    0.9201600000000000    0.3692000000000000 H
   0.9613400000000000    0.4210500000000000    0.3692500000000000 H
   0.9613433333333332    0.9210500000000000    0.3692500000000000 H
   0.7926966666666666    0.4173600000000000    0.4622900000000000 H
   0.7927766666666667    0.9175100000000000    0.4621500000000000 H
   0.9589766666666666    0.4183900000000000    0.4621700000000000 H
   0.9589766666666666    0.9184000000000000    0.4621700000000000 H
   0.1257266666666667    0.2469800000000000    0.7948200000000000 C
   0.1257266666666667    0.7469800000000000    0.7948200000000000 C
   0.2920033333333333    0.2470500000000000    0.7948700000000000 C
   0.2920033333333333    0.7470500000000000    0.7948700000000000 C
   0.1266133333333333    0.1703400000000000    0.7948600000000000 C
   0.1266133333333333    0.6703300000000000    0.7948600000000000 C
   0.2929633333333333    0.1704300000000000    0.7949000000000001 C
   0.2929600000000000    0.6704200000000000    0.7949000000000001 C
   0.1452433333333333    0.4557500000000000    0.6084300000000000 C
   0.1452366666666667    0.9557900000000000    0.6080000000000000 C
   0.3115300000000000    0.4563200000000000    0.6083800000000000 C
   0.3115300000000000    0.9563199999999999    0.6083800000000000 C
   0.1443700000000000    0.4545900000000000    0.5560900000000000 C
   0.1443800000000000    0.9546600000000000    0.5560600000000000 C
   0.3107333333333333    0.4551600000000000    0.5560400000000000 C
   0.3107300000000000    0.9551600000000000    0.5560400000000000 C
   0.0423833333333333    0.2529300000000000    0.7052000000000000 C
   0.0423833333333333    0.7529300000000000    0.7052000000000000 C
   0.2088600000000000    0.2529700000000000    0.7052000000000000 C
   0.2088600000000000    0.7529700000000000    0.7052000000000000 C
   0.2929500000000000    0.6704200000000000    0.2051100000000000 C
   0.1449400000000000    0.4558000000000000    0.3917000000000000 C
   0.1451800000000000    0.9558400000000000    0.3916300000000000 C
   0.3115266666666666    0.4563100000000000    0.3916400000000000 C
   0.0428066666666667    0.3295800000000000    0.7051400000000000 C
   0.0428033333333333    0.8295800000000000    0.7051400000000000 C
   0.2097766666666666    0.3296100000000000    0.7051600000000000 C
   0.2097733333333333    0.8296000000000000    0.7051600000000000 C
   0.0616166666666667    0.0437100000000000    0.8916300000000000 C
   0.0616166666666667    0.5437000000000000    0.8916100000000000 C
   0.2282633333333333    0.0436800000000000    0.8916500000000001 C
   0.2282633333333333    0.5436700000000000    0.8916700000000000 C
   0.0608233333333333    0.0449000000000000    0.9439700000000000 C
   0.0608233333333333    0.5449000000000001    0.9439500000000000 C
   0.2274300000000000    0.0448000000000000    0.9439900000000000 C
   0.2274266666666667    0.5447900000000000    0.9440100000000000 C
   0.1245333333333333    0.2469900000000000    0.7051900000000000 C
   0.1245333333333333    0.7469800000000000    0.7051900000000000 C
   0.2909700000000000    0.2470600000000000    0.7052100000000000 C
   0.2909700000000000    0.7470500000000000    0.7052100000000000 C
   0.1236566666666667    0.1703400000000000    0.7051500000000001 C
   0.1236566666666667    0.6703300000000000    0.7051500000000001 C
   0.2905400000000000    0.1704100000000000    0.7051400000000000 C
   0.2905366666666667    0.6704100000000000    0.7051400000000000 C
   0.1050900000000000    0.4562700000000000    0.8915999999999999 C
   0.1050800000000000    0.9562600000000000    0.8916200000000000 C
   0.2717633333333333    0.4563000000000000    0.8910000000000000 C
   0.2717600000000000    0.9563000000000000    0.8916700000000000 C
   0.1059033333333333    0.4551400000000000    0.9439400000000000 C
   0.1058933333333333    0.9551300000000000    0.9439600000000000 C
   0.2725300000000000    0.4550900000000000    0.9440300000000000 C
   0.2725300000000000    0.9550900000000000    0.9440100000000000 C
   0.0414900000000000    0.3710700000000000    0.2499900000000000 C
   0.0414933333333333    0.8710800000000000    0.2499900000000000 C
   0.2082100000000000    0.3712600000000000    0.2500000000000000 C
   0.1249900000000000    0.3708700000000000    0.2499800000000000 C
   0.0413500000000000    0.2529400000000000    0.7948600000000000 C
   0.0413500000000000    0.7529300000000000    0.7948600000000000 C
   0.2076633333333333    0.2529900000000000    0.7948600000000000 C
   0.2076633333333333    0.7529900000000000    0.7948600000000000 C
   0.0403833333333333    0.3295600000000000    0.7948900000000000 C
   0.0403833333333333    0.8295600000000000    0.7948900000000000 C
   0.2068166666666666    0.3296300000000000    0.7948900000000000 C
   0.2068133333333333    0.8296300000000000    0.7948900000000000 C
   0.0218033333333333    0.0436800000000000    0.6083700000000000 C
   0.0218033333333333    0.5436700000000000    0.6083700000000000 C
   0.1883633333333333    0.0442100000000000    0.6083300000000000 C
   0.1883666666666667    0.5441700000000000    0.6083000000000000 C
   0.0226033333333333    0.0448500000000000    0.5560300000000000 C
   0.0226000000000000    0.5448400000000000    0.5560300000000000 C
   0.1891000000000000    0.0454600000000000    0.5559900000000000 C
   0.1890833333333333    0.5453800000000000    0.5559600000000000 C
   0.0413400000000000    0.2529300000000000    0.2051400000000000 C
   0.0413333333333333    0.7529400000000001    0.2051000000000000 C
   0.2076266666666667    0.2530400000000000    0.2051600000000000 C
   0.0403733333333333    0.3295600000000000    0.2051100000000000 C
   0.0403733333333333    0.8295700000000000    0.2051100000000000 C
   0.2067233333333333    0.3296800000000000    0.2051300000000000 C
   0.0218033333333333    0.0436800000000000    0.3916300000000000 C
   0.0218000000000000    0.5436600000000000    0.3916300000000000 C
   0.1883033333333333    0.0442600000000000    0.3916600000000000 C
   0.1880666666666667    0.5442100000000000    0.3915800000000000 C
   0.0226000000000000    0.0448500000000000    0.4439700000000000 C
   0.0225966666666667    0.5448300000000000    0.4439700000000000 C
   0.1890600000000000    0.0455000000000000    0.4439900000000000 C
   0.1889400000000000    0.5453700000000000    0.4439200000000000 C
   0.1245000000000000    0.2469700000000000    0.2948000000000000 C
   0.1244933333333333    0.7470400000000000    0.2948100000000000 C
   0.2909500000000000    0.2470600000000000    0.2948100000000000 C
   0.2909566666666666    0.7470500000000000    0.2948000000000000 C
   0.1236333333333333    0.1703200000000000    0.2948500000000000 C
   0.1235633333333333    0.6704000000000000    0.2948500000000000 C
   0.2905300000000000    0.1704200000000000    0.2948700000000000 C
   0.2905266666666667    0.6704000000000000    0.2948700000000000 C
   0.1050600000000000    0.4562900000000000    0.1083400000000000 C
   0.1050766666666667    0.9562900000000000    0.1083600000000000 C
   0.2717166666666667    0.4562900000000000    0.1083900000000000 C
   0.2717433333333333    0.9562900000000000    0.1083000000000000 C
   0.1058933333333333    0.4551700000000000    0.0560000000000000 C
   0.1059000000000000    0.9551500000000001    0.0560100000000000 C
   0.2725066666666667    0.4550700000000000    0.0560500000000000 C
   0.2725200000000000    0.9550700000000000    0.0560200000000000 C
   0.0423733333333333    0.2529300000000000    0.2948000000000000 C
   0.0423666666666667    0.7529300000000000    0.2947900000000000 C
   0.2088200000000000    0.2530300000000000    0.2948000000000000 C
   0.0427966666666667    0.3295800000000000    0.2948700000000000 C
   0.0427966666666667    0.8295800000000000    0.2948600000000000 C
   0.2096800000000000    0.3296700000000000    0.2948500000000000 C
   0.0615966666666667    0.0436900000000000    0.1083500000000000 C
   0.0615700000000000    0.5436800000000001    0.1083100000000000 C
   0.2282633333333333    0.0437100000000000    0.1083800000000000 C
   0.2282366666666667    0.5437000000000000    0.1084000000000000 C
   0.0608100000000000    0.0448900000000000    0.0560100000000000 C
   0.0608000000000000    0.5448900000000000    0.0559700000000000 C
   0.2274366666666666    0.0448200000000000    0.0560400000000000 C
   0.2274200000000000    0.5448200000000000    0.0560600000000000 C
   0.1256933333333333    0.2469500000000000    0.2051000000000000 C
   0.1256900000000000    0.7470200000000000    0.2051700000000000 C
   0.2919833333333333    0.2470600000000000    0.2051500000000000 C
   0.2919866666666666    0.7470500000000000    0.2051400000000000 C
   0.1265900000000000    0.1703200000000000    0.2051300000000000 C
   0.1265233333333333    0.6703800000000000    0.2051300000000000 C
   0.2929533333333333    0.1704300000000000    0.2051000000000000 C
   0.3115266666666666    0.9563199999999999    0.3916400000000000 C
   0.1442233333333333    0.4545800000000000    0.4440000000000000 C
   0.1443433333333333    0.9546900000000000    0.4439700000000000 C
   0.3107300000000000    0.4551500000000000    0.4439800000000000 C
   0.3107300000000000    0.9551600000000000    0.4439800000000000 C
   0.0000000000000000    0.0000100000000000    0.5280100000000000 C
   0.0000000000000000    0.5000000000000000    0.5280100000000000 C
   0.1667166666666667    0.0000800000000000    0.5280100000000000 C
   0.1666966666666667    0.4999700000000000    0.5280100000000000 C
   0.0833666666666667    0.0000300000000000    0.9719000000000000 C
   0.0833700000000000    0.5000400000000000    0.9719600000000000 C
   0.2499666666666667    0.9999300000000000    0.9720000000000000 C
   0.2499633333333333    0.4999200000000000    0.9720400000000000 C
   0.0000000000000000    0.0000100000000000    0.4719900000000000 C
   0.0000000000000000    0.4999900000000000    0.4719900000000000 C
   0.1666966666666667    0.0001000000000000    0.4700000000000000 C
   0.1666100000000000    0.4999900000000000    0.4700000000000000 C
   0.0833633333333333    0.0000300000000000    0.0279900000000000 C
   0.0833566666666667    0.5000300000000000    0.0279700000000000 C
   0.2499733333333333    0.9999400000000001    0.0280200000000000 C
   0.2499633333333333    0.4999400000000000    0.0280400000000000 C
   0.1250933333333333    0.3709500000000000    0.7500000000000000 C
   0.1250900000000000    0.8709500000000000    0.7500000000000000 C
   0.2913966666666666    0.3709600000000000    0.7500200000000000 C
   0.2914000000000000    0.8709500000000000    0.7500200000000000 C
   0.1250966666666667    0.2883800000000000    0.7500100000000000 C
   0.1250966666666667    0.7883700000000000    0.7500100000000000 C
   0.2914533333333333    0.2884200000000000    0.7500400000000000 C
   0.2914500000000000    0.7884200000000000    0.7500400000000000 C
   0.1251233333333333    0.1287600000000000    0.7500000000000000 C
   0.1251233333333333    0.6287500000000000    0.7500000000000000 C
   0.2918433333333333    0.1289200000000000    0.7500200000000000 C
   0.2918400000000000    0.6289100000000000    0.7500200000000000 C
   0.0419900000000000    0.1290300000000000    0.7500000000000000 C
   0.0419866666666667    0.6290300000000000    0.7499900000000000 C
   0.2083433333333333    0.1290800000000000    0.7500300000000000 C
   0.2083400000000000    0.6290800000000000    0.7500300000000000 C
   0.0419133333333333    0.2115700000000000    0.7500300000000000 C
   0.0419100000000000    0.7115700000000000    0.7500300000000000 C
   0.2083166666666666    0.2116200000000000    0.7500400000000000 C
   0.2083166666666666    0.7116200000000000    0.7500400000000000 C
   0.0415033333333333    0.3710800000000000    0.7500100000000000 C
   0.0415033333333333    0.8710800000000000    0.7500100000000000 C
   0.2084033333333333    0.3711400000000000    0.7500200000000000 C
   0.2084000000000000    0.8711400000000000    0.7500200000000000 C
   0.0419766666666667    0.1290300000000000    0.2500000000000000 C
   0.0419333333333333    0.6290300000000000    0.2499800000000000 C
   0.2083233333333333    0.1291200000000000    0.2499800000000000 C
   0.2082400000000000    0.6290000000000000    0.2500000000000000 C
   0.0418966666666667    0.2115700000000000    0.2499700000000000 C
   0.0418833333333333    0.7115700000000000    0.2499600000000000 C
   0.2082833333333333    0.2116600000000000    0.2499700000000000 C
   0.1250766666666667    0.8709900000000000    0.2500000000000000 C
   0.2913400000000000    0.3709600000000000    0.2500000000000000 C
   0.2913800000000000    0.8709500000000000    0.2500000000000000 C
   0.1250300000000000    0.2883400000000000    0.2499700000000000 C
   0.1250600000000000    0.7884100000000001    0.2499900000000000 C
   0.2914266666666666    0.2884200000000000    0.2499800000000000 C
   0.2914400000000000    0.7884100000000001    0.2499700000000000 C
   0.1250900000000000    0.1287400000000000    0.2499900000000000 C
   0.1249300000000000    0.6288700000000000    0.2499900000000000 C
   0.2918333333333333    0.1289200000000000    0.2499900000000000 C
   0.2918266666666667    0.6289000000000000    0.2499900000000000 C
   0.4590600000000000    0.2469800000000000    0.7948200000000000 C
   0.4590600000000000    0.7469800000000000    0.7948200000000000 C
   0.6253366666666667    0.2470500000000000    0.7948700000000000 C
   0.6253366666666667    0.7470500000000000    0.7948700000000000 C
   0.4599466666666666    0.1703400000000000    0.7948600000000000 C
   0.4599466666666666    0.6703300000000000    0.7948600000000000 C
   0.6262966666666666    0.1704300000000000    0.7949000000000001 C
   0.6262933333333334    0.6704200000000000    0.7949000000000001 C
   0.4785766666666667    0.4557500000000000    0.6084300000000000 C
   0.4785699999999999    0.9557900000000000    0.6080000000000000 C