H4 O2
1.0
  13.1633492753437569    0.0000000000000000   -4.2777934563635736
  -5.8882588095201083   11.7726084284582218   -4.2787124210798835
   0.0000000000000000    0.0000000000000000   13.8409999999999993
H O
4 2
direct
   0.3880647313685304    0.4024891769178609    0.7124481744487124 H
   0.2819912637352167    0.4023811117700459    0.7261173756105286 H
   0.2307827526618411    0.5628182771011648    0.8230758648160356 H
   0.2966680977171908    0.6946039926173675    0.8898676499041850 H
   0.3650100000000000    0.4429100000000000    0.7656300000000000 O
   0.3050800000000000    0.6251300000000000    0.8808000000000000 O
