Cd16 H454 C459 N46 O66
1.0
  25.0185087629206855    0.0000000000000000    3.5704626142365541
   9.9718480818055024   22.9507985392856639    3.5636032667112145
   0.0000000000000000    0.0000000000000000   23.8099999999999987
Cd H C N O
16 454 459 46 66
direct
   0.3890300000000000    0.3177900000000000    0.6501400000000001 Cd
   0.1814600000000000    0.1107750000000000    0.8508700000000000 Cd
   0.3890300000000000    0.8177900000000000    0.6501400000000001 Cd
   0.1814600000000000    0.6107750000000000    0.8508700000000000 Cd
   0.8890300000000000    0.3177900000000000    0.6501400000000001 Cd
   0.6814600000000000    0.1107750000000000    0.8508700000000000 Cd
   0.8890300000000000    0.8177900000000000    0.6501400000000001 Cd
   0.6814600000000000    0.6107750000000000    0.8508700000000000 Cd
   0.6109500000000000    0.6822050000000000    0.3498300000000000 Cd
   0.8185350000000000    0.8892050000000000    0.1491000000000000 Cd
   0.6109500000000000    0.1822050000000000    0.3498300000000000 Cd
   0.8185350000000000    0.3892050000000000    0.1491000000000000 Cd
   0.1109500000000000    0.1822050000000000    0.3498300000000000 Cd
   0.3185350000000000    0.3892050000000000    0.1491000000000000 Cd
   0.1109500000000000    0.6822050000000000    0.3498300000000000 Cd
   0.3185350000000000    0.8892050000000000    0.1491000000000000 Cd
   0.1652724796569493    0.2514022769766833    0.4032907860051486 H
   0.0946817838048281    0.2953393515567139    0.4009069979384987 H
   0.2815197480209917    0.3992587936832998    0.5911730189790627 H
   0.3375910127348020    0.3803241302000052    0.5404147536742802 H
   0.3434950000000000    0.0835800000000000    0.7645100000000000 H
   0.3680150000000000    0.1002200000000000    0.6941000000000001 H
   0.3086250000000000    0.0076850000000000    0.7733100000000001 H
   0.4556350000000000    0.9965200000000001    0.6506000000000000 H
   0.4558750000000000    0.9041100000000000    0.6244200000000000 H
   0.3160050000000000    0.9146750000000000    0.7428000000000000 H
   0.4498200000000000    0.0279800000000000    0.7857100000000000 H
   0.4721200000000000    0.0483750000000000    0.7156500000000000 H
   0.4168700000000000    0.1555900000000000    0.7344700000000000 H
   0.3990850000000000    0.1326800000000000    0.8050700000000000 H
   0.4919200000000000    0.1913050000000000    0.7271800000000000 H
   0.5032799999999999    0.0436150000000000    0.8489200000000000 H
   0.5953100000000000    0.0436250000000000    0.8757600000000000 H
   0.5845800000000000    0.1841650000000000    0.7583299999999999 H
   0.8434950000000000    0.5835800000000000    0.7645100000000000 H
   0.8680150000000000    0.6002200000000000    0.6941000000000001 H
   0.8086249999999999    0.5076850000000001    0.7733100000000001 H
   0.9556350000000000    0.4965200000000000    0.6506000000000000 H
   0.9558750000000000    0.4041100000000000    0.6244200000000000 H
   0.8160050000000000    0.4146750000000000    0.7428000000000000 H
   0.9498200000000000    0.5279800000000000    0.7857100000000000 H
   0.9721200000000000    0.5483750000000001    0.7156500000000000 H
   0.9168700000000001    0.6555900000000000    0.7344700000000000 H
   0.8990850000000000    0.6326800000000000    0.8050700000000000 H
   0.9919200000000000    0.6913050000000001    0.7271800000000000 H
   0.0032800000000000    0.5436150000000000    0.8489200000000000 H
   0.0953100000000000    0.5436250000000000    0.8757600000000000 H
   0.0845800000000000    0.6841650000000000    0.7583299999999999 H
   0.3434950000000000    0.5835800000000000    0.7645100000000000 H
   0.3680150000000000    0.6002200000000000    0.6941000000000001 H
   0.3086250000000000    0.5076850000000001    0.7733100000000001 H
   0.4556350000000000    0.4965200000000000    0.6506000000000000 H
   0.4558750000000000    0.4041100000000000    0.6244200000000000 H
   0.3160050000000000    0.4146750000000000    0.7428000000000000 H
   0.4498200000000000    0.5279800000000000    0.7857100000000000 H
   0.4721200000000000    0.5483750000000001    0.7156500000000000 H
   0.4168700000000000    0.6555900000000000    0.7344700000000000 H
   0.3990850000000000    0.6326800000000000    0.8050700000000000 H
   0.4919200000000000    0.6913050000000001    0.7271800000000000 H
   0.5032799999999999    0.5436150000000000    0.8489200000000000 H
   0.5953100000000000    0.5436250000000000    0.8757600000000000 H
   0.5845800000000000    0.6841650000000000    0.7583299999999999 H
   0.8434950000000000    0.0835800000000000    0.7645100000000000 H
   0.8680150000000000    0.1002200000000000    0.6941000000000001 H
   0.8086249999999999    0.0076850000000000    0.7733100000000001 H
   0.9556350000000000    0.9965200000000001    0.6506000000000000 H
   0.9558750000000000    0.9041100000000000    0.6244200000000000 H
   0.8160050000000000    0.9146750000000000    0.7428000000000000 H
   0.9498200000000000    0.0279800000000000    0.7857100000000000 H
   0.9721200000000000    0.0483750000000000    0.7156500000000000 H
   0.9168700000000001    0.1555900000000000    0.7344700000000000 H
   0.8990850000000000    0.1326800000000000    0.8050700000000000 H
   0.9919200000000000    0.1913050000000000    0.7271800000000000 H
   0.0032800000000000    0.0436150000000000    0.8489200000000000 H
   0.0953100000000000    0.0436250000000000    0.8757600000000000 H
   0.0845800000000000    0.1841650000000000    0.7583299999999999 H
   0.0161000000000000    0.2766450000000000    0.0849100000000000 H
   0.0045400000000000    0.3365950000000000    0.0330300000000000 H
   0.0440600000000000    0.3202950000000000    0.9327600000000000 H
   0.0934700000000000    0.1763500000000000    0.0630700000000000 H
   0.1406000000000000    0.1099050000000000    0.9848000000000000 H
   0.0958300000000000    0.2481500000000000    0.8603700000000000 H
   0.0626450000000000    0.3339000000000000    0.1122100000000000 H
   0.1180400000000000    0.2681700000000000    0.0907500000000000 H
   0.1315600000000000    0.3200700000000000    0.9938500000000000 H
   0.0774000000000000    0.3857350000000000    0.0173200000000000 H
   0.1070300000000000    0.4471600000000000    0.0640900000000000 H
   0.2210050000000000    0.2653250000000000    0.0572200000000000 H
   0.2930800000000000    0.2851150000000000    0.1019200000000000 H
   0.1855300000000000    0.4596450000000000    0.1077000000000000 H
   0.2915050000000000    0.4161650000000000    0.9258400000000000 H
   0.2288750000000000    0.4297000000000000    0.9760100000000000 H
   0.3289750000000000    0.2436900000000000    0.8280000000000000 H
   0.2731150000000000    0.2445500000000000    0.7901700000000000 H
   0.3114000000000000    0.3444100000000000    0.8639800000000000 H
   0.1750900000000000    0.3045000000000000    0.8154800000000000 H
   0.1337450000000000    0.4397250000000000    0.9272300000000000 H
   0.1018550000000000    0.3818750000000000    0.8733600000000000 H
   0.0837700000000000    0.2074900000000000    0.5753800000000000 H
   0.0702900000000000    0.2700200000000000    0.5250899999999999 H
   0.2562550000000000    0.1697600000000000    0.6728800000000000 H
   0.2558050000000000    0.2255250000000000    0.7105600000000000 H
   0.1553900000000000    0.1876350000000000    0.6372400000000000 H
   0.1960200000000000    0.3237350000000000    0.6851000000000000 H
   0.0604800000000000    0.3652250000000000    0.5737200000000000 H
   0.1186600000000000    0.3969850000000000    0.6272900000000000 H
   0.0161000000000000    0.7766450000000000    0.0849100000000000 H
   0.0045400000000000    0.8365950000000000    0.0330300000000000 H
   0.0440600000000000    0.8202950000000000    0.9327600000000000 H
   0.0934700000000000    0.6763500000000000    0.0630700000000000 H
   0.1406000000000000    0.6099050000000000    0.9848000000000000 H
   0.0958300000000000    0.7481500000000000    0.8603700000000000 H
   0.0626450000000000    0.8339000000000000    0.1122100000000000 H
   0.1180400000000000    0.7681700000000000    0.0907500000000000 H
   0.1315600000000000    0.8200700000000001    0.9938500000000000 H
   0.0774000000000000    0.8857349999999999    0.0173200000000000 H
   0.1070300000000000    0.9471600000000000    0.0640900000000000 H
   0.2210050000000000    0.7653250000000000    0.0572200000000000 H
   0.2930800000000000    0.7851150000000000    0.1019200000000000 H
   0.1855300000000000    0.9596450000000001    0.1077000000000000 H
   0.2232000000000000    0.9840650000000000    0.4162000000000000 H
   0.1632950000000000    0.9953000000000001    0.4681500000000000 H
   0.1797400000000000    0.9559200000000000    0.5682500000000000 H
   0.3236050000000000    0.9062250000000001    0.4378000000000000 H
   0.3900750000000000    0.8587350000000000    0.5159000000000000 H
   0.2519050000000000    0.9038500000000000    0.6405300000000000 H
   0.1660750000000000    0.9375650000000000    0.3885900000000000 H
   0.2318550000000000    0.8821450000000000    0.4098800000000000 H
   0.1800200000000000    0.8680900000000000    0.5066400000000000 H
   0.1143000000000000    0.9223650000000000    0.4834400000000000 H
   0.0527650000000000    0.8930199999999999    0.4365500000000000 H
   0.2347950000000000    0.7792200000000000    0.4423400000000000 H
   0.2149600000000000    0.7075700000000000    0.3900000000000000 H
   0.0402800000000000    0.8149850000000001    0.3921400000000000 H
   0.2915050000000000    0.9161650000000000    0.9258400000000000 H
   0.2288750000000000    0.9297000000000000    0.9760100000000000 H
   0.3289750000000000    0.7436900000000000    0.8280000000000000 H
   0.2731150000000000    0.7445500000000000    0.7901700000000000 H
   0.3114000000000000    0.8444100000000000    0.8639800000000000 H
   0.1750900000000000    0.8045000000000000    0.8154800000000000 H
   0.1337450000000000    0.9397249999999999    0.9272300000000000 H
   0.1018550000000000    0.8818750000000000    0.8733600000000000 H
   0.0837700000000000    0.7074900000000000    0.5753800000000000 H
   0.0702900000000000    0.7700199999999999    0.5250899999999999 H
   0.2562550000000000    0.6697600000000000    0.6728800000000000 H
   0.2558050000000000    0.7255250000000000    0.7105600000000000 H
   0.1553900000000000    0.6876350000000000    0.6372400000000000 H
   0.1960200000000000    0.8237350000000000    0.6851000000000000 H
   0.0604800000000000    0.8652250000000000    0.5737200000000000 H
   0.1186600000000000    0.8969849999999999    0.6272900000000000 H
   0.5161000000000000    0.2766450000000000    0.0849100000000000 H
   0.5045400000000000    0.3365950000000000    0.0330300000000000 H
   0.5440600000000000    0.3202950000000000    0.9327600000000000 H
   0.5934699999999999    0.1763500000000000    0.0630700000000000 H
   0.6406000000000001    0.1099050000000000    0.9848000000000000 H
   0.5958300000000000    0.2481500000000000    0.8603700000000000 H
   0.5626450000000001    0.3339000000000000    0.1122100000000000 H
   0.6180400000000000    0.2681700000000000    0.0907500000000000 H
   0.6315600000000000    0.3200700000000000    0.9938500000000000 H
   0.5774000000000000    0.3857350000000000    0.0173200000000000 H
   0.6070300000000000    0.4471600000000000    0.0640900000000000 H
   0.7210050000000000    0.2653250000000000    0.0572200000000000 H
   0.7930800000000000    0.2851150000000000    0.1019200000000000 H
   0.6855300000000000    0.4596450000000000    0.1077000000000000 H
   0.7232000000000001    0.4840650000000000    0.4162000000000000 H
   0.6632950000000000    0.4953000000000000    0.4681500000000000 H
   0.6797400000000000    0.4559200000000000    0.5682500000000000 H
   0.8236049999999999    0.4062250000000000    0.4378000000000000 H
   0.8900749999999999    0.3587350000000000    0.5159000000000000 H
   0.7519050000000000    0.4038500000000000    0.6405300000000000 H
   0.6660750000000000    0.4375650000000000    0.3885900000000000 H
   0.7318550000000000    0.3821450000000000    0.4098800000000000 H
   0.6800200000000001    0.3680900000000000    0.5066400000000000 H
   0.6143000000000000    0.4223650000000000    0.4834400000000000 H
   0.5527650000000000    0.3930200000000000    0.4365500000000000 H
   0.7347950000000000    0.2792200000000000    0.4423400000000000 H
   0.7149600000000000    0.2075700000000000    0.3900000000000000 H
   0.5402800000000000    0.3149850000000000    0.3921400000000000 H
   0.7915050000000000    0.4161650000000000    0.9258400000000000 H
   0.7288749999999999    0.4297000000000000    0.9760100000000000 H
   0.8289750000000000    0.2436900000000000    0.8280000000000000 H
   0.7731150000000000    0.2445500000000000    0.7901700000000000 H
   0.8114000000000000    0.3444100000000000    0.8639800000000000 H
   0.6750900000000000    0.3045000000000000    0.8154800000000000 H
   0.6337450000000000    0.4397250000000000    0.9272300000000000 H
   0.6018550000000000    0.3818750000000000    0.8733600000000000 H
   0.5837700000000000    0.2074900000000000    0.5753800000000000 H
   0.5702900000000000    0.2700200000000000    0.5250899999999999 H
   0.7562550000000000    0.1697600000000000    0.6728800000000000 H
   0.7558050000000001    0.2255250000000000    0.7105600000000000 H
   0.6553900000000000    0.1876350000000000    0.6372400000000000 H
   0.6960200000000000    0.3237350000000000    0.6851000000000000 H
   0.5604800000000000    0.3652250000000000    0.5737200000000000 H
   0.6186600000000000    0.3969850000000000    0.6272900000000000 H
   0.5161000000000000    0.7766450000000000    0.0849100000000000 H
   0.5045400000000000    0.8365950000000000    0.0330300000000000 H
   0.5440600000000000    0.8202950000000000    0.9327600000000000 H
   0.5934699999999999    0.6763500000000000    0.0630700000000000 H
   0.6406000000000001    0.6099050000000000    0.9848000000000000 H
   0.5958300000000000    0.7481500000000000    0.8603700000000000 H
   0.5626450000000001    0.8339000000000000    0.1122100000000000 H
   0.6180400000000000    0.7681700000000000    0.0907500000000000 H
   0.6315600000000000    0.8200700000000001    0.9938500000000000 H
   0.5774000000000000    0.8857349999999999    0.0173200000000000 H
   0.6070300000000000    0.9471600000000000    0.0640900000000000 H
   0.7210050000000000    0.7653250000000000    0.0572200000000000 H
   0.7930800000000000    0.7851150000000000    0.1019200000000000 H
   0.6855300000000000    0.9596450000000001    0.1077000000000000 H
   0.7232000000000001    0.9840650000000000    0.4162000000000000 H
   0.6632950000000000    0.9953000000000001    0.4681500000000000 H
   0.6797400000000000    0.9559200000000000    0.5682500000000000 H
   0.8236049999999999    0.9062250000000001    0.4378000000000000 H
   0.8900749999999999    0.8587350000000000    0.5159000000000000 H
   0.7519050000000000    0.9038500000000000    0.6405300000000000 H
   0.6660750000000000    0.9375650000000000    0.3885900000000000 H
   0.7318550000000000    0.8821450000000000    0.4098800000000000 H
   0.6800200000000001    0.8680900000000000    0.5066400000000000 H
   0.6143000000000000    0.9223650000000000    0.4834400000000000 H
   0.5527650000000000    0.8930199999999999    0.4365500000000000 H
   0.7347950000000000    0.7792200000000000    0.4423400000000000 H
   0.7149600000000000    0.7075700000000000    0.3900000000000000 H
   0.5402800000000000    0.8149850000000001    0.3921400000000000 H
   0.7915050000000000    0.9161650000000000    0.9258400000000000 H
   0.7288749999999999    0.9297000000000000    0.9760100000000000 H
   0.8289750000000000    0.7436900000000000    0.8280000000000000 H
   0.7731150000000000    0.7445500000000000    0.7901700000000000 H
   0.8114000000000000    0.8444100000000000    0.8639800000000000 H
   0.6750900000000000    0.8045000000000000    0.8154800000000000 H
   0.6337450000000000    0.9397249999999999    0.9272300000000000 H
   0.6018550000000000    0.8818750000000000    0.8733600000000000 H
   0.5837700000000000    0.7074900000000000    0.5753800000000000 H
   0.5702900000000000    0.7700199999999999    0.5250899999999999 H
   0.7562550000000000    0.6697600000000000    0.6728800000000000 H
   0.7558050000000001    0.7255250000000000    0.7105600000000000 H
   0.6553900000000000    0.6876350000000000    0.6372400000000000 H
   0.6960200000000000    0.8237350000000000    0.6851000000000000 H
   0.5604800000000000    0.8652250000000000    0.5737200000000000 H
   0.6186600000000000    0.8969849999999999    0.6272900000000000 H
   0.6564900000000000    0.9164000000000000    0.2354600000000000 H
   0.6319650000000000    0.8997649999999999    0.3058700000000000 H
   0.6913600000000000    0.9923000000000000    0.2266000000000000 H
   0.5443600000000000    0.0034600000000000    0.3493000000000000 H
   0.5441150000000000    0.0958750000000000    0.3755500000000000 H
   0.6839800000000000    0.0853150000000000    0.2571600000000000 H
   0.5278600000000000    0.9516200000000000    0.2843100000000000 H
   0.5501750000000000    0.9720100000000000    0.2142500000000000 H
   0.5831100000000000    0.8444050000000001    0.2655000000000000 H
   0.6009050000000000    0.8673050000000000    0.1949000000000000 H
   0.5080700000000000    0.8086800000000001    0.2727000000000000 H
   0.4966950000000000    0.9563800000000000    0.1510500000000000 H
   0.4046700000000000    0.9563550000000001    0.1242100000000000 H
   0.4154250000000000    0.8158050000000000    0.2416200000000000 H
   0.6564900000000000    0.4164000000000000    0.2354600000000000 H
   0.6319650000000000    0.3997650000000000    0.3058700000000000 H
   0.6913600000000000    0.4923000000000000    0.2266000000000000 H
   0.5443600000000000    0.5034600000000000    0.3493000000000000 H
   0.5441150000000000    0.5958750000000000    0.3755500000000000 H
   0.6839800000000000    0.5853150000000000    0.2571600000000000 H
   0.5278600000000000    0.4516200000000000    0.2843100000000000 H
   0.5501750000000000    0.4720100000000000    0.2142500000000000 H
   0.5831100000000000    0.3444050000000000    0.2655000000000000 H
   0.6009050000000000    0.3673050000000000    0.1949000000000000 H
   0.5080700000000000    0.3086800000000000    0.2727000000000000 H
   0.4966950000000000    0.4563800000000000    0.1510500000000000 H
   0.4046700000000000    0.4563550000000000    0.1242100000000000 H
   0.4154250000000000    0.3158050000000000    0.2416200000000000 H
   0.1564900000000000    0.4164000000000000    0.2354600000000000 H
   0.1319650000000000    0.3997650000000000    0.3058700000000000 H
   0.1913600000000000    0.4923000000000000    0.2266000000000000 H
   0.0443600000000000    0.5034600000000000    0.3493000000000000 H
   0.0441150000000000    0.5958750000000000    0.3755500000000000 H
   0.1839800000000000    0.5853150000000000    0.2571600000000000 H
   0.0278600000000000    0.4516200000000000    0.2843100000000000 H
   0.0501750000000000    0.4720100000000000    0.2142500000000000 H
   0.0831100000000000    0.3444050000000000    0.2655000000000000 H
   0.1009050000000000    0.3673050000000000    0.1949000000000000 H
   0.0080700000000000    0.3086800000000000    0.2727000000000000 H
   0.9966950000000000    0.4563800000000000    0.1510500000000000 H
   0.9046700000000000    0.4563550000000000    0.1242100000000000 H
   0.9154249999999999    0.3158050000000000    0.2416200000000000 H
   0.1564900000000000    0.9164000000000000    0.2354600000000000 H
   0.1319650000000000    0.8997649999999999    0.3058700000000000 H
   0.1913600000000000    0.9923000000000000    0.2266000000000000 H
   0.0443600000000000    0.0034600000000000    0.3493000000000000 H
   0.0441150000000000    0.0958750000000000    0.3755500000000000 H
   0.1839800000000000    0.0853150000000000    0.2571600000000000 H
   0.0278600000000000    0.9516200000000000    0.2843100000000000 H
   0.0501750000000000    0.9720100000000000    0.2142500000000000 H
   0.0831100000000000    0.8444050000000001    0.2655000000000000 H
   0.1009050000000000    0.8673050000000000    0.1949000000000000 H
   0.0080700000000000    0.8086800000000001    0.2727000000000000 H
   0.9966950000000000    0.9563800000000000    0.1510500000000000 H
   0.9046700000000000    0.9563550000000001    0.1242100000000000 H
   0.9154249999999999    0.8158050000000000    0.2416200000000000 H
   0.9838800000000000    0.7233400000000000    0.9150400000000000 H
   0.9954450000000000    0.6633900000000000    0.9669000000000000 H
   0.9065150000000000    0.8236350000000000    0.9368900000000000 H
   0.9559250000000000    0.6796900000000000    0.0671900000000000 H
   0.8593850000000001    0.8900800000000000    0.0151000000000000 H
   0.9041550000000000    0.7518300000000000    0.1395000000000000 H
   0.9373350000000000    0.6660900000000000    0.8877500000000000 H
   0.8819399999999999    0.7318150000000000    0.9092100000000000 H
   0.8684300000000000    0.6799100000000000    0.0000000000000000 H
   0.9225850000000000    0.6142500000000000    0.9826400000000000 H
   0.8929549999999999    0.5528200000000000    0.9358700000000000 H
   0.7789800000000000    0.7346600000000000    0.9427400000000000 H
   0.7069050000000000    0.7148650000000000    0.8980500000000000 H
   0.8144549999999999    0.5403350000000000    0.8922600000000001 H
   0.7768050000000000    0.5159049999999999    0.5837300000000000 H
   0.8367050000000000    0.5046800000000000    0.5318000000000001 H
   0.8202499999999999    0.5440550000000000    0.4317100000000000 H
   0.6763950000000000    0.5937500000000000    0.5621699999999999 H
   0.6099200000000000    0.6412400000000000    0.4840000000000000 H
   0.7480800000000000    0.5961300000000000    0.3594300000000000 H
   0.8339300000000001    0.5624050000000000    0.6113700000000000 H
   0.7681450000000001    0.6178250000000000    0.5900900000000000 H
   0.8856900000000000    0.5776250000000001    0.5165100000000000 H
   0.8199650000000001    0.6319000000000000    0.4933000000000000 H
   0.9472300000000000    0.6069599999999999    0.5634000000000000 H
   0.7651950000000001    0.7207650000000000    0.5576100000000001 H
   0.7850300000000000    0.7924150000000000    0.6029600000000001 H
   0.9597100000000001    0.6849950000000000    0.6078300000000000 H
   0.9161900000000001    0.7925050000000000    0.4246100000000000 H
   0.9297000000000000    0.7299599999999999    0.4748800000000000 H
   0.7437350000000000    0.8302200000000000    0.3270800000000000 H
   0.7441850000000000    0.7744500000000001    0.2894100000000000 H
   0.8445950000000000    0.8123549999999999    0.3627200000000000 H
   0.8039700000000001    0.6762450000000000    0.3148700000000000 H
   0.9395100000000001    0.6347650000000000    0.4262500000000000 H
   0.8813350000000000    0.6030000000000000    0.3726900000000000 H
   0.7084800000000000    0.5838099999999999    0.0741200000000000 H
   0.7711100000000000    0.5702800000000000    0.0239500000000000 H
   0.6710150000000000    0.7562900000000000    0.1719700000000000 H
   0.7268749999999999    0.7554200000000000    0.2090000000000000 H
   0.6885900000000000    0.6555650000000000    0.1359900000000000 H
   0.8249000000000000    0.6954750000000001    0.1844800000000000 H
   0.8662400000000000    0.5602549999999999    0.0727300000000000 H
   0.8981350000000000    0.6181050000000000    0.1265900000000000 H
   0.9838800000000000    0.2233400000000000    0.9150400000000000 H
   0.9954450000000000    0.1633900000000000    0.9669000000000000 H
   0.9065150000000000    0.3236350000000000    0.9368900000000000 H
   0.9559250000000000    0.1796900000000000    0.0671900000000000 H
   0.8593850000000001    0.3900800000000000    0.0151000000000000 H
   0.9041550000000000    0.2518300000000000    0.1395000000000000 H
   0.9373350000000000    0.1660900000000000    0.8877500000000000 H
   0.8819399999999999    0.2318150000000000    0.9092100000000000 H
   0.8684300000000000    0.1799100000000000    0.0000000000000000 H
   0.9225850000000000    0.1142500000000000    0.9826400000000000 H
   0.8929549999999999    0.0528200000000000    0.9358700000000000 H
   0.7789800000000000    0.2346600000000000    0.9427400000000000 H
   0.7069050000000000    0.2148650000000000    0.8980500000000000 H
   0.8144549999999999    0.0403350000000000    0.8922600000000001 H
   0.7768050000000000    0.0159050000000000    0.5837300000000000 H
   0.8367050000000000    0.0046800000000000    0.5318000000000001 H
   0.8202499999999999    0.0440550000000000    0.4317100000000000 H
   0.6763950000000000    0.0937500000000000    0.5621699999999999 H
   0.6099200000000000    0.1412400000000000    0.4840000000000000 H
   0.7480800000000000    0.0961300000000000    0.3594300000000000 H
   0.8339300000000001    0.0624050000000000    0.6113700000000000 H
   0.7681450000000001    0.1178250000000000    0.5900900000000000 H
   0.8856900000000000    0.0776250000000000    0.5165100000000000 H
   0.8199650000000001    0.1319000000000000    0.4933000000000000 H
   0.9472300000000000    0.1069600000000000    0.5634000000000000 H
   0.7651950000000001    0.2207650000000000    0.5576100000000001 H
   0.7850300000000000    0.2924150000000000    0.6029600000000001 H
   0.9597100000000001    0.1849950000000000    0.6078300000000000 H
   0.9161900000000001    0.2925050000000000    0.4246100000000000 H
   0.9297000000000000    0.2299600000000000    0.4748800000000000 H
   0.7437350000000000    0.3302200000000000    0.3270800000000000 H
   0.7441850000000000    0.2744500000000000    0.2894100000000000 H
   0.8445950000000000    0.3123550000000000    0.3627200000000000 H
   0.8039700000000001    0.1762450000000000    0.3148700000000000 H
   0.9395100000000001    0.1347650000000000    0.4262500000000000 H
   0.8813350000000000    0.1030000000000000    0.3726900000000000 H
   0.7084800000000000    0.0838100000000000    0.0741200000000000 H
   0.7711100000000000    0.0702800000000000    0.0239500000000000 H
   0.6710150000000000    0.2562900000000000    0.1719700000000000 H
   0.7268749999999999    0.2554200000000000    0.2090000000000000 H
   0.6885900000000000    0.1555650000000000    0.1359900000000000 H
   0.8249000000000000    0.1954750000000000    0.1844800000000000 H
   0.8662400000000000    0.0602550000000000    0.0727300000000000 H
   0.8981350000000000    0.1181050000000000    0.1265900000000000 H
   0.4838800000000000    0.2233400000000000    0.9150400000000000 H
   0.4954450000000000    0.1633900000000000    0.9669000000000000 H
   0.4065150000000000    0.3236350000000000    0.9368900000000000 H
   0.4559250000000000    0.1796900000000000    0.0671900000000000 H
   0.3593850000000000    0.3900800000000000    0.0151000000000000 H
   0.4041550000000000    0.2518300000000000    0.1395000000000000 H
   0.4373350000000000    0.1660900000000000    0.8877500000000000 H
   0.3819400000000000    0.2318150000000000    0.9092100000000000 H
   0.3684300000000000    0.1799100000000000    0.0000000000000000 H
   0.4225850000000000    0.1142500000000000    0.9826400000000000 H
   0.3929550000000000    0.0528200000000000    0.9358700000000000 H
   0.2789800000000000    0.2346600000000000    0.9427400000000000 H
   0.2069050000000000    0.2148650000000000    0.8980500000000000 H
   0.3144550000000000    0.0403350000000000    0.8922600000000001 H
   0.2768050000000000    0.0159050000000000    0.5837300000000000 H
   0.3367050000000000    0.0046800000000000    0.5318000000000001 H
   0.3202500000000000    0.0440550000000000    0.4317100000000000 H
   0.1763950000000000    0.0937500000000000    0.5621699999999999 H
   0.1099200000000000    0.1412400000000000    0.4840000000000000 H
   0.2480800000000000    0.0961300000000000    0.3594300000000000 H
   0.3339300000000000    0.0624050000000000    0.6113700000000000 H
   0.2681450000000000    0.1178250000000000    0.5900900000000000 H
   0.3856900000000000    0.0776250000000000    0.5165100000000000 H
   0.3199650000000000    0.1319000000000000    0.4933000000000000 H
   0.4472300000000000    0.1069600000000000    0.5634000000000000 H
   0.2651950000000000    0.2207650000000000    0.5576100000000001 H
   0.2850300000000000    0.2924150000000000    0.6029600000000001 H
   0.4597100000000000    0.1849950000000000    0.6078300000000000 H
   0.4161900000000000    0.2925050000000000    0.4246100000000000 H
   0.4297000000000000    0.2299600000000000    0.4748800000000000 H
   0.2437350000000000    0.3302200000000000    0.3270800000000000 H
   0.2441850000000000    0.2744500000000000    0.2894100000000000 H
   0.3445950000000000    0.3123550000000000    0.3627200000000000 H
   0.3039700000000000    0.1762450000000000    0.3148700000000000 H
   0.4395100000000000    0.1347650000000000    0.4262500000000000 H
   0.3813350000000000    0.1030000000000000    0.3726900000000000 H
   0.2084800000000000    0.0838100000000000    0.0741200000000000 H
   0.2711100000000000    0.0702800000000000    0.0239500000000000 H
   0.1710150000000000    0.2562900000000000    0.1719700000000000 H
   0.2268750000000000    0.2554200000000000    0.2090000000000000 H
   0.1885900000000000    0.1555650000000000    0.1359900000000000 H
   0.3249000000000000    0.1954750000000000    0.1844800000000000 H
   0.3662400000000000    0.0602550000000000    0.0727300000000000 H
   0.3981350000000000    0.1181050000000000    0.1265900000000000 H
   0.4838800000000000    0.7233400000000000    0.9150400000000000 H
   0.4954450000000000    0.6633900000000000    0.9669000000000000 H
   0.4065150000000000    0.8236350000000000    0.9368900000000000 H
   0.4559250000000000    0.6796900000000000    0.0671900000000000 H
   0.3593850000000000    0.8900800000000000    0.0151000000000000 H
   0.4041550000000000    0.7518300000000000    0.1395000000000000 H
   0.4373350000000000    0.6660900000000000    0.8877500000000000 H
   0.3819400000000000    0.7318150000000000    0.9092100000000000 H
   0.3684300000000000    0.6799100000000000    0.0000000000000000 H
   0.4225850000000000    0.6142500000000000    0.9826400000000000 H
   0.3929550000000000    0.5528200000000000    0.9358700000000000 H