H14 C13 N2
1.0
  25.0185087629206855    0.0000000000000000    3.5704626142365541
   9.9718480818055024   22.9507985392856639    3.5636032667112145
   0.0000000000000000    0.0000000000000000   23.8099999999999987
H C N
14 13 2
direct
   0.2519050000000000    0.4038500000000000    0.6405300000000000 H
   0.1797400000000000    0.4559200000000000    0.5682500000000000 H
   0.3236050000000000    0.4062250000000000    0.4378000000000000 H
   0.3900750000000000    0.3587350000000000    0.5159000000000000 H
   0.2232000000000000    0.4840650000000000    0.4162000000000000 H
   0.1632950000000000    0.4953000000000000    0.4681500000000000 H
   0.1660750000000000    0.4375650000000000    0.3885900000000000 H
   0.2318550000000000    0.3821450000000000    0.4098800000000000 H
   0.1143000000000000    0.4223650000000000    0.4834400000000000 H
   0.1800200000000000    0.3680900000000000    0.5066400000000000 H
   0.0527650000000000    0.3930200000000000    0.4365500000000000 H
   0.0402800000000000    0.3149850000000000    0.3921400000000000 H
   0.2149600000000000    0.2075700000000000    0.3900000000000000 H
   0.2347950000000000    0.2792200000000000    0.4423400000000000 H
   0.2657100000000000    0.4066050000000000    0.5950700000000000 C
   0.2260200000000000    0.4346250000000000    0.5545099999999999 C
   0.2455250000000000    0.4349850000000000    0.4964600000000000 C
   0.3057300000000000    0.4071300000000000    0.4823000000000000 C
   0.3429450000000000    0.3805300000000000    0.5251200000000000 C
   0.2041550000000000    0.4618250000000000    0.4509100000000000 C
   0.1907250000000000    0.4162900000000000    0.4257800000000000 C
   0.1561000000000000    0.3883150000000000    0.4687100000000000 C
   0.1451000000000000    0.3428850000000000    0.4435300000000000 C
   0.0900950000000000    0.3523900000000000    0.4284800000000000 C
   0.0826100000000000    0.3093850000000000    0.4038500000000000 C
   0.1798400000000000    0.2488800000000000    0.4071400000000000 C
   0.1906550000000000    0.2893550000000000    0.4323200000000000 C
   0.3234400000000000    0.3797800000000000    0.5808400000000000 N
   0.1267050000000000    0.2580800000000000    0.3931000000000000 N
