Y8 H30 C63 O48
1.0
   8.7538094396884514    0.0000000000000000   -0.0031320474683521
  -0.0007237043592230    9.0103899309183966   -0.0008492092496402
   0.0000000000000000    0.0000000000000000   29.7979999999999983
Y H C O
8 30 63 48
direct
   0.5006900000000000    0.0004300000000000    0.6465150000000000 Y
   0.0006000000000000    0.0003900000000000    0.4932350000000000 Y
   0.4990800000000000    0.5003900000000000    0.2432300000000000 Y
   0.9992000000000000    0.5004600000000000    0.3965200000000000 Y
   0.0006000000000000    0.0003900000000000    0.9932350000000000 Y
   0.5006900000000000    0.0004300000000000    0.1465150000000000 Y
   0.4990800000000000    0.5003900000000000    0.7432300000000001 Y
   0.9992000000000000    0.5004600000000000    0.8965200000000000 Y
   0.3129710794057524    0.1711634306649080    0.6197988467726815 H
   0.2920000550772029    0.5100420416383077    0.6879491596077961 H
   0.2700844762887675    0.3575558547821310    0.6476176752587821 H
   0.1526393212854611    0.3144003442487373    0.5028183095063227 H
   1.1755519582013443    0.3171258503060358    0.4524560531575391 H
   0.8183000000000000    0.3516300000000000    0.5003200000000000 H
   0.6823600000000000    0.3512100000000000    0.6394550000000000 H
   0.7500400000000000    0.7649400000000000    0.5700000000000001 H
   0.6814600000000000    0.8516500000000000    0.2503250000000000 H
   0.7497400000000000    0.2650100000000000    0.3199950000000000 H
   0.8169999999999999    0.8513200000000000    0.3895200000000000 H
   0.3173900000000000    0.1496100000000000    0.2502850000000000 H
   0.1814400000000000    0.1492000000000000    0.3894200000000000 H
   0.2497100000000000    0.7358600000000000    0.3197550000000000 H
   0.2392848963538535   -0.0870521479306766    0.5659806790811626 H
   0.2766733554790936   -0.0895854202048011    0.6250092651968935 H
   0.2298761769047606   -0.1407014257784636    0.4917090272804420 H
   0.1825300000000000    0.6495300000000001    0.0002450000000000 H
   0.3181200000000000    0.6491000000000000    0.1394350000000000 H
   0.2499300000000000    0.2357800000000000    0.0697450000000000 H
   0.8183000000000000    0.3516300000000000    0.0003200000000000 H
   0.6823600000000000    0.3512100000000000    0.1394550000000000 H
   0.7500400000000000    0.7649400000000000    0.0700000000000000 H
   0.6814600000000000    0.8516500000000000    0.7503250000000000 H
   0.7506836761852987   -0.0344284529120261    0.7319675468328731 H
   0.7497400000000000    0.2650100000000000    0.8199950000000000 H
   0.8169999999999999    0.8513200000000000    0.8895200000000000 H
   0.3173900000000000    0.1496100000000000    0.7502850000000000 H
   0.1814400000000000    0.1492000000000000    0.8894200000000000 H
   0.2497100000000000    0.7358600000000000    0.8197550000000000 H
   0.7507200000000001    0.1667200000000000    0.5698950000000000 C
   0.6607800000000000    0.6503000000000000    0.6499150000000000 C
   0.8391700000000000    0.6510800000000000    0.4900600000000000 C
   0.7892600000000000    0.4114600000000000    0.5309100000000000 C
   0.7112400000000000    0.4112100000000000    0.6088900000000000 C
   0.7500400000000000    0.6441100000000000    0.5699700000000000 C
   0.7100500000000000    0.5666500000000000    0.6089350000000000 C
   0.7902000000000000    0.5669200000000000    0.5309600000000000 C
   0.7504500000000000    0.3331500000000000    0.5698900000000000 C
   0.7488800000000000    0.6667900000000000    0.3199450000000000 C
   0.6606900000000000    0.1511200000000000    0.2400250000000000 C
   0.8388000000000000    0.1503700000000000    0.3999550000000000 C
   0.7103800000000000    0.9114900000000000    0.2809250000000000 C
   0.7495900000000000    0.1441800000000000    0.3199800000000000 C
   0.7973900000000000    0.9204900000000000    0.3589400000000000 C
   0.7895400000000000    0.0667400000000000    0.3589650000000000 C
   0.7095600000000000    0.0669500000000000    0.2809550000000000 C
   0.7491800000000000    0.8332200000000000    0.3199250000000000 C
   0.2490900000000000    0.3341500000000000    0.3198500000000000 C
   0.3390600000000000    0.8505700000000000    0.2398350000000000 C
   0.1606800000000000    0.8498000000000000    0.3997100000000000 C
   0.2884800000000000    0.0896300000000000    0.2808500000000000 C
   0.2104400000000000    0.0893900000000000    0.3588250000000000 C
   0.2496600000000000    0.8566900000000000    0.3197750000000000 C
   0.2896800000000000    0.9341600000000000    0.2808100000000000 C
   0.2095300000000000    0.9339300000000000    0.3587850000000000 C
   0.2493000000000000    0.1677100000000000    0.3198450000000000 C
   0.2506700000000000    0.8340500000000000    0.0698500000000000 C
   0.3390300000000000    0.3497300000000000    0.1497150000000000 C
   0.1608900000000000    0.3504700000000000    0.9898000000000000 C
   0.2113400000000000    0.5895400000000000    0.0308250000000000 C
   0.2891700000000000    0.5893000000000000    0.1088300000000000 C
   0.2500200000000000    0.3566100000000000    0.0697650000000000 C
   0.2100600000000000    0.4340800000000000    0.0307900000000000 C
   0.2900500000000000    0.4338400000000000    0.1087900000000000 C
   0.2503500000000000    0.6676200000000000    0.0698400000000000 C
   0.7507200000000001    0.1667200000000000    0.0698950000000000 C
   0.6607800000000000    0.6503000000000000    0.1499150000000000 C
   0.8391700000000000    0.6510800000000000    0.9900599999999999 C
   0.7892600000000000    0.4114600000000000    0.0309100000000000 C
   0.7112400000000000    0.4112100000000000    0.1088900000000000 C
   0.7500400000000000    0.6441100000000000    0.0699700000000000 C
   0.7100500000000000    0.5666500000000000    0.1089350000000000 C
   0.7902000000000000    0.5669200000000000    0.0309600000000000 C
   0.7504500000000000    0.3331500000000000    0.0698900000000000 C
   0.7488800000000000    0.6667900000000000    0.8199449999999999 C
   0.6606900000000000    0.1511200000000000    0.7400249999999999 C
   0.8388000000000000    0.1503700000000000    0.8999550000000001 C
   0.7103800000000000    0.9114900000000000    0.7809250000000000 C
   0.7495900000000000    0.1441800000000000    0.8199799999999999 C
   0.7973900000000000    0.9204900000000000    0.8589400000000000 C
   0.7895400000000000    0.0667400000000000    0.8589650000000000 C
   0.7095600000000000    0.0669500000000000    0.7809550000000001 C
   0.7491800000000000    0.8332200000000000    0.8199250000000000 C
   0.2490900000000000    0.3341500000000000    0.8198500000000000 C
   0.3390600000000000    0.8505700000000000    0.7398350000000000 C
   0.1606800000000000    0.8498000000000000    0.8997100000000000 C
   0.2884800000000000    0.0896300000000000    0.7808500000000000 C
   0.2104400000000000    0.0893900000000000    0.8588249999999999 C
   0.2496600000000000    0.8566900000000000    0.8197749999999999 C
   0.2896800000000000    0.9341600000000000    0.7808100000000000 C
   0.2095300000000000    0.9339300000000000    0.8587850000000000 C
   0.2493000000000000    0.1677100000000000    0.8198449999999999 C
   0.3668900000000000    0.2120300000000000    0.6454200000000000 O
   0.3520900000000000    0.4197100000000000    0.6865850000000000 O
   0.1334200000000000    0.2126100000000000    0.4938450000000000 O
   1.1471499999999999    0.4211600000000000    0.4530850000000000 O
   0.8366900000000000    0.0995700000000000    0.5421650000000000 O
   0.6650500000000000    0.0993400000000000    0.5976700000000000 O
   0.6334700000000000    0.7881800000000000    0.6458600000000000 O
   0.6469300000000000    0.5796000000000000    0.6866200000000000 O
   0.8669000000000000    0.7888100000000000    0.4943700000000000 O
   0.8524500000000000    0.5811700000000000    0.4531900000000000 O
   0.6631000000000000    0.5995500000000000    0.2921600000000000 O
   0.8345100000000000    0.5994900000000000    0.3477600000000000 O
   0.6328500000000000    0.2888200000000000    0.2443300000000000 O
   0.6476600000000000    0.0812400000000000    0.2031400000000000 O
   0.8663500000000000    0.2882200000000000    0.3958800000000000 O
   0.8525100000000000    0.0797100000000000    0.4366750000000000 O
   0.1633200000000000    0.4013500000000000    0.3476300000000000 O
   0.3345900000000000    0.4015200000000000    0.2920300000000000 O
   0.3663400000000000    0.7126500000000000    0.2438700000000000 O
   0.3529600000000000    0.9213000000000000    0.2031400000000000 O
   0.1328900000000000    0.7120800000000000    0.3954150000000000 O
   0.1475000000000000    0.9198100000000000    0.4365700000000000 O
   0.1652600000000000   -0.0985500000000000    0.5420000000000000 O
   0.3362500000000000   -0.0988000000000000    0.5977100000000000 O
   0.3362500000000000    0.9012000000000000    0.0977100000000000 O
   0.1652600000000000    0.9014500000000000    0.0420000000000000 O
   0.3668900000000000    0.2120300000000000    0.1454200000000000 O
   0.3520900000000000    0.4197100000000000    0.1865850000000000 O
   0.1334200000000000    0.2126100000000000    0.9938450000000000 O
   0.1471500000000000    0.4211600000000000    0.9530850000000000 O
   0.8366900000000000    0.0995700000000000    0.0421650000000000 O
   0.6650500000000000    0.0993400000000000    0.0976700000000000 O
   0.6334700000000000    0.7881800000000000    0.1458600000000000 O
   0.6469300000000000    0.5796000000000000    0.1866200000000000 O
   0.8669000000000000    0.7888100000000000    0.9943700000000000 O
   0.8524500000000000    0.5811700000000000    0.9531900000000000 O
   0.6631000000000000    0.5995500000000000    0.7921600000000000 O
   0.8345100000000000    0.5994900000000000    0.8477600000000001 O
   0.6328500000000000    0.2888200000000000    0.7443299999999999 O
   0.6476600000000000    0.0812400000000000    0.7031400000000000 O
   0.8663500000000000    0.2882200000000000    0.8958800000000000 O
   0.8525100000000000    0.0797100000000000    0.9366749999999999 O
   0.1633200000000000    0.4013500000000000    0.8476300000000000 O
   0.3345900000000000    0.4015200000000000    0.7920300000000000 O
   0.3663400000000000    0.7126500000000000    0.7438700000000000 O
   0.3529600000000000    0.9213000000000000    0.7031400000000000 O
   0.1328900000000000    0.7120800000000000    0.8954150000000001 O
   0.1475000000000000    0.9198100000000000    0.9365700000000000 O
