H4 C8 N8
1.0
   9.7940847777271944    0.0000000000000000    0.1936991654407306
   1.5364824020495509   10.4803390005931583    4.7459630488277105
   0.0000000000000000    0.0000000000000000   13.7899999999999991
H C N
4 8 8
direct
   0.3019500000000000    0.4617700000000000    0.9122500000000000 H
   0.6267500000000000    0.6811600000000000    0.8996400000000000 H
   0.6979200000000000    0.5382900000000000    0.0877500000000000 H
   0.3731100000000000    0.3189100000000000    0.1003600000000000 H
   0.4208800000000000    0.6668500000000001    0.7829100000000000 C
   0.4600200000000000    0.5807600000000001    0.8934400000000000 C
   0.3883500000000000    0.4785400000000000    0.9509000000000000 C
   0.5719100000000000    0.6012600000000000    0.9439800000000000 C
   0.5789900000000000    0.3332100000000000    0.2170900000000000 C
   0.5398500000000001    0.4193000000000000    0.1065600000000000 C
   0.6115200000000000    0.5215200000000000    0.0491000000000000 C
   0.4279600000000000    0.3988000000000000    0.0560200000000000 C
   0.5003100000000000    0.7547800000000000    0.7228800000000000 N
   0.4319900000000000    0.8165100000000000    0.6302400000000000 N
   0.3141600000000000    0.7679600000000000    0.6329200000000000 N
   0.3044300000000000    0.6729400000000000    0.7284300000000000 N
   0.4995700000000000    0.2452800000000000    0.2771200000000000 N
   0.5678900000000000    0.1835500000000000    0.3697600000000000 N
   0.6857100000000000    0.2321100000000000    0.3670800000000000 N
   0.6954300000000000    0.3271300000000000    0.2715800000000000 N
