Cd3 H8 C16 N16
1.0
   9.7940847777271944    0.0000000000000000    0.1936991654407306
   1.5364824020495509   10.4803390005931583    4.7459630488277105
   0.0000000000000000    0.0000000000000000   13.7899999999999991
Cd H C N
3 8 16 16
direct
   0.8306700000000000    0.1314100000000000    0.5096700000000000 Cd
   0.4999400000000000    0.0000200000000000    0.4999900000000000 Cd
   0.1692300000000000    0.8686199999999999    0.4903100000000000 Cd
   0.6310900000000000    0.0640400000000000    0.1175000000000000 H
   0.2932800000000000    0.8922300000000000    0.0662500000000000 H
   0.1312000000000000    0.5931000000000000    0.5961900000000000 H
   0.7717200000000000    0.6116300000000000    0.4108000000000000 H
   0.3686500000000000    0.9361400000000000    0.8824400000000000 H
   0.7064800000000000    0.1079600000000000    0.9336900000000000 H
   0.8686900000000000    0.4069600000000000    0.4037500000000000 H
   0.2281700000000000    0.3884300000000000    0.5891400000000000 H
   0.4167200000000000    0.9509500000000000    0.2122500000000000 C
   0.4577000000000000    0.9750100000000000    0.1039300000000000 C
   0.5744800000000000    0.0357100000000000    0.0656700000000000 C
   0.3833600000000000    0.9398000000000000    0.0369000000000000 C
   0.8837100000000000    0.7392100000000000    0.5027199999999999 C
   0.9456500000000000    0.6177800000000000    0.5013700000000000 C
   0.0747000000000000    0.5546500000000000    0.5515700000000000 C
   0.8712400000000000    0.5618300000000001    0.4502300000000000 C
   0.5832000000000001    0.0490200000000000    0.7877500000000000 C
   0.5422000000000000    0.0249800000000000    0.8960600000000000 C
   0.4253300000000000    0.9643900000000000    0.9343000000000000 C
   0.6164700000000000    0.0602800000000000    0.9630600000000000 C
   0.1161800000000000    0.2608400000000000    0.4972300000000000 C
   0.0542400000000000    0.3822700000000000    0.4985700000000000 C
   0.9251900000000000    0.4454100000000000    0.4483700000000000 C
   0.1286500000000000    0.4382300000000000    0.5497000000000000 C
   0.2953200000000000    0.9158800000000000    0.2546700000000000 N
   0.3059400000000000    0.9100800000000000    0.3532900000000000 N
   0.4293000000000000    0.9398400000000000    0.3695100000000000 N
   0.5001000000000000    0.9655200000000000    0.2825100000000000 N
   0.7464800000000000    0.7726499999999999    0.5027100000000000 N
   0.7301299999999999    0.8876200000000000    0.5043500000000000 N
   0.8510400000000000    0.9261100000000000    0.5048899999999999 N
   0.9508500000000000    0.8333600000000000    0.5037600000000000 N
   0.7045900000000000    0.0841300000000000    0.7453200000000000 N
   0.6939600000000000    0.0899300000000000    0.6467000000000001 N
   0.5706100000000000    0.0601600000000000    0.6304800000000000 N
   0.4998100000000000    0.0344700000000000    0.7174900000000000 N
   0.2534100000000000    0.2274000000000000    0.4972400000000000 N
   0.2697600000000000    0.1124200000000000    0.4956200000000000 N
   0.1488500000000000    0.0739200000000000    0.4950800000000000 N
   0.0490400000000000    0.1666800000000000    0.4962000000000000 N
