H2 C6 S1 O4
1.0
  31.2062080608295673    0.0000000000000000   -0.3344285636955872
  -0.0857760617737481   37.7950330316851364    0.9863998180536401
   0.0000000000000000    0.0000000000000000   39.7060000000000031
H C S O
2 6 1 4
direct
   0.8063850000000000    0.4228550000000000    0.7443800000000000 H
   0.7561500000000000    0.3657300000000000    0.7400599999999999 H
   0.8131999999999999    0.3341600000000000    0.7505800000000000 C
   0.8970050000000001    0.4111700000000000    0.7570399999999999 C
   0.8169850000000001    0.3955800000000000    0.7476450000000000 C
   0.7905000000000000    0.3654400000000000    0.7452850000000000 C
   0.8595250000000000    0.3871300000000000    0.7543599999999999 C
   0.7964150000000000    0.2977750000000000    0.7489350000000000 C
   0.8670300000000000    0.3419950000000000    0.7583000000000000 S
   0.7588750000000000    0.2933000000000000    0.7373900000000000 O
   0.8221300000000000    0.2726550000000000    0.7580400000000000 O
   0.9338500000000001    0.3981400000000000    0.7613750000000000 O
   0.8890300000000000    0.4446250000000000    0.7542150000000001 O
