H6 O4
1.0
  34.6039999999999992    0.0000000000000000    0.0000000000000021
  -0.0002678207737052   15.3449999976628231    0.0000000000000009
   0.0000000000000000    0.0000000000000000   34.8419999999999987
H O
6 4
direct
   0.4261096439311446    0.7261231966673769    0.7694719716762651 H
   0.3368699494427853    0.8873235300600247    0.7362608434085998 H
   0.3820363736391703    0.8081433562780457    0.7519580098171822 H
   0.4144798917594483    0.1212136523336287    0.6687439519597353 H
   0.5259672073470213    0.0523284847976927    0.6938076402231309 H
   0.4718155885569855    0.0807708330525614    0.6812566075660470 H
   0.4018300000000000    0.7569600000000000    0.7664500000000001 O
   0.3534500000000000    0.8444500000000000    0.7484000000000000 O
   0.4413100000000000    0.1267100000000000    0.6764350000000000 O
   0.5028575000000000    0.0871300000000000    0.6901550000000000 O
