H2 C5 N2 O4
1.0
  34.6039999999999992    0.0000000000000000    0.0000000000000021
  -0.0002678207737052   15.3449999976628231    0.0000000000000009
   0.0000000000000000    0.0000000000000000   34.8419999999999987
H C N O
2 5 2 4
direct
   0.3879850000000000    0.9927700000000000    0.7007400000000000 H
   0.5048575000000000    0.9319700000000000    0.7231750000000000 H
   0.3887550000000000    0.8253900000000000    0.7485350000000000 C
   0.4180550000000000    0.8828600000000000    0.7308800000000000 C
   0.4142475000000000    0.9606900000000000    0.7099600000000000 C
   0.4518550000000000    0.9900300000000000    0.7044350000000000 C
   0.4665625000000000    0.0736900000000000    0.6886300000000000 C
   0.4753950000000000    0.9301500000000000    0.7218249999999999 N
   0.4557025000000000    0.8647400000000000    0.7381949999999999 N
   0.3534500000000000    0.8444500000000000    0.7484000000000000 O
   0.4018300000000000    0.7569600000000000    0.7664500000000001 O
   0.4413100000000000    0.1267100000000000    0.6764350000000000 O
   0.5028575000000000    0.0871300000000000    0.6901550000000000 O
