Zn8 H21 C63 N84
1.0
  13.8279999978938744    0.0000000000000000   -0.0002413441289551
   0.0117361004575043   15.6379948244051121   -0.0049128225108712
   0.0000000000000000    0.0000000000000000   31.2820000000000000
Zn H C N
8 21 63 84
direct
   0.1385200000000000    0.5000300000000000    0.2499450000000000 Zn
   0.8614600000000000    0.4999900000000000    0.2500350000000000 Zn
   0.3615600000000000    0.9999800000000000    0.4999500000000000 Zn
   0.6384000000000000    0.0000200000000000    0.0500000000000000 Zn
   0.1385200000000000    0.5000300000000000    0.7499450000000000 Zn
   0.8614600000000000    0.4999900000000000    0.7500350000000000 Zn
   0.3615600000000000    0.9999800000000000    0.9999500000000000 Zn
   0.6384000000000000    0.0000200000000000    0.5500000000000000 Zn
   0.4999700000000000    0.4068100000000000    0.2965850000000000 H
   0.5000100000000000    0.5931900000000000    0.2033900000000000 H
   0.0000000000000000    0.9069000000000000    0.4534250000000000 H
   0.0000200000000000    0.0931100000000000    0.0465600000000000 H
   0.3440600000000000    0.2372600000000000    0.3814000000000000 H
   0.3439700000000000    0.7628900000000000    0.1185900000000000 H
   0.8440500000000000    0.7372900000000000    0.3685850000000000 H
   0.8439500000000000    0.2628600000000000    0.1313900000000000 H
   0.1559300000000000    0.2627300000000000    0.1313950000000000 H
   0.1560300000000000    0.7371500000000000    0.3686000000000000 H
   0.6559199999999999    0.7627500000000000    0.1185800000000000 H
   0.6560100000000000    0.2371200000000000    0.3813900000000000 H
   0.4999700000000000    0.4068100000000000    0.7965850000000000 H
   0.5000100000000000    0.5931900000000000    0.7033900000000000 H
   0.0000200000000000    0.0931100000000000    0.5465600000000000 H
   0.3440600000000000    0.2372600000000000    0.8814000000000000 H
   0.3439700000000000    0.7628900000000000    0.6185900000000000 H
   0.8439500000000000    0.2628600000000000    0.6313900000000000 H
   0.1559300000000000    0.2627300000000000    0.6313950000000000 H
   0.6559199999999999    0.7627500000000000    0.6185800000000000 H
   0.6560100000000000    0.2371200000000000    0.8813900000000000 H
   0.5000300000000000    0.1629100000000000    0.4185300000000000 C
   0.5000400000000000    0.2289900000000000    0.3854900000000000 C
   0.4999900000000000    0.3576100000000000    0.3211800000000000 C
   0.4999500000000000    0.8371000000000000    0.0814450000000000 C
   0.4999400000000000    0.7710200000000000    0.1144850000000000 C
   0.4999900000000000    0.6423900000000000    0.1787950000000000 C
   0.0000500000000000    0.6629200000000000    0.3314450000000000 C
   0.0000500000000000    0.7290200000000000    0.3644900000000000 C
   0.0000200000000000    0.8576900000000000    0.4288200000000000 C
   0.9999600000000000    0.3370900000000000    0.1685400000000000 C
   0.9999600000000000    0.2709900000000000    0.1354900000000000 C
   0.0000000000000000    0.1423300000000000    0.0711650000000000 C
   0.4129200000000000    0.2611200000000000    0.3694400000000000 C
   0.4126500000000000    0.3257200000000000    0.3371000000000000 C
   0.3207300000000000    0.3561200000000000    0.3219250000000000 C
   0.4128500000000000    0.7389500000000000    0.1305350000000000 C
   0.4126200000000000    0.6743100000000000    0.1628350000000000 C
   0.3207200000000000    0.6439400000000000    0.1780250000000000 C
   0.9129100000000000    0.7611599999999999    0.3805400000000000 C
   0.9126500000000000    0.8257800000000000    0.4128650000000000 C
   0.8207100000000001    0.8561700000000000    0.4280550000000000 C
   0.9128300000000000    0.2389200000000000    0.1194400000000000 C
   0.9126000000000000    0.1742600000000000    0.0871300000000000 C
   0.8206900000000000    0.1439000000000000    0.0719500000000000 C
   0.0870600000000000    0.2388500000000000    0.1194400000000000 C
   0.0873300000000000    0.1742400000000000    0.0871150000000000 C
   0.1792700000000000    0.1438500000000000    0.0719250000000000 C
   0.0871500000000000    0.7610900000000000    0.3805450000000000 C
   0.0873800000000000    0.8257500000000000    0.4128550000000000 C
   0.1792900000000000    0.8561100000000000    0.4280350000000000 C
   0.5870600000000000    0.7388800000000000    0.1305350000000000 C
   0.5873300000000000    0.6742899999999999    0.1628500000000000 C
   0.6792500000000000    0.6438800000000000    0.1780500000000000 C
   0.5871300000000000    0.2610500000000000    0.3694400000000000 C
   0.5873600000000000    0.3257000000000000    0.3371400000000000 C
   0.6792600000000000    0.3560700000000000    0.3219500000000000 C
   0.5000300000000000    0.1629100000000000    0.9185300000000001 C
   0.5000400000000000    0.2289900000000000    0.8854900000000000 C
   0.4999900000000000    0.3576100000000000    0.8211800000000000 C
   0.4999500000000000    0.8371000000000000    0.5814450000000000 C
   0.4999400000000000    0.7710200000000000    0.6144849999999999 C
   0.4999900000000000    0.6423900000000000    0.6787950000000000 C
   0.9999600000000000    0.3370900000000000    0.6685400000000000 C
   0.9999600000000000    0.2709900000000000    0.6354900000000000 C
   0.0000000000000000    0.1423300000000000    0.5711650000000000 C
   0.4129200000000000    0.2611200000000000    0.8694400000000000 C
   0.4126500000000000    0.3257200000000000    0.8371000000000000 C
   0.3207300000000000    0.3561200000000000    0.8219250000000000 C
   0.4128500000000000    0.7389500000000000    0.6305350000000001 C
   0.4126200000000000    0.6743100000000000    0.6628350000000001 C
   0.3207200000000000    0.6439400000000000    0.6780250000000000 C
   0.9128300000000000    0.2389200000000000    0.6194400000000000 C
   0.9126000000000000    0.1742600000000000    0.5871300000000000 C
   0.8206900000000000    0.1439000000000000    0.5719500000000000 C
   0.0870600000000000    0.2388500000000000    0.6194400000000000 C
   0.0873300000000000    0.1742400000000000    0.5871150000000001 C
   0.1792700000000000    0.1438500000000000    0.5719250000000000 C
   0.5870600000000000    0.7388800000000000    0.6305350000000001 C
   0.5873300000000000    0.6742899999999999    0.6628499999999999 C
   0.6792500000000000    0.6438800000000000    0.6780500000000000 C
   0.5871300000000000    0.2610500000000000    0.8694400000000000 C
   0.5873600000000000    0.3257000000000000    0.8371400000000000 C
   0.6792600000000000    0.3560700000000000    0.8219500000000000 C
   0.5486500000000000    0.0723800000000000    0.4638950000000000 N
   0.5810800000000000    0.1289400000000000    0.4356650000000000 N
   0.2142600000000000    0.4238300000000000    0.2880250000000000 N
   0.3090500000000000    0.4170500000000000    0.2914000000000000 N
   0.2333100000000000    0.3266100000000000    0.3367250000000000 N
   0.1668600000000000    0.3687300000000000    0.3156500000000000 N
   0.5486300000000000    0.9277900000000000    0.0362050000000000 N
   0.5810100000000000    0.8713000000000000    0.0645000000000000 N
   0.2143100000000000    0.5761600000000000    0.2118700000000000 N
   0.3090900000000000    0.5828700000000000    0.2084800000000000 N
   0.2332800000000000    0.6735600000000000    0.1632500000000000 N
   0.1668600000000000    0.6314300000000000    0.1843000000000000 N
   0.0486600000000000    0.5723700000000000    0.2860500000000000 N
   0.0810900000000000    0.6289500000000000    0.3143050000000000 N
   0.7141700000000000    0.9238499999999999    0.4619500000000000 N
   0.8089700000000000    0.9170900000000000    0.4585950000000000 N
   0.7333200000000000    0.8266000000000000    0.4132350000000000 N
   0.6668200000000000    0.8687000000000000    0.4343050000000000 N
   0.0486400000000000    0.4278000000000000    0.2137950000000000 N
   0.0810300000000000    0.3713000000000000    0.1854850000000000 N
   0.7141999999999999    0.0761500000000000    0.0381200000000000 N
   0.8090000000000001    0.0828300000000000    0.0414850000000000 N
   0.7332700000000000    0.1735600000000000    0.0867500000000000 N
   0.6668100000000000    0.1314400000000000    0.0657100000000000 N
   0.9513200000000001    0.4276500000000000    0.2139150000000000 N
   0.9188900000000000    0.3710600000000000    0.1856800000000000 N
   0.2858100000000000    0.0761700000000000    0.0380000000000000 N
   0.1910100000000000    0.0829300000000000    0.0413850000000000 N
   0.2666600000000000    0.1734200000000000    0.0867400000000000 N
   0.3331600000000000    0.1313200000000000    0.0656700000000000 N
   0.9513300000000000    0.5722100000000000    0.2861850000000000 N
   0.9189500000000000    0.6287100000000000    0.3144950000000000 N
   0.2857800000000000    0.9238600000000000    0.4618600000000000 N
   0.1909800000000000    0.9171800000000000    0.4584950000000000 N
   0.2667100000000000    0.8264500000000000    0.4132400000000000 N
   0.3331700000000000    0.8685600000000000    0.4342800000000000 N
   0.4513300000000000    0.9276400000000000    0.0360500000000000 N
   0.4189000000000000    0.8710700000000000    0.0643150000000000 N
   0.7857200000000000    0.5761700000000000    0.2119550000000000 N
   0.6909300000000000    0.5829700000000000    0.2085850000000000 N
   0.7666700000000000    0.6734100000000000    0.1632600000000000 N
   0.8331200000000000    0.6313000000000000    0.1843350000000000 N
   0.4513500000000000    0.0722300000000000    0.4637500000000000 N
   0.4189600000000000    0.1287100000000000    0.4354500000000000 N
   0.7856700000000000    0.4238500000000000    0.2881100000000000 N
   0.6908900000000000    0.4171300000000000    0.2914950000000000 N
   0.7667000000000000    0.3264700000000000    0.3367000000000000 N
   0.8331200000000000    0.3686000000000000    0.3156500000000000 N
   0.5486500000000000    0.0723800000000000    0.9638949999999999 N
   0.5810800000000000    0.1289400000000000    0.9356650000000000 N
   0.2142600000000000    0.4238300000000000    0.7880250000000000 N
   0.3090500000000000    0.4170500000000000    0.7914000000000000 N
   0.2333100000000000    0.3266100000000000    0.8367249999999999 N
   0.1668600000000000    0.3687300000000000    0.8156500000000000 N
   0.5486300000000000    0.9277900000000000    0.5362050000000000 N
   0.5810100000000000    0.8713000000000000    0.5645000000000000 N
   0.2143100000000000    0.5761600000000000    0.7118700000000000 N
   0.3090900000000000    0.5828700000000000    0.7084800000000000 N
   0.2332800000000000    0.6735600000000000    0.6632500000000000 N
   0.1668600000000000    0.6314300000000000    0.6843000000000000 N
   0.0486400000000000    0.4278000000000000    0.7137950000000000 N
   0.0810300000000000    0.3713000000000000    0.6854850000000000 N
   0.7141999999999999    0.0761500000000000    0.5381200000000000 N
   0.8090000000000001    0.0828300000000000    0.5414850000000000 N
   0.7332700000000000    0.1735600000000000    0.5867500000000000 N
   0.6668100000000000    0.1314400000000000    0.5657100000000000 N
   0.9513200000000001    0.4276500000000000    0.7139150000000000 N
   0.9188900000000000    0.3710600000000000    0.6856800000000001 N
   0.2858100000000000    0.0761700000000000    0.5380000000000000 N
   0.1910100000000000    0.0829300000000000    0.5413850000000000 N
   0.2666600000000000    0.1734200000000000    0.5867400000000000 N
   0.3331600000000000    0.1313200000000000    0.5656700000000000 N
   0.4513300000000000    0.9276400000000000    0.5360500000000000 N
   0.4189000000000000    0.8710700000000000    0.5643150000000000 N
   0.7857200000000000    0.5761700000000000    0.7119550000000000 N
   0.6909300000000000    0.5829700000000000    0.7085850000000000 N
   0.7666700000000000    0.6734100000000000    0.6632600000000000 N
   0.8331200000000000    0.6313000000000000    0.6843350000000000 N
   0.4513500000000000    0.0722300000000000    0.9637500000000000 N
   0.4189600000000000    0.1287100000000000    0.9354500000000000 N
   0.7856700000000000    0.4238500000000000    0.7881100000000000 N
   0.6908900000000000    0.4171300000000000    0.7914950000000001 N
   0.7667000000000000    0.3264700000000000    0.8367000000000000 N
   0.8331200000000000    0.3686000000000000    0.8156500000000000 N
