H3 C8 O4
1.0
  23.7258905182764543    0.0000000000000000  -10.0534542876943220
  -2.3645791520506134   11.8437109564103551   -5.2895653143422798
   0.0000000000000000    0.0000000000000000   32.5039999999999978
H C O
3 8 4
direct
   0.9323650000000000    0.0900600000000000    0.0797400000000000 H
   0.8280900000000000    0.7564400000000000    0.0002400000000000 H
   0.9130499999999999    0.0945600000000000    0.9991600000000000 H
   0.8812200000000000    0.9231200000000001    0.0450450000000000 C
   0.9051000000000000    0.0185500000000000    0.0445600000000000 C
   0.8929700000000000    0.9165400000000000    0.0926000000000000 C
   0.8464400000000001    0.8307000000000000    0.0000150000000000 C
   0.8357250000000001    0.8323400000000000    0.9546650000000000 C
   0.8598250000000001    0.9280600000000000    0.9545450000000000 C
   0.7996750000000000    0.7306800000000000    0.9074200000000000 C
   0.8942650000000000    0.0207100000000000    0.9994050000000000 C
   0.8714550000000000    0.8278500000000000    0.0911650000000000 O
   0.9255000000000000    0.0026800000000000    0.1337150000000000 O
   0.7794900000000000    0.6456900000000000    0.9093249999999999 O
   0.7910650000000000    0.7339800000000000    0.8660850000000000 O
