H4 C8 O4
1.0
  23.7258905182764543    0.0000000000000000  -10.0534542876943220
  -2.3645791520506134   11.8437109564103551   -5.2895653143422798
   0.0000000000000000    0.0000000000000000   32.5039999999999978
H C O
4 8 4
direct
   0.6483800000000000    0.0713600000000000    0.0808250000000000 H
   0.5868850000000000    0.9054700000000000    0.0008050000000000 H
   0.5675700000000000    0.9099000000000000    0.9202049999999999 H
   0.6718700000000000    0.2435000000000000    0.9996849999999999 H
   0.6642450000000000    0.1676400000000000    0.0452650000000000 C
   0.6401300000000000    0.0719400000000000    0.0454000000000000 C
   0.7003050000000000    0.2693000000000000    0.0925050000000000 C
   0.6056750000000000    0.9792900000000000    0.0005550000000000 C
   0.6187350000000000    0.0768200000000000    0.9548850000000000 C
   0.5948450000000000    0.9814200000000000    0.9553800000000000 C
   0.6069850000000000    0.0833700000000000    0.9073249999999999 C
   0.6535150000000001    0.1692500000000000    0.9999250000000000 C
   0.7205000000000000    0.3542600000000000    0.0905850000000000 O
   0.7089250000000000    0.2660100000000000    0.1338450000000000 O
   0.6285050000000000    0.1720400000000000    0.9087450000000000 O
   0.5744500000000000    0.9972200000000000    0.8662099999999999 O
