H3 C8 N1 O6
1.0
  15.1349999792532692    0.0000000000000000   -0.0007924667465063
  -0.0265506405016959   28.7039776477945274    0.0240470039947880
   0.0000000000000000    0.0000000000000000   21.1060000000000016
H C N O
3 8 1 6
direct
   0.2508000000000000    0.6684950000000001    0.9073300000000000 H
   0.2501500000000000    0.5326900000000000    0.8198900000000000 H
   0.2496000000000000    0.5701650000000000    0.7139500000000000 H
   0.2499000000000000    0.6400250000000001    0.7495100000000000 C
   0.2502700000000000    0.6669100000000000    0.8049900000000000 C
   0.2505300000000000    0.6469800000000000    0.8648900000000000 C
   0.2504100000000000    0.5982850000000000    0.8708300000000000 C
   0.2501400000000000    0.5705350000000000    0.8161800000000000 C
   0.2498600000000000    0.5914350000000000    0.7565700000000000 C
   0.2498800000000000    0.6605650000000001    0.6839800000000000 C
   0.2504400000000000    0.5775900000000000    0.9360100000000000 C
   0.2501100000000000    0.7185000000000000    0.8031500000000000 N
   0.3229400000000000    0.7381700000000000    0.8056400000000000 O
   0.1771200000000000    0.7380100000000001    0.8028999999999999 O
   0.2519500000000000    0.7049850000000000    0.6780000000000000 O
   0.2480400000000000    0.6330750000000001    0.6369899999999999 O
   0.2516300000000000    0.5333200000000000    0.9438000000000000 O
   0.2492800000000000    0.6053550000000000   -0.0169100000000000 O
