H6 O4
1.0
  15.1349999792532692    0.0000000000000000   -0.0007924667465063
  -0.0265506405016959   28.7039776477945274    0.0240470039947880
   0.0000000000000000    0.0000000000000000   21.1060000000000016
H O
6 4
direct
   0.2534170680314772    0.7275294533684085    0.7121954699225642 H
   0.2464419950497613    0.5993153812929451    0.6387550802234980 H
   0.2498967281496837    0.6616073654324393    0.6802679463764598 H
   0.2521609096576358    0.5671059507553943    0.9428699260371143 H
   0.2501245842122227    0.6591025259538668   -0.0183895846599412 H
   0.2488851606879033    0.6383451455960829   -0.0069931129152676 H
   0.2519500000000000    0.7049850000000000    0.6780000000000000 O
   0.2480400000000000    0.6330750000000001    0.6369899999999999 O
   0.2516300000000000    0.5333200000000000    0.9438000000000000 O
   0.2492800000000000    0.6053550000000000   -0.0169100000000000 O
