H4 O2
1.0
  38.7299997876390165    0.0000000000000000    0.0040557961083720
  -0.0398039049556458   36.1999781111807835   -0.0006318091891940
   0.0000000000000000    0.0000000000000000   26.5229999999999997
H O
4 2
direct
   0.3491462712611653    0.7658342424547108    0.3844328941945486 H
   0.3175156713151113    0.7341540763578367    0.3844378121747950 H
   0.3491489038679922    0.7658385407104852    0.6155706944158955 H
   0.3175183040488250    0.7341583745800186    0.6155785987977238 H
   0.3333300000000000    0.7499950000000000    0.3654200000000000 O
   0.3333333333333333    0.7500000000000000    0.6345900000000000 O
