C7 O2 F4
1.0
  38.7299997876390165    0.0000000000000000    0.0040557961083720
  -0.0398039049556458   36.1999781111807835   -0.0006318091891940
   0.0000000000000000    0.0000000000000000   26.5229999999999997
C O F
7 2 4
direct
   0.5421933333333333    0.3764850000000000    0.7052000000000000 C
   0.5431066666666666    0.4148000000000000    0.7051600000000000 C
   0.5409966666666667    0.3764950000000000    0.7948600000000000 C
   0.5401466666666667    0.4148150000000000    0.7948900000000000 C
   0.5416733333333333    0.3145400000000000    0.7500300000000000 C
   0.5416500000000000    0.3558100000000000    0.7500400000000000 C
   0.5417333333333333    0.4355700000000000    0.7500200000000000 C
   0.5557866666666667    0.2983200000000000    0.7872500000000000 O
   0.5275566666666667    0.2983850000000000    0.7127000000000000 O
   0.5437200000000000    0.3593850000000000    0.6599300000000000 F
   0.5451866666666667    0.4328550000000000    0.6604900000000000 F
   0.5392466666666667    0.3593800000000000    0.8401000000000000 F
   0.5377966666666667    0.4328600000000000    0.8395300000000000 F
