H2 O1
1.0
  38.7299997876390165    0.0000000000000000    0.0040557961083720
  -0.0398039049556458   36.1999781111807835   -0.0006318091891940
   0.0000000000000000    0.0000000000000000   26.5229999999999997
H O
2 1
direct
   0.5417535516239886    0.9454630837690439    0.2500053624387540 H
   0.5466784847568835    0.9462009605073678    0.2459982385292616 H
   0.5418633333333334    0.9724950000000000    0.2500200000000000 O
