C6 O1 F4
1.0
  38.7299997876390165    0.0000000000000000    0.0040557961083720
  -0.0398039049556458   36.1999781111807835   -0.0006318091891940
   0.0000000000000000    0.0000000000000000   26.5229999999999997
C O F
6 1 4
direct
   0.5417133333333333    0.9355599999999999    0.2500000000000000 C
   0.5409633333333334    0.8764799999999999    0.2051800000000000 C
   0.5401266666666666    0.9148000000000001    0.2051300000000000 C
   0.5421600000000000    0.8764750000000000    0.2948200000000000 C
   0.5430866666666667    0.9147950000000000    0.2948600000000000 C
   0.5415866666666667    0.8557900000000001    0.2000000000000000 C
   0.5418633333333334    0.9724950000000000    0.2500200000000000 O
   0.5392466666666667    0.8593750000000000    0.1599200000000000 F
   0.5377966666666667    0.9328550000000000    0.1604900000000000 F
   0.5437166666666666    0.8593800000000000    0.3400900000000000 F
   0.5451866666666667    0.9328550000000000    0.3395200000000000 F
