H2 C6 S1 O4
1.0
  15.6031040304147837    0.0000000000000000   -0.1672142818477936
  -0.0428880308868740   18.8975165158425682    0.4931999090268200
   0.0000000000000000    0.0000000000000000   19.8530000000000015
H C S O
2 6 1 4
direct
   0.6127700000000000    0.8457100000000000    0.4887600000000000 H
   0.5123000000000000    0.7314600000000000    0.4801200000000000 H
   0.6264000000000000    0.6683200000000000    0.5011600000000000 C
   0.7940100000000000    0.8223400000000000    0.5140800000000000 C
   0.6339700000000000    0.7911600000000000    0.4952900000000000 C
   0.5810000000000000    0.7308800000000000    0.4905700000000000 C
   0.7190500000000000    0.7742599999999999    0.5087200000000000 C
   0.5928300000000000    0.5955500000000000    0.4978700000000000 C
   0.7340600000000000    0.6839900000000000    0.5165999999999999 S
   0.5177500000000000    0.5866000000000000    0.4747800000000000 O
   0.6442600000000001    0.5453100000000000    0.5160800000000000 O
   0.8677000000000000    0.7962800000000000    0.5227500000000000 O
   0.7780600000000000    0.8892500000000000    0.5084300000000000 O
