H12 C24 N4 O4
1.0
  15.6031040304147837    0.0000000000000000   -0.1672142818477936
  -0.0428880308868740   18.8975165158425682    0.4931999090268200
   0.0000000000000000    0.0000000000000000   19.8530000000000015
H C N O
12 24 4 4
direct
   0.9524300000000000    0.8258799999999999    0.7528300000000000 H
   0.9440400000000000    0.8076700000000000    0.2904000000000000 H
   0.9439800000000000    0.8360800000000000    0.6261200000000000 H
   0.8474900000000000    0.0369300000000000    0.7580000000000000 H
   0.8802600000000000    0.0284600000000000    0.2609900000000000 H
   0.1179600000000000    0.8830700000000000    0.0784700000000000 H
   0.8427100000000000    0.0373800000000000    0.6315800000000000 H
   0.9401100000000000    0.8265800000000000    0.4152000000000000 H
   0.1169100000000000    0.8951300000000000    0.9515200000000000 H
   0.6938500000000000    0.9451600000000000    0.0809100000000000 H
   0.6911900000000000    0.9495500000000000    0.9534300000000000 H
   0.8780100000000000    0.0379600000000000    0.3864800000000000 H
   0.9817600000000000    0.9123200000000000    0.9447500000000000 C
   0.9279100000000000    0.8737300000000000    0.7278700000000000 C
   0.9826300000000000    0.9197100000000000    0.8702400000000000 C
   0.9292100000000000    0.8594800000000000    0.3098300000000000 C
   0.9108300000000000    0.9169600000000000    0.2669200000000000 C
   0.9001200000000000    0.9310100000000000    0.7645800000000000 C
   0.9834100000000000    0.9013200000000000    0.0865700000000000 C
   0.9237300000000001    0.8790200000000000    0.6578200000000000 C
   0.8223600000000000    0.9342000000000000    0.8708900000000001 C
   0.8687800000000000    0.9911400000000000    0.7308000000000000 C
   0.8282600000000000    0.9248700000000000    0.0873100000000000 C
   0.9041700000000000    0.9193000000000000    0.9801500000000000 C
   0.9860600000000000    0.8965900000000000    0.1613100000000000 C
   0.8929200000000000    0.9825700000000001    0.2936800000000000 C
   0.0586200000000000    0.8935800000000000    0.0506000000000000 C
   0.8282000000000000    0.9232100000000000    0.1620100000000000 C
   0.8665000000000000    0.9918000000000000    0.6607800000000000 C
   0.9052600000000000    0.9150000000000000    0.0519000000000000 C
   0.9277000000000000    0.8698000000000000    0.3790000000000000 C
   0.8257300000000000    0.9315500000000000    0.9455200000000000 C
   0.0579600000000000    0.8998200000000000    0.9799600000000001 C
   0.7520600000000000    0.9375599999999999    0.0521000000000000 C
   0.7506900000000000    0.9403600000000000    0.9814800000000000 C
   0.8922800000000000    0.9879500000000000    0.3632800000000000 C
   0.9090400000000000    0.9328000000000000    0.4055400000000000 N
   0.9022000000000000    0.9276200000000000    0.8375300000000000 N
   0.8936400000000000    0.9370700000000000    0.6247700000000000 N
   0.9085200000000000    0.9104600000000000    0.1944600000000000 N
   0.0495200000000000    0.9195700000000000    0.8381700000000000 O
   0.0520500000000000    0.8827400000000000    0.1930500000000000 O
   0.7554100000000000    0.9413800000000000    0.8389000000000000 O
   0.7632400000000000    0.9321800000000000    0.1945900000000000 O
