H4 C6 N1 O2
1.0
  39.9142722005033264    0.0000000000000000    0.2410388021198466
   2.1754796871806756   28.7997495700568464    0.1078741520235826
   0.0000000000000000    0.0000000000000000   28.9059999999999988
H C N O
4 6 1 2
direct
   0.9209060000000000    0.1579050000000000    0.1887900000000000 H
   0.8978180000000000    0.2141400000000000    0.1277650000000000 H
   0.8583840000000000    0.1086800000000000    0.0541100000000000 H
   0.8812420000000001    0.0483000000000000    0.1109150000000000 H
   0.9188440000000000    0.0638150000000000    0.1881300000000000 C
   0.9028440000000001    0.0987450000000000    0.1543200000000000 C
   0.9069500000000000    0.1461200000000000    0.1593900000000000 C
   0.8939260000000000    0.1772200000000000    0.1260100000000000 C
   0.8724060000000000    0.1182200000000000    0.0844600000000000 C
   0.8851040000000001    0.0848500000000000    0.1158700000000000 C
   0.8767460000000000    0.1638800000000000    0.0889350000000000 N
   0.9305100000000001    0.0800400000000000    0.2248350000000000 O
   0.9199280000000001    0.0213850000000000    0.1757850000000000 O
