Ag160 H636 C954 N159 O318
1.0
  39.9142722005033264    0.0000000000000000    0.2410388021198466
   2.1754796871806756   28.7997495700568464    0.1078741520235826
   0.0000000000000000    0.0000000000000000   28.9059999999999988
Ag H C N O
160 636 954 159 318
direct
   0.0459240000000000    0.0314550000000000    0.2873100000000000 Ag
   0.1546840000000000    0.2186350000000000    0.0374450000000000 Ag
   0.0514080000000000    0.2165700000000000    0.0346550000000000 Ag
   0.1547240000000000    0.4687850000000000    0.2125100000000000 Ag
   0.0518640000000000    0.4666150000000000    0.2151450000000000 Ag
   0.1481960000000000    0.2833500000000000    0.4649950000000000 Ag
   0.0459700000000000    0.2816600000000000    0.4623900000000000 Ag
   0.1476860000000000    0.0332250000000000    0.2847750000000000 Ag
   0.2459240000000000    0.0314550000000000    0.2873100000000000 Ag
   0.3546840000000000    0.2186350000000000    0.0374450000000000 Ag
   0.2514080000000000    0.2165700000000000    0.0346550000000000 Ag
   0.3547240000000000    0.4687850000000000    0.2125100000000000 Ag
   0.2518640000000000    0.4666150000000000    0.2151450000000000 Ag
   0.3481960000000000    0.2833500000000000    0.4649950000000000 Ag
   0.2459700000000000    0.2816600000000000    0.4623900000000000 Ag
   0.3476860000000001    0.0332250000000000    0.2847750000000000 Ag
   0.4459240000000000    0.0314550000000000    0.2873100000000000 Ag
   0.5546840000000001    0.2186350000000000    0.0374450000000000 Ag
   0.4514080000000000    0.2165700000000000    0.0346550000000000 Ag
   0.5547240000000000    0.4687850000000000    0.2125100000000000 Ag
   0.4518640000000000    0.4666150000000000    0.2151450000000000 Ag
   0.5481960000000000    0.2833500000000000    0.4649950000000000 Ag
   0.4459700000000000    0.2816600000000000    0.4623900000000000 Ag
   0.5476860000000000    0.0332250000000000    0.2847750000000000 Ag
   0.6459240000000001    0.0314550000000000    0.2873100000000000 Ag
   0.7546840000000001    0.2186350000000000    0.0374450000000000 Ag
   0.6514080000000001    0.2165700000000000    0.0346550000000000 Ag
   0.7547240000000001    0.4687850000000000    0.2125100000000000 Ag
   0.6518640000000001    0.4666150000000000    0.2151450000000000 Ag
   0.7481960000000001    0.2833500000000000    0.4649950000000000 Ag
   0.6459700000000000    0.2816600000000000    0.4623900000000000 Ag
   0.7476860000000001    0.0332250000000000    0.2847750000000000 Ag
   0.8459240000000000    0.0314550000000000    0.2873100000000000 Ag
   0.9546840000000001    0.2186350000000000    0.0374450000000000 Ag
   0.8514080000000001    0.2165700000000000    0.0346550000000000 Ag
   0.9547240000000000    0.4687850000000000    0.2125100000000000 Ag
   0.8518640000000001    0.4666150000000000    0.2151450000000000 Ag
   0.9481960000000000    0.2833500000000000    0.4649950000000000 Ag
   0.8459700000000000    0.2816600000000000    0.4623900000000000 Ag
   0.9476860000000000    0.0332250000000000    0.2847750000000000 Ag
   0.0459240000000000    0.5314550000000000    0.2873100000000000 Ag
   0.1546840000000000    0.7186350000000000    0.0374450000000000 Ag
   0.0514080000000000    0.7165700000000000    0.0346550000000000 Ag
   0.1547240000000000    0.9687850000000000    0.2125100000000000 Ag
   0.0518640000000000    0.9666150000000000    0.2151450000000000 Ag
   0.1481960000000000    0.7833500000000000    0.4649950000000000 Ag
   0.0459700000000000    0.7816600000000000    0.4623900000000000 Ag
   0.1476860000000000    0.5332249999999999    0.2847750000000000 Ag
   0.2459240000000000    0.5314550000000000    0.2873100000000000 Ag
   0.3546840000000000    0.7186350000000000    0.0374450000000000 Ag
   0.2514080000000000    0.7165700000000000    0.0346550000000000 Ag
   0.3547240000000000    0.9687850000000000    0.2125100000000000 Ag
   0.2518640000000000    0.9666150000000000    0.2151450000000000 Ag
   0.3481960000000000    0.7833500000000000    0.4649950000000000 Ag
   0.2459700000000000    0.7816600000000000    0.4623900000000000 Ag
   0.3476860000000001    0.5332249999999999    0.2847750000000000 Ag
   0.4459240000000000    0.5314550000000000    0.2873100000000000 Ag
   0.5546840000000001    0.7186350000000000    0.0374450000000000 Ag
   0.4514080000000000    0.7165700000000000    0.0346550000000000 Ag
   0.5547240000000000    0.9687850000000000    0.2125100000000000 Ag
   0.4518640000000000    0.9666150000000000    0.2151450000000000 Ag
   0.5481960000000000    0.7833500000000000    0.4649950000000000 Ag
   0.4459700000000000    0.7816600000000000    0.4623900000000000 Ag
   0.5476860000000000    0.5332249999999999    0.2847750000000000 Ag
   0.6459240000000001    0.5314550000000000    0.2873100000000000 Ag
   0.7546840000000001    0.7186350000000000    0.0374450000000000 Ag
   0.6514080000000001    0.7165700000000000    0.0346550000000000 Ag
   0.7547240000000001    0.9687850000000000    0.2125100000000000 Ag
   0.6518640000000001    0.9666150000000000    0.2151450000000000 Ag
   0.7481960000000001    0.7833500000000000    0.4649950000000000 Ag
   0.6459700000000000    0.7816600000000000    0.4623900000000000 Ag
   0.7476860000000001    0.5332249999999999    0.2847750000000000 Ag
   0.8459240000000000    0.5314550000000000    0.2873100000000000 Ag
   0.9546840000000001    0.7186350000000000    0.0374450000000000 Ag
   0.8514080000000001    0.7165700000000000    0.0346550000000000 Ag
   0.9547240000000000    0.9687850000000000    0.2125100000000000 Ag
   0.8518640000000001    0.9666150000000000    0.2151450000000000 Ag
   0.9481960000000000    0.7833500000000000    0.4649950000000000 Ag
   0.8459700000000000    0.7816600000000000    0.4623900000000000 Ag
   0.9476860000000000    0.5332249999999999    0.2847750000000000 Ag
   0.0459240000000000    0.0314550000000000    0.7873100000000000 Ag
   0.1546840000000000    0.2186350000000000    0.5374450000000000 Ag
   0.0514080000000000    0.2165700000000000    0.5346550000000000 Ag
   0.1547240000000000    0.4687850000000000    0.7125100000000000 Ag
   0.0518640000000000    0.4666150000000000    0.7151450000000000 Ag
   0.1481960000000000    0.2833500000000000    0.9649950000000000 Ag
   0.0459700000000000    0.2816600000000000    0.9623900000000001 Ag
   0.1476860000000000    0.0332250000000000    0.7847750000000000 Ag
   0.2459240000000000    0.0314550000000000    0.7873100000000000 Ag
   0.3546840000000000    0.2186350000000000    0.5374450000000000 Ag
   0.2514080000000000    0.2165700000000000    0.5346550000000000 Ag
   0.3547240000000000    0.4687850000000000    0.7125100000000000 Ag
   0.2518640000000000    0.4666150000000000    0.7151450000000000 Ag
   0.3481960000000000    0.2833500000000000    0.9649950000000000 Ag
   0.2459700000000000    0.2816600000000000    0.9623900000000001 Ag
   0.3476860000000001    0.0332250000000000    0.7847750000000000 Ag
   0.4459240000000000    0.0314550000000000    0.7873100000000000 Ag
   0.5546840000000001    0.2186350000000000    0.5374450000000000 Ag
   0.4514080000000000    0.2165700000000000    0.5346550000000000 Ag
   0.5547240000000000    0.4687850000000000    0.7125100000000000 Ag
   0.4518640000000000    0.4666150000000000    0.7151450000000000 Ag
   0.5481960000000000    0.2833500000000000    0.9649950000000000 Ag
   0.4459700000000000    0.2816600000000000    0.9623900000000001 Ag
   0.5476860000000000    0.0332250000000000    0.7847750000000000 Ag
   0.6459240000000001    0.0314550000000000    0.7873100000000000 Ag
   0.7546840000000001    0.2186350000000000    0.5374450000000000 Ag
   0.6514080000000001    0.2165700000000000    0.5346550000000000 Ag
   0.7547240000000001    0.4687850000000000    0.7125100000000000 Ag
   0.6518640000000001    0.4666150000000000    0.7151450000000000 Ag
   0.7481960000000001    0.2833500000000000    0.9649950000000000 Ag
   0.6459700000000000    0.2816600000000000    0.9623900000000001 Ag
   0.7476860000000001    0.0332250000000000    0.7847750000000000 Ag
   0.8459240000000000    0.0314550000000000    0.7873100000000000 Ag
   0.9546840000000001    0.2186350000000000    0.5374450000000000 Ag
   0.8514080000000001    0.2165700000000000    0.5346550000000000 Ag
   0.9547240000000000    0.4687850000000000    0.7125100000000000 Ag
   0.8518640000000001    0.4666150000000000    0.7151450000000000 Ag
   0.9481960000000000    0.2833500000000000    0.9649950000000000 Ag
   0.8459700000000000    0.2816600000000000    0.9623900000000001 Ag
   0.9476860000000000    0.0332250000000000    0.7847750000000000 Ag
   0.0459240000000000    0.5314550000000000    0.7873100000000000 Ag
   0.1546840000000000    0.7186350000000000    0.5374450000000000 Ag
   0.0514080000000000    0.7165700000000000    0.5346550000000000 Ag
   0.1547240000000000    0.9687850000000000    0.7125100000000000 Ag
   0.0518640000000000    0.9666150000000000    0.7151450000000000 Ag
   0.1481960000000000    0.7833500000000000    0.9649950000000000 Ag
   0.0459700000000000    0.7816600000000000    0.9623900000000001 Ag
   0.1476860000000000    0.5332249999999999    0.7847750000000000 Ag
   0.2459240000000000    0.5314550000000000    0.7873100000000000 Ag
   0.3546840000000000    0.7186350000000000    0.5374450000000000 Ag
   0.2514080000000000    0.7165700000000000    0.5346550000000000 Ag
   0.3547240000000000    0.9687850000000000    0.7125100000000000 Ag
   0.2518640000000000    0.9666150000000000    0.7151450000000000 Ag
   0.3481960000000000    0.7833500000000000    0.9649950000000000 Ag
   0.2459700000000000    0.7816600000000000    0.9623900000000001 Ag
   0.3476860000000001    0.5332249999999999    0.7847750000000000 Ag
   0.4459240000000000    0.5314550000000000    0.7873100000000000 Ag
   0.5546840000000001    0.7186350000000000    0.5374450000000000 Ag
   0.4514080000000000    0.7165700000000000    0.5346550000000000 Ag
   0.5547240000000000    0.9687850000000000    0.7125100000000000 Ag
   0.4518640000000000    0.9666150000000000    0.7151450000000000 Ag
   0.5481960000000000    0.7833500000000000    0.9649950000000000 Ag
   0.4459700000000000    0.7816600000000000    0.9623900000000001 Ag
   0.5476860000000000    0.5332249999999999    0.7847750000000000 Ag
   0.6459240000000001    0.5314550000000000    0.7873100000000000 Ag
   0.7546840000000001    0.7186350000000000    0.5374450000000000 Ag
   0.6514080000000001    0.7165700000000000    0.5346550000000000 Ag
   0.7547240000000001    0.9687850000000000    0.7125100000000000 Ag
   0.6518640000000001    0.9666150000000000    0.7151450000000000 Ag
   0.7481960000000001    0.7833500000000000    0.9649950000000000 Ag
   0.6459700000000000    0.7816600000000000    0.9623900000000001 Ag
   0.7476860000000001    0.5332249999999999    0.7847750000000000 Ag
   0.8459240000000000    0.5314550000000000    0.7873100000000000 Ag
   0.9546840000000001    0.7186350000000000    0.5374450000000000 Ag
   0.8514080000000001    0.7165700000000000    0.5346550000000000 Ag
   0.9547240000000000    0.9687850000000000    0.7125100000000000 Ag
   0.8518640000000001    0.9666150000000000    0.7151450000000000 Ag
   0.9481960000000000    0.7833500000000000    0.9649950000000000 Ag
   0.8459700000000000    0.7816600000000000    0.9623900000000001 Ag
   0.9476860000000000    0.5332249999999999    0.7847750000000000 Ag
   0.0215040000000000    0.1562000000000000    0.1918850000000000 H
   0.1209060000000000    0.1579050000000000    0.1887900000000000 H
   0.1995340000000000    0.2136800000000000    0.1312150000000000 H
   0.0978180000000000    0.2141400000000000    0.1277650000000000 H
   0.1597400000000000    0.1101700000000000    0.0552250000000000 H
   0.0583840000000000    0.1086800000000000    0.0541100000000000 H
   0.1812980000000000    0.0486350000000000    0.1117300000000000 H
   0.0812420000000000    0.0483000000000000    0.1109150000000000 H
   0.0783140000000000    0.0921550000000000    0.4394950000000000 H
   0.0000000000000000    0.0936600000000000    0.4417850000000000 H
   0.1014460000000000    0.0359650000000000    0.3784700000000000 H
   0.0001740000000000    0.0363550000000000    0.3812200000000000 H
   0.1422880000000000    0.1411750000000000    0.3046650000000000 H
   0.0413940000000000    0.1397900000000000    0.3053100000000000 H
   0.1196360000000000    0.2014700000000000    0.3616100000000000 H
   0.0194760000000000    0.2012000000000000    0.3615700000000000 H
   0.0792760000000000    0.3419350000000000    0.3103600000000000 H
   0.0000000000000000    0.3438450000000000    0.3082500000000000 H
   0.1023820000000000    0.2857150000000000    0.3714050000000000 H
   0.0008620000000000    0.2864500000000000    0.3687950000000000 H
   0.1415660000000000    0.3912550000000000    0.4452150000000000 H
   0.0409400000000000    0.3900800000000000    0.4443050000000000 H
   0.1189300000000000    0.4515650000000000    0.3881900000000000 H
   0.0190120000000000    0.4515400000000000    0.3879950000000000 H
   0.0224560000000000    0.4062450000000000    0.0580900000000000 H
   0.1222100000000000    0.4079550000000000    0.0609100000000000 H
   0.0004360000000000    0.4636600000000000    0.1187150000000000 H
   0.0989140000000000    0.4641850000000000    0.1217900000000000 H
   0.1593920000000000    0.3603600000000000    0.1950100000000000 H
   0.0581240000000000    0.3589500000000000    0.1956500000000000 H
   0.1809840000000000    0.2988750000000000    0.1385950000000000 H
   0.0811180000000000    0.2985900000000000    0.1389950000000000 H
   0.2215040000000000    0.1562000000000000    0.1918850000000000 H
   0.3209060000000000    0.1579050000000000    0.1887900000000000 H
   0.3995340000000000    0.2136800000000000    0.1312150000000000 H
   0.2978180000000000    0.2141400000000000    0.1277650000000000 H
   0.3597400000000000    0.1101700000000000    0.0552250000000000 H
   0.2583840000000000    0.1086800000000000    0.0541100000000000 H
   0.3812980000000000    0.0486350000000000    0.1117300000000000 H
   0.2812420000000000    0.0483000000000000    0.1109150000000000 H
   0.2783140000000000    0.0921550000000000    0.4394950000000000 H
   0.2000000000000000    0.0936600000000000    0.4417850000000000 H
   0.3014460000000000    0.0359650000000000    0.3784700000000000 H
   0.2001740000000000    0.0363550000000000    0.3812200000000000 H
   0.3422880000000000    0.1411750000000000    0.3046650000000000 H
   0.2413940000000000    0.1397900000000000    0.3053100000000000 H
   0.3196360000000000    0.2014700000000000    0.3616100000000000 H
   0.2194760000000000    0.2012000000000000    0.3615700000000000 H
   0.2792760000000000    0.3419350000000000    0.3103600000000000 H
   0.2000000000000000    0.3438450000000000    0.3082500000000000 H
   0.3023820000000000    0.2857150000000000    0.3714050000000000 H
   0.2008620000000000    0.2864500000000000    0.3687950000000000 H
   0.3415660000000000    0.3912550000000000    0.4452150000000000 H
   0.2409400000000000    0.3900800000000000    0.4443050000000000 H
   0.3189300000000000    0.4515650000000000    0.3881900000000000 H
   0.2190120000000000    0.4515400000000000    0.3879950000000000 H
   0.2224560000000000    0.4062450000000000    0.0580900000000000 H
   0.3222100000000000    0.4079550000000000    0.0609100000000000 H
   0.2004360000000000    0.4636600000000000    0.1187150000000000 H
   0.2989140000000000    0.4641850000000000    0.1217900000000000 H
   0.3593920000000000    0.3603600000000000    0.1950100000000000 H
   0.2581240000000000    0.3589500000000000    0.1956500000000000 H
   0.3809840000000000    0.2988750000000000    0.1385950000000000 H
   0.2811180000000000    0.2985900000000000    0.1389950000000000 H
   0.4215040000000000    0.1562000000000000    0.1918850000000000 H
   0.5209060000000001    0.1579050000000000    0.1887900000000000 H
   0.5995340000000000    0.2136800000000000    0.1312150000000000 H
   0.4978180000000000    0.2141400000000000    0.1277650000000000 H
   0.5597400000000000    0.1101700000000000    0.0552250000000000 H
   0.4583840000000000    0.1086800000000000    0.0541100000000000 H
   0.5812980000000001    0.0486350000000000    0.1117300000000000 H
   0.4812420000000001    0.0483000000000000    0.1109150000000000 H
   0.4783140000000000    0.0921550000000000    0.4394950000000000 H
   0.4000000000000000    0.0936600000000000    0.4417850000000000 H
   0.5014460000000001    0.0359650000000000    0.3784700000000000 H
   0.4001740000000000    0.0363550000000000    0.3812200000000000 H
   0.5422880000000000    0.1411750000000000    0.3046650000000000 H
   0.4413940000000000    0.1397900000000000    0.3053100000000000 H
   0.5196360000000000    0.2014700000000000    0.3616100000000000 H
   0.4194760000000000    0.2012000000000000    0.3615700000000000 H
   0.4792760000000000    0.3419350000000000    0.3103600000000000 H
   0.4000000000000000    0.3438450000000000    0.3082500000000000 H
   0.5023820000000000    0.2857150000000000    0.3714050000000000 H
   0.4008620000000000    0.2864500000000000    0.3687950000000000 H
   0.5415660000000000    0.3912550000000000    0.4452150000000000 H
   0.4409400000000000    0.3900800000000000    0.4443050000000000 H
   0.5189300000000000    0.4515650000000000    0.3881900000000000 H
   0.4190120000000001    0.4515400000000000    0.3879950000000000 H
   0.4224560000000001    0.4062450000000000    0.0580900000000000 H
   0.5222100000000001    0.4079550000000000    0.0609100000000000 H
   0.4004360000000000    0.4636600000000000    0.1187150000000000 H
   0.4989140000000000    0.4641850000000000    0.1217900000000000 H
   0.5593920000000000    0.3603600000000000    0.1950100000000000 H
   0.4581240000000000    0.3589500000000000    0.1956500000000000 H
   0.5809840000000001    0.2988750000000000    0.1385950000000000 H
   0.4811180000000000    0.2985900000000000    0.1389950000000000 H
   0.6215040000000001    0.1562000000000000    0.1918850000000000 H
   0.7209060000000000    0.1579050000000000    0.1887900000000000 H
   0.7995340000000001    0.2136800000000000    0.1312150000000000 H
   0.6978180000000000    0.2141400000000000    0.1277650000000000 H
   0.7597400000000001    0.1101700000000000    0.0552250000000000 H
   0.6583840000000001    0.1086800000000000    0.0541100000000000 H
   0.7812980000000000    0.0486350000000000    0.1117300000000000 H
   0.6812420000000001    0.0483000000000000    0.1109150000000000 H
   0.6783140000000001    0.0921550000000000    0.4394950000000000 H
   0.6000000000000001    0.0936600000000000    0.4417850000000000 H
   0.7014460000000001    0.0359650000000000    0.3784700000000000 H
   0.6001740000000001    0.0363550000000000    0.3812200000000000 H
   0.7422880000000001    0.1411750000000000    0.3046650000000000 H
   0.6413940000000001    0.1397900000000000    0.3053100000000000 H
   0.7196360000000002    0.2014700000000000    0.3616100000000000 H
   0.6194760000000001    0.2012000000000000    0.3615700000000000 H
   0.6792760000000001    0.3419350000000000    0.3103600000000000 H
   0.6000000000000001    0.3438450000000000    0.3082500000000000 H
   0.7023820000000001    0.2857150000000000    0.3714050000000000 H
   0.6008620000000001    0.2864500000000000    0.3687950000000000 H
   0.7415660000000001    0.3912550000000000    0.4452150000000000 H
   0.6409400000000001    0.3900800000000000    0.4443050000000000 H
   0.7189300000000001    0.4515650000000000    0.3881900000000000 H
   0.6190120000000001    0.4515400000000000    0.3879950000000000 H
   0.6224560000000001    0.4062450000000000    0.0580900000000000 H
   0.7222100000000001    0.4079550000000000    0.0609100000000000 H
   0.6004360000000001    0.4636600000000000    0.1187150000000000 H
   0.6989140000000000    0.4641850000000000    0.1217900000000000 H
   0.7593920000000001    0.3603600000000000    0.1950100000000000 H
   0.6581240000000000    0.3589500000000000    0.1956500000000000 H
   0.7809840000000001    0.2988750000000000    0.1385950000000000 H
   0.6811180000000001    0.2985900000000000    0.1389950000000000 H
   0.8215040000000000    0.1562000000000000    0.1918850000000000 H
   0.9995340000000000    0.2136800000000000    0.1312150000000000 H
   0.9597400000000000    0.1101700000000000    0.0552250000000000 H
   0.9812980000000000    0.0486350000000000    0.1117300000000000 H
   0.8783140000000000    0.0921550000000000    0.4394950000000000 H
   0.8000000000000000    0.0936600000000000    0.4417850000000000 H
   0.9014460000000001    0.0359650000000000    0.3784700000000000 H
   0.8001740000000001    0.0363550000000000    0.3812200000000000 H
   0.9422880000000000    0.1411750000000000    0.3046650000000000 H
   0.8413940000000001    0.1397900000000000    0.3053100000000000 H
   0.9196360000000001    0.2014700000000000    0.3616100000000000 H
   0.8194760000000001    0.2012000000000000    0.3615700000000000 H
   0.8792760000000001    0.3419350000000000    0.3103600000000000 H
   0.8000000000000000    0.3438450000000000    0.3082500000000000 H
   0.9023820000000000    0.2857150000000000    0.3714050000000000 H
   0.8008620000000001    0.2864500000000000    0.3687950000000000 H
   0.9415660000000000    0.3912550000000000    0.4452150000000000 H
   0.8409400000000000    0.3900800000000000    0.4443050000000000 H
   0.9189300000000000    0.4515650000000000    0.3881900000000000 H
   0.8190120000000001    0.4515400000000000    0.3879950000000000 H
   0.8224560000000001    0.4062450000000000    0.0580900000000000 H
   0.9222100000000001    0.4079550000000000    0.0609100000000000 H
   0.8004360000000000    0.4636600000000000    0.1187150000000000 H
   0.8989140000000000    0.4641850000000000    0.1217900000000000 H
   0.9593920000000000    0.3603600000000000    0.1950100000000000 H
   0.8581240000000000    0.3589500000000000    0.1956500000000000 H
   0.9809840000000001    0.2988750000000000    0.1385950000000000 H
   0.8811180000000001    0.2985900000000000    0.1389950000000000 H
   0.0215040000000000    0.6562000000000000    0.1918850000000000 H
   0.1209060000000000    0.6579050000000000    0.1887900000000000 H
   0.1995340000000000    0.7136800000000000    0.1312150000000000 H
   0.0978180000000000    0.7141400000000000    0.1277650000000000 H
   0.1597400000000000    0.6101700000000000    0.0552250000000000 H
   0.0583840000000000    0.6086800000000000    0.0541100000000000 H
   0.1812980000000000    0.5486350000000000    0.1117300000000000 H
   0.0812420000000000    0.5483000000000000    0.1109150000000000 H
   0.0783140000000000    0.5921550000000000    0.4394950000000000 H
   0.0000000000000000    0.5936600000000000    0.4417850000000000 H
   0.1014460000000000    0.5359650000000000    0.3784700000000000 H
   0.0001740000000000    0.5363550000000000    0.3812200000000000 H
   0.1422880000000000    0.6411750000000001    0.3046650000000000 H
   0.0413940000000000    0.6397900000000000    0.3053100000000000 H
   0.1196360000000000    0.7014700000000000    0.3616100000000000 H
   0.0194760000000000    0.7012000000000000    0.3615700000000000 H
   0.0792760000000000    0.8419350000000000    0.3103600000000000 H
   0.0000000000000000    0.8438450000000000    0.3082500000000000 H
   0.1023820000000000    0.7857149999999999    0.3714050000000000 H
   0.0008620000000000    0.7864500000000000    0.3687950000000000 H
   0.1415660000000000    0.8912550000000000    0.4452150000000000 H
   0.0409400000000000    0.8900800000000000    0.4443050000000000 H
   0.1189300000000000    0.9515650000000000    0.3881900000000000 H
   0.0190120000000000    0.9515400000000001    0.3879950000000000 H
   0.0224560000000000    0.9062450000000000    0.0580900000000000 H
   0.1222100000000000    0.9079550000000001    0.0609100000000000 H
   0.0004360000000000    0.9636600000000000    0.1187150000000000 H
   0.0989140000000000    0.9641850000000001    0.1217900000000000 H
   0.1593920000000000    0.8603600000000000    0.1950100000000000 H
   0.0581240000000000    0.8589500000000000    0.1956500000000000 H
   0.1809840000000000    0.7988750000000000    0.1385950000000000 H
   0.0811180000000000    0.7985900000000000    0.1389950000000000 H
   0.2215040000000000    0.6562000000000000    0.1918850000000000 H
   0.3209060000000000    0.6579050000000000    0.1887900000000000 H
   0.3995340000000000    0.7136800000000000    0.1312150000000000 H
   0.2978180000000000    0.7141400000000000    0.1277650000000000 H
   0.3597400000000000    0.6101700000000000    0.0552250000000000 H
   0.2583840000000000    0.6086800000000000    0.0541100000000000 H
   0.3812980000000000    0.5486350000000000    0.1117300000000000 H
   0.2812420000000000    0.5483000000000000    0.1109150000000000 H
   0.2783140000000000    0.5921550000000000    0.4394950000000000 H
   0.2000000000000000    0.5936600000000000    0.4417850000000000 H
   0.3014460000000000    0.5359650000000000    0.3784700000000000 H
   0.2001740000000000    0.5363550000000000    0.3812200000000000 H
   0.3422880000000000    0.6411750000000001    0.3046650000000000 H
   0.2413940000000000    0.6397900000000000    0.3053100000000000 H
   0.3196360000000000    0.7014700000000000    0.3616100000000000 H
   0.2194760000000000    0.7012000000000000    0.3615700000000000 H
   0.2792760000000000    0.8419350000000000    0.3103600000000000 H
   0.2000000000000000    0.8438450000000000    0.3082500000000000 H
   0.3023820000000000    0.7857149999999999    0.3714050000000000 H
   0.2008620000000000    0.7864500000000000    0.3687950000000000 H
   0.3415660000000000    0.8912550000000000    0.4452150000000000 H
   0.2409400000000000    0.8900800000000000    0.4443050000000000 H
   0.3189300000000000    0.9515650000000000    0.3881900000000000 H
   0.2190120000000000    0.9515400000000001    0.3879950000000000 H
   0.2224560000000000    0.9062450000000000    0.0580900000000000 H
   0.3222100000000000    0.9079550000000001    0.0609100000000000 H
   0.2004360000000000    0.9636600000000000    0.1187150000000000 H
   0.2989140000000000    0.9641850000000001    0.1217900000000000 H
   0.3593920000000000    0.8603600000000000    0.1950100000000000 H
   0.2581240000000000    0.8589500000000000    0.1956500000000000 H
   0.3809840000000000    0.7988750000000000    0.1385950000000000 H
   0.2811180000000000    0.7985900000000000    0.1389950000000000 H
   0.4215040000000000    0.6562000000000000    0.1918850000000000 H
   0.5209060000000001    0.6579050000000000    0.1887900000000000 H
   0.5995340000000000    0.7136800000000000    0.1312150000000000 H
   0.4978180000000000    0.7141400000000000    0.1277650000000000 H
   0.5597400000000000    0.6101700000000000    0.0552250000000000 H
   0.4583840000000000    0.6086800000000000    0.0541100000000000 H
   0.5812980000000001    0.5486350000000000    0.1117300000000000 H
   0.4812420000000001    0.5483000000000000    0.1109150000000000 H
   0.4783140000000000    0.5921550000000000    0.4394950000000000 H
   0.4000000000000000    0.5936600000000000    0.4417850000000000 H
   0.5014460000000001    0.5359650000000000    0.3784700000000000 H
   0.4001740000000000    0.5363550000000000    0.3812200000000000 H
   0.5422880000000000    0.6411750000000001    0.3046650000000000 H
   0.4413940000000000    0.6397900000000000    0.3053100000000000 H
   0.5196360000000000    0.7014700000000000    0.3616100000000000 H
   0.4194760000000000    0.7012000000000000    0.3615700000000000 H
   0.4792760000000000    0.8419350000000000    0.3103600000000000 H
   0.4000000000000000    0.8438450000000000    0.3082500000000000 H
   0.5023820000000000    0.7857149999999999    0.3714050000000000 H
   0.4008620000000000    0.7864500000000000    0.3687950000000000 H
   0.5415660000000000    0.8912550000000000    0.4452150000000000 H
   0.4409400000000000    0.8900800000000000    0.4443050000000000 H
   0.5189300000000000    0.9515650000000000    0.3881900000000000 H
   0.4190120000000001    0.9515400000000001    0.3879950000000000 H
   0.4224560000000001    0.9062450000000000    0.0580900000000000 H
   0.5222100000000001    0.9079550000000001    0.0609100000000000 H
   0.4004360000000000    0.9636600000000000    0.1187150000000000 H
   0.4989140000000000    0.9641850000000001    0.1217900000000000 H
   0.5593920000000000    0.8603600000000000    0.1950100000000000 H
   0.4581240000000000    0.8589500000000000    0.1956500000000000 H
   0.5809840000000001    0.7988750000000000    0.1385950000000000 H
   0.4811180000000000    0.7985900000000000    0.1389950000000000 H
   0.6215040000000001    0.6562000000000000    0.1918850000000000 H
   0.7209060000000000    0.6579050000000000    0.1887900000000000 H
   0.7995340000000001    0.7136800000000000    0.1312150000000000 H
   0.6978180000000000    0.7141400000000000    0.1277650000000000 H
   0.7597400000000001    0.6101700000000000    0.0552250000000000 H
   0.6583840000000001    0.6086800000000000    0.0541100000000000 H
   0.7812980000000000    0.5486350000000000    0.1117300000000000 H
   0.6812420000000001    0.5483000000000000    0.1109150000000000 H
   0.6783140000000001    0.5921550000000000    0.4394950000000000 H
   0.6000000000000001    0.5936600000000000    0.4417850000000000 H
   0.7014460000000001    0.5359650000000000    0.3784700000000000 H
   0.6001740000000001    0.5363550000000000    0.3812200000000000 H
   0.7422880000000001    0.6411750000000001    0.3046650000000000 H
   0.6413940000000001    0.6397900000000000    0.3053100000000000 H
   0.7196360000000002    0.7014700000000000    0.3616100000000000 H
   0.6194760000000001    0.7012000000000000    0.3615700000000000 H
   0.6792760000000001    0.8419350000000000    0.3103600000000000 H
   0.6000000000000001    0.8438450000000000    0.3082500000000000 H
   0.7023820000000001    0.7857149999999999    0.3714050000000000 H
   0.6008620000000001    0.7864500000000000    0.3687950000000000 H
   0.7415660000000001    0.8912550000000000    0.4452150000000000 H
   0.6409400000000001    0.8900800000000000    0.4443050000000000 H