H12 O8
1.0
  11.2299724125372435    0.0000000000000000    0.0248920399416994
   0.2844996832216740   37.9209060852315005    0.0450067250422980
   0.0000000000000000    0.0000000000000000   23.8880000000000017
H O
12 8
direct
  -0.0402028778454083    0.0775888898389497    0.5256429217067571 H
  -0.0408882912290567    0.0818946468677288    0.5948550326511204 H
  -0.0349871271606390    0.0870582065748887    0.6457391084105962 H
   0.9103594536829825    0.9656392491807536    0.4765856750984239 H
  -0.0792081250034236    0.9170105134906034    0.5555194863710350 H
   0.5286016327734899    0.9370916445460274    0.5096756845948996 H
   0.0154718128671588    0.0829432342149168   -0.0873398079150956 H
  -0.0025416543470033    0.0108884787701795    0.0293176916868867 H
   0.0068560728182707    0.0435640531301400   -0.0334967781019593 H
   0.9473305170774134    0.9052116645283393    0.8816483163245272 H
  -0.0801475519531473    0.9053705362825553    0.9610643666937677 H
   0.4060307589756107    0.9097443666753794    0.9162105427674679 H
   0.0092200000000000    0.0943000000000000    0.5454599999999999 O
   0.0000000000000000    0.0957200000000000    0.6112500000000000 O
   0.9948600000000001    0.9629050000000000    0.4838900000000000 O
   0.0050450000000000    0.9216750000000000    0.5508600000000000 O
   0.0102900000000000    0.0768900000000000   -0.0479500000000000 O
   0.0000000000000000    0.0355550000000000    0.0186200000000000 O
   0.8629100000000001    0.9040650000000000    0.8900700000000000 O
   0.0055700000000000    0.9043050000000000    0.9561600000000000 O
