Cu6 H23 C34 O24
1.0
  14.9711040816897860    0.0000000000000000   -3.3393058523009560
  -4.0711752886072476   14.3945932201136593   -3.2348481876112154
   0.0000000000000000    0.0000000000000000   15.3339999999999996
Cu H C O
6 23 34 24
direct
   0.0198000000000000    0.4317700000000000    0.0200000000000000 Cu
   0.0194800000000000    0.0201400000000000    0.4318900000000000 Cu
   0.9804900000000000    0.9798000000000000    0.5680200000000000 Cu
   0.5680800000000000    0.9800300000000000    0.9805000000000000 Cu
   0.4318400000000000    0.0198900000000000    0.0194200000000000 Cu
   0.9801700000000000    0.5681400000000000    0.9799500000000000 Cu
   0.9542761333640033    0.8040315255019955    0.5335290122176243 H
   0.0140716183430588   -0.1307137720834244    0.3130805126627055 H
  -0.0166960510419768   -0.1746900238255844    0.4169038079479953 H
   0.0458160685509238    0.1959194640484783    0.4664580972812057 H
   0.9857807626074121    1.1306104641384869    0.6868197470025723 H
   1.0166668159159622    1.1746179902583422    0.5830500846466705 H
   0.9542918190314489    0.5344495560792806    0.8044106717994605 H
   0.0148562752462498    0.3134497043383011   -0.1307565622500068 H
  -0.0162757340568121    0.4176291882571508   -0.1745306016014742 H
   0.0459308262450741    0.4655905275018756    0.1955757917943837 H
   0.9848286010151664    0.6863611553795983    1.1306533421564546 H
   1.0162253638530621    0.5822991895733616    1.1744703944228625 H
   0.4853500000000000    0.2999600000000000    0.0153200000000000 H
   0.7486600000000000    0.2517100000000000    0.0000000000000000 H
   0.7002900000000000    0.5155600000000000    0.9843600000000000 H
   0.5158000000000000    0.9853200000000000    0.7003400000000000 H
   0.2521800000000000    0.0000000000000000    0.7477100000000000 H
   0.2996300000000000    0.0148200000000000    0.4840300000000000 H
   0.7004300000000000    0.9852900000000000    0.5159400000000000 H
   0.7477700000000000    0.0000300000000000    0.2522100000000000 H
   0.4841300000000000    0.0145500000000000    0.2996000000000000 H
   0.2997300000000000    0.4843800000000000    0.0156300000000000 H
   0.5145999999999999    0.7000000000000000    0.9846000000000000 H
   0.8312300000000000    0.4238300000000000    0.9878200000000000 C
   0.5767400000000000    0.1688400000000000    0.0120800000000000 C
   0.5548600000000000    0.3249900000000000    0.0086400000000000 C
   0.6131200000000000    0.2661600000000000    0.0077800000000000 C
   0.7031200000000000    0.2972900000000000    0.9999700000000000 C
   0.6753700000000000    0.4458900000000000    0.9911000000000000 C
   0.7340800000000000    0.3874800000000000    0.9920099999999999 C
   0.5851700000000000    0.4154300000000000    0.9998700000000000 C
   0.5257400000000000    0.4746700000000000    0.9999300000000000 C
   0.1689100000000000    0.0115300000000000    0.5755300000000000 C
   0.8310800000000000    0.9884900000000000    0.4243700000000000 C
   0.4243300000000000    0.9885300000000000    0.8310500000000000 C
   0.5755800000000000    0.0114000000000000    0.1688800000000000 C
   0.4460600000000000    0.9916900000000000    0.6750900000000000 C
   0.3878700000000000    0.9925500000000000    0.7336800000000000 C
   0.2976200000000000    0.0000200000000000    0.7022699999999999 C
   0.3248400000000000    0.0084200000000000    0.5537900000000000 C
   0.2662600000000000    0.0075500000000000    0.6120000000000000 C
   0.4153300000000000    0.0000600000000000    0.5845600000000000 C
   0.5255100000000000    0.9999800000000000    0.4745700000000000 C
   0.4745100000000000    0.0000300000000000    0.5254100000000000 C
   0.6751800000000000    0.9916300000000000    0.4461700000000000 C
   0.7337300000000000    0.9924800000000000    0.3879300000000000 C
   0.7023400000000000    0.0000000000000000    0.2976600000000000 C
   0.5538900000000000    0.0082400000000000    0.3248000000000000 C
   0.6120800000000000    0.0074200000000000    0.2662500000000000 C
   0.5846700000000000    0.9999600000000000    0.4154000000000000 C
   0.1687500000000000    0.5760800000000000    0.0121700000000000 C
   0.4232000000000000    0.8310999999999999    0.9878800000000000 C
   0.3246400000000000    0.5540600000000000    0.0088900000000000 C
   0.2659000000000000    0.6124400000000000    0.0079600000000000 C
   0.4451100000000000    0.6749600000000000    0.9913100000000000 C
   0.3868300000000000    0.7337700000000000    0.9921500000000000 C
   0.4148400000000000    0.5845300000000000    0.0001000000000000 C
   0.9703100000000000    0.8508000000000000    0.5014600000000000 O
   0.0046900000000000   -0.1123100000000001    0.3741300000000000 O
   0.0297300000000000    0.1491400000000000    0.4985000000000000 O
   0.9952100000000000    1.1122200000000000    0.6257900000000000 O
   0.9704000000000000    0.5021600000000001    0.8510300000000000 O
   0.0052300000000000    0.3745200000000000   -0.1122900000000000 O
   0.0297100000000000    0.4978300000000000    0.1489400000000000 O
   0.9945700000000000    0.6253400000000000    1.1122100000000001 O
   0.8873500000000000    0.3747800000000000    0.0049300000000000 O
   0.8509600000000000    0.5023800000000000    0.9696600000000000 O
   0.6256100000000000    0.1126200000000000    0.9954499999999999 O
   0.4982000000000000    0.1491000000000000    0.0297500000000000 O
   0.1130600000000000    0.9942900000000000    0.6244700000000000 O
   0.1488200000000000    0.0298000000000000    0.4970000000000000 O
   0.8869400000000000    0.0057500000000000    0.3754400000000000 O
   0.8511500000000000    0.9701100000000000    0.5027600000000000 O
   0.3753800000000000    0.0056100000000000    0.8868600000000000 O
   0.5028100000000000    0.9704400000000000    0.8511800000000000 O
   0.6245100000000000    0.9942800000000001    0.1130500000000000 O
   0.4971200000000000    0.0295100000000000    0.1487600000000000 O
   0.1126600000000000    0.6251800000000000    0.9951900000000000 O
   0.1489900000000000    0.4974400000000000    0.0301500000000000 O
   0.3743200000000000    0.8873100000000000    0.0044900000000000 O
   0.5017200000000001    0.8508300000000000    0.9701500000000000 O
