Cu6 H21 C45 O24
1.0
  14.9711040816897860    0.0000000000000000   -3.3393058523009560
  -4.0711752886072476   14.3945932201136593   -3.2348481876112154
   0.0000000000000000    0.0000000000000000   15.3339999999999996
Cu H C O
6 21 45 24
direct
   0.0198000000000000    0.4317700000000000    0.0200000000000000 Cu
   0.0194800000000000    0.0201400000000000    0.4318900000000000 Cu
   0.9804900000000000    0.9798000000000000    0.5680200000000000 Cu
   0.5680800000000000    0.9800300000000000    0.9805000000000000 Cu
   0.4318400000000000    0.0198900000000000    0.0194200000000000 Cu
   0.9801700000000000    0.5681400000000000    0.9799500000000000 Cu
   0.4853500000000000    0.2999600000000000    0.0153200000000000 H
   0.7486600000000000    0.2517100000000000    0.0000000000000000 H
   0.7002900000000000    0.5155600000000000    0.9843600000000000 H
   0.5338040379463299    0.8041864377360904    0.9541087949241844 H
   0.3132470182167237   -0.1313386267640533    0.0138193484230991 H
   0.4171712985809266   -0.1749869345938410   -0.0169345622527783 H
   0.5158000000000000    0.9853200000000000    0.7003400000000000 H
   0.2521800000000000    0.0000000000000000    0.7477100000000000 H
   0.2996300000000000    0.0148200000000000    0.4840300000000000 H
   0.7004300000000000    0.9852900000000000    0.5159400000000000 H
   0.7477700000000000    0.0000300000000000    0.2522100000000000 H
   0.4841300000000000    0.0145500000000000    0.2996000000000000 H
   0.9853000000000000    0.7002500000000000    0.5146300000000000 H
   0.9998500000000000    0.7485700000000000    0.2509800000000000 H
   0.0146800000000000    0.4844700000000000    0.2993900000000000 H
   0.0147000000000000    0.2996600000000000    0.4853200000000000 H
   0.0001700000000000    0.2513700000000000    0.7489900000000000 H
   0.9853200000000000    0.5154500000000000    0.7005500000000000 H
   0.1955031157047066    0.4651411379644089    0.0464119013564593 H
   1.1313881583564875    0.6863164695162618    0.9856395523953788 H
   1.1748846824460559    0.5819709738342843    1.0169449745387702 H
   0.8312300000000000    0.4238300000000000    0.9878200000000000 C
   0.5767400000000000    0.1688400000000000    0.0120800000000000 C
   0.5548600000000000    0.3249900000000000    0.0086400000000000 C
   0.6131200000000000    0.2661600000000000    0.0077800000000000 C
   0.7031200000000000    0.2972900000000000    0.9999700000000000 C
   0.6753700000000000    0.4458900000000000    0.9911000000000000 C
   0.7340800000000000    0.3874800000000000    0.9920099999999999 C
   0.5851700000000000    0.4154300000000000    0.9998700000000000 C
   0.5257400000000000    0.4746700000000000    0.9999300000000000 C
   0.1689100000000000    0.0115300000000000    0.5755300000000000 C
   0.8310800000000000    0.9884900000000000    0.4243700000000000 C
   0.4243300000000000    0.9885300000000000    0.8310500000000000 C
   0.5755800000000000    0.0114000000000000    0.1688800000000000 C
   0.4460600000000000    0.9916900000000000    0.6750900000000000 C
   0.3878700000000000    0.9925500000000000    0.7336800000000000 C
   0.2976200000000000    0.0000200000000000    0.7022699999999999 C
   0.3248400000000000    0.0084200000000000    0.5537900000000000 C
   0.2662600000000000    0.0075500000000000    0.6120000000000000 C
   0.4153300000000000    0.0000600000000000    0.5845600000000000 C
   0.5255100000000000    0.9999800000000000    0.4745700000000000 C
   0.4745100000000000    0.0000300000000000    0.5254100000000000 C
   0.6751800000000000    0.9916300000000000    0.4461700000000000 C
   0.7337300000000000    0.9924800000000000    0.3879300000000000 C
   0.7023400000000000    0.0000000000000000    0.2976600000000000 C
   0.5538900000000000    0.0082400000000000    0.3248000000000000 C
   0.6120800000000000    0.0074200000000000    0.2662500000000000 C
   0.5846700000000000    0.9999600000000000    0.4154000000000000 C
   0.9883800000000000    0.4235800000000000    0.8314800000000000 C
   0.0118700000000000    0.1686200000000000    0.5769700000000000 C
   0.0116000000000000    0.5763500000000000    0.1684700000000000 C
   0.9881200000000000    0.8313000000000000    0.4229900000000000 C
   0.9916300000000000    0.6751700000000000    0.4450300000000000 C
   0.9923500000000000    0.7340300000000000    0.3866400000000000 C
   0.9998899999999999    0.7029500000000000    0.2965000000000000 C
   0.0083100000000000    0.5542100000000000    0.3243900000000000 C
   0.0074700000000000    0.6126900000000000    0.2656000000000000 C
   0.0000000000000000    0.5846600000000000    0.4147000000000000 C
   0.9999700000000000    0.4745700000000000    0.5256999999999999 C
   0.0000000000000000    0.5253500000000000    0.4742400000000000 C
   0.0083800000000000    0.3247500000000000    0.5549200000000000 C
   0.0076800000000000    0.2659100000000000    0.6133200000000000 C
   0.0001200000000000    0.2969900000000000    0.7033800000000000 C
   0.9916900000000000    0.4457200000000000    0.6755600000000000 C
   0.9925400000000000    0.3872400000000000    0.7343499999999999 C
   0.0000000000000000    0.4152600000000000    0.5852300000000000 C
   0.8873500000000000    0.3747800000000000    0.0049300000000000 O
   0.8509600000000000    0.5023800000000000    0.9696600000000000 O
   0.6256100000000000    0.1126200000000000    0.9954499999999999 O
   0.4982000000000000    0.1491000000000000    0.0297500000000000 O
   0.5017200000000001    0.8508300000000000    0.9701500000000000 O
   0.3743200000000000   -0.1126899999999999    0.0044900000000000 O
   0.1130600000000000    0.9942900000000000    0.6244700000000000 O
   0.1488200000000000    0.0298000000000000    0.4970000000000000 O
   0.8869400000000000    0.0057500000000000    0.3754400000000000 O
   0.8511500000000000    0.9701100000000000    0.5027600000000000 O
   0.3753800000000000    0.0056100000000000    0.8868600000000000 O
   0.5028100000000000    0.9704400000000000    0.8511800000000000 O
   0.6245100000000000    0.9942800000000001    0.1130500000000000 O
   0.4971200000000000    0.0295100000000000    0.1487600000000000 O
   0.0052300000000000    0.3745200000000000    0.8877100000000000 O
   0.9704000000000000    0.5021600000000001    0.8510300000000000 O
   0.9952100000000000    0.1122200000000000    0.6257900000000000 O
   0.0297300000000000    0.1491400000000000    0.4985000000000000 O
   0.9945700000000000    0.6253400000000000    0.1122100000000000 O
   0.0297100000000000    0.4978300000000000    0.1489400000000000 O
   0.0046900000000000    0.8876900000000000    0.3741300000000000 O
   0.9703100000000000    0.8508000000000000    0.5014600000000000 O
   0.1489900000000000    0.4974400000000000    0.0301500000000000 O
   1.1126600000000000    0.6251800000000000    0.9951900000000000 O
