Fe100 Ni100 H400 C798 N598
1.0
  33.7699993776407155    0.0000000000000000   -0.0064833745325512
  -0.0030259646425655   34.6749998679673794    0.0000000000000021
   0.0000000000000000    0.0000000000000000   27.8640000000000008
Fe Ni H C N
100 100 400 798 598
direct
   0.0000260000000000    0.0000040000000000    0.0000150000000000 Fe
   0.2000260000000000    0.0000040000000000    0.0000150000000000 Fe
   0.4000260000000000    0.0000040000000000    0.0000150000000000 Fe
   0.6000260000000001    0.0000040000000000    0.0000150000000000 Fe
   0.8000260000000000    0.0000040000000000    0.0000150000000000 Fe
   0.0000260000000000    0.2000040000000000    0.0000150000000000 Fe
   0.2000260000000000    0.2000040000000000    0.0000150000000000 Fe
   0.4000260000000000    0.2000040000000000    0.0000150000000000 Fe
   0.6000260000000001    0.2000040000000000    0.0000150000000000 Fe
   0.8000260000000000    0.2000040000000000    0.0000150000000000 Fe
   0.0000260000000000    0.4000040000000000    0.0000150000000000 Fe
   0.2000260000000000    0.4000040000000000    0.0000150000000000 Fe
   0.4000260000000000    0.4000040000000000    0.0000150000000000 Fe
   0.6000260000000001    0.4000040000000000    0.0000150000000000 Fe
   0.8000260000000000    0.4000040000000000    0.0000150000000000 Fe
   0.0000260000000000    0.6000040000000001    0.0000150000000000 Fe
   0.2000260000000000    0.6000040000000001    0.0000150000000000 Fe
   0.4000260000000000    0.6000040000000001    0.0000150000000000 Fe
   0.6000260000000001    0.6000040000000001    0.0000150000000000 Fe
   0.8000260000000000    0.6000040000000001    0.0000150000000000 Fe
   0.0000260000000000    0.8000040000000000    0.0000150000000000 Fe
   0.2000260000000000    0.8000040000000000    0.0000150000000000 Fe
   0.4000260000000000    0.8000040000000000    0.0000150000000000 Fe
   0.6000260000000001    0.8000040000000000    0.0000150000000000 Fe
   0.8000260000000000    0.8000040000000000    0.0000150000000000 Fe
   0.0000260000000000    0.0000040000000000    0.2500150000000000 Fe
   0.2000260000000000    0.0000040000000000    0.2500150000000000 Fe
   0.4000260000000000    0.0000040000000000    0.2500150000000000 Fe
   0.6000260000000001    0.0000040000000000    0.2500150000000000 Fe
   0.8000260000000000    0.0000040000000000    0.2500150000000000 Fe
   0.0000260000000000    0.2000040000000000    0.2500150000000000 Fe
   0.2000260000000000    0.2000040000000000    0.2500150000000000 Fe
   0.4000260000000000    0.2000040000000000    0.2500150000000000 Fe
   0.6000260000000001    0.2000040000000000    0.2500150000000000 Fe
   0.8000260000000000    0.2000040000000000    0.2500150000000000 Fe
   0.0000260000000000    0.4000040000000000    0.2500150000000000 Fe
   0.2000260000000000    0.4000040000000000    0.2500150000000000 Fe
   0.4000260000000000    0.4000040000000000    0.2500150000000000 Fe
   0.6000260000000001    0.4000040000000000    0.2500150000000000 Fe
   0.8000260000000000    0.4000040000000000    0.2500150000000000 Fe
   0.0000260000000000    0.6000040000000001    0.2500150000000000 Fe
   0.2000260000000000    0.6000040000000001    0.2500150000000000 Fe
   0.4000260000000000    0.6000040000000001    0.2500150000000000 Fe
   0.6000260000000001    0.6000040000000001    0.2500150000000000 Fe
   0.8000260000000000    0.6000040000000001    0.2500150000000000 Fe
   0.0000260000000000    0.8000040000000000    0.2500150000000000 Fe
   0.2000260000000000    0.8000040000000000    0.2500150000000000 Fe
   0.4000260000000000    0.8000040000000000    0.2500150000000000 Fe
   0.6000260000000001    0.8000040000000000    0.2500150000000000 Fe
   0.8000260000000000    0.8000040000000000    0.2500150000000000 Fe
   0.0000260000000000    0.0000040000000000    0.5000150000000000 Fe
   0.2000260000000000    0.0000040000000000    0.5000150000000000 Fe
   0.4000260000000000    0.0000040000000000    0.5000150000000000 Fe
   0.6000260000000001    0.0000040000000000    0.5000150000000000 Fe
   0.8000260000000000    0.0000040000000000    0.5000150000000000 Fe
   0.0000260000000000    0.2000040000000000    0.5000150000000000 Fe
   0.2000260000000000    0.2000040000000000    0.5000150000000000 Fe
   0.4000260000000000    0.2000040000000000    0.5000150000000000 Fe
   0.6000260000000001    0.2000040000000000    0.5000150000000000 Fe
   0.8000260000000000    0.2000040000000000    0.5000150000000000 Fe
   0.0000260000000000    0.4000040000000000    0.5000150000000000 Fe
   0.2000260000000000    0.4000040000000000    0.5000150000000000 Fe
   0.4000260000000000    0.4000040000000000    0.5000150000000000 Fe
   0.6000260000000001    0.4000040000000000    0.5000150000000000 Fe
   0.8000260000000000    0.4000040000000000    0.5000150000000000 Fe
   0.0000260000000000    0.6000040000000001    0.5000150000000000 Fe
   0.2000260000000000    0.6000040000000001    0.5000150000000000 Fe
   0.4000260000000000    0.6000040000000001    0.5000150000000000 Fe
   0.6000260000000001    0.6000040000000001    0.5000150000000000 Fe
   0.8000260000000000    0.6000040000000001    0.5000150000000000 Fe
   0.0000260000000000    0.8000040000000000    0.5000150000000000 Fe
   0.2000260000000000    0.8000040000000000    0.5000150000000000 Fe
   0.4000260000000000    0.8000040000000000    0.5000150000000000 Fe
   0.6000260000000001    0.8000040000000000    0.5000150000000000 Fe
   0.8000260000000000    0.8000040000000000    0.5000150000000000 Fe
   0.0000260000000000    0.0000040000000000    0.7500150000000000 Fe
   0.2000260000000000    0.0000040000000000    0.7500150000000000 Fe
   0.4000260000000000    0.0000040000000000    0.7500150000000000 Fe
   0.6000260000000001    0.0000040000000000    0.7500150000000000 Fe
   0.8000260000000000    0.0000040000000000    0.7500150000000000 Fe
   0.0000260000000000    0.2000040000000000    0.7500150000000000 Fe
   0.2000260000000000    0.2000040000000000    0.7500150000000000 Fe
   0.4000260000000000    0.2000040000000000    0.7500150000000000 Fe
   0.6000260000000001    0.2000040000000000    0.7500150000000000 Fe
   0.8000260000000000    0.2000040000000000    0.7500150000000000 Fe
   0.0000260000000000    0.4000040000000000    0.7500150000000000 Fe
   0.2000260000000000    0.4000040000000000    0.7500150000000000 Fe
   0.4000260000000000    0.4000040000000000    0.7500150000000000 Fe
   0.6000260000000001    0.4000040000000000    0.7500150000000000 Fe
   0.8000260000000000    0.4000040000000000    0.7500150000000000 Fe
   0.0000260000000000    0.6000040000000001    0.7500150000000000 Fe
   0.2000260000000000    0.6000040000000001    0.7500150000000000 Fe
   0.4000260000000000    0.6000040000000001    0.7500150000000000 Fe
   0.6000260000000001    0.6000040000000001    0.7500150000000000 Fe
   0.8000260000000000    0.6000040000000001    0.7500150000000000 Fe
   0.0000260000000000    0.8000040000000000    0.7500150000000000 Fe
   0.2000260000000000    0.8000040000000000    0.7500150000000000 Fe
   0.4000260000000000    0.8000040000000000    0.7500150000000000 Fe
   0.6000260000000001    0.8000040000000000    0.7500150000000000 Fe
   0.8000260000000000    0.8000040000000000    0.7500150000000000 Fe
   0.1994140000000000    0.1000080000000000    0.1250325000000000 Ni
   0.3994140000000000    0.1000080000000000    0.1250325000000000 Ni
   0.5994140000000000    0.1000080000000000    0.1250325000000000 Ni
   0.7994140000000001    0.1000080000000000    0.1250325000000000 Ni
   0.9994140000000000    0.1000080000000000    0.1250325000000000 Ni
   0.1994140000000000    0.3000080000000001    0.1250325000000000 Ni
   0.3994140000000000    0.3000080000000001    0.1250325000000000 Ni
   0.5994140000000000    0.3000080000000001    0.1250325000000000 Ni
   0.7994140000000001    0.3000080000000001    0.1250325000000000 Ni
   0.9994140000000000    0.3000080000000001    0.1250325000000000 Ni
   0.1994140000000000    0.5000080000000000    0.1250325000000000 Ni
   0.3994140000000000    0.5000080000000000    0.1250325000000000 Ni
   0.5994140000000000    0.5000080000000000    0.1250325000000000 Ni
   0.7994140000000001    0.5000080000000000    0.1250325000000000 Ni
   0.9994140000000000    0.5000080000000000    0.1250325000000000 Ni
   0.1994140000000000    0.7000080000000001    0.1250325000000000 Ni
   0.3994140000000000    0.7000080000000001    0.1250325000000000 Ni
   0.5994140000000000    0.7000080000000001    0.1250325000000000 Ni
   0.7994140000000001    0.7000080000000001    0.1250325000000000 Ni
   0.9994140000000000    0.7000080000000001    0.1250325000000000 Ni
   0.1994140000000000    0.9000080000000000    0.1250325000000000 Ni
   0.3994140000000000    0.9000080000000000    0.1250325000000000 Ni
   0.5994140000000000    0.9000080000000000    0.1250325000000000 Ni
   0.7994140000000001    0.9000080000000000    0.1250325000000000 Ni
   0.9994140000000000    0.9000080000000000    0.1250325000000000 Ni
   0.1994140000000000    0.1000080000000000    0.3750325000000000 Ni
   0.3994140000000000    0.1000080000000000    0.3750325000000000 Ni
   0.5994140000000000    0.1000080000000000    0.3750325000000000 Ni
   0.7994140000000001    0.1000080000000000    0.3750325000000000 Ni
   0.9994140000000000    0.1000080000000000    0.3750325000000000 Ni
   0.1994140000000000    0.3000080000000001    0.3750325000000000 Ni
   0.3994140000000000    0.3000080000000001    0.3750325000000000 Ni
   0.5994140000000000    0.3000080000000001    0.3750325000000000 Ni
   0.7994140000000001    0.3000080000000001    0.3750325000000000 Ni
   0.9994140000000000    0.3000080000000001    0.3750325000000000 Ni
   0.1994140000000000    0.5000080000000000    0.3750325000000000 Ni
   0.3994140000000000    0.5000080000000000    0.3750325000000000 Ni
   0.5994140000000000    0.5000080000000000    0.3750325000000000 Ni
   0.7994140000000001    0.5000080000000000    0.3750325000000000 Ni
   0.9994140000000000    0.5000080000000000    0.3750325000000000 Ni
   0.1994140000000000    0.7000080000000001    0.3750325000000000 Ni
   0.3994140000000000    0.7000080000000001    0.3750325000000000 Ni
   0.5994140000000000    0.7000080000000001    0.3750325000000000 Ni
   0.7994140000000001    0.7000080000000001    0.3750325000000000 Ni
   0.9994140000000000    0.7000080000000001    0.3750325000000000 Ni
   0.1994140000000000    0.9000080000000000    0.3750325000000000 Ni
   0.3994140000000000    0.9000080000000000    0.3750325000000000 Ni
   0.5994140000000000    0.9000080000000000    0.3750325000000000 Ni
   0.7994140000000001    0.9000080000000000    0.3750325000000000 Ni
   0.9994140000000000    0.9000080000000000    0.3750325000000000 Ni
   0.1994140000000000    0.1000080000000000    0.6250325000000000 Ni
   0.3994140000000000    0.1000080000000000    0.6250325000000000 Ni
   0.5994140000000000    0.1000080000000000    0.6250325000000000 Ni
   0.7994140000000001    0.1000080000000000    0.6250325000000000 Ni
   0.9994140000000000    0.1000080000000000    0.6250325000000000 Ni
   0.1994140000000000    0.3000080000000001    0.6250325000000000 Ni
   0.3994140000000000    0.3000080000000001    0.6250325000000000 Ni
   0.5994140000000000    0.3000080000000001    0.6250325000000000 Ni
   0.7994140000000001    0.3000080000000001    0.6250325000000000 Ni
   0.9994140000000000    0.3000080000000001    0.6250325000000000 Ni
   0.1994140000000000    0.5000080000000000    0.6250325000000000 Ni
   0.3994140000000000    0.5000080000000000    0.6250325000000000 Ni
   0.5994140000000000    0.5000080000000000    0.6250325000000000 Ni
   0.7994140000000001    0.5000080000000000    0.6250325000000000 Ni
   0.9994140000000000    0.5000080000000000    0.6250325000000000 Ni
   0.1994140000000000    0.7000080000000001    0.6250325000000000 Ni
   0.3994140000000000    0.7000080000000001    0.6250325000000000 Ni
   0.5994140000000000    0.7000080000000001    0.6250325000000000 Ni
   0.7994140000000001    0.7000080000000001    0.6250325000000000 Ni
   0.9994140000000000    0.7000080000000001    0.6250325000000000 Ni
   0.1994140000000000    0.9000080000000000    0.6250325000000000 Ni
   0.3994140000000000    0.9000080000000000    0.6250325000000000 Ni
   0.5994140000000000    0.9000080000000000    0.6250325000000000 Ni
   0.7994140000000001    0.9000080000000000    0.6250325000000000 Ni
   0.9994140000000000    0.9000080000000000    0.6250325000000000 Ni
   0.1994140000000000    0.1000080000000000    0.8750325000000000 Ni
   0.3994140000000000    0.1000080000000000    0.8750325000000000 Ni
   0.5994140000000000    0.1000080000000000    0.8750325000000000 Ni
   0.7994140000000001    0.1000080000000000    0.8750325000000000 Ni
   0.9994140000000000    0.1000080000000000    0.8750325000000000 Ni
   0.1994140000000000    0.3000080000000001    0.8750325000000000 Ni
   0.3994140000000000    0.3000080000000001    0.8750325000000000 Ni
   0.5994140000000000    0.3000080000000001    0.8750325000000000 Ni
   0.7994140000000001    0.3000080000000001    0.8750325000000000 Ni
   0.9994140000000000    0.3000080000000001    0.8750325000000000 Ni
   0.1994140000000000    0.5000080000000000    0.8750325000000000 Ni
   0.3994140000000000    0.5000080000000000    0.8750325000000000 Ni
   0.5994140000000000    0.5000080000000000    0.8750325000000000 Ni
   0.7994140000000001    0.5000080000000000    0.8750325000000000 Ni
   0.9994140000000000    0.5000080000000000    0.8750325000000000 Ni
   0.1994140000000000    0.7000080000000001    0.8750325000000000 Ni
   0.3994140000000000    0.7000080000000001    0.8750325000000000 Ni
   0.5994140000000000    0.7000080000000001    0.8750325000000000 Ni
   0.7994140000000001    0.7000080000000001    0.8750325000000000 Ni
   0.9994140000000000    0.7000080000000001    0.8750325000000000 Ni
   0.1994140000000000    0.9000080000000000    0.8750325000000000 Ni
   0.3994140000000000    0.9000080000000000    0.8750325000000000 Ni
   0.5994140000000000    0.9000080000000000    0.8750325000000000 Ni
   0.7994140000000001    0.9000080000000000    0.8750325000000000 Ni
   0.9994140000000000    0.9000080000000000    0.8750325000000000 Ni
   0.1372680000000000    0.1401240000000000    0.2498850000000000 H
   0.1372960000000000    0.0598860000000000    0.2498750000000000 H
   0.0627280000000000    0.1401240000000000    0.2498300000000000 H
   0.0627560000000000    0.0598860000000000    0.2498050000000000 H
   0.3372680000000000    0.1401240000000000    0.2498850000000000 H
   0.3372960000000000    0.0598860000000000    0.2498750000000000 H
   0.2627280000000000    0.1401240000000000    0.2498300000000000 H
   0.2627560000000000    0.0598860000000000    0.2498050000000000 H
   0.5372680000000001    0.1401240000000000    0.2498850000000000 H
   0.5372960000000000    0.0598860000000000    0.2498750000000000 H
   0.4627280000000000    0.1401240000000000    0.2498300000000000 H
   0.4627560000000001    0.0598860000000000    0.2498050000000000 H
   0.7372680000000000    0.1401240000000000    0.2498850000000000 H
   0.7372960000000001    0.0598860000000000    0.2498750000000000 H
   0.6627280000000001    0.1401240000000000    0.2498300000000000 H
   0.6627560000000001    0.0598860000000000    0.2498050000000000 H
   0.9372680000000000    0.1401240000000000    0.2498850000000000 H
   0.9372960000000000    0.0598860000000000    0.2498750000000000 H
   0.8627280000000001    0.1401240000000000    0.2498300000000000 H
   0.8627560000000001    0.0598860000000000    0.2498050000000000 H
   0.1372680000000000    0.3401240000000000    0.2498850000000000 H
   0.1372960000000000    0.2598860000000000    0.2498750000000000 H
   0.0627280000000000    0.3401240000000000    0.2498300000000000 H
   0.0627560000000000    0.2598860000000000    0.2498050000000000 H
   0.3372680000000000    0.3401240000000000    0.2498850000000000 H
   0.3372960000000000    0.2598860000000000    0.2498750000000000 H
   0.2627280000000000    0.3401240000000000    0.2498300000000000 H
   0.2627560000000000    0.2598860000000000    0.2498050000000000 H
   0.5372680000000001    0.3401240000000000    0.2498850000000000 H
   0.5372960000000000    0.2598860000000000    0.2498750000000000 H
   0.4627280000000000    0.3401240000000000    0.2498300000000000 H
   0.4627560000000001    0.2598860000000000    0.2498050000000000 H
   0.7372680000000000    0.3401240000000000    0.2498850000000000 H
   0.7372960000000001    0.2598860000000000    0.2498750000000000 H
   0.6627280000000001    0.3401240000000000    0.2498300000000000 H
   0.6627560000000001    0.2598860000000000    0.2498050000000000 H
   0.9372680000000000    0.3401240000000000    0.2498850000000000 H
   0.9372960000000000    0.2598860000000000    0.2498750000000000 H
   0.8627280000000001    0.3401240000000000    0.2498300000000000 H
   0.8627560000000001    0.2598860000000000    0.2498050000000000 H
   0.1372680000000000    0.5401240000000000    0.2498850000000000 H
   0.1372960000000000    0.4598860000000000    0.2498750000000000 H
   0.0627280000000000    0.5401240000000000    0.2498300000000000 H
   0.0627560000000000    0.4598860000000000    0.2498050000000000 H
   0.3372680000000000    0.5401240000000000    0.2498850000000000 H
   0.3372960000000000    0.4598860000000000    0.2498750000000000 H
   0.2627280000000000    0.5401240000000000    0.2498300000000000 H
   0.2627560000000000    0.4598860000000000    0.2498050000000000 H
   0.5372680000000001    0.5401240000000000    0.2498850000000000 H
   0.5372960000000000    0.4598860000000000    0.2498750000000000 H
   0.4627280000000000    0.5401240000000000    0.2498300000000000 H
   0.4627560000000001    0.4598860000000000    0.2498050000000000 H
   0.7372680000000000    0.5401240000000000    0.2498850000000000 H
   0.7372960000000001    0.4598860000000000    0.2498750000000000 H
   0.6627280000000001    0.5401240000000000    0.2498300000000000 H
   0.6627560000000001    0.4598860000000000    0.2498050000000000 H
   0.9372680000000000    0.5401240000000000    0.2498850000000000 H
   0.9372960000000000    0.4598860000000000    0.2498750000000000 H
   0.8627280000000001    0.5401240000000000    0.2498300000000000 H
   0.8627560000000001    0.4598860000000000    0.2498050000000000 H
   0.1372680000000000    0.7401240000000001    0.2498850000000000 H
   0.1372960000000000    0.6598860000000001    0.2498750000000000 H
   0.0627280000000000    0.7401240000000001    0.2498300000000000 H
   0.0627560000000000    0.6598860000000001    0.2498050000000000 H
   0.3372680000000000    0.7401240000000001    0.2498850000000000 H
   0.3372960000000000    0.6598860000000001    0.2498750000000000 H
   0.2627280000000000    0.7401240000000001    0.2498300000000000 H
   0.2627560000000000    0.6598860000000001    0.2498050000000000 H
   0.5372680000000001    0.7401240000000001    0.2498850000000000 H
   0.5372960000000000    0.6598860000000001    0.2498750000000000 H
   0.4627280000000000    0.7401240000000001    0.2498300000000000 H
   0.4627560000000001    0.6598860000000001    0.2498050000000000 H
   0.7372680000000000    0.7401240000000001    0.2498850000000000 H
   0.7372960000000001    0.6598860000000001    0.2498750000000000 H
   0.6627280000000001    0.7401240000000001    0.2498300000000000 H
   0.6627560000000001    0.6598860000000001    0.2498050000000000 H
   0.9372680000000000    0.7401240000000001    0.2498850000000000 H
   0.9372960000000000    0.6598860000000001    0.2498750000000000 H
   0.8627280000000001    0.7401240000000001    0.2498300000000000 H
   0.8627560000000001    0.6598860000000001    0.2498050000000000 H
   0.1372680000000000    0.9401240000000001    0.2498850000000000 H
   0.1372960000000000    0.8598860000000000    0.2498750000000000 H
   0.0627280000000000    0.9401240000000001    0.2498300000000000 H
   0.0627560000000000    0.8598860000000000    0.2498050000000000 H
   0.3372680000000000    0.9401240000000001    0.2498850000000000 H
   0.3372960000000000    0.8598860000000000    0.2498750000000000 H
   0.2627280000000000    0.9401240000000001    0.2498300000000000 H
   0.2627560000000000    0.8598860000000000    0.2498050000000000 H
   0.5372680000000001    0.9401240000000001    0.2498850000000000 H
   0.5372960000000000    0.8598860000000000    0.2498750000000000 H
   0.4627280000000000    0.9401240000000001    0.2498300000000000 H
   0.4627560000000001    0.8598860000000000    0.2498050000000000 H
   0.7372680000000000    0.9401240000000001    0.2498850000000000 H
   0.7372960000000001    0.8598860000000000    0.2498750000000000 H
   0.6627280000000001    0.9401240000000001    0.2498300000000000 H
   0.6627560000000001    0.8598860000000000    0.2498050000000000 H
   0.9372680000000000    0.9401240000000001    0.2498850000000000 H
   0.9372960000000000    0.8598860000000000    0.2498750000000000 H
   0.8627280000000001    0.9401240000000001    0.2498300000000000 H
   0.8627560000000001    0.8598860000000000    0.2498050000000000 H
   0.1372680000000000    0.1401240000000000    0.4998850000000000 H
   0.1372960000000000    0.0598860000000000    0.4998750000000000 H
   0.0627280000000000    0.1401240000000000    0.4998300000000000 H
   0.0627560000000000    0.0598860000000000    0.4998050000000000 H
   0.3372680000000000    0.1401240000000000    0.4998850000000000 H
   0.3372960000000000    0.0598860000000000    0.4998750000000000 H
   0.2627280000000000    0.1401240000000000    0.4998300000000000 H
   0.2627560000000000    0.0598860000000000    0.4998050000000000 H
   0.5372680000000001    0.1401240000000000    0.4998850000000000 H
   0.5372960000000000    0.0598860000000000    0.4998750000000000 H
   0.4627280000000000    0.1401240000000000    0.4998300000000000 H
   0.4627560000000001    0.0598860000000000    0.4998050000000000 H
   0.7372680000000000    0.1401240000000000    0.4998850000000000 H
   0.7372960000000001    0.0598860000000000    0.4998750000000000 H
   0.6627280000000001    0.1401240000000000    0.4998300000000000 H
   0.6627560000000001    0.0598860000000000    0.4998050000000000 H
   0.9372680000000000    0.1401240000000000    0.4998850000000000 H
   0.9372960000000000    0.0598860000000000    0.4998750000000000 H
   0.8627280000000001    0.1401240000000000    0.4998300000000000 H
   0.8627560000000001    0.0598860000000000    0.4998050000000000 H
   0.1372680000000000    0.3401240000000000    0.4998850000000000 H
   0.1372960000000000    0.2598860000000000    0.4998750000000000 H
   0.0627280000000000    0.3401240000000000    0.4998300000000000 H
   0.0627560000000000    0.2598860000000000    0.4998050000000000 H
   0.3372680000000000    0.3401240000000000    0.4998850000000000 H
   0.3372960000000000    0.2598860000000000    0.4998750000000000 H
   0.2627280000000000    0.3401240000000000    0.4998300000000000 H
   0.2627560000000000    0.2598860000000000    0.4998050000000000 H
   0.5372680000000001    0.3401240000000000    0.4998850000000000 H
   0.5372960000000000    0.2598860000000000    0.4998750000000000 H
   0.4627280000000000    0.3401240000000000    0.4998300000000000 H
   0.4627560000000001    0.2598860000000000    0.4998050000000000 H
   0.7372680000000000    0.3401240000000000    0.4998850000000000 H
   0.7372960000000001    0.2598860000000000    0.4998750000000000 H
   0.6627280000000001    0.3401240000000000    0.4998300000000000 H
   0.6627560000000001    0.2598860000000000    0.4998050000000000 H
   0.9372680000000000    0.3401240000000000    0.4998850000000000 H
   0.9372960000000000    0.2598860000000000    0.4998750000000000 H
   0.8627280000000001    0.3401240000000000    0.4998300000000000 H
   0.8627560000000001    0.2598860000000000    0.4998050000000000 H
   0.1372680000000000    0.5401240000000000    0.4998850000000000 H
   0.1372960000000000    0.4598860000000000    0.4998750000000000 H
   0.0627280000000000    0.5401240000000000    0.4998300000000000 H
   0.0627560000000000    0.4598860000000000    0.4998050000000000 H
   0.3372680000000000    0.5401240000000000    0.4998850000000000 H
   0.3372960000000000    0.4598860000000000    0.4998750000000000 H
   0.2627280000000000    0.5401240000000000    0.4998300000000000 H
   0.2627560000000000    0.4598860000000000    0.4998050000000000 H
   0.5372680000000001    0.5401240000000000    0.4998850000000000 H
   0.5372960000000000    0.4598860000000000    0.4998750000000000 H
   0.4627280000000000    0.5401240000000000    0.4998300000000000 H
   0.4627560000000001    0.4598860000000000    0.4998050000000000 H
   0.7372680000000000    0.5401240000000000    0.4998850000000000 H
   0.7372960000000001    0.4598860000000000    0.4998750000000000 H
   0.6627280000000001    0.5401240000000000    0.4998300000000000 H
   0.6627560000000001    0.4598860000000000    0.4998050000000000 H
   0.9372680000000000    0.5401240000000000    0.4998850000000000 H
   0.9372960000000000    0.4598860000000000    0.4998750000000000 H
   0.8627280000000001    0.5401240000000000    0.4998300000000000 H
   0.8627560000000001    0.4598860000000000    0.4998050000000000 H
   0.1372680000000000    0.7401240000000001    0.4998850000000000 H
   0.1372960000000000    0.6598860000000001    0.4998750000000000 H
   0.0627280000000000    0.7401240000000001    0.4998300000000000 H
   0.0627560000000000    0.6598860000000001    0.4998050000000000 H
   0.3372680000000000    0.7401240000000001    0.4998850000000000 H
   0.3372960000000000    0.6598860000000001    0.4998750000000000 H
   0.2627280000000000    0.7401240000000001    0.4998300000000000 H
   0.2627560000000000    0.6598860000000001    0.4998050000000000 H
   0.5372680000000001    0.7401240000000001    0.4998850000000000 H
   0.5372960000000000    0.6598860000000001    0.4998750000000000 H
   0.4627280000000000    0.7401240000000001    0.4998300000000000 H
   0.4627560000000001    0.6598860000000001    0.4998050000000000 H
   0.7372680000000000    0.7401240000000001    0.4998850000000000 H
   0.7372960000000001    0.6598860000000001    0.4998750000000000 H
   0.6627280000000001    0.7401240000000001    0.4998300000000000 H
   0.6627560000000001    0.6598860000000001    0.4998050000000000 H
   0.9372680000000000    0.7401240000000001    0.4998850000000000 H
   0.9372960000000000    0.6598860000000001    0.4998750000000000 H
   0.8627280000000001    0.7401240000000001    0.4998300000000000 H
   0.8627560000000001    0.6598860000000001    0.4998050000000000 H
   0.1372680000000000    0.9401240000000001    0.4998850000000000 H
   0.1372960000000000    0.8598860000000000    0.4998750000000000 H
   0.0627280000000000    0.9401240000000001    0.4998300000000000 H
   0.0627560000000000    0.8598860000000000    0.4998050000000000 H
   0.3372680000000000    0.9401240000000001    0.4998850000000000 H
   0.3372960000000000    0.8598860000000000    0.4998750000000000 H
   0.2627280000000000    0.9401240000000001    0.4998300000000000 H
   0.2627560000000000    0.8598860000000000    0.4998050000000000 H
   0.5372680000000001    0.9401240000000001    0.4998850000000000 H
   0.5372960000000000    0.8598860000000000    0.4998750000000000 H
   0.4627280000000000    0.9401240000000001    0.4998300000000000 H
   0.4627560000000001    0.8598860000000000    0.4998050000000000 H
   0.7372680000000000    0.9401240000000001    0.4998850000000000 H
   0.7372960000000001    0.8598860000000000    0.4998750000000000 H
   0.6627280000000001    0.9401240000000001    0.4998300000000000 H
   0.6627560000000001    0.8598860000000000    0.4998050000000000 H
   0.9372680000000000    0.9401240000000001    0.4998850000000000 H
   0.9372960000000000    0.8598860000000000    0.4998750000000000 H
   0.8627280000000001    0.9401240000000001    0.4998300000000000 H
   0.8627560000000001    0.8598860000000000    0.4998050000000000 H
   0.1372680000000000    0.1401240000000000    0.7498850000000000 H
   0.1372960000000000    0.0598860000000000    0.7498750000000001 H
   0.0627280000000000    0.1401240000000000    0.7498300000000000 H
   0.0627560000000000    0.0598860000000000    0.7498050000000001 H
   0.3372680000000000    0.1401240000000000    0.7498850000000000 H
   0.3372960000000000    0.0598860000000000    0.7498750000000001 H
   0.2627280000000000    0.1401240000000000    0.7498300000000000 H
   0.2627560000000000    0.0598860000000000    0.7498050000000001 H
   0.5372680000000001    0.1401240000000000    0.7498850000000000 H
   0.5372960000000000    0.0598860000000000    0.7498750000000001 H
   0.4627280000000000    0.1401240000000000    0.7498300000000000 H
   0.4627560000000001    0.0598860000000000    0.7498050000000001 H
   0.7372680000000000    0.1401240000000000    0.7498850000000000 H
   0.7372960000000001    0.0598860000000000    0.7498750000000001 H
   0.6627280000000001    0.1401240000000000    0.7498300000000000 H
   0.6627560000000001    0.0598860000000000    0.7498050000000001 H
   0.9372680000000000    0.1401240000000000    0.7498850000000000 H
   0.9372960000000000    0.0598860000000000    0.7498750000000001 H
   0.8627280000000001    0.1401240000000000    0.7498300000000000 H
   0.8627560000000001    0.0598860000000000    0.7498050000000001 H
   0.1372680000000000    0.3401240000000000    0.7498850000000000 H
   0.1372960000000000    0.2598860000000000    0.7498750000000001 H
   0.0627280000000000    0.3401240000000000    0.7498300000000000 H
   0.0627560000000000    0.2598860000000000    0.7498050000000001 H
   0.3372680000000000    0.3401240000000000    0.7498850000000000 H
   0.3372960000000000    0.2598860000000000    0.7498750000000001 H
   0.2627280000000000    0.3401240000000000    0.7498300000000000 H
   0.2627560000000000    0.2598860000000000    0.7498050000000001 H
   0.5372680000000001    0.3401240000000000    0.7498850000000000 H
   0.5372960000000000    0.2598860000000000    0.7498750000000001 H
   0.4627280000000000    0.3401240000000000    0.7498300000000000 H
   0.4627560000000001    0.2598860000000000    0.7498050000000001 H
   0.7372680000000000    0.3401240000000000    0.7498850000000000 H
   0.7372960000000001    0.2598860000000000    0.7498750000000001 H