H6 O4
1.0
  29.9422081633795720    0.0000000000000000   -6.6786117046019120
  -8.1423505772144953   28.7891864402273185   -6.4696963752224308
   0.0000000000000000    0.0000000000000000   30.6679999999999993
H O
6 4
direct
   0.3176455960660592    0.0874158798425888    0.9937108952264878 H
   0.2372369634027566    0.1015981351795471    0.0160952701976718 H
   0.2636886139736214    0.1682970648532784    1.0027772698462600 H
   0.4126829526242003    0.1825173561420459    0.0065415526370207 H
   0.3984378262077874    0.2630138890285589    0.9835570908957139 H
   0.3315387388600309    0.2364203301052784    0.9971866052665569 H
   0.3128050000000000    0.0563100000000000    0.9977250000000000 O
   0.2491000000000000    0.0745500000000000    0.0148750000000000 O
   0.4436750000000000    0.1873900000000000    0.0024650000000000 O
   0.4254800000000000    0.2511900000000000    0.9848300000000000 O
