H6 O4
1.0
  29.9422081633795720    0.0000000000000000   -6.6786117046019120
  -8.1423505772144953   28.7891864402273185   -6.4696963752224308
   0.0000000000000000    0.0000000000000000   30.6679999999999993
H O
6 4
direct
   0.6823202775218267    0.9125502773452523    0.0062621004067893 H
   0.7627220287636105    0.8983660918830055    0.9838523426351116 H
   0.7362727779433635    0.8316634474221036    0.9971827883952876 H
   0.5873314456402415    0.8174771887809521    0.9935418397493706 H
   0.6015316432179619    0.7368893695830134    0.0163282089876236 H
   0.6684455695585594    0.7635307341457216    1.0027918078392948 H
   0.6871600000000000    0.9436550000000000    0.0022450000000000 O
   0.7508600000000001    0.9254150000000000    0.9850749999999999 O
   0.5563300000000000    0.8125899999999999    0.9975950000000000 O
   0.5744950000000000    0.7487200000000001    0.0150750000000000 O
