H6 O4
1.0
  11.1707573711239725    0.0000000000000000   -3.2287093017921968
  -4.1392704667194566   12.2525976893914930   -1.3387657992578004
   0.0000000000000000    0.0000000000000000   26.0060000000000002
H O
6 4
direct
   0.0496364828039994    0.8991703078062390    0.5768728494849400 H
   0.4149765306906963    1.0296072291148002    0.6439317576171402 H
   0.2316176978117741    0.9795842997850722    0.6106429154539084 H
   0.4507452893523737    0.6637910869953784    0.6396872368144590 H
   0.0851071575884725    0.5346228212839702    0.5753738112592939 H
   0.2688733056898125    0.5838110882921732    0.6072989092724563 H
   0.1306200000000000    0.8875900000000000    0.5907750000000001 O
   0.3426300000000000    0.9637100000000000    0.6297000000000000 O
   0.3699100000000000    0.6759700000000000    0.6265000000000001 O
   0.1574400000000000    0.6006000000000000    0.5891200000000000 O
