H6 C12 O4
1.0
  11.1707573711239725    0.0000000000000000   -3.2287093017921968
  -4.1392704667194566   12.2525976893914930   -1.3387657992578004
   0.0000000000000000    0.0000000000000000   26.0060000000000002
H C O
6 12 4
direct
   0.4087300000000000    0.1674300000000000    0.6552850000000000 H
   0.5018200000000000    0.3691500000000000    0.6747900000000000 H
   0.4777200000000000    0.5506500000000000    0.6635000000000000 H
   0.0904600000000000    0.3968800000000000    0.5628850000000000 H
   0.9999100000000000    0.1944000000000000    0.5404900000000000 H
   0.0237500000000000    0.0134100000000000    0.5516650000000000 H
   0.2183000000000000    0.0794100000000000    0.6047100000000000 C
   0.3193600000000000    0.1736300000000000    0.6306100000000000 C
   0.3086900000000000    0.2779700000000000    0.6253250000000000 C
   0.4117900000000000    0.3754000000000000    0.6505500000000000 C
   0.3988900000000000    0.4758800000000000    0.6444449999999999 C
   0.2812800000000000    0.4842900000000000    0.6132950000000000 C
   0.1795000000000000    0.3903800000000000    0.5878050000000000 C
   0.1904600000000000    0.2860200000000000    0.5927850000000000 C
   0.0883800000000000    0.1883200000000000    0.5663700000000000 C
   0.1016300000000000    0.0879700000000000    0.5723700000000000 C
   0.2317600000000000    0.9701500000000000    0.6089700000000000 C
   0.2685500000000000    0.5939300000000000    0.6091299999999999 C
   0.1306200000000000    0.8875900000000000    0.5907750000000001 O
   0.3426300000000000    0.9637100000000000    0.6297000000000000 O
   0.1574400000000000    0.6006000000000000    0.5891200000000000 O
   0.3699100000000000    0.6759700000000000    0.6265000000000001 O
