H3 C7 N1 O4
1.0
  18.9854776070125055    0.0000000000000000   -0.0291596232277010
  -1.3653142299862207   13.5328009312392687   -0.0042730371774916
   0.0000000000000000    0.0000000000000000   14.6660000000000004
H C N O
3 7 1 4
direct
   0.2206333333333333    0.6264200000000000    0.2002700000000000 H
   0.1808766666666666    0.7344200000000000    0.3241700000000000 H
   0.4329433333333333    0.7627000000000000    0.2474800000000000 H
   0.2588266666666666    0.6783900000000000    0.2354900000000000 C
   0.3309033333333333    0.6859900000000000    0.2140500000000000 C
   0.2362400000000000    0.7387300000000000    0.3041600000000000 C
   0.3495866666666667    0.8125900000000000    0.3291700000000000 C
   0.3595400000000000    0.6185900000000000    0.1449300000000000 C
   0.3766466666666666    0.7542800000000000    0.2622100000000000 C
   0.3979366666666667    0.8842500000000000    0.3854900000000000 C
   0.2798166666666667    0.8058600000000000    0.3497500000000000 N
   0.3236366666666667    0.5985800000000000    0.0725000000000000 O
   0.3673466666666667    0.9389200000000000    0.4414900000000000 O
   0.4168166666666666    0.5825700000000000    0.1637800000000000 O
   0.4636166666666666    0.8838800000000000    0.3746800000000000 O
