H8 O5
1.0
  18.9854776070125055    0.0000000000000000   -0.0291596232277010
  -1.3653142299862207   13.5328009312392687   -0.0042730371774916
   0.0000000000000000    0.0000000000000000   14.6660000000000004
H O
8 5
direct
   0.4470704972352441    0.5493241973045997    0.2044197822022758 H
   0.3504456766160465    0.5691196956852854    0.1085123761165319 H
   0.2805128802011629    0.5898408196635093    0.0365904978366495 H
   0.3302726418057509    0.8107269730928198    0.3348670421619270 H
   0.2481337925386300    0.7570524269819834    0.3166033106823868 H
   0.4364716226574389    0.9164324402109871    0.4129269984466737 H
   0.5101805827696336    0.8687319419308444    0.3554394060796864 H
   0.3383191679543282    0.9737298870639770    0.4823893515642938 H
   0.4168166666666666    0.5825700000000000    0.1637800000000000 O
   0.3236366666666667    0.5985800000000000    0.0725000000000000 O
   0.2798166666666667    0.8058600000000000    0.3497500000000000 O
   0.4636166666666666    0.8838800000000000    0.3746800000000000 O
   0.3673466666666667    0.9389200000000000    0.4414900000000000 O
