H4 O2
1.0
  13.1669992760329961    0.0000000000000000    0.0043663424695674
  -5.7359524738003502   25.8881645398010605    0.0064790809979477
   0.0000000000000000    0.0000000000000000   22.4070000000000000
H O
4 2
direct
   0.7349868516184345    0.9163459650757045    0.2141540838584531 H
   0.8278200426783342    0.9713317730876113    0.2150454063921714 H
   0.7012444490143022    0.9029198289927455    0.5699156967036395 H
   0.7972975141903913    0.9563180779207364    0.5661106273319370 H
   0.7811900000000001    0.9435950000000000    0.2367000000000000 O
   0.7475800000000000    0.9289350000000001    0.5458000000000000 O
