H6 O4
1.0
  13.1669992760329961    0.0000000000000000    0.0043663424695674
  -5.7359524738003502   25.8881645398010605    0.0064790809979477
   0.0000000000000000    0.0000000000000000   22.4070000000000000
H O
6 4
direct
   0.9366981850176902    0.4439143109181596    0.4901040080873887 H
   0.9666147696913050    0.4439635726348381    0.3131298171016009 H
   0.9629724530499492    0.4445379295557007    0.4022110262843373 H
   0.5884092886399955    0.4410826387170259    0.2971745203890079 H
   0.5476922869619457    0.4061957937383108    0.4698551472199388 H
   0.5563642470858696    0.4228491688765471    0.3839801753322890 H
   0.9082100000000000    0.4420750000000000    0.4500500000000000 O
   0.9252899999999999    0.4421050000000000    0.3492300000000000 O
   0.6150800000000000    0.4353250000000000    0.3363600000000000 O
   0.5909400000000000    0.4153850000000000    0.4347800000000000 O
