H6 C12 O4
1.0
  13.1669992760329961    0.0000000000000000    0.0043663424695674
  -5.7359524738003502   25.8881645398010605    0.0064790809979477
   0.0000000000000000    0.0000000000000000   22.4070000000000000
H C O
6 12 4
direct
   0.0967600000000000    0.4378650000000000    0.3148500000000000 H
   0.2472900000000000    0.4240350000000000    0.5169500000000000 H
   0.0616500000000000    0.4307400000000000    0.5049200000000000 H
   0.2683700000000000    0.4352900000000000    0.2685500000000000 H
   0.4552400000000000    0.4321600000000000    0.2805500000000000 H
   0.4191100000000000    0.4219200000000000    0.4707500000000000 H
   0.9593600000000000    0.4401300000000000    0.4022400000000000 C
   0.0700300000000000    0.4353350000000000    0.4088300000000000 C
   0.1311600000000000    0.4350550000000000    0.3586500000000000 C
   0.2362500000000000    0.4313650000000000    0.3635800000000000 C
   0.2791900000000000    0.4274800000000000    0.4219500000000000 C
   0.2143500000000000    0.4272450000000000    0.4727000000000000 C
   0.1123100000000000    0.4310300000000000    0.4664300000000000 C
   0.3013000000000000    0.4323500000000000    0.3128000000000000 C
   0.4042100000000000    0.4302500000000000    0.3191000000000000 C
   0.4466700000000000    0.4262250000000000    0.3766000000000000 C
   0.3847700000000000    0.4246650000000000    0.4269000000000000 C
   0.5595599999999999    0.4252600000000000    0.3831900000000000 C
   0.5909400000000000    0.4153850000000000    0.4347800000000000 O
   0.6150800000000000    0.4353250000000000    0.3363600000000000 O
   0.9252899999999999    0.4421050000000000    0.3492300000000000 O
   0.9082100000000000    0.4420750000000000    0.4500500000000000 O
