Zn8 H88 C168 N12 O46
1.0
  13.1669992760329961    0.0000000000000000    0.0043663424695674
  -5.7359524738003502   25.8881645398010605    0.0064790809979477
   0.0000000000000000    0.0000000000000000   22.4070000000000000
Zn H C N O
8 88 168 12 46
direct
   0.7731500000000000    0.4404000000000000    0.3283600000000000 Zn
   0.7468100000000000    0.4271750000000000    0.4534800000000000 Zn
   0.7731500000000000    0.9404000000000000    0.3283600000000000 Zn
   0.7468100000000000    0.9271750000000001    0.4534800000000000 Zn
   0.2268900000000000    0.5595800000000000    0.8283000000000000 Zn
   0.2531600000000000    0.5727700000000000    0.9534800000000000 Zn
   0.2268900000000000    0.0595800000000000    0.8283000000000000 Zn
   0.2531600000000000    0.0727700000000000    0.9534800000000000 Zn
   0.7365800000000000    0.0826550000000000    0.4983100000000000 H
   0.7236500000000000    0.1744250000000000    0.5114400000000000 H
   0.7753000000000000    0.1051100000000000    0.3092800000000000 H
   0.7638200000000001    0.2835850000000000    0.2781000000000000 H
   0.7726600000000000    0.1912450000000000    0.2645900000000000 H
   0.7296700000000000    0.2616350000000000    0.4672900000000000 H
   0.9012800000000000    0.5152750000000000    0.1223500000000000 H
   0.6631800000000000    0.3747550000000000    0.1199700000000000 H
   0.6679800000000000    0.3760350000000000    0.2321200000000000 H
   0.8957500000000000    0.5113100000000000    0.2335700000000000 H
   0.0279500000000000    0.4373150000000000    0.9435900000000000 H
   0.0220300000000000    0.4339500000000000    0.8322100000000000 H
   0.5196300000000000    0.4456200000000000    0.9514899999999999 H
   0.5122300000000000    0.4405400000000000    0.8395500000000000 H
   0.8792900000000000    0.5011800000000000    0.6563000000000000 H
   0.6334000000000000    0.3639150000000000    0.6662300000000000 H
   0.8669300000000000    0.4946850000000000    0.5454599999999999 H
   0.6297100000000000    0.3634450000000000    0.5544100000000000 H
   0.4552400000000000    0.4321600000000000    0.2805500000000000 H
   0.2683700000000000    0.4352900000000000    0.2685500000000000 H
   0.4191100000000000    0.4219200000000000    0.4707500000000000 H
   0.0616500000000000    0.4307400000000000    0.5049200000000000 H
   0.2472900000000000    0.4240350000000000    0.5169500000000000 H
   0.0967600000000000    0.4378650000000000    0.3148500000000000 H
   0.7012444490143022    0.9029198289927455    0.5699156967036395 H
   0.7972975141903913    0.9563180779207364    0.5661106273319370 H
   0.7365800000000000    0.5826550000000000    0.4983100000000000 H
   0.7236500000000000    0.6744250000000001    0.5114400000000000 H
   0.7753000000000000    0.6051100000000000    0.3092800000000000 H
   0.7638200000000001    0.7835850000000000    0.2781000000000000 H
   0.7726600000000000    0.6912450000000000    0.2645900000000000 H
   0.7296700000000000    0.7616350000000001    0.4672900000000000 H
   0.7349868516184345    0.9163459650757045    0.2141540838584531 H
   0.8278200426783342    0.9713317730876113    0.2150454063921714 H
   0.4552400000000000    0.9321600000000000    0.2805500000000000 H
   0.2683700000000000    0.9352900000000000    0.2685500000000000 H
   0.4191100000000000    0.9219200000000001    0.4707500000000000 H
   0.0616500000000000    0.9307400000000000    0.5049200000000000 H
   0.2472900000000000    0.9240349999999999    0.5169500000000000 H
   0.0967600000000000    0.9378649999999999    0.3148500000000000 H
   0.2633000000000000    0.9172250000000000    0.9983900000000000 H
   0.2762200000000000    0.8254500000000000    0.0115000000000000 H
   0.2247300000000000    0.8949100000000000    0.8093600000000000 H
   0.2362800000000000    0.7164650000000000    0.7781700000000000 H
   0.2274200000000000    0.8088150000000001    0.7645999999999999 H
   0.2702900000000000    0.7382700000000000    0.9672900000000000 H
   0.1205000000000000    0.4988000000000000    0.1564000000000000 H
   0.3664600000000000    0.6360399999999999    0.1661500000000000 H
   0.1328500000000000    0.5052850000000000    0.0455700000000000 H
   0.3701400000000000    0.6364900000000000    0.0543200000000000 H
   0.9719500000000000    0.5626050000000000    0.4437400000000000 H
   0.9778300000000000    0.5659900000000000    0.3323500000000000 H
   0.4876400000000000    0.5594450000000000    0.3394000000000000 H
   0.4802800000000000    0.5543200000000000    0.4513900000000000 H
   0.0986300000000000    0.4846300000000000    0.6225100000000000 H
   0.3368000000000000    0.6251300000000000    0.6198000000000000 H
   0.3321000000000000    0.6238850000000000    0.7300000000000000 H
   0.1042700000000000    0.4886350000000000    0.7337000000000000 H
   0.5449100000000000    0.5678300000000001    0.7805299999999999 H
   0.7317900000000001    0.5647000000000000    0.7685400000000000 H
   0.5807700000000000    0.5779950000000000    0.9707300000000000 H
   0.9381900000000000    0.5691750000000000    0.0000000000000000 H
   0.7525100000000000    0.5758600000000000    0.0169600000000000 H
   0.9033400000000000    0.5621250000000000    0.8148500000000000 H
   0.2633000000000000    0.4172250000000000    0.9983900000000000 H
   0.2762200000000000    0.3254500000000000    0.0115000000000000 H
   0.2247300000000000    0.3949100000000000    0.8093600000000000 H
   0.2362800000000000    0.2164650000000000    0.7781700000000000 H
   0.2274200000000000    0.3088150000000000    0.7645999999999999 H
   0.2702900000000000    0.2382700000000000    0.9672900000000000 H
   0.1205000000000000    0.9988000000000000    0.1564000000000000 H
   0.3664600000000000    0.1360400000000000    0.1661500000000000 H
   0.1328500000000000    0.0052850000000000    0.0455700000000000 H
   0.3701400000000000    0.1364900000000000    0.0543200000000000 H
   0.9719500000000000    0.0626050000000000    0.4437400000000000 H
   0.9778300000000000    0.0659900000000000    0.3323500000000000 H
   0.4876400000000000    0.0594450000000000    0.3394000000000000 H
   0.4802800000000000    0.0543200000000000    0.4513900000000000 H
   0.0986300000000000    0.9846300000000000    0.6225100000000000 H
   0.3368000000000000    0.1251300000000000    0.6198000000000000 H
   0.3321000000000000    0.1238850000000000    0.7300000000000000 H
   0.1042700000000000    0.9886349999999999    0.7337000000000000 H
   0.5449100000000000    0.0678300000000000    0.7805299999999999 H
   0.7317900000000001    0.0647000000000000    0.7685400000000000 H
   0.5807700000000000    0.0779950000000000    0.9707300000000000 H
   0.9381900000000000    0.0691750000000000    0.0000000000000000 H
   0.7525100000000000    0.0758600000000000    0.0169600000000000 H
   0.9033400000000000    0.0621250000000000    0.8148500000000000 H
   0.7453300000000000    0.3338400000000000    0.3811000000000000 C
   0.7679700000000000    0.0339950000000000    0.3962200000000000 C
   0.7423200000000000    0.1086650000000000    0.4602500000000000 C
   0.7348700000000000    0.1592800000000000    0.4672000000000000 C
   0.7641200000000000    0.1207950000000000    0.3531900000000000 C
   0.7582700000000000    0.0890550000000000    0.4027500000000000 C
   0.7560000000000000    0.1729450000000000    0.3588700000000000 C
   0.7576100000000000    0.2574750000000000    0.3161400000000000 C
   0.7625900000000000    0.2065400000000000    0.3089000000000000 C
   0.7380200000000000    0.2455850000000000    0.4232200000000000 C
   0.7459700000000000    0.2776350000000000    0.3738900000000000 C
   0.7422700000000000    0.1929600000000000    0.4172000000000000 C
   0.8482400000000000    0.4838800000000000    0.1448600000000000 C
   0.7157200000000000    0.4054550000000000    0.1437800000000000 C
   0.7175800000000000    0.4060800000000000    0.2056600000000000 C
   0.8453600000000000    0.4817650000000000    0.2069000000000000 C
   0.7820500000000000    0.4450750000000000    0.1129000000000000 C
   0.6837100000000000    0.4467150000000000    0.0212400000000000 C
   0.8745100000000000    0.4434050000000000    0.0185600000000000 C
   0.9555000000000000    0.4367800000000000    0.9200100000000000 C
   0.8673000000000000    0.4396750000000000    0.9527900000000000 C
   0.9517900000000000    0.4347150000000000    0.8574800000000000 C
   0.8594500000000000    0.4351650000000000    0.8275400000000001 C
   0.5883800000000000    0.4430100000000000    0.9256700000000000 C
   0.6810600000000000    0.4429100000000000    0.9555600000000000 C
   0.5842000000000001    0.4401100000000000    0.8632800000000000 C
   0.6728000000000000    0.4374550000000000    0.8305000000000000 C
   0.7719400000000000    0.4396000000000000    0.9234100000000000 C
   0.7678700000000001    0.4371300000000000    0.8599000000000000 C
   0.8229200000000000    0.4700100000000000    0.6356500000000000 C
   0.6861800000000000    0.3934950000000000    0.6409899999999999 C
   0.8161200000000000    0.4666850000000000    0.5738000000000000 C
   0.6837900000000000    0.3931200000000000    0.5790000000000000 C
   0.7569500000000000    0.4327150000000000    0.6698200000000000 C
   0.6665600000000000    0.4356650000000000    0.7647900000000000 C
   0.8583700000000000    0.4343400000000000    0.7616000000000001 C
   0.5595599999999999    0.4252600000000000    0.3831900000000000 C
   0.9593600000000000    0.4401300000000000    0.4022400000000000 C
   0.4042100000000000    0.4302500000000000    0.3191000000000000 C
   0.3013000000000000    0.4323500000000000    0.3128000000000000 C
   0.3847700000000000    0.4246650000000000    0.4269000000000000 C
   0.4466700000000000    0.4262250000000000    0.3766000000000000 C
   0.2791900000000000    0.4274800000000000    0.4219500000000000 C
   0.1123100000000000    0.4310300000000000    0.4664300000000000 C
   0.2143500000000000    0.4272450000000000    0.4727000000000000 C
   0.1311600000000000    0.4350550000000000    0.3586500000000000 C
   0.0700300000000000    0.4353350000000000    0.4088300000000000 C
   0.2362500000000000    0.4313650000000000    0.3635800000000000 C
   0.7453300000000000    0.8338400000000000    0.3811000000000000 C
   0.7679700000000000    0.5339950000000000    0.3962200000000000 C
   0.7423200000000000    0.6086650000000000    0.4602500000000000 C
   0.7348700000000000    0.6592800000000000    0.4672000000000000 C
   0.7641200000000000    0.6207950000000000    0.3531900000000000 C
   0.7582700000000000    0.5890550000000000    0.4027500000000000 C
   0.7560000000000000    0.6729450000000000    0.3588700000000000 C
   0.7576100000000000    0.7574750000000000    0.3161400000000000 C
   0.7625900000000000    0.7065399999999999    0.3089000000000000 C
   0.7380200000000000    0.7455849999999999    0.4232200000000000 C
   0.7459700000000000    0.7776350000000001    0.3738900000000000 C
   0.7422700000000000    0.6929600000000000    0.4172000000000000 C
   0.5595599999999999    0.9252600000000000    0.3831900000000000 C
   0.9593600000000000    0.9401300000000000    0.4022400000000000 C
   0.4042100000000000    0.9302500000000000    0.3191000000000000 C
   0.3013000000000000    0.9323500000000000    0.3128000000000000 C
   0.3847700000000000    0.9246650000000001    0.4269000000000000 C
   0.4466700000000000    0.9262250000000001    0.3766000000000000 C
   0.2791900000000000    0.9274800000000001    0.4219500000000000 C
   0.1123100000000000    0.9310300000000000    0.4664300000000000 C
   0.2143500000000000    0.9272450000000000    0.4727000000000000 C
   0.1311600000000000    0.9350550000000000    0.3586500000000000 C
   0.0700300000000000    0.9353350000000000    0.4088300000000000 C
   0.2362500000000000    0.9313650000000000    0.3635800000000000 C
   0.2546900000000000    0.6661300000000000    0.8811700000000000 C
   0.2320200000000000    0.9659650000000000    0.8963100000000001 C
   0.2575900000000000    0.8912450000000001    0.9603300000000000 C
   0.2650500000000000    0.8406199999999999    0.9672500000000001 C
   0.2358800000000000    0.8791900000000000    0.8532600000000000 C
   0.2417000000000000    0.9108950000000000    0.9028000000000000 C
   0.2440000000000000    0.8270400000000000    0.8589200000000000 C
   0.2424600000000000    0.7425450000000000    0.8161600000000000 C
   0.2374600000000000    0.7934850000000000    0.8089400000000000 C
   0.2619600000000000    0.7543550000000000    0.9232399999999999 C
   0.2540600000000000    0.7223450000000000    0.8738899999999999 C
   0.2577000000000000    0.8069850000000001    0.9173000000000000 C
   0.1768900000000000    0.5299600000000000    0.1357200000000000 C
   0.3136600000000000    0.6064600000000000    0.1409500000000000 C
   0.1836800000000000    0.5332749999999999    0.0738600000000000 C
   0.3160500000000000    0.6068249999999999    0.0789600000000000 C
   0.2428900000000000    0.5672500000000000    0.1698300000000000 C
   0.3333333333333333    0.5643100000000000    0.2647700000000000 C
   0.1414800000000000    0.5656250000000000    0.2617000000000000 C
   0.0443900000000000    0.5631500000000000    0.4201200000000000 C
   0.1326000000000000    0.5602450000000000    0.4528500000000000 C
   0.0480800000000000    0.5652250000000000    0.3575900000000000 C
   0.1404100000000000    0.5647850000000000    0.3276000000000000 C
   0.4156800000000000    0.5598500000000000    0.3632100000000000 C
   0.3270700000000000    0.5625050000000000    0.3305000000000000 C
   0.4115200000000000    0.5569350000000000    0.4256000000000000 C
   0.3188400000000000    0.5570150000000000    0.4555400000000000 C
   0.2279500000000000    0.5603300000000000    0.4234300000000000 C
   0.2320000000000000    0.5628150000000000    0.3599200000000000 C
   0.1517100000000000    0.5160300000000000    0.6449500000000000 C
   0.2842600000000000    0.5944450000000000    0.6437200000000000 C
   0.2824600000000000    0.5938350000000000    0.7056000000000000 C
   0.1546500000000000    0.5181650000000000    0.7069900000000000 C
   0.2178800000000000    0.5548200000000000    0.6129800000000000 C
   0.3162100000000000    0.5532100000000000    0.5212100000000000 C
   0.1254000000000000    0.5565200000000000    0.5186100000000000 C
   0.4404500000000000    0.5747100000000001    0.8831000000000000 C
   0.0406200000000000    0.5598350000000000    0.9022300000000000 C
   0.5958800000000000    0.5697200000000000    0.8190800000000000 C
   0.6988000000000000    0.5676250000000000    0.8127900000000000 C
   0.6151700000000000    0.5752650000000000    0.9269100000000000 C
   0.5533500000000000    0.5737350000000000    0.8766600000000000 C
   0.7207600000000000    0.5724550000000000    0.9219400000000000 C
   0.8875800000000000    0.5688950000000000    0.9664300000000000 C
   0.7855300000000000    0.5726700000000000    0.9727600000000000 C
   0.8688800000000000    0.5649100000000000    0.8586400000000000 C
   0.9299400000000000    0.5646200000000000    0.9088300000000000 C
   0.7637800000000000    0.5685950000000000    0.8635699999999999 C
   0.2546900000000000    0.1661300000000000    0.8811700000000000 C
   0.2320200000000000    0.4659650000000000    0.8963100000000001 C
   0.2575900000000000    0.3912450000000000    0.9603300000000000 C
   0.2650500000000000    0.3406200000000000    0.9672500000000001 C
   0.2358800000000000    0.3791900000000000    0.8532600000000000 C
   0.2417000000000000    0.4108950000000000    0.9028000000000000 C
   0.2440000000000000    0.3270400000000000    0.8589200000000000 C
   0.2424600000000000    0.2425450000000000    0.8161600000000000 C
   0.2374600000000000    0.2934850000000000    0.8089400000000000 C
   0.2619600000000000    0.2543550000000000    0.9232399999999999 C
   0.2540600000000000    0.2223450000000000    0.8738899999999999 C
   0.2577000000000000    0.3069850000000000    0.9173000000000000 C
   0.1768900000000000    0.0299600000000000    0.1357200000000000 C
   0.3136600000000000    0.1064600000000000    0.1409500000000000 C
   0.1836800000000000    0.0332750000000000    0.0738600000000000 C
   0.3160500000000000    0.1068250000000000    0.0789600000000000 C
   0.2428900000000000    0.0672500000000000    0.1698300000000000 C
   0.3333333333333333    0.0643100000000000    0.2647700000000000 C
   0.1414800000000000    0.0656250000000000    0.2617000000000000 C
   0.0443900000000000    0.0631500000000000    0.4201200000000000 C
   0.1326000000000000    0.0602450000000000    0.4528500000000000 C
   0.0480800000000000    0.0652250000000000    0.3575900000000000 C
   0.1404100000000000    0.0647850000000000    0.3276000000000000 C
   0.4156800000000000    0.0598500000000000    0.3632100000000000 C
   0.3270700000000000    0.0625050000000000    0.3305000000000000 C
   0.4115200000000000    0.0569350000000000    0.4256000000000000 C
   0.3188400000000000    0.0570150000000000    0.4555400000000000 C
   0.2279500000000000    0.0603300000000000    0.4234300000000000 C
   0.2320000000000000    0.0628150000000000    0.3599200000000000 C
   0.1517100000000000    0.0160300000000000    0.6449500000000000 C
   0.2842600000000000    0.0944450000000000    0.6437200000000000 C
   0.2824600000000000    0.0938350000000000    0.7056000000000000 C
   0.1546500000000000    0.0181650000000000    0.7069900000000000 C
   0.2178800000000000    0.0548200000000000    0.6129800000000000 C
   0.3162100000000000    0.0532100000000000    0.5212100000000000 C
   0.1254000000000000    0.0565200000000000    0.5186100000000000 C
   0.4404500000000000    0.0747100000000000    0.8831000000000000 C
   0.0406200000000000    0.0598350000000000    0.9022300000000000 C
   0.5958800000000000    0.0697200000000000    0.8190800000000000 C
   0.6988000000000000    0.0676250000000000    0.8127900000000000 C
   0.6151700000000000    0.0752650000000000    0.9269100000000000 C
   0.5533500000000000    0.0737350000000000    0.8766600000000000 C
   0.7207600000000000    0.0724550000000000    0.9219400000000000 C
   0.8875800000000000    0.0688950000000000    0.9664300000000000 C
   0.7855300000000000    0.0726700000000000    0.9727600000000000 C
   0.8688800000000000    0.0649100000000000    0.8586400000000000 C
   0.9299400000000000    0.0646200000000000    0.9088300000000000 C
   0.7637800000000000    0.0685950000000000    0.8635699999999999 C
   0.7811900000000001    0.4435950000000000    0.2367000000000000 N
   0.7805600000000000    0.4450350000000000    0.0480000000000000 N
   0.7475800000000000    0.4289350000000000    0.5458000000000000 N
   0.7611900000000000    0.4344950000000000    0.7339300000000000 N
   0.2522400000000000    0.5710100000000000    0.0458100000000000 N
   0.2386700000000000    0.5654749999999999    0.2339500000000000 N
   0.2188500000000000    0.5563350000000000    0.7367899999999999 N
   0.2193300000000000    0.5548500000000000    0.5489100000000000 N
   0.2522400000000000    0.0710100000000000    0.0458100000000000 N
   0.2386700000000000    0.0654750000000000    0.2339500000000000 N
   0.2188500000000000    0.0563350000000000    0.7367899999999999 N
   0.2193300000000000    0.0548500000000000    0.5489100000000000 N
   0.7458800000000000    0.3600750000000000    0.3334900000000000 O
   0.7459800000000000    0.3511650000000000    0.4343300000000000 O
   0.7515700000000000    0.0061000000000000    0.4429700000000000 O
   0.7922700000000000    0.0192700000000000    0.3449000000000000 O
   0.6088100000000000    0.4510450000000000    0.0517300000000000 O
   0.9550800000000000    0.4444850000000000    0.0465000000000000 O
   0.5866300000000000    0.4356250000000000    0.7369000000000000 O
   0.9355800000000000    0.4332950000000000    0.7313100000000000 O
   0.6150800000000000    0.4353250000000000    0.3363600000000000 O
   0.5909400000000000    0.4153850000000000    0.4347800000000000 O
   0.9082100000000000    0.4420750000000000    0.4500500000000000 O
   0.9252899999999999    0.4421050000000000    0.3492300000000000 O
   0.7475800000000000    0.9289350000000001    0.5458000000000000 O
   0.7458800000000000    0.8600749999999999    0.3334900000000000 O
   0.7459800000000000    0.8511649999999999    0.4343300000000000 O
   0.7515700000000000    0.5061000000000000    0.4429700000000000 O
   0.7922700000000000    0.5192700000000000    0.3449000000000000 O
   0.7811900000000001    0.9435950000000000    0.2367000000000000 O
   0.6150800000000000    0.9353250000000000    0.3363600000000000 O
   0.5909400000000000    0.9153850000000000    0.4347800000000000 O
   0.9082100000000000    0.9420750000000000    0.4500500000000000 O
   0.9252899999999999    0.9421050000000000    0.3492300000000000 O
   0.2541400000000000    0.6399100000000000    0.8334000000000000 O
   0.2540300000000000    0.6487849999999999    0.9343200000000000 O
   0.2484500000000000    0.9938500000000000    0.9429999999999999 O
   0.2077000000000000    0.9807049999999999    0.8450299999999999 O
   0.4132700000000000    0.5643600000000000    0.2368800000000000 O
   0.0642600000000000    0.5666650000000000    0.2314000000000000 O
   0.3911400000000000    0.5489200000000000    0.5516600000000000 O
   0.0448400000000000    0.5554800000000000    0.5466299999999999 O
   0.3849700000000000    0.5646500000000000    0.8363500000000000 O
   0.4090400000000000    0.5845850000000000    0.9347000000000000 O
   0.0917400000000000    0.5578850000000000    0.9500300000000000 O
   0.0747300000000000    0.5578700000000000    0.8492000000000000 O
   0.2541400000000000    0.1399100000000000    0.8334000000000000 O
   0.2540300000000000    0.1487850000000000    0.9343200000000000 O
   0.2484500000000000    0.4938500000000000    0.9429999999999999 O
   0.2077000000000000    0.4807050000000000    0.8450299999999999 O
   0.4132700000000000    0.0643600000000000    0.2368800000000000 O
   0.0642600000000000    0.0666650000000000    0.2314000000000000 O
   0.3911400000000000    0.0489200000000000    0.5516600000000000 O
   0.0448400000000000    0.0554800000000000    0.5466299999999999 O
   0.3849700000000000    0.0646500000000000    0.8363500000000000 O
   0.4090400000000000    0.0845850000000000    0.9347000000000000 O
   0.0917400000000000    0.0578850000000000    0.9500300000000000 O
   0.0747300000000000    0.0578700000000000    0.8492000000000000 O
