H8 C10 N2
1.0
  14.0047354240300344    0.0000000000000000    0.5862377528940687
   1.5541212345626700   15.0621188739379068    1.3141092860355628
   0.0000000000000000    0.0000000000000000   30.4980000000000011
H C N
8 10 2
direct
   0.2077600000000000    0.1313200000000000    0.4905150000000000 H
   0.2302200000000000    0.0933200000000000    0.3512700000000000 H
   0.3546400000000000    0.0714500000000000    0.4908350000000000 H
   0.0337000000000000    0.1160700000000000    0.4876900000000000 H
   0.0532700000000000    0.0870400000000000    0.3538150000000000 H
   0.5310100000000000    0.0825900000000000    0.4890450000000000 H
   0.3581300000000000    0.1634800000000000    0.3523650000000000 H
   0.5355000000000000    0.1631700000000000    0.3560350000000000 H
   0.3399800000000000    0.1177100000000000    0.4215250000000000 C
   0.2351700000000000    0.1137200000000000    0.4209150000000000 C
   0.1776000000000000    0.1201700000000000    0.4594550000000000 C
   0.1895500000000000    0.1016400000000000    0.3820750000000000 C
   0.3906600000000000    0.0947800000000000    0.4603600000000000 C
   0.0800000000000000    0.1128800000000000    0.4582150000000000 C
   0.0913400000000000    0.0961700000000000    0.3832400000000000 C
   0.4891700000000000    0.0988500000000000    0.4595850000000000 C
   0.3930400000000000    0.1435500000000000    0.3834000000000000 C
   0.4917000000000000    0.1447200000000000    0.3850650000000000 C
   0.5395000000000000    0.1227600000000000    0.4225600000000000 N
   0.0370600000000000    0.1011100000000000    0.4207050000000000 N
