H4 O2
1.0
  14.0047354240300344    0.0000000000000000    0.5862377528940687
   1.5541212345626700   15.0621188739379068    1.3141092860355628
   0.0000000000000000    0.0000000000000000   30.4980000000000011
H O
4 2
direct
   0.0764312610843249    0.0975268380663861    0.3935302708820149 H
   0.0682177327132937    0.1096504404759075    0.4479226654419107 H
   0.5048159446121688    0.1386943484585099    0.3953533335404450 H
   0.5030075449961025    0.1054237274161893    0.4494054827442739 H
   0.0370600000000000    0.1011100000000000    0.4207050000000000 O
   0.5395000000000000    0.1227600000000000    0.4225600000000000 O
