H6 C12 N2 O4
1.0
  14.0047354240300344    0.0000000000000000    0.5862377528940687
   1.5541212345626700   15.0621188739379068    1.3141092860355628
   0.0000000000000000    0.0000000000000000   30.4980000000000011
H C N O
6 12 2 4
direct
   0.9370900000000000    0.1287200000000000    0.5545150000000000 H
   0.9419900000000000    0.1380800000000000    0.6353400000000000 H
   0.6365700000000000    0.0971300000000000    0.5711150000000000 H
   0.6455000000000000    0.1590100000000000    0.7783650000000000 H
   0.9453800000000000    0.0661900000000000    0.7806150000000001 H
   0.9449800000000000    0.0663600000000000    0.6985550000000000 H
   0.7816300000000000    0.1059300000000000    0.5078900000000000 C
   0.7924000000000000    0.1128900000000000    0.8349900000000000 C
   0.7861800000000000    0.1120900000000000    0.5565000000000000 C
   0.8727000000000000    0.1237100000000000    0.5753250000000000 C
   0.8753100000000000    0.1272300000000000    0.6205350000000001 C
   0.7054600000000000    0.1053500000000000    0.5848800000000000 C
   0.7936299999999999    0.1148100000000000    0.6952900000000000 C
   0.7913900000000000    0.1168400000000000    0.6464950000000000 C
   0.7129600000000000    0.1382800000000000    0.7611950000000001 C
   0.7952200000000000    0.1128500000000000    0.7857750000000000 C
   0.8802300000000000    0.0867200000000000    0.7626050000000000 C
   0.8796100000000000    0.0874500000000000    0.7170700000000000 C
   0.7069000000000000    0.1065000000000000    0.6286750000000000 N
   0.7108600000000000    0.1395700000000000    0.7173300000000000 N
   0.7011600000000000    0.0957800000000000    0.4921850000000000 O
   0.8606200000000001    0.1110500000000000    0.4859600000000000 O
   0.7122100000000000    0.1361000000000000    0.8538700000000000 O
   0.8714600000000000    0.0887900000000000    0.8540150000000000 O
