H12 O8
1.0
  26.5954512818283320    0.0000000000000000   -4.2061201975093025
   2.0213038348030530   13.0607389171363284   -0.4534376978274069
   0.0000000000000000    0.0000000000000000   39.7139999999999986
H O
12 8
direct
   0.5824600014092961    0.3538772455326493    0.4853232631671429 H
   0.4896802557520432    0.5323295547490723    0.5371453805680505 H
   0.5347230043792623    0.4543166158385193    0.5083968939964169 H
   0.6463492981264952    0.1683976764196906    0.5158870175283662 H
   0.7227345254421856    0.1416761814316100    0.4988558103431571 H
   0.7604968209474502    0.1518575969205650    0.4969796800691901 H
   0.6872378927156750    0.3673315550146243    0.2420097254948716 H
   0.7987131748911221    0.4728638166433594    0.3016054048054310 H
   0.7394482295292805    0.4273774468443376    0.2755716626057410 H
   0.3696745775280130    0.2531057820814957    0.2298971381113717 H
   0.3159081990761848    0.1434511662050329    0.2441565199291873 H
   0.2758261825229081    0.0804262584211150    0.2534157613489029 H
   0.5649550000000000    0.3636900000000000    0.5050333333333333 O
   0.5113300000000000    0.4674300000000000    0.5347366666666666 O
   0.6608600000000000    0.2224900000000000    0.5292033333333332 O
   0.7345550000000001    0.1857400000000000    0.5097033333333333 O
   0.7231500000000000    0.3731700000000000    0.2462266666666666 O
   0.7873800000000000    0.4351700000000000    0.2812000000000000 O
   0.3350950000000000    0.2527000000000000    0.2339333333333333 O
   0.2868350000000000    0.1431100000000000    0.2475500000000000 O
