Zn24 H264 C363 O132
1.0
  26.5954512818283320    0.0000000000000000   -4.2061201975093025
   2.0213038348030530   13.0607389171363284   -0.4534376978274069
   0.0000000000000000    0.0000000000000000   39.7139999999999986
Zn H C O
24 264 363 132
direct
   0.0893850000000000    0.2444700000000000    0.2013966666666667 Zn
   0.2564600000000000    0.2874300000000000    0.2116400000000000 Zn
   0.3393850000000000    0.3957300000000000    0.2518233333333333 Zn
   0.0064500000000000    0.3650700000000000    0.2373866666666667 Zn
   0.5893850000000000    0.2444700000000000    0.2013966666666667 Zn
   0.7564600000000000    0.2874300000000000    0.2116400000000000 Zn
   0.8393850000000000    0.3957300000000000    0.2518233333333333 Zn
   0.5064500000000000    0.3650700000000000    0.2373866666666667 Zn
   0.0893850000000000    0.2444700000000000    0.5347299999999999 Zn
   0.2564600000000000    0.2874300000000000    0.5449733333333333 Zn
   0.3393850000000000    0.3957300000000000    0.5851566666666665 Zn
   0.0064500000000000    0.3650700000000000    0.5707200000000000 Zn
   0.5893850000000000    0.2444700000000000    0.5347299999999999 Zn
   0.7564600000000000    0.2874300000000000    0.5449733333333333 Zn
   0.8393850000000000    0.3957300000000000    0.5851566666666665 Zn
   0.5064500000000000    0.3650700000000000    0.5707200000000000 Zn
   0.0893850000000000    0.2444700000000000    0.8680633333333333 Zn
   0.2564600000000000    0.2874300000000000    0.8783066666666666 Zn
   0.3393850000000000    0.3957300000000000    0.9184899999999999 Zn
   0.0064500000000000    0.3650700000000000    0.9040533333333333 Zn
   0.5893850000000000    0.2444700000000000    0.8680633333333333 Zn
   0.7564600000000000    0.2874300000000000    0.8783066666666666 Zn
   0.8393850000000000    0.3957300000000000    0.9184899999999999 Zn
   0.5064500000000000    0.3650700000000000    0.9040533333333333 Zn
   0.2467600000000000    0.0000000000000000    0.0703466666666667 H
   0.2250000000000000    0.9231000000000000    0.0435000000000000 H
   0.3144500000000000    0.8840700000000000    0.0039166666666667 H
   0.2877250000000000    0.7862100000000000    0.0219000000000000 H
   0.2994850000000000    0.8935400000000000    0.1105300000000000 H
   0.3482000000000000    0.8017700000000000    0.0962500000000000 H
   0.3506950000000000    0.0000000000000000    0.0440366666666667 H
   0.3862900000000000    0.9219400000000000    0.0713666666666667 H
   0.1603100000000000    0.0541100000000000    0.0369166666666667 H
   0.2534700000000000    0.1251000000000000    0.2974400000000000 H
   0.0842950000000000    0.1498000000000000    0.0000000000000000 H
   0.1780400000000000    0.2232000000000000    0.2634666666666666 H
   0.3129350000000000    0.7311299999999999    0.3055933333333333 H
   0.4521200000000000    0.6638500000000001    0.0432633333333333 H
   0.3449850000000000    0.5967800000000000    0.2668300000000000 H
   0.4861800000000000    0.5321500000000000    0.0023766666666667 H
   0.2252750000000000    0.6164300000000000    0.0764033333333333 H
   0.3313550000000000    0.7657000000000000    0.1462600000000000 H
   0.2284800000000000    0.4833500000000000    0.1204766666666666 H
   0.3344750000000000    0.6329200000000000    0.1888400000000000 H
   0.4429300000000000    0.9946800000000000    0.0932433333333333 H
   0.3229600000000000    0.1497100000000000    0.1455500000000000 H
   0.3878250000000000    0.2181500000000000    0.1881966666666667 H
   0.4967600000000000    0.7887700000000000    0.3254533333333333 H
   0.4750150000000000    0.8694700000000000    0.0256433333333333 H
   0.0644450000000000    0.9883700000000000    0.0386466666666667 H
   0.0376900000000000    0.9343300000000000    0.0712200000000000 H
   0.0494800000000000    0.6681900000000000    0.0355166666666667 H
   0.0981850000000000    0.7111100000000000    0.0660700000000000 H
   0.1007450000000000    0.8679500000000000    0.3262266666666667 H
   0.1362950000000000    0.7856700000000000    0.0260333333333333 H
   0.4104200000000000    0.8889600000000000    0.3153966666666667 H
   0.0000000000000000    0.1076300000000000    0.2915900000000000 H
   0.3343800000000000    0.9948600000000000    0.2834233333333333 H
   0.4280150000000000    0.2094100000000000    0.2588600000000000 H
   0.0628650000000000    0.0833100000000000    0.0896633333333333 H
   0.2020900000000000    0.8700300000000000    0.1119266666666667 H
   0.0949200000000000    0.1995400000000000    0.1344566666666667 H
   0.2361550000000000    0.9926400000000000    0.1558466666666667 H
   0.4752150000000000    0.7710900000000001    0.1277600000000000 H
   0.0813150000000000    0.5610400000000000    0.0781266666666667 H
   0.4784200000000000    0.6389100000000000    0.1720000000000000 H
   0.0844400000000000    0.4333500000000000    0.1224000000000000 H
   0.1929150000000000    0.7203400000000000    0.0000000000000000 H
   0.0729550000000000    0.5631900000000000    0.2834600000000000 H
   0.2568400000000000    0.5892800000000000    0.3134966666666666 H
   0.1378200000000000    0.4352300000000000    0.2606066666666667 H
   0.7534700000000000    0.1251000000000000    0.2974400000000000 H
   0.6780400000000000    0.2232000000000000    0.2634666666666666 H
   0.8129350000000000    0.7311299999999999    0.3055933333333333 H
   0.8449850000000000    0.5967800000000000    0.2668300000000000 H
   0.5000000000000000    0.0591900000000000    0.1369200000000000 H
   0.9967600000000000    0.7887700000000000    0.3254533333333333 H
   0.9750150000000000    0.8694700000000000    0.0256433333333333 H
   0.5644450000000000    0.9883700000000000    0.0386466666666667 H
   0.5376900000000000    0.9343300000000000    0.0712200000000000 H
   0.5494800000000000    0.6681900000000000    0.0355166666666667 H
   0.5981850000000000    0.7111100000000000    0.0660700000000000 H
   0.6007450000000000    0.8679500000000000    0.3262266666666667 H
   0.6362950000000001    0.7856700000000000    0.0260333333333333 H
   0.9104200000000000    0.8889600000000000    0.3153966666666667 H
   0.5000000000000000    0.1076300000000000    0.2915900000000000 H
   0.8343800000000000    0.9948600000000000    0.2834233333333333 H
   0.9280150000000000    0.2094100000000000    0.2588600000000000 H
   0.5628649999999999    0.0833100000000000    0.0896633333333333 H
   0.7020900000000000    0.8700300000000000    0.1119266666666667 H
   0.5949200000000000    0.1995400000000000    0.1344566666666667 H
   0.7361550000000000    0.9926400000000000    0.1558466666666667 H
   0.9752149999999999    0.7710900000000001    0.1277600000000000 H
   0.5813150000000000    0.5610400000000000    0.0781266666666667 H
   0.9784200000000001    0.6389100000000000    0.1720000000000000 H
   0.5844400000000000    0.4333500000000000    0.1224000000000000 H
   0.6929149999999999    0.7203400000000000    0.0000000000000000 H
   0.5729550000000000    0.5631900000000000    0.2834600000000000 H
   0.7568400000000000    0.5892800000000000    0.3134966666666666 H
   0.6378200000000001    0.4352300000000000    0.2606066666666667 H
   0.2467600000000000    0.0000000000000000    0.4036800000000000 H
   0.2250000000000000    0.9231000000000000    0.3768333333333333 H
   0.3144500000000000    0.8840700000000000    0.3372500000000000 H
   0.2877250000000000    0.7862100000000000    0.3552333333333333 H
   0.2994850000000000    0.8935400000000000    0.4438633333333333 H
   0.3482000000000000    0.8017700000000000    0.4295833333333333 H
   0.3506950000000000    0.0000000000000000    0.3773700000000000 H
   0.3862900000000000    0.9219400000000000    0.4046999999999999 H
   0.1603100000000000    0.0541100000000000    0.3702500000000000 H
   0.2534700000000000    0.1251000000000000    0.6307733333333333 H
   0.0842950000000000    0.1498000000000000    0.3333333333333333 H
   0.1780400000000000    0.2232000000000000    0.5968000000000000 H
   0.3129350000000000    0.7311299999999999    0.6389266666666666 H
   0.4521200000000000    0.6638500000000001    0.3765966666666666 H
   0.3449850000000000    0.5967800000000000    0.6001633333333334 H
   0.4861800000000000    0.5321500000000000    0.3357100000000000 H
   0.2252750000000000    0.6164300000000000    0.4097366666666666 H
   0.3313550000000000    0.7657000000000000    0.4795933333333333 H
   0.2284800000000000    0.4833500000000000    0.4538099999999999 H
   0.3344750000000000    0.6329200000000000    0.5221733333333334 H
   0.4429300000000000    0.9946800000000000    0.4265766666666666 H
   0.3229600000000000    0.1497100000000000    0.4788833333333333 H
   0.0000000000000000    0.0591900000000000    0.4702533333333333 H
   0.3878250000000000    0.2181500000000000    0.5215300000000000 H
   0.4967600000000000    0.7887700000000000    0.6587866666666666 H
   0.4750150000000000    0.8694700000000000    0.3589766666666667 H
   0.0644450000000000    0.9883700000000000    0.3719800000000000 H
   0.0376900000000000    0.9343300000000000    0.4045533333333333 H
   0.0494800000000000    0.6681900000000000    0.3688500000000000 H
   0.0981850000000000    0.7111100000000000    0.3994033333333333 H
   0.1007450000000000    0.8679500000000000    0.6595599999999999 H
   0.1362950000000000    0.7856700000000000    0.3593666666666667 H
   0.4104200000000000    0.8889600000000000    0.6487300000000000 H
   0.0000000000000000    0.1076300000000000    0.6249233333333333 H
   0.3343800000000000    0.9948600000000000    0.6167566666666666 H
   0.4280150000000000    0.2094100000000000    0.5921933333333333 H
   0.0628650000000000    0.0833100000000000    0.4229966666666666 H
   0.2020900000000000    0.8700300000000000    0.4452600000000000 H
   0.0949200000000000    0.1995400000000000    0.4677900000000000 H
   0.2361550000000000    0.9926400000000000    0.4891799999999999 H
   0.4752150000000000    0.7710900000000001    0.4610933333333333 H
   0.0813150000000000    0.5610400000000000    0.4114600000000000 H
   0.4784200000000000    0.6389100000000000    0.5053333333333333 H
   0.0844400000000000    0.4333500000000000    0.4557333333333333 H
   0.1929150000000000    0.7203400000000000    0.3333333333333333 H
   0.0729550000000000    0.5631900000000000    0.6167933333333333 H
   0.2568400000000000    0.5892800000000000    0.6468300000000000 H
   0.1378200000000000    0.4352300000000000    0.5939399999999999 H
   0.7467600000000000    0.0000000000000000    0.4036800000000000 H
   0.7250000000000000    0.9231000000000000    0.3768333333333333 H
   0.8144500000000000    0.8840700000000000    0.3372500000000000 H
   0.7877250000000000    0.7862100000000000    0.3552333333333333 H
   0.7994850000000000    0.8935400000000000    0.4438633333333333 H
   0.8482000000000001    0.8017700000000000    0.4295833333333333 H
   0.8506950000000000    0.0000000000000000    0.3773700000000000 H
   0.8862900000000000    0.9219400000000000    0.4046999999999999 H
   0.6603100000000000    0.0541100000000000    0.3702500000000000 H
   0.7534700000000000    0.1251000000000000    0.6307733333333333 H
   0.5842950000000000    0.1498000000000000    0.3333333333333333 H
   0.6780400000000000    0.2232000000000000    0.5968000000000000 H
   0.8129350000000000    0.7311299999999999    0.6389266666666666 H
   0.9521200000000001    0.6638500000000001    0.3765966666666666 H
   0.8449850000000000    0.5967800000000000    0.6001633333333334 H
   0.9861800000000001    0.5321500000000000    0.3357100000000000 H
   0.7252750000000000    0.6164300000000000    0.4097366666666666 H
   0.8313550000000001    0.7657000000000000    0.4795933333333333 H
   0.7284800000000000    0.4833500000000000    0.4538099999999999 H
   0.8344750000000001    0.6329200000000000    0.5221733333333334 H
   0.9429300000000000    0.9946800000000000    0.4265766666666666 H
   0.8229600000000000    0.1497100000000000    0.4788833333333333 H
   0.5000000000000000    0.0591900000000000    0.4702533333333333 H
   0.8878250000000000    0.2181500000000000    0.5215300000000000 H
   0.9967600000000000    0.7887700000000000    0.6587866666666666 H
   0.9750150000000000    0.8694700000000000    0.3589766666666667 H
   0.5644450000000000    0.9883700000000000    0.3719800000000000 H
   0.5376900000000000    0.9343300000000000    0.4045533333333333 H
   0.5494800000000000    0.6681900000000000    0.3688500000000000 H
   0.5981850000000000    0.7111100000000000    0.3994033333333333 H
   0.6007450000000000    0.8679500000000000    0.6595599999999999 H
   0.6362950000000001    0.7856700000000000    0.3593666666666667 H
   0.9104200000000000    0.8889600000000000    0.6487300000000000 H
   0.5000000000000000    0.1076300000000000    0.6249233333333333 H
   0.8343800000000000    0.9948600000000000    0.6167566666666666 H
   0.9280150000000000    0.2094100000000000    0.5921933333333333 H
   0.5628649999999999    0.0833100000000000    0.4229966666666666 H
   0.7020900000000000    0.8700300000000000    0.4452600000000000 H
   0.5949200000000000    0.1995400000000000    0.4677900000000000 H
   0.7361550000000000    0.9926400000000000    0.4891799999999999 H
   0.9752149999999999    0.7710900000000001    0.4610933333333333 H
   0.5813150000000000    0.5610400000000000    0.4114600000000000 H
   0.9784200000000001    0.6389100000000000    0.5053333333333333 H
   0.5844400000000000    0.4333500000000000    0.4557333333333333 H
   0.6929149999999999    0.7203400000000000    0.3333333333333333 H
   0.5729550000000000    0.5631900000000000    0.6167933333333333 H
   0.7568400000000000    0.5892800000000000    0.6468300000000000 H
   0.6378200000000001    0.4352300000000000    0.5939399999999999 H
   0.2467600000000000    0.0000000000000000    0.7370133333333333 H
   0.2250000000000000    0.9231000000000000    0.7101666666666666 H
   0.3144500000000000    0.8840700000000000    0.6705833333333333 H
   0.2877250000000000    0.7862100000000000    0.6885666666666667 H
   0.2994850000000000    0.8935400000000000    0.7771966666666666 H
   0.3482000000000000    0.8017700000000000    0.7629166666666667 H
   0.3506950000000000    0.0000000000000000    0.7107033333333332 H
   0.3862900000000000    0.9219400000000000    0.7380333333333333 H
   0.1603100000000000    0.0541100000000000    0.7035833333333333 H
   0.2534700000000000    0.1251000000000000    0.9641066666666667 H
   0.0842950000000000    0.1498000000000000    0.6666666666666666 H
   0.1780400000000000    0.2232000000000000    0.9301333333333333 H
   0.3129350000000000    0.7311299999999999    0.9722599999999999 H
   0.4521200000000000    0.6638500000000001    0.7099299999999999 H
   0.3449850000000000    0.5967800000000000    0.9334966666666666 H
   0.4861800000000000    0.5321500000000000    0.6690433333333333 H
   0.2252750000000000    0.6164300000000000    0.7430699999999999 H
   0.3313550000000000    0.7657000000000000    0.8129266666666666 H
   0.2284800000000000    0.4833500000000000    0.7871433333333333 H
   0.3344750000000000    0.6329200000000000    0.8555066666666666 H
   0.4429300000000000    0.9946800000000000    0.7599100000000000 H
   0.3229600000000000    0.1497100000000000    0.8122166666666666 H
   0.0000000000000000    0.0591900000000000    0.8035866666666667 H
   0.3878250000000000    0.2181500000000000    0.8548633333333333 H
   0.4967600000000000    0.7887700000000000    0.9921199999999999 H
   0.4750150000000000    0.8694700000000000    0.6923100000000000 H
   0.0644450000000000    0.9883700000000000    0.7053133333333332 H
   0.0376900000000000    0.9343300000000000    0.7378866666666666 H
   0.0494800000000000    0.6681900000000000    0.7021833333333333 H
   0.0981850000000000    0.7111100000000000    0.7327366666666666 H
   0.1007450000000000    0.8679500000000000    0.9928933333333333 H
   0.1362950000000000    0.7856700000000000    0.6927000000000000 H
   0.4104200000000000    0.8889600000000000    0.9820633333333333 H
   0.0000000000000000    0.1076300000000000    0.9582566666666666 H
   0.3343800000000000    0.9948600000000000    0.9500899999999999 H
   0.4280150000000000    0.2094100000000000    0.9255266666666666 H
   0.0628650000000000    0.0833100000000000    0.7563299999999999 H
   0.2020900000000000    0.8700300000000000    0.7785933333333332 H
   0.0949200000000000    0.1995400000000000    0.8011233333333333 H
   0.2361550000000000    0.9926400000000000    0.8225133333333333 H
   0.4752150000000000    0.7710900000000001    0.7944266666666666 H
   0.0813150000000000    0.5610400000000000    0.7447933333333333 H
   0.4784200000000000    0.6389100000000000    0.8386666666666667 H
   0.0844400000000000    0.4333500000000000    0.7890666666666666 H
   0.1929150000000000    0.7203400000000000    0.6666666666666666 H
   0.0729550000000000    0.5631900000000000    0.9501266666666666 H
   0.2568400000000000    0.5892800000000000    0.9801633333333333 H
   0.1378200000000000    0.4352300000000000    0.9272733333333333 H
   0.7467600000000000    0.0000000000000000    0.7370133333333333 H
   0.7250000000000000    0.9231000000000000    0.7101666666666666 H
   0.8144500000000000    0.8840700000000000    0.6705833333333333 H
   0.7877250000000000    0.7862100000000000    0.6885666666666667 H
   0.7994850000000000    0.8935400000000000    0.7771966666666666 H
   0.8482000000000001    0.8017700000000000    0.7629166666666667 H
   0.8506950000000000    0.0000000000000000    0.7107033333333332 H
   0.8862900000000000    0.9219400000000000    0.7380333333333333 H
   0.6603100000000000    0.0541100000000000    0.7035833333333333 H
   0.5842950000000000    0.1498000000000000    0.6666666666666666 H
   0.9521200000000001    0.6638500000000001    0.7099299999999999 H
   0.9861800000000001    0.5321500000000000    0.6690433333333333 H
   0.7252750000000000    0.6164300000000000    0.7430699999999999 H
   0.8313550000000001    0.7657000000000000    0.8129266666666666 H
   0.7284800000000000    0.4833500000000000    0.7871433333333333 H
   0.8344750000000001    0.6329200000000000    0.8555066666666666 H
   0.9429300000000000    0.9946800000000000    0.7599100000000000 H
   0.8229600000000000    0.1497100000000000    0.8122166666666666 H
   0.5000000000000000    0.0591900000000000    0.8035866666666667 H
   0.8878250000000000    0.2181500000000000    0.8548633333333333 H
   0.9967600000000000    0.7887700000000000    0.9921199999999999 H
   0.9750150000000000    0.8694700000000000    0.6923100000000000 H
   0.5644450000000000    0.9883700000000000    0.7053133333333332 H
   0.5376900000000000    0.9343300000000000    0.7378866666666666 H
   0.5494800000000000    0.6681900000000000    0.7021833333333333 H
   0.5981850000000000    0.7111100000000000    0.7327366666666666 H
   0.6007450000000000    0.8679500000000000    0.9928933333333333 H
   0.6362950000000001    0.7856700000000000    0.6927000000000000 H
   0.9104200000000000    0.8889600000000000    0.9820633333333333 H
   0.5000000000000000    0.1076300000000000    0.9582566666666666 H
   0.8343800000000000    0.9948600000000000    0.9500899999999999 H
   0.9280150000000000    0.2094100000000000    0.9255266666666666 H
   0.5628649999999999    0.0833100000000000    0.7563299999999999 H
   0.7020900000000000    0.8700300000000000    0.7785933333333332 H
   0.5949200000000000    0.1995400000000000    0.8011233333333333 H
   0.7361550000000000    0.9926400000000000    0.8225133333333333 H
   0.9752149999999999    0.7710900000000001    0.7944266666666666 H
   0.5813150000000000    0.5610400000000000    0.7447933333333333 H
   0.9784200000000001    0.6389100000000000    0.8386666666666667 H
   0.5844400000000000    0.4333500000000000    0.7890666666666666 H
   0.6929149999999999    0.7203400000000000    0.6666666666666666 H
   0.5729550000000000    0.5631900000000000    0.9501266666666666 H
   0.7568400000000000    0.5892800000000000    0.9801633333333333 H
   0.6378200000000001    0.4352300000000000    0.9272733333333333 H
   0.3072150000000000    0.9062800000000000    0.0574800000000000 C
   0.2547750000000000    0.9724500000000000    0.0488233333333333 C
   0.3168100000000000    0.8371700000000000    0.0266300000000000 C
   0.3091650000000000    0.8424400000000000    0.0892966666666667 C
   0.3497600000000000    0.9728700000000000    0.0657900000000000 C
   0.2117700000000000    0.0826100000000000    0.0023866666666667 C
   0.1641600000000000    0.0891700000000000    0.0132333333333333 C
   0.2164350000000000    0.1309400000000000    0.3057066666666667 C
   0.1215750000000000    0.1432400000000000    0.3268700000000000 C
   0.1738400000000000    0.1850800000000000    0.2864766666666667 C
   0.1256700000000000    0.1914900000000000    0.2966733333333333 C
   0.0798800000000000    0.2492100000000000    0.2767133333333333 C
   0.3807900000000000    0.7053800000000000    0.0104666666666667 C
   0.3504650000000000    0.6869100000000000    0.3128733333333333 C
   0.4296050000000000    0.6487100000000000    0.0188933333333333 C
   0.3687900000000000    0.6102900000000000    0.2909000000000000 C
   0.4480800000000000    0.5754600000000000    0.3296266666666666 C
   0.4175900000000000    0.5543200000000000    0.2988700000000000 C
   0.4382550000000000    0.4750700000000000    0.2752233333333333 C
   0.2779650000000000    0.6991900000000000    0.1083266666666667 C
   0.2486550000000000    0.6197700000000000    0.1013200000000000 C
   0.3086150000000000    0.7046500000000000    0.1401033333333333 C
   0.2506650000000000    0.5458400000000000    0.1257700000000000 C
   0.3103250000000000    0.6300300000000000    0.1642633333333333 C
   0.2817600000000000    0.5498000000000000    0.1575566666666667 C
   0.2858900000000000    0.4706800000000000    0.1840766666666667 C
   0.3785400000000000    0.0680500000000000    0.1168033333333333 C
   0.4303800000000000    0.0421500000000000    0.1141600000000000 C
   0.3633800000000000    0.1307700000000000    0.1436666666666667 C
   0.4665000000000000    0.0789600000000000    0.1386033333333333 C
   0.3996200000000000    0.1685100000000000    0.1675366666666667 C
   0.4517550000000000    0.1432300000000000    0.1652500000000000 C
   0.4900250000000000    0.1897900000000000    0.1893100000000000 C
   0.0572200000000000    0.8274899999999999    0.0312466666666667 C
   0.0048000000000000    0.8534500000000000    0.0092133333333333 C
   0.0667900000000000    0.9201400000000000    0.0542566666666667 C
   0.0591600000000000    0.7319900000000000    0.0525000000000000 C
   0.0997750000000000    0.8025500000000000    0.0090766666666667 C
   0.4618250000000000    0.9926800000000000    0.3058166666666666 C
   0.4142400000000000    0.9599800000000001    0.3036633333333333 C
   0.4664500000000000    0.0827600000000000    0.2896666666666666 C
   0.3716450000000000    0.0190200000000000    0.2856033333333333 C
   0.4238500000000000    0.1403700000000000    0.2716000000000000 C
   0.3757150000000000    0.1096300000000000    0.2694800000000000 C
   0.3298900000000000    0.1692100000000000    0.2501933333333333 C
   0.1307500000000000    0.9685500000000000    0.0981733333333333 C
   0.1004050000000000    0.0614100000000000    0.1043733333333333 C
   0.1795750000000000    0.9431800000000000    0.1170166666666667 C
   0.1187300000000000    0.1272900000000000    0.1299166666666667 C
   0.1980450000000000    0.0109800000000000    0.1414366666666667 C
   0.1675400000000000    0.1032900000000000    0.1485300000000000 C
   0.1882250000000000    0.1741900000000000    0.1749466666666666 C
   0.0279250000000000    0.6750600000000000    0.1002366666666667 C
   0.4986000000000000    0.6962400000000000    0.1266766666666667 C
   0.0585750000000000    0.5796200000000000    0.0984533333333333 C
   0.0000000000000000    0.6229100000000000    0.1513266666666667 C
   0.0602850000000000    0.5071700000000000    0.1000000000000000 C
   0.0317100000000000    0.5274400000000000    0.1500400000000000 C
   0.0358400000000000    0.4478600000000000    0.1764066666666667 C
   0.1285350000000000    0.6495300000000001    0.3106366666666667 C
   0.1803650000000000    0.6575299999999999    0.3192000000000000 C
   0.1133750000000000    0.5683900000000000    0.2897333333333333 C
   0.2164850000000000    0.5841800000000000    0.3069333333333333 C
   0.1496150000000000    0.4972700000000000    0.2771366666666666 C
   0.2017450000000000    0.5041700000000000    0.2855333333333333 C
   0.2400250000000000    0.4319500000000000    0.2700000000000000 C
   0.7164349999999999    0.1309400000000000    0.3057066666666667 C
   0.6215750000000000    0.1432400000000000    0.3268700000000000 C
   0.6738400000000000    0.1850800000000000    0.2864766666666667 C
   0.6256699999999999    0.1914900000000000    0.2966733333333333 C
   0.5798800000000000    0.2492100000000000    0.2767133333333333 C
   0.8504650000000000    0.6869100000000000    0.3128733333333333 C
   0.8687900000000000    0.6102900000000000    0.2909000000000000 C
   0.9480800000000000    0.5754600000000000    0.3296266666666666 C
   0.9175900000000000    0.5543200000000000    0.2988700000000000 C
   0.9382550000000001    0.4750700000000000    0.2752233333333333 C
   0.5572200000000000    0.8274899999999999    0.0312466666666667 C
   0.5048000000000000    0.8534500000000000    0.0092133333333333 C
   0.5667900000000000    0.9201400000000000    0.0542566666666667 C
   0.5591600000000000    0.7319900000000000    0.0525000000000000 C
   0.5997749999999999    0.8025500000000000    0.0090766666666667 C
   0.9618249999999999    0.9926800000000000    0.3058166666666666 C
   0.9142399999999999    0.9599800000000001    0.3036633333333333 C
   0.9664500000000000    0.0827600000000000    0.2896666666666666 C
   0.8716450000000000    0.0190200000000000    0.2856033333333333 C
   0.9238500000000001    0.1403700000000000    0.2716000000000000 C
   0.8757150000000000    0.1096300000000000    0.2694800000000000 C
   0.8298900000000000    0.1692100000000000    0.2501933333333333 C
   0.6307500000000000    0.9685500000000000    0.0981733333333333 C
   0.6004050000000000    0.0614100000000000    0.1043733333333333 C
   0.6795750000000000    0.9431800000000000    0.1170166666666667 C
   0.6187300000000000    0.1272900000000000    0.1299166666666667 C
   0.6980450000000000    0.0109800000000000    0.1414366666666667 C
   0.6675400000000000    0.1032900000000000    0.1485300000000000 C
   0.6882250000000000    0.1741900000000000    0.1749466666666666 C
   0.5279250000000000    0.6750600000000000    0.1002366666666667 C
   0.9985999999999999    0.6962400000000000    0.1266766666666667 C
   0.5585750000000000    0.5796200000000000    0.0984533333333333 C
   0.5000000000000000    0.6229100000000000    0.1513266666666667 C
   0.5602850000000000    0.5071700000000000    0.1000000000000000 C
   0.5317100000000000    0.5274400000000000    0.1500400000000000 C
   0.5358400000000000    0.4478600000000000    0.1764066666666667 C
   0.6285350000000001    0.6495300000000001    0.3106366666666667 C
   0.6803650000000000    0.6575299999999999    0.3192000000000000 C
   0.6133750000000000    0.5683900000000000    0.2897333333333333 C
   0.7164850000000000    0.5841800000000000    0.3069333333333333 C
   0.6496150000000001    0.4972700000000000    0.2771366666666666 C
   0.7017450000000001    0.5041700000000000    0.2855333333333333 C
   0.7400249999999999    0.4319500000000000    0.2700000000000000 C
   0.3072150000000000    0.9062800000000000    0.3908133333333333 C
   0.2547750000000000    0.9724500000000000    0.3821566666666666 C
   0.3168100000000000    0.8371700000000000    0.3599633333333333 C
   0.3091650000000000    0.8424400000000000    0.4226300000000000 C
   0.3497600000000000    0.9728700000000000    0.3991233333333333 C
   0.2117700000000000    0.0826100000000000    0.3357200000000000 C
   0.1641600000000000    0.0891700000000000    0.3465666666666666 C
   0.2164350000000000    0.1309400000000000    0.6390400000000001 C
   0.1215750000000000    0.1432400000000000    0.6602033333333333 C
   0.1738400000000000    0.1850800000000000    0.6198100000000000 C
   0.1256700000000000    0.1914900000000000    0.6300066666666666 C
   0.0798800000000000    0.2492100000000000    0.6100466666666666 C
   0.3807900000000000    0.7053800000000000    0.3438000000000000 C
   0.3504650000000000    0.6869100000000000    0.6462066666666666 C
   0.4296050000000000    0.6487100000000000    0.3522266666666666 C
   0.3687900000000000    0.6102900000000000    0.6242333333333333 C
   0.4480800000000000    0.5754600000000000    0.6629600000000000 C
   0.4175900000000000    0.5543200000000000    0.6322033333333332 C
   0.4382550000000000    0.4750700000000000    0.6085566666666666 C
   0.2779650000000000    0.6991900000000000    0.4416599999999999 C
   0.2486550000000000    0.6197700000000000    0.4346533333333333 C
   0.3086150000000000    0.7046500000000000    0.4734366666666666 C
   0.2506650000000000    0.5458400000000000    0.4591033333333333 C
   0.3103250000000000    0.6300300000000000    0.4975966666666666 C
   0.2817600000000000    0.5498000000000000    0.4908899999999999 C
   0.2858900000000000    0.4706800000000000    0.5174099999999999 C
   0.3785400000000000    0.0680500000000000    0.4501366666666666 C
   0.4303800000000000    0.0421500000000000    0.4474933333333333 C
   0.3633800000000000    0.1307700000000000    0.4770000000000000 C
   0.4665000000000000    0.0789600000000000    0.4719366666666667 C
   0.3996200000000000    0.1685100000000000    0.5008699999999999 C
   0.4517550000000000    0.1432300000000000    0.4985833333333333 C
   0.4900250000000000    0.1897900000000000    0.5226433333333333 C
   0.0572200000000000    0.8274899999999999    0.3645800000000000 C
   0.0048000000000000    0.8534500000000000    0.3425466666666667 C
   0.0667900000000000    0.9201400000000000    0.3875900000000000 C
   0.0591600000000000    0.7319900000000000    0.3858333333333333 C
   0.0997750000000000    0.8025500000000000    0.3424100000000000 C
   0.4618250000000000    0.9926800000000000    0.6391499999999999 C
   0.4142400000000000    0.9599800000000001    0.6369966666666667 C