H2 O2
1.0
  20.6618056724889527    0.0000000000000000   -2.5453703762524382
  -3.8087218145517139   27.0981695171556609   -7.4783869222482418
   0.0000000000000000    0.0000000000000000   28.4239999999999995
H O
2 2
direct
   0.0505991240347396    0.6993208166615011    0.9486453470564797 H
   0.4494006553068917    0.8006868329894414    0.0513340647789360 H
   0.0372000000000000    0.6916100000000001    0.9129300000000000 O
   0.4628000000000000    0.8084050000000000    0.0870500000000000 O
