H4 C10 S2 O4
1.0
  20.6618056724889527    0.0000000000000000   -2.5453703762524382
  -3.8087218145517139   27.0981695171556609   -7.4783869222482418
   0.0000000000000000    0.0000000000000000   28.4239999999999995
H C S O
4 10 2 4
direct
   0.4999700000000000    0.2034300000000000    0.2418050000000000 H
   0.4745900000000000    0.2107100000000000    0.1509600000000000 H
   0.2529600000000000    0.1364950000000000    0.0898550000000000 H
   0.2347500000000000    0.1303850000000000    0.9943649999999999 H
   0.4050800000000000    0.1418050000000000    0.2741500000000000 C
   0.4110700000000000    0.1512200000000000    0.2261350000000000 C
   0.4581000000000000    0.1829400000000000    0.2148950000000000 C
   0.4444500000000000    0.1867000000000000    0.1662850000000000 C
   0.3868000000000000    0.1574450000000000    0.1399100000000000 C
   0.3578300000000000    0.1518200000000000    0.0894950000000000 C
   0.2920800000000000    0.1409850000000000    0.0685400000000000 C
   0.2821400000000000    0.1379950000000000    0.0177700000000000 C
   0.3398500000000000    0.1463100000000000    0.9997900000000000 C
   0.3501900000000000    0.1462500000000000    0.9492849999999999 C
   0.3502100000000000    0.1250600000000000    0.1759400000000000 S
   0.4069500000000000    0.1575000000000000    0.0456000000000000 S
   0.3527400000000000    0.1159500000000000    0.2771150000000000 O
   0.4527900000000000    0.1610800000000000    0.3092100000000000 O
   0.3002100000000000    0.1398300000000000    0.9165500000000000 O
   0.4101000000000000    0.1526950000000000    0.9431800000000000 O
