H11 O6
1.0
  18.9229999884714459    0.0000000000000000    0.0006605373085751
   0.0003307224401436   18.9489999971139049    0.0000000000000012
   0.0000000000000000    0.0000000000000000   37.8939999999999984
H O
11 6
direct
   0.4057180231643249    0.4023328977925408    0.9674928674148697 H
   0.4027179085283092    0.4064162652969352    0.9675777432500321 H
   0.4137058015068052    0.3402586173650518    0.9441916060757051 H
   0.3395869441558750    0.4133528321331750    0.9443290825135864 H
   0.3852776412183198    0.0820032208958244    0.7966102545605855 H
   0.4138839829109414    0.1118172115640098    0.8297360041644930 H
   0.4057211706771958    0.0989329149409353    0.8163801700617873 H
   0.3393647136379057    0.1113167566076004    0.7933279336041495 H
   0.0822605870183455    0.3853645777767121    0.7966248810953003 H
   0.1112919083582475    0.3397469441699141    0.7933048338511245 H
   0.1119519020859065    0.4139472959807060    0.8297644717229449 H
   0.4238400000000000    0.3732800000000000    0.9633900000000000 O
   0.3726400000000000    0.4237200000000000    0.9635000000000000 O
   0.3723800000000000    0.0729900000000000    0.7880600000000000 O
   0.4240200000000000    0.0733700000000000    0.8132550000000001 O
   0.0729800000000000    0.3728500000000000    0.7881250000000000 O
   0.0734700000000000    0.4241100000000000    0.8132800000000000 O
