Cu20 H146 C225 N90 O6
1.0
  18.9229999884714459    0.0000000000000000    0.0006605373085751
   0.0003307224401436   18.9489999971139049    0.0000000000000012
   0.0000000000000000    0.0000000000000000   37.8939999999999984
Cu H C N O
20 146 225 90 6
direct
   0.9999800000000000    0.6270600000000000    0.2500250000000000 Cu
   0.3720100000000000    0.0000200000000000    0.2499250000000000 Cu
   0.6279500000000000    0.9999700000000000    0.2500750000000000 Cu
   0.0000100000000000    0.3729500000000000    0.2499500000000000 Cu
   0.9999200000000000    0.4999500000000000    0.1864650000000000 Cu
   0.5000200000000000    0.3730000000000000    0.9999750000000001 Cu
   0.0000600000000000    0.5000599999999999    0.8135450000000000 Cu
   0.4998300000000000    0.9999400000000001    0.1864900000000000 Cu
   0.5001400000000000    0.0000500000000000    0.8135100000000000 Cu
   0.9999800000000000    0.6270600000000000    0.7500249999999999 Cu
   0.3720100000000000    0.0000200000000000    0.7499250000000000 Cu
   0.6279500000000000    0.9999700000000000    0.7500750000000000 Cu
   0.0000100000000000    0.3729500000000000    0.7499500000000000 Cu
   0.9999200000000000    0.4999500000000000    0.6864650000000000 Cu
   0.5000200000000000    0.3730000000000000    0.4999750000000000 Cu
   0.0000600000000000    0.5000599999999999    0.3135450000000000 Cu
   0.4998300000000000    0.9999400000000001    0.6864900000000000 Cu
   0.5001400000000000    0.0000500000000000    0.3135100000000000 Cu
   0.3725800000000000    0.5000300000000000    0.4999750000000000 Cu
   0.3725800000000000    0.5000300000000000    0.9999750000000001 Cu
   0.4057180231643249    0.4023328977925408    0.9674928674148697 H
   0.4027179085283092    0.4064162652969352    0.9675777432500321 H
   0.4137058015068052    0.3402586173650518    0.9441916060757051 H
   0.3395869441558750    0.4133528321331750    0.9443290825135864 H
   0.1349300000000000    0.2819600000000000    0.2784250000000000 H
   0.1364600000000000    0.4445300000000000    0.3582600000000000 H
   0.2814800000000000    0.1350800000000000    0.2785500000000000 H
   0.4445800000000000    0.1362600000000000    0.3582100000000000 H
   0.3920000000000000    0.2314000000000000    0.3843050000000000 H
   0.2316400000000000    0.3920100000000000    0.3841750000000000 H
   0.2318200000000000    0.2318500000000000    0.3039100000000000 H
   0.2818600000000000    0.4432000000000000    0.4324050000000000 H
   0.4442300000000000    0.2831100000000000    0.4320800000000000 H
   0.5559100000000000    0.7170600000000000    0.4322350000000000 H
   0.7177100000000000    0.5564100000000000    0.4322550000000000 H
   0.5559200000000000    0.8644100000000000    0.3585500000000000 H
   0.7181300000000000    0.8645500000000000    0.2784050000000000 H
   0.6079400000000000    0.7685400000000000    0.3843450000000000 H
   0.7683000000000000    0.7682600000000001    0.3040350000000000 H
   0.7682800000000000    0.6079000000000000    0.3842050000000000 H
   0.8646300000000000    0.7176900000000001    0.2783150000000000 H
   0.8639400000000000    0.5557600000000000    0.3584800000000000 H
   0.4441600000000000    0.7168500000000000    0.0679500000000000 H
   0.2815900000000000    0.5569700000000000    0.0674500000000000 H
   0.4443100000000000    0.8638900000000000    0.1416850000000000 H
   0.2811500000000000    0.8652500000000000    0.2213350000000000 H
   0.3916800000000000    0.7687600000000000    0.1155900000000000 H
   0.2315400000000000    0.7682400000000000    0.1960100000000000 H
   0.2315700000000000    0.6079000000000000    0.1158300000000000 H
   0.1352900000000000    0.7175700000000000    0.2217650000000000 H
   0.1360200000000000    0.5556600000000000    0.1415800000000000 H
   0.5558700000000000    0.2828900000000000    0.0678000000000000 H
   0.7177800000000000    0.4434300000000000    0.0677950000000000 H
   0.8634400000000000    0.4444500000000000    0.1417350000000000 H
   0.8651500000000000    0.2817500000000000    0.2215000000000000 H
   0.7683300000000000    0.3918800000000000    0.1158050000000000 H
   0.6076900000000000    0.2315500000000000    0.1158100000000000 H
   0.7680700000000000    0.2317900000000000    0.1961100000000000 H
   0.7180000000000000    0.1354700000000000    0.2216500000000000 H
   0.5553700000000000    0.1361100000000000    0.1417750000000000 H
   0.5563000000000000    0.8647000000000000    0.1413000000000000 H
   0.7175800000000000    0.8640400000000000    0.2218750000000000 H
   0.5563300000000000    0.7175500000000000    0.0676000000000000 H
   0.7174199999999999    0.5561900000000000    0.0679300000000000 H
   0.6078400000000000    0.7684700000000000    0.1157750000000000 H
   0.7683100000000000    0.6079700000000000    0.1158350000000000 H
   0.7683600000000000    0.7683400000000000    0.1960050000000000 H
   0.8647600000000000    0.5566300000000000    0.1411050000000000 H
   0.8638600000000000    0.7168400000000000    0.2221250000000000 H
   0.4435200000000000    0.2823400000000000    0.0674750000000000 H
   0.2828900000000000    0.4441700000000000    0.0680500000000000 H
   0.4430700000000000    0.1345600000000000    0.1409250000000000 H
   0.2828000000000000    0.1363800000000000    0.2220300000000000 H
   0.3921600000000000    0.2316000000000000    0.1157300000000000 H
   0.2314400000000000    0.2315300000000000    0.1958600000000000 H
   0.2317600000000000    0.3921600000000000    0.1158150000000000 H
   0.1347900000000000    0.4430900000000000    0.1408500000000000 H
   0.1365500000000000    0.2835500000000000    0.2222400000000000 H
   0.4436400000000000    0.8649000000000000    0.8585000000000000 H
   0.2828700000000000    0.8636500000000000    0.7779150000000000 H
   0.1352500000000000    0.5567400000000000    0.8589000000000000 H
   0.1360500000000000    0.7170000000000000    0.7779000000000000 H
   0.3923800000000000    0.7683700000000000    0.8841399999999999 H
   0.2316700000000000    0.7684299999999999    0.8040050000000001 H
   0.2317100000000000    0.6080800000000000    0.8841850000000000 H
   0.4435300000000000    0.7177600000000000    0.9325200000000000 H
   0.2828700000000000    0.5559800000000000    0.9318500000000001 H
   0.5565700000000000    0.1351500000000000    0.8588150000000000 H
   0.7179300000000000    0.1356300000000000    0.7782450000000001 H
   0.5563500000000000    0.2825700000000000    0.9323450000000000 H
   0.7177600000000000    0.4436200000000000    0.9322200000000000 H
   0.6081700000000000    0.2313700000000000    0.8843400000000000 H
   0.7683100000000000    0.3921900000000000    0.8841300000000001 H
   0.7686400000000000    0.2315800000000000    0.8040800000000000 H
   0.8651900000000000    0.4431900000000000    0.8590500000000000 H
   0.8634600000000000    0.2837100000000000    0.7776700000000000 H
   0.3852776412183198    0.0820032208958244    0.7966102545605855 H
   0.4138839829109414    0.1118172115640098    0.8297360041644930 H
   0.4057211706771958    0.0989329149409353    0.8163801700617873 H
   0.3393647136379057    0.1113167566076004    0.7933279336041495 H
   0.0822605870183455    0.3853645777767121    0.7966248810953003 H
   0.1112919083582475    0.3397469441699141    0.7933048338511245 H
   0.1119519020859065    0.4139472959807060    0.8297644717229449 H
   0.5559100000000000    0.7170600000000000    0.9322349999999999 H
   0.7177100000000000    0.5564100000000000    0.9322550000000001 H
   0.5559200000000000    0.8644100000000000    0.8585499999999999 H
   0.7181300000000000    0.8645500000000000    0.7784050000000000 H
   0.6079400000000000    0.7685400000000000    0.8843449999999999 H
   0.7683000000000000    0.7682600000000001    0.8040350000000001 H
   0.7682800000000000    0.6079000000000000    0.8842050000000000 H
   0.8646300000000000    0.7176900000000001    0.7783150000000000 H
   0.8639400000000000    0.5557600000000000    0.8584800000000000 H
   0.4441600000000000    0.7168500000000000    0.5679500000000000 H
   0.2815900000000000    0.5569700000000000    0.5674500000000000 H
   0.4443100000000000    0.8638900000000000    0.6416850000000001 H
   0.2811500000000000    0.8652500000000000    0.7213350000000001 H
   0.3916800000000000    0.7687600000000000    0.6155900000000000 H
   0.2315400000000000    0.7682400000000000    0.6960100000000000 H
   0.2315700000000000    0.6079000000000000    0.6158300000000000 H
   0.1352900000000000    0.7175700000000000    0.7217650000000000 H
   0.1360200000000000    0.5556600000000000    0.6415800000000000 H
   0.5558700000000000    0.2828900000000000    0.5678000000000000 H
   0.7177800000000000    0.4434300000000000    0.5677950000000000 H
   0.8634400000000000    0.4444500000000000    0.6417349999999999 H
   0.8651500000000000    0.2817500000000000    0.7215000000000000 H
   0.7683300000000000    0.3918800000000000    0.6158050000000000 H
   0.6076900000000000    0.2315500000000000    0.6158100000000000 H
   0.7680700000000000    0.2317900000000000    0.6961100000000000 H
   0.7180000000000000    0.1354700000000000    0.7216500000000000 H
   0.5553700000000000    0.1361100000000000    0.6417750000000000 H
   0.5563000000000000    0.8647000000000000    0.6413000000000000 H
   0.7175800000000000    0.8640400000000000    0.7218750000000000 H
   0.5563300000000000    0.7175500000000000    0.5676000000000000 H
   0.7174199999999999    0.5561900000000000    0.5679300000000000 H
   0.6078400000000000    0.7684700000000000    0.6157750000000000 H
   0.7683100000000000    0.6079700000000000    0.6158350000000000 H
   0.7683600000000000    0.7683400000000000    0.6960050000000000 H
   0.8647600000000000    0.5566300000000000    0.6411050000000000 H
   0.8638600000000000    0.7168400000000000    0.7221250000000000 H
   0.4435200000000000    0.2823400000000000    0.5674750000000000 H
   0.2828900000000000    0.4441700000000000    0.5680499999999999 H
   0.4430700000000000    0.1345600000000000    0.6409250000000000 H
   0.2828000000000000    0.1363800000000000    0.7220299999999999 H
   0.3921600000000000    0.2316000000000000    0.6157300000000000 H
   0.2314400000000000    0.2315300000000000    0.6958600000000000 H
   0.2317600000000000    0.3921600000000000    0.6158150000000000 H
   0.1347900000000000    0.4430900000000000    0.6408500000000000 H
   0.1365500000000000    0.2835500000000000    0.7222400000000000 H
   0.4436400000000000    0.8649000000000000    0.3585000000000000 H
   0.2828700000000000    0.8636500000000000    0.2779150000000000 H
   0.1352500000000000    0.5567400000000000    0.3589000000000000 H
   0.1360500000000000    0.7170000000000000    0.2779000000000000 H
   0.3923800000000000    0.7683700000000000    0.3841400000000000 H
   0.2316700000000000    0.7684299999999999    0.3040050000000000 H
   0.2317100000000000    0.6080800000000000    0.3841850000000000 H
   0.4435300000000000    0.7177600000000000    0.4325200000000000 H
   0.2828700000000000    0.5559800000000000    0.4318500000000000 H
   0.5565700000000000    0.1351500000000000    0.3588150000000000 H
   0.7179300000000000    0.1356300000000000    0.2782450000000000 H
   0.5563500000000000    0.2825700000000000    0.4323450000000000 H
   0.7177600000000000    0.4436200000000000    0.4322200000000000 H
   0.6081700000000000    0.2313700000000000    0.3843400000000000 H
   0.7683100000000000    0.3921900000000000    0.3841300000000000 H
   0.7686400000000000    0.2315800000000000    0.3040800000000000 H
   0.8651900000000000    0.4431900000000000    0.3590500000000000 H
   0.8634600000000000    0.2837100000000000    0.2776700000000000 H
   0.1257900000000000    0.3272200000000000    0.2952650000000000 C
   0.1265200000000000    0.4101000000000000    0.3360050000000000 C
   0.1621600000000000    0.3483700000000000    0.3255000000000000 C
   0.3268800000000000    0.1258100000000000    0.2953200000000000 C
   0.4100500000000000    0.1263600000000000    0.3359700000000000 C
   0.3482300000000000    0.1620400000000000    0.3258500000000000 C
   0.3446600000000000    0.2545200000000000    0.3727400000000000 C
   0.2546600000000000    0.3446200000000000    0.3726800000000000 C
   0.2547300000000000    0.2547200000000000    0.3276650000000000 C
   0.2238400000000000    0.3152600000000000    0.3423700000000000 C
   0.3152300000000000    0.3151400000000000    0.3881400000000000 C
   0.3152700000000000    0.2237600000000000    0.3424150000000000 C
   0.3270800000000000    0.4094300000000000    0.4370750000000000 C
   0.4098700000000000    0.3277600000000000    0.4369250000000000 C
   0.3482100000000000    0.3482300000000000    0.4190000000000000 C
   0.5901600000000000    0.6723000000000000    0.4370150000000000 C
   0.6726700000000000    0.5903400000000000    0.4370200000000000 C
   0.6516700000000000    0.6516700000000000    0.4190200000000000 C
   0.5902700000000000    0.8739900000000000    0.3362050000000000 C
   0.6729800000000000    0.8740300000000000    0.2953200000000000 C
   0.6518400000000000    0.8380100000000000    0.3259550000000000 C
   0.6553099999999999    0.7454400000000000    0.3725000000000000 C
   0.6847600000000000    0.7762500000000000    0.3425000000000000 C
   0.7453200000000000    0.7453200000000000    0.3277550000000000 C
   0.7452900000000000    0.6553200000000000    0.3727200000000000 C
   0.6847200000000000    0.6848100000000000    0.3881500000000000 C
   0.7761500000000000    0.6847100000000000    0.3424300000000000 C
   0.8740000000000000    0.6726100000000000    0.2952000000000000 C
   0.8736600000000000    0.5900300000000001    0.3361350000000000 C
   0.8378400000000000    0.6516200000000000    0.3258650000000000 C
   0.4097700000000000    0.6722399999999999    0.0630500000000000 C
   0.3268800000000000    0.5906600000000000    0.0628450000000000 C
   0.3480100000000000    0.6518400000000000    0.0809300000000000 C
   0.4097300000000000    0.8737700000000000    0.1639000000000000 C
   0.3265500000000000    0.8744000000000000    0.2045500000000000 C
   0.3479100000000000    0.8380900000000000    0.1740400000000000 C
   0.3443800000000000    0.7455900000000000    0.1271700000000000 C
   0.2544800000000000    0.7453400000000000    0.1722700000000000 C
   0.2545100000000000    0.6553700000000000    0.1272900000000000 C
   0.2236700000000000    0.6847299999999999    0.1575900000000000 C
   0.3150300000000000    0.6849000000000000    0.1118050000000000 C
   0.3149800000000000    0.7763400000000000    0.1574950000000000 C
   0.1259200000000000    0.6725100000000001    0.2048250000000000 C
   0.1262700000000000    0.5899500000000000    0.1639150000000000 C
   0.1620800000000000    0.6515300000000001    0.1742000000000000 C
   0.5901300000000000    0.3276500000000000    0.0630300000000000 C
   0.6727000000000000    0.4095400000000000    0.0630350000000000 C
   0.6516600000000000    0.3482200000000000    0.0810000000000000 C
   0.8734300000000000    0.4100000000000000    0.1639800000000000 C
   0.8742400000000000    0.3270500000000000    0.2046500000000000 C
   0.8378100000000001    0.3482500000000000    0.1741800000000000 C
   0.7452400000000000    0.3445500000000000    0.1273350000000000 C
   0.7760700000000000    0.3151900000000000    0.1576000000000000 C
   0.6551000000000000    0.2545900000000000    0.1273000000000000 C
   0.6846000000000000    0.3151500000000000    0.1119100000000000 C
   0.7451300000000000    0.2546900000000000    0.1723700000000000 C
   0.6845100000000000    0.2238100000000000    0.1576550000000000 C
   0.6727600000000000    0.1260300000000000    0.2048200000000000 C
   0.5898200000000000    0.1263200000000000    0.1640550000000000 C
   0.6515200000000000    0.1621300000000000    0.1742350000000000 C
   0.5903600000000000    0.8741200000000000    0.1637750000000000 C
   0.6726300000000000    0.8737800000000000    0.2048700000000000 C
   0.6517600000000000    0.8379900000000000    0.1741300000000000 C
   0.5903700000000000    0.6725800000000000    0.0629250000000000 C
   0.6725400000000000    0.5902800000000000    0.0630850000000000 C
   0.6517200000000000    0.6517600000000000    0.0810100000000000 C
   0.6552800000000000    0.7454400000000000    0.1272850000000000 C
   0.6847100000000000    0.7762500000000000    0.1575500000000000 C
   0.7453000000000000    0.6553800000000000    0.1273250000000000 C
   0.7453200000000000    0.7453500000000000    0.1723000000000000 C
   0.7761600000000000    0.6847600000000000    0.1576150000000000 C
   0.6847299999999999    0.6848600000000000    0.1118700000000000 C
   0.8740700000000000    0.5904400000000000    0.1636700000000000 C
   0.8736400000000000    0.6721900000000000    0.2049800000000000 C
   0.8378500000000000    0.6516400000000000    0.1741750000000000 C
   0.4095700000000000    0.3274100000000000    0.0628500000000000 C
   0.3276400000000000    0.4099400000000000    0.0631350000000000 C
   0.3483300000000000    0.3483500000000000    0.0809950000000000 C
   0.4092200000000000    0.1255000000000000    0.1635200000000000 C
   0.3274400000000000    0.1263900000000000    0.2048650000000000 C
   0.3480900000000000    0.1619500000000000    0.1740200000000000 C
   0.3446900000000000    0.2546000000000000    0.1272250000000000 C
   0.2545600000000000    0.2546100000000000    0.1722000000000000 C
   0.2547000000000000    0.3447000000000000    0.1272850000000000 C
   0.2238000000000000    0.3152800000000000    0.1575550000000000 C
   0.3151800000000000    0.2237300000000000    0.1574950000000000 C
   0.3152700000000000    0.3152100000000000    0.1118250000000000 C
   0.1257000000000000    0.4094400000000000    0.1635350000000000 C
   0.1265400000000000    0.3280200000000000    0.2050100000000000 C
   0.1621000000000000    0.3483900000000000    0.1741100000000000 C
   0.4096700000000000    0.8742100000000000    0.8362000000000001 C
   0.3276400000000000    0.8735900000000000    0.7950050000000000 C
   0.3484100000000000    0.8379200000000000    0.8258000000000000 C
   0.1259400000000000    0.5905500000000000    0.8363650000000000 C
   0.1263100000000000    0.6723200000000000    0.7950650000000000 C
   0.1621200000000000    0.6517700000000000    0.8258650000000001 C
   0.3448800000000000    0.7454000000000000    0.8726600000000000 C
   0.2547500000000000    0.7454000000000000    0.8276800000000000 C
   0.2547400000000000    0.6554600000000000    0.8726750000000000 C
   0.2238800000000000    0.6848400000000000    0.8423849999999999 C
   0.3153700000000000    0.6848700000000000    0.8881049999999999 C
   0.3154000000000000    0.7762400000000000    0.8423750000000000 C
   0.4095900000000000    0.6726900000000000    0.9371200000000000 C
   0.3276300000000000    0.5901900000000000    0.9368200000000000 C
   0.3483600000000000    0.6517800000000000    0.9189650000000000 C
   0.5906700000000000    0.1257700000000000    0.8363499999999999 C
   0.6729800000000000    0.1260100000000000    0.7952650000000000 C
   0.6520899999999999    0.1618700000000000    0.8259900000000000 C
   0.5904500000000000    0.3274800000000000    0.9370650000000000 C
   0.6727700000000000    0.4096200000000000    0.9370000000000001 C
   0.6519200000000001    0.3481900000000000    0.9190499999999999 C
   0.6555600000000000    0.2544600000000000    0.8728050000000001 C
   0.7454200000000000    0.3446800000000000    0.8726900000000000 C
   0.7455600000000000    0.2546100000000000    0.8277500000000000 C
   0.7763000000000000    0.3152900000000000    0.8424000000000000 C
   0.6849000000000000    0.3151400000000000    0.8881749999999999 C
   0.6850000000000001    0.2236700000000000    0.8425000000000000 C
   0.8743000000000000    0.4095300000000000    0.8364100000000000 C
   0.8734800000000000    0.3281400000000000    0.7949200000000001 C
   0.8379100000000000    0.3484900000000000    0.8258200000000000 C
   0.5901600000000000    0.6723000000000000    0.9370149999999999 C
   0.6726700000000000    0.5903400000000000    0.9370200000000000 C
   0.6516700000000000    0.6516700000000000    0.9190199999999999 C
   0.5902700000000000    0.8739900000000000    0.8362050000000000 C
   0.6729800000000000    0.8740300000000000    0.7953200000000000 C
   0.6518400000000000    0.8380100000000000    0.8259550000000000 C
   0.6553099999999999    0.7454400000000000    0.8725000000000001 C
   0.6847600000000000    0.7762500000000000    0.8425000000000000 C
   0.7453200000000000    0.7453200000000000    0.8277550000000000 C
   0.7452900000000000    0.6553200000000000    0.8727199999999999 C
   0.6847200000000000    0.6848100000000000    0.8881500000000000 C
   0.7761500000000000    0.6847100000000000    0.8424300000000000 C
   0.8740000000000000    0.6726100000000000    0.7952000000000000 C
   0.8736600000000000    0.5900300000000001    0.8361350000000001 C
   0.8378400000000000    0.6516200000000000    0.8258650000000001 C
   0.4097700000000000    0.6722399999999999    0.5630500000000001 C
   0.3268800000000000    0.5906600000000000    0.5628450000000000 C
   0.3480100000000000    0.6518400000000000    0.5809299999999999 C
   0.4097300000000000    0.8737700000000000    0.6638999999999999 C
   0.3265500000000000    0.8744000000000000    0.7045500000000000 C
   0.3479100000000000    0.8380900000000000    0.6740400000000000 C
   0.3443800000000000    0.7455900000000000    0.6271700000000000 C
   0.2544800000000000    0.7453400000000000    0.6722700000000000 C
   0.2545100000000000    0.6553700000000000    0.6272900000000000 C
   0.2236700000000000    0.6847299999999999    0.6575900000000000 C
   0.3150300000000000    0.6849000000000000    0.6118050000000000 C
   0.3149800000000000    0.7763400000000000    0.6574949999999999 C
   0.1259200000000000    0.6725100000000001    0.7048250000000000 C
   0.1262700000000000    0.5899500000000000    0.6639150000000000 C
   0.1620800000000000    0.6515300000000001    0.6742000000000000 C
   0.5901300000000000    0.3276500000000000    0.5630300000000000 C
   0.6727000000000000    0.4095400000000000    0.5630350000000000 C
   0.6516600000000000    0.3482200000000000    0.5810000000000000 C
   0.8734300000000000    0.4100000000000000    0.6639800000000000 C
   0.8742400000000000    0.3270500000000000    0.7046500000000000 C
   0.8378100000000001    0.3482500000000000    0.6741800000000000 C
   0.7452400000000000    0.3445500000000000    0.6273350000000000 C
   0.7760700000000000    0.3151900000000000    0.6576000000000000 C
   0.6551000000000000    0.2545900000000000    0.6273000000000000 C
   0.6846000000000000    0.3151500000000000    0.6119100000000000 C
   0.7451300000000000    0.2546900000000000    0.6723700000000000 C
   0.6845100000000000    0.2238100000000000    0.6576550000000000 C
   0.6727600000000000    0.1260300000000000    0.7048200000000000 C
   0.5898200000000000    0.1263200000000000    0.6640550000000001 C
   0.6515200000000000    0.1621300000000000    0.6742350000000000 C
   0.5903600000000000    0.8741200000000000    0.6637750000000000 C
   0.6726300000000000    0.8737800000000000    0.7048700000000000 C
   0.6517600000000000    0.8379900000000000    0.6741300000000000 C
   0.5903700000000000    0.6725800000000000    0.5629250000000000 C
   0.6725400000000000    0.5902800000000000    0.5630850000000001 C
   0.6517200000000000    0.6517600000000000    0.5810100000000000 C
   0.6552800000000000    0.7454400000000000    0.6272850000000000 C
   0.6847100000000000    0.7762500000000000    0.6575500000000000 C
   0.7453000000000000    0.6553800000000000    0.6273250000000000 C
   0.7453200000000000    0.7453500000000000    0.6723000000000000 C
   0.7761600000000000    0.6847600000000000    0.6576150000000001 C
   0.6847299999999999    0.6848600000000000    0.6118700000000000 C
   0.8740700000000000    0.5904400000000000    0.6636700000000000 C
   0.8736400000000000    0.6721900000000000    0.7049799999999999 C
   0.8378500000000000    0.6516400000000000    0.6741750000000000 C
   0.4095700000000000    0.3274100000000000    0.5628500000000000 C
   0.3276400000000000    0.4099400000000000    0.5631349999999999 C
   0.3483300000000000    0.3483500000000000    0.5809950000000000 C
   0.4092200000000000    0.1255000000000000    0.6635200000000000 C
   0.3274400000000000    0.1263900000000000    0.7048650000000000 C
   0.3480900000000000    0.1619500000000000    0.6740200000000001 C
   0.3446900000000000    0.2546000000000000    0.6272250000000000 C
   0.2545600000000000    0.2546100000000000    0.6722000000000000 C
   0.2547000000000000    0.3447000000000000    0.6272850000000000 C
   0.2238000000000000    0.3152800000000000    0.6575550000000000 C
   0.3151800000000000    0.2237300000000000    0.6574949999999999 C
   0.3152700000000000    0.3152100000000000    0.6118250000000000 C
   0.1257000000000000    0.4094400000000000    0.6635350000000000 C
   0.1265400000000000    0.3280200000000000    0.7050100000000000 C
   0.1621000000000000    0.3483900000000000    0.6741100000000000 C
   0.4096700000000000    0.8742100000000000    0.3362000000000000 C
   0.3276400000000000    0.8735900000000000    0.2950050000000000 C
   0.3484100000000000    0.8379200000000000    0.3258000000000000 C
   0.1259400000000000    0.5905500000000000    0.3363650000000000 C
   0.1263100000000000    0.6723200000000000    0.2950650000000000 C
   0.1621200000000000    0.6517700000000000    0.3258650000000000 C
   0.3448800000000000    0.7454000000000000    0.3726600000000000 C
   0.2547500000000000    0.7454000000000000    0.3276800000000000 C
   0.2547400000000000    0.6554600000000000    0.3726750000000000 C
   0.2238800000000000    0.6848400000000000    0.3423850000000000 C
   0.3153700000000000    0.6848700000000000    0.3881050000000000 C
   0.3154000000000000    0.7762400000000000    0.3423750000000000 C
   0.4095900000000000    0.6726900000000000    0.4371200000000000 C
   0.3276300000000000    0.5901900000000000    0.4368200000000000 C
   0.3483600000000000    0.6517800000000000    0.4189650000000000 C
   0.5906700000000000    0.1257700000000000    0.3363500000000000 C
   0.6729800000000000    0.1260100000000000    0.2952650000000000 C
   0.6520899999999999    0.1618700000000000    0.3259900000000000 C
   0.5904500000000000    0.3274800000000000    0.4370650000000000 C
   0.6727700000000000    0.4096200000000000    0.4370000000000000 C
   0.6519200000000001    0.3481900000000000    0.4190500000000000 C
   0.6555600000000000    0.2544600000000000    0.3728050000000000 C
   0.7454200000000000    0.3446800000000000    0.3726900000000000 C
   0.7455600000000000    0.2546100000000000    0.3277500000000000 C
   0.7763000000000000    0.3152900000000000    0.3424000000000000 C
   0.6849000000000000    0.3151400000000000    0.3881750000000000 C
   0.6850000000000001    0.2236700000000000    0.3425000000000000 C
   0.8743000000000000    0.4095300000000000    0.3364100000000000 C
   0.8734800000000000    0.3281400000000000    0.2949200000000000 C
   0.8379100000000000    0.3484900000000000    0.3258200000000000 C
   0.0729800000000000    0.3728500000000000    0.2881250000000000 N
   0.0734700000000000    0.4241100000000000    0.3132800000000000 N
   0.3723800000000000    0.0729900000000000    0.2880600000000000 N
   0.4240200000000000    0.0733700000000000    0.3132550000000000 N
   0.3726400000000000    0.4237200000000000    0.4635000000000000 N
   0.4238400000000000    0.3732800000000000    0.4633900000000000 N
   0.5761200000000000    0.6267400000000000    0.4634500000000000 N
   0.6271500000000000    0.5761100000000000    0.4634750000000000 N
   0.5763900000000000    0.9269200000000000    0.3134400000000000 N
   0.6275400000000000    0.9269900000000000    0.2881900000000000 N
   0.9268700000000000    0.6270400000000000    0.2881200000000000 N
   0.9266600000000000    0.5760100000000000    0.3133850000000000 N
   0.4237500000000000    0.6267500000000000    0.0365950000000000 N
   0.3724900000000000    0.5763600000000000    0.0364400000000000 N
   0.4236000000000000    0.9267600000000000    0.1865000000000000 N
   0.3721100000000000    0.9272300000000000    0.2117250000000000 N
   0.0730800000000000    0.6269100000000000    0.2119550000000000 N
   0.0733200000000000    0.5758700000000000    0.1866900000000000 N
   0.5761600000000000    0.3732000000000000    0.0365800000000000 N
   0.6272200000000000    0.4237800000000000    0.0365650000000000 N
   0.9265200000000000    0.4239700000000000    0.1866850000000000 N
   0.9270500000000000    0.3726800000000000    0.2118200000000000 N
   0.6273300000000001    0.0731400000000000    0.2120450000000000 N
   0.5758300000000000    0.0733500000000000    0.1867800000000000 N
   0.5762100000000000    0.9269700000000000    0.1865350000000000 N
   0.6272799999999999    0.9267800000000000    0.2120250000000000 N
   0.5762699999999999    0.6269800000000000    0.0365150000000000 N
   0.6270800000000000    0.5761400000000000    0.0365950000000000 N
   0.9269100000000000    0.5762000000000000    0.1864700000000000 N
   0.9266400000000000    0.6267000000000000    0.2120050000000000 N
   0.4237100000000000    0.3730300000000000    0.0364600000000000 N
   0.3730800000000000    0.4240300000000000    0.0366250000000000 N
   0.4233000000000000    0.0727300000000000    0.1863500000000000 N
   0.3727500000000000    0.0732500000000000    0.2118950000000000 N
   0.0729200000000000    0.4237000000000000    0.1863650000000000 N
   0.0734700000000000    0.3734400000000000    0.2120150000000000 N
   0.4238500000000000    0.9270100000000000    0.8134399999999999 N
   0.3729600000000000    0.9266300000000000    0.7878700000000001 N
   0.0730500000000000    0.5763400000000000    0.8135850000000000 N
   0.0733000000000000    0.6268400000000000    0.7880499999999999 N
   0.4236700000000000    0.6270800000000000    0.9635300000000000 N
   0.3730300000000000    0.5760600000000000    0.9633400000000000 N
   0.5766500000000000    0.0729000000000000    0.8135700000000000 N
   0.6275400000000000    0.0730200000000000    0.7881899999999999 N
   0.5763700000000000    0.3730400000000000    0.9634950000000000 N
   0.6272600000000000    0.4237900000000000    0.9634650000000000 N