H3 O2
1.0
  39.2099999044476064    0.0000000000000000    0.0027373743966083
   0.0095803030817494   15.2479963958169655    0.0042580448141671
   0.0000000000000000    0.0000000000000000   19.1419999999999995
H O
3 2
direct
   0.3054290545957580    0.0949968844259893    0.7312686547147584 H
   0.3699247599087067    0.9138472310596482    0.8043056220888521 H
   0.3436722385609863    0.8476442813831103    0.7589049288106420 H
   0.3097066666666666    0.1519900000000000    0.7530500000000000 O
   0.3637233333333333    0.8548300000000000    0.7887900000000000 O
