H6 O4
1.0
  15.5829999976265725    0.0000000000000000    0.0002719746573247
   0.0168736030562138   16.4366889622754364   -6.7743822772953042
   0.0000000000000000    0.0000000000000000   36.6139999999999972
H O
6 4
direct
   0.4518292335704099    0.3518610911867077    0.2197597307216956 H
   0.2869967822616980    0.4005351777472478    0.3061520303498951 H
   0.3599734241063876    0.3667939656217913    0.2620270431410882 H
   0.0489214188620593    0.1498291230869872    0.1977447382425400 H
   0.2118729097393309    0.1049759267072112    0.1108545210190245 H
   0.1397854214941047    0.1369566130861936    0.1553017511359934 H
   0.4337200000000000    0.3906400000000000    0.2453650000000000 O
   0.3367100000000000    0.4166100000000000    0.2949200000000000 O
   0.0666700000000000    0.1118400000000000    0.1718950000000000 O
   0.1626300000000000    0.0880600000000000    0.1220300000000000 O
