Zn36 H104 C184 O104
1.0
  15.5829999976265725    0.0000000000000000    0.0002719746573247
   0.0168736030562138   16.4366889622754364   -6.7743822772953042
   0.0000000000000000    0.0000000000000000   36.6139999999999972
Zn H C O
36 104 184 104
direct
   0.9006700000000000    0.0000000000000000    0.0831950000000000 Zn
   0.5006800000000000    0.4977900000000000    0.0830650000000000 Zn
   0.4037600000000000    0.5009100000000000    0.0014800000000000 Zn
   0.5961200000000000    0.4977500000000000    0.1667900000000000 Zn
   0.4005600000000000    0.4995600000000000    0.1665550000000000 Zn
   0.0006000000000000    0.0023200000000000    0.1668500000000000 Zn
   0.9036000000000000    0.9986699999999999    0.2484750000000000 Zn
   0.9037900000000000    0.9974200000000000    0.4168200000000000 Zn
   0.0993400000000000    0.9994100000000000    0.4168400000000000 Zn
   0.4999100000000000    0.5021800000000000    0.4168700000000000 Zn
   0.5997500000000000    0.4989200000000000    0.4984600000000000 Zn
   0.4039700000000000    0.5020400000000000    0.3332450000000000 Zn
   0.5995100000000000    0.5008100000000000    0.3331800000000000 Zn
   0.9998500000000000    0.9977300000000000    0.3331550000000000 Zn
   0.0996200000000000    0.0016100000000000    0.2515900000000000 Zn
   0.0000000000000000    0.9999500000000000    0.0500000000000000 Zn
   0.4999700000000000    0.5000200000000000    0.2499650000000000 Zn
   0.0962600000000000    0.0025900000000000    0.0831350000000000 Zn
   0.9006700000000000    0.0000000000000000    0.5831950000000000 Zn
   0.5006800000000000    0.4977900000000000    0.5830649999999999 Zn
   0.4037600000000000    0.5009100000000000    0.5014800000000000 Zn
   0.5961200000000000    0.4977500000000000    0.6667900000000000 Zn
   0.4005600000000000    0.4995600000000000    0.6665550000000000 Zn
   0.0006000000000000    0.0023200000000000    0.6668499999999999 Zn
   0.9036000000000000    0.9986699999999999    0.7484750000000000 Zn
   0.9037900000000000    0.9974200000000000    0.9168200000000000 Zn
   0.0993400000000000    0.9994100000000000    0.9168400000000000 Zn
   0.4999100000000000    0.5021800000000000    0.9168700000000001 Zn
   0.5997500000000000    0.4989200000000000    0.9984600000000000 Zn
   0.4039700000000000    0.5020400000000000    0.8332450000000000 Zn
   0.5995100000000000    0.5008100000000000    0.8331800000000000 Zn
   0.9998500000000000    0.9977300000000000    0.8331550000000000 Zn
   0.0996200000000000    0.0016100000000000    0.7515900000000000 Zn
   0.0000000000000000    0.9999500000000000    0.5500000000000000 Zn
   0.4999700000000000    0.5000200000000000    0.7499650000000000 Zn
   0.0962600000000000    0.0025900000000000    0.5831350000000000 Zn
   0.8934200000000000    0.2269400000000000    0.0649900000000000 H
   0.7026300000000000    0.1598000000000000    0.4735100000000000 H
   0.7961100000000000    0.3357800000000000    0.1090850000000000 H
   0.6053300000000000    0.2687700000000000    0.0175950000000000 H
   0.8222900000000000    0.8393699999999999    0.4286000000000000 H
   0.7516800000000000    0.7901700000000000    0.0308250000000000 H
   0.7444800000000000    0.7143800000000000    0.3854400000000000 H
   0.6745900000000000    0.6646100000000000    0.4876700000000000 H
   0.2530300000000000    0.7138800000000000    0.0528150000000000 H
   0.3749300000000000    0.7019000000000000    0.1558200000000000 H
   0.1677600000000000    0.8339900000000000    0.0957700000000000 H
   0.2863900000000000    0.8193900000000000    0.1988000000000000 H
   0.3217200000000000    0.6601000000000000    0.3213500000000000 H
   0.2520600000000000    0.7100100000000000    0.2192000000000000 H
   0.2440500000000000    0.7853200000000000    0.3645600000000000 H
   0.1751400000000000    0.8358500000000000    0.2624150000000000 H
   0.7534200000000000    0.7862200000000000    0.1971050000000000 H
   0.8755200000000000    0.7974300000000000    0.0939950000000000 H
   0.6681000000000000    0.6662400000000001    0.1542850000000000 H
   0.7868600000000000    0.6801300000000000    0.0511200000000000 H
   0.1067800000000000    0.7729700000000000    0.4349450000000000 H
   0.2973400000000000    0.8400500000000000    0.0265250000000000 H
   0.2041000000000000    0.6640500000000000    0.3909150000000000 H
   0.3946200000000000    0.7309300000000000    0.4825250000000000 H
   0.1780500000000000    0.1611900000000000    0.0714850000000000 H
   0.2484900000000000    0.2089100000000000    0.4688450000000000 H
   0.2559600000000000    0.2864000000000000    0.1143350000000000 H
   0.3257100000000000    0.3346900000000000    0.0116750000000000 H
   0.7480400000000000    0.2855300000000000    0.4467400000000000 H
   0.6256900000000000    0.2976000000000000    0.3438550000000000 H
   0.8328900000000000    0.1652000000000000    0.4037350000000000 H
   0.7139500000000000    0.1799500000000000    0.3007950000000000 H
   0.6072100000000000    0.7268800000000000    0.3158000000000000 H
   0.7951700000000000    0.6614800000000000    0.2230500000000000 H
   0.7050600000000000    0.8353300000000000    0.3595450000000000 H
   0.8930500000000000    0.7700500000000000    0.2668250000000000 H
   0.6784900000000000    0.3394700000000000    0.1784700000000000 H
   0.7478600000000000    0.2902600000000000    0.2808550000000000 H
   0.7562500000000000    0.2141600000000000    0.1354450000000000 H
   0.8249000000000000    0.1643400000000000    0.2378150000000000 H
   0.2476400000000000    0.2142400000000000    0.3032500000000000 H
   0.1255900000000000    0.2030300000000000    0.4060000000000000 H
   0.3331900000000000    0.3339800000000000    0.3460700000000000 H
   0.2146300000000000    0.3200200000000000    0.4492650000000000 H
   0.9944900000000000    0.1068300000000000    0.0685250000000000 H
   0.9991100000000001    0.8966100000000000    0.0983500000000000 H
   0.0000000000000000    0.1063600000000000    0.2362200000000000 H
   0.0052500000000000    0.8930100000000000    0.4315000000000000 H
   0.0000000000000000    0.1033400000000000    0.4015000000000000 H
   0.0004100000000000    0.8938800000000000    0.2636850000000000 H
   0.8934200000000000    0.2269400000000000    0.5649900000000000 H
   0.7026300000000000    0.1598000000000000    0.9735100000000000 H
   0.7961100000000000    0.3357800000000000    0.6090850000000000 H
   0.6053300000000000    0.2687700000000000    0.5175950000000000 H
   0.8222900000000000    0.8393699999999999    0.9286000000000000 H
   0.7516800000000000    0.7901700000000000    0.5308250000000000 H
   0.7444800000000000    0.7143800000000000    0.8854400000000000 H
   0.6745900000000000    0.6646100000000000    0.9876700000000000 H
   0.2530300000000000    0.7138800000000000    0.5528150000000001 H
   0.3749300000000000    0.7019000000000000    0.6558200000000000 H
   0.1677600000000000    0.8339900000000000    0.5957700000000000 H
   0.2863900000000000    0.8193900000000000    0.6988000000000000 H
   0.3929600000000000    0.2731100000000000    0.6842200000000001 H
   0.2048900000000000    0.3383900000000000    0.7769200000000001 H
   0.2951000000000000    0.1647600000000000    0.6403950000000000 H
   0.1069700000000000    0.2299700000000000    0.7330500000000000 H
   0.3217200000000000    0.6601000000000000    0.8213500000000000 H
   0.2520600000000000    0.7100100000000000    0.7192000000000001 H
   0.2440500000000000    0.7853200000000000    0.8645600000000000 H
   0.1751400000000000    0.8358500000000000    0.7624150000000001 H
   0.7534200000000000    0.7862200000000000    0.6971050000000000 H
   0.8755200000000000    0.7974300000000000    0.5939950000000001 H
   0.6681000000000000    0.6662400000000001    0.6542850000000000 H
   0.7868600000000000    0.6801300000000000    0.5511200000000001 H
   0.1067800000000000    0.7729700000000000    0.9349450000000000 H
   0.2973400000000000    0.8400500000000000    0.5265250000000000 H
   0.2041000000000000    0.6640500000000000    0.8909150000000000 H
   0.3946200000000000    0.7309300000000000    0.9825250000000000 H
   0.1780500000000000    0.1611900000000000    0.5714850000000000 H
   0.2484900000000000    0.2089100000000000    0.9688450000000000 H
   0.2559600000000000    0.2864000000000000    0.6143350000000000 H
   0.3257100000000000    0.3346900000000000    0.5116750000000000 H
   0.7480400000000000    0.2855300000000000    0.9467400000000000 H
   0.6256900000000000    0.2976000000000000    0.8438550000000000 H
   0.8328900000000000    0.1652000000000000    0.9037350000000000 H
   0.7139500000000000    0.1799500000000000    0.8007949999999999 H
   0.6072100000000000    0.7268800000000000    0.8158000000000001 H
   0.7951700000000000    0.6614800000000000    0.7230500000000000 H
   0.7050600000000000    0.8353300000000000    0.8595450000000000 H
   0.8930500000000000    0.7700500000000000    0.7668250000000000 H
   0.6784900000000000    0.3394700000000000    0.6784700000000000 H
   0.7478600000000000    0.2902600000000000    0.7808550000000001 H
   0.7562500000000000    0.2141600000000000    0.6354450000000000 H
   0.8249000000000000    0.1643400000000000    0.7378150000000000 H
   0.2476400000000000    0.2142400000000000    0.8032500000000000 H
   0.1255900000000000    0.2030300000000000    0.9060000000000000 H
   0.3331900000000000    0.3339800000000000    0.8460700000000000 H
   0.2146300000000000    0.3200200000000000    0.9492650000000000 H
   0.9944900000000000    0.1068300000000000    0.5685249999999999 H
   0.9991100000000001    0.8966100000000000    0.5983500000000000 H
   0.0000000000000000    0.1063600000000000    0.7362200000000000 H
   0.0052500000000000    0.8930100000000000    0.9315000000000000 H
   0.0000000000000000    0.1033400000000000    0.9015000000000000 H
   0.0004100000000000    0.8938800000000000    0.7636849999999999 H
   0.8621600000000000    0.1210000000000000    0.4904000000000000 C
   0.8039600000000000    0.1866300000000000    0.0165800000000000 C
   0.8300800000000000    0.2362600000000000    0.0548500000000000 C
   0.7225900000000000    0.1986700000000000    0.0032050000000000 C
   0.7760800000000000    0.2968800000000000    0.0793900000000000 C
   0.6686500000000000    0.2593600000000000    0.0277000000000000 C
   0.6947300000000000    0.3089400000000000    0.0660200000000000 C
   0.6364600000000000    0.3745600000000000    0.0921950000000000 C
   0.8419500000000000    0.8946499999999999    0.0081350000000000 C
   0.7926600000000000    0.8216400000000000    0.4823550000000000 C
   0.7902900000000000    0.8006900000000000    0.4413550000000000 C
   0.7500599999999999    0.7727600000000000    0.4989600000000000 C
   0.7465900000000000    0.7313499999999999    0.4172950000000000 C
   0.7065700000000000    0.7033100000000000    0.4749200000000000 C
   0.7046700000000000    0.6820600000000000    0.4338900000000000 C
   0.6570000000000000    0.6078900000000000    0.4081050000000000 C
   0.3711600000000000    0.6285700000000000    0.0759750000000000 C
   0.3193600000000000    0.7003600000000000    0.1016100000000000 C
   0.2604000000000000    0.7375699999999999    0.0847900000000000 C
   0.3292000000000000    0.7307900000000001    0.1428000000000000 C
   0.2122500000000000    0.8040000000000000    0.1087700000000000 C
   0.2797000000000000    0.7960700000000001    0.1668150000000000 C
   0.2204800000000000    0.8330300000000000    0.1500000000000000 C
   0.1650200000000000    0.9018500000000000    0.1756500000000000 C
   0.3417800000000000    0.6050100000000000    0.2418250000000000 C
   0.2925600000000000    0.6781800000000000    0.2676400000000000 C
   0.2899500000000000    0.6989800000000000    0.3086300000000000 C
   0.2502500000000000    0.7273200000000000    0.2510700000000000 C
   0.2463600000000000    0.7684700000000000    0.3327100000000000 C
   0.2068900000000000    0.7969300000000000    0.2751350000000000 C
   0.2047300000000000    0.8180100000000000    0.3161450000000000 C
   0.1570600000000000    0.8922600000000001    0.3419450000000000 C
   0.8714499999999999    0.8711700000000000    0.1738800000000000 C
   0.8198500000000000    0.7993400000000001    0.1482600000000000 C
   0.7608400000000000    0.7623400000000000    0.1651350000000000 C
   0.8297500000000000    0.7687300000000000    0.1070650000000000 C
   0.7126300000000000    0.6960200000000000    0.1412200000000000 C
   0.7801800000000000    0.7035600000000000    0.0831100000000000 C
   0.7208900000000000    0.6668300000000000    0.0999700000000000 C
   0.6652400000000001    0.5982499999999999    0.0743500000000000 C
   0.1379000000000000    0.8789200000000000    0.0095300000000000 C
   0.1961200000000000    0.8132500000000000    0.4834000000000000 C
   0.1700700000000000    0.7636100000000000    0.4450950000000000 C
   0.2774200000000000    0.8011700000000000    0.4968200000000000 C
   0.2240800000000000    0.7029500000000000    0.4206200000000000 C
   0.3313800000000000    0.7404200000000000    0.4723650000000000 C
   0.3053600000000000    0.6908500000000000    0.4340350000000000 C
   0.3636100000000000    0.6251800000000000    0.4078850000000000 C
   0.1581000000000000    0.1051500000000000    0.4919000000000000 C
   0.2075500000000000    0.1782000000000000    0.0175400000000000 C
   0.2100100000000000    0.1996100000000000    0.0585500000000000 C
   0.2501600000000000    0.2267100000000000    0.0007300000000000 C
   0.2537900000000000    0.2690800000000000    0.0824550000000000 C
   0.2937200000000000    0.2962800000000000    0.0245900000000000 C
   0.2956400000000000    0.3180500000000000    0.0656500000000000 C
   0.3433400000000000    0.3924000000000000    0.0912150000000000 C
   0.6305500000000001    0.3714600000000000    0.4237450000000000 C
   0.6816400000000000    0.2992200000000000    0.3980100000000000 C
   0.7405100000000000    0.2618200000000000    0.4147800000000000 C
   0.6714700000000000    0.2686600000000000    0.3568300000000000 C
   0.7884100000000001    0.1952600000000000    0.3907650000000000 C
   0.7207900000000000    0.2032600000000000    0.3327750000000000 C
   0.7801399999999999    0.1663100000000000    0.3495200000000000 C
   0.8360300000000001    0.0978400000000000    0.3239000000000000 C
   0.6367000000000000    0.6219900000000000    0.2407800000000000 C
   0.6951900000000000    0.6874800000000000    0.2667550000000000 C
   0.6700300000000000    0.7365000000000000    0.3053200000000000 C
   0.7759500000000000    0.6998799999999999    0.2529650000000000 C
   0.7243400000000000    0.7969000000000001    0.3296500000000000 C
   0.8302300000000000    0.7603600000000000    0.2772900000000000 C
   0.8051199999999999    0.8092800000000000    0.3158750000000000 C
   0.8636300000000000    0.8746200000000000    0.3419850000000000 C
   0.6581900000000001    0.3949400000000000    0.2580300000000000 C
   0.7074700000000000    0.3217400000000000    0.2322900000000000 C
   0.7102100000000000    0.3007200000000000    0.1912850000000000 C
   0.7497500000000000    0.2727800000000000    0.2489750000000000 C
   0.7538600000000000    0.2311600000000000    0.1673050000000000 C
   0.7931700000000000    0.2031200000000000    0.2250150000000000 C
   0.7954400000000000    0.1817900000000000    0.1839900000000000 C
   0.8431700000000000    0.1074400000000000    0.1583300000000000 C
   0.1301300000000000    0.1289100000000000    0.3264150000000000 C
   0.1813600000000000    0.2009800000000000    0.3521200000000000 C
   0.2403100000000000    0.2380400000000000    0.3350000000000000 C
   0.1714500000000000    0.2316300000000000    0.3933150000000000 C
   0.2886700000000000    0.3042400000000000    0.3591550000000000 C
   0.2212600000000000    0.2966500000000000    0.4172750000000000 C
   0.2806900000000000    0.3332600000000000    0.4004150000000000 C
   0.3369100000000000    0.4014400000000000    0.4259200000000000 C
   0.8621600000000000    0.1210000000000000    0.9903999999999999 C
   0.8039600000000000    0.1866300000000000    0.5165800000000000 C
   0.8300800000000000    0.2362600000000000    0.5548500000000000 C
   0.7225900000000000    0.1986700000000000    0.5032050000000000 C
   0.7760800000000000    0.2968800000000000    0.5793900000000000 C
   0.6686500000000000    0.2593600000000000    0.5276999999999999 C
   0.6947300000000000    0.3089400000000000    0.5660200000000000 C
   0.6364600000000000    0.3745600000000000    0.5921950000000000 C
   0.8419500000000000    0.8946499999999999    0.5081350000000000 C
   0.7926600000000000    0.8216400000000000    0.9823550000000000 C
   0.7902900000000000    0.8006900000000000    0.9413549999999999 C
   0.7500599999999999    0.7727600000000000    0.9989600000000001 C
   0.7465900000000000    0.7313499999999999    0.9172950000000000 C
   0.7065700000000000    0.7033100000000000    0.9749200000000000 C
   0.7046700000000000    0.6820600000000000    0.9338900000000000 C
   0.6570000000000000    0.6078900000000000    0.9081049999999999 C
   0.3711600000000000    0.6285700000000000    0.5759750000000000 C
   0.3193600000000000    0.7003600000000000    0.6016100000000000 C
   0.2604000000000000    0.7375699999999999    0.5847900000000000 C
   0.3292000000000000    0.7307900000000001    0.6428000000000000 C
   0.2122500000000000    0.8040000000000000    0.6087700000000000 C
   0.2797000000000000    0.7960700000000001    0.6668149999999999 C
   0.2204800000000000    0.8330300000000000    0.6500000000000000 C
   0.1650200000000000    0.9018500000000000    0.6756500000000000 C
   0.3633900000000000    0.3779100000000000    0.7592449999999999 C
   0.3049100000000000    0.3124400000000000    0.7332400000000000 C
   0.3301000000000000    0.2635000000000000    0.6946700000000000 C
   0.2241300000000000    0.3000400000000000    0.7470000000000000 C
   0.2758000000000000    0.2031400000000000    0.6703000000000000 C
   0.1698400000000000    0.2396300000000000    0.7226350000000000 C
   0.1949800000000000    0.1907700000000000    0.6840400000000000 C
   0.1364500000000000    0.1254900000000000    0.6579050000000000 C
   0.3417800000000000    0.6050100000000000    0.7418250000000000 C
   0.2925600000000000    0.6781800000000000    0.7676400000000000 C
   0.2899500000000000    0.6989800000000000    0.8086300000000000 C
   0.2502500000000000    0.7273200000000000    0.7510700000000000 C
   0.2463600000000000    0.7684700000000000    0.8327100000000001 C
   0.2068900000000000    0.7969300000000000    0.7751350000000000 C
   0.2047300000000000    0.8180100000000000    0.8161450000000000 C
   0.1570600000000000    0.8922600000000001    0.8419449999999999 C
   0.8714499999999999    0.8711700000000000    0.6738800000000000 C
   0.8198500000000000    0.7993400000000001    0.6482600000000001 C
   0.7608400000000000    0.7623400000000000    0.6651350000000000 C
   0.8297500000000000    0.7687300000000000    0.6070650000000000 C
   0.7126300000000000    0.6960200000000000    0.6412200000000000 C
   0.7801800000000000    0.7035600000000000    0.5831100000000000 C
   0.7208900000000000    0.6668300000000000    0.5999700000000000 C
   0.6652400000000001    0.5982499999999999    0.5743500000000000 C
   0.1379000000000000    0.8789200000000000    0.5095300000000000 C
   0.1961200000000000    0.8132500000000000    0.9834000000000001 C
   0.1700700000000000    0.7636100000000000    0.9450950000000000 C
   0.2774200000000000    0.8011700000000000    0.9968200000000000 C
   0.2240800000000000    0.7029500000000000    0.9206200000000000 C
   0.3313800000000000    0.7404200000000000    0.9723649999999999 C
   0.3053600000000000    0.6908500000000000    0.9340349999999999 C
   0.3636100000000000    0.6251800000000000    0.9078850000000001 C
   0.1581000000000000    0.1051500000000000    0.9919000000000000 C
   0.2075500000000000    0.1782000000000000    0.5175400000000000 C
   0.2100100000000000    0.1996100000000000    0.5585500000000000 C
   0.2501600000000000    0.2267100000000000    0.5007300000000000 C
   0.2537900000000000    0.2690800000000000    0.5824549999999999 C
   0.2937200000000000    0.2962800000000000    0.5245900000000000 C
   0.2956400000000000    0.3180500000000000    0.5656500000000000 C
   0.3433400000000000    0.3924000000000000    0.5912150000000000 C
   0.6305500000000001    0.3714600000000000    0.9237450000000000 C
   0.6816400000000000    0.2992200000000000    0.8980100000000000 C
   0.7405100000000000    0.2618200000000000    0.9147799999999999 C
   0.6714700000000000    0.2686600000000000    0.8568300000000000 C
   0.7884100000000001    0.1952600000000000    0.8907650000000000 C
   0.7207900000000000    0.2032600000000000    0.8327750000000000 C
   0.7801399999999999    0.1663100000000000    0.8495200000000001 C
   0.8360300000000001    0.0978400000000000    0.8239000000000001 C
   0.6367000000000000    0.6219900000000000    0.7407800000000000 C
   0.6951900000000000    0.6874800000000000    0.7667550000000001 C
   0.6700300000000000    0.7365000000000000    0.8053200000000000 C
   0.7759500000000000    0.6998799999999999    0.7529650000000000 C
   0.7243400000000000    0.7969000000000001    0.8296500000000000 C
   0.8302300000000000    0.7603600000000000    0.7772900000000000 C
   0.8051199999999999    0.8092800000000000    0.8158750000000000 C
   0.8636300000000000    0.8746200000000000    0.8419850000000000 C
   0.6581900000000001    0.3949400000000000    0.7580300000000000 C
   0.7074700000000000    0.3217400000000000    0.7322900000000000 C
   0.7102100000000000    0.3007200000000000    0.6912850000000000 C
   0.7497500000000000    0.2727800000000000    0.7489749999999999 C
   0.7538600000000000    0.2311600000000000    0.6673050000000000 C
   0.7931700000000000    0.2031200000000000    0.7250150000000000 C
   0.7954400000000000    0.1817900000000000    0.6839900000000000 C
   0.8431700000000000    0.1074400000000000    0.6583300000000000 C
   0.1301300000000000    0.1289100000000000    0.8264150000000000 C
   0.1813600000000000    0.2009800000000000    0.8521200000000000 C
   0.2403100000000000    0.2380400000000000    0.8350000000000000 C
   0.1714500000000000    0.2316300000000000    0.8933150000000001 C
   0.2886700000000000    0.3042400000000000    0.8591550000000000 C
   0.2212600000000000    0.2966500000000000    0.9172750000000001 C
   0.2806900000000000    0.3332600000000000    0.9004150000000000 C
   0.3369100000000000    0.4014400000000000    0.9259200000000001 C
   0.1590800000000000    0.9071900000000001    0.3793000000000000 O
   0.9370000000000001    0.8912700000000000    0.1593600000000000 O
   0.8443800000000000    0.9070900000000000    0.2096700000000000 O
   0.6215600000000000    0.5595900000000000    0.0904050000000000 O
   0.9334200000000000    0.1089400000000000    0.0000000000000000 O
   0.8343800000000000    0.0814400000000000    0.4550100000000000 O
   0.5666200000000000    0.3882800000000000    0.0782600000000000 O
   0.6628300000000000    0.4122000000000000    0.1280150000000000 O
   0.8807400000000000    0.9371300000000000    0.4925250000000000 O
   0.8408500000000000    0.9086200000000000    0.0454650000000000 O
   0.6188500000000000    0.5651800000000000    0.4238200000000000 O
   0.6590600000000000    0.5929800000000000    0.3707150000000000 O
   0.4369200000000000    0.6087399999999999    0.0904950000000000 O
   0.3441100000000000    0.5924199999999999    0.0402100000000000 O
   0.1213000000000000    0.9405300000000000    0.1596350000000000 O
   0.1664700000000000    0.9159400000000000    0.2130500000000000 O
   0.3804600000000000    0.5624500000000000    0.2574600000000000 O
   0.3407700000000000    0.5910600000000000    0.2044950000000000 O
   0.1188900000000000    0.9350400000000000    0.3262400000000000 O
   0.6665000000000000    0.5843600000000000    0.0369950000000000 O
   0.0666700000000000    0.8909500000000000    0.4960750000000000 O
   0.1656100000000000    0.9185400000000000    0.0449300000000000 O
   0.4333900000000000    0.6113900000000000    0.4218450000000000 O
   0.3372700000000000    0.5875800000000000    0.3720500000000000 O
   0.1191900000000000    0.0629500000000000    0.0076250000000000 O
   0.1591800000000000    0.0909200000000000    0.4545450000000000 O
   0.3816700000000000    0.4345700000000000    0.0752450000000000 O
   0.3410600000000000    0.4079500000000000    0.1286600000000000 O
   0.5642400000000000    0.3912400000000000    0.4095900000000000 O
   0.6590000000000000    0.4080000000000000    0.4592600000000000 O
   0.8800200000000000    0.0594700000000000    0.3400150000000000 O
   0.8349400000000000    0.0837500000000000    0.2865150000000000 O
   0.5663100000000000    0.6093700000000000    0.2546600000000000 O
   0.6633900000000000    0.5831499999999999    0.2051000000000000 O
   0.9333500000000000    0.8883400000000000    0.3279500000000000 O
   0.8374600000000000    0.9120100000000000    0.3778700000000000 O
   0.6193700000000000    0.4373300000000000    0.2423350000000000 O
   0.6592600000000000    0.4091100000000000    0.2953500000000000 O
   0.8815600000000000    0.0650800000000000    0.1742000000000000 O
   0.8409500000000000    0.0920600000000000    0.1209050000000000 O
   0.0640100000000000    0.1089800000000000    0.3406100000000000 O
   0.1584300000000000    0.0926100000000000    0.2908250000000000 O
   0.3802100000000000    0.4401700000000000    0.4097750000000000 O
   0.3367200000000000    0.4150000000000000    0.4632500000000000 O
   0.9968000000000000    0.0480700000000000    0.0611450000000000 O
   0.9994900000000000    0.9552700000000000    0.1052550000000000 O
   0.0027000000000000    0.0474100000000000    0.2283000000000000 O
   0.0030100000000000    0.9517700000000000    0.4388700000000000 O
   0.0000000000000000    0.0446500000000000    0.3947550000000000 O
   0.0000000000000000    0.9528600000000000    0.2717450000000000 O
   0.1590800000000000    0.9071900000000001    0.8793000000000000 O
   0.9370000000000001    0.8912700000000000    0.6593599999999999 O
   0.8443800000000000    0.9070900000000000    0.7096700000000000 O
   0.6215600000000000    0.5595900000000000    0.5904050000000000 O
   0.9334200000000000    0.1089400000000000    0.5000000000000000 O
   0.8343800000000000    0.0814400000000000    0.9550100000000000 O
   0.5666200000000000    0.3882800000000000    0.5782600000000000 O
   0.6628300000000000    0.4122000000000000    0.6280150000000000 O
   0.8807400000000000    0.9371300000000000    0.9925250000000000 O
   0.8408500000000000    0.9086200000000000    0.5454650000000000 O
   0.6188500000000000    0.5651800000000000    0.9238200000000000 O
   0.6590600000000000    0.5929800000000000    0.8707150000000000 O
   0.4369200000000000    0.6087399999999999    0.5904950000000000 O
   0.3441100000000000    0.5924199999999999    0.5402100000000000 O
   0.1213000000000000    0.9405300000000000    0.6596350000000000 O
   0.1664700000000000    0.9159400000000000    0.7130500000000000 O
   0.4337200000000000    0.3906400000000000    0.7453650000000001 O
   0.3367100000000000    0.4166100000000000    0.7949200000000001 O
   0.0666700000000000    0.1118400000000000    0.6718950000000000 O
   0.1626300000000000    0.0880600000000000    0.6220300000000000 O
   0.3804600000000000    0.5624500000000000    0.7574600000000000 O
   0.3407700000000000    0.5910600000000000    0.7044950000000000 O
   0.1188900000000000    0.9350400000000000    0.8262400000000000 O
   0.6665000000000000    0.5843600000000000    0.5369950000000000 O
   0.0666700000000000    0.8909500000000000    0.9960750000000000 O
   0.1656100000000000    0.9185400000000000    0.5449300000000000 O
   0.4333900000000000    0.6113900000000000    0.9218450000000000 O
   0.3372700000000000    0.5875800000000000    0.8720500000000000 O
   0.1191900000000000    0.0629500000000000    0.5076250000000000 O
   0.1591800000000000    0.0909200000000000    0.9545450000000000 O
   0.3816700000000000    0.4345700000000000    0.5752450000000000 O
   0.3410600000000000    0.4079500000000000    0.6286600000000000 O
   0.5642400000000000    0.3912400000000000    0.9095900000000000 O
   0.6590000000000000    0.4080000000000000    0.9592600000000000 O
   0.8800200000000000    0.0594700000000000    0.8400150000000000 O
   0.8349400000000000    0.0837500000000000    0.7865150000000001 O
   0.5663100000000000    0.6093700000000000    0.7546600000000000 O
   0.6633900000000000    0.5831499999999999    0.7051000000000001 O
   0.9333500000000000    0.8883400000000000    0.8279500000000000 O
   0.8374600000000000    0.9120100000000000    0.8778699999999999 O
   0.6193700000000000    0.4373300000000000    0.7423350000000000 O
   0.6592600000000000    0.4091100000000000    0.7953500000000000 O
   0.8815600000000000    0.0650800000000000    0.6742000000000000 O
   0.8409500000000000    0.0920600000000000    0.6209050000000000 O
   0.0640100000000000    0.1089800000000000    0.8406100000000001 O
   0.1584300000000000    0.0926100000000000    0.7908250000000000 O
   0.3802100000000000    0.4401700000000000    0.9097750000000000 O
   0.3367200000000000    0.4150000000000000    0.9632499999999999 O
   0.9968000000000000    0.0480700000000000    0.5611450000000000 O
   0.9994900000000000    0.9552700000000000    0.6052550000000000 O
   0.0027000000000000    0.0474100000000000    0.7282999999999999 O
   0.0030100000000000    0.9517700000000000    0.9388700000000000 O
   0.0000000000000000    0.0446500000000000    0.8947550000000000 O
   0.0000000000000000    0.9528600000000000    0.7717450000000000 O
