H6 O4
1.0
  32.6846384552008331    0.0000000000000000   18.5667043131732719
  10.7324029885925736   30.6845731393834384   18.5990537755090592
   0.0000000000000000    0.0000000000000000   37.4480000000000004
H O
6 4
direct
   0.8168675555084607    0.6306951239137841    0.8172232902253165 H
   0.8171062862359223    0.7352222695366902    0.8176851278278349 H
   0.8208279006892911    0.6791415312889427    0.8213139245369275 H
   0.9469480292737100    0.5476842717104964    0.9465629853328805 H
   0.9460141519121565    0.6099797288232551    0.9455717244821659 H
   0.9687837900388516    0.7121433106012426    0.9684779546427774 H
   0.8071850000000000    0.6622650000000000    0.8075399999999999 O
   0.8073350000000000    0.7231350000000000    0.8078200000000000 O
   0.9426099999999999    0.5268500000000000    0.9421999999999999 O
   0.9428550000000000    0.5876150000000000    0.9424000000000000 O
