H7 C10 N2 O2
1.0
  13.4639993355782384    0.0000000000000000    0.0042298402792170
   0.0093888811094689   14.9489920220146875    0.0122627343091230
   0.0000000000000000    0.0000000000000000   29.9059999999999988
H C N O
7 10 2 2
direct
   0.1807500000000000    0.1835600000000000    0.7665150000000001 H
   0.0114000000000000    0.0841800000000000    0.7480450000000000 H
   0.0411500000000000    0.1182100000000000    0.8884300000000001 H
   0.9530800000000000    0.9373800000000000    0.7755000000000001 H
   0.8053100000000000    0.8407500000000000    0.7896250000000000 H
   0.7092800000000000    0.0000000000000000    0.8943500000000000 H
   0.8562000000000000    0.1153300000000000    0.8804900000000000 H
   0.1271700000000000    0.1541100000000000    0.7891900000000001 C
   0.0442000000000000    0.1046400000000000    0.7794550000000000 C
   0.0570300000000000    0.1234200000000000    0.8530100000000000 C
   0.9135799999999999    0.0316800000000000    0.8275450000000000 C
   0.8991400000000001    0.9552400000000000    0.8014450000000000 C
   0.8168400000000000    0.9011500000000000    0.8092850000000000 C
   0.7483400000000000    0.9222700000000000    0.8430100000000000 C
   0.7637400000000000    0.9993700000000000    0.8687000000000000 C
   0.8455200000000000    0.0543800000000000    0.8610949999999999 C
   0.6598100000000000    0.8624900000000000    0.8512750000000000 C
   0.1344400000000000    0.1648800000000000    0.8350550000000000 N
   0.9995200000000000    0.0854400000000000    0.8203500000000000 N
   0.6497500000000000    0.7942900000000001    0.8262849999999999 O
   0.6002900000000000    0.8830400000000000    0.8828000000000000 O
