H5 O3
1.0
  13.3959686279369485    0.0000000000000000   -0.0289917113861495
  -6.0425780183104090   30.9026931917029692    0.0703448086696478
   0.0000000000000000    0.0000000000000000   23.7439999999999998
H O
5 3
direct
   0.7470279152842537    0.2138669400886474    0.1326145382903425 H
   0.7663889021455289    0.1678883335761200    0.1114937502382616 H
   0.4276643745007904    0.0621562056406689    0.3857093606177149 H
   0.4335189621607551    0.0586156271767127    0.4123263954469565 H
   0.2699995242117768    0.0668612640783626    0.4547723343225382 H
   0.7548000000000000    0.1963100000000000    0.0995400000000000 O
   0.4347100000000000    0.0324800000000000    0.3944000000000000 O
   0.2511100000000000    0.0354200000000000    0.4589600000000000 O
