H4 C8 O4
1.0
  28.1179446894094447    0.0000000000000000   -6.4130169532998416
  -3.2632906872319478   29.3988238488788838  -14.3259919793784434
   0.0000000000000000    0.0000000000000000   37.9819999999999993
H C O
4 8 4
direct
   0.4175400000000000    0.0512650000000000    0.5859500000000000 H
   0.4781950000000000    0.1308700000000000    0.7129300000000001 H
   0.5321600000000000    0.0706650000000000    0.7125950000000000 H
   0.4716100000000000    0.9912200000000000    0.5857000000000000 H
   0.4158200000000000    0.1324300000000000    0.6484600000000000 C
   0.4721950000000000    0.0216550000000000    0.6134800000000000 C
   0.4423750000000000    0.0549300000000000    0.6136400000000000 C
   0.4450600000000000    0.0948750000000000    0.6493500000000000 C
   0.4766300000000000    0.0999200000000000    0.6853000000000000 C
   0.5000000000000000    0.0276750000000000    0.6490100000000000 C
   0.5000000000000000    0.0665750000000000    0.6851400000000000 C
   0.5420250000000000    0.9947750000000000    0.6473350000000000 C
   0.4176100000000000    0.1668450000000000    0.6799999999999999 O
   0.3916050000000000    0.1267500000000000    0.6138550000000000 O
   0.5444750000000000    0.9658249999999999    0.6123050000000000 O
   0.5688800000000001    0.9996050000000001    0.6807000000000000 O
