H9 C12 N5
1.0
  28.1179446894094447    0.0000000000000000   -6.4130169532998416
  -3.2632906872319478   29.3988238488788838  -14.3259919793784434
   0.0000000000000000    0.0000000000000000   37.9819999999999993
H C N
9 12 5
direct
   0.1789250000000000    0.4282600000000000    0.4444400000000000 H
   0.1735450000000000    0.3337050000000000    0.4887500000000000 H
   0.2268000000000000    0.4870450000000000    0.5114450000000000 H
   0.2207050000000000    0.3889350000000000    0.5578900000000000 H
   0.2575150000000000    0.4689750000000000    0.6775300000000000 H
   0.2906100000000000    0.4823250000000000    0.7487600000000000 H
   0.3395950000000000    0.5551000000000000    0.6276300000000000 H
   0.4107800000000000    0.5611300000000000    0.7615100000000000 H
   0.3846600000000000    0.5497250000000000    0.6903049999999999 H
   0.1889400000000000    0.4208950000000000    0.4702500000000000 C
   0.1859000000000000    0.3681250000000000    0.4951600000000000 C
   0.2158500000000000    0.4532950000000000    0.5072250000000000 C
   0.2291450000000000    0.4412350000000000    0.5388100000000000 C
   0.2125800000000000    0.3983900000000000    0.5332900000000000 C
   0.2919700000000000    0.4890400000000000    0.6947449999999999 C
   0.3098350000000000    0.4967000000000000    0.7343900000000000 C
   0.3010300000000000    0.5000000000000000    0.6360300000000000 C
   0.3139100000000000    0.5254450000000001    0.6162100000000000 C
   0.3185100000000000    0.5082000000000000    0.6777200000000000 C
   0.3773500000000000    0.5407450000000000    0.7415000000000000 C
   0.3621700000000000    0.5345050000000000    0.7019650000000000 C
   0.1748150000000000    0.3785200000000000    0.4638000000000000 N
   0.2602900000000000    0.4718650000000000    0.5755250000000000 N
   0.2670050000000000    0.4667850000000000    0.6094400000000000 N
   0.3517400000000000    0.5222400000000000    0.7576849999999999 N
   0.2879850000000000    0.5069900000000001    0.5781100000000000 N
