H6 O4
1.0
  28.1179446894094447    0.0000000000000000   -6.4130169532998416
  -3.2632906872319478   29.3988238488788838  -14.3259919793784434
   0.0000000000000000    0.0000000000000000   37.9819999999999993
H O
6 4
direct
   0.3905918986439694    0.0996191789416658    0.5890036528499034 H
   0.4361221907415096    0.1716810068728397    0.7064346099918580 H
   0.4163542228611143    0.1332153294429069    0.6491958228702048 H
   0.5223204564970412    0.9611051435384057    0.5872134573799488 H
   0.5659903738022429    1.0201252267839922    0.7075659578651687 H
   0.5405675355325535    0.9935732454597863    0.6486341888146446 H
   0.3916050000000000    0.1267500000000000    0.6138550000000000 O
   0.4176100000000000    0.1668450000000000    0.6799999999999999 O
   0.5444750000000000    0.9658249999999999    0.6123050000000000 O
   0.5688800000000001    0.9996050000000001    0.6807000000000000 O
