H12 O8
1.0
  15.0881176185867538    0.0000000000000000    3.7244311951883344
   2.9143105305365924   14.7987764491931078    3.7242859367147099
   0.0000000000000000    0.0000000000000000   15.5329999999999995
H O
12 8
direct
   0.3183889334097637    0.9439089736455838    0.5008277290988004 H
   0.3521239471215206    0.1797777934286397    0.5325501430685169 H
   0.3251298373703168    0.0664366998491984    0.5178273698701472 H
   0.9441570812322878    0.3183178163335001    0.5009744779593124 H
   0.1798973700689037    0.3521225814193363    0.5327976844985642 H
   0.0666731079204397    0.3251067745804079    0.5180409245051943 H
   0.6816137578862238    0.0560731946247547    0.4992037748954442 H
   0.6478644205648347    0.8202208960920087    0.4674633463358487 H
   0.6748663571324183    0.9335557428163366    0.4821980234348144 H
   0.0558300998144280    0.6816666321022329    0.4990638272261965 H
   0.8201137435562678    0.6478804065409075    0.4671192489434034 H
   0.9333266429839788    0.6748892755259349    0.4819334599969278 H
   0.3565900000000000    0.9834200000000000    0.5045700000000000 O
   0.3753800000000000    0.1184100000000000    0.5227500000000000 O
   0.9836400000000000    0.3565500000000000    0.5047100000000000 O
   0.1185600000000000    0.3753500000000000    0.5229500000000000 O
   0.6434100000000000    0.0165700000000000    0.4954500000000000 O
   0.6246100000000000    0.8815900000000000    0.4772600000000000 O
   0.0163500000000000    0.6434400000000000    0.4953100000000000 O
   0.8814400000000000    0.6246500000000000    0.4770000000000000 O
