Al384 P381 O1652
1.0
  36.0819999505395757    0.0000000000000000    0.0018892491012478
  13.0666676138807958   33.6565151652884325    0.0006301336731086
   0.0000000000000000    0.0000000000000000   39.0339999999999989
Al P O
384 381 1652
direct
   0.0417300000000000    0.2141000000000000    0.0414150000000000 Al
   0.0512900000000000    0.1253100000000000    0.1588100000000000 Al
   0.0491925000000000    0.1298525000000000    0.4132400000000000 Al
   0.0832800000000000    0.1608675000000000    0.2914150000000000 Al
   0.0736850000000000    0.2496050000000000    0.4088100000000000 Al
   0.1742450000000000    0.0048625000000000    0.3381650000000000 Al
   0.2082400000000000    0.0358475000000000    0.4599750000000000 Al
   0.1987225000000000    0.1246225000000000    0.3425850000000000 Al
   0.2007775000000000    0.1200875000000000    0.0881500000000000 Al
   0.1667275000000000    0.0890775000000000    0.2099750000000000 Al
   0.1763050000000000    0.0003175000000000    0.0925900000000000 Al
   0.0757650000000000    0.2450800000000000    0.1632250000000000 Al
   0.2917300000000000    0.2141000000000000    0.0414150000000000 Al
   0.3012900000000000    0.1253100000000000    0.1588100000000000 Al
   0.2991925000000000    0.1298525000000000    0.4132400000000000 Al
   0.3332800000000000    0.1608675000000000    0.2914150000000000 Al
   0.3236850000000000    0.2496050000000000    0.4088100000000000 Al
   0.4242450000000000    0.0048625000000000    0.3381650000000000 Al
   0.4582400000000000    0.0358475000000000    0.4599750000000000 Al
   0.4487225000000000    0.1246225000000000    0.3425850000000000 Al
   0.4507775000000000    0.1200875000000000    0.0881500000000000 Al
   0.4167275000000000    0.0890775000000000    0.2099750000000000 Al
   0.4263050000000000    0.0003175000000000    0.0925900000000000 Al
   0.3257650000000000    0.2450800000000000    0.1632250000000000 Al
   0.5417300000000000    0.2141000000000000    0.0414150000000000 Al
   0.5512900000000001    0.1253100000000000    0.1588100000000000 Al
   0.5491925000000000    0.1298525000000000    0.4132400000000000 Al
   0.5832800000000000    0.1608675000000000    0.2914150000000000 Al
   0.5736850000000000    0.2496050000000000    0.4088100000000000 Al
   0.6742450000000000    0.0048625000000000    0.3381650000000000 Al
   0.7082400000000000    0.0358475000000000    0.4599750000000000 Al
   0.6987225000000000    0.1246225000000000    0.3425850000000000 Al
   0.7007775000000001    0.1200875000000000    0.0881500000000000 Al
   0.6667275000000000    0.0890775000000000    0.2099750000000000 Al
   0.6763049999999999    0.0003175000000000    0.0925900000000000 Al
   0.5757650000000000    0.2450800000000000    0.1632250000000000 Al
   0.7917300000000000    0.2141000000000000    0.0414150000000000 Al
   0.8012900000000001    0.1253100000000000    0.1588100000000000 Al
   0.7991925000000000    0.1298525000000000    0.4132400000000000 Al
   0.8332800000000000    0.1608675000000000    0.2914150000000000 Al
   0.8236850000000000    0.2496050000000000    0.4088100000000000 Al
   0.9242450000000000    0.0048625000000000    0.3381650000000000 Al
   0.9582400000000000    0.0358475000000000    0.4599750000000000 Al
   0.9487225000000000    0.1246225000000000    0.3425850000000000 Al
   0.9507775000000001    0.1200875000000000    0.0881500000000000 Al
   0.9167275000000000    0.0890775000000000    0.2099750000000000 Al
   0.9263049999999999    0.0003175000000000    0.0925900000000000 Al
   0.8257650000000000    0.2450800000000000    0.1632250000000000 Al
   0.0417300000000000    0.4641000000000000    0.0414150000000000 Al
   0.0512900000000000    0.3753100000000000    0.1588100000000000 Al
   0.0491925000000000    0.3798525000000000    0.4132400000000000 Al
   0.0832800000000000    0.4108675000000000    0.2914150000000000 Al
   0.0736850000000000    0.4996050000000000    0.4088100000000000 Al
   0.1742450000000000    0.2548625000000000    0.3381650000000000 Al
   0.2082400000000000    0.2858475000000000    0.4599750000000000 Al
   0.1987225000000000    0.3746225000000000    0.3425850000000000 Al
   0.2007775000000000    0.3700875000000000    0.0881500000000000 Al
   0.1667275000000000    0.3390775000000000    0.2099750000000000 Al
   0.1763050000000000    0.2503175000000000    0.0925900000000000 Al
   0.0757650000000000    0.4950800000000000    0.1632250000000000 Al
   0.2917300000000000    0.4641000000000000    0.0414150000000000 Al
   0.3012900000000000    0.3753100000000000    0.1588100000000000 Al
   0.2991925000000000    0.3798525000000000    0.4132400000000000 Al
   0.3332800000000000    0.4108675000000000    0.2914150000000000 Al
   0.3236850000000000    0.4996050000000000    0.4088100000000000 Al
   0.4242450000000000    0.2548625000000000    0.3381650000000000 Al
   0.4582400000000000    0.2858475000000000    0.4599750000000000 Al
   0.4487225000000000    0.3746225000000000    0.3425850000000000 Al
   0.4507775000000000    0.3700875000000000    0.0881500000000000 Al
   0.4167275000000000    0.3390775000000000    0.2099750000000000 Al
   0.4263050000000000    0.2503175000000000    0.0925900000000000 Al
   0.3257650000000000    0.4950800000000000    0.1632250000000000 Al
   0.5417300000000000    0.4641000000000000    0.0414150000000000 Al
   0.5512900000000001    0.3753100000000000    0.1588100000000000 Al
   0.5491925000000000    0.3798525000000000    0.4132400000000000 Al
   0.5832800000000000    0.4108675000000000    0.2914150000000000 Al
   0.5736850000000000    0.4996050000000000    0.4088100000000000 Al
   0.6742450000000000    0.2548625000000000    0.3381650000000000 Al
   0.7082400000000000    0.2858475000000000    0.4599750000000000 Al
   0.6987225000000000    0.3746225000000000    0.3425850000000000 Al
   0.7007775000000001    0.3700875000000000    0.0881500000000000 Al
   0.6667275000000000    0.3390775000000000    0.2099750000000000 Al
   0.6763049999999999    0.2503175000000000    0.0925900000000000 Al
   0.5757650000000000    0.4950800000000000    0.1632250000000000 Al
   0.7917300000000000    0.4641000000000000    0.0414150000000000 Al
   0.8012900000000001    0.3753100000000000    0.1588100000000000 Al
   0.7991925000000000    0.3798525000000000    0.4132400000000000 Al
   0.8332800000000000    0.4108675000000000    0.2914150000000000 Al
   0.8236850000000000    0.4996050000000000    0.4088100000000000 Al
   0.9242450000000000    0.2548625000000000    0.3381650000000000 Al
   0.9582400000000000    0.2858475000000000    0.4599750000000000 Al
   0.9487225000000000    0.3746225000000000    0.3425850000000000 Al
   0.9507775000000001    0.3700875000000000    0.0881500000000000 Al
   0.9167275000000000    0.3390775000000000    0.2099750000000000 Al
   0.9263049999999999    0.2503175000000000    0.0925900000000000 Al
   0.8257650000000000    0.4950800000000000    0.1632250000000000 Al
   0.0417300000000000    0.7141000000000000    0.0414150000000000 Al
   0.0512900000000000    0.6253100000000000    0.1588100000000000 Al
   0.0491925000000000    0.6298525000000000    0.4132400000000000 Al
   0.0832800000000000    0.6608674999999999    0.2914150000000000 Al
   0.0736850000000000    0.7496050000000000    0.4088100000000000 Al
   0.1742450000000000    0.5048625000000000    0.3381650000000000 Al
   0.2082400000000000    0.5358475000000000    0.4599750000000000 Al
   0.1987225000000000    0.6246225000000000    0.3425850000000000 Al
   0.2007775000000000    0.6200875000000000    0.0881500000000000 Al
   0.1667275000000000    0.5890775000000000    0.2099750000000000 Al
   0.1763050000000000    0.5003175000000000    0.0925900000000000 Al
   0.0757650000000000    0.7450800000000000    0.1632250000000000 Al
   0.2917300000000000    0.7141000000000000    0.0414150000000000 Al
   0.3012900000000000    0.6253100000000000    0.1588100000000000 Al
   0.2991925000000000    0.6298525000000000    0.4132400000000000 Al
   0.3332800000000000    0.6608674999999999    0.2914150000000000 Al
   0.3236850000000000    0.7496050000000000    0.4088100000000000 Al
   0.4242450000000000    0.5048625000000000    0.3381650000000000 Al
   0.4582400000000000    0.5358475000000000    0.4599750000000000 Al
   0.4487225000000000    0.6246225000000000    0.3425850000000000 Al
   0.4507775000000000    0.6200875000000000    0.0881500000000000 Al
   0.4167275000000000    0.5890775000000000    0.2099750000000000 Al
   0.4263050000000000    0.5003175000000000    0.0925900000000000 Al
   0.3257650000000000    0.7450800000000000    0.1632250000000000 Al
   0.5417300000000000    0.7141000000000000    0.0414150000000000 Al
   0.5512900000000001    0.6253100000000000    0.1588100000000000 Al
   0.5491925000000000    0.6298525000000000    0.4132400000000000 Al
   0.5832800000000000    0.6608674999999999    0.2914150000000000 Al
   0.5736850000000000    0.7496050000000000    0.4088100000000000 Al
   0.6742450000000000    0.5048625000000000    0.3381650000000000 Al
   0.7082400000000000    0.5358475000000000    0.4599750000000000 Al
   0.6987225000000000    0.6246225000000000    0.3425850000000000 Al
   0.7007775000000001    0.6200875000000000    0.0881500000000000 Al
   0.6667275000000000    0.5890775000000000    0.2099750000000000 Al
   0.6763049999999999    0.5003175000000000    0.0925900000000000 Al
   0.5757650000000000    0.7450800000000000    0.1632250000000000 Al
   0.7917300000000000    0.7141000000000000    0.0414150000000000 Al
   0.8012900000000001    0.6253100000000000    0.1588100000000000 Al
   0.7991925000000000    0.6298525000000000    0.4132400000000000 Al
   0.8332800000000000    0.6608674999999999    0.2914150000000000 Al
   0.8236850000000000    0.7496050000000000    0.4088100000000000 Al
   0.9242450000000000    0.5048625000000000    0.3381650000000000 Al
   0.9582400000000000    0.5358475000000000    0.4599750000000000 Al
   0.9487225000000000    0.6246225000000000    0.3425850000000000 Al
   0.9507775000000001    0.6200875000000000    0.0881500000000000 Al
   0.9167275000000000    0.5890775000000000    0.2099750000000000 Al
   0.9263049999999999    0.5003175000000000    0.0925900000000000 Al
   0.8257650000000000    0.7450800000000000    0.1632250000000000 Al
   0.0417300000000000    0.9641000000000000    0.0414150000000000 Al
   0.0512900000000000    0.8753100000000000    0.1588100000000000 Al
   0.0491925000000000    0.8798525000000000    0.4132400000000000 Al
   0.0832800000000000    0.9108674999999999    0.2914150000000000 Al
   0.0736850000000000    0.9996050000000000    0.4088100000000000 Al
   0.1742450000000000    0.7548625000000000    0.3381650000000000 Al
   0.2082400000000000    0.7858475000000000    0.4599750000000000 Al
   0.1987225000000000    0.8746225000000000    0.3425850000000000 Al
   0.2007775000000000    0.8700875000000000    0.0881500000000000 Al
   0.1667275000000000    0.8390775000000000    0.2099750000000000 Al
   0.1763050000000000    0.7503175000000000    0.0925900000000000 Al
   0.0757650000000000    0.9950800000000000    0.1632250000000000 Al
   0.2917300000000000    0.9641000000000000    0.0414150000000000 Al
   0.3012900000000000    0.8753100000000000    0.1588100000000000 Al
   0.2991925000000000    0.8798525000000000    0.4132400000000000 Al
   0.3332800000000000    0.9108674999999999    0.2914150000000000 Al
   0.3236850000000000    0.9996050000000000    0.4088100000000000 Al
   0.4242450000000000    0.7548625000000000    0.3381650000000000 Al
   0.4582400000000000    0.7858475000000000    0.4599750000000000 Al
   0.4487225000000000    0.8746225000000000    0.3425850000000000 Al
   0.4507775000000000    0.8700875000000000    0.0881500000000000 Al
   0.4167275000000000    0.8390775000000000    0.2099750000000000 Al
   0.4263050000000000    0.7503175000000000    0.0925900000000000 Al
   0.3257650000000000    0.9950800000000000    0.1632250000000000 Al
   0.5417300000000000    0.9641000000000000    0.0414150000000000 Al
   0.5512900000000001    0.8753100000000000    0.1588100000000000 Al
   0.5491925000000000    0.8798525000000000    0.4132400000000000 Al
   0.5832800000000000    0.9108674999999999    0.2914150000000000 Al
   0.5736850000000000    0.9996050000000000    0.4088100000000000 Al
   0.6742450000000000    0.7548625000000000    0.3381650000000000 Al
   0.7082400000000000    0.7858475000000000    0.4599750000000000 Al
   0.6987225000000000    0.8746225000000000    0.3425850000000000 Al
   0.7007775000000001    0.8700875000000000    0.0881500000000000 Al
   0.6667275000000000    0.8390775000000000    0.2099750000000000 Al
   0.6763049999999999    0.7503175000000000    0.0925900000000000 Al
   0.5757650000000000    0.9950800000000000    0.1632250000000000 Al
   0.7917300000000000    0.9641000000000000    0.0414150000000000 Al
   0.8012900000000001    0.8753100000000000    0.1588100000000000 Al
   0.7991925000000000    0.8798525000000000    0.4132400000000000 Al
   0.8332800000000000    0.9108674999999999    0.2914150000000000 Al
   0.8236850000000000    0.9996050000000000    0.4088100000000000 Al
   0.9242450000000000    0.7548625000000000    0.3381650000000000 Al
   0.9582400000000000    0.7858475000000000    0.4599750000000000 Al
   0.9487225000000000    0.8746225000000000    0.3425850000000000 Al
   0.9507775000000001    0.8700875000000000    0.0881500000000000 Al
   0.9167275000000000    0.8390775000000000    0.2099750000000000 Al
   0.9263049999999999    0.7503175000000000    0.0925900000000000 Al
   0.8257650000000000    0.9950800000000000    0.1632250000000000 Al
   0.0417300000000000    0.2141000000000000    0.5414150000000000 Al
   0.0512900000000000    0.1253100000000000    0.6588100000000000 Al
   0.0491925000000000    0.1298525000000000    0.9132400000000001 Al
   0.0832800000000000    0.1608675000000000    0.7914150000000000 Al
   0.0736850000000000    0.2496050000000000    0.9088100000000000 Al
   0.1742450000000000    0.0048625000000000    0.8381650000000000 Al
   0.2082400000000000    0.0358475000000000    0.9599750000000000 Al
   0.1987225000000000    0.1246225000000000    0.8425849999999999 Al
   0.2007775000000000    0.1200875000000000    0.5881500000000000 Al
   0.1667275000000000    0.0890775000000000    0.7099750000000000 Al
   0.1763050000000000    0.0003175000000000    0.5925900000000000 Al
   0.0757650000000000    0.2450800000000000    0.6632250000000000 Al
   0.2917300000000000    0.2141000000000000    0.5414150000000000 Al
   0.3012900000000000    0.1253100000000000    0.6588100000000000 Al
   0.2991925000000000    0.1298525000000000    0.9132400000000001 Al
   0.3332800000000000    0.1608675000000000    0.7914150000000000 Al
   0.3236850000000000    0.2496050000000000    0.9088100000000000 Al
   0.4242450000000000    0.0048625000000000    0.8381650000000000 Al
   0.4582400000000000    0.0358475000000000    0.9599750000000000 Al
   0.4487225000000000    0.1246225000000000    0.8425849999999999 Al
   0.4507775000000000    0.1200875000000000    0.5881500000000000 Al
   0.4167275000000000    0.0890775000000000    0.7099750000000000 Al
   0.4263050000000000    0.0003175000000000    0.5925900000000000 Al
   0.3257650000000000    0.2450800000000000    0.6632250000000000 Al
   0.5417300000000000    0.2141000000000000    0.5414150000000000 Al
   0.5512900000000001    0.1253100000000000    0.6588100000000000 Al
   0.5491925000000000    0.1298525000000000    0.9132400000000001 Al
   0.5832800000000000    0.1608675000000000    0.7914150000000000 Al
   0.5736850000000000    0.2496050000000000    0.9088100000000000 Al
   0.6742450000000000    0.0048625000000000    0.8381650000000000 Al
   0.7082400000000000    0.0358475000000000    0.9599750000000000 Al
   0.6987225000000000    0.1246225000000000    0.8425849999999999 Al
   0.7007775000000001    0.1200875000000000    0.5881500000000000 Al
   0.6667275000000000    0.0890775000000000    0.7099750000000000 Al
   0.6763049999999999    0.0003175000000000    0.5925900000000000 Al
   0.5757650000000000    0.2450800000000000    0.6632250000000000 Al
   0.7917300000000000    0.2141000000000000    0.5414150000000000 Al
   0.8012900000000001    0.1253100000000000    0.6588100000000000 Al
   0.7991925000000000    0.1298525000000000    0.9132400000000001 Al
   0.8332800000000000    0.1608675000000000    0.7914150000000000 Al
   0.8236850000000000    0.2496050000000000    0.9088100000000000 Al
   0.9242450000000000    0.0048625000000000    0.8381650000000000 Al
   0.9582400000000000    0.0358475000000000    0.9599750000000000 Al
   0.9487225000000000    0.1246225000000000    0.8425849999999999 Al
   0.9507775000000001    0.1200875000000000    0.5881500000000000 Al
   0.9167275000000000    0.0890775000000000    0.7099750000000000 Al
   0.9263049999999999    0.0003175000000000    0.5925900000000000 Al
   0.8257650000000000    0.2450800000000000    0.6632250000000000 Al
   0.0417300000000000    0.4641000000000000    0.5414150000000000 Al
   0.0512900000000000    0.3753100000000000    0.6588100000000000 Al
   0.0491925000000000    0.3798525000000000    0.9132400000000001 Al
   0.0832800000000000    0.4108675000000000    0.7914150000000000 Al
   0.0736850000000000    0.4996050000000000    0.9088100000000000 Al
   0.1742450000000000    0.2548625000000000    0.8381650000000000 Al
   0.2082400000000000    0.2858475000000000    0.9599750000000000 Al
   0.1987225000000000    0.3746225000000000    0.8425849999999999 Al
   0.2007775000000000    0.3700875000000000    0.5881500000000000 Al
   0.1667275000000000    0.3390775000000000    0.7099750000000000 Al
   0.1763050000000000    0.2503175000000000    0.5925900000000000 Al
   0.0757650000000000    0.4950800000000000    0.6632250000000000 Al
   0.2917300000000000    0.4641000000000000    0.5414150000000000 Al
   0.3012900000000000    0.3753100000000000    0.6588100000000000 Al
   0.2991925000000000    0.3798525000000000    0.9132400000000001 Al
   0.3332800000000000    0.4108675000000000    0.7914150000000000 Al
   0.3236850000000000    0.4996050000000000    0.9088100000000000 Al
   0.4242450000000000    0.2548625000000000    0.8381650000000000 Al
   0.4582400000000000    0.2858475000000000    0.9599750000000000 Al
   0.4487225000000000    0.3746225000000000    0.8425849999999999 Al
   0.4507775000000000    0.3700875000000000    0.5881500000000000 Al
   0.4167275000000000    0.3390775000000000    0.7099750000000000 Al
   0.4263050000000000    0.2503175000000000    0.5925900000000000 Al
   0.3257650000000000    0.4950800000000000    0.6632250000000000 Al
   0.5417300000000000    0.4641000000000000    0.5414150000000000 Al
   0.5512900000000001    0.3753100000000000    0.6588100000000000 Al
   0.5491925000000000    0.3798525000000000    0.9132400000000001 Al
   0.5832800000000000    0.4108675000000000    0.7914150000000000 Al
   0.5736850000000000    0.4996050000000000    0.9088100000000000 Al
   0.6742450000000000    0.2548625000000000    0.8381650000000000 Al
   0.7082400000000000    0.2858475000000000    0.9599750000000000 Al
   0.6987225000000000    0.3746225000000000    0.8425849999999999 Al
   0.7007775000000001    0.3700875000000000    0.5881500000000000 Al
   0.6667275000000000    0.3390775000000000    0.7099750000000000 Al
   0.6763049999999999    0.2503175000000000    0.5925900000000000 Al
   0.5757650000000000    0.4950800000000000    0.6632250000000000 Al
   0.7917300000000000    0.4641000000000000    0.5414150000000000 Al
   0.8012900000000001    0.3753100000000000    0.6588100000000000 Al
   0.7991925000000000    0.3798525000000000    0.9132400000000001 Al
   0.8332800000000000    0.4108675000000000    0.7914150000000000 Al
   0.8236850000000000    0.4996050000000000    0.9088100000000000 Al
   0.9242450000000000    0.2548625000000000    0.8381650000000000 Al
   0.9582400000000000    0.2858475000000000    0.9599750000000000 Al
   0.9487225000000000    0.3746225000000000    0.8425849999999999 Al
   0.9507775000000001    0.3700875000000000    0.5881500000000000 Al
   0.9167275000000000    0.3390775000000000    0.7099750000000000 Al
   0.9263049999999999    0.2503175000000000    0.5925900000000000 Al
   0.8257650000000000    0.4950800000000000    0.6632250000000000 Al
   0.0417300000000000    0.7141000000000000    0.5414150000000000 Al
   0.0512900000000000    0.6253100000000000    0.6588100000000000 Al
   0.0491925000000000    0.6298525000000000    0.9132400000000001 Al
   0.0832800000000000    0.6608674999999999    0.7914150000000000 Al
   0.0736850000000000    0.7496050000000000    0.9088100000000000 Al
   0.1742450000000000    0.5048625000000000    0.8381650000000000 Al
   0.2082400000000000    0.5358475000000000    0.9599750000000000 Al
   0.1987225000000000    0.6246225000000000    0.8425849999999999 Al
   0.2007775000000000    0.6200875000000000    0.5881500000000000 Al
   0.1667275000000000    0.5890775000000000    0.7099750000000000 Al
   0.1763050000000000    0.5003175000000000    0.5925900000000000 Al
   0.0757650000000000    0.7450800000000000    0.6632250000000000 Al
   0.2917300000000000    0.7141000000000000    0.5414150000000000 Al
   0.3012900000000000    0.6253100000000000    0.6588100000000000 Al
   0.2991925000000000    0.6298525000000000    0.9132400000000001 Al
   0.3332800000000000    0.6608674999999999    0.7914150000000000 Al
   0.3236850000000000    0.7496050000000000    0.9088100000000000 Al
   0.4242450000000000    0.5048625000000000    0.8381650000000000 Al
   0.4582400000000000    0.5358475000000000    0.9599750000000000 Al
   0.4487225000000000    0.6246225000000000    0.8425849999999999 Al
   0.4507775000000000    0.6200875000000000    0.5881500000000000 Al
   0.4167275000000000    0.5890775000000000    0.7099750000000000 Al
   0.4263050000000000    0.5003175000000000    0.5925900000000000 Al
   0.3257650000000000    0.7450800000000000    0.6632250000000000 Al
   0.5417300000000000    0.7141000000000000    0.5414150000000000 Al
   0.5512900000000001    0.6253100000000000    0.6588100000000000 Al
   0.5491925000000000    0.6298525000000000    0.9132400000000001 Al
   0.5832800000000000    0.6608674999999999    0.7914150000000000 Al
   0.5736850000000000    0.7496050000000000    0.9088100000000000 Al
   0.6742450000000000    0.5048625000000000    0.8381650000000000 Al
   0.7082400000000000    0.5358475000000000    0.9599750000000000 Al
   0.6987225000000000    0.6246225000000000    0.8425849999999999 Al
   0.7007775000000001    0.6200875000000000    0.5881500000000000 Al
   0.6667275000000000    0.5890775000000000    0.7099750000000000 Al
   0.6763049999999999    0.5003175000000000    0.5925900000000000 Al
   0.5757650000000000    0.7450800000000000    0.6632250000000000 Al
   0.7917300000000000    0.7141000000000000    0.5414150000000000 Al
   0.8012900000000001    0.6253100000000000    0.6588100000000000 Al
   0.7991925000000000    0.6298525000000000    0.9132400000000001 Al
   0.8332800000000000    0.6608674999999999    0.7914150000000000 Al
   0.8236850000000000    0.7496050000000000    0.9088100000000000 Al
   0.9242450000000000    0.5048625000000000    0.8381650000000000 Al
   0.9582400000000000    0.5358475000000000    0.9599750000000000 Al
   0.9487225000000000    0.6246225000000000    0.8425849999999999 Al
   0.9507775000000001    0.6200875000000000    0.5881500000000000 Al
   0.9167275000000000    0.5890775000000000    0.7099750000000000 Al
   0.9263049999999999    0.5003175000000000    0.5925900000000000 Al
   0.8257650000000000    0.7450800000000000    0.6632250000000000 Al
   0.0417300000000000    0.9641000000000000    0.5414150000000000 Al
   0.0512900000000000    0.8753100000000000    0.6588100000000000 Al
   0.0491925000000000    0.8798525000000000    0.9132400000000001 Al
   0.0832800000000000    0.9108674999999999    0.7914150000000000 Al
   0.0736850000000000    0.9996050000000000    0.9088100000000000 Al
   0.1742450000000000    0.7548625000000000    0.8381650000000000 Al
   0.2082400000000000    0.7858475000000000    0.9599750000000000 Al
   0.1987225000000000    0.8746225000000000    0.8425849999999999 Al
   0.2007775000000000    0.8700875000000000    0.5881500000000000 Al
   0.1667275000000000    0.8390775000000000    0.7099750000000000 Al
   0.1763050000000000    0.7503175000000000    0.5925900000000000 Al
   0.0757650000000000    0.9950800000000000    0.6632250000000000 Al
   0.2917300000000000    0.9641000000000000    0.5414150000000000 Al
   0.3012900000000000    0.8753100000000000    0.6588100000000000 Al
   0.2991925000000000    0.8798525000000000    0.9132400000000001 Al
   0.3332800000000000    0.9108674999999999    0.7914150000000000 Al
   0.3236850000000000    0.9996050000000000    0.9088100000000000 Al
   0.4242450000000000    0.7548625000000000    0.8381650000000000 Al
   0.4582400000000000    0.7858475000000000    0.9599750000000000 Al
   0.4487225000000000    0.8746225000000000    0.8425849999999999 Al
   0.4507775000000000    0.8700875000000000    0.5881500000000000 Al
   0.4167275000000000    0.8390775000000000    0.7099750000000000 Al
   0.4263050000000000    0.7503175000000000    0.5925900000000000 Al
   0.3257650000000000    0.9950800000000000    0.6632250000000000 Al
   0.5417300000000000    0.9641000000000000    0.5414150000000000 Al
   0.5512900000000001    0.8753100000000000    0.6588100000000000 Al
   0.5491925000000000    0.8798525000000000    0.9132400000000001 Al
   0.5832800000000000    0.9108674999999999    0.7914150000000000 Al
   0.5736850000000000    0.9996050000000000    0.9088100000000000 Al
   0.6742450000000000    0.7548625000000000    0.8381650000000000 Al
   0.7082400000000000    0.7858475000000000    0.9599750000000000 Al
   0.6987225000000000    0.8746225000000000    0.8425849999999999 Al
   0.7007775000000001    0.8700875000000000    0.5881500000000000 Al
   0.6667275000000000    0.8390775000000000    0.7099750000000000 Al
   0.6763049999999999    0.7503175000000000    0.5925900000000000 Al
   0.5757650000000000    0.9950800000000000    0.6632250000000000 Al
   0.7917300000000000    0.9641000000000000    0.5414150000000000 Al
   0.8012900000000001    0.8753100000000000    0.6588100000000000 Al
   0.7991925000000000    0.8798525000000000    0.9132400000000001 Al
   0.8332800000000000    0.9108674999999999    0.7914150000000000 Al
   0.8236850000000000    0.9996050000000000    0.9088100000000000 Al
   0.9242450000000000    0.7548625000000000    0.8381650000000000 Al
   0.9582400000000000    0.7858475000000000    0.9599750000000000 Al
   0.9487225000000000    0.8746225000000000    0.8425849999999999 Al
   0.9507775000000001    0.8700875000000000    0.5881500000000000 Al
   0.9167275000000000    0.8390775000000000    0.7099750000000000 Al
   0.9263049999999999    0.7503175000000000    0.5925900000000000 Al
   0.8257650000000000    0.9950800000000000    0.6632250000000000 Al
   0.0924825000000000    0.1666666666666667    0.2098400000000000 P
   0.1281250000000000    0.0480175000000000    0.1552300000000000 P
   0.1228425000000000    0.1989275000000000    0.0796350000000000 P
   0.0324600000000000    0.2082675000000000    0.4598450000000000 P
   0.2468425000000000    0.0769000000000000    0.4052200000000000 P
   0.0021800000000000    0.1760350000000000    0.3296650000000000 P
   0.1575325000000000    0.0832875000000000    0.2915550000000000 P
   0.1218850000000000    0.2019150000000000    0.3461600000000000 P
   0.1271250000000000    0.0510100000000000    0.4217600000000000 P
   0.2175050000000000    0.0416600000000000    0.0415450000000000 P
   0.0031350000000000    0.1730350000000000    0.0961700000000000 P
   0.2478300000000000    0.0739150000000000    0.1717350000000000 P
   0.3424825000000000    0.1666666666666667    0.2098400000000000 P
   0.3781250000000000    0.0480175000000000    0.1552300000000000 P
   0.3728425000000000    0.1989275000000000    0.0796350000000000 P
   0.2824600000000000    0.2082675000000000    0.4598450000000000 P
   0.4968425000000000    0.0769000000000000    0.4052200000000000 P
   0.2521800000000000    0.1760350000000000    0.3296650000000000 P
   0.4075325000000000    0.0832875000000000    0.2915550000000000 P
   0.3718850000000000    0.2019150000000000    0.3461600000000000 P
   0.3771250000000000    0.0510100000000000    0.4217600000000000 P
   0.4675050000000000    0.0416600000000000    0.0415450000000000 P
   0.2531350000000000    0.1730350000000000    0.0961700000000000 P
   0.4978300000000000    0.0739150000000000    0.1717350000000000 P
   0.5924825000000000    0.1666666666666667    0.2098400000000000 P
   0.6281250000000000    0.0480175000000000    0.1552300000000000 P
   0.6228425000000000    0.1989275000000000    0.0796350000000000 P
   0.5324600000000000    0.2082675000000000    0.4598450000000000 P
   0.7468425000000000    0.0769000000000000    0.4052200000000000 P
   0.5021800000000000    0.1760350000000000    0.3296650000000000 P
   0.6575325000000000    0.0832875000000000    0.2915550000000000 P
   0.6218850000000000    0.2019150000000000    0.3461600000000000 P
   0.6271249999999999    0.0510100000000000    0.4217600000000000 P
   0.7175050000000001    0.0416600000000000    0.0415450000000000 P
   0.5031350000000000    0.1730350000000000    0.0961700000000000 P
   0.7478300000000000    0.0739150000000000    0.1717350000000000 P
   0.8424825000000000    0.1666666666666667    0.2098400000000000 P
   0.8781250000000000    0.0480175000000000    0.1552300000000000 P
   0.8728425000000000    0.1989275000000000    0.0796350000000000 P
   0.7824600000000000    0.2082675000000000    0.4598450000000000 P
   0.9968425000000000    0.0769000000000000    0.4052200000000000 P
   0.7521800000000000    0.1760350000000000    0.3296650000000000 P
   0.9075325000000000    0.0832875000000000    0.2915550000000000 P
   0.8718850000000000    0.2019150000000000    0.3461600000000000 P
   0.8771249999999999    0.0510100000000000    0.4217600000000000 P
   0.9675050000000001    0.0416600000000000    0.0415450000000000 P
   0.7531350000000000    0.1730350000000000    0.0961700000000000 P