H6 O4
1.0
  15.9818619384027851    0.0000000000000000    9.1684630108776908
   5.3089411943279812   15.0768501580569900    9.1783635091809384
   0.0000000000000000    0.0000000000000000   36.8659999999999997
H O
6 4
direct
   0.1130655660804967    0.2806730673759228    0.5564489615587203 H
   0.1133724078220013    0.4928534001664601    0.5566883410349600 H
   0.1054476511288994    0.3945561864605782    0.5526787554928676 H
   0.8869563285816220    0.7193299222659160    0.4435387840662254 H
   0.8866496570402996    0.5071565726044881    0.4432908978948923 H
   0.8945773288092953    0.6054469446995322    0.4473062382164095 H
   0.1330200000000000    0.3051600000000000    0.5664550000000000 O
   0.1331900000000000    0.4286000000000000    0.5665900000000000 O
   0.8670000000000000    0.6948500000000000    0.4335300000000000 O
   0.8668300000000000    0.5714100000000000    0.4333900000000000 O
