Cu16 P14 H56 C28 O42
1.0
   8.5684066918054622    0.0000000000000000   -0.4055746094411950
  -0.2090088418306398   13.0987753510445444   -4.5436060136090681
   0.0000000000000000    0.0000000000000000   21.0330000000000013
Cu P H C O
16 14 56 28 42
direct
   0.2500700000000000    0.0013200000000000    0.7501100000000001 Cu
   0.2503800000000000    0.5003200000000000    0.2500500000000000 Cu
   0.2499900000000000    0.5013500000000000    0.7500900000000000 Cu
   0.7502700000000000    0.0003000000000000    0.2500400000000000 Cu
   0.7500599999999999    0.0013300000000000    0.7501100000000001 Cu
   0.7503500000000000    0.5003300000000001    0.2500500000000000 Cu
   0.7499900000000000    0.5013500000000000    0.7500900000000000 Cu
   0.2504700000000000    0.2502900000000000    0.2500400000000000 Cu
   0.2502600000000000    0.2512100000000000    0.7499900000000000 Cu
   0.2503700000000000    0.7502300000000000    0.2500100000000000 Cu
   0.2502100000000000    0.7511900000000000    0.7499700000000000 Cu
   0.7504500000000000    0.2502900000000000    0.2500400000000000 Cu
   0.7502400000000000    0.2512100000000000    0.7499900000000000 Cu
   0.7503300000000001    0.7502400000000000    0.2500100000000000 Cu
   0.7502300000000000    0.7511900000000000    0.7499700000000000 Cu
   0.2503200000000000    0.0003000000000000    0.2500500000000000 Cu
   0.4918000000000000    0.0889100000000000    0.1767400000000000 P
   0.4916800000000000    0.0897600000000000    0.6767400000000000 P
   0.4918000000000000    0.5888200000000000    0.1767200000000000 P
   0.4916000000000000    0.5897600000000000    0.6767300000000001 P
   0.9917800000000000    0.0889000000000000    0.1767400000000000 P
   0.9916500000000000    0.0897700000000000    0.6767500000000000 P
   0.9917899999999999    0.5888400000000000    0.1767300000000000 P
   0.0085400000000000    0.4127300000000000    0.8233100000000000 P
   0.0087100000000000    0.9116400000000000    0.3232900000000000 P
   0.0085600000000000    0.9126900000000000    0.8230000000000000 P
   0.5088000000000000    0.4117300000000000    0.3232900000000000 P
   0.5085100000000000    0.4127200000000000    0.8233100000000000 P
   0.5086800000000000    0.9116500000000000    0.3233000000000000 P
   0.5085499999999999    0.9126900000000000    0.8233000000000000 P
   0.1515900000000000    0.4840500000000000    0.0945500000000000 H
   0.1517600000000000    0.9843200000000000    0.0945300000000000 H
   0.1519100000000000    0.9851200000000000    0.5947000000000000 H
   0.6515300000000001    0.4840000000000000    0.0945000000000000 H
   0.6518200000000000    0.4850600000000000    0.5947300000000000 H
   0.6517600000000000    0.9843600000000000    0.0945300000000000 H
   0.6519600000000000    0.9851500000000000    0.5947800000000000 H
   0.3828500000000000    0.4547600000000000    0.0357100000000000 H
   0.3831500000000000    0.4549000000000000    0.5358900000000000 H
   0.3829000000000000    0.9548700000000000    0.0357500000000000 H
   0.3832300000000000    0.9549299999999999    0.5359500000000000 H
   0.8828500000000000    0.4547600000000000    0.0357400000000000 H
   0.8828700000000000    0.9548800000000000    0.0357600000000000 H
   0.8831500000000000    0.9549500000000000    0.5359500000000000 H
   0.3487700000000000    0.3894200000000000    0.4056900000000000 H
   0.3483900000000000    0.3900600000000000    0.9055299999999999 H
   0.3488400000000000    0.8892800000000000    0.4057200000000000 H
   0.3484500000000000    0.8900200000000000    0.9055400000000000 H
   0.8483500000000000    0.3901100000000000    0.9055400000000000 H
   0.8487900000000000    0.8892800000000000    0.4057100000000000 H
   0.8484400000000000    0.8900200000000000    0.9055299999999999 H
   0.1169900000000000    0.4188500000000000    0.9644400000000000 H
   0.1173900000000000    0.9189600000000000    0.4647100000000000 H
   0.1169800000000000    0.9189100000000000    0.9644700000000000 H
   0.6173800000000000    0.4189900000000000    0.4646700000000000 H
   0.6169900000000000    0.4188300000000000    0.9644200000000001 H
   0.6174300000000000    0.9189700000000000    0.4646900000000000 H
   0.6170200000000000    0.9189300000000000    0.9644700000000000 H
   0.3483200000000000    0.0159600000000000    0.4054000000000000 H
   0.3484400000000000    0.0168900000000000    0.9055800000000001 H
   0.3484600000000000    0.5161400000000000    0.4053800000000000 H
   0.3484600000000000    0.5169899999999999    0.9056200000000000 H
   0.8483200000000000    0.0159600000000000    0.4053900000000000 H
   0.8484000000000000    0.0168900000000000    0.9050000000000000 H
   0.8485000000000000    0.5170200000000000    0.9056300000000000 H
   0.1172200000000000    0.0459300000000000    0.4641700000000000 H
   0.1174600000000000    0.0460700000000000    0.9643300000000000 H
   0.1174900000000000    0.5460900000000000    0.9643800000000000 H
   0.6172299999999999    0.0459600000000000    0.4641600000000000 H
   0.6174400000000000    0.0461000000000000    0.9643200000000000 H
   0.6172500000000000    0.5460199999999999    0.4641900000000000 H
   0.6174700000000000    0.5460700000000001    0.9643500000000000 H
   0.1518500000000000    0.1110600000000000    0.0943200000000000 H
   0.1516000000000000    0.1116800000000000    0.5940000000000000 H
   0.1520500000000000    0.6108100000000000    0.0943100000000000 H
   0.6517900000000000    0.1110900000000000    0.0943100000000000 H
   0.6516100000000000    0.1117100000000000    0.5942200000000000 H
   0.6520899999999999    0.6107500000000000    0.0943000000000000 H
   0.6515400000000000    0.6116600000000000    0.5941900000000000 H
   0.3830200000000000    0.0819700000000000    0.0354900000000000 H
   0.3828100000000000    0.0818700000000000    0.5353300000000000 H
   0.3831300000000000    0.5819500000000000    0.0355400000000000 H
   0.3827300000000000    0.5818800000000000    0.5353000000000000 H
   0.8830400000000000    0.0819800000000000    0.0355100000000000 H
   0.8827500000000000    0.0818700000000000    0.5353200000000000 H
   0.8830700000000000    0.5819400000000000    0.0355500000000000 H
   0.0747700000000000    0.0479100000000000    0.0948100000000000 C
   0.0747000000000000    0.0485300000000000    0.5948300000000000 C
   0.0747800000000000    0.5477600000000000    0.0948000000000000 C
   0.5747300000000000    0.0479400000000000    0.0948000000000000 C
   0.5747300000000000    0.0485300000000000    0.5948300000000000 C
   0.5747600000000000    0.5477200000000000    0.0947900000000000 C
   0.5746400000000000    0.5485100000000001    0.5948200000000000 C
   0.4591400000000000    0.0172800000000000    0.0335000000000000 C
   0.4591700000000000    0.0173700000000000    0.5335200000000000 C
   0.4591600000000000    0.5172000000000000    0.0335000000000000 C
   0.4591100000000000    0.5173900000000000    0.5335000000000000 C
   0.9591400000000000    0.0172900000000000    0.0335200000000000 C
   0.9591200000000000    0.0173700000000000    0.5335200000000000 C
   0.9591200000000000    0.5172099999999999    0.0335200000000000 C
   0.4256700000000000    0.4526500000000000    0.4051900000000000 C
   0.4254700000000000    0.4533100000000000    0.9052200000000000 C
   0.4256300000000000    0.9525600000000000    0.4052200000000000 C
   0.4254900000000000    0.9532800000000000    0.9052100000000000 C
   0.9254800000000000    0.4533300000000000    0.9052300000000000 C
   0.9256100000000000    0.9525400000000001    0.4052100000000000 C
   0.9254700000000000    0.9532900000000000    0.9052000000000000 C
   0.0410700000000000    0.4836600000000000    0.9665300000000000 C
   0.0411300000000000    0.9835199999999999    0.4665300000000000 C
   0.0410400000000000    0.9837000000000000    0.9665100000000000 C
   0.5411300000000000    0.4835600000000000    0.4665200000000000 C
   0.5410700000000001    0.4836500000000000    0.9665100000000000 C
   0.5411800000000000    0.9835400000000000    0.4665000000000000 C
   0.5410700000000001    0.9837100000000000    0.9665000000000000 C
   0.3998200000000000    0.4977700000000000    0.1833700000000000 O
   0.3995500000000000    0.4988000000000000    0.6834400000000000 O
   0.3998000000000000    0.9978900000000001    0.1833800000000000 O
   0.3996200000000000    0.9988400000000000    0.6834500000000000 O
   0.8998000000000000    0.4977900000000000    0.1833800000000000 O
   0.8997800000000000    0.9978800000000000    0.1833800000000000 O
   0.8995900000000000    0.9988400000000000    0.6834500000000000 O
   0.1006500000000000    0.3150800000000000    0.8166800000000000 O
   0.1006200000000000    0.8139100000000000    0.3166900000000000 O
   0.1006500000000000    0.8150400000000000    0.8166700000000000 O
   0.6007500000000000    0.3140200000000000    0.3167000000000000 O
   0.6006200000000000    0.3150700000000000    0.8166700000000000 O
   0.6006000000000000    0.8139300000000000    0.3166900000000000 O
   0.6006500000000000    0.8150300000000000    0.8166600000000001 O
   0.1005900000000000    0.0027200000000000    0.3166600000000000 O
   0.1003100000000000    0.0038700000000000    0.8167000000000000 O
   0.1002800000000000    0.5039300000000000    0.8167300000000000 O
   0.6005600000000000    0.0027300000000000    0.3166000000000000 O
   0.6003100000000000    0.0038500000000000    0.8167000000000000 O
   0.6006200000000000    0.5028700000000000    0.3166700000000000 O
   0.6002600000000000    0.5039200000000000    0.8167200000000000 O
   0.3999000000000000    0.1866400000000000    0.1832900000000000 O
   0.3997700000000000    0.1874700000000000    0.6832600000000000 O
   0.3998700000000000    0.6865400000000000    0.1832600000000000 O
   0.3997200000000000    0.6874700000000000    0.6832400000000000 O
   0.8998800000000000    0.1866300000000000    0.1832800000000000 O
   0.8997700000000000    0.1874800000000000    0.6832000000000000 O
   0.8998699999999999    0.6865599999999999    0.1832700000000000 O
   0.1358700000000000    0.1156600000000000    0.2305500000000000 O
   0.1357100000000000    0.1166000000000000    0.7305700000000001 O
   0.1358800000000000    0.6156300000000000    0.2305300000000000 O
   0.6358700000000000    0.1156700000000000    0.2305400000000000 O
   0.6356500000000000    0.1166200000000000    0.7305800000000000 O
   0.6358500000000000    0.6156400000000000    0.2305200000000000 O
   0.6356100000000000    0.6166100000000000    0.7305400000000000 O
   0.3647600000000000    0.3849200000000000    0.2694900000000000 O
   0.3644500000000000    0.3859600000000000    0.7695100000000000 O
   0.3646700000000000    0.8848800000000000    0.2694700000000000 O
   0.3644900000000000    0.8859399999999999    0.7695000000000000 O
   0.8644400000000000    0.3859700000000000    0.7695200000000000 O
   0.8646500000000000    0.8848900000000000    0.2694700000000000 O
   0.8644700000000000    0.8859399999999999    0.7695000000000000 O
