H6 O4
1.0
  17.0381127473109402    0.0000000000000000    5.5652933444626589
   1.0680194982748841   17.1903378673226861    5.1571367403430637
   0.0000000000000000    0.0000000000000000   13.7750000000000004
H O
6 4
direct
   0.8976132529037811    0.5600635355781258    0.1412062689613669 H
   0.8102924836580825    0.5484318716966670    0.4495466606567921 H
   0.8604712588409122    0.5534975911471760    0.3000346806642159 H
   0.0509274939453455    0.5476722894264432    0.3854271634867826 H
   0.1340836638685142    0.6111682264218546    0.0703860741455962 H
   0.0863153867180077    0.5810186716241269    0.2217579605154406 H
   0.8541800000000001    0.5595500000000000    0.2044200000000000 O
   0.8057000000000000    0.5528500000000000    0.3797500000000000 O
   0.0937000000000000    0.5595200000000000    0.3207800000000000 O
   0.1393900000000000    0.5957200000000000    0.1415400000000000 O
