H3 C7 N1 O4
1.0
  30.1919999954014955    0.0000000000000000   -0.0005269498077389
  -0.0004270503849027   14.1697355065733799   -8.1311846917519723
   0.0000000000000000    0.0000000000000000   32.6739999999999995
H C N O
3 7 1 4
direct
   0.2852050000000000    0.1469200000000000    0.2097300000000000 H
   0.2852550000000000    0.8546200000000000    0.1362000000000000 H
   0.3916550000000000    0.9999800000000000    0.2336000000000000 H
   0.3017100000000000    0.0816000000000000    0.2024600000000000 C
   0.3410000000000000    0.0852100000000000    0.2262350000000000 C
   0.3609700000000000    0.1751800000000000    0.2626850000000000 C
   0.3017300000000000    0.9197000000000000    0.1617450000000000 C
   0.3409900000000000    0.9155200000000000    0.1836000000000000 C
   0.3609500000000000    0.8252100000000000    0.1747850000000000 C
   0.3611400000000000    0.0002200000000000    0.2160150000000000 C
   0.2823250000000000    0.0008000000000000    0.1704650000000000 N
   0.3411650000000000    0.2552600000000000    0.2771450000000000 O
   0.3984550000000000    0.1733000000000000    0.2797500000000000 O
   0.3410850000000000    0.7452900000000000    0.1491600000000000 O
   0.3984350000000000    0.8266800000000000    0.1927000000000000 O
