H6 O4
1.0
  30.1919999954014955    0.0000000000000000   -0.0005269498077389
  -0.0004270503849027   14.1697355065733799   -8.1311846917519723
   0.0000000000000000    0.0000000000000000   32.6739999999999995
H O
6 4
direct
   0.4359740205420199    0.4331505114113133    0.3614030677454038 H
   0.4932163021115796    0.4197444526828721    0.4087191516556250 H
   0.3674151434927414    0.3768352650242837    0.3570579163211092 H
   0.4932413775261539    0.6030836259001257    0.5913470101257071 H
   0.4359744737234545    0.7111069596670677    0.6383913385202005 H
   0.3674059217300158    0.6635423743248778    0.6429693084592936 H
   0.4663950000000000    0.4456300000000000    0.3723750000000000 O
   0.5237550000000000    0.4409700000000000    0.4134450000000000 O
   0.5237700000000000    0.6148300000000000    0.5865500000000000 O
   0.4663950000000000    0.7016300000000000    0.6274150000000001 O
