H2 C7 N1 O4
1.0
  30.1919999954014955    0.0000000000000000   -0.0005269498077389
  -0.0004270503849027   14.1697355065733799   -8.1311846917519723
   0.0000000000000000    0.0000000000000000   32.6739999999999995
H C N O
2 7 1 4
direct
   0.4103150000000000    0.5805800000000000    0.4265950000000000 H
   0.4104050000000000    0.7276000000000000    0.5727450000000001 H
   0.4268250000000000    0.5950700000000000    0.4592400000000000 C
   0.4661450000000000    0.5476100000000000    0.4574250000000000 C
   0.4861950000000000    0.4748100000000000    0.4124650000000000 C
   0.4862850000000000    0.5680200000000000    0.4999150000000000 C
   0.4268700000000000    0.6764900000000000    0.5402000000000000 C
   0.4661700000000000    0.6328900000000000    0.5422800000000000 C
   0.4862200000000000    0.6505000000000000    0.5873950000000000 C
   0.4074550000000000    0.6590600000000000    0.4996550000000000 N
   0.4663950000000000    0.4456300000000000    0.3723750000000000 O
   0.5237550000000000    0.4409700000000000    0.4134450000000000 O
   0.4663950000000000    0.7016300000000000    0.6274150000000001 O
   0.5237700000000000    0.6148300000000000    0.5865500000000000 O
