H12 C6 N4
1.0
  13.2479593133881828    0.0000000000000000    0.0328333795290653
   0.0007489421617914   14.5439990946454980    0.0050768136251026
   0.0000000000000000    0.0000000000000000   18.1239999999999988
H C N
12 6 4
direct
   0.5684500000000000    0.9603200000000000    0.0082800000000000 H
   0.5864700000000000    0.8740000000000000    0.9396000000000000 H
   0.6939100000000000    0.0792500000000000    0.0271200000000000 H
   0.6644500000000000    0.9610200000000000    0.1170000000000000 H
   0.7573000000000000    0.8738300000000000    0.1333400000000000 H
   0.7862400000000000    0.7566400000000000    0.0416900000000000 H
   0.9316200000000000    0.9605399999999999    0.0000000000000000 H
   0.9137999999999999    0.8742700000000000    0.0603800000000000 H
   0.8059900000000000    0.0793300000000000    0.9725900000000000 H
   0.8356800000000000    0.9608900000000000    0.8828400000000000 H
   0.7428800000000000    0.8735800000000000    0.8666700000000001 H
   0.7141600000000000    0.7565200000000000    0.9585100000000000 H
   0.8756200000000000    0.9162900000000000    0.0187800000000000 C
   0.7792600000000000    0.9161000000000000    0.9089500000000000 C
   0.6245600000000000    0.9161200000000000    0.9811500000000000 C
   0.7209200000000000    0.9162300000000000    0.0909600000000000 C
   0.7500200000000000    0.0353400000000000    0.9998899999999999 C
   0.7501700000000000    0.8005800000000000    0.0000600000000000 C
   0.8002899999999999    0.9770700000000000    0.0568700000000000 N
   0.8278799999999999    0.8575900000000000    0.9636900000000000 N
   0.6998500000000000    0.9769300000000000    0.9429600000000000 N
   0.6723900000000000    0.8575800000000000    0.0363200000000000 N
