H3 C7 N1 O4
1.0
  13.2479593133881828    0.0000000000000000    0.0328333795290653
   0.0007489421617914   14.5439990946454980    0.0050768136251026
   0.0000000000000000    0.0000000000000000   18.1239999999999988
H C N O
3 7 1 4
direct
   0.7222300000000000    0.8419000000000000    0.2833700000000000 H
   0.5959400000000000    0.9496700000000000    0.2309400000000000 H
   0.3767600000000000    0.7452200000000000    0.2264700000000000 H
   0.4734800000000000    0.6101500000000000    0.2970500000000000 C
   0.5175900000000000    0.7006900000000000    0.2732200000000000 C
   0.6185000000000000    0.7262800000000000    0.2860800000000000 C
   0.6460399999999999    0.8176300000000000    0.2719100000000000 C
   0.5763000000000000    0.8781800000000000    0.2418800000000000 C
   0.7004700000000000    0.6603700000000000    0.3090900000000000 C
   0.4535500000000000    0.7649899999999999    0.2403800000000000 C
   0.4817100000000000    0.8515300000000000    0.2237700000000000 N
   0.3861800000000000    0.5893300000000000    0.2716200000000000 O
   0.5204600000000000    0.5611100000000000    0.3435100000000000 O
   0.7517900000000000    0.6794400000000000    0.3660300000000000 O
   0.7195100000000000    0.5936700000000000    0.2656800000000000 O
