H10 C16 O4
1.0
  12.5079687872257868    0.0000000000000000   -0.0279431169601088
  -3.1016186779435784   15.0335346461682668   -3.9289722089994372
   0.0000000000000000    0.0000000000000000   33.2879999999999967
H C O
10 16 4
direct
   0.1035050000000000    0.1870600000000000    0.4381350000000000 H
   0.2340450000000000    0.3221200000000000    0.4742350000000000 H
   0.0042100000000000    0.4820100000000000    0.4558450000000000 H
   0.1700750000000000    0.5558200000000000    0.4903900000000000 H
   0.8726700000000001    0.3440000000000000    0.4199250000000000 H
   0.3964750000000000    0.8129300000000000    0.5618500000000000 H
   0.2659400000000000    0.6778700000000000    0.5257550000000000 H
   0.4957750000000000    0.5179800000000000    0.5441450000000000 H
   0.1273150000000000    0.6559900000000000    0.5800650000000001 H
   0.3299150000000000    0.4441700000000000    0.5095950000000000 H
   0.0815100000000000    0.2517500000000000    0.4426050000000000 C
   0.1547250000000000    0.3283000000000000    0.4630550000000000 C
   0.1284050000000000    0.4130400000000000    0.4686550000000000 C
   0.0258050000000000    0.4171600000000000    0.4522650000000000 C
   0.2009300000000000    0.4957600000000000    0.4902350000000000 C
   0.8968000000000000    0.1749400000000000    0.4065300000000000 C
   0.9787399999999999    0.2566000000000000    0.4272700000000000 C
   0.9520999999999999    0.3405000000000000    0.4321700000000000 C
   0.1031800000000000    0.8250500000000000    0.5934650000000000 C
   0.0212500000000000    0.7433999999999999    0.5727200000000000 C
   0.4184800000000000    0.7482400000000000    0.5573750000000000 C
   0.3452600000000000    0.6716900000000000    0.5369300000000000 C
   0.3715850000000000    0.5869500000000000    0.5313300000000000 C
   0.4741750000000000    0.5828300000000000    0.5477250000000000 C
   0.0478900000000000    0.6594900000000000    0.5678200000000000 C
   0.2990550000000000    0.5042300000000000    0.5097500000000000 C
   0.9297800000000001    0.0993100000000000    0.3993650000000000 O
   0.8017449999999999    0.1807600000000000    0.3975600000000000 O
   0.0702050000000000    0.9006800000000000    0.6006250000000000 O
   0.1982350000000000    0.8192300000000000    0.6024350000000001 O
