Zn8 H140 C198 N14 O34
1.0
  12.5079687872257868    0.0000000000000000   -0.0279431169601088
  -3.1016186779435784   15.0335346461682668   -3.9289722089994372
   0.0000000000000000    0.0000000000000000   33.2879999999999967
Zn H C N O
8 140 198 14 34
direct
   0.6946200000000000    0.9998600000000000    0.6248300000000000 Zn
   0.3053600000000000    0.0001500000000000    0.8751599999999999 Zn
   0.1946200000000000    0.9998600000000000    0.1248300000000000 Zn
   0.8053600000000001    0.0001500000000000    0.3751600000000000 Zn
   0.1946200000000000    0.9998600000000000    0.6248300000000000 Zn
   0.8053600000000001    0.0001500000000000    0.8751599999999999 Zn
   0.6946200000000000    0.9998600000000000    0.1248300000000000 Zn
   0.3053600000000000    0.0001500000000000    0.3751600000000000 Zn
   0.0558650000000000    0.1081200000000000    0.0643150000000000 H
   0.8348350000000000    0.8915100000000000    0.9796050000000001 H
   0.7042950000000000    0.8983200000000000    0.0350200000000000 H
   0.9136500000000001    0.1077500000000000    0.1150600000000000 H
   0.9441150000000000    0.8918700000000001    0.9356700000000000 H
   0.1651450000000000    0.1084700000000000    0.0203850000000000 H
   0.2956800000000000    0.1016700000000000    0.9649650000000001 H
   0.0863250000000000    0.8922500000000000    0.8849300000000000 H
   0.5558650000000001    0.1081200000000000    0.5643150000000000 H
   0.3348350000000000    0.8915100000000000    0.4796050000000000 H
   0.2042950000000000    0.8983200000000000    0.5350200000000001 H
   0.4136500000000000    0.1077500000000000    0.6150599999999999 H
   0.4441150000000000    0.8918700000000001    0.4356700000000000 H
   0.6651450000000000    0.1084700000000000    0.5203850000000000 H
   0.7956799999999999    0.1016700000000000    0.4649650000000000 H
   0.5863250000000000    0.8922500000000000    0.3849300000000000 H
   0.9977199999999999    0.1083900000000000    0.8141800000000000 H
   0.1115450000000000    0.8917000000000000    0.7298900000000000 H
   0.2457450000000000    0.8989400000000000    0.7855449999999999 H
   0.1399100000000000    0.1083200000000000    0.8652000000000000 H
   0.0022850000000000    0.8916300000000000    0.6858050000000000 H
   0.8883950000000000    0.1082700000000000    0.7701050000000000 H
   0.7542050000000000    0.1010300000000000    0.7144450000000000 H
   0.8601000000000000    0.8916900000000000    0.6347800000000000 H
   0.4977200000000000    0.1083900000000000    0.3141800000000000 H
   0.6115450000000000    0.8917000000000000    0.2298900000000000 H
   0.7457450000000000    0.8989400000000000    0.2855450000000000 H
   0.6399100000000000    0.1083200000000000    0.3652000000000000 H
   0.5022850000000000    0.8916300000000000    0.1858050000000000 H
   0.3883950000000000    0.1082700000000000    0.2701050000000000 H
   0.2542050000000000    0.1010300000000000    0.2144450000000000 H
   0.3601000000000000    0.8916900000000000    0.1347800000000000 H
   0.8964750000000000    0.8129300000000000    0.0618500000000000 H
   0.7659400000000001    0.6778700000000000    0.0257550000000000 H
   0.1273150000000000    0.6559900000000000    0.0800650000000000 H
   0.9957750000000001    0.5179800000000000    0.0441450000000000 H
   0.6700750000000000    0.5558200000000000    0.9903900000000000 H
   0.8299150000000000    0.4441700000000000    0.0095950000000000 H
   0.6035050000000000    0.1870600000000000    0.9381349999999999 H
   0.7340450000000001    0.3221200000000000    0.9742350000000000 H
   0.3726700000000000    0.3440000000000000    0.9199250000000000 H
   0.5042100000000000    0.4820100000000000    0.9558450000000001 H
   0.4904500000000000    0.1870100000000000    0.6880350000000000 H
   0.4275100000000000    0.3221900000000000    0.7243450000000000 H
   0.7986000000000000    0.3437200000000000    0.6696150000000000 H
   0.7362800000000000    0.4818200000000000    0.7058450000000001 H
   0.3923150000000000    0.4442700000000000    0.7594500000000000 H
   0.6076650000000000    0.5557200000000000    0.7405450000000000 H
   0.5095300000000000    0.8129800000000000    0.8119550000000000 H
   0.5724650000000000    0.6778000000000000    0.7756449999999999 H
   0.2013800000000000    0.6562700000000000    0.8303750000000000 H
   0.2637050000000000    0.5181700000000000    0.7941500000000000 H
   0.3964750000000000    0.8129300000000000    0.5618500000000000 H
   0.2659400000000000    0.6778700000000000    0.5257550000000000 H
   0.6273150000000001    0.6559900000000000    0.5800650000000001 H
   0.4957750000000000    0.5179800000000000    0.5441450000000000 H
   0.1700750000000000    0.5558200000000000    0.4903900000000000 H
   0.3299150000000000    0.4441700000000000    0.5095950000000000 H
   0.1035050000000000    0.1870600000000000    0.4381350000000000 H
   0.2340450000000000    0.3221200000000000    0.4742350000000000 H
   0.8726700000000001    0.3440000000000000    0.4199250000000000 H
   0.0042100000000000    0.4820100000000000    0.4558450000000000 H
   0.9904500000000001    0.1870100000000000    0.1880350000000000 H
   0.9275100000000001    0.3221900000000000    0.2243450000000000 H
   0.2986000000000000    0.3437200000000000    0.1696150000000000 H
   0.2362800000000000    0.4818200000000000    0.2058450000000000 H
   0.8923150000000000    0.4442700000000000    0.2594500000000000 H
   0.1076650000000000    0.5557200000000000    0.2405450000000000 H
   0.0095300000000000    0.8129800000000000    0.3119550000000000 H
   0.0724650000000000    0.6778000000000000    0.2756450000000000 H
   0.7013800000000000    0.6562700000000000    0.3303750000000000 H
   0.7637050000000001    0.5181700000000000    0.2941500000000000 H
   0.5558650000000001    0.1081200000000000    0.0643150000000000 H
   0.3348350000000000    0.8915100000000000    0.9796050000000001 H
   0.2042950000000000    0.8983200000000000    0.0350200000000000 H
   0.4136500000000000    0.1077500000000000    0.1150600000000000 H
   0.4441150000000000    0.8918700000000001    0.9356700000000000 H
   0.6651450000000000    0.1084700000000000    0.0203850000000000 H
   0.7956799999999999    0.1016700000000000    0.9649650000000001 H
   0.5863250000000000    0.8922500000000000    0.8849300000000000 H
   0.0558650000000000    0.1081200000000000    0.5643150000000000 H
   0.8348350000000000    0.8915100000000000    0.4796050000000000 H
   0.7042950000000000    0.8983200000000000    0.5350200000000001 H
   0.9136500000000001    0.1077500000000000    0.6150599999999999 H
   0.9441150000000000    0.8918700000000001    0.4356700000000000 H
   0.1651450000000000    0.1084700000000000    0.5203850000000000 H
   0.2956800000000000    0.1016700000000000    0.4649650000000000 H
   0.0863250000000000    0.8922500000000000    0.3849300000000000 H
   0.3078973435538297    1.0390215696935872    0.6994537500513527 H
   0.3512721237419086    0.9546089902980628    0.6670813347503131 H
   0.6487172936039614    0.0453846280233614    0.8329081988060197 H
   0.6920691896567300   -0.0390410045915605    0.8005385008154625 H
   0.9977199999999999    0.1083900000000000    0.3141800000000000 H
   0.1115450000000000    0.8917000000000000    0.2298900000000000 H
   0.2457450000000000    0.8989400000000000    0.2855450000000000 H
   0.1399100000000000    0.1083200000000000    0.3652000000000000 H
   0.0022850000000000    0.8916300000000000    0.1858050000000000 H
   0.8883950000000000    0.1082700000000000    0.2701050000000000 H
   0.7542050000000000    0.1010300000000000    0.2144450000000000 H
   0.8601000000000000    0.8916900000000000    0.1347800000000000 H
   0.3964750000000000    0.8129300000000000    0.0618500000000000 H
   0.2659400000000000    0.6778700000000000    0.0257550000000000 H
   0.6273150000000001    0.6559900000000000    0.0800650000000000 H
   0.4957750000000000    0.5179800000000000    0.0441450000000000 H
   0.1700750000000000    0.5558200000000000    0.9903900000000000 H
   0.3299150000000000    0.4441700000000000    0.0095950000000000 H
   0.1035050000000000    0.1870600000000000    0.9381349999999999 H
   0.2340450000000000    0.3221200000000000    0.9742350000000000 H
   0.8726700000000001    0.3440000000000000    0.9199250000000000 H
   0.0042100000000000    0.4820100000000000    0.9558450000000001 H
   0.9904500000000001    0.1870100000000000    0.6880350000000000 H
   0.9275100000000001    0.3221900000000000    0.7243450000000000 H
   0.2986000000000000    0.3437200000000000    0.6696150000000000 H
   0.2362800000000000    0.4818200000000000    0.7058450000000001 H
   0.8923150000000000    0.4442700000000000    0.7594500000000000 H
   0.1076650000000000    0.5557200000000000    0.7405450000000000 H
   0.0095300000000000    0.8129800000000000    0.8119550000000000 H
   0.0724650000000000    0.6778000000000000    0.7756449999999999 H
   0.7013800000000000    0.6562700000000000    0.8303750000000000 H
   0.7637050000000001    0.5181700000000000    0.7941500000000000 H
   0.8964750000000000    0.8129300000000000    0.5618500000000000 H
   0.7659400000000001    0.6778700000000000    0.5257550000000000 H
   0.1273150000000000    0.6559900000000000    0.5800650000000001 H
   0.9957750000000001    0.5179800000000000    0.5441450000000000 H
   0.6700750000000000    0.5558200000000000    0.4903900000000000 H
   0.8299150000000000    0.4441700000000000    0.5095950000000000 H
   0.6035050000000000    0.1870600000000000    0.4381350000000000 H
   0.7340450000000001    0.3221200000000000    0.4742350000000000 H
   0.3726700000000000    0.3440000000000000    0.4199250000000000 H
   0.5042100000000000    0.4820100000000000    0.4558450000000000 H
   0.4904500000000000    0.1870100000000000    0.1880350000000000 H
   0.4275100000000000    0.3221900000000000    0.2243450000000000 H
   0.7986000000000000    0.3437200000000000    0.1696150000000000 H
   0.7362800000000000    0.4818200000000000    0.2058450000000000 H
   0.3923150000000000    0.4442700000000000    0.2594500000000000 H
   0.6076650000000000    0.5557200000000000    0.2405450000000000 H
   0.5095300000000000    0.8129800000000000    0.3119550000000000 H
   0.5724650000000000    0.6778000000000000    0.2756450000000000 H
   0.2013800000000000    0.6562700000000000    0.3303750000000000 H
   0.2637050000000000    0.5181700000000000    0.2941500000000000 H
   0.9791950000000000    0.0605100000000000    0.0554450000000000 C
   0.8575900000000001    0.9408400000000000    0.0090300000000000 C
   0.7830900000000001    0.9441200000000000    0.0399000000000000 C
   0.9004700000000000    0.0605200000000000    0.0847650000000000 C
   0.9591750000000000    0.0003900000000000    0.0161400000000000 C
   0.0207800000000000    0.9394900000000000    0.9445399999999999 C
   0.1423850000000000    0.0591500000000000    0.9909550000000000 C
   0.2168900000000000    0.0558700000000000    0.9600949999999999 C
   0.0995150000000000    0.9394600000000000    0.9152250000000000 C
   0.0408000000000000    0.9996200000000000    0.9838500000000000 C
   0.4791950000000000    0.0605100000000000    0.5554450000000000 C
   0.3575900000000000    0.9408400000000000    0.5090300000000000 C
   0.2830900000000000    0.9441200000000000    0.5399000000000000 C
   0.4004700000000000    0.0605200000000000    0.5847650000000000 C
   0.4591750000000000    0.0003900000000000    0.5161400000000000 C
   0.5207800000000000    0.9394900000000000    0.4445400000000000 C
   0.6423850000000000    0.0591500000000000    0.4909550000000000 C
   0.7168900000000000    0.0558700000000000    0.4600950000000000 C
   0.5995150000000000    0.9394600000000000    0.4152250000000000 C
   0.5407999999999999    0.9996200000000000    0.4838500000000000 C
   0.0508450000000000    0.0608200000000000    0.8054600000000001 C
   0.1132500000000000    0.9410800000000000    0.7592650000000001 C
   0.1894600000000000    0.9445800000000000    0.7902600000000000 C
   0.1296650000000000    0.0610500000000000    0.8349200000000000 C
   0.0410650000000000    0.0005400000000000    0.7662050000000000 C
   0.9491499999999999    0.9391900000000000    0.6945250000000001 C
   0.8867100000000000    0.0588900000000000    0.7407300000000000 C
   0.8105000000000000    0.0554000000000000    0.7097350000000000 C
   0.8703200000000000    0.9389500000000000    0.6650700000000001 C
   0.9589000000000000    0.9994700000000000    0.7337850000000000 C
   0.5508450000000000    0.0608200000000000    0.3054600000000000 C
   0.6132500000000000    0.9410800000000000    0.2592650000000000 C
   0.6894600000000000    0.9445800000000000    0.2902600000000000 C
   0.6296650000000000    0.0610500000000000    0.3349200000000000 C
   0.5410650000000000    0.0005400000000000    0.2662050000000000 C
   0.4491500000000000    0.9391900000000000    0.1945250000000000 C
   0.3867100000000000    0.0588900000000000    0.2407300000000000 C
   0.3105000000000000    0.0554000000000000    0.2097350000000000 C
   0.3703200000000000    0.9389500000000000    0.1650700000000000 C
   0.4589000000000000    0.9994700000000000    0.2337850000000000 C
   0.3968000000000000    0.1749400000000000    0.9065300000000001 C
   0.1031800000000000    0.8250500000000000    0.0934650000000000 C
   0.9184800000000000    0.7482400000000000    0.0573750000000000 C
   0.8452600000000000    0.6716900000000000    0.0369300000000000 C
   0.0478900000000000    0.6594900000000000    0.0678200000000000 C
   0.9741750000000000    0.5828300000000000    0.0477250000000000 C
   0.0212500000000000    0.7433999999999999    0.0727200000000000 C
   0.8715850000000001    0.5869500000000000    0.0313300000000000 C
   0.7009300000000001    0.4957600000000000    0.9902350000000000 C
   0.7990550000000001    0.5042300000000000    0.0097500000000000 C
   0.5815100000000000    0.2517500000000000    0.9426050000000000 C
   0.6547250000000000    0.3283000000000000    0.9630550000000000 C
   0.4521000000000000    0.3405000000000000    0.9321699999999999 C
   0.5258050000000000    0.4171600000000000    0.9522649999999999 C
   0.4787400000000000    0.2566000000000000    0.9272700000000000 C
   0.6284050000000000    0.4130400000000000    0.9686550000000000 C
   0.6903100000000000    0.1748400000000000    0.6559850000000000 C
   0.3096700000000000    0.8251500000000001    0.8440000000000000 C
   0.5445500000000000    0.2516800000000000    0.6925150000000000 C
   0.5096500000000000    0.3282600000000000    0.7130650000000001 C
   0.7177200000000000    0.3403200000000000    0.6819750000000000 C
   0.6824350000000000    0.4170000000000000    0.7022150000000000 C
   0.6493400000000000    0.2564800000000000    0.6770050000000000 C
   0.5780850000000000    0.4129500000000000    0.7186800000000000 C
   0.4531000000000000    0.5042800000000000    0.7597149999999999 C
   0.5468850000000000    0.4957100000000000    0.7402850000000000 C
   0.4554300000000000    0.7483100000000000    0.8074749999999999 C
   0.4903300000000000    0.6717300000000000    0.7869300000000000 C
   0.2822600000000000    0.6596600000000000    0.8180200000000000 C
   0.3175450000000000    0.5829800000000001    0.7977750000000000 C
   0.3506400000000000    0.7435100000000000    0.8229900000000000 C
   0.4218950000000000    0.5870400000000000    0.7813150000000000 C
   0.8968000000000000    0.1749400000000000    0.4065300000000000 C
   0.6031800000000000    0.8250500000000000    0.5934650000000000 C
   0.4184800000000000    0.7482400000000000    0.5573750000000000 C
   0.3452600000000000    0.6716900000000000    0.5369300000000000 C
   0.5478900000000000    0.6594900000000000    0.5678200000000000 C
   0.4741750000000000    0.5828300000000000    0.5477250000000000 C
   0.5212500000000000    0.7433999999999999    0.5727200000000000 C
   0.3715850000000000    0.5869500000000000    0.5313300000000000 C
   0.2009300000000000    0.4957600000000000    0.4902350000000000 C
   0.2990550000000000    0.5042300000000000    0.5097500000000000 C
   0.0815100000000000    0.2517500000000000    0.4426050000000000 C
   0.1547250000000000    0.3283000000000000    0.4630550000000000 C
   0.9520999999999999    0.3405000000000000    0.4321700000000000 C
   0.0258050000000000    0.4171600000000000    0.4522650000000000 C
   0.9787399999999999    0.2566000000000000    0.4272700000000000 C
   0.1284050000000000    0.4130400000000000    0.4686550000000000 C
   0.1903100000000000    0.1748400000000000    0.1559850000000000 C
   0.8096700000000000    0.8251500000000001    0.3440000000000000 C
   0.0445500000000000    0.2516800000000000    0.1925150000000000 C
   0.0096500000000000    0.3282600000000000    0.2130650000000000 C
   0.2177200000000000    0.3403200000000000    0.1819750000000000 C
   0.1824350000000000    0.4170000000000000    0.2022150000000000 C
   0.1493400000000000    0.2564800000000000    0.1770050000000000 C
   0.0780850000000000    0.4129500000000000    0.2186800000000000 C
   0.9531000000000001    0.5042800000000000    0.2597150000000000 C
   0.0468850000000000    0.4957100000000000    0.2402850000000000 C
   0.9554300000000000    0.7483100000000000    0.3074750000000000 C
   0.9903299999999999    0.6717300000000000    0.2869300000000000 C
   0.7822600000000000    0.6596600000000000    0.3180200000000000 C
   0.8175450000000000    0.5829800000000001    0.2977750000000000 C
   0.8506400000000001    0.7435100000000000    0.3229900000000000 C
   0.9218950000000000    0.5870400000000000    0.2813150000000000 C
   0.4791950000000000    0.0605100000000000    0.0554450000000000 C
   0.3575900000000000    0.9408400000000000    0.0090300000000000 C
   0.2830900000000000    0.9441200000000000    0.0399000000000000 C
   0.4004700000000000    0.0605200000000000    0.0847650000000000 C
   0.4591750000000000    0.0003900000000000    0.0161400000000000 C
   0.5207800000000000    0.9394900000000000    0.9445399999999999 C
   0.6423850000000000    0.0591500000000000    0.9909550000000000 C
   0.7168900000000000    0.0558700000000000    0.9600949999999999 C
   0.5995150000000000    0.9394600000000000    0.9152250000000000 C
   0.5407999999999999    0.9996200000000000    0.9838500000000000 C
   0.9791950000000000    0.0605100000000000    0.5554450000000000 C
   0.8575900000000001    0.9408400000000000    0.5090300000000000 C
   0.7830900000000001    0.9441200000000000    0.5399000000000000 C
   0.9004700000000000    0.0605200000000000    0.5847650000000000 C
   0.9591750000000000    0.0003900000000000    0.5161400000000000 C
   0.0207800000000000    0.9394900000000000    0.4445400000000000 C
   0.1423850000000000    0.0591500000000000    0.4909550000000000 C
   0.2168900000000000    0.0558700000000000    0.4600950000000000 C
   0.0995150000000000    0.9394600000000000    0.4152250000000000 C
   0.0408000000000000    0.9996200000000000    0.4838500000000000 C
   0.0508450000000000    0.0608200000000000    0.3054600000000000 C
   0.1132500000000000    0.9410800000000000    0.2592650000000000 C
   0.1894600000000000    0.9445800000000000    0.2902600000000000 C
   0.1296650000000000    0.0610500000000000    0.3349200000000000 C
   0.0410650000000000    0.0005400000000000    0.2662050000000000 C
   0.9491499999999999    0.9391900000000000    0.1945250000000000 C
   0.8867100000000000    0.0588900000000000    0.2407300000000000 C
   0.8105000000000000    0.0554000000000000    0.2097350000000000 C
   0.8703200000000000    0.9389500000000000    0.1650700000000000 C
   0.9589000000000000    0.9994700000000000    0.2337850000000000 C
   0.8968000000000000    0.1749400000000000    0.9065300000000001 C
   0.6031800000000000    0.8250500000000000    0.0934650000000000 C
   0.4184800000000000    0.7482400000000000    0.0573750000000000 C
   0.3452600000000000    0.6716900000000000    0.0369300000000000 C
   0.5478900000000000    0.6594900000000000    0.0678200000000000 C
   0.4741750000000000    0.5828300000000000    0.0477250000000000 C
   0.5212500000000000    0.7433999999999999    0.0727200000000000 C
   0.3715850000000000    0.5869500000000000    0.0313300000000000 C
   0.2009300000000000    0.4957600000000000    0.9902350000000000 C
   0.2990550000000000    0.5042300000000000    0.0097500000000000 C
   0.0815100000000000    0.2517500000000000    0.9426050000000000 C
   0.1547250000000000    0.3283000000000000    0.9630550000000000 C
   0.9520999999999999    0.3405000000000000    0.9321699999999999 C
   0.0258050000000000    0.4171600000000000    0.9522649999999999 C
   0.9787399999999999    0.2566000000000000    0.9272700000000000 C
   0.1284050000000000    0.4130400000000000    0.9686550000000000 C
   0.1903100000000000    0.1748400000000000    0.6559850000000000 C
   0.8096700000000000    0.8251500000000001    0.8440000000000000 C
   0.0445500000000000    0.2516800000000000    0.6925150000000000 C
   0.0096500000000000    0.3282600000000000    0.7130650000000001 C
   0.2177200000000000    0.3403200000000000    0.6819750000000000 C
   0.1824350000000000    0.4170000000000000    0.7022150000000000 C
   0.1493400000000000    0.2564800000000000    0.6770050000000000 C
   0.0780850000000000    0.4129500000000000    0.7186800000000000 C
   0.9531000000000001    0.5042800000000000    0.7597149999999999 C
   0.0468850000000000    0.4957100000000000    0.7402850000000000 C
   0.9554300000000000    0.7483100000000000    0.8074749999999999 C
   0.9903299999999999    0.6717300000000000    0.7869300000000000 C
   0.7822600000000000    0.6596600000000000    0.8180200000000000 C
   0.8175450000000000    0.5829800000000001    0.7977750000000000 C
   0.8506400000000001    0.7435100000000000    0.8229900000000000 C
   0.9218950000000000    0.5870400000000000    0.7813150000000000 C
   0.3968000000000000    0.1749400000000000    0.4065300000000000 C
   0.1031800000000000    0.8250500000000000    0.5934650000000000 C
   0.9184800000000000    0.7482400000000000    0.5573750000000000 C
   0.8452600000000000    0.6716900000000000    0.5369300000000000 C
   0.0478900000000000    0.6594900000000000    0.5678200000000000 C
   0.9741750000000000    0.5828300000000000    0.5477250000000000 C
   0.0212500000000000    0.7433999999999999    0.5727200000000000 C
   0.8715850000000001    0.5869500000000000    0.5313300000000000 C
   0.7009300000000001    0.4957600000000000    0.4902350000000000 C
   0.7990550000000001    0.5042300000000000    0.5097500000000000 C
   0.5815100000000000    0.2517500000000000    0.4426050000000000 C
   0.6547250000000000    0.3283000000000000    0.4630550000000000 C
   0.4521000000000000    0.3405000000000000    0.4321700000000000 C
   0.5258050000000000    0.4171600000000000    0.4522650000000000 C
   0.4787400000000000    0.2566000000000000    0.4272700000000000 C
   0.6284050000000000    0.4130400000000000    0.4686550000000000 C
   0.6903100000000000    0.1748400000000000    0.1559850000000000 C
   0.3096700000000000    0.8251500000000001    0.3440000000000000 C
   0.5445500000000000    0.2516800000000000    0.1925150000000000 C
   0.5096500000000000    0.3282600000000000    0.2130650000000000 C
   0.7177200000000000    0.3403200000000000    0.1819750000000000 C
   0.6824350000000000    0.4170000000000000    0.2022150000000000 C
   0.6493400000000000    0.2564800000000000    0.1770050000000000 C
   0.5780850000000000    0.4129500000000000    0.2186800000000000 C
   0.4531000000000000    0.5042800000000000    0.2597150000000000 C
   0.5468850000000000    0.4957100000000000    0.2402850000000000 C
   0.4554300000000000    0.7483100000000000    0.3074750000000000 C
   0.4903300000000000    0.6717300000000000    0.2869300000000000 C
   0.2822600000000000    0.6596600000000000    0.3180200000000000 C
   0.3175450000000000    0.5829800000000001    0.2977750000000000 C
   0.3506400000000000    0.7435100000000000    0.3229900000000000 C
   0.4218950000000000    0.5870400000000000    0.2813150000000000 C
   0.8029649999999999    0.0035400000000000    0.0772850000000000 N
   0.1970100000000000    0.9964600000000000    0.9227000000000001 N
   0.3029650000000000    0.0035400000000000    0.5772850000000000 N
   0.6970100000000000    0.9964600000000000    0.4227000000000000 N
   0.1989400000000000    0.0040900000000000    0.8276049999999999 N
   0.8010450000000000    0.9959000000000000    0.6723850000000000 N
   0.6989400000000000    0.0040900000000000    0.3276050000000000 N
   0.3010450000000000    0.9959000000000000    0.1723850000000000 N
   0.3029650000000000    0.0035400000000000    0.0772850000000000 N
   0.6970100000000000    0.9964600000000000    0.9227000000000001 N
   0.8029649999999999    0.0035400000000000    0.5772850000000000 N
   0.1970100000000000    0.9964600000000000    0.4227000000000000 N
   0.1989400000000000    0.0040900000000000    0.3276050000000000 N
   0.8010450000000000    0.9959000000000000    0.1723850000000000 N
   0.3017450000000000    0.1807600000000000    0.8975600000000000 O
   0.4297800000000000    0.0993100000000000    0.8993650000000000 O
   0.1982350000000000    0.8192300000000000    0.1024350000000000 O
   0.0702050000000000    0.9006800000000000    0.1006250000000000 O
   0.7874800000000000    0.1807600000000000    0.6461749999999999 O
   0.6202100000000000    0.0991000000000000    0.6494150000000000 O
   0.2125000000000000    0.8192199999999999    0.8538150000000000 O
   0.3797750000000000    0.9008800000000000    0.8505750000000001 O
   0.8017449999999999    0.1807600000000000    0.3975600000000000 O
   0.9297800000000001    0.0993100000000000    0.3993650000000000 O
   0.6982349999999999    0.8192300000000000    0.6024350000000001 O
   0.5702050000000000    0.9006800000000000    0.6006250000000000 O
   0.2874800000000000    0.1807600000000000    0.1461750000000000 O
   0.1202100000000000    0.0991000000000000    0.1494150000000000 O
   0.7125000000000000    0.8192199999999999    0.3538150000000000 O
   0.8797750000000000    0.9008800000000000    0.3505750000000000 O
   0.3010450000000000    0.9959000000000000    0.6723850000000000 O
   0.6989400000000000    0.0040900000000000    0.8276049999999999 O
   0.8017449999999999    0.1807600000000000    0.8975600000000000 O
   0.9297800000000001    0.0993100000000000    0.8993650000000000 O
   0.6982349999999999    0.8192300000000000    0.1024350000000000 O
   0.5702050000000000    0.9006800000000000    0.1006250000000000 O
   0.2874800000000000    0.1807600000000000    0.6461749999999999 O
   0.1202100000000000    0.0991000000000000    0.6494150000000000 O
   0.7125000000000000    0.8192199999999999    0.8538150000000000 O
   0.8797750000000000    0.9008800000000000    0.8505750000000001 O
   0.3017450000000000    0.1807600000000000    0.3975600000000000 O
   0.4297800000000000    0.0993100000000000    0.3993650000000000 O
   0.1982350000000000    0.8192300000000000    0.6024350000000001 O
   0.0702050000000000    0.9006800000000000    0.6006250000000000 O
   0.7874800000000000    0.1807600000000000    0.1461750000000000 O
   0.6202100000000000    0.0991000000000000    0.1494150000000000 O
   0.2125000000000000    0.8192199999999999    0.3538150000000000 O
   0.3797750000000000    0.9008800000000000    0.3505750000000000 O
