H8 O5
1.0
  14.0738729271785381    0.0000000000000000   -3.9363811844930647
  -7.0099171690729367   15.3676560418971828   -7.0026733509908583
   0.0000000000000000    0.0000000000000000   36.7220000000000013
H O
8 5
direct
   0.7291588803008504    0.6804667139746451    0.1035831077014107 H
   0.7726675109291081    0.6043861004786588    0.1051378690735052 H
   0.7239128584416762    0.7864802034503430    0.1316316215851359 H
   0.7855068950242287    0.4170498213840700    0.9313395981141575 H
   0.8345265974435397    0.4142871774171393    0.9473261762521193 H
   0.6744936372912742    0.4114881305706635    0.8768727129892728 H
   0.6374204572459991    0.4459732125931509    0.9099751527952236 H
   0.5330076650185349    0.4701270782944902    0.9057003509224144 H
   0.7680900000000001    0.6595200000000000    0.1203550000000000 O
   0.7763099999999999    0.8252500000000000    0.1615550000000000 O
   0.8020500000000000    0.4040100000000000    0.9180250000000000 O
   0.7012600000000000    0.3903900000000000    0.8553299999999999 O
   0.5737700000000000    0.4449300000000000    0.8917950000000000 O
