Cu48 H752 C752 S94 Br48
1.0
  28.7280000000000015    0.0000000000000000    0.0000000000000018
  -0.0331577782041396   37.2509852428327690    0.0000000000000023
   0.0000000000000000    0.0000000000000000   20.7609999999999992
Cu H C S Br
48 752 752 94 48
direct
   0.3126650000000000    0.1112666666666667    0.2499900000000000 Cu
   0.0624250000000000    0.2780066666666666    0.7499800000000000 Cu
   0.3123400000000000    0.2779466666666667    0.7499800000000000 Cu
   0.1873200000000000    0.2220766666666666    0.7499800000000000 Cu
   0.4373450000000000    0.2220733333333333    0.7499800000000000 Cu
   0.1876450000000000    0.0553933333333333    0.2499900000000000 Cu
   0.4375600000000000    0.0553333333333333    0.2499900000000000 Cu
   0.0626400000000000    0.1112666666666667    0.2499900000000000 Cu
   0.8126650000000000    0.1112666666666667    0.2499900000000000 Cu
   0.5624250000000000    0.2780066666666666    0.7499800000000000 Cu
   0.8123400000000001    0.2779466666666667    0.7499800000000000 Cu
   0.6873199999999999    0.2220766666666666    0.7499800000000000 Cu
   0.9373450000000000    0.2220733333333333    0.7499800000000000 Cu
   0.6876450000000001    0.0553933333333333    0.2499900000000000 Cu
   0.9375599999999999    0.0553333333333333    0.2499900000000000 Cu
   0.5626400000000000    0.1112666666666667    0.2499900000000000 Cu
   0.3126650000000000    0.4446000000000000    0.2499900000000000 Cu
   0.0624250000000000    0.6113400000000000    0.7499800000000000 Cu
   0.3123400000000000    0.6112800000000000    0.7499800000000000 Cu
   0.1873200000000000    0.5554100000000000    0.7499800000000000 Cu
   0.4373450000000000    0.5554066666666666    0.7499800000000000 Cu
   0.1876450000000000    0.3887266666666667    0.2499900000000000 Cu
   0.4375600000000000    0.3886666666666667    0.2499900000000000 Cu
   0.0626400000000000    0.4446000000000000    0.2499900000000000 Cu
   0.8126650000000000    0.4446000000000000    0.2499900000000000 Cu
   0.5624250000000000    0.6113400000000000    0.7499800000000000 Cu
   0.8123400000000001    0.6112800000000000    0.7499800000000000 Cu
   0.6873199999999999    0.5554100000000000    0.7499800000000000 Cu
   0.9373450000000000    0.5554066666666666    0.7499800000000000 Cu
   0.6876450000000001    0.3887266666666667    0.2499900000000000 Cu
   0.9375599999999999    0.3886666666666667    0.2499900000000000 Cu
   0.5626400000000000    0.4446000000000000    0.2499900000000000 Cu
   0.3126650000000000    0.7779333333333333    0.2499900000000000 Cu
   0.0624250000000000    0.9446733333333333    0.7499800000000000 Cu
   0.3123400000000000    0.9446133333333333    0.7499800000000000 Cu
   0.1873200000000000    0.8887433333333332    0.7499800000000000 Cu
   0.4373450000000000    0.8887400000000000    0.7499800000000000 Cu
   0.1876450000000000    0.7220599999999999    0.2499900000000000 Cu
   0.4375600000000000    0.7220000000000000    0.2499900000000000 Cu
   0.0626400000000000    0.7779333333333333    0.2499900000000000 Cu
   0.8126650000000000    0.7779333333333333    0.2499900000000000 Cu
   0.5624250000000000    0.9446733333333333    0.7499800000000000 Cu
   0.8123400000000001    0.9446133333333333    0.7499800000000000 Cu
   0.6873199999999999    0.8887433333333332    0.7499800000000000 Cu
   0.9373450000000000    0.8887400000000000    0.7499800000000000 Cu
   0.6876450000000001    0.7220599999999999    0.2499900000000000 Cu
   0.9375599999999999    0.7220000000000000    0.2499900000000000 Cu
   0.5626400000000000    0.7779333333333333    0.2499900000000000 Cu
   0.1204850000000000    0.0813633333333333    0.5121400000000000 H
   0.3706800000000000    0.0812933333333333    0.5122000000000000 H
   0.1574600000000000    0.1083500000000000    0.6082000000000000 H
   0.4077100000000000    0.1082766666666667    0.6083000000000000 H
   0.2126700000000000    0.1931800000000000    0.4902000000000000 H
   0.4627350000000000    0.1931666666666667    0.4903000000000000 H
   0.1778150000000000    0.1651000000000000    0.3936500000000000 H
   0.4278650000000000    0.1650766666666666    0.3937600000000000 H
   0.0933950000000000    0.0874900000000000    0.4038900000000000 H
   0.3435000000000000    0.0874400000000000    0.4040000000000000 H
   0.1431400000000000    0.0929000000000000    0.3546600000000000 H
   0.3932450000000000    0.0928100000000000    0.3548100000000000 H
   0.0281950000000000    0.1774466666666667    0.3503300000000000 H
   0.2783800000000000    0.1774200000000000    0.3504100000000000 H
   0.0215750000000000    0.1385933333333333    0.3981800000000000 H
   0.2717100000000000    0.1385766666666667    0.3982000000000000 H
   0.0044300000000000    0.2480433333333333    0.4878500000000000 H
   0.2543700000000000    0.2480300000000000    0.4876300000000000 H
   0.2173050000000000    0.2749966666666667    0.3916600000000000 H
   0.4673250000000000    0.2749566666666666    0.3918600000000000 H
   0.1623100000000000    0.0264266666666667    0.5097600000000000 H
   0.4122650000000000    0.0264000000000000    0.5098700000000000 H
   0.1972150000000000    0.3316800000000000    0.6062900000000000 H
   0.4472050000000000    0.3317033333333334    0.6064200000000000 H
   0.0315800000000000    0.2541866666666667    0.5960900000000000 H
   0.2815600000000000    0.2541533333333333    0.5958700000000000 H
   0.2318200000000000    0.2594566666666667    0.6451300000000000 H
   0.4818700000000000    0.2595800000000000    0.6453900000000000 H
   0.0969000000000000    0.0108966666666667    0.6493300000000000 H
   0.3467850000000000    0.0108000000000000    0.6495400000000000 H
   0.1034200000000000    0.3053733333333333    0.6015100000000000 H
   0.3533650000000000    0.3053100000000000    0.6016500000000000 H
   0.1293000000000000    0.2520466666666666    0.0122800000000000 H
   0.3794950000000000    0.2519766666666666    0.0121500000000000 H
   0.0922700000000000    0.2250666666666667    0.1083100000000000 H
   0.3425250000000000    0.2249933333333333    0.1082000000000000 H
   0.0372450000000000    0.1401733333333333    0.9903400000000000 H
   0.2873150000000000    0.1401600000000000    0.9902000000000000 H
   0.0721200000000000    0.1682633333333333    0.8937500000000000 H
   0.3221700000000000    0.1682433333333333    0.8936400000000000 H
   0.1564850000000000    0.2459033333333333    0.9040000000000000 H
   0.4065900000000000    0.2458500000000000    0.9038800000000000 H
   0.1067400000000000    0.2405300000000000    0.8548000000000000 H
   0.3568450000000000    0.2404400000000000    0.8546000000000000 H
   0.2216050000000000    0.1559200000000000    0.8504000000000000 H
   0.4717900000000000    0.1558966666666667    0.8503200000000000 H
   0.2282750000000000    0.1947633333333333    0.8982000000000000 H
   0.4784050000000000    0.1947466666666667    0.8981700000000000 H
   0.2456150000000000    0.0853100000000000    0.9876200000000001 H
   0.4955550000000000    0.0852966666666667    0.9878400000000001 H
   0.0326600000000000    0.0583833333333333    0.8918500000000000 H
   0.2826800000000000    0.0583433333333333    0.8916500000000001 H
   0.0877200000000000    0.3069433333333333    0.0098800000000000 H
   0.3376700000000000    0.3069166666666666    0.0097700000000000 H
   0.0527800000000000    0.0016366666666667    0.1064300000000000 H
   0.3027700000000000    0.0016600000000000    0.1063000000000000 H
   0.2184250000000000    0.0791866666666667    0.0958800000000000 H
   0.4684000000000000    0.0791533333333333    0.0961000000000000 H
   0.0181150000000000    0.0737633333333333    0.1454000000000000 H
   0.2681600000000000    0.0738833333333333    0.1451400000000000 H
   0.1531950000000000    0.3225400000000000    0.1495500000000000 H
   0.4030850000000000    0.3224433333333333    0.1493400000000000 H
   0.1466200000000000    0.0280300000000000    0.1016600000000000 H
   0.3965650000000000    0.0279666666666667    0.1015200000000000 H
   0.1293000000000000    0.2520466666666666    0.4877000000000000 H
   0.3794950000000000    0.2519766666666666    0.4878300000000000 H
   0.0922700000000000    0.2250666666666667    0.3916700000000000 H
   0.3425200000000000    0.2249933333333333    0.3917700000000000 H
   0.0372450000000000    0.1401733333333333    0.5096000000000001 H
   0.2873150000000000    0.1401600000000000    0.5097100000000000 H
   0.0721200000000000    0.1682633333333333    0.6062100000000000 H
   0.3221700000000000    0.1682433333333333    0.6063200000000000 H
   0.1564850000000000    0.2459033333333333    0.5959300000000000 H
   0.4065900000000000    0.2458500000000000    0.5960800000000001 H
   0.1067400000000000    0.2405300000000000    0.6451600000000000 H
   0.3568450000000000    0.2404400000000000    0.6453100000000001 H
   0.2216050000000000    0.1559233333333333    0.6495000000000000 H
   0.4717900000000000    0.1558966666666667    0.6496400000000000 H
   0.2282750000000000    0.1947633333333333    0.6017100000000000 H
   0.4784050000000000    0.1947466666666667    0.6010000000000000 H
   0.2456150000000000    0.0853100000000000    0.5123400000000000 H
   0.4955550000000000    0.0852966666666667    0.5121200000000000 H
   0.0326600000000000    0.0583833333333333    0.6081000000000000 H
   0.2826750000000000    0.0583433333333333    0.6083100000000000 H
   0.0877200000000000    0.3069433333333333    0.4901000000000000 H
   0.3376700000000000    0.3069166666666666    0.4902100000000000 H
   0.0527800000000000    0.0016366666666667    0.3935500000000000 H
   0.3027700000000000    0.0016600000000000    0.3936800000000000 H
   0.2184250000000000    0.0791866666666667    0.4041000000000000 H
   0.4684000000000000    0.0791533333333333    0.4038800000000000 H
   0.0181150000000000    0.0737633333333333    0.3545800000000000 H
   0.2681600000000000    0.0738833333333333    0.3548400000000000 H
   0.1531950000000000    0.3225400000000000    0.3504300000000000 H
   0.4030850000000000    0.3224433333333333    0.3506400000000000 H
   0.1466200000000000    0.0280300000000000    0.3983200000000000 H
   0.3965650000000000    0.0279666666666667    0.3984600000000000 H
   0.1204850000000000    0.0813633333333333    0.9878200000000000 H
   0.3706800000000000    0.0812933333333333    0.9876900000000000 H
   0.1574600000000000    0.1083500000000000    0.8917600000000000 H
   0.4077100000000000    0.1082766666666667    0.8916600000000000 H
   0.2126700000000000    0.1931800000000000    0.0097000000000000 H
   0.4627400000000000    0.1931666666666667    0.0096000000000000 H
   0.1778150000000000    0.1651000000000000    0.1063300000000000 H
   0.4278650000000000    0.1650766666666666    0.1062200000000000 H
   0.0933950000000000    0.0874900000000000    0.0960900000000000 H
   0.3435000000000000    0.0874400000000000    0.0959000000000000 H
   0.1431400000000000    0.0929000000000000    0.1453200000000000 H
   0.3932450000000000    0.0928100000000000    0.1451700000000000 H
   0.0281950000000000    0.1774433333333333    0.1496500000000000 H
   0.2783800000000000    0.1774200000000000    0.1495700000000000 H
   0.0215750000000000    0.1385933333333333    0.1018000000000000 H
   0.2717100000000000    0.1385766666666667    0.1017200000000000 H
   0.0044300000000000    0.2480433333333333    0.0121300000000000 H
   0.2543650000000000    0.2480300000000000    0.0123500000000000 H
   0.2173050000000000    0.2749966666666667    0.1083200000000000 H
   0.4673250000000000    0.2749566666666666    0.1081000000000000 H
   0.1623100000000000    0.0264266666666667    0.9902000000000000 H
   0.4122650000000000    0.0264000000000000    0.9900900000000000 H
   0.1972150000000000    0.3316800000000000    0.8936700000000000 H
   0.4472050000000000    0.3317033333333334    0.8935400000000000 H
   0.0315800000000000    0.2541866666666667    0.9038700000000000 H
   0.2815600000000000    0.2541533333333333    0.9040899999999999 H
   0.2318200000000000    0.2594566666666667    0.8548300000000000 H
   0.4818700000000000    0.2595800000000000    0.8545700000000001 H
   0.0969000000000000    0.0108966666666667    0.8506300000000000 H
   0.3467850000000000    0.0108000000000000    0.8504200000000000 H
   0.1034200000000000    0.3053733333333333    0.8984500000000000 H
   0.3533650000000000    0.3053100000000000    0.8983100000000001 H
   0.6204850000000000    0.0813633333333333    0.5121400000000000 H
   0.6574599999999999    0.1083500000000000    0.6082000000000000 H
   0.7126700000000000    0.1931800000000000    0.4902000000000000 H
   0.6778150000000001    0.1651000000000000    0.3936500000000000 H
   0.5933950000000000    0.0874900000000000    0.4038900000000000 H
   0.6431400000000000    0.0929000000000000    0.3546600000000000 H
   0.5281950000000000    0.1774466666666667    0.3503300000000000 H
   0.5215750000000000    0.1385933333333333    0.3981800000000000 H
   0.5044300000000000    0.2480433333333333    0.4878500000000000 H
   0.7543700000000000    0.2480300000000000    0.4876300000000000 H
   0.7173050000000000    0.2749966666666667    0.3916600000000000 H
   0.9673250000000000    0.2749566666666666    0.3918600000000000 H
   0.6623100000000000    0.0264266666666667    0.5097600000000000 H
   0.9122650000000000    0.0264000000000000    0.5098700000000000 H
   0.6972150000000000    0.3316800000000000    0.6062900000000000 H
   0.9472050000000001    0.3317033333333334    0.6064200000000000 H
   0.5315799999999999    0.2541866666666667    0.5960900000000000 H
   0.7815600000000000    0.2541533333333333    0.5958700000000000 H
   0.7318200000000000    0.2594566666666667    0.6451300000000000 H
   0.9818700000000000    0.2595800000000000    0.6453900000000000 H
   0.5969000000000000    0.0108966666666667    0.6493300000000000 H
   0.8467850000000000    0.0108000000000000    0.6495400000000000 H
   0.6034200000000000    0.3053733333333333    0.6015100000000000 H
   0.8533649999999999    0.3053100000000000    0.6016500000000000 H
   0.6293000000000000    0.2520466666666666    0.0122800000000000 H
   0.8794950000000000    0.2519766666666666    0.0121500000000000 H
   0.5922700000000000    0.2250666666666667    0.1083100000000000 H
   0.8425250000000000    0.2249933333333333    0.1082000000000000 H
   0.5372450000000000    0.1401733333333333    0.9903400000000000 H
   0.7873150000000000    0.1401600000000000    0.9902000000000000 H
   0.5721200000000000    0.1682633333333333    0.8937500000000000 H
   0.8221700000000001    0.1682433333333333    0.8936400000000000 H
   0.6564850000000000    0.2459033333333333    0.9040000000000000 H
   0.9065900000000000    0.2458500000000000    0.9038800000000000 H
   0.6067400000000001    0.2405300000000000    0.8548000000000000 H
   0.8568450000000001    0.2404400000000000    0.8546000000000000 H
   0.7216050000000001    0.1559200000000000    0.8504000000000000 H
   0.9717899999999999    0.1558966666666667    0.8503200000000000 H
   0.7282750000000000    0.1947633333333333    0.8982000000000000 H
   0.9784050000000000    0.1947466666666667    0.8981700000000000 H
   0.7456150000000000    0.0853100000000000    0.9876200000000001 H
   0.9955550000000000    0.0852966666666667    0.9878400000000001 H
   0.5326600000000000    0.0583833333333333    0.8918500000000000 H
   0.7826800000000000    0.0583433333333333    0.8916500000000001 H
   0.5877200000000000    0.3069433333333333    0.0098800000000000 H
   0.8376700000000000    0.3069166666666666    0.0097700000000000 H
   0.5527800000000000    0.0016366666666667    0.1064300000000000 H
   0.8027700000000000    0.0016600000000000    0.1063000000000000 H
   0.7184250000000000    0.0791866666666667    0.0958800000000000 H
   0.9683999999999999    0.0791533333333333    0.0961000000000000 H
   0.5181150000000000    0.0737633333333333    0.1454000000000000 H
   0.7681600000000000    0.0738833333333333    0.1451400000000000 H
   0.6531950000000000    0.3225400000000000    0.1495500000000000 H
   0.9030850000000000    0.3224433333333333    0.1493400000000000 H
   0.6466200000000000    0.0280300000000000    0.1016600000000000 H
   0.8965650000000001    0.0279666666666667    0.1015200000000000 H
   0.6293000000000000    0.2520466666666666    0.4877000000000000 H
   0.5922700000000000    0.2250666666666667    0.3916700000000000 H
   0.5372450000000000    0.1401733333333333    0.5096000000000001 H
   0.5721200000000000    0.1682633333333333    0.6062100000000000 H
   0.6564850000000000    0.2459033333333333    0.5959300000000000 H
   0.6067400000000001    0.2405300000000000    0.6451600000000000 H
   0.7216050000000001    0.1559233333333333    0.6495000000000000 H
   0.7282750000000000    0.1947633333333333    0.6017100000000000 H
   0.7456150000000000    0.0853100000000000    0.5123400000000000 H
   0.9955550000000000    0.0852966666666667    0.5121200000000000 H
   0.5326600000000000    0.0583833333333333    0.6081000000000000 H
   0.7826750000000000    0.0583433333333333    0.6083100000000000 H
   0.5877200000000000    0.3069433333333333    0.4901000000000000 H
   0.8376700000000000    0.3069166666666666    0.4902100000000000 H
   0.5527800000000000    0.0016366666666667    0.3935500000000000 H
   0.8027700000000000    0.0016600000000000    0.3936800000000000 H
   0.7184250000000000    0.0791866666666667    0.4041000000000000 H
   0.9683999999999999    0.0791533333333333    0.4038800000000000 H
   0.5181150000000000    0.0737633333333333    0.3545800000000000 H
   0.7681600000000000    0.0738833333333333    0.3548400000000000 H
   0.6531950000000000    0.3225400000000000    0.3504300000000000 H
   0.9030850000000000    0.3224433333333333    0.3506400000000000 H
   0.6466200000000000    0.0280300000000000    0.3983200000000000 H
   0.8965650000000001    0.0279666666666667    0.3984600000000000 H
   0.6204850000000000    0.0813633333333333    0.9878200000000000 H
   0.8706800000000000    0.0812933333333333    0.9876900000000000 H
   0.6574599999999999    0.1083500000000000    0.8917600000000000 H
   0.9077100000000000    0.1082766666666667    0.8916600000000000 H
   0.7126700000000000    0.1931800000000000    0.0097000000000000 H
   0.9627399999999999    0.1931666666666667    0.0096000000000000 H
   0.6778150000000001    0.1651000000000000    0.1063300000000000 H
   0.9278649999999999    0.1650766666666666    0.1062200000000000 H
   0.5933950000000000    0.0874900000000000    0.0960900000000000 H
   0.8435000000000000    0.0874400000000000    0.0959000000000000 H
   0.6431400000000000    0.0929000000000000    0.1453200000000000 H
   0.8932450000000001    0.0928100000000000    0.1451700000000000 H
   0.5281950000000000    0.1774433333333333    0.1496500000000000 H
   0.7783800000000001    0.1774200000000000    0.1495700000000000 H
   0.5215750000000000    0.1385933333333333    0.1018000000000000 H
   0.7717100000000000    0.1385766666666667    0.1017200000000000 H
   0.5044300000000000    0.2480433333333333    0.0121300000000000 H
   0.7543650000000000    0.2480300000000000    0.0123500000000000 H
   0.7173050000000000    0.2749966666666667    0.1083200000000000 H
   0.9673250000000000    0.2749566666666666    0.1081000000000000 H
   0.6623100000000000    0.0264266666666667    0.9902000000000000 H
   0.9122650000000000    0.0264000000000000    0.9900900000000000 H
   0.6972150000000000    0.3316800000000000    0.8936700000000000 H
   0.9472050000000001    0.3317033333333334    0.8935400000000000 H
   0.5315799999999999    0.2541866666666667    0.9038700000000000 H
   0.7815600000000000    0.2541533333333333    0.9040899999999999 H
   0.7318200000000000    0.2594566666666667    0.8548300000000000 H
   0.9818700000000000    0.2595800000000000    0.8545700000000001 H
   0.5969000000000000    0.0108966666666667    0.8506300000000000 H
   0.8467850000000000    0.0108000000000000    0.8504200000000000 H
   0.6034200000000000    0.3053733333333333    0.8984500000000000 H
   0.8533649999999999    0.3053100000000000    0.8983100000000001 H
   0.1204850000000000    0.4146966666666667    0.5121400000000000 H
   0.3706800000000000    0.4146266666666666    0.5122000000000000 H
   0.1574600000000000    0.4416833333333333    0.6082000000000000 H
   0.4077100000000000    0.4416099999999999    0.6083000000000000 H
   0.2126700000000000    0.5265133333333334    0.4902000000000000 H
   0.4627350000000000    0.5265000000000000    0.4903000000000000 H
   0.1778150000000000    0.4984333333333333    0.3936500000000000 H
   0.4278650000000000    0.4984100000000000    0.3937600000000000 H
   0.0933950000000000    0.4208233333333333    0.4038900000000000 H
   0.3435000000000000    0.4207733333333333    0.4040000000000000 H
   0.1431400000000000    0.4262333333333333    0.3546600000000000 H
   0.3932450000000000    0.4261433333333333    0.3548100000000000 H
   0.0281950000000000    0.5107800000000000    0.3503300000000000 H
   0.2783800000000000    0.5107533333333333    0.3504100000000000 H
   0.0215750000000000    0.4719266666666666    0.3981800000000000 H
   0.2717100000000000    0.4719099999999999    0.3982000000000000 H
   0.0044300000000000    0.5813766666666667    0.4878500000000000 H
   0.2543700000000000    0.5813633333333333    0.4876300000000000 H
   0.2173050000000000    0.6083300000000000    0.3916600000000000 H
   0.4673250000000000    0.6082900000000000    0.3918600000000000 H
   0.1623100000000000    0.3597600000000000    0.5097600000000000 H
   0.4122650000000000    0.3597333333333333    0.5098700000000000 H
   0.1972150000000000    0.6650133333333332    0.6062900000000000 H
   0.4472050000000000    0.6650366666666667    0.6064200000000000 H
   0.0315800000000000    0.5875200000000000    0.5960900000000000 H
   0.2815600000000000    0.5874866666666667    0.5958700000000000 H
   0.2318200000000000    0.5927899999999999    0.6451300000000000 H
   0.4818700000000000    0.5929133333333333    0.6453900000000000 H
   0.0969000000000000    0.3442300000000000    0.6493300000000000 H
   0.3467850000000000    0.3441333333333333    0.6495400000000000 H
   0.1034200000000000    0.6387066666666666    0.6015100000000000 H
   0.3533650000000000    0.6386433333333332    0.6016500000000000 H
   0.1293000000000000    0.5853800000000000    0.0122800000000000 H
   0.3794950000000000    0.5853100000000000    0.0121500000000000 H
   0.0922700000000000    0.5584000000000000    0.1083100000000000 H
   0.3425250000000000    0.5583266666666666    0.1082000000000000 H
   0.0372450000000000    0.4735066666666666    0.9903400000000000 H
   0.2873150000000000    0.4734933333333333    0.9902000000000000 H
   0.0721200000000000    0.5015966666666667    0.8937500000000000 H
   0.3221700000000000    0.5015766666666667    0.8936400000000000 H
   0.1564850000000000    0.5792366666666666    0.9040000000000000 H
   0.4065900000000000    0.5791833333333334    0.9038800000000000 H
   0.1067400000000000    0.5738633333333333    0.8548000000000000 H
   0.3568450000000000    0.5737733333333332    0.8546000000000000 H
   0.2216050000000000    0.4892533333333333    0.8504000000000000 H
   0.4717900000000000    0.4892299999999999    0.8503200000000000 H
   0.2282750000000000    0.5280966666666667    0.8982000000000000 H
   0.4784050000000000    0.5280800000000000    0.8981700000000000 H
   0.2456150000000000    0.4186433333333333    0.9876200000000001 H
   0.4955550000000000    0.4186299999999999    0.9878400000000001 H
   0.0326600000000000    0.3917166666666667    0.8918500000000000 H
   0.2826800000000000    0.3916766666666667    0.8916500000000001 H
   0.0877200000000000    0.6402766666666666    0.0098800000000000 H
   0.3376700000000000    0.6402500000000000    0.0097700000000000 H
   0.0527800000000000    0.3349700000000000    0.1064300000000000 H
   0.3027700000000000    0.3349933333333333    0.1063000000000000 H
   0.2184250000000000    0.4125200000000000    0.0958800000000000 H
   0.4684000000000000    0.4124866666666667    0.0961000000000000 H
   0.0181150000000000    0.4070966666666667    0.1454000000000000 H
   0.2681600000000000    0.4072166666666667    0.1451400000000000 H
   0.1531950000000000    0.6558733333333333    0.1495500000000000 H
   0.4030850000000000    0.6557766666666667    0.1493400000000000 H
   0.1466200000000000    0.3613633333333333    0.1016600000000000 H
   0.3965650000000000    0.3613000000000000    0.1015200000000000 H
   0.1293000000000000    0.5853800000000000    0.4877000000000000 H
   0.3794950000000000    0.5853100000000000    0.4878300000000000 H
   0.0922700000000000    0.5584000000000000    0.3916700000000000 H
   0.3425200000000000    0.5583266666666666    0.3917700000000000 H
   0.0372450000000000    0.4735066666666666    0.5096000000000001 H
   0.2873150000000000    0.4734933333333333    0.5097100000000000 H
   0.0721200000000000    0.5015966666666667    0.6062100000000000 H
   0.3221700000000000    0.5015766666666667    0.6063200000000000 H
   0.1564850000000000    0.5792366666666666    0.5959300000000000 H
   0.4065900000000000    0.5791833333333334    0.5960800000000001 H
   0.1067400000000000    0.5738633333333333    0.6451600000000000 H
   0.3568450000000000    0.5737733333333332    0.6453100000000001 H
   0.2216050000000000    0.4892566666666667    0.6495000000000000 H
   0.4717900000000000    0.4892299999999999    0.6496400000000000 H
   0.2282750000000000    0.5280966666666667    0.6017100000000000 H
   0.4784050000000000    0.5280800000000000    0.6010000000000000 H
   0.2456150000000000    0.4186433333333333    0.5123400000000000 H
   0.4955550000000000    0.4186299999999999    0.5121200000000000 H
   0.0326600000000000    0.3917166666666667    0.6081000000000000 H
   0.2826750000000000    0.3916766666666667    0.6083100000000000 H
   0.0877200000000000    0.6402766666666666    0.4901000000000000 H
   0.3376700000000000    0.6402500000000000    0.4902100000000000 H
   0.0527800000000000    0.3349700000000000    0.3935500000000000 H
   0.3027700000000000    0.3349933333333333    0.3936800000000000 H
   0.2184250000000000    0.4125200000000000    0.4041000000000000 H
   0.4684000000000000    0.4124866666666667    0.4038800000000000 H
   0.0181150000000000    0.4070966666666667    0.3545800000000000 H
   0.2681600000000000    0.4072166666666667    0.3548400000000000 H
   0.1531950000000000    0.6558733333333333    0.3504300000000000 H
   0.4030850000000000    0.6557766666666667    0.3506400000000000 H
   0.1466200000000000    0.3613633333333333    0.3983200000000000 H
   0.3965650000000000    0.3613000000000000    0.3984600000000000 H
   0.1204850000000000    0.4146966666666667    0.9878200000000000 H
   0.3706800000000000    0.4146266666666666    0.9876900000000000 H
   0.1574600000000000    0.4416833333333333    0.8917600000000000 H
   0.4077100000000000    0.4416099999999999    0.8916600000000000 H
   0.2126700000000000    0.5265133333333334    0.0097000000000000 H
   0.4627400000000000    0.5265000000000000    0.0096000000000000 H
   0.1778150000000000    0.4984333333333333    0.1063300000000000 H
   0.4278650000000000    0.4984100000000000    0.1062200000000000 H
   0.0933950000000000    0.4208233333333333    0.0960900000000000 H
   0.3435000000000000    0.4207733333333333    0.0959000000000000 H
   0.1431400000000000    0.4262333333333333    0.1453200000000000 H
   0.3932450000000000    0.4261433333333333    0.1451700000000000 H
   0.0281950000000000    0.5107766666666667    0.1496500000000000 H
   0.2783800000000000    0.5107533333333333    0.1495700000000000 H
   0.0215750000000000    0.4719266666666666    0.1018000000000000 H
   0.2717100000000000    0.4719099999999999    0.1017200000000000 H
   0.0044300000000000    0.5813766666666667    0.0121300000000000 H
   0.2543650000000000    0.5813633333333333    0.0123500000000000 H
   0.2173050000000000    0.6083300000000000    0.1083200000000000 H
   0.4673250000000000    0.6082900000000000    0.1081000000000000 H
   0.1623100000000000    0.3597600000000000    0.9902000000000000 H
   0.4122650000000000    0.3597333333333333    0.9900900000000000 H
   0.1972150000000000    0.6650133333333332    0.8936700000000000 H
   0.4472050000000000    0.6650366666666667    0.8935400000000000 H
   0.0315800000000000    0.5875200000000000    0.9038700000000000 H
   0.2815600000000000    0.5874866666666667    0.9040899999999999 H
   0.2318200000000000    0.5927899999999999    0.8548300000000000 H
   0.4818700000000000    0.5929133333333333    0.8545700000000001 H
   0.0969000000000000    0.3442300000000000    0.8506300000000000 H
   0.3467850000000000    0.3441333333333333    0.8504200000000000 H
   0.1034200000000000    0.6387066666666666    0.8984500000000000 H
   0.3533650000000000    0.6386433333333332    0.8983100000000001 H
   0.6204850000000000    0.4146966666666667    0.5121400000000000 H
   0.8706800000000000    0.4146266666666666    0.5122000000000000 H
   0.6574599999999999    0.4416833333333333    0.6082000000000000 H
   0.9077100000000000    0.4416099999999999    0.6083000000000000 H
   0.7126700000000000    0.5265133333333334    0.4902000000000000 H
   0.9627350000000000    0.5265000000000000    0.4903000000000000 H
   0.6778150000000001    0.4984333333333333    0.3936500000000000 H
   0.9278649999999999    0.4984100000000000    0.3937600000000000 H
   0.5933950000000000    0.4208233333333333    0.4038900000000000 H
   0.8435000000000000    0.4207733333333333    0.4040000000000000 H
   0.6431400000000000    0.4262333333333333    0.3546600000000000 H
   0.8932450000000001    0.4261433333333333    0.3548100000000000 H
   0.5281950000000000    0.5107800000000000    0.3503300000000000 H
   0.7783800000000001    0.5107533333333333    0.3504100000000000 H
   0.5215750000000000    0.4719266666666666    0.3981800000000000 H
   0.7717100000000000    0.4719099999999999    0.3982000000000000 H
   0.5044300000000000    0.5813766666666667    0.4878500000000000 H
   0.7543700000000000    0.5813633333333333    0.4876300000000000 H
   0.7173050000000000    0.6083300000000000    0.3916600000000000 H
   0.9673250000000000    0.6082900000000000    0.3918600000000000 H