H6 O4
1.0
  15.9930295312617812    0.0000000000000000    9.1670803646629277
   5.3047141730999225   15.0744754978147562    9.1666310609457469
   0.0000000000000000    0.0000000000000000   18.4209999999999994
H O
6 4
direct
   0.6136311565461059    0.9927838493627308    0.6131666792878497 H
   0.6128754446319840    0.7806091132768337    0.6129438529049821 H
   0.6054805189329933    0.8944701343197117    0.6052734838343325 H
   0.3863257191539249    0.0072369138029291    0.3868319177790903 H
   0.3870958816561602    0.2194330657428619    0.3870519965169194 H
   0.3944788766010815    0.1055685894678423    0.3947221967047693 H
   0.6333600000000000    0.9285200000000000    0.6330300000000000 O
   0.6329200000000000    0.8050900000000000    0.6329000000000000 O
   0.3666100000000000    0.0715000000000000    0.3669700000000000 O
   0.3670600000000000    0.1949400000000000    0.3671000000000000 O
