Cd48 H226 C465 O192
1.0
  20.2969865338200322    0.0000000000000000    0.0233804603956623
 -10.1569777456478754   20.0436583803564226   -3.9047164821509743
   0.0000000000000000    0.0000000000000000   36.1779999999999973
Cd H C O
48 226 465 192
direct
   0.5000100000000000    0.7500100000000000    0.7499950000000000 Cd
   0.3253500000000000    0.0953100000000000    0.7630399999999999 Cd
   0.6746600000000000    0.4047100000000000    0.7369500000000000 Cd
   0.0000100000000000    0.2500100000000000    0.7499950000000000 Cd
   0.1746700000000000    0.9047100000000000    0.7369500000000000 Cd
   0.8253500000000000    0.5953200000000000    0.7630399999999999 Cd
   0.2500100000000000    0.2500100000000000    0.0000000000000000 Cd
   0.7699500000000000    0.5953700000000000    0.0130500000000000 Cd
   0.7300700000000000    0.9046500000000000    0.9869399999999999 Cd
   0.2500100000000000    0.7500100000000000    0.9999899999999999 Cd
   0.7699500000000000    0.0953700000000000    0.0130500000000000 Cd
   0.7300600000000000    0.4046500000000000    0.9869399999999999 Cd
   0.2500100000000000    0.2500100000000000    0.5000000000000000 Cd
   0.7699500000000000    0.5953700000000000    0.5130500000000000 Cd
   0.7300700000000000    0.9046500000000000    0.4869400000000000 Cd
   0.2500100000000000    0.7500100000000000    0.4999900000000000 Cd
   0.7699500000000000    0.0953700000000000    0.5130500000000000 Cd
   0.7300600000000000    0.4046500000000000    0.4869400000000000 Cd
   0.7500100000000000    0.7500200000000000    0.4999950000000000 Cd
   0.2699500000000000    0.0953700000000000    0.5130500000000000 Cd
   0.2300700000000000    0.4046500000000000    0.4869400000000000 Cd
   0.7500100000000000    0.2500100000000000    0.5000000000000000 Cd
   0.2699600000000000    0.5953800000000000    0.5130500000000000 Cd
   0.2300700000000000    0.9046500000000000    0.4869400000000000 Cd
   0.0000000000000000    0.7500100000000000    0.7499899999999999 Cd
   0.8253500000000000    0.0953100000000000    0.7630399999999999 Cd
   0.1746600000000000    0.4047100000000000    0.7369500000000000 Cd
   0.5000100000000000    0.2500100000000000    0.7499950000000000 Cd
   0.6746600000000000    0.9047100000000000    0.7369500000000000 Cd
   0.3253600000000000    0.5953200000000000    0.7630399999999999 Cd
   0.5000100000000000    0.7500100000000000    0.2499950000000000 Cd
   0.3253500000000000    0.0953100000000000    0.2630400000000000 Cd
   0.6746600000000000    0.4047100000000000    0.2369500000000000 Cd
   0.0000100000000000    0.2500100000000000    0.2499950000000000 Cd
   0.1746700000000000    0.9047100000000000    0.2369500000000000 Cd
   0.8253500000000000    0.5953200000000000    0.2630400000000000 Cd
   0.5000100000000000    0.2500100000000000    0.2499950000000000 Cd
   0.6746600000000000    0.9047100000000000    0.2369500000000000 Cd
   0.3253600000000000    0.5953200000000000    0.2630400000000000 Cd
   0.2699600000000000    0.5953800000000000    0.0130500000000000 Cd
   0.7500100000000000    0.7500200000000000    0.9999950000000000 Cd
   0.2699500000000000    0.0953700000000000    0.0130500000000000 Cd
   0.2300700000000000    0.4046500000000000    0.9869399999999999 Cd
   0.7500100000000000    0.2500100000000000    0.0000000000000000 Cd
   0.0000000000000000    0.7500100000000000    0.2499900000000000 Cd
   0.8253500000000000    0.0953100000000000    0.2630400000000000 Cd
   0.1746600000000000    0.4047100000000000    0.2369500000000000 Cd
   0.2300700000000000    0.9046500000000000    0.9869399999999999 Cd
   0.5970600000000000    0.0146000000000000    0.8136650000000001 H
   0.4149000000000000    0.0643500000000000    0.8231600000000000 H
   0.3832500000000000    0.8764100000000000    0.7581500000000000 H
   0.5730900000000000    0.2687900000000000    0.8755649999999999 H
   0.5042100000000000    0.1656400000000000    0.8281800000000000 H
   0.6980100000000000    0.1802100000000000    0.9179950000000000 H
   0.6271200000000000    0.0761900000000000    0.8727800000000000 H
   0.4029500000000000    0.4854200000000000    0.6863250000000000 H
   0.5851200000000000    0.4356700000000000    0.6768300000000000 H
   0.6167700000000000    0.6236200000000000    0.7418400000000001 H
   0.4269200000000000    0.2312300000000000    0.6244250000000000 H
   0.4958100000000000    0.3343800000000000    0.6718100000000000 H
   0.3020000000000000    0.3198100000000000    0.5819950000000000 H
   0.3729000000000000    0.4238300000000000    0.6272100000000000 H
   0.0970700000000000    0.5146100000000000    0.8136650000000001 H
   0.9149000000000000    0.5643500000000000    0.8231600000000000 H
   0.8832400000000000    0.3764100000000000    0.7581500000000000 H
   0.0731000000000000    0.7687900000000000    0.8755600000000000 H
   0.0042200000000000    0.6656500000000000    0.8281800000000000 H
   0.1980200000000000    0.6802200000000000    0.9179950000000000 H
   0.1271200000000000    0.5762000000000000    0.8727800000000000 H
   0.9029500000000000    0.9854200000000000    0.6863250000000000 H
   0.0851300000000000    0.9356800000000000    0.6768300000000000 H
   0.1167700000000000    0.1236200000000000    0.7418400000000001 H
   0.9269200000000000    0.7312400000000000    0.6244250000000000 H
   0.9958100000000000    0.8343800000000000    0.6718000000000000 H
   0.8020000000000000    0.8198200000000000    0.5819950000000000 H
   0.8729000000000000    0.9238300000000000    0.6272100000000000 H
   0.4174600000000000    0.5146800000000000    0.0636250000000000 H
   0.6493700000000000    0.5643800000000000    0.0732050000000000 H
   0.4931600000000000    0.3764700000000000    0.0081500000000000 H
   0.6959100000000000    0.7687600000000000    0.1255300000000000 H
   0.6615200000000000    0.6656000000000000    0.0781350000000000 H
   0.4821200000000000    0.6804800000000000    0.1679800000000000 H
   0.4488600000000000    0.5764200000000000    0.1227650000000000 H
   0.0825600000000000    0.9853400000000000    0.9363600000000001 H
   0.8506400000000000    0.9356500000000000    0.9267850000000000 H
   0.0068700000000000    0.1235500000000000    0.9918300000000000 H
   0.8041000000000000    0.7312700000000000    0.8744550000000000 H
   0.8384900000000000    0.8344300000000000    0.9218500000000001 H
   0.0000000000000000    0.8195500000000000    0.8320050000000000 H
   0.0511600000000000    0.9236100000000000    0.8772200000000000 H
   0.4174500000000000    0.0146800000000000    0.0636300000000000 H
   0.6493700000000000    0.0643700000000000    0.0732100000000000 H
   0.4931600000000000    0.8764700000000000    0.0081550000000000 H
   0.6959100000000000    0.2687500000000000    0.1255300000000000 H
   0.6615200000000000    0.1655900000000000    0.0781400000000000 H
   0.4821100000000000    0.1804700000000000    0.1679800000000000 H
   0.4488600000000000    0.0764200000000000    0.1227650000000000 H
   0.7706701179891404    0.3404794188050811    0.1735781819785849 H
   0.0825600000000000    0.4853300000000000    0.9363600000000001 H
   0.8506400000000000    0.4356500000000000    0.9267850000000000 H
   0.0068700000000000    0.6235600000000000    0.9918300000000000 H
   0.8041000000000000    0.2312600000000000    0.8744600000000000 H
   0.8384900000000000    0.3344200000000000    0.9218550000000000 H
   0.0000000000000000    0.3195500000000000    0.8320100000000000 H
   0.0511500000000000    0.4236000000000000    0.8772249999999999 H
   0.4174600000000000    0.5146800000000000    0.5636250000000000 H
   0.6493700000000000    0.5643800000000000    0.5732050000000000 H
   0.4931600000000000    0.3764700000000000    0.5081500000000000 H
   0.6959100000000000    0.7687600000000000    0.6255300000000000 H
   0.6615200000000000    0.6656000000000000    0.5781350000000000 H
   0.4821200000000000    0.6804800000000000    0.6679800000000000 H
   0.4488600000000000    0.5764200000000000    0.6227650000000000 H
   0.0825600000000000    0.9853400000000000    0.4363600000000000 H
   0.8506400000000000    0.9356500000000000    0.4267850000000000 H
   0.0068700000000000    0.1235500000000000    0.4918300000000000 H
   0.8041000000000000    0.7312700000000000    0.3744550000000000 H
   0.8384900000000000    0.8344300000000000    0.4218500000000000 H
   0.0000000000000000    0.8195500000000000    0.3320050000000000 H
   0.0511600000000000    0.9236100000000000    0.3772200000000000 H
   0.4174500000000000    0.0146800000000000    0.5636300000000000 H
   0.6493700000000000    0.0643700000000000    0.5732100000000000 H
   0.4931600000000000    0.8764700000000000    0.5081550000000000 H
   0.6959100000000000    0.2687500000000000    0.6255300000000000 H
   0.6615200000000000    0.1655900000000000    0.5781400000000000 H
   0.4821100000000000    0.1804700000000000    0.6679800000000000 H
   0.4488600000000000    0.0764200000000000    0.6227650000000000 H
   0.0825600000000000    0.4853300000000000    0.4363600000000000 H
   0.8506400000000000    0.4356500000000000    0.4267850000000000 H
   0.0068700000000000    0.6235600000000000    0.4918300000000000 H
   0.8041000000000000    0.2312600000000000    0.3744600000000000 H
   0.8384900000000000    0.3344200000000000    0.4218550000000000 H
   0.0000000000000000    0.3195500000000000    0.3320100000000000 H
   0.0511500000000000    0.4236000000000000    0.3772250000000000 H
   0.5825600000000000    0.4853300000000000    0.4363600000000000 H
   0.3506400000000000    0.4356500000000000    0.4267850000000000 H
   0.5068700000000000    0.6235600000000000    0.4918300000000000 H
   0.3041000000000000    0.2312600000000000    0.3744600000000000 H
   0.3384900000000000    0.3344200000000000    0.4218500000000000 H
   0.5179000000000000    0.3195500000000000    0.3320100000000000 H
   0.5511500000000000    0.4236000000000000    0.3772250000000000 H
   0.9174500000000000    0.0146800000000000    0.5636300000000000 H
   0.1493700000000000    0.0643700000000000    0.5732100000000000 H
   0.9931600000000000    0.8764700000000000    0.5081550000000000 H
   0.1959100000000000    0.2687600000000000    0.6255300000000000 H
   0.1615200000000000    0.1655900000000000    0.5781400000000000 H
   0.9821100000000000    0.1804700000000000    0.6679500000000000 H
   0.9488500000000000    0.0764100000000000    0.6227650000000000 H
   0.5825600000000000    0.9853400000000000    0.4363600000000000 H
   0.3506500000000000    0.9356600000000000    0.4267850000000000 H
   0.5068700000000000    0.1235500000000000    0.4918350000000000 H
   0.3041000000000000    0.7312700000000000    0.3744550000000000 H
   0.3384900000000000    0.8344300000000000    0.4218500000000000 H
   0.5179000000000000    0.8195600000000000    0.3320100000000000 H
   0.5511500000000000    0.9236100000000000    0.3772250000000000 H
   0.9174500000000000    0.5146800000000000    0.5636250000000000 H
   0.9931500000000000    0.3764700000000000    0.5081599999999999 H
   0.1493800000000000    0.5643800000000000    0.5732050000000000 H
   0.1959200000000000    0.7687600000000000    0.6254999999999999 H
   0.1615200000000000    0.6656000000000000    0.5781350000000000 H
   0.9821200000000000    0.6804800000000000    0.6679800000000000 H
   0.9488600000000000    0.5764200000000000    0.6227650000000000 H
   0.9029500000000000    0.4854100000000000    0.6863250000000000 H
   0.0851200000000000    0.4356700000000000    0.6768350000000000 H
   0.1167800000000000    0.6236200000000000    0.7418400000000001 H
   0.9269200000000000    0.2312300000000000    0.6244000000000000 H
   0.9958000000000000    0.3343800000000000    0.6718100000000000 H
   0.8020000000000000    0.3198100000000000    0.5819950000000000 H
   0.8729000000000000    0.4238300000000000    0.6272100000000000 H
   0.0970600000000000    0.0146000000000000    0.8136650000000001 H
   0.9148900000000000    0.0643500000000000    0.8231600000000000 H
   0.8832400000000000    0.8764100000000000    0.7581500000000000 H
   0.0731000000000000    0.2687800000000000    0.8755649999999999 H
   0.0042100000000000    0.1656400000000000    0.8281499999999999 H
   0.1980200000000000    0.1802100000000000    0.9179950000000000 H
   0.1271200000000000    0.0761900000000000    0.8727800000000000 H
   0.5970600000000000    0.5146100000000000    0.8136650000000001 H
   0.4149100000000000    0.5643500000000000    0.8231600000000000 H
   0.3832400000000000    0.3764100000000000    0.7581500000000000 H
   0.5731000000000001    0.7687900000000000    0.8755600000000000 H
   0.5042100000000000    0.6656500000000000    0.8281800000000000 H
   0.6980200000000000    0.6802200000000000    0.9179950000000000 H
   0.6271200000000000    0.5762000000000000    0.8727800000000000 H
   0.4029600000000000    0.9854200000000000    0.6863250000000000 H
   0.5851200000000000    0.9356800000000000    0.6768300000000000 H
   0.6167700000000000    0.1236200000000000    0.7418400000000001 H
   0.4269300000000000    0.7312400000000000    0.6244250000000000 H
   0.4958100000000000    0.8343800000000000    0.6718100000000000 H
   0.3020100000000000    0.8198200000000000    0.5819950000000000 H
   0.3729100000000000    0.9238300000000000    0.6272100000000000 H
   0.5970600000000000    0.0146000000000000    0.3136650000000000 H
   0.4149000000000000    0.0643500000000000    0.3231600000000000 H
   0.3832500000000000    0.8764100000000000    0.2581500000000000 H
   0.5730900000000000    0.2687900000000000    0.3755650000000000 H
   0.5042100000000000    0.1656400000000000    0.3281800000000000 H
   0.6980100000000000    0.1802100000000000    0.4179950000000000 H
   0.6271200000000000    0.0761900000000000    0.3727800000000000 H
   0.4029500000000000    0.4854200000000000    0.1863250000000000 H
   0.5851200000000000    0.4356700000000000    0.1768300000000000 H
   0.6167700000000000    0.6236200000000000    0.2418400000000000 H
   0.4269200000000000    0.2312300000000000    0.1244250000000000 H
   0.4958100000000000    0.3343800000000000    0.1718100000000000 H
   0.3020000000000000    0.3198100000000000    0.0819950000000000 H
   0.3729000000000000    0.4238300000000000    0.1272100000000000 H
   0.0970700000000000    0.5146100000000000    0.3136650000000000 H
   0.9149000000000000    0.5643500000000000    0.3231600000000000 H
   0.8832400000000000    0.3764100000000000    0.2581500000000000 H
   0.0731000000000000    0.7687900000000000    0.3755600000000000 H
   0.0042200000000000    0.6656500000000000    0.3281800000000000 H
   0.1980200000000000    0.6802200000000000    0.4179950000000000 H
   0.1271200000000000    0.5762000000000000    0.3727800000000000 H
   0.9029500000000000    0.9854200000000000    0.1863250000000000 H
   0.0851300000000000    0.9356800000000000    0.1768300000000000 H
   0.1167700000000000    0.1236200000000000    0.2418400000000000 H
   0.9269200000000000    0.7312400000000000    0.1244250000000000 H
   0.9958100000000000    0.8343800000000000    0.1718000000000000 H
   0.8020000000000000    0.8198200000000000    0.0819950000000000 H
   0.8729000000000000    0.9238300000000000    0.1272100000000000 H
   0.8039720683261510    0.4085984858152516    0.0538174710447740 H
   0.5970600000000000    0.5146100000000000    0.3136650000000000 H
   0.4149100000000000    0.5643500000000000    0.3231600000000000 H
   0.3832400000000000    0.3764100000000000    0.2581500000000000 H
   0.5731000000000001    0.7687900000000000    0.3755600000000000 H
   0.5042100000000000    0.6656500000000000    0.3281800000000000 H
   0.6980200000000000    0.6802200000000000    0.4179950000000000 H
   0.6271200000000000    0.5762000000000000    0.3727800000000000 H
   0.4029600000000000    0.9854200000000000    0.1863250000000000 H
   0.5851200000000000    0.9356800000000000    0.1768300000000000 H
   0.6167700000000000    0.1236200000000000    0.2418400000000000 H
   0.4269300000000000    0.7312400000000000    0.1244250000000000 H
   0.4958100000000000    0.8343800000000000    0.1718100000000000 H
   0.3020100000000000    0.8198200000000000    0.0819950000000000 H
   0.3729100000000000    0.9238300000000000    0.1272100000000000 H
   0.1237278615139503    0.3879347827470109    0.0367111933801053 H
   0.2130007864095187    0.4996667209472288    0.0598461893149689 H
   0.5825600000000000    0.4853300000000000    0.9363600000000001 H
   0.3506400000000000    0.4356500000000000    0.9267850000000000 H
   0.5068700000000000    0.6235600000000000    0.9918300000000000 H
   0.3041000000000000    0.2312600000000000    0.8744600000000000 H
   0.3384900000000000    0.3344200000000000    0.9218500000000001 H
   0.5179000000000000    0.3195500000000000    0.8320100000000000 H
   0.5511500000000000    0.4236000000000000    0.8772249999999999 H
   0.9174500000000000    0.0146800000000000    0.0636300000000000 H
   0.1493700000000000    0.0643700000000000    0.0732100000000000 H
   0.9931600000000000    0.8764700000000000    0.0081550000000000 H
   0.1959100000000000    0.2687600000000000    0.1255300000000000 H
   0.1615200000000000    0.1655900000000000    0.0781400000000000 H
   0.9821100000000000    0.1804700000000000    0.1679500000000000 H
   0.9488500000000000    0.0764100000000000    0.1227650000000000 H
   0.5825600000000000    0.9853400000000000    0.9363600000000001 H
   0.3506500000000000    0.9356600000000000    0.9267850000000000 H
   0.5068700000000000    0.1235500000000000    0.9918350000000000 H
   0.3041000000000000    0.7312700000000000    0.8744550000000000 H
   0.3384900000000000    0.8344300000000000    0.9218500000000001 H
   0.5179000000000000    0.8195600000000000    0.8320100000000000 H
   0.5511500000000000    0.9236100000000000    0.8772249999999999 H
   0.8525563902426536    0.3210173294767447    0.0311837484712065 H
   0.9029500000000000    0.4854100000000000    0.1863250000000000 H
   0.0851200000000000    0.4356700000000000    0.1768350000000000 H
   0.1167800000000000    0.6236200000000000    0.2418400000000000 H
   0.9269200000000000    0.2312300000000000    0.1244000000000000 H
   0.9958000000000000    0.3343800000000000    0.1718100000000000 H
   0.8020000000000000    0.3198100000000000    0.0819950000000000 H
   0.8729000000000000    0.4238300000000000    0.1272100000000000 H
   0.0970600000000000    0.0146000000000000    0.3136650000000000 H
   0.9148900000000000    0.0643500000000000    0.3231600000000000 H
   0.8832400000000000    0.8764100000000000    0.2581500000000000 H
   0.0731000000000000    0.2687800000000000    0.3755650000000000 H
   0.0042100000000000    0.1656400000000000    0.3281500000000000 H
   0.1980200000000000    0.1802100000000000    0.4179950000000000 H
   0.1271200000000000    0.0761900000000000    0.3727800000000000 H
   0.2199819466729052    0.4110613228617738    0.4151858850374898 H
   0.0224131716544048    0.7687086805983976    0.2035034604396899 H
   0.1386332976177368    0.8187081301590511    0.1767712450292840 H
   0.2179289612744560    0.8541919545787172    0.1609799804224001 H
   0.5211700000000000    0.8907800000000000    0.7719000000000000 C
   0.3141700000000000    0.9532900000000000    0.7769500000000000 C
   0.6767800000000000    0.2936600000000000    0.9290149999999999 C
   0.5394600000000001    0.0026500000000000    0.8074650000000000 C
   0.4381800000000000    0.0309400000000000    0.8117750000000000 C
   0.4193800000000000    0.9244100000000000    0.7755400000000000 C
   0.3921300000000000    0.9700299999999999    0.7884850000000000 C
   0.4931500000000000    0.9408400000000000    0.7849500000000000 C
   0.5123600000000000    0.0482300000000000    0.8217500000000000 C
   0.5846900000000000    0.2263100000000000    0.8744050000000000 C
   0.5454800000000000    0.1678600000000000    0.8483200000000000 C
   0.6551100000000000    0.1771400000000000    0.8986200000000000 C
   0.6153600000000000    0.1183500000000000    0.8726800000000000 C
   0.6394000000000000    0.2314900000000000    0.9003099999999999 C
   0.5588500000000000    0.1121300000000000    0.8474500000000000 C
   0.4788500000000000    0.6092400000000000    0.7280500000000000 C
   0.6858500000000000    0.5467400000000000    0.7230150000000000 C
   0.3232400000000000    0.2063600000000000    0.5709750000000000 C
   0.4605500000000000    0.4973700000000000    0.6925250000000001 C
   0.5618400000000000    0.4690800000000000    0.6882150000000000 C
   0.5806400000000000    0.5756200000000000    0.7244500000000000 C
   0.6079000000000000    0.5300000000000000    0.7115000000000000 C
   0.5068700000000000    0.5591900000000000    0.7150250000000000 C
   0.4876600000000000    0.4517900000000000    0.6782400000000000 C
   0.4153300000000000    0.2737100000000000    0.6255850000000001 C
   0.4545300000000000    0.3321600000000000    0.6516700000000000 C
   0.3449000000000000    0.3228800000000000    0.6013700000000000 C
   0.3846600000000000    0.3816700000000000    0.6273100000000000 C
   0.3606100000000000    0.2685300000000000    0.5996850000000000 C
   0.4411700000000000    0.3878900000000000    0.6525150000000000 C
   0.0211700000000000    0.3907800000000000    0.7719400000000001 C
   0.8141699999999999    0.4532900000000000    0.7769800000000000 C
   0.1767900000000000    0.7936700000000000    0.9290149999999999 C
   0.0394700000000000    0.5026600000000000    0.8074650000000000 C
   0.9381800000000000    0.5309500000000000    0.8117750000000000 C
   0.9193700000000000    0.4244000000000000    0.7755400000000000 C
   0.8921200000000000    0.4700300000000000    0.7884900000000000 C
   0.9931400000000000    0.4408400000000000    0.7849650000000000 C
   0.0123600000000000    0.5482300000000000    0.8217500000000000 C
   0.0846900000000000    0.7263100000000000    0.8744050000000000 C
   0.0454900000000000    0.6678700000000000    0.8483200000000000 C
   0.1551200000000000    0.6771500000000000    0.8986200000000000 C
   0.1153600000000000    0.6183600000000000    0.8726800000000000 C
   0.1394100000000000    0.7314900000000000    0.9003050000000000 C
   0.0588600000000000    0.6121400000000000    0.8474750000000000 C
   0.9788400000000000    0.1092400000000000    0.7280500000000000 C
   0.1858500000000000    0.0467400000000000    0.7230150000000000 C
   0.8232400000000000    0.7063600000000000    0.5709750000000000 C
   0.9605500000000000    0.9973700000000000    0.6925250000000001 C
   0.0618500000000000    0.9690800000000001    0.6882150000000000 C
   0.0806400000000000    0.0756200000000000    0.7244500000000000 C
   0.1079000000000000    0.0299900000000000    0.7115000000000000 C
   0.0068700000000000    0.0591800000000000    0.7150250000000000 C
   0.9876600000000000    0.9518000000000000    0.6782350000000000 C
   0.9153300000000000    0.7737200000000000    0.6255800000000000 C
   0.9545300000000000    0.8321600000000000    0.6516649999999999 C
   0.8449000000000000    0.8228900000000000    0.6013700000000000 C
   0.8846600000000000    0.8816700000000000    0.6273100000000000 C
   0.8606100000000000    0.7685400000000000    0.5996800000000000 C
   0.9411700000000000    0.8878900000000000    0.6525100000000000 C
   0.3695800000000000    0.3907900000000000    0.0219100000000000 C
   0.6391100000000000    0.4533200000000000    0.0270000000000000 C
   0.6170900000000000    0.7937500000000000    0.1790200000000000 C
   0.4631100000000000    0.5027199999999999    0.0574400000000000 C
   0.5927000000000000    0.5309800000000000    0.0617950000000000 C
   0.5050100000000000    0.4244700000000000    0.0255000000000000 C
   0.5778799999999999    0.4700700000000000    0.0385100000000000 C
   0.4476500000000000    0.4409000000000000    0.0349450000000000 C
   0.5357900000000000    0.5482900000000001    0.0717450000000000 C
   0.6417600000000000    0.7263300000000000    0.1243800000000000 C
   0.6224300000000000    0.6678800000000000    0.0982900000000000 C
   0.5219900000000000    0.6773200000000000    0.1486050000000000 C
   0.5028800000000000    0.6185200000000000    0.1226600000000000 C
   0.5921700000000000    0.7315900000000000    0.1502900000000000 C
   0.5532200000000000    0.6122100000000000    0.0974550000000000 C
   0.1304400000000000    0.1092300000000000    0.9780500000000000 C
   0.8609100000000000    0.0467100000000000    0.9729500000000000 C
   0.8829300000000000    0.7062800000000000    0.8209649999999999 C
   0.0369100000000000    0.9973000000000000    0.9425450000000000 C
   0.9073099999999999    0.9690500000000000    0.9381500000000000 C
   0.9950100000000000    0.0755600000000000    0.9744450000000000 C
   0.9221400000000000    0.0299500000000000    0.9614800000000000 C
   0.0523700000000000    0.0591200000000000    0.9650449999999999 C
   0.9642200000000000    0.9517400000000000    0.9282450000000000 C
   0.8582600000000000    0.7737000000000001    0.8756050000000000 C
   0.8775800000000000    0.8321499999999999    0.9016950000000000 C
   0.9780300000000000    0.8227100000000001    0.8513800000000000 C
   0.9971300000000000    0.8815200000000000    0.8773250000000000 C
   0.9078500000000000    0.7684400000000000    0.8497000000000000 C
   0.9467900000000000    0.8878200000000001    0.9025350000000000 C
   0.3695900000000000    0.8907900000000000    0.0219100000000000 C
   0.6391100000000000    0.9533199999999999    0.0270150000000000 C
   0.6170900000000000    0.2937500000000000    0.1790000000000000 C
   0.4631100000000000    0.0027200000000000    0.0574450000000000 C
   0.5927000000000000    0.0309800000000000    0.0618000000000000 C
   0.5050100000000000    0.9244599999999999    0.0255450000000000 C
   0.5778799999999999    0.9700700000000000    0.0385100000000000 C
   0.4476500000000000    0.9409100000000000    0.0349000000000000 C
   0.5357900000000000    0.0482800000000000    0.0717450000000000 C
   0.6417500000000000    0.2263200000000000    0.1243850000000000 C
   0.6224300000000000    0.1678700000000000    0.0982950000000000 C
   0.5219900000000000    0.1773200000000000    0.1486000000000000 C
   0.5028800000000000    0.1185100000000000    0.1226650000000000 C
   0.5921600000000000    0.2315900000000000    0.1502900000000000 C
   0.5532200000000000    0.1122100000000000    0.0974550000000000 C
   0.1304400000000000    0.6092300000000000    0.9780750000000000 C
   0.8609100000000000    0.5467100000000000    0.9729800000000000 C
   0.8829200000000000    0.2062700000000000    0.8209700000000000 C
   0.0369100000000000    0.4973000000000000    0.9425450000000000 C
   0.9073099999999999    0.4690400000000000    0.9381950000000000 C
   0.9950100000000000    0.5755600000000000    0.9744450000000000 C
   0.9221400000000000    0.5299500000000000    0.9614800000000000 C
   0.0523800000000000    0.5591200000000000    0.9650449999999999 C
   0.9642200000000000    0.4517400000000000    0.9282450000000000 C
   0.8582500000000000    0.2736900000000000    0.8756050000000000 C
   0.8775800000000000    0.3321400000000000    0.9016999999999999 C
   0.9780200000000000    0.3227000000000000    0.8513850000000001 C
   0.9971300000000000    0.3815100000000000    0.8773250000000000 C
   0.9078500000000000    0.2684300000000000    0.8497000000000000 C
   0.9467900000000000    0.3878100000000000    0.9025350000000000 C
   0.3695800000000000    0.3907900000000000    0.5219100000000000 C
   0.6391100000000000    0.4533200000000000    0.5270000000000000 C
   0.6170900000000000    0.7937500000000000    0.6790200000000000 C
   0.4631100000000000    0.5027199999999999    0.5574400000000000 C
   0.5927000000000000    0.5309800000000000    0.5617950000000000 C
   0.5050100000000000    0.4244700000000000    0.5255000000000000 C
   0.5778799999999999    0.4700700000000000    0.5385100000000000 C
   0.4476500000000000    0.4409000000000000    0.5349450000000000 C
   0.5357900000000000    0.5482900000000001    0.5717449999999999 C
   0.6417600000000000    0.7263300000000000    0.6243800000000000 C
   0.6224300000000000    0.6678800000000000    0.5982900000000000 C
   0.5219900000000000    0.6773200000000000    0.6486050000000000 C
   0.5028800000000000    0.6185200000000000    0.6226600000000000 C
   0.5921700000000000    0.7315900000000000    0.6502900000000000 C
   0.5532200000000000    0.6122100000000000    0.5974550000000000 C
   0.1304400000000000    0.1092300000000000    0.4780500000000000 C
   0.8609100000000000    0.0467100000000000    0.4729500000000000 C
   0.8829300000000000    0.7062800000000000    0.3209650000000000 C
   0.0369100000000000    0.9973000000000000    0.4425450000000000 C
   0.9073099999999999    0.9690500000000000    0.4381500000000000 C
   0.9950100000000000    0.0755600000000000    0.4744450000000000 C
   0.9221400000000000    0.0299500000000000    0.4614800000000000 C
   0.0523700000000000    0.0591200000000000    0.4650450000000000 C
   0.9642200000000000    0.9517400000000000    0.4282450000000000 C
   0.8582600000000000    0.7737000000000001    0.3756050000000000 C
   0.8775800000000000    0.8321499999999999    0.4016950000000000 C
   0.9780300000000000    0.8227100000000001    0.3513800000000000 C
   0.9971300000000000    0.8815200000000000    0.3773250000000000 C
   0.9078500000000000    0.7684400000000000    0.3497000000000000 C
   0.9467900000000000    0.8878200000000001    0.4025350000000000 C
   0.3695900000000000    0.8907900000000000    0.5219100000000000 C
   0.6391100000000000    0.9533199999999999    0.5270150000000000 C
   0.6170900000000000    0.2937500000000000    0.6790000000000000 C
   0.4631100000000000    0.0027200000000000    0.5574450000000000 C
   0.5927000000000000    0.0309800000000000    0.5618000000000000 C
   0.5050100000000000    0.9244599999999999    0.5255450000000000 C
   0.5778799999999999    0.9700700000000000    0.5385100000000000 C
   0.4476500000000000    0.9409100000000000    0.5349000000000000 C
   0.5357900000000000    0.0482800000000000    0.5717449999999999 C
   0.6417500000000000    0.2263200000000000    0.6243850000000000 C
   0.6224300000000000    0.1678700000000000    0.5982950000000000 C
   0.5219900000000000    0.1773200000000000    0.6486000000000001 C