H3 C7 N1 O4
1.0
   6.2484931097032836    0.0000000000000000    1.2787563716324513
   0.0045567480280179   12.2899986820215616    0.0034105653008396
   0.0000000000000000    0.0000000000000000   15.5126000000000008
H C N O
3 7 1 4
direct
   0.7496900000000000    0.7016800000000000    0.7877999999999999 H
   0.5098900000000000    0.7890200000000001    0.7617500000000000 H
   0.0146900000000000    0.6053300000000000    0.6742400000000000 H
   0.2847300000000000    0.6896600000000001    0.7082600000000000 C
   0.9898400000000001    0.7996400000000000    0.8312500000000000 C
   0.9187100000000000    0.7206300000000000    0.7793300000000000 C
   0.3429600000000000    0.7678300000000000    0.7647800000000000 C
   0.0672100000000000    0.6659700000000000    0.7163900000000000 C
   0.4472500000000000    0.6267500000000000    0.6439600000000000 C
   0.8329100000000000    0.8667100000000000    0.8959500000000000 C
   0.2001300000000000    0.8221500000000000    0.8250300000000000 N
   0.9118000000000001   -0.0775700000000000   -0.0478199999999999 O
   0.6399700000000000    0.8652100000000000    0.8887200000000000 O
   0.6183400000000000    0.5964500000000000    0.6666666666666666 O
   0.3993900000000000    0.6013200000000000    0.5703800000000000 O
