Ca4 H9 C21 N3 O12
1.0
   6.2484931097032836    0.0000000000000000    1.2787563716324513
   0.0045567480280179   12.2899986820215616    0.0034105653008396
   0.0000000000000000    0.0000000000000000   15.5126000000000008
Ca H C N O
4 9 21 3 12
direct
   0.2969600000000000    0.5476100000000000    0.4413400000000000 Ca
   0.2968900000000000    0.9524600000000000    0.9413400000000000 Ca
   0.7028799999999999    0.4525300000000000    0.5586800000000000 Ca
   0.7027000000000000    0.0474500000000000    0.0588000000000000 Ca
   0.2504500000000000    0.2980500000000000    0.2126400000000000 H
   0.4900300000000000    0.2107600000000000    0.2389300000000000 H
   0.9853700000000000    0.3945400000000000    0.3260600000000000 H
   0.7497300000000000    0.7984200000000000    0.2874300000000000 H
   0.5098500000000000    0.7110000000000000    0.2617400000000000 H
   0.0149900000000000    0.8946100000000000    0.1739200000000000 H
   0.2502800000000000    0.2019200000000000    0.7127700000000000 H
   0.4901500000000000    0.2892900000000000    0.7385000000000000 H
   0.9850900000000000    0.1057100000000000    0.8262900000000000 H
   0.7154000000000000    0.3106600000000000    0.2918000000000000 C
   0.0102200000000000    0.2006200000000000    0.1687500000000000 C
   0.0813700000000000    0.2793800000000000    0.2208800000000000 C
   0.6569900000000000    0.2321000000000000    0.2356100000000000 C
   0.9328400000000000    0.3341400000000000    0.2837200000000000 C
   0.5527300000000001    0.3736700000000000    0.3559800000000000 C
   0.1673400000000000    0.1334900000000000    0.1041600000000000 C
   0.2846900000000000    0.8105599999999999    0.2083200000000000 C
   0.9897400000000000    0.7005800000000000    0.3312500000000000 C
   0.9187400000000000    0.7794800000000000    0.2791300000000000 C
   0.3429200000000000    0.7322600000000000    0.2647900000000000 C
   0.0673800000000000    0.8340800000000000    0.2162400000000000 C
   0.4473100000000000    0.8733800000000000    0.1440100000000000 C
   0.8326300000000000    0.6335400000000000    0.3959000000000000 C
   0.7153200000000000    0.1896900000000000    0.7918800000000000 C
   0.0102400000000000    0.2996700000000000    0.6689000000000001 C
   0.0812600000000000    0.2208400000000000    0.7210700000000000 C
   0.6570900000000000    0.2680000000000000    0.7354100000000000 C
   0.9326500000000000    0.1662200000000000    0.7839699999999999 C
   0.5526600000000000    0.1267300000000000    0.8560800000000000 C
   0.1672700000000000    0.3666200000000000    0.6041299999999999 C
   0.7995800000000000    0.1776900000000000    0.1753400000000000 N
   0.2001100000000000    0.6779300000000000    0.3250200000000000 N
   0.7998499999999999    0.3223200000000000    0.6751500000000000 N
   0.0887600000000000    0.0777300000000000    0.0478800000000000 O
   0.3602000000000000    0.1350500000000000    0.1115200000000000 O
   0.3814500000000000    0.4035300000000000    0.3332500000000000 O
   0.6003200000000000    0.3996100000000000    0.4295100000000000 O
   0.9112500000000000    0.5776600000000000    0.4521400000000000 O
   0.6397500000000000    0.6352200000000000    0.3886000000000000 O
   0.6185900000000000    0.9033800000000000    0.1666600000000000 O
   0.3994200000000000    0.8990400000000000    0.0704700000000000 O
   0.0883800000000000    0.4223100000000000    0.5478400000000000 O
   0.3602300000000000    0.3650500000000000    0.6113600000000000 O
   0.3819000000000000    0.0964000000000000    0.8331900000000000 O
   0.5999000000000000    0.1012700000000000    0.9297800000000001 O
