H5 O3
1.0
  13.9709999468023760    0.0000000000000000   -0.0012191997474323
  -0.0038265133501218   15.6609993798668761    0.0021866881061323
   0.0000000000000000    0.0000000000000000   39.2120000000000033
H O
5 3
direct
   0.6311770650879167    0.0559309695306661    0.2555605714960142 H
   0.6012726245817372    0.1471097740481737    0.2692941900979948 H
   0.5266237267310625    0.2948696590646753    0.2432798346005904 H
   0.2870710320727468    0.1822151478071778    0.2777237929919892 H
   0.4104310303449294    0.2336051847613315    0.2615203770032299 H
   0.6398800000000000    0.1173600000000000    0.2522000000000000 O
   0.4584200000000000    0.2884700000000000    0.2471400000000000 O
   0.3250100000000000    0.2255900000000000    0.2663550000000000 O
