Cd8 H320 C285 N30 O63
1.0
  13.9709999468023760    0.0000000000000000   -0.0012191997474323
  -0.0038265133501218   15.6609993798668761    0.0021866881061323
   0.0000000000000000    0.0000000000000000   39.2120000000000033
Cd H C N O
8 320 285 30 63
direct
   0.1906800000000000    0.6398400000000000    0.9857500000000000 Cd
   0.8096700000000000    0.1407600000000000    0.7640850000000000 Cd
   0.3092200000000000    0.3602800000000000    0.7357100000000000 Cd
   0.6908900000000000    0.8600100000000001    0.5142500000000000 Cd
   0.1906800000000000    0.6398400000000000    0.4857500000000000 Cd
   0.3092200000000000    0.3602800000000000    0.2357100000000000 Cd
   0.8096700000000000    0.1407600000000000    0.2640850000000000 Cd
   0.6908900000000000    0.8600100000000001    0.0142500000000000 Cd
   0.6311770650879167    0.0559309695306661    0.2555605714960142 H
   0.6012726245817372    0.1471097740481737    0.2692941900979948 H
   0.2575900000000000    0.4644700000000000    0.8048000000000000 H
   0.2369900000000000    0.3284400000000000    0.8054399999999999 H
   0.1714800000000000    0.9902900000000000    0.7598250000000000 H
   0.2315100000000000    0.0874900000000000    0.7718000000000000 H
   0.1048500000000000    0.0881500000000000    0.7636149999999999 H
   0.0280300000000000    0.3945000000000000    0.9189450000000000 H
   0.1102200000000000    0.4516100000000000    0.8671650000000000 H
   0.0260900000000000    0.1042700000000000    0.9104600000000000 H
   0.0766900000000000    0.9957900000000000    0.8671150000000001 H
   0.1779300000000000    0.1955500000000000    0.8012400000000000 H
   0.9389900000000000    0.3764700000000000    0.7031750000000000 H
   0.8853600000000000    0.4438700000000000    0.7564450000000000 H
   0.0073300000000000    0.5593800000000000    0.7570250000000001 H
   0.9987500000000000    0.5198700000000001    0.7147749999999999 H
   0.9557099999999999    0.3539900000000000    0.8014850000000000 H
   0.0116900000000000    0.4553100000000000    0.8046750000000000 H
   0.0883000000000000    0.2871600000000000    0.7788800000000000 H
   0.1620000000000000    0.5097100000000000    0.7641150000000000 H
   0.1654200000000000    0.4958700000000000    0.7193000000000001 H
   0.0961700000000000    0.2701700000000000    0.7229750000000000 H
   0.1034600000000000    0.3618900000000000    0.6963500000000000 H
   0.2148800000000000    0.6348100000000000    0.7501800000000001 H
   0.2246700000000000    0.7466900000000000    0.7523350000000000 H
   0.3758700000000000    0.8210600000000000    0.7377199999999999 H
   0.4859900000000000    0.7670200000000000    0.7427600000000000 H
   0.4904200000000000    0.6103000000000000    0.7457150000000000 H
   0.3556800000000000    0.6748300000000000    0.7153849999999999 H
   0.3535200000000000    0.8332100000000000    0.7968400000000000 H
   0.4737400000000000    0.8008500000000000    0.8015500000000000 H
   0.2638400000000000    0.6140600000000001    0.8065100000000001 H
   0.4188800000000000    0.5759800000000000    0.8131500000000000 H
   0.5095400000000000    0.6509200000000001    0.8025200000000000 H
   0.0545000000000000    0.7310400000000000    0.8189200000000000 H
   0.2065700000000000    0.8006300000000000    0.8129250000000000 H
   0.3944800000000000    0.0814300000000000    0.8543200000000000 H
   0.2989500000000000    0.0181700000000000    0.8372100000000000 H
   0.4147000000000000    0.9708900000000000    0.8442250000000000 H
   0.2769000000000000    0.8771600000000001    0.8439000000000000 H
   0.3106200000000000    0.9499500000000000    0.9487500000000000 H
   0.2483500000000000    0.8087000000000000    0.9676250000000000 H
   0.1576500000000000    0.5596500000000000    0.9147449999999999 H
   0.1574600000000000    0.5871700000000000    0.8519399999999999 H
   0.0613200000000000    0.8744600000000000    0.0468000000000000 H
   0.7433000000000000    0.9645600000000000    0.9451300000000000 H
   0.7630300000000000    0.8285700000000000    0.9444750000000000 H
   0.8287700000000000    0.4901500000000000    0.9901350000000000 H
   0.7686300000000000    0.5872800000000000    0.9781550000000000 H
   0.8953400000000000    0.5880500000000000    0.9862900000000000 H
   0.9719200000000000    0.8944100000000000    0.8309700000000000 H
   0.8899300000000000    0.9514800000000000    0.8827849999999999 H
   0.9231900000000000    0.4956700000000000    0.8828050000000001 H
   0.9737200000000000    0.6041600000000000    0.8393999999999999 H
   0.8219700000000000    0.6953300000000000    0.9486650000000000 H
   0.9115300000000000    0.7863800000000000    0.9710449999999999 H
   0.8390400000000000    0.0091700000000000    0.9859500000000000 H
   0.8354900000000000    0.9950599999999999    0.0307700000000000 H
   0.9033800000000000    0.7690900000000001    0.0269350000000000 H
   0.8967500000000000    0.8607399999999999    0.0535900000000000 H
   0.0444100000000000    0.8528700000000000    0.9484000000000000 H
   0.9889600000000000    0.9544300000000000    0.9454000000000000 H
   0.1152900000000000    0.9420900000000000    0.9935950000000000 H
   0.9940400000000000    0.0580700000000000    0.9931000000000000 H
   0.0023000000000000    0.0182800000000000    0.0353450000000000 H
   0.5096600000000000    0.1099400000000000    0.0042850000000000 H
   0.7851100000000000    0.1344300000000000    0.9997400000000001 H
   0.7754900000000000    0.2463300000000000    0.9976350000000000 H
   0.6444600000000000    0.1744700000000000    0.0345900000000000 H
   0.5141300000000000    0.2666800000000000    0.0072750000000000 H
   0.6242700000000000    0.3207500000000000    0.0122900000000000 H
   0.7361200000000000    0.1139300000000000    0.9434100000000001 H
   0.6464500000000000    0.3330300000000000    0.9531600000000000 H
   0.5262200000000000    0.3006100000000000    0.9484500000000000 H
   0.5810800000000000    0.0757900000000000    0.9368300000000001 H
   0.4904300000000000    0.1506600000000000    0.9474850000000000 H
   0.9454300000000000    0.2310800000000000    0.9310149999999999 H
   0.7933200000000000    0.3005500000000000    0.9370550000000000 H
   0.6054100000000000    0.5814200000000000    0.8957800000000000 H
   0.7008900000000000    0.5181300000000000    0.9128499999999999 H
   0.5851499999999999    0.4708400000000000    0.9058200000000001 H
   0.7229900000000000    0.3771400000000000    0.9061300000000000 H
   0.6893600000000000    0.4503300000000000    0.8013000000000000 H
   0.7516500000000000    0.3092200000000000    0.7823750000000000 H
   0.8422900000000000    0.0599700000000000    0.8351150000000001 H
   0.8424500000000000    0.0872300000000000    0.8979349999999999 H
   0.5612500000000000    0.6252400000000000    0.4533900000000000 H
   0.2419900000000000    0.5360600000000000    0.5547750000000000 H
   0.2628800000000000    0.6721900000000000    0.5555150000000000 H
   0.3329400000000000    0.0096900000000000    0.5095950000000000 H
   0.2710800000000000    0.9135700000000000    0.5217950000000000 H
   0.3977200000000000    0.9108800000000000    0.5135400000000000 H
   0.4706500000000000    0.6051299999999999    0.6691900000000000 H
   0.3883200000000000    0.5485100000000001    0.6173450000000000 H
   0.4260000000000000    0.0040500000000000    0.6171250000000000 H
   0.4747700000000000    0.8953400000000000    0.6606550000000000 H
   0.3236100000000000    0.8049100000000000    0.5512200000000000 H
   0.4115200000000000    0.7133100000000000    0.5290049999999999 H
   0.3386400000000000    0.4907000000000000    0.5141800000000000 H
   0.3349300000000000    0.5046100000000000    0.4693650000000000 H
   0.4033000000000000    0.7306200000000000    0.4731100000000000 H
   0.3967500000000000    0.6388900000000000    0.4464900000000000 H
   0.5439400000000000    0.6465300000000000    0.5517600000000000 H
   0.4882300000000000    0.5450600000000000    0.5547050000000000 H
   0.6148500000000000    0.5574300000000000    0.5066000000000001 H
   0.4935100000000000    0.4415400000000000    0.5068950000000000 H
   0.5017700000000000    0.4815900000000000    0.4647150000000000 H
   0.0093600000000000    0.3898700000000000    0.4957050000000000 H
   0.2848600000000000    0.3653600000000000    0.5000000000000000 H
   0.2751400000000000    0.2534700000000000    0.5022700000000000 H
   0.1238300000000000    0.1790500000000000    0.4877300000000000 H
   0.0137400000000000    0.2331200000000000    0.4927750000000000 H
   0.1439900000000000    0.3252700000000000    0.4653500000000000 H
   0.2361300000000000    0.3860700000000000    0.5564450000000000 H
   0.1463000000000000    0.1669400000000000    0.5468500000000001 H
   0.0261100000000000    0.1993700000000000    0.5515950000000001 H
   0.0811200000000000    0.4242100000000000    0.5631100000000000 H
   0.9903800000000000    0.3493000000000000    0.5525300000000000 H
   0.4454200000000000    0.2686900000000000    0.5688000000000000 H
   0.2932700000000000    0.1994600000000000    0.5628649999999999 H
   0.0871300000000000    0.0000000000000000    0.5936000000000000 H
   0.1076300000000000    0.9178600000000000    0.6040000000000000 H
   0.2034600000000000    0.9814100000000000    0.5873400000000000 H
   0.2235200000000000    0.1227800000000000    0.5938250000000000 H
   0.1887600000000000    0.0501400000000000    0.6986650000000000 H
   0.2509300000000000    0.1914100000000000    0.7175549999999999 H
   0.3419800000000000    0.4404100000000000    0.6646950000000000 H
   0.3421800000000000    0.4129600000000000    0.6018950000000000 H
   0.4390600000000000    0.1257600000000000    0.7967400000000000 H
   0.7574700000000000    0.0360900000000000    0.6952300000000000 H
   0.7370600000000000    0.1722000000000000    0.6944100000000000 H
   0.6667999999999999    0.5098500000000000    0.7403250000000000 H
   0.7287600000000000    0.4137600000000000    0.7281750000000000 H
   0.6020900000000000    0.4110000000000000    0.7363649999999999 H
   0.5293099999999999    0.1052300000000000    0.5807599999999999 H
   0.6114600000000000    0.0486200000000000    0.6326400000000000 H
   0.5740300000000000    0.5041600000000001    0.6327700000000001 H
   0.5253100000000001    0.3954400000000000    0.5890000000000000 H
   0.6764300000000000    0.3051000000000000    0.6985000000000000 H
   0.5885899999999999    0.2137900000000000    0.7209000000000000 H
   0.6613000000000000    0.9911600000000000    0.7359300000000000 H
   0.6650000000000000    0.0053100000000000    0.7807250000000000 H
   0.5968300000000000    0.2312700000000000    0.7768050000000000 H
   0.6035900000000000    0.1397000000000000    0.8035099999999999 H
   0.4558700000000000    0.1472000000000000    0.6983600000000000 H
   0.5113100000000000    0.0456600000000000    0.6953650000000000 H
   0.3850700000000000    0.0580500000000000    0.7435550000000000 H
   0.5063600000000000    0.9421400000000000    0.7431850000000000 H
   0.4981700000000000    0.9821200000000000    0.7853650000000000 H
   0.9904400000000000    0.8903100000000000    0.7543100000000000 H
   0.7149700000000000    0.8657100000000000    0.7498450000000000 H
   0.7246600000000000    0.7538200000000000    0.7477450000000000 H
   0.8557500000000000    0.8256900000000000    0.7846600000000000 H
   0.9860700000000000    0.7336000000000000    0.7573050000000000 H
   0.8759800000000000    0.6794600000000000    0.7623000000000000 H
   0.7637100000000000    0.8862500000000000    0.6934950000000000 H
   0.8537800000000000    0.6672400000000001    0.7031950000000000 H
   0.9739300000000000    0.6998400000000000    0.6984950000000000 H
   0.9186900000000000    0.9245900000000000    0.6868900000000000 H
   0.0095000000000000    0.8498000000000000    0.6974950000000000 H
   0.5545800000000000    0.7686300000000000    0.6811600000000000 H
   0.7067900000000000    0.6995500000000000    0.6871950000000000 H
   0.8924200000000000    0.4178600000000000    0.6461900000000000 H
   0.7966900000000000    0.4814700000000000    0.6629000000000000 H
   0.9130300000000000    0.5282200000000000    0.6565200000000000 H
   0.6580400000000000    0.9401200000000000    0.5852100000000000 H
   0.6577700000000000    0.9128600000000000    0.6480200000000000 H
   0.8112300000000000    0.5497700000000000    0.5515050000000000 H
   0.7490400000000000    0.6909300000000000    0.5325150000000000 H
   0.7765000000000000    0.6227800000000000    0.6562950000000000 H
   0.2148800000000000    0.6348100000000000    0.2501800000000000 H
   0.2246700000000000    0.7466900000000000    0.2523350000000000 H
   0.3758700000000000    0.8210600000000000    0.2377200000000000 H
   0.4859900000000000    0.7670200000000000    0.2427600000000000 H
   0.4904200000000000    0.6103000000000000    0.2457150000000000 H
   0.3556800000000000    0.6748300000000000    0.2153850000000000 H
   0.3535200000000000    0.8332100000000000    0.2968400000000000 H
   0.4737400000000000    0.8008500000000000    0.3015500000000000 H
   0.2638400000000000    0.6140600000000001    0.3065100000000000 H
   0.4188800000000000    0.5759800000000000    0.3131500000000000 H
   0.5095400000000000    0.6509200000000001    0.3025200000000000 H
   0.0545000000000000    0.7310400000000000    0.3189200000000000 H
   0.2065700000000000    0.8006300000000000    0.3129250000000000 H
   0.3944800000000000    0.0814300000000000    0.3543200000000000 H
   0.2989500000000000    0.0181700000000000    0.3372100000000000 H
   0.4147000000000000    0.9708900000000000    0.3442250000000000 H
   0.2769000000000000    0.8771600000000001    0.3439000000000000 H
   0.3106200000000000    0.9499500000000000    0.4487500000000000 H
   0.2483500000000000    0.8087000000000000    0.4676250000000000 H
   0.1576500000000000    0.5596500000000000    0.4147450000000000 H
   0.1574600000000000    0.5871700000000000    0.3519400000000000 H
   0.5266237267310625    0.2948696590646753    0.2432798346005904 H
   0.2870710320727468    0.1822151478071778    0.2777237929919892 H
   0.4104310303449294    0.2336051847613315    0.2615203770032299 H
   0.2575900000000000    0.4644700000000000    0.3048000000000000 H
   0.2369900000000000    0.3284400000000000    0.3054400000000000 H
   0.1714800000000000    0.9902900000000000    0.2598250000000000 H
   0.2315100000000000    0.0874900000000000    0.2718000000000000 H
   0.1048500000000000    0.0881500000000000    0.2636150000000000 H
   0.0280300000000000    0.3945000000000000    0.4189450000000000 H
   0.1102200000000000    0.4516100000000000    0.3671650000000000 H
   0.0260900000000000    0.1042700000000000    0.4104600000000000 H
   0.0766900000000000    0.9957900000000000    0.3671150000000000 H
   0.1779300000000000    0.1955500000000000    0.3012400000000000 H
   0.9389900000000000    0.3764700000000000    0.2031750000000000 H
   0.8853600000000000    0.4438700000000000    0.2564450000000000 H
   0.0073300000000000    0.5593800000000000    0.2570250000000000 H
   0.9987500000000000    0.5198700000000001    0.2147750000000000 H
   0.9557099999999999    0.3539900000000000    0.3014850000000000 H
   0.0116900000000000    0.4553100000000000    0.3046750000000000 H
   0.0883000000000000    0.2871600000000000    0.2788800000000000 H
   0.1620000000000000    0.5097100000000000    0.2641150000000000 H
   0.1654200000000000    0.4958700000000000    0.2193000000000000 H
   0.0961700000000000    0.2701700000000000    0.2229750000000000 H
   0.1034600000000000    0.3618900000000000    0.1963500000000000 H
   0.0613200000000000    0.8744600000000000    0.5468000000000000 H
   0.7433000000000000    0.9645600000000000    0.4451300000000000 H
   0.7630300000000000    0.8285700000000000    0.4444750000000000 H
   0.8287700000000000    0.4901500000000000    0.4901350000000000 H
   0.7686300000000000    0.5872800000000000    0.4781550000000000 H
   0.8953400000000000    0.5880500000000000    0.4862900000000000 H
   0.9719200000000000    0.8944100000000000    0.3309700000000000 H
   0.8899300000000000    0.9514800000000000    0.3827850000000000 H
   0.9231900000000000    0.4956700000000000    0.3828050000000000 H
   0.9737200000000000    0.6041600000000000    0.3394000000000000 H
   0.8219700000000000    0.6953300000000000    0.4486650000000000 H
   0.9115300000000000    0.7863800000000000    0.4710450000000000 H
   0.8390400000000000    0.0091700000000000    0.4859500000000000 H
   0.8354900000000000    0.9950599999999999    0.5307700000000000 H
   0.9033800000000000    0.7690900000000001    0.5269350000000000 H
   0.8967500000000000    0.8607399999999999    0.5535900000000000 H
   0.0444100000000000    0.8528700000000000    0.4484000000000000 H
   0.9889600000000000    0.9544300000000000    0.4454000000000000 H
   0.1152900000000000    0.9420900000000000    0.4935950000000000 H
   0.9940400000000000    0.0580700000000000    0.4931000000000000 H
   0.0023000000000000    0.0182800000000000    0.5353450000000000 H
   0.5096600000000000    0.1099400000000000    0.5042850000000000 H
   0.7851100000000000    0.1344300000000000    0.4997400000000000 H
   0.7754900000000000    0.2463300000000000    0.4976350000000000 H
   0.6444600000000000    0.1744700000000000    0.5345900000000000 H
   0.5141300000000000    0.2666800000000000    0.5072750000000000 H
   0.6242700000000000    0.3207500000000000    0.5122900000000000 H
   0.7361200000000000    0.1139300000000000    0.4434100000000000 H
   0.6464500000000000    0.3330300000000000    0.4531600000000000 H
   0.5262200000000000    0.3006100000000000    0.4484500000000000 H
   0.5810800000000000    0.0757900000000000    0.4368300000000000 H
   0.4904300000000000    0.1506600000000000    0.4474850000000000 H
   0.9454300000000000    0.2310800000000000    0.4310150000000000 H
   0.7933200000000000    0.3005500000000000    0.4370550000000000 H
   0.6054100000000000    0.5814200000000000    0.3957800000000000 H
   0.7008900000000000    0.5181300000000000    0.4128500000000000 H
   0.5851499999999999    0.4708400000000000    0.4058200000000000 H
   0.7229900000000000    0.3771400000000000    0.4061300000000000 H
   0.6893600000000000    0.4503300000000000    0.3013000000000000 H
   0.7516500000000000    0.3092200000000000    0.2823750000000000 H
   0.8422900000000000    0.0599700000000000    0.3351150000000000 H
   0.8424500000000000    0.0872300000000000    0.3979350000000000 H
   0.9904400000000000    0.8903100000000000    0.2543100000000000 H
   0.7149700000000000    0.8657100000000000    0.2498450000000000 H
   0.7246600000000000    0.7538200000000000    0.2477450000000000 H
   0.8557500000000000    0.8256900000000000    0.2846600000000000 H
   0.9860700000000000    0.7336000000000000    0.2573050000000000 H
   0.8759800000000000    0.6794600000000000    0.2623000000000000 H
   0.7637100000000000    0.8862500000000000    0.1934950000000000 H
   0.8537800000000000    0.6672400000000001    0.2031950000000000 H
   0.9739300000000000    0.6998400000000000    0.1984950000000000 H
   0.9186900000000000    0.9245900000000000    0.1868900000000000 H
   0.0095000000000000    0.8498000000000000    0.1974950000000000 H
   0.5545800000000000    0.7686300000000000    0.1811600000000000 H
   0.7067900000000000    0.6995500000000000    0.1871950000000000 H
   0.8924200000000000    0.4178600000000000    0.1461900000000000 H
   0.7966900000000000    0.4814700000000000    0.1629000000000000 H
   0.9130300000000000    0.5282200000000000    0.1565200000000000 H
   0.6580400000000000    0.9401200000000000    0.0852100000000000 H
   0.6577700000000000    0.9128600000000000    0.1480200000000000 H
   0.8112300000000000    0.5497700000000000    0.0515050000000000 H
   0.7490400000000000    0.6909300000000000    0.0325150000000000 H
   0.7765000000000000    0.6227800000000000    0.1562950000000000 H
   0.5612500000000000    0.6252400000000000    0.9533900000000000 H
   0.2419900000000000    0.5360600000000000    0.0547750000000000 H
   0.2628800000000000    0.6721900000000000    0.0555150000000000 H
   0.3329400000000000    0.0096900000000000    0.0095950000000000 H
   0.2710800000000000    0.9135700000000000    0.0217950000000000 H
   0.3977200000000000    0.9108800000000000    0.0135400000000000 H
   0.4706500000000000    0.6051299999999999    0.1691900000000000 H
   0.3883200000000000    0.5485100000000001    0.1173450000000000 H
   0.4260000000000000    0.0040500000000000    0.1171250000000000 H
   0.4747700000000000    0.8953400000000000    0.1606550000000000 H
   0.3236100000000000    0.8049100000000000    0.0512200000000000 H
   0.4115200000000000    0.7133100000000000    0.0290050000000000 H
   0.3386400000000000    0.4907000000000000    0.0141800000000000 H
   0.3349300000000000    0.5046100000000000    0.9693650000000000 H
   0.4033000000000000    0.7306200000000000    0.9731099999999999 H
   0.3967500000000000    0.6388900000000000    0.9464900000000001 H
   0.5439400000000000    0.6465300000000000    0.0517600000000000 H
   0.4882300000000000    0.5450600000000000    0.0547050000000000 H
   0.6148500000000000    0.5574300000000000    0.0066000000000000 H
   0.4935100000000000    0.4415400000000000    0.0068950000000000 H
   0.5017700000000000    0.4815900000000000    0.9647150000000000 H
   0.0093600000000000    0.3898700000000000    0.9957050000000001 H
   0.2848600000000000    0.3653600000000000    0.0000000000000000 H
   0.2751400000000000    0.2534700000000000    0.0022700000000000 H
   0.1238300000000000    0.1790500000000000    0.9877300000000000 H
   0.0137400000000000    0.2331200000000000    0.9927750000000000 H
   0.1439900000000000    0.3252700000000000    0.9653499999999999 H
   0.2361300000000000    0.3860700000000000    0.0564450000000000 H
   0.1463000000000000    0.1669400000000000    0.0468500000000000 H
   0.0261100000000000    0.1993700000000000    0.0515950000000000 H
   0.0811200000000000    0.4242100000000000    0.0631100000000000 H
   0.9903800000000000    0.3493000000000000    0.0525300000000000 H
   0.4454200000000000    0.2686900000000000    0.0688000000000000 H
   0.2932700000000000    0.1994600000000000    0.0628650000000000 H
   0.0871300000000000    0.0000000000000000    0.0936000000000000 H
   0.1076300000000000    0.9178600000000000    0.1040000000000000 H
   0.2034600000000000    0.9814100000000000    0.0873400000000000 H
   0.2235200000000000    0.1227800000000000    0.0938250000000000 H
   0.1887600000000000    0.0501400000000000    0.1986650000000000 H
   0.2509300000000000    0.1914100000000000    0.2175550000000000 H
   0.3419800000000000    0.4404100000000000    0.1646950000000000 H
   0.3421800000000000    0.4129600000000000    0.1018950000000000 H
   0.1724900000000000    0.3660500000000000    0.8118050000000000 C
   0.1647900000000000    0.0504700000000000    0.7739000000000000 C
   0.0526700000000000    0.3510000000000000    0.8990000000000000 C
   0.0693400000000000    0.2121600000000000    0.8799200000000000 C
   0.0983400000000000    0.3833500000000000    0.8697600000000000 C
   0.1280700000000000    0.3290300000000000    0.8440250000000000 C
   0.0579600000000000    0.1234500000000000    0.8862850000000000 C
   0.0851600000000000    0.0639700000000000    0.8624800000000000 C
   0.1414300000000000    0.1764700000000000    0.8244950000000000 C
   0.1246800000000000    0.0908300000000000    0.8309250000000000 C
   0.1137900000000000    0.2393100000000000    0.8487050000000000 C
   0.9719500000000000    0.3542600000000000    0.7270350000000000 C
   0.9153500000000000    0.2755600000000000    0.7382200000000000 C
   0.9612500000000000    0.4268600000000000    0.7535000000000001 C
   0.0201100000000000    0.5030500000000000    0.7409500000000000 C
   0.0032700000000000    0.3988600000000000    0.7882000000000000 C
   0.1010400000000000    0.3558900000000000    0.7818900000000000 C
   0.1269600000000000    0.4780500000000000    0.7426699999999999 C
   0.0805600000000000    0.3386500000000000    0.7215100000000000 C
   0.2607300000000000    0.6866600000000000    0.7594350000000001 C
   0.4112200000000000    0.7685300000000000    0.7500000000000000 C
   0.3772100000000000    0.5229700000000000    0.7515000000000001 C
   0.4208600000000000    0.6106800000000000    0.7550000000000000 C
   0.3607100000000000    0.6840000000000001    0.7430450000000000 C
   0.4043300000000000    0.7818700000000000    0.7906900000000000 C
   0.2737300000000000    0.6808900000000000    0.7986200000000000 C
   0.4349500000000000    0.6322900000000000    0.7974500000000000 C
   0.1977200000000000    0.7318400000000000    0.8184100000000001 C
   0.3623200000000000    0.0176900000000000    0.8538000000000000 C
   0.2708800000000000    0.8618500000000000    0.8708000000000000 C
   0.2990200000000000    0.9207400000000000    0.8951450000000001 C
   0.2893200000000000    0.9014900000000000    0.9303350000000000 C
   0.2559900000000000    0.8231600000000000    0.9405600000000001 C
   0.1789100000000000    0.6216699999999999    0.9046000000000001 C
   0.2304900000000000    0.7599000000000000    0.9163049999999999 C
   0.1791200000000000    0.6376100000000000    0.8694400000000000 C
   0.2056000000000000    0.7166800000000000    0.8567050000000000 C
   0.2355800000000000    0.7802800000000000    0.8805750000000000 C
   0.0282100000000000    0.8525300000000000    0.0229150000000000 C
   0.0842200000000000    0.7734799999999999    0.0117200000000000 C
   0.8278400000000000    0.8658500000000000    0.9381650000000000 C
   0.8353699999999999    0.5503200000000000    0.9760550000000000 C
   0.9472699999999999    0.8508900000000000    0.8509100000000001 C
   0.9305300000000000    0.7120200000000000    0.8699800000000000 C
   0.9017100000000000    0.8832200000000000    0.8801700000000000 C
   0.8720000000000000    0.8288600000000000    0.9059050000000000 C
   0.9147200000000000    0.5638300000000001    0.8874350000000000 C
   0.9418800000000001    0.6233200000000000    0.8636200000000001 C
   0.8584600000000000    0.6762899999999999    0.9254000000000000 C
   0.8752400000000000    0.5906700000000000    0.9189499999999999 C
   0.8861400000000000    0.7391500000000000    0.9012050000000000 C
   0.8991500000000000    0.8551700000000000    0.9680800000000001 C
   0.8738700000000000    0.9772000000000000    0.0073900000000000 C
   0.9194800000000000    0.8374900000000000    0.0284400000000000 C
   0.9971400000000000    0.8977900000000000    0.9617899999999999 C
   0.0393200000000000    0.9253300000000000    0.9962800000000001 C
   0.9808800000000000    0.0017000000000000    0.0091500000000000 C
   0.5791900000000000    0.1104000000000000    0.9909850000000000 C
   0.6229200000000000    0.0227300000000000    0.9983100000000000 C
   0.7393300000000000    0.1863600000000000    0.9904999999999999 C
   0.6393900000000000    0.1837000000000000    0.0069350000000000 C
   0.5888800000000000    0.2682400000000000    0.9984999999999999 C
   0.7262400000000000    0.1807300000000000    0.9513300000000000 C
   0.5956700000000000    0.2816400000000000    0.9593149999999999 C
   0.5650300000000000    0.1320600000000000    0.9525000000000000 C
   0.8022100000000000    0.2317900000000000    0.9315500000000000 C
   0.6375600000000000    0.5176900000000000    0.8962850000000000 C
   0.7290400000000000    0.3619500000000000    0.8792200000000000 C
   0.7009300000000001    0.4209200000000000    0.8549050000000000 C
   0.7106500000000000    0.4018100000000000    0.8197050000000000 C
   0.7439900000000000    0.3235500000000000    0.8094450000000000 C
   0.8210300000000000    0.1219400000000000    0.8452850000000001 C
   0.7694800000000001    0.2602100000000000    0.8336650000000000 C
   0.8207800000000000    0.1377300000000000    0.8804500000000000 C
   0.7943300000000000    0.2167400000000000    0.8932500000000000 C
   0.7643500000000000    0.2804300000000000    0.8694000000000000 C
   0.5280400000000000    0.6471700000000000    0.4772550000000000 C
   0.5840800000000000    0.7262500000000000    0.4884650000000000 C
   0.3272300000000000    0.6343800000000001    0.5618850000000000 C
   0.3385300000000000    0.9495800000000000    0.5237500000000000 C
   0.4464700000000000    0.6487700000000000    0.6492150000000000 C
   0.4310500000000000    0.7876900000000000    0.6300800000000000 C
   0.4007400000000000    0.6166900000000000    0.6199400000000000 C
   0.3716700000000000    0.6711600000000000    0.5941500000000000 C
   0.4169300000000000    0.9359300000000000    0.6125200000000000 C
   0.4431100000000000    0.8763300000000001    0.6364000000000000 C
   0.3600100000000000    0.8237700000000000    0.5745150000000000 C
   0.3777600000000000    0.9092700000000000    0.5808850000000000 C
   0.3866900000000000    0.7607900000000000    0.5988100000000000 C
   0.3988000000000000    0.6445800000000000    0.5320050000000000 C
   0.3734300000000000    0.5225500000000000    0.4927000000000000 C
   0.4193600000000000    0.6622100000000000    0.4716450000000000 C
   0.4966200000000000    0.6017400000000001    0.5383500000000000 C
   0.5389200000000000    0.5742900000000000    0.5038700000000000 C
   0.4804100000000000    0.4980300000000000    0.4909250000000000 C
   0.0789600000000000    0.3894500000000000    0.5089650000000000 C
   0.1226800000000000    0.4771100000000000    0.5000000000000000 C
   0.2390700000000000    0.3134700000000000    0.5093750000000000 C
   0.0885300000000000    0.2316000000000000    0.5000000000000000 C
   0.1390400000000000    0.3161100000000000    0.4930150000000000 C
   0.2261800000000000    0.3192400000000000    0.5485650000000000 C
   0.0955100000000000    0.2183000000000000    0.5407000000000000 C
   0.0649800000000000    0.3678900000000000    0.5474700000000000 C
   0.3021700000000000    0.2682300000000000    0.5683549999999999 C
   0.1393900000000000    0.9817600000000000    0.6035850000000000 C
   0.2292700000000000    0.1381100000000000    0.6207300000000000 C
   0.2009500000000000    0.0792400000000000    0.6450549999999999 C
   0.2102400000000000    0.0985700000000000    0.6802500000000000 C
   0.2434900000000000    0.1769100000000000    0.6904900000000000 C