H4 C8 O4
1.0
  31.1329182968943101    0.0000000000000000    9.0154945687357362
   4.4923340633148188   30.8152912709781788    9.0414095996341945
   0.0000000000000000    0.0000000000000000   18.3889999999999993
H C O
4 8 4
direct
   0.5957766666666666    0.5220500000000000    0.5858100000000001 H
   0.6653533333333332    0.5272666666666667    0.6142500000000000 H
   0.6683066666666666    0.4724233333333333    0.3859200000000000 H
   0.7377699999999999    0.4779500000000000    0.4144100000000000 H
   0.6276466666666667    0.4969833333333333    0.4838800000000000 C
   0.5865600000000000    0.4942766666666666    0.4645600000000000 C
   0.6268866666666666    0.5123900000000000    0.5485100000000001 C
   0.6656500000000000    0.5152266666666667    0.5644100000000000 C
   0.6679233333333333    0.4845433333333333    0.4357100000000000 C
   0.7057066666666666    0.5030200000000000    0.5162800000000000 C
   0.7466699999999999    0.5058199999999999    0.5358400000000000 C
   0.7066199999999999    0.4875433333333333    0.4516500000000000 C
   0.5493300000000000    0.5048100000000000    0.5085700000000000 O
   0.5885533333333333    0.4824066666666667    0.4032500000000000 O
   0.7840166666666666    0.4955900000000000    0.4918200000000000 O
   0.7444866666666666    0.5174666666666666    0.5974400000000000 O
