H6 O4
1.0
  31.1329182968943101    0.0000000000000000    9.0154945687357362
   4.4923340633148188   30.8152912709781788    9.0414095996341945
   0.0000000000000000    0.0000000000000000   18.3889999999999993
H O
6 4
direct
   0.7200481578001147    0.5267725973379475    0.6366317216851002 H
   0.7934462803191015    0.4865563237367564    0.4430174966340124 H
   0.7563089062832087    0.5061408277363774    0.5362545782058813 H
   0.5453380430756101    0.5153886111216271    0.5548312025308192 H
   0.5848871905548647    0.4921218764007266    0.4457354718610360 H
   0.6120366599609994    0.4740269452622384    0.3617516778672157 H
   0.7444866666666666    0.5174666666666666    0.5974400000000000 O
   0.7840166666666666    0.4955900000000000    0.4918200000000000 O
   0.5493300000000000    0.5048100000000000    0.5085700000000000 O
   0.5885533333333333    0.4824066666666667    0.4032500000000000 O
